sxx,syy,szz,sxy,sxz,syz,smises
-2.423598910871140322e-01,-1.164348435412000393e+00,1.073155714896208535e+00,-1.635836534583973434e-01,-1.595262911101971437e-01,-5.339576535321356038e-02,1.989651322364807129e+00
-2.735236770485123259e-01,-1.080828039076205727e+00,1.312170363105019666e+00,-1.908516588859432428e-02,1.481545177309188388e-01,1.413544294602887309e-02,2.124581098556518555e+00
-4.008243942923229719e-01,-1.101890060365796176e+00,1.177551300366217690e+00,-7.337354991912228494e-03,-1.198725682350655769e-01,3.789781459981751005e-02,2.033933639526367188e+00
-2.911681089768807240e-01,-1.372538286406658870e+00,1.393700014652971442e+00,-1.084507906114069720e-01,8.427934159670257691e-03,-1.936831421421038313e-01,2.445024728775024414e+00
-3.632859004229780364e-01,-1.066087660351135114e+00,9.986827164018590164e-01,-6.925113226973532432e-02,-2.704652707345787666e-01,7.945745030951924248e-02,1.886495351791381836e+00
-3.303761428436592373e-01,-1.397413301339708536e+00,1.134949073793006802e+00,-5.801349844143818824e-02,-2.206729848110355885e-01,1.802235742829299547e-01,2.258966684341430664e+00
-9.324418822617120961e-01,-8.137606426695881412e-01,1.082781696663252857e+00,6.395917141167412057e-02,-4.828214323026084123e-03,5.901677439143271364e-02,1.964391350746154785e+00
-8.823655536245655906e-01,-8.024428805860767122e-01,1.031240884445245420e+00,4.424200120735388014e-02,2.276041970340913004e-02,2.991629291642219912e-02,1.877617597579956055e+00
-9.196129129781662748e-01,-8.031358137390856022e-01,1.089499926303633570e+00,8.984216562456249708e-03,2.042337965206919223e-02,5.471788326815809657e-03,1.953885555267333984e+00
-9.031700048637497646e-01,-8.033780395198790725e-01,1.000263999647702740e+00,8.544534314265064823e-03,-3.392246597307245135e-03,-4.615669291474625013e-02,1.857341408729553223e+00
-8.703228547815113902e-01,-8.053272597980445369e-01,9.944316483321520295e-01,-3.509511090883723605e-03,1.530010305790952679e-02,-5.586229285863755084e-02,1.835874199867248535e+00
-8.607502385610364959e-01,-8.391012039466062555e-01,1.001336265484386701e+00,1.663805820374026148e-02,1.795420786815262251e-02,5.334335862666944768e-03,1.851865410804748535e+00
-8.635400381393062430e-01,-7.866846575999199009e-01,9.927041239024503305e-01,5.225111372603200195e-03,4.496035858202936455e-03,-8.149466208779076667e-03,1.819128513336181641e+00
-8.239105943929176945e-01,-7.599599243274985927e-01,1.034502675168139874e+00,-5.405967117216729095e-02,2.438050906355948826e-03,-1.912542136680034713e-02,1.829979538917541504e+00
-8.699144478870317609e-01,-8.526652373650818184e-01,1.001239240252058238e+00,8.121039873562774236e-03,-3.214403182969084033e-02,2.548678152251433651e-03,1.863479256629943848e+00
-7.979804239384648001e-01,-7.924876078154574621e-01,9.763614186707045839e-01,-8.315362808110858539e-02,2.812534867562286461e-02,-7.479641820305167957e-03,1.778161287307739258e+00
-8.523396334188291235e-01,-7.442220135332278108e-01,1.024058556966357392e+00,-6.342601666409448946e-02,2.603098190459588596e-02,-5.734941457342888904e-02,1.831299066543579102e+00
-7.779903447785811998e-01,-8.441890574072076214e-01,1.013333288801937515e+00,-7.510932319572513616e-02,6.147993085370403316e-02,9.298390274028990599e-03,1.833119988441467285e+00
-8.158194149360994407e-01,-7.667745663524822008e-01,1.026141824520575341e+00,-5.702983652404183118e-02,8.264298386925703066e-04,-7.231913139226183937e-03,1.820660352706909180e+00
-8.999540921185624764e-01,-7.323974990322869028e-01,1.080348524330511761e+00,-1.485937450838990814e-01,-7.075066666273475968e-02,2.176128025425611359e-02,1.923678517341613770e+00
-8.274563271219421701e-01,-8.363462057657303772e-01,1.052327477606527006e+00,-5.918209207901303608e-03,-9.222310282098643980e-03,1.071167038652780581e-02,1.884431362152099609e+00
-8.071175521330988811e-01,-8.136196295698658876e-01,1.049673534726707658e+00,-8.339432514667474705e-02,1.978644677108797739e-02,1.001671051765302099e-04,1.865965366363525391e+00
-6.872650859767089893e-01,-8.260304589110821771e-01,1.001866887465466149e+00,-1.210587990249726298e-01,-1.001577361071044198e-01,1.027104589703959209e-01,1.792351603507995605e+00
-8.436846440296367211e-01,-7.999864871651152232e-01,1.053600516986843871e+00,-3.170801488570629961e-02,5.601506675915471183e-03,-4.715659149881251157e-03,1.876664519309997559e+00
-8.731430720826933722e-01,-8.436901623707593334e-01,1.020611614079480090e+00,-2.941232294749747053e-02,1.348274900817468362e-02,-3.257055435389171610e-02,1.880882978439331055e+00
-8.148108612845932353e-01,-7.431777685610309048e-01,1.024455561310777085e+00,-8.824180045801480188e-02,-5.897975295109515737e-02,4.357820465785650771e-02,1.815426349639892578e+00
-8.374942189140067716e-01,-7.947165571962740982e-01,1.000985813767650390e+00,-3.036385224143339084e-02,-4.151905115127536849e-03,2.373876077782784491e-02,1.818708658218383789e+00
-8.690937693257371199e-01,-7.736944825029875572e-01,9.817195345237752502e-01,-3.986676847611177188e-02,1.309691790261386692e-02,2.180774562788087567e-02,1.806863069534301758e+00
-8.945401675066957381e-01,-7.882196906839327166e-01,1.074491102837734191e+00,-3.281813268503155218e-02,-1.163915009644713242e-02,1.460464075170629129e-02,1.919197082519531250e+00
-8.343818486379195321e-01,-8.697017837870711920e-01,9.488612880626281498e-01,7.732704909667514892e-03,1.663602231261002888e-03,1.401363299982841260e-02,1.801378488540649414e+00
-7.085246366088676639e-01,-8.661742463331938424e-01,7.929854750926670359e-01,4.939271770565015901e-02,9.690861855464139030e-02,-2.526995571019258549e-02,1.597969651222229004e+00
-7.591229004318399420e-01,-9.399556861203733904e-01,1.048672320515001255e+00,-3.105180438114345937e-03,8.674031737947773824e-02,-1.581067786126338567e-02,1.910780787467956543e+00
-6.573177058547604590e-01,-8.508511618049401370e-01,1.026467183147732776e+00,-2.209043955916688284e-02,-7.655330429410201962e-03,-2.336259461416310794e-03,1.788885593414306641e+00
-6.928052953949322967e-01,-9.541988714428153440e-01,1.075945883293356165e+00,-6.334193828935338021e-03,-4.798116290989683230e-02,-1.244942224484652318e-02,1.914847135543823242e+00
-7.107701524704210794e-01,-9.413091420790814512e-01,1.034107725005209977e+00,1.391725877107569120e-02,-3.209863817134699093e-02,-6.034496513434464519e-03,1.871841549873352051e+00
-7.812813990662549335e-01,-9.112977337150419688e-01,8.106541551504793386e-01,-1.479306074350243520e-02,1.844630673917488362e-01,-3.577422924841960200e-02,1.692547321319580078e+00
-5.852514775528210311e-01,-1.034132113531694319e+00,1.031512182895142349e+00,7.686015442393074465e-03,-4.246895291101509401e-02,3.069045074222730238e-03,1.883286714553833008e+00
-7.310129401233733670e-01,-9.284437106725929034e-01,9.197307104638141606e-01,-2.127930634657025297e-02,-1.306926480316453892e-02,-7.547799677863379578e-04,1.758326888084411621e+00
-8.465155198646809875e-01,-8.364402178853460601e-01,9.641310543708168090e-01,-2.345610245560276683e-03,4.288178256006126149e-03,1.307857730928166200e-02,1.805791974067687988e+00
-8.495724307379213247e-01,-8.665453641458673584e-01,9.959548134038422873e-01,2.913413319446992410e-03,2.162786597836281223e-03,1.659300195219867019e-02,1.854305386543273926e+00
-8.445658396593566097e-01,-8.543486695176054635e-01,9.248796916045194383e-01,7.696931785550031012e-03,-1.040699239572021387e-02,4.489577629313969143e-02,1.776201844215393066e+00
-6.142236314345470571e-01,-9.011431677150563146e-01,1.129804146033490220e+00,2.021221924870762465e-01,2.743687076613555986e-02,5.377125107345830102e-03,1.936299681663513184e+00
-7.160031664366199866e-01,-7.261231859245242948e-01,3.616672557587111703e-01,7.609177749723329380e-03,1.068987743763121501e-01,3.295820811579660420e-02,1.100043892860412598e+00
-7.324883392092954582e-01,-8.697416422122157265e-01,1.277957148994421033e+00,2.935311231086771278e-01,-1.552631014582564993e-02,-1.430633711936766042e-02,2.143942356109619141e+00
-8.667262795074474058e-01,-8.606917399687266101e-01,1.045880617118090994e+00,2.670660333728301118e-03,4.632966199331793773e-03,-2.997010981066476360e-03,1.909626245498657227e+00
-4.694188436084799076e-01,-9.471972281885649991e-01,1.491120425108911407e+00,3.046726248100529166e-01,2.916521312632493397e-04,-5.830803470127504662e-02,2.301600694656372070e+00
-5.513829098829581277e-01,-8.133027842945866892e-01,1.129654773149634694e+00,3.725891247484866553e-01,-1.344047993884246450e-01,-1.222325812585443872e-01,1.962210774421691895e+00
-1.017897826530552052e+00,-6.278063332734388213e-01,1.099887711825848768e+00,3.720441572889757187e-02,-2.794710646171824284e-02,3.298624732403053483e-02,1.954690933227539062e+00
-9.068561573151922017e-01,-7.432207894345225219e-01,9.940565863161336946e-01,-5.347871324261470674e-03,-2.124476197822599416e-02,4.713383310559247225e-02,1.826826214790344238e+00
-9.434781621738083102e-01,-8.030194845985597629e-01,1.052190282188601334e+00,-2.677248596123954494e-02,3.746841386521428119e-02,-2.938989873252167290e-02,1.931596636772155762e+00
-9.300242983874419389e-01,-6.209067638574454762e-01,1.026903463444657216e+00,-1.283548456110374103e-01,-4.330468726467590068e-02,3.697086707367028269e-02,1.838300943374633789e+00
-9.551680008386966847e-01,-7.063116764820182025e-01,1.090968413487346744e+00,-6.093529161346927098e-02,-1.292908983199382925e-02,5.115772735394645554e-02,1.938788771629333496e+00
-9.430084371180736946e-01,-7.321123157255121638e-01,1.049173858042714569e+00,-4.933936161142633836e-02,2.071902494106290377e-02,-5.803228184186259679e-03,1.897845029830932617e+00
-9.340698133609921516e-01,-7.578774577495289710e-01,1.009672023604725188e+00,1.384322514703869092e-02,-1.608971218921885840e-02,4.362674646861004757e-02,1.863803863525390625e+00
-8.310892579130738644e-01,-8.314694299133159605e-01,8.758871857730339272e-01,-1.040388390331299824e-02,2.311524500776898638e-02,2.801793246188362049e-02,1.708420395851135254e+00
-8.617267128092489514e-01,-8.206073220033911486e-01,9.018637637516855321e-01,-3.808348495719325426e-03,2.825412335191519308e-03,-1.482896020464537570e-02,1.743602991104125977e+00
-8.715762289922646122e-01,-8.635588966404259548e-01,9.687738294862953126e-01,4.903689002358773037e-03,4.574994713435558656e-03,-8.697275435985582503e-02,1.842559576034545898e+00
-8.496865012564043251e-01,-7.703089101990115983e-01,6.613793085067571909e-01,-4.103096814168043227e-02,3.463609831619111901e-02,-1.972814092703090161e-01,1.514953970909118652e+00
-9.400313218948149752e-01,-5.516385431873852552e-01,1.048044425622796316e+00,-8.219924219951120492e-02,5.967741616301897034e-03,3.732857174341957379e-02,1.831856250762939453e+00
-8.387486499285683461e-01,-8.646269739659526721e-01,9.292194724147346818e-01,-3.570086351553192899e-03,2.517927320958540313e-02,-3.168148369588926622e-02,1.782437801361083984e+00
-7.947605867515317168e-01,-8.392822255714629254e-01,7.044898198008875401e-01,-4.243672149987980091e-02,8.773187882176548824e-02,-1.371339565746430011e-01,1.549643039703369141e+00
-8.282346505893051214e-01,-8.767239898619907379e-01,1.055468466175711439e+00,1.820850787280164571e-02,3.987252206292626194e-02,-1.329840625380951380e-02,1.910058379173278809e+00
-8.928619247369216083e-01,-7.321372354521838988e-01,1.068384816124454018e+00,-2.917177933501048648e-02,-8.043422815966016701e-03,3.137403498407731472e-02,1.887538194656372070e+00
-8.516144248981472042e-01,-8.714527497784669841e-01,1.015348090938231085e+00,3.107172313471078147e-03,-1.721208449132925408e-02,-2.950649124526595612e-02,1.877900362014770508e+00
-7.453051129727483737e-01,-8.587785963568050907e-01,8.717759207759421258e-01,5.973539985741352365e-02,6.452124680110207788e-02,-1.490615429883655231e-02,1.683800339698791504e+00
-8.949498665558321964e-01,-7.874197542731045107e-01,1.032668611958053706e+00,-2.746186431668658223e-02,-4.683768988053520882e-04,-3.140780488366808065e-02,1.877557277679443359e+00
-8.247846153929675461e-01,-8.599991496008567715e-01,1.029705112984668602e+00,6.776562950428399734e-02,3.381392022553353360e-02,-2.026539958717466991e-02,1.877262830734252930e+00
-8.544257075152092984e-01,-8.499332159067934933e-01,1.022242494464378870e+00,1.804371744378270928e-02,-1.281805176119317664e-02,8.389276906325720401e-03,1.874874234199523926e+00
-7.838278343482287802e-01,-8.523269914266032865e-01,9.433687715729326406e-01,9.632546217468868077e-02,6.193668883194927005e-02,7.144490053549237829e-02,1.777883291244506836e+00
-6.161056372874754716e-01,-8.052193882771754296e-01,1.213294659265319098e+00,-2.234306665971981798e-01,-2.887154017818636606e-02,-1.421103037688274846e-02,1.970102667808532715e+00
-7.365798373309786484e-01,-7.939318500188045080e-01,1.098489188880761303e+00,-2.470303031593270304e-01,2.423351735528819946e-03,-1.330595225779420895e-02,1.913016796112060547e+00
-8.597432873065732339e-01,-8.631878661962192334e-01,1.044530451230404999e+00,-2.255160953794024207e-03,-7.383004959271392657e-03,-2.890929485036571218e-03,1.906051874160766602e+00
-8.300909662780340259e-01,-7.358914115021208957e-01,1.088134844195856488e+00,-1.677507457462640295e-01,-1.421154843236836470e-03,-4.234543324039770178e-03,1.895322799682617188e+00
-7.845834276078025304e-01,-7.335641644897236135e-01,1.024187166776022062e+00,-1.761451854844810483e-01,2.891360651179533323e-02,1.685112834494571082e-02,1.810638904571533203e+00
-6.502295931861343803e-01,-7.436349946495039998e-01,9.776318706653563950e-01,-1.334984578917429165e-01,7.339658439271786253e-04,-4.749501558875835958e-03,1.692407608032226562e+00
-6.509234163900368131e-01,-7.480254011894540422e-01,9.863625920726564189e-01,-1.326186573227290666e-01,3.121570559461179367e-03,-4.327721659906435571e-03,1.703515887260437012e+00
-6.428682353061807575e-01,-8.660232478457944305e-01,1.020445129983309274e+00,-1.668933153013993642e-01,-1.092886452483061760e-04,-9.134426424282813053e-03,1.808700323104858398e+00
-6.804615857624587427e-01,-7.875371665240230579e-01,1.061169982975050496e+00,-1.064105119322162896e-01,3.038948943638872593e-02,-4.943939849444211471e-02,1.809780359268188477e+00
-8.570680128765274519e-01,-8.534404437684356415e-01,8.845451754494588759e-01,-7.510774320802030349e-03,3.980369333860486747e-02,9.863081099638808247e-02,1.749576568603515625e+00
-8.447254636696225338e-01,-8.271863169239319635e-01,9.124772003184828950e-01,3.660405362497311937e-03,3.106557582748966859e-02,2.220841596960259137e-02,1.749761104583740234e+00
-8.437986319276261638e-01,-8.171743139066295347e-01,9.183068060285723977e-01,-2.529750712880807217e-03,8.987174141485223394e-03,5.203850795957853936e-02,1.751340985298156738e+00
-9.185229905319758359e-01,-7.470784455582805128e-01,9.364056535236882084e-01,5.085013405560764171e-02,6.230714497461893597e-02,1.348485526020792857e-01,1.796132564544677734e+00
-8.652468266606465619e-01,-8.276391753870345758e-01,9.623186541770081259e-01,8.407575634430326447e-03,6.324147762695676162e-03,4.122838880610515955e-02,1.810555458068847656e+00
-8.873808574326670362e-01,-8.552735037577519073e-01,1.052241963701384675e+00,7.411827881388503153e-03,-2.555307910031503343e-02,1.397800782034767063e-02,1.924474239349365234e+00
-8.648180064765748076e-01,-8.615997745400481023e-01,1.033231682197190304e+00,3.182158044889320594e-03,9.257127019217029421e-03,-3.374550690945674405e-03,1.896527409553527832e+00
-9.012147278625618485e-01,-8.255004752175045812e-01,1.017794437976898170e+00,1.760115642553178317e-02,4.933412531451145111e-03,6.856712463397539358e-04,1.882561087608337402e+00
-8.372324387161926840e-01,-8.166714578904794575e-01,6.907975172818989762e-01,-6.329215946168202829e-03,-1.634971575721110293e-01,-5.921211404375807154e-03,1.544117808341979980e+00
-7.754667851301457748e-01,-8.494802666595573371e-01,5.945767285460205054e-01,1.486686616732403729e-03,-1.671762994558899096e-01,1.636664056992712668e-01,1.465642929077148438e+00
-8.702438665173118926e-01,-8.308047939719488406e-01,7.918459069620191748e-01,5.849251418262880467e-04,-3.223075025354368850e-02,8.998048961654656758e-03,1.643747806549072266e+00
-8.592649945141381806e-01,-8.628376648813080863e-01,1.071666073879856462e+00,-1.717802626522518371e-03,4.600142656106508306e-03,-6.762030330513880191e-04,1.932738900184631348e+00
-8.394712995278087453e-01,-8.291241382033270879e-01,7.751633441440750616e-01,7.499284687279838234e-03,-1.581032669720451242e-02,1.196380488426537422e-02,1.609904766082763672e+00
-8.381076624873922132e-01,-8.170086996013434799e-01,7.770739850927206316e-01,1.641003479542889332e-02,-9.267608033616622776e-02,8.640284434177045170e-02,1.619922518730163574e+00
-7.692303268105771252e-01,-7.817201871698404858e-01,5.267023018461289841e-01,1.301623313953218647e-02,-1.613979323176389924e-01,1.338525472140317252e-01,1.352105379104614258e+00
-7.568278134323564998e-01,-8.127358246337157421e-01,6.693577992665337151e-01,-3.395211430154975590e-02,1.444421032525673165e-01,-5.482387483151356100e-02,1.480517506599426270e+00
-7.291950140096611355e-01,-8.795947934393617551e-01,8.136352330128027166e-01,-1.334433409590086474e-02,1.064492482172948451e-01,-4.477638300429073043e-02,1.635704755783081055e+00
-8.442051405907355921e-01,-9.349941550488637398e-01,1.079879300964690980e+00,-2.683574834792257224e-02,2.833587216379674853e-02,-1.557880897118835151e-02,1.972391128540039062e+00
-8.846176638220815125e-01,-8.577535619997073146e-01,9.162264681744611838e-01,3.570418180654816743e-03,8.151576868069161652e-02,-3.828576599509399964e-02,1.794367074966430664e+00
-8.716834345466326628e-01,-8.929036545244217749e-01,1.035400680311700405e+00,-1.157104268565307308e-03,4.340131017180792750e-02,3.052160749814544424e-02,1.919983983039855957e+00
-8.347827794384795608e-01,-8.569269124371170498e-01,1.010857708485213946e+00,1.656120569269581635e-02,-2.158489748610844389e-02,-3.576198947417664337e-03,1.857419729232788086e+00
-8.409329205074350666e-01,-8.572998685948788333e-01,1.029815749108362599e+00,6.563987460065889325e-03,-5.335415315243396094e-03,-1.379413824795456059e-02,1.879194617271423340e+00
-8.433544171715290361e-01,-8.548145634110573265e-01,1.023650008647087661e+00,4.642669527993481711e-03,1.857517497925306738e-02,2.083849836046820433e-02,1.873402118682861328e+00
-8.309594648498834779e-01,-8.598805611314925823e-01,1.004922364584560857e+00,-2.272093623650579299e-03,3.551050963610154904e-02,-1.771715306191852871e-02,1.851792216300964355e+00
-9.112265719132003339e-01,-6.598674475433277120e-01,1.016530847900466883e+00,-9.923300178720016740e-02,1.869757011431207039e-02,-2.724112947299345625e-02,1.824194908142089844e+00
-8.381578761195485061e-01,-8.486113694109607142e-01,9.610694351558117798e-01,1.363923695058342003e-02,8.801687454632856067e-02,4.040275961017077838e-02,1.812410712242126465e+00
-8.440210336190825391e-01,-8.249169308591416394e-01,8.270407552279621655e-01,-2.896917674740971671e-02,8.853766681091579382e-02,-4.421221270905060369e-02,1.671163320541381836e+00
-8.371405452255752389e-01,-8.319823426840432523e-01,9.257767979730451291e-01,-2.439666448793962814e-02,1.916984758406310675e-03,1.467499878178789643e-02,1.761037588119506836e+00
-8.812779729170107101e-01,-8.421492155007448410e-01,9.489841234543221482e-01,1.133253930070955533e-02,1.249500395392812505e-02,-1.367909586452228064e-02,1.811405420303344727e+00
-8.425882511094592298e-01,-8.612339137685728341e-01,9.129244369059992259e-01,-1.462072226621341942e-03,5.156868235360313052e-02,-2.169976169047781872e-02,1.767569541931152344e+00
-8.622546950516892794e-01,-8.496993119469491429e-01,8.975910157393327538e-01,3.202212690863954353e-02,-2.754516797799084343e-02,-8.378187833104915397e-03,1.755187153816223145e+00
-8.547686908235802017e-01,-8.471088222063489770e-01,9.547293963069709566e-01,1.502293312431339165e-02,2.021989842638565599e-02,3.884933728994974765e-03,1.806219935417175293e+00
-8.566845288137822090e-01,-8.584828069716515797e-01,9.178143087811396761e-01,2.910633484766796467e-02,5.655383419941031192e-02,-5.123293565223360768e-02,1.781025409698486328e+00
-8.418336581625408543e-01,-8.769668358536478747e-01,9.465277501746796052e-01,-1.121499108111211930e-02,1.527511694113431809e-02,-2.716928884805970557e-02,1.807095289230346680e+00
-7.837851477282707924e-01,-8.071534438773664277e-01,1.028703935403248115e+00,2.601549319922859781e-03,1.326543002961353942e-03,-1.491187134651205011e-02,1.824475288391113281e+00
-6.573596832013341995e-01,-6.729822923965069759e-01,1.017209970301721000e+00,-2.516809748539887703e-01,2.384665385748805169e-02,-2.668818318984869306e-02,1.739097833633422852e+00
-7.288129472317239621e-01,-6.596257146113233549e-01,9.853173951261853247e-01,-1.371436149107131131e-01,-1.212429550938698072e-02,-5.436455136699620784e-04,1.697439432144165039e+00
-7.589793712857009211e-01,-7.277276748495795644e-01,1.014607711307898397e+00,-6.623147655917981103e-02,-1.074084723254038927e-02,1.370305525836527406e-02,1.762166142463684082e+00
-7.808208565749200636e-01,-6.839672314710747436e-01,1.011926554698405756e+00,-1.066873435405415044e-01,-5.982414303838503103e-03,1.323992325037534785e-02,1.756265878677368164e+00
-7.442590013266306981e-01,-6.558322570574005583e-01,9.875710531749422039e-01,-1.415083045765380132e-01,2.036088414608753713e-03,-4.426853338869417460e-03,1.707061648368835449e+00
-7.312935015692455520e-01,-7.357076087218387128e-01,1.001754764568212330e+00,-6.598844867986780605e-02,2.893699013340579260e-02,-2.098239126464285925e-02,1.740121245384216309e+00
-8.070239705322981294e-01,-8.169613591457826063e-01,7.668041353429411178e-01,-1.405411889507997975e-02,-6.022576052131459710e-03,-3.015368968182772363e-02,1.579905867576599121e+00
-9.135575505674798924e-01,-6.728448853546508124e-01,1.046389201153667958e+00,8.879673781809706637e-03,-1.235564376306638908e-02,1.857721445780723818e-02,1.851831436157226562e+00
-8.495608183432543647e-01,-8.261869426668920768e-01,7.602761110711331316e-01,-1.841109953458215653e-02,-5.868271448987887745e-02,-3.118354060133794736e-02,1.602734565734863281e+00
-8.451014779609993255e-01,-8.098829529281640349e-01,9.092818556474828728e-01,-8.322758576971356955e-04,2.936897952267257181e-03,5.280231060135710808e-02,1.739455819129943848e+00
-8.781715950124306946e-01,-8.612200204723217123e-01,1.049751664349783953e+00,-1.880902581098172627e-02,1.719412583727381386e-02,4.880593394700734333e-02,1.921871066093444824e+00
-8.374706324013585501e-01,-8.004041748346549801e-01,8.625092544654300308e-01,-4.038198662408274721e-03,-1.611171079843666185e-02,6.268624287975192722e-02,1.685499787330627441e+00
-8.596545477632613341e-01,-8.431433481204599900e-01,9.264105196921506025e-01,-2.330430995242210174e-02,-8.155890459130029843e-03,3.279612341800688946e-02,1.779288172721862793e+00
-8.659536845648168057e-01,-8.098225507607961227e-01,9.109832495339287295e-01,-6.276788727234597354e-02,-8.084227047753669848e-02,-5.412614013233053162e-02,1.761002182960510254e+00
-6.625845697241565802e-01,-8.543902581970399535e-01,4.391793160967293330e-01,1.412066818725755124e-01,-2.596622517688261800e-01,-8.725857400596883848e-03,1.313132762908935547e+00
-8.571235788172991699e-01,-7.837176235427922855e-01,8.878691050936324825e-01,-2.615877747102219458e-02,6.716381517016429235e-03,-2.861877104521612022e-02,1.710830330848693848e+00
-8.317574549661902461e-01,-8.929428864047904701e-01,1.055096293668560614e+00,1.903949430548530688e-03,-6.016118230167830962e-03,1.233912218510811037e-02,1.918328642845153809e+00
-8.096479926958238815e-01,-8.962763219868373765e-01,1.070537432093121133e+00,5.259366933296217780e-03,-1.021512136488107736e-02,1.222582876221639872e-02,1.925181388854980469e+00
-1.042398581536701396e+00,-4.824547821922944291e-01,1.525428967082085530e+00,3.801019387654174242e-01,7.833600323175500535e-02,1.615471488845233311e-02,2.433528661727905273e+00
-8.514404901667407266e-01,-8.490945149519287805e-01,1.063955565541436998e+00,-2.760674189889079574e-03,-1.544122905814606685e-02,2.293367225464863074e-03,1.914421081542968750e+00
-8.513502188085042555e-01,-8.483296998395097877e-01,1.065501929660152669e+00,-2.066536702811223175e-03,2.696486561674697746e-03,1.332327417815338914e-02,1.915491700172424316e+00
-8.480606773728575076e-01,-8.556139913389839702e-01,1.047188997814783029e+00,-3.689196204721812474e-03,-2.580351685028049735e-03,-1.491540449298801689e-02,1.899229288101196289e+00
-1.062841471629214274e+00,-2.912852132108799119e-01,5.181344377659097278e-01,-7.720490450131341220e-02,-6.884344894597137221e-02,-1.527495962298477394e-01,1.406082987785339355e+00
-8.610721228500322066e-01,-8.623800729740326299e-01,1.030287585596838307e+00,6.782314419830725964e-03,-1.301764359244830024e-03,-1.347830287963325225e-03,1.892053246498107910e+00
-8.497741206374825884e-01,-8.434151003853441741e-01,1.015950819248232717e+00,-1.338515058169016886e-03,2.151047629759723922e-04,3.942568870212404333e-03,1.862567543983459473e+00
-8.801563378297049267e-01,-8.601430048443369225e-01,1.042420255057980416e+00,7.267442005481781955e-04,-9.391480692955426340e-03,4.444317934164628177e-03,1.912733554840087891e+00
-8.614417955087083634e-01,-8.595375515328936844e-01,1.070098606425523569e+00,-9.041442962462285663e-04,-1.185033872623734823e-02,1.294586945178552786e-02,1.930828928947448730e+00
-8.700132972501156692e-01,-8.272821258570955960e-01,1.053053858191794978e+00,2.137382237368809675e-03,-6.823804391601718221e-03,1.551025933889973096e-03,1.902103781700134277e+00
-8.584981446213623135e-01,-8.632454780724719834e-01,1.063219862940800953e+00,4.000821195114934517e-03,-1.321549267540740764e-02,5.784529809683748060e-03,1.924270749092102051e+00
-8.531835236364462283e-01,-8.520881831687304730e-01,1.027740974223555703e+00,-1.165405127045931934e-03,7.793452730690104101e-04,-6.224327915589865194e-03,1.880409598350524902e+00
-8.612180808195065707e-01,-8.624921873997877242e-01,1.056241059853036290e+00,4.227363810700648580e-03,-1.030661272759876915e-02,4.091345187623902230e-03,1.918206691741943359e+00
-8.580779850010636922e-01,-8.512892383307634203e-01,1.053924363820636367e+00,-1.919649534789302303e-03,-5.441662116235767427e-03,2.389565620227501481e-03,1.908647656440734863e+00
-8.623132058129983069e-01,-8.631174778636090394e-01,1.060441511599144349e+00,2.903542333998018754e-03,-1.017459914985499765e-02,9.040009406363055944e-03,1.923308014869689941e+00
-8.521965975647542990e-01,-8.501501670628132112e-01,1.062902440737812704e+00,-5.983007635200937894e-04,-1.146764422718171868e-02,3.215156076864046208e-03,1.914188027381896973e+00
-8.936303319892331398e-01,-8.608229968098152218e-01,1.025223736095411509e+00,6.170608151623296553e-03,2.287600813581059517e-02,-3.829696316774037351e-02,1.904260754585266113e+00
-8.603562895091917406e-01,-6.967837729525657720e-01,1.081027366093128217e+00,-1.684105823050973672e-01,7.803070021483700380e-02,-1.219663553997111377e-02,1.892608880996704102e+00
-8.204671886530535696e-01,-7.454325591003544416e-01,1.022710158222004839e+00,-7.800349846848804447e-02,5.927937193453770154e-02,-1.933975476446644914e-02,1.815089106559753418e+00
-7.907867046755782114e-01,-8.423717680427394994e-01,1.031625489206198898e+00,-8.655894434057392894e-02,4.099859272806950089e-02,-5.503128913787785209e-02,1.858618259429931641e+00
-7.694028459813293530e-01,-8.041849902865279009e-01,1.096455588855001384e+00,-1.415748526910333149e-01,5.307662380895720317e-02,-4.573689654841182201e-02,1.903258562088012695e+00
-7.459813905266775569e-01,-6.905419370142007462e-01,1.018670216499950820e+00,-1.862908793672901353e-01,-2.399754793117264001e-02,3.282595179236626887e-02,1.768703103065490723e+00
-8.369038916794562244e-01,-8.594421171416206651e-01,1.083897725850260452e+00,5.759101744828337005e-02,-5.510311972766979843e-02,-6.020820433082541001e-02,1.939900159835815430e+00
-8.350092368284574018e-01,-7.450694836850300096e-01,1.042007746075676700e+00,9.332195675785355526e-02,-2.531780423863704346e-02,-1.989131102136024870e-02,1.841656923294067383e+00
-8.446893355557151262e-01,-7.806207537586201672e-01,1.072603669192066622e+00,1.185254828370974484e-01,-3.343287249194008132e-02,-3.916189464218507166e-02,1.899309873580932617e+00
-5.708078250395218767e-01,-8.129719620052611173e-01,1.022856786509131810e+00,2.257201100382762449e-01,-6.643596366206119819e-02,-4.447612959352187367e-02,1.776615619659423828e+00
-8.447493694549399468e-01,-7.611321735746090500e-01,1.078599102185730851e+00,1.212808909411111358e-01,-2.680094507378796148e-02,-3.239338830550896747e-03,1.895191192626953125e+00
-6.590232969074011349e-01,-8.505276378413638705e-01,1.068549936572885439e+00,2.831581187869305349e-01,-1.978935617843500042e-02,-6.190972864732402492e-02,1.898744225502014160e+00
-7.317389398552361923e-01,-8.655462174714344536e-01,1.064492760541741356e+00,1.458201037494567531e-01,-4.402071404488025474e-02,-4.153265838959176864e-02,1.886658549308776855e+00
-8.934154337452883121e-01,-5.303321843102538624e-01,9.158682213642952430e-01,-3.053987750951924762e-01,-3.393540804269504219e-02,6.877532477657431753e-02,1.745241045951843262e+00
-6.432178548560482101e-01,-6.895915184782194229e-01,1.014397522497323401e+00,2.386643157918039437e-01,-2.730381790457886079e-02,-1.309782155353473275e-02,1.732149600982666016e+00
-9.063654091257997703e-01,-8.207775577796118105e-01,8.372994985800130685e-01,-1.467446082714402196e-02,4.087225578188866115e-02,-2.204343264588783796e-02,1.704573631286621094e+00
-9.629869065561290631e-01,-8.701143462277703966e-01,8.783063697845872042e-01,4.246772766695960932e-02,-1.329395824948603061e-02,1.623052073750893068e-02,1.798530459403991699e+00
-8.656260752941461467e-01,-8.610788098307461391e-01,8.860292421928728235e-01,6.164515997655974078e-03,-1.677175557273542133e-03,-7.090716012452985550e-02,1.753726840019226074e+00
-8.420834176575114904e-01,-7.814147932801154273e-01,7.173373408325591782e-01,-2.528383530855334450e-03,1.520018215969039937e-02,-1.130765152670735879e-01,1.542704463005065918e+00
-8.410202158029330688e-01,-8.061916620158238178e-01,7.306887440365574804e-01,1.512993441405971300e-02,-6.118944587173922624e-03,-1.022025212066871996e-01,1.564888715744018555e+00
-8.592597785988266290e-01,-8.528986530062008242e-01,8.407272068253173192e-01,-1.354227510185834413e-02,3.672224487739179227e-02,-1.909036675322841464e-02,1.698490977287292480e+00
-8.771311404750866680e-01,-7.741813665517733867e-01,7.332790405711318016e-01,-2.321185958549208672e-02,2.791825571230318812e-02,-8.904032919406326685e-02,1.570339918136596680e+00
-8.749425768724461427e-01,-8.917871519378118839e-01,8.361150075645098489e-01,-2.685785541468984836e-02,-2.350253521260019934e-02,5.032462576499061729e-02,1.722858905792236328e+00
-8.942205047185887157e-01,-8.456102671191481068e-01,1.043651660587879615e+00,5.107624614657982343e-03,1.006761667933494045e-02,2.767789612770092146e-03,1.914135932922363281e+00
-8.552905828088009921e-01,-7.974424079165425283e-01,1.038316238311245865e+00,5.202939546717974539e-02,5.488799338998782973e-02,6.073310055126016072e-02,1.872905850410461426e+00
-8.668711721962935046e-01,-8.366564305246381172e-01,1.015590664969096668e+00,8.262074471560675384e-03,-1.280385608468447706e-02,-9.977387560746326864e-03,1.867804288864135742e+00
-8.415517479511530619e-01,-8.446860039473341741e-01,1.062327681516634259e+00,-1.732916067433603810e-02,5.768112426100436771e-03,1.791636632683838142e-03,1.905713558197021484e+00
-8.703293830651032126e-01,-8.289578359823958076e-01,1.038250199157939813e+00,7.654015303990296601e-03,-1.371453831535739999e-02,1.237265609697719808e-02,1.888551354408264160e+00
-8.163582395378731205e-01,-8.567196079307169976e-01,1.013038514205080842e+00,7.439800522339409805e-02,2.433789190830985480e-02,-1.992597011910255539e-02,1.855190515518188477e+00
-8.534755325944259896e-01,-8.613740256665611827e-01,1.029404250681393851e+00,-4.316708951625036306e-04,-4.101060064076436987e-03,5.146520929400792352e-03,1.886875987052917480e+00
-8.655285120118094699e-01,-8.616004657621700868e-01,1.044741401989277341e+00,3.755306623177388954e-03,-3.591123474582806098e-03,1.535444850614348664e-03,1.908331990242004395e+00
-8.927609318294372764e-01,-8.239891533950274294e-01,1.024912171182193577e+00,5.524593864113591657e-02,-4.701467134154137424e-03,-3.954274133290049814e-02,1.887917280197143555e+00
-8.618070404280373520e-01,-9.011189401275399025e-01,1.088603381964831751e+00,-4.881392098961516435e-02,1.527982021247703548e-02,1.175313705684160985e-02,1.972456336021423340e+00
-7.857896630810475846e-01,-8.466124167789254029e-01,9.116133363929674882e-01,-2.941730001820395957e-02,-6.042738659790642015e-03,9.851643229881390171e-04,1.729400396347045898e+00
-8.513541767017483997e-01,-8.553200363010123874e-01,9.447091992804328431e-01,-2.941907085046410568e-03,-1.683774328223387740e-02,-1.719243351104334915e-03,1.798295736312866211e+00
-8.671874031613370226e-01,-8.616527032659917484e-01,9.672461257622404496e-01,4.459150290664902136e-03,-4.858630983114458485e-02,3.577997168860073962e-02,1.834667801856994629e+00
-8.623693072405207438e-01,-8.373764054355182784e-01,1.003432534645504859e+00,-1.536329064878701883e-02,-1.023933437155959483e-02,-3.688130605561168451e-02,1.854807972908020020e+00
-7.478752369036277825e-01,-9.529714923061551879e-01,1.083645385833136299e+00,3.201188702224282839e-02,5.664084845050879752e-02,1.538721232126260587e-02,1.945656538009643555e+00
-7.241927572638036104e-01,-9.684742007155713317e-01,1.089246785419088592e+00,6.322944936803650759e-03,-2.389083800676018027e-02,-2.372951271442367161e-03,1.947581887245178223e+00
-7.444161701730188652e-01,-9.826416034961079626e-01,8.345926727251828936e-01,5.903985536975953075e-02,-1.067202534230256156e-01,-1.232184935843899792e-01,1.736765265464782715e+00
-5.497059942603259586e-01,-1.040014806595841890e+00,9.449854132052470934e-01,1.313400450486297277e-01,-6.876313128625054227e-02,8.012315704307877706e-02,1.814541339874267578e+00
-6.348139296624452088e-01,-9.494554883832918568e-01,9.960817623177273816e-01,2.345270477965663916e-02,3.298077418426598878e-02,-7.281422421062362996e-03,1.810259699821472168e+00
-8.514597790525567644e-01,-8.799198057595459810e-01,9.995971564033294676e-01,1.887458011123320208e-03,-1.945605138754603544e-02,1.474472643988377143e-02,1.865931749343872070e+00
-7.680834995096188500e-01,-9.455565816736265505e-01,9.061316246793174045e-01,6.506373625472458566e-02,-1.529796476358307178e-01,-5.473921962673257598e-03,1.792935967445373535e+00
-8.716112709520186241e-01,-9.220047744790018651e-01,1.021860167706460043e+00,3.500787674705870683e-02,-1.084236262984903353e-02,-6.889270316826629457e-03,1.920251011848449707e+00
-7.417055581313820589e-01,-7.665238371425264763e-01,4.217801597038878247e-01,7.553407701074375466e-03,6.228409178175555588e-02,-1.855853019531595594e-01,1.224061012268066406e+00
-8.823653561939004408e-01,-8.061951871400031555e-01,1.063715775884362946e+00,2.732340051515803891e-02,2.290416620648264099e-03,-6.683301862304213969e-02,1.913231730461120605e+00
-8.803733692813748846e-01,-8.382856820420573341e-01,1.009422789702600909e+00,6.815616808284474110e-03,3.726995011857697770e-02,1.714336230676888947e-03,1.870261788368225098e+00
-8.377898760784200372e-01,-8.354750132109938221e-01,9.312590139182945759e-01,7.787984089186601429e-04,-2.704653532803585891e-02,-2.034323868089267517e-02,1.768864631652832031e+00
-8.545746425372452437e-01,-8.698828958236249909e-01,1.003870324810908876e+00,1.243659651367571076e-02,1.304200264048931655e-02,-1.442844438824988397e-02,1.866574525833129883e+00
-8.382523896411662179e-01,-8.361669364380669434e-01,9.277438954170906804e-01,1.084281140932890145e-02,-3.120376184124010535e-02,-1.066456338516433636e-02,1.765978217124938965e+00
-1.048680552427136314e+00,-6.116318735595456246e-01,1.139156548364542498e+00,-1.276323826029294728e-01,8.520815343730664404e-02,-1.074007647126490883e-01,2.031430006027221680e+00
-9.493422781758257267e-01,-8.139640805157744019e-01,1.012826964631672322e+00,1.704091917129113218e-02,1.668345280408781856e-02,-8.268993962725302779e-04,1.898554325103759766e+00
-8.677700189222635752e-01,-6.063068810505805040e-01,1.055691394221061508e+00,1.201171587098820021e-01,4.832033223916128162e-03,-1.614237949829503760e-04,1.818930149078369141e+00
-8.933189944643787905e-01,-8.343086588692618655e-01,1.051374100955359658e+00,-6.643518928472298343e-03,-1.422722579080848556e-03,-2.406233209208738510e-02,1.916359066963195801e+00
-8.938428965161840933e-01,-6.546256264186574025e-01,9.897202728846816733e-01,5.373435453720662447e-02,1.038792684382732097e-02,-2.668253394844040047e-02,1.779206514358520508e+00
-8.978092357204050522e-01,-6.578444377263126253e-01,9.906965283099093966e-01,1.834619545257358542e-02,1.677859336942329541e-02,-1.845457759881471635e-02,1.781498908996582031e+00
-8.743217979178820043e-01,-7.995132812303012981e-01,9.756888101676914893e-01,2.669014596730421435e-02,1.264271207255202728e-02,-4.555343872193032967e-02,1.816199541091918945e+00
-8.991945893332990991e-01,-7.215741669305199002e-01,8.581326838862048945e-01,3.233984182209789782e-02,-1.244446855226578191e-02,-1.364508246193069929e-01,1.693242311477661133e+00
-9.168760231445629572e-01,-8.146860175930681347e-01,1.008547186324757927e+00,1.482300655036345068e-02,-1.603619655626799256e-02,6.676880260229516376e-03,1.876833200454711914e+00
-8.530460344448871357e-01,-8.038486303704506231e-01,9.956224840599439130e-01,3.469962011650924716e-02,-2.491116057780580484e-02,-6.355000487207046467e-02,1.829381227493286133e+00
-8.928687302400535319e-01,-6.693805007897248860e-01,1.071333498109210192e+00,8.678861295677117726e-02,-1.336087623375240355e-02,-9.750835637928324112e-03,1.868817448616027832e+00
-9.379827719181436096e-01,-7.217726594099451720e-01,1.036656938963453234e+00,-3.431277981198451853e-03,3.928183483568278844e-02,-1.157693196290551785e-02,1.877252817153930664e+00
-8.834287654589511041e-01,-8.227092132564042259e-01,9.930787897803430297e-01,-1.161188457816629549e-02,-3.913760061920169148e-03,1.886524865683818566e-02,1.847307443618774414e+00
-9.185272689214072361e-01,-8.832280224604301955e-01,1.042993870850877691e+00,-2.247400366590403611e-02,-1.069570259774943986e-02,-5.901439969379495415e-02,1.947274327278137207e+00
-9.481022121285380688e-01,-7.521552940114208941e-01,1.077228296869974677e+00,-1.001992215789452613e-02,4.949311681577429900e-02,-1.854142512694703301e-02,1.937055230140686035e+00
-9.472711438246046445e-01,-7.050991817060229261e-01,8.383682193210202360e-01,-2.852472525386869767e-02,-5.506419273254169883e-02,-8.248890256231602991e-02,1.687208890914916992e+00
-1.075228768661030898e+00,-7.556000193925979103e-01,1.154721263504809192e+00,6.082309473522590215e-03,-6.193563342311074471e-02,-3.703363206978760314e-02,2.092323303222656250e+00
-1.000801831581906498e+00,-7.549298576103732339e-01,1.059361485657791757e+00,6.975855231639988864e-03,2.062859523254410854e-02,-9.255566586334713908e-02,1.955840468406677246e+00
-8.595177773923696751e-01,-8.296311752264976525e-01,9.911739139137707433e-01,2.867439403418511890e-02,8.157238091116226358e-03,-2.105325191627614723e-03,1.836660504341125488e+00
-8.249605032414021322e-01,-9.157694910196864102e-01,1.019820492093863606e+00,1.073893606417325106e-02,4.804587506295183996e-02,2.069545796105422622e-02,1.894080758094787598e+00
-7.339752313280673013e-01,-7.296247518232524820e-01,9.874946202310299626e-01,5.958651325327595644e-02,6.305660118758868449e-03,6.380371502571204403e-03,1.722463726997375488e+00
-8.449379255737136107e-01,-8.051592730941838916e-01,1.020294240429553856e+00,4.879458937330539287e-02,-2.697127572835762016e-02,-3.035301999671905643e-02,1.848936438560485840e+00
-8.445454539479978484e-01,-8.549111010764363083e-01,1.053709628835969525e+00,7.805639505493443611e-03,-1.626397881943180898e-02,-1.822691745699590166e-02,1.903977274894714355e+00
-8.549647586875994687e-01,-8.617000455847456664e-01,1.049325184004717304e+00,-2.332277559241005289e-03,-2.886549995366376967e-03,-1.120374033958477719e-02,1.907775998115539551e+00
-9.349283483641477321e-01,-5.054479786723269363e-01,1.050742160027845040e+00,2.793066875939553828e-01,3.214754355182367768e-02,2.796457151862684343e-03,1.873951673507690430e+00
-8.625800753231198659e-01,-8.507451879397588401e-01,1.013712170746038810e+00,-3.438727335202150254e-03,-5.315055314118004998e-03,1.240318033603522545e-02,1.870558381080627441e+00
-8.783611413896411646e-01,-8.576806131599363781e-01,1.029799739342335485e+00,2.872588259974240190e-03,-5.605445795638109782e-03,-5.067311500753218095e-04,1.897936701774597168e+00
-8.465934682299297576e-01,-8.178463467951554433e-01,9.036086920658379373e-01,6.692548989650538849e-02,2.242916400540788113e-01,5.340702180211197997e-02,1.785114884376525879e+00
-8.517030252013092495e-01,-8.326323221798359597e-01,9.232653100957701753e-01,5.540411845535612306e-03,1.637283060263242107e-02,6.631840927040373590e-02,1.769496321678161621e+00
-8.458447200527154930e-01,-8.318642414184713729e-01,8.534194922343192324e-01,7.547831741006893504e-03,7.843477976900220527e-02,1.071543419484894399e-01,1.707925915718078613e+00
-8.635453402961930092e-01,-8.277145250307011981e-01,8.921449981433526855e-01,1.529406095897453167e-02,2.858861422676117411e-02,4.183744731728499672e-02,1.740468144416809082e+00
-8.149961922622972477e-01,-8.196014164274577629e-01,7.665438963467103850e-01,6.563327606997052324e-03,-4.922208265055762026e-03,8.726412038694576767e-02,1.591106772422790527e+00
-8.295361806389403014e-01,-8.218506169652725069e-01,7.841875757539498171e-01,-1.767938554896099704e-02,1.034279928050187147e-01,6.166795692178883570e-02,1.623637795448303223e+00
-6.238966193755495215e-01,-9.759266724015064343e-01,1.183990071647335718e+00,4.933077124628486472e-03,-1.061092301805820204e-02,-9.806668130032600295e-03,2.007363796234130859e+00
-5.166686132288811351e-01,-9.834816762196165740e-01,1.034385496235353807e+00,1.190961851454864356e-02,-2.697539106918686938e-02,-1.740015118012134057e-03,1.830397009849548340e+00
-4.360375678026965351e-01,-9.806604801046608921e-01,1.059288840101845652e+00,-1.952655060376696367e-02,7.453054614398448019e-02,-9.123806821285006946e-03,1.834410548210144043e+00
-3.865550730309021965e-01,-1.035060016852098030e+00,9.836768851448141060e-01,-3.091636366343462547e-02,6.228605389786460306e-02,-2.353731737894573101e-02,1.789654850959777832e+00
-2.751168591291417442e-01,-1.012358340255412603e+00,8.976128128893798852e-01,1.270727997886761385e-01,6.678587561070910283e-02,1.353668819710356942e-02,1.686943411827087402e+00
-4.297236556338341895e-01,-9.824834152177573943e-01,1.068215915516118830e+00,2.576399733649267776e-02,8.421528639468625621e-02,2.191388449422865606e-02,1.844471693038940430e+00
-8.385773956168210974e-01,-8.381155941518023678e-01,1.041701586254982104e+00,1.666123800751158346e-02,8.851926388453086950e-03,1.723955549256162359e-02,1.880569219589233398e+00
-8.406960903623208470e-01,-8.899355555759155267e-01,1.125177299120769359e+00,8.817372370786889790e-02,1.096309123019705923e-03,-2.157991946599273694e-02,1.997149467468261719e+00
-8.027726614440456876e-01,-8.742212194935414793e-01,1.054373194081420495e+00,6.236056644245054070e-02,-1.982955926107055847e-03,-2.734218432607741014e-02,1.897552967071533203e+00
-9.956881482810243655e-01,-8.501561535794430746e-01,9.459634945759962665e-01,-3.436806947888806918e-02,9.290796619843205706e-02,-6.751469657267916702e-02,1.884603977203369141e+00
-9.448431275243407423e-01,-8.555364211804289409e-01,9.710872996170940574e-01,-9.585222412492423738e-02,-4.193365386273251866e-02,-2.427557822741496091e-02,1.882090806961059570e+00
-8.595127690324451120e-01,-8.694302961140395469e-01,7.659619206806678182e-01,1.814068735144950748e-02,9.946011326976944567e-02,-1.187315115851307334e-01,1.652677416801452637e+00
-8.732763794655481471e-01,-8.559019952982994672e-01,1.030465226036439752e+00,-3.017174663218432935e-03,-2.187223623887353096e-03,-5.172922147819889946e-03,1.895146369934082031e+00
-8.816207450388560130e-01,-5.816740882116826494e-01,3.405782893940717537e-01,-2.165059563459316716e-01,1.701225874504542490e-01,-2.228693583351165353e-01,1.262380957603454590e+00
-9.891905458093961379e-01,-4.434104272900031840e-01,1.052073993012307085e+00,1.031799673981741022e-01,9.562219017273195952e-04,3.086595266960550591e-03,1.839164137840270996e+00
-7.956276428894103470e-01,-8.770955961916206967e-01,9.767430655585442878e-01,-2.101557474214465863e-03,1.012445390316349253e-01,-1.602718115171188409e-02,1.823146104812622070e+00
-8.372710980288714522e-01,-8.671110372735523208e-01,1.000221806723331941e+00,-2.787842095113314805e-03,-2.154806838099725466e-02,2.130931795940919915e-02,1.853342890739440918e+00
-7.568966240556672664e-01,-8.987937265453066482e-01,1.011621017521444843e+00,-6.652523320510705940e-02,-1.228061626528122521e-02,-3.041889328487088536e-03,1.847293734550476074e+00
-7.822353958239428584e-01,-8.862595896969841514e-01,1.042634542719672597e+00,-2.397805976091392510e-02,5.858801318112017049e-03,3.873539089462160051e-02,1.880726218223571777e+00
-8.517951279103129769e-01,-8.648109016303034968e-01,9.781378051842282151e-01,-2.366560801724244909e-04,6.269428414644860614e-02,-5.023528721421814669e-02,1.841739535331726074e+00
-8.564369978450984133e-01,-8.513695027364673873e-01,1.058967386845921510e+00,-1.613023673977909177e-03,1.811688682578511955e-02,9.531973317211808044e-03,1.913206338882446289e+00
-7.909927816305043491e-01,-8.710447835320137555e-01,1.022822281428164670e+00,-2.765451337327409775e-02,-1.631097168371212214e-02,1.992893041195533885e-02,1.856291174888610840e+00
-8.463168231615717518e-01,-8.500204814404449527e-01,9.927373763757891822e-01,-1.242286767283788500e-02,1.557994170057313069e-02,1.175675469797232524e-02,1.841344952583312988e+00
-8.526467969701240213e-01,-8.341999558391810510e-01,1.079979242209822665e+00,1.213055092321810649e-02,-5.542329163481165590e-03,5.782566671029961032e-03,1.923633694648742676e+00
-7.532308047698978992e-01,-7.694979475002988734e-01,9.989770310719587876e-01,-6.296192343604937840e-03,9.806062417600735180e-04,-2.148919986654029748e-03,1.760436296463012695e+00
-8.450998102312345939e-01,-8.417064617752119116e-01,9.639396183131181406e-01,8.818166442126736809e-03,-2.148719374914736732e-03,3.520187119857196706e-02,1.808441638946533203e+00
-8.638999694465878676e-01,-8.574567130979375840e-01,1.050858250054553134e+00,3.292605175377457880e-03,-1.321914846751732955e-03,2.354195841217558705e-02,1.911989450454711914e+00
-8.107698990786079696e-01,-8.145941381159836903e-01,1.024854041693786799e+00,4.638483516739104473e-02,-1.489536713895070301e-02,-3.771761487795539242e-02,1.840635180473327637e+00
-7.679787682818781658e-01,-7.415724657452318347e-01,9.997226589970424904e-01,-2.059065796143217178e-02,-1.571567228778411422e-03,-3.080784204077373530e-03,1.755019903182983398e+00
-8.035331827262490734e-01,-7.500191002956001496e-01,1.035636342497594065e+00,-5.966241892591793439e-02,-2.465969237596699060e-02,3.342068038680043318e-02,1.817371964454650879e+00
-7.853324470785624234e-01,-6.695761195290195200e-01,9.873480356400921032e-01,-3.971827248541410366e-02,2.677959486346144502e-03,-1.766486387536884799e-03,1.719116091728210449e+00
-7.904006329171052725e-01,-6.872832321003590206e-01,9.932760885236111559e-01,-4.166773418586273287e-02,-1.069406496319682057e-02,1.309208745198845412e-02,1.736166357994079590e+00
-8.238534852954249033e-01,-7.918821696406348476e-01,1.024705774552985060e+00,-9.252586790362168911e-02,4.846171596296366263e-02,-5.735018980615202988e-02,1.844366669654846191e+00
-7.403312846142334758e-01,-8.520471401536722222e-01,1.077209427533870389e+00,-2.206824861551316408e-01,-3.699389012057361509e-02,-4.419693781958337203e-02,1.917042255401611328e+00
-7.779882741974847304e-01,-7.468239418967954624e-01,1.022664953619301764e+00,-8.541721668757933095e-02,-3.750442379436953961e-04,4.605010070549690748e-03,1.791412711143493652e+00
-8.464172519980825982e-01,-8.570518888098679344e-01,1.048844379167238605e+00,-5.472914846507458478e-03,-2.500290293005885331e-02,8.464768374928818145e-03,1.901174783706665039e+00
-8.364314927595387639e-01,-7.848297963276458233e-01,9.459276007183636814e-01,-7.068276655042106393e-02,4.889942440107564875e-02,-6.838701196255776368e-03,1.763461351394653320e+00
-8.434388983774714355e-01,-8.222602652188569783e-01,1.034669331543155657e+00,-2.139199620007867925e-02,2.446908399593025404e-02,-1.040892806304855728e-02,1.868544220924377441e+00
-8.319652745512706726e-01,-8.092986725207110821e-01,1.019503930153829563e+00,-6.043721012988509389e-02,4.435505112967049086e-03,-1.713866730999359655e-02,1.843470573425292969e+00
-8.508768140446122397e-01,-8.461746123151466792e-01,1.056993155617741431e+00,3.723440270682624054e-03,1.779909285688391872e-03,-7.192211110845891930e-03,1.905577301979064941e+00
-8.449486322391766002e-01,-8.514369839303614906e-01,1.055972524748019170e+00,8.963772083411635297e-03,1.469435398017383647e-02,2.029482590231099573e-02,1.904731392860412598e+00
-8.470119425696001070e-01,-8.485893131240362930e-01,1.008372005063750576e+00,9.825774204642917856e-03,9.398935369799224851e-03,-5.943986652587107677e-03,1.856351137161254883e+00
-7.319971269211507092e-01,-7.388725943481007086e-01,9.890094058339740091e-01,5.727278504105524221e-02,-5.080816506757197988e-03,-8.066374967752943173e-03,1.727384328842163086e+00
-8.481546690370600494e-01,-8.491343756900348039e-01,1.062586041873414100e+00,1.989782078073660057e-04,6.103239159783955051e-03,5.920867033187775892e-04,1.911260247230529785e+00
-8.395410478736511362e-01,-8.124680791098798371e-01,1.043860117219233219e+00,1.923557212938813502e-02,1.900602751935171267e-02,2.029630454647099805e-02,1.870928406715393066e+00
-8.496764938492161745e-01,-8.556385666969996695e-01,1.053816440888995176e+00,3.801028130010923600e-03,-3.861525678186270797e-03,-1.531386748522224270e-03,1.906505942344665527e+00
-9.786776730066283347e-01,-5.944974380336809361e-01,1.107220974999882035e+00,1.540094834661860090e-01,-2.771160005240488541e-02,-4.227806773360445747e-02,1.943200826644897461e+00
-9.760090746215381863e-01,-5.716948166354141048e-01,1.161591037121713299e+00,1.696000868826496588e-01,-4.366981115389784347e-03,-5.588888721531878878e-02,1.991045594215393066e+00
-1.052945655228851418e+00,-3.945044131613004157e-01,1.076393951712506070e+00,1.359539281084081730e-01,-1.946981624407103512e-02,-5.842718487655289283e-02,1.905889749526977539e+00
-9.767911117594509918e-01,-5.401912488363795894e-01,1.096947499245640056e+00,1.065292449590622831e-01,-2.438573923232975962e-02,-5.233452893981774268e-02,1.905167579650878906e+00
-7.945537194025462657e-01,-7.895434227040731834e-01,5.225210264761714907e-01,1.958252467199248989e-02,2.707533921104252755e-02,-4.850403490582969046e-02,1.318529367446899414e+00
-8.003676554980709845e-01,-8.515024919901107436e-01,7.999878616954176902e-01,3.578571904774776463e-02,1.810523169957756889e-02,-1.923739130921621812e-02,1.628349423408508301e+00
-8.105802468658727111e-01,-9.137917738720428007e-01,7.459586208353541359e-01,9.163735947028861517e-02,9.187643055506677925e-02,-2.104178896339123916e-01,1.666571855545043945e+00
-8.434519929275914318e-01,-8.671240102332732347e-01,7.715949543672555588e-01,-6.484410313446061121e-03,1.125043186493713820e-01,-1.293568651903468855e-02,1.638831377029418945e+00
-8.353191904224621656e-01,-8.374365029426693585e-01,8.011429852565943310e-01,4.965810475497168738e-03,1.588746547968429013e-01,-5.777926512797008918e-02,1.663517594337463379e+00
-7.607256975638416741e-01,-7.818420382795483459e-01,5.015936859066180142e-01,2.946685789564850583e-02,9.024566542599023189e-02,3.714321810526566292e-02,1.285195827484130859e+00
-8.355350563511922957e-01,-8.548255590603546228e-01,1.050540863075248188e+00,-3.000780817180399504e-02,-1.253318312352999786e-01,-1.778793482911824762e-03,1.908893108367919922e+00
-8.200459816531839863e-01,-8.722086095272769679e-01,9.437867917475102342e-01,-1.300949639426141058e-02,-2.809018993534994832e-02,-9.665585882635089124e-03,1.791364908218383789e+00
-8.146738293288643407e-01,-8.288307561697250136e-01,8.980668023698503699e-01,-6.996731622812407507e-03,-3.060863077669801618e-02,1.104416476544770910e-02,1.720828771591186523e+00
-8.061605770069077970e-01,-8.465905460005508365e-01,8.998281309912254944e-01,-1.964254885844210485e-02,-3.207949336280443986e-02,3.054961891056557667e-03,1.727795720100402832e+00
-7.951185339474418079e-01,-8.007295213009449908e-01,7.717281700115163900e-01,-5.365108173561845134e-02,-1.310771441202423886e-02,5.661715051976230935e-03,1.572602510452270508e+00
-8.718297526423253174e-01,-8.585324507956836326e-01,1.038836046882478437e+00,5.479113411178400221e-03,-4.515161671198314117e-03,5.274648029258220683e-03,1.904113650321960449e+00
-8.004837396669111094e-01,-8.228937450559639100e-01,6.916269095663927224e-01,-2.427366171277569110e-02,-5.841636887256401039e-02,1.157465994254555375e-01,1.520700931549072266e+00
-8.344308002809431857e-01,-8.668998232125983971e-01,9.752241386419853164e-01,6.369163504388762262e-03,-5.118243009838215063e-03,-1.322477522008771653e-02,1.826304435729980469e+00
-8.502627564995783871e-01,-8.777163880746484681e-01,1.047495014441537142e+00,4.403914303407183151e-03,-3.229207282020122964e-03,-1.419493665796154984e-02,1.911813974380493164e+00
-8.084152890083007303e-01,-8.311805425544763759e-01,8.534798490761683620e-01,-8.403684565844350349e-03,-4.445339968359996591e-02,-1.880897975920301293e-02,1.675544261932373047e+00
-1.514034235837540043e+00,-3.995942123510141109e-01,1.351015085384804193e+00,1.598123382751315547e-01,2.056225582496411589e-02,1.224105817822492004e-01,2.525945425033569336e+00
-8.148768265689484425e-01,-8.295275530268340081e-01,8.382714903071548651e-01,3.257313495190160106e-03,-6.150192276403970704e-02,-1.212901410807323659e-03,1.663946390151977539e+00
-8.245283814001544975e-01,-8.724672595139959519e-01,1.003161641975467200e+00,-1.851423629450140058e-03,6.012693950212450768e-03,3.200690628396631997e-03,1.852165222167968750e+00
-8.436783478386222779e-01,-8.715258786933812729e-01,1.039590501004637124e+00,-1.291959064573886028e-03,-4.323904017154219653e-02,2.521169216162644829e-03,1.898829698562622070e+00
-8.388205139351238016e-01,-8.336379481663518387e-01,8.116388692949456640e-01,-3.558740185987709515e-03,8.569633142235588696e-02,-6.183246675857112518e-02,1.658019542694091797e+00
-8.240930116997063903e-01,-8.101717111277101369e-01,7.167082862837932389e-01,-4.692392085766701991e-03,5.985105283339243326e-02,-1.676107050794609782e-02,1.537682652473449707e+00
-8.934862274467723076e-01,-8.508902544998020456e-01,1.090917595727518119e+00,-4.299083606674849317e-02,-5.635881235223093311e-03,-2.615129614779390047e-03,1.964893341064453125e+00
-8.470245794738481271e-01,-8.646369047736213176e-01,9.724650362015401228e-01,1.479190558328256910e-02,2.012385572505317327e-02,4.257850894231598798e-04,1.828871250152587891e+00
-8.573229486746124506e-01,-8.540814731369414936e-01,9.724763219872272213e-01,8.276658095648510918e-03,1.465245779931516161e-02,-9.723316950878085549e-03,1.828490614891052246e+00
-8.725668261814638615e-01,-6.231016543865421919e-01,1.043079769441655591e+00,9.438345287456553767e-02,-4.650610411625988316e-02,-7.667663414959430268e-02,1.817938089370727539e+00
-8.644876441796182087e-01,-8.893202205431109952e-01,9.979009914917482682e-01,-2.232138495638242778e-02,1.612377944214569980e-02,-1.935682783617707903e-02,1.875834465026855469e+00
-9.223572233112093954e-01,-5.774210427346593288e-01,1.070716851720871388e+00,-1.376671113876928865e-01,1.271295668676895516e-03,-5.032506027116415842e-02,1.862337589263916016e+00
-8.627108477821686661e-01,-5.905304140744308539e-01,1.065822216557696489e+00,-1.629829327997957822e-01,3.188326136052435644e-02,-2.749509114935781706e-02,1.831234812736511230e+00
-7.983475107325185283e-01,-7.500969046122922812e-01,1.058115423267713240e+00,-7.283107455367525407e-02,3.884786922262103981e-02,-4.042969525707289236e-02,1.839715123176574707e+00
-8.070903069882732206e-01,-6.684114457447928315e-01,1.057285016494602381e+00,-3.285262916167317471e-01,-2.561863737869516950e-03,-4.875925331650374228e-02,1.888787508010864258e+00
-8.763967617779419017e-01,-6.785084185910016386e-01,1.090924028339018026e+00,-9.510233639603699052e-02,-4.205217140309049778e-03,1.125774285293402489e-02,1.883551836013793945e+00
-7.902303967666399753e-01,-7.894325032670521658e-01,1.100095035426079004e+00,-1.421913907641308428e-01,1.703670323044003884e-02,-2.242024455828967380e-02,1.906530022621154785e+00
-7.802002178623517192e-01,-6.919519108097098581e-01,1.068651348884265717e+00,-1.094800527447884197e-01,2.223709321318560750e-02,4.569839144203632561e-03,1.816696405410766602e+00
-9.657894553437856855e-01,-8.173515499101257076e-01,1.060357505440965964e+00,7.971336682021681191e-03,5.283004994583513636e-02,2.127390083421394976e-02,1.958690762519836426e+00
-9.127527848153293988e-01,-7.827148819250054901e-01,9.134055466827961656e-01,-6.747182471520041247e-02,6.636329843795060746e-02,-1.388834977221908296e-01,1.788583159446716309e+00
-7.789338661326133950e-01,-7.277070682644846134e-01,9.979908332781679547e-01,-2.046470552871746396e-01,-1.333005131019001921e-01,3.701425996481994690e-02,1.803362965583801270e+00
-9.167524347027563580e-01,-7.765718986139251712e-01,9.684011700381154331e-01,-7.341901602351981471e-02,-7.127926020883017244e-03,-1.955603491245854614e-02,1.823914408683776855e+00
-8.726552510930772888e-01,-7.485885114914082594e-01,1.034038606426705087e+00,-3.194499098945992321e-02,1.556370111844943352e-02,1.547631230844965025e-02,1.849006056785583496e+00
-8.808358642945659511e-01,-7.900931621427664808e-01,1.072404620012438414e+00,-1.343328455846083160e-02,3.816375761848467968e-02,7.698345787453052085e-04,1.910772800445556641e+00
-9.225667901164150697e-01,-7.443901604818319306e-01,1.053003507932746885e+00,-5.322354861085169808e-02,1.349564810242074100e-02,5.040568785857506284e-02,1.897179841995239258e+00
-8.866551419820791757e-01,-7.802371014681318551e-01,9.954490410062075689e-01,-4.838890459389101617e-02,-1.515510450306014646e-02,-2.605888222623109832e-02,1.833876132965087891e+00
-9.252390419516205444e-01,-7.822270294949809077e-01,1.058051448661661009e+00,-3.960011053702976180e-02,2.543228730547400507e-02,-7.332204506768413843e-02,1.921726465225219727e+00
-7.780786940330804979e-01,-7.347176952417180384e-01,1.024896667967758246e+00,-7.996121136279094044e-02,-2.338673640172260135e-02,1.151869634065961871e-02,1.787635803222656250e+00
-8.473482046421724201e-01,-6.096165893108493883e-01,1.027801851457718740e+00,-1.665723845320826180e-01,1.238275835660010774e-02,-7.513602476921918405e-02,1.796540260314941406e+00
-7.584196046541137326e-01,-7.993299386986194577e-01,1.040592610079251523e+00,-6.907233727978168147e-02,-1.493275535630033367e-02,9.315750447817608762e-03,1.823995351791381836e+00
-7.905833047402637259e-01,-7.920029740373413230e-01,1.104276686673200336e+00,-1.564753468025432970e-01,-1.960246301746281991e-02,1.166001047089098089e-02,1.915254712104797363e+00
-7.426221608297439714e-01,-9.217538657907082822e-01,1.208866117598211387e+00,-1.874947623220240556e-01,-7.086236750985216992e-02,2.629073342783828232e-02,2.076672554016113281e+00
-6.151195035272337686e-01,-9.499686619968987777e-01,1.134814329648905495e+00,-1.122216470807692462e-01,3.085568436498723963e-02,-1.136391262082179360e-02,1.949712991714477539e+00
-6.513595206314375385e-01,-8.569684038717919616e-01,1.059272346890320460e+00,-2.987428560542327860e-01,2.244171495802383537e-02,-3.907910830511487910e-02,1.895809054374694824e+00
-8.565898525121024010e-01,-8.397718706903254393e-01,9.398315323588675163e-01,3.667827945310372212e-04,-1.016461979638209499e-03,-1.769643676188805900e-03,1.788075327873229980e+00
-7.669506087057798016e-01,-8.902286927093642221e-01,1.218842626027969445e+00,-2.653142006676618703e-01,2.037428549170378425e-02,-4.404446365421071236e-03,2.101393699645996094e+00
-6.653509943699459361e-01,-7.816080363758004523e-01,1.049740307461119571e+00,-1.277082522774542206e-01,2.459905279994011387e-02,-3.608551086611439147e-03,1.790315032005310059e+00
-8.679892730363610864e-01,-8.558407091533716260e-01,1.005874080290130923e+00,2.307054478340359353e-04,3.665320090037304992e-03,1.179199642984560432e-02,1.867941141128540039e+00
-8.462696546461589975e-01,-7.433337899581233810e-01,8.354088036267734996e-01,-6.291299723672102995e-02,3.313900182531274996e-02,5.473139125256283599e-02,1.640026926994323730e+00
-7.927688779974433331e-01,-8.182827216510555335e-01,7.234712835596468494e-01,-1.400430317214094653e-02,-1.550327429184737704e-01,1.501258860535185924e-01,1.574365735054016113e+00
-7.679055743122802369e-01,-9.970817066017411134e-01,7.667818687055278914e-01,-1.622201562662572982e-02,-3.405554385640282428e-02,-1.012751685307499427e-01,1.671687722206115723e+00
-8.557187696843246982e-01,-8.618617756641715477e-01,8.908487626294685491e-01,8.963735234410658004e-03,3.899910249233077414e-02,1.596467136223450600e-01,1.772718310356140137e+00
-8.893724152082290724e-01,-8.505634677293718582e-01,1.004942574450148562e+00,-6.769807923755644975e-03,-1.917684676150468656e-02,1.347355120330756204e-02,1.875687718391418457e+00
-7.481203976501771269e-01,-7.722715857649714577e-01,1.027985405570029043e+00,-8.207092285708691981e-02,-9.783200122201289595e-03,1.855344496143427127e-02,1.794312357902526855e+00
-7.664500131289243567e-01,-7.505284880937389547e-01,1.001567974855703813e+00,1.894314907530083789e-02,-7.641622493482748413e-03,-6.636649597415050263e-03,1.760504245758056641e+00
-7.422707690554745108e-01,-6.534775801448288179e-01,9.815527313335199455e-01,-1.356252642638351436e-01,-7.130523716352778901e-03,2.905288615192727283e-03,1.697571277618408203e+00
-8.024527104179753900e-01,-7.342934869610044935e-01,1.033885964697607074e+00,-7.375186011617118620e-02,1.442944368569118105e-02,-1.962803618790948459e-02,1.808236837387084961e+00
-8.665189036723330851e-01,-8.388029229524033292e-01,9.813745284190624751e-01,5.570886327174671623e-03,-5.863099889584982155e-03,2.443795163127852280e-03,1.834250926971435547e+00
-7.694800496527163247e-01,-6.510710744898583480e-01,9.954088413170576466e-01,-1.290209826678946625e-01,4.424601811471633173e-03,-1.032001001569068412e-02,1.723424553871154785e+00
-7.241963203227537171e-01,-7.207455731906616814e-01,1.044500894902357091e+00,-1.335048234040425996e-01,-2.297213680556720733e-02,-8.429707956931912008e-03,1.782544612884521484e+00
-8.501963717175536894e-01,-8.328927004145398882e-01,8.872334227761176084e-01,-1.116627221729004672e-02,-9.087694249547088876e-02,-1.874682907517224995e-02,1.736404895782470703e+00
-8.640953222681301282e-01,-8.346124284247781189e-01,9.126865039180256378e-01,-4.444419631734688341e-04,4.353357998969332315e-02,8.073596681470857767e-03,1.763893365859985352e+00
-8.192986218797110309e-01,-8.523742194019942042e-01,8.337089895335441092e-01,1.471228828791056216e-02,-1.424476238973719500e-01,-4.419438720998444120e-02,1.689847707748413086e+00
-8.323057947023598802e-01,-8.433426132810151188e-01,8.614280082020540075e-01,9.931951424112909349e-03,2.588743967300523308e-02,-5.466177105533596287e-02,1.702592015266418457e+00
-7.909965024191758509e-01,-8.206194514857058087e-01,7.036311931434384714e-01,-1.149350714194005696e-02,-2.376065036537649763e-02,1.648379364373118300e-02,1.510619044303894043e+00
-8.650801789438369305e-01,-8.308282534475676107e-01,9.223429716680953128e-01,-6.165085832628179781e-03,5.030332404159976872e-02,-3.337840164019647594e-03,1.772729754447937012e+00
-9.256735158405638986e-01,-7.723826083703749790e-01,1.067797033411457264e+00,4.632996725979729793e-03,-1.773908945014488966e-02,3.016549381025581192e-02,1.922389268875122070e+00
-8.768791853607016407e-01,-7.891795784550366122e-01,6.529954296349812504e-01,1.249270422592240956e-02,-1.293316558583260667e-01,-7.753193184023347839e-02,1.510867357254028320e+00
-8.611047390998285422e-01,-8.437937783768428845e-01,8.563217258026114553e-01,-4.377584435492535599e-03,7.707715693103092680e-02,-1.985791920519310721e-02,1.714405536651611328e+00
-8.419158047641566167e-01,-8.753692899171858777e-01,9.954516882829320679e-01,-4.224203015422476823e-03,-3.502427263035064187e-02,-7.455059959091425194e-03,1.855371952056884766e+00
-8.635939230005281741e-01,-8.620852529237311712e-01,1.065671213694070252e+00,2.684600077357850254e-03,-5.412236241660416244e-04,8.155770141287883856e-03,1.928568840026855469e+00
-7.565363856824053324e-01,-8.881122166855669464e-01,1.046416789341849896e+00,-1.138289711063289467e-02,-3.250218020481001474e-02,6.546436548599327519e-03,1.873196125030517578e+00
-8.739895228677645456e-01,-9.416963926700216980e-01,1.047336217416456439e+00,3.758054777723406764e-02,-3.054326506540718314e-02,-1.518880749437151803e-02,1.958032488822937012e+00
-6.776867976379843395e-01,-9.208346508680045339e-01,8.270868913877342798e-01,2.639183262690951437e-02,-9.193916340087622541e-02,1.870633254655978614e-02,1.648588776588439941e+00
-7.374514145523793918e-01,-9.363759832514129133e-01,1.118341358207989078e+00,6.026104612461269383e-02,3.719970681514520039e-02,3.723922143878422020e-02,1.967716097831726074e+00
-7.914747963569505051e-01,-8.844980725403275290e-01,1.049576044625722071e+00,3.271063991158762452e-02,-7.360411196085922536e-03,-2.835474131864484243e-02,1.890811085700988770e+00
-1.303157755380172089e+00,-9.561974082616251369e-01,7.033985040470813743e-01,1.193394371955678185e-01,4.256749463683882906e-02,1.663211572368073279e-02,1.870680570602416992e+00
-8.657193100748924453e-01,-9.128454517621670261e-01,1.073741131078012945e+00,1.389257073626336270e-02,8.138377565066126293e-03,1.162157404454781766e-02,1.963748931884765625e+00
-7.293779424000043088e-01,-9.149826956679223411e-01,1.023535307764593449e+00,4.180405064387551078e-02,-3.840112454636655705e-03,1.756103444422537577e-03,1.854130268096923828e+00
-7.294769499623854347e-01,-9.812301102360778682e-01,1.099965795837704707e+00,1.090736450317791005e-02,-9.165327937310774331e-02,4.449709741548089903e-02,1.975425601005554199e+00
-7.537326638863413031e-01,-8.515597899116481573e-01,8.581800814046181003e-01,5.322248562946101796e-02,-4.502029137940619791e-02,-1.727040629076138922e-02,1.667631506919860840e+00
-7.387826118152952537e-01,-8.035319979168877857e-01,1.032921903390438434e+00,8.125732019705755871e-02,7.791606670573547611e-03,1.358638792248235624e-02,1.810632586479187012e+00
-7.318711573799612236e-01,-7.408488591358115549e-01,1.010891590771367365e+00,6.321450091239269597e-02,1.208375652557003126e-02,1.730536320755824171e-05,1.750821232795715332e+00
-7.693454936263129929e-01,-7.853361740584379191e-01,1.024505937740447514e+00,1.454351509000534337e-01,1.531060849187366145e-02,1.606072805302657600e-02,1.819828271865844727e+00
-6.609252089467635427e-01,-9.010875809408400716e-01,8.596086883419411517e-01,-3.090942463841900648e-02,-2.745429450347238592e-02,-2.330672159743581856e-03,1.655300617218017578e+00
-8.636237608834709256e-01,-8.533680153473743868e-01,9.366771422554018844e-01,-1.356197448201445360e-02,-5.866276741316019117e-02,6.427108931036339123e-02,1.801663994789123535e+00
-8.223416854678401444e-01,-8.490047132436298050e-01,9.219649954959470151e-01,-2.698156666396796244e-02,-1.671059146709444202e-03,3.999510461521084415e-02,1.759777426719665527e+00
-8.742316486184658064e-01,-8.519581332195689249e-01,9.261033851726865329e-01,3.372586532367103512e-02,-8.050890120392777127e-02,3.142441322803413151e-02,1.796502828598022461e+00
-7.646742374475763437e-01,-8.814433526214542347e-01,9.897668167586137766e-01,-7.941021788706321971e-03,1.099544650000068048e-02,-1.401508197844852054e-02,1.815958142280578613e+00
-8.661297552032681812e-01,-8.713692784787558931e-01,9.928997717426779612e-01,4.888047951811398326e-03,-1.608466446329201785e-02,1.473831176621869313e-02,1.862057447433471680e+00
-8.268863028338442334e-01,-8.709908258194367647e-01,9.698243578719067948e-01,-2.337761630295047324e-03,-7.889994015328064339e-03,2.016493541476579998e-02,1.819555044174194336e+00
-8.367869127583722477e-01,-8.822221081961760802e-01,1.045712975760502594e+00,6.042412182097809910e-05,-2.635156317694005434e-02,1.187061154489248670e-02,1.906281113624572754e+00
-8.826474774580871374e-01,-8.598640658140495052e-01,9.445574447591418288e-01,-6.637693397043572564e-03,-2.883578826159700903e-03,1.196282151850524833e-01,1.827746391296386719e+00
-8.372204533768328183e-01,-8.564215328158376606e-01,9.150763875368757017e-01,1.008365695091325079e-02,3.054966668909589716e-03,2.557403946073084564e-02,1.762627005577087402e+00
-8.125642674792713516e-01,-8.188820356708516046e-01,7.644692075841459378e-01,-3.451823859508117587e-03,-3.706913062837485784e-02,3.086134530550582039e-02,1.582419991493225098e+00
-7.979192768544284275e-01,-8.724466599529944189e-01,1.031869446307537075e+00,-4.150955624477131690e-04,-2.885134219069460451e-02,-1.496173588743097450e-02,1.869015693664550781e+00
-8.599404822301016660e-01,-8.691181836461691068e-01,1.046257588047839526e+00,2.270064986355287834e-03,-7.597573016175751537e-03,-1.010244344145581376e-02,1.910932898521423340e+00
-8.172103308768363661e-01,-8.342169738718570038e-01,8.017971351337154218e-01,1.380306131609064166e-02,-2.567419080131758471e-02,7.407474205615015295e-02,1.633406996726989746e+00
-8.158029275551998971e-01,-8.313097036423159336e-01,8.007138865492799962e-01,2.956507861830335541e-03,-1.570836478478850745e-02,7.220961629462979703e-02,1.629368901252746582e+00
-8.139899893433386602e-01,-8.276793945376983430e-01,8.065148036143165999e-01,-1.154032417843464664e-02,-1.360982397375234791e-02,-2.558168414731681189e-02,1.628289103507995605e+00
-8.171289495527087610e-01,-8.383501858381995353e-01,7.973560427118373539e-01,-1.400893010374303950e-02,-1.753271572794612779e-02,-7.767514986649144693e-02,1.631221890449523926e+00
-9.104789812432354523e-01,-4.135396258987567020e-01,1.119000530393038595e+00,3.314528966296371171e-01,-9.252194172196293032e-02,-1.031148787656247928e-01,1.935037374496459961e+00
-8.737169469630906571e-01,-8.702512421417003541e-01,9.618884503745328551e-01,-3.197070068389626374e-02,-4.061138327582049928e-02,-4.385769937180866718e-02,1.837629556655883789e+00
-8.421767997223374991e-01,-8.384962215547653308e-01,9.174590887557398933e-01,3.500934022459568093e-04,8.431169593804769755e-03,-3.862443095507531871e-02,1.759131789207458496e+00
-8.648743212037866002e-01,-8.597788356125311005e-01,9.741653313783411594e-01,-1.881013586098348803e-02,2.589887411432208880e-02,1.264221684629859496e-02,1.837464332580566406e+00
-8.456355781593313248e-01,-8.703858676972487940e-01,9.946833680213920115e-01,-6.699489811475834757e-03,-6.663509837500770742e-03,-6.412279518755950418e-03,1.852923631668090820e+00
-9.094385033235015126e-01,-7.973253303642469092e-01,1.026880704219449436e+00,-1.649830220489752241e-04,8.752310521927221185e-03,-8.293463920656951593e-02,1.888300538063049316e+00
-8.699815844024274547e-01,-8.599487237087158897e-01,1.006566983304128193e+00,-6.059539607832528305e-03,2.800895053392084624e-02,-7.578935391453661685e-02,1.876806855201721191e+00
-8.660142870339857524e-01,-7.991159142032637774e-01,9.711768596898942008e-01,-1.669480729568323038e-02,4.565064925915065727e-03,-1.095909239362569121e-02,1.805020928382873535e+00
-8.696053824086320549e-01,-8.036099057318627503e-01,1.021218226912747218e+00,-1.897277445082836550e-02,-8.206290454646264845e-03,3.208447160921336274e-03,1.859057903289794922e+00
-8.548839025448544682e-01,-8.477984787020408364e-01,9.800672584074019422e-01,6.645501170690376602e-03,3.178354093901424038e-02,-3.989050874020154402e-02,1.833584308624267578e+00
-8.501381644100753920e-01,-8.588365238944654090e-01,9.065062119267559559e-01,2.683479556589636605e-02,2.993873241502887847e-02,-5.842178732081352438e-02,1.765288591384887695e+00
-8.032779512386865051e-01,-7.573229262491063540e-01,1.046955208525413905e+00,1.336439173429867511e-01,-2.968516483490259150e-03,-8.903620811883811159e-03,1.842360854148864746e+00
-5.274806659311839230e-01,-8.474155755943728607e-01,1.047463203004217469e+00,2.745122407468277848e-01,-1.564028334551580482e-02,4.057103065723657691e-03,1.820313215255737305e+00
-5.203167998691333729e-01,-9.509729656527918795e-01,1.254854246286412289e+00,3.393693873623740420e-01,-2.436254186521954676e-02,-1.818281730603724458e-02,2.109377384185791016e+00
-8.610679990486898028e-01,-8.744175281045859505e-01,1.041544370691895871e+00,-9.253015880581886773e-03,-9.553731260980663498e-03,-4.942412720260319463e-03,1.909480333328247070e+00
-6.426721197536949814e-01,-7.560831457957196688e-01,9.808270235067646503e-01,1.451687026048667228e-01,1.152057071463085530e-02,1.877010552414423022e-02,1.702178359031677246e+00
-5.532337976837387039e-01,-9.085031272188153206e-01,1.027444707848766292e+00,1.813711758911588645e-01,-7.698021006162790100e-03,-3.292297082158921612e-02,1.813406586647033691e+00
-6.080769283669935632e-01,-9.416935597808353542e-01,1.162220737897316392e+00,1.511483972534096443e-01,9.536636131220745452e-03,-1.285840587328259364e-02,1.976148009300231934e+00
-8.827723481866552868e-01,-8.332823652811288673e-01,1.054397851762809646e+00,1.296641237594063807e-02,-8.566110957744545173e-03,-2.067723630866449488e-02,1.913429975509643555e+00
-1.164177893888486581e+00,-7.673966756724289739e-01,1.754291249551131582e+00,5.234887246369235303e-01,8.190954305871968322e-02,1.548290351520719144e-01,2.903630256652832031e+00
-8.798189468071614394e-01,-8.029050664010384253e-01,1.027689911478835372e+00,1.300224894245820620e-02,-1.091811372049788717e-02,1.650089355613081760e-02,1.870687961578369141e+00
-9.008745564004134732e-01,-7.891112077693133164e-01,1.097614441950713005e+00,5.745851856924528295e-02,5.476913544344162547e-03,-4.231752049155160927e-02,1.948963403701782227e+00
-8.716771192185922557e-01,-8.735338500418791119e-01,1.041651709436662854e+00,-1.407453049666187658e-02,5.652621681827463447e-03,1.469935819139433055e-03,1.914439797401428223e+00
-8.316127061110688556e-01,-8.737742195460556083e-01,1.036043441452958236e+00,2.944127914397519450e-03,1.758105551074173184e-02,4.380455351714284545e-03,1.889357328414916992e+00
-8.719616278034445500e-01,-7.479971840054503440e-01,9.693293429402278782e-01,-1.792941897831771322e-03,-1.179178930310638938e-02,8.845580935671736728e-03,1.782730102539062500e+00
-8.752665278654651049e-01,-7.473566548042225310e-01,9.916301478881381914e-01,3.026687959568454336e-02,1.195769389909131022e-02,1.073440885361414895e-02,1.807316422462463379e+00
-8.985184248340892799e-01,-6.344632519206849786e-01,9.880530175959152395e-01,1.506902356077216842e-01,-1.773022988146398873e-02,4.014633129501541525e-02,1.790144920349121094e+00
-8.002638460800307607e-01,-8.485368788321732136e-01,9.705636290130874588e-01,4.567508276425254199e-02,-1.718140800538771936e-03,-3.315223201763664584e-02,1.798112392425537109e+00
-9.240954264408007823e-01,-7.560674512332402619e-01,9.999264143204826816e-01,2.706160550679096929e-02,1.210265481474220341e-02,1.011033057859185222e-02,1.846549987792968750e+00
-8.574705821562581542e-01,-7.625110006299374854e-01,9.789687354219152038e-01,2.507118939750172665e-02,-1.547984357439427007e-02,-1.269814523359407907e-02,1.791710734367370605e+00
-7.928761150900488497e-01,-7.126555578071565034e-01,9.945637197226708803e-01,-1.526071531036140606e-02,6.250465497430764301e-03,-9.929078679783048030e-04,1.748944282531738281e+00
-9.797504939269707780e-01,-7.640935369558602419e-01,1.039608409265699418e+00,6.158078106986247108e-02,1.928199317430872792e-02,7.301601255023925166e-03,1.923923492431640625e+00
-9.671479177468260691e-01,-7.168571110145883774e-01,9.568367937982307225e-01,7.516632069391457338e-02,4.976728338881368507e-02,1.272045486924015534e-01,1.831865191459655762e+00
-8.255471743130243789e-01,-7.669986845442045009e-01,9.670252310656930472e-01,1.175638015706881728e-01,-3.211940108543547001e-02,-6.474813647113841775e-02,1.780148029327392578e+00
-8.038378847979507080e-01,-8.315576047945167915e-01,6.973535838787223717e-01,-2.377074552179936698e-02,4.611886843242107153e-02,-1.402166065345443191e-01,1.537210106849670410e+00
-8.588453099324638851e-01,-8.500835821641321566e-01,6.864068827117606464e-01,-8.275359051339645222e-02,1.173278175678940938e-01,-7.290304314939970165e-02,1.565927386283874512e+00
-7.901897321255342277e-01,-7.989047664260260362e-01,5.984864443664632550e-01,4.900236645625318486e-03,1.778769077239619398e-02,-5.367532204181160727e-02,1.396518588066101074e+00
-8.705783059167050419e-01,-8.591517567832512858e-01,9.936567855114057934e-01,-1.420831662916902452e-02,-6.633392650103497185e-03,-1.566305695127247904e-02,1.858944535255432129e+00
-8.111258502115127333e-01,-8.148495978609741064e-01,7.484046098421208715e-01,1.311055102011998708e-02,3.586526347889243405e-02,-8.056254297667196336e-04,1.562796473503112793e+00
-7.499466762065838399e-01,-8.139732102271008962e-01,6.196994409387386327e-01,-9.223258177983808051e-03,6.920097798584826099e-02,-7.385627661311010284e-02,1.413757205009460449e+00
-8.268196521366900642e-01,-8.426592282895987163e-01,8.468748806853516609e-01,1.170728530615607749e-02,3.919096654184317519e-02,-9.728918972279659849e-02,1.691576004028320312e+00
-8.084485227685747066e-01,-8.188047779308543772e-01,7.137699911921560059e-01,1.114755747482675148e-02,6.183050738399820806e-02,-6.981042558652700292e-02,1.536060929298400879e+00
-8.338011025621920869e-01,-8.049779878508971365e-01,6.893231706893310218e-01,1.317862615417184600e-02,9.400100111860068552e-02,-7.836013652284916364e-02,1.523905396461486816e+00
-8.158314994285684740e-01,-8.328071164850238128e-01,8.211587634172767824e-01,7.959115209676162830e-03,5.604535855625981944e-02,-7.386478095718219949e-02,1.653419375419616699e+00
-8.749675268042218512e-01,-8.786466567299477948e-01,9.410167296892335553e-01,-4.271627942682322543e-02,-1.099622384050364388e-01,7.994932507211487127e-02,1.834507703781127930e+00
-8.922419844471346506e-01,-6.712103385943958278e-01,1.031206698525251708e+00,1.327311065689481574e-02,-1.873143450090398662e-02,2.095095822594289503e-02,1.823804974555969238e+00
-8.981209371114956541e-01,-6.739413787729279237e-01,1.034832559302467425e+00,-1.247756818836987316e-02,1.377569820838275144e-02,2.528692705453800676e-02,1.831991195678710938e+00
-8.210062172322069030e-01,-8.839298542711910844e-01,9.816528445400012348e-01,-5.854093893406130816e-02,-9.769529320890377958e-04,1.896953775246231627e-02,1.838024020195007324e+00
-8.037213431662446617e-01,-9.241416947082448097e-01,1.082766138418868929e+00,-4.868016760793593412e-02,-1.162935473089655655e-02,1.248792880384820732e-02,1.951535344123840332e+00
-8.916109903073362597e-01,-8.326044836077074462e-01,9.847790157149387547e-01,-9.293441612457103984e-02,-1.282248839148775535e-02,-8.011676571821550741e-03,1.854777097702026367e+00
-8.607847790913771835e-01,-8.516926731126582828e-01,1.081983382743006095e+00,-1.640799853711475895e-02,1.931335021135877766e-02,1.538848652346269837e-02,1.938918232917785645e+00
-8.113677199682950425e-01,-8.233130420208362166e-01,9.692067627777825045e-01,-4.989431011648953751e-02,-2.104921353479985782e-02,-4.253623843573868524e-03,1.789052724838256836e+00
-9.165271774249764691e-01,-8.047117906850634883e-01,1.064555779560125481e+00,-9.191751472446452187e-02,-1.079694144295435636e-02,6.084436675804000272e-02,1.937131643295288086e+00
-8.646184843512096929e-01,-8.521521366394793073e-01,1.032646174575334364e+00,-2.548975378268391601e-01,-7.055549566572766329e-02,4.078871530610794771e-02,1.947038888931274414e+00
-7.322372837883562857e-01,-7.236753358708498673e-01,9.848985191774350945e-01,6.721771364037401608e-02,-2.695824092597103581e-04,-2.956463796931898614e-04,1.716823220252990723e+00
-7.682823616155995960e-01,-6.616987515082074500e-01,9.970912189358294153e-01,1.270657921071546015e-01,2.489185648990813442e-03,-4.793561733402629428e-03,1.728660941123962402e+00
-7.937764647401024387e-01,-6.908915530472817812e-01,1.076064396190077099e+00,1.805091569492640047e-01,-5.119016673475956097e-03,2.023825502747422789e-02,1.847584843635559082e+00
-7.388163606358032487e-01,-7.920447644459507330e-01,1.034214893203372121e+00,8.381240234749059992e-02,-3.256538992774660191e-02,-3.413971277335633991e-02,1.807927131652832031e+00
-8.693017778209405355e-01,-8.359082101072888848e-01,1.023758634261142442e+00,4.311190503838911031e-03,2.454037858962723403e-02,-1.615132856131739746e-03,1.877084732055664062e+00
-8.566783173600802659e-01,-8.621636784838816459e-01,9.930940388120301776e-01,-1.531774463870564686e-02,-3.896459742503322748e-02,2.654333890144747014e-03,1.853945612907409668e+00
-8.215558247833555372e-01,-8.415272165772009760e-01,8.758585127715701191e-01,-2.037989547599611522e-03,-5.432783180089612030e-02,8.033932495333176091e-03,1.710138797760009766e+00
-8.587446028872496306e-01,-9.126469142296761428e-01,9.950616241679381968e-01,9.129818093339023624e-03,-4.533985305198220267e-02,-3.906040130166035101e-02,1.884256243705749512e+00
-8.127917889690212672e-01,-8.161766294107548614e-01,8.049205276267652476e-01,-4.706578754813329352e-03,-2.185056419542198355e-02,-4.239495556320851954e-02,1.621533513069152832e+00
-8.484001867165180677e-01,-8.289992669029332406e-01,8.789453519990111374e-01,-1.745425582075336643e-02,-3.615229603950589204e-02,-4.916648960563226034e-02,1.721241950988769531e+00
-8.789852113784342169e-01,-8.430395850703619187e-01,1.059097379626596114e+00,-1.233791876162777671e-03,3.180651109956228201e-03,1.535366523742660860e-02,1.920555353164672852e+00
-8.625329318801719936e-01,-8.684339793265993812e-01,9.903639194235525078e-01,-7.872483369455109299e-04,-7.690409396534605979e-03,-1.052977365913004837e-02,1.855992317199707031e+00
-8.535096731237662437e-01,-8.590554521545652467e-01,8.457873554813528649e-01,7.278290210979532866e-04,-1.274242111983560077e-01,-6.751082465684837830e-02,1.720305323600769043e+00
-8.358757715075899597e-01,-8.421609963493742468e-01,8.924820956278702866e-01,1.211976681017557997e-02,5.820451652052257598e-03,-3.847195566304321274e-02,1.732947230339050293e+00
-8.594145402565003256e-01,-8.416939624602803871e-01,9.418769441398067155e-01,2.832033093729397800e-03,6.300988273991437166e-04,-2.487301977735946381e-03,1.792509078979492188e+00
-8.294296599781135759e-01,-8.484838189342127635e-01,9.345594034200441769e-01,1.426109581381090202e-02,-5.588431359275753546e-02,2.031352142276600381e-03,1.776407480239868164e+00
-8.491454774807194461e-01,-8.728746392583732749e-01,1.011844170640579854e+00,-4.290190922516451399e-03,1.005096636083205319e-02,3.435580832725861501e-03,1.873072028160095215e+00
-8.379114777184137886e-01,-8.356626186521498578e-01,8.999551753404424481e-01,1.929925400830645801e-02,-4.647442781821184074e-03,-4.967077383792308648e-02,1.739212751388549805e+00
-8.420354176738458207e-01,-8.776436611084041939e-01,1.032152154732344895e+00,1.166174827790988390e-02,-3.933440388565156293e-02,-6.101415593356122489e-04,1.893577098846435547e+00
-7.473405070559711039e-01,-9.532118098306014975e-01,1.080826966689117929e+00,9.165123314651640526e-03,-3.290813016865880942e-04,-1.082727778773112798e-01,1.948426961898803711e+00
-7.392831176684621086e-01,-8.715021118438943670e-01,9.846084645469357355e-01,-4.652850043300242600e-02,-1.773705210255468838e-03,3.940056975310285599e-03,1.795484900474548340e+00
-7.462038168080805667e-01,-9.116627963136950674e-01,1.074143416247923977e+00,-5.554206118762970018e-02,2.023661204963457527e-02,3.473106595779527211e-02,1.912154674530029297e+00
-5.613574398314882252e-01,-8.980071279310654075e-01,1.002886770510953429e+00,-7.857609005054881635e-02,-8.149793880572345217e-02,1.514974135330807853e-02,1.768030643463134766e+00
-7.759393692403372400e-01,-9.098210832287838556e-01,1.100634297106893422e+00,-6.650932089872693687e-02,-6.603423920240428756e-03,8.077010096450049255e-04,1.950408935546875000e+00
-7.009653034842366903e-01,-1.015251935154319884e+00,1.106500851133631613e+00,-1.056777556977960691e-01,4.673939522102254357e-02,9.389582410218144659e-03,1.993512988090515137e+00
-5.945072572563101510e-01,-9.156618528377636901e-01,9.130426070891171086e-01,-3.938932011209024531e-02,-1.134505730321289270e-02,-8.302445667342261623e-03,1.692705154418945312e+00
-7.242935098621235968e-01,-9.323254045083914088e-01,1.108101694045076302e+00,1.214861843539981612e-01,3.627257862694199808e-02,1.337981544580046749e-02,1.957270264625549316e+00
-7.754957014968395512e-01,-7.907043293764894898e-01,1.118178518556333101e+00,1.496702182120868141e-01,4.654147538240351045e-02,6.064375733221150783e-02,1.923478245735168457e+00
-6.667663315954118763e-01,-7.486233072986596682e-01,1.145355053233110265e+00,3.008539773905462567e-01,2.148394816944782307e-02,4.325111016228392474e-02,1.928044438362121582e+00
-4.981266656667983073e-01,-9.201912238939975452e-01,1.012826872681654722e+00,2.104997070073016951e-01,3.472653630221568533e-02,4.098830879657815174e-02,1.800118684768676758e+00
-3.849522901567496991e-01,-9.298266940336961106e-01,2.594372366899078131e-01,-2.368063534831491845e-01,-1.882831567577347986e-01,1.127214427819836773e-01,1.173004269599914551e+00
-7.423366507531488079e-01,-6.519129354496220330e-01,-4.548988129880082720e-02,-7.037916424629754066e-03,1.347391221266156791e-01,2.405217987881708500e-02,6.979315280914306641e-01
-7.367602623773494841e-01,-7.849600294746434948e-01,4.784424985764240690e-01,-9.828122165720888301e-04,-6.772731322995956260e-02,-4.525802030036075833e-03,1.245567679405212402e+00
-8.006264613944007458e-01,-8.584481444397524807e-01,7.273300649569167664e-01,-1.610690957462926776e-03,-4.128778820971557018e-02,-6.906468952559922242e-03,1.559361577033996582e+00
-8.402478421438784872e-01,-8.551540699696683623e-01,6.774659744585878052e-01,9.117339394015660722e-03,-8.439926520438838231e-02,1.286909127136841025e-01,1.548419833183288574e+00
-8.234945367486992129e-01,-9.786457455717677556e-01,7.400646881916577158e-01,-1.149777990699732827e-01,-3.706144645236157664e-02,-1.988949091107275469e-02,1.660224199295043945e+00
-9.739809431868721168e-01,-7.130095242294848257e-01,1.105957424519107501e+00,-1.720326308345929492e-02,-5.580764479959044941e-03,-1.762728793662283674e-02,1.962997317314147949e+00
-8.979783677845276646e-01,-7.074833457297586836e-01,1.044652322433727631e+00,-1.190466180548450520e-01,3.966840666750620636e-02,-1.030724933473668448e-01,1.875939726829528809e+00
-9.245145373280883039e-01,-7.111322237796895429e-01,1.053293863623279147e+00,-6.202241411723805921e-03,-8.357570403908597470e-03,-4.045263715732674847e-02,1.881611824035644531e+00
-7.779538172008197972e-01,-7.756882265471968241e-01,1.018712186438244682e+00,2.627658038766917878e-02,3.226876445490374241e-03,1.257489109658059198e-02,1.796251773834228516e+00
-9.551779636786232874e-01,-6.193552282063807812e-01,1.015566200689744569e+00,-4.848903143605134969e-02,-5.122610918532678054e-02,2.444876482300280957e-02,1.830712437629699707e+00
-9.078653139910378700e-01,-8.107786925343793971e-01,1.032567302782233298e+00,-4.802942140324232417e-02,1.817952576209476423e-02,-3.769365277424548827e-02,1.896968364715576172e+00
-1.094686731810447400e+00,-7.035332876605380203e-01,8.990810229360060024e-01,-4.210506865186543907e-02,1.637873643724870876e-01,-4.311360661853601978e-02,1.854620099067687988e+00
-4.694606062263920188e-01,-1.138874288875624918e+00,1.244957519435831994e+00,3.616170131442549007e-02,-4.006793508025957920e-03,-2.331484244534052282e-03,2.130489826202392578e+00
-5.653118516661369553e-01,-9.995604213723117137e-01,1.084055346102692052e+00,-1.187593082224252562e-02,-3.445244977715906237e-02,-7.550454153767174187e-03,1.905091643333435059e+00
-3.731609611325077402e-01,-9.716118502436097426e-01,1.010212297581740692e+00,4.084297828420801330e-02,-3.009450663006873333e-02,-5.433041756860261529e-04,1.762801289558410645e+00
-4.719328628706188633e-01,-9.916727697817530052e-01,1.193942784629668630e+00,5.449129114081100594e-02,-1.325073483002487361e-02,2.590484279889989500e-02,1.980540633201599121e+00
-8.078637845369648351e-01,-7.879358533286152655e-01,7.789456996875607775e-01,-7.759862147065789417e-02,6.629663304484900710e-02,-7.000631615965270671e-02,1.591443538665771484e+00
-8.654934400954987783e-01,-8.746588776343491300e-01,9.904970160222985598e-01,-2.652182553253985484e-02,5.720616518274449641e-02,-4.177248259432753130e-02,1.865196585655212402e+00
-8.494150450677931952e-01,-8.422763678369497020e-01,8.925909598305541426e-01,4.604508130225111288e-03,-4.728782297833276221e-03,-9.060452913956422438e-02,1.745553970336914062e+00
-7.832594047988112873e-01,-9.046014468214315096e-01,6.148320424700074449e-01,-5.942840625592651915e-02,5.474530923836246066e-02,4.679827123467301259e-02,1.471457600593566895e+00
-7.914493870331549275e-01,-9.442882736982239900e-01,7.951979756063538574e-01,-9.702737933161185990e-02,1.468536868996772604e-01,-1.745491381161277077e-03,1.695954322814941406e+00
-8.581751177467077385e-01,-9.335305927606725174e-01,1.063443859468738095e+00,-9.216058181539303618e-03,7.234413230923397720e-02,-8.675771776413097533e-03,1.964506030082702637e+00
-8.141389615317783379e-01,-8.543334185622155630e-01,8.884482275765370751e-01,7.796329458156539896e-03,1.996020677574520882e-02,3.088570313597084963e-02,1.724265813827514648e+00
-1.074957090448393604e+00,-3.821643910801311161e-01,1.103812261951418572e+00,1.950705577335453134e-01,-2.130717743673435013e-02,1.562415169178464347e-01,1.976440191268920898e+00
-9.903273192410035897e-01,-3.189968266644629402e-01,5.959929919910503804e-01,1.324334683377845212e-01,-5.321634337394568620e-02,7.921840071167045305e-02,1.407867193222045898e+00
-1.063833670728334235e+00,-4.154136178417273673e-01,9.871470771695409763e-01,-1.252761462841789630e-01,9.196057052568425150e-02,-7.684779110553233150e-02,1.840446352958679199e+00
-1.154586712958140637e+00,-2.510482372901378656e-01,7.804404791515202611e-01,-1.357728082942342984e-01,-9.346812913324016592e-02,-1.989987054322849003e-01,1.735699772834777832e+00
-9.776740622206231413e-01,-5.824245807613984693e-01,1.018616220580913501e+00,5.565065488357451989e-02,3.020473227655596019e-02,5.538928254023613162e-02,1.836735248565673828e+00
-1.081486265109454337e+00,-7.369135452290198618e-01,1.111300170232440099e+00,-7.097890224500683076e-02,3.984487518022141600e-02,7.813288794207640109e-02,2.051745414733886719e+00
-1.049903189584717511e+00,-7.349740596862941455e-01,1.097091276571069862e+00,2.787428203673056326e-02,-1.596278743723117399e-03,-4.879102246707051754e-02,2.010496139526367188e+00
-8.211564676547780106e-01,-7.867878435996088493e-01,1.039389428862644182e+00,4.178268468492064847e-02,-1.184007138591447114e-02,-9.533010794734874879e-03,1.845209598541259766e+00
-8.128012881809284496e-01,-8.644733677749329992e-01,1.034376358068807233e+00,3.682975694309609943e-02,1.425281806941094444e-02,-9.597350143418826446e-03,1.874870061874389648e+00
-8.374384782395513094e-01,-8.138252822812793719e-01,1.063749719518530368e+00,2.291771774699495959e-02,2.583614728798583338e-02,2.724549950164727868e-02,1.891027808189392090e+00
-8.464015351107609941e-01,-8.269828048958828282e-01,1.062549222531429916e+00,8.143396222073512325e-02,-1.390273809946255927e-02,-1.284369383999670045e-02,1.904828071594238281e+00
-8.330874837722462845e-01,-8.076501274184222368e-01,1.060455454043057077e+00,1.378842047568351603e-02,2.744611878139125230e-02,2.468416301358047557e-02,1.882191061973571777e+00
-8.471975016415357329e-01,-8.643709454697828809e-01,1.029780294542864238e+00,-2.196130197787562327e-02,-2.987980425016570352e-02,1.347712162193421409e-02,1.886861085891723633e+00
-8.541363482131574258e-01,-8.836820275687615744e-01,1.074433095996199405e+00,-2.545785712010760135e-02,-1.311183459193772209e-02,2.071962504103941425e-03,1.944146871566772461e+00
-8.640673213468942349e-01,-9.132422203460972554e-01,1.086559755937991367e+00,-4.271660968704835137e-02,-3.137801452293988852e-02,5.062727029934223008e-03,1.977824807167053223e+00
-8.631542130499963994e-01,-8.738382232843904251e-01,1.054364481436717904e+00,-1.051234245351335278e-02,2.073315659841384884e-02,-9.233310972800303851e-04,1.923305153846740723e+00
-8.445416844016161440e-01,-7.318738897897323348e-01,9.535693046822046881e-01,-7.675272769482094359e-02,7.352612345500005031e-03,-5.081363696205189184e-02,1.751824498176574707e+00
-8.401926102357534232e-01,-9.033295643986013479e-01,9.003422175765698476e-01,-1.092244472676429240e-01,-4.297327935916645664e-02,-1.706422754174621512e-02,1.784809112548828125e+00
-8.980971984938188601e-01,-7.879533799547369100e-01,9.692300916148179901e-01,-1.490779719765547573e-01,5.336292210514549661e-02,1.534694665276159671e-02,1.835562705993652344e+00
-6.116571514224705686e-01,-8.355225477671496259e-01,1.026207790000086995e+00,1.995845625054018524e-01,3.921553788137210894e-02,1.096746549807632240e-02,1.795509696006774902e+00
-6.036589972755554978e-01,-9.853195478206279168e-01,1.161945561080871991e+00,9.631017891204854409e-02,3.141038672703658479e-03,3.937944726312268655e-03,1.991177797317504883e+00
-5.476831344760368925e-01,-9.561104017976244096e-01,1.124453627001448908e+00,1.160149424547733538e-01,-6.127045735419813649e-02,-2.119770850323581327e-02,1.923223614692687988e+00
-5.986298158672938019e-01,-8.677170210023573693e-01,1.194412351757934143e+00,2.054528541750722803e-01,-6.174858410245770424e-02,-2.214897392591997499e-02,1.977229356765747070e+00
-5.185458581570048242e-01,-8.440566642330932234e-01,1.031993114414937684e+00,2.198021290572598485e-01,4.674117417948649850e-02,2.744508092132361479e-02,1.780055761337280273e+00
-8.032728595929878868e-01,-7.359160453444729688e-01,1.012837992836165268e+00,6.759995569134626126e-02,7.105139457881902432e-03,8.306140282861019380e-03,1.787326455116271973e+00
-6.003242806317601321e-01,-8.502960768737197750e-01,1.056687292349307361e+00,1.352003237246951206e-01,1.165759360887716652e-02,1.378436112589068174e-02,1.810578465461730957e+00
-6.276382431073684875e-01,-7.677375829148006536e-01,9.801145913764071071e-01,-1.284900474276156890e-01,-4.772966450613313170e-03,9.606678255772578903e-03,1.696943283081054688e+00
-4.666427649380405773e-01,-1.428770438064664638e+00,1.375808901022745445e+00,1.023350985709451932e-01,-5.723126712567768587e-02,5.990154637103402291e-03,2.476760625839233398e+00
-7.814135373925962247e-01,-8.580694570936966414e-01,1.046904995544652550e+00,-8.900287038333719661e-03,-1.098278181749926322e-02,-1.640224051478828687e-02,1.868203163146972656e+00
-7.010125174183228225e-01,-7.933694692729611475e-01,1.013148838887556025e+00,-8.636944935915541466e-02,-1.185241855634805962e-02,1.113315954351853584e-02,1.768718719482421875e+00
-7.647629682865995093e-01,-8.124783797732756385e-01,1.047540882805005458e+00,-1.222622587270453393e-01,1.759166007144814196e-03,9.733363143217555954e-03,1.848873853683471680e+00
-7.731951468832889418e-01,-7.637952930760153469e-01,1.015161307205278529e+00,-2.985887367207297471e-02,-2.479084351375661962e-03,-2.165753329906595394e-03,1.784433841705322266e+00
-7.522651292536174372e-01,-7.363136151280977870e-01,9.982325647399159507e-01,-5.205709696041929679e-02,1.238377090760035045e-03,-6.589577122301763443e-03,1.744946479797363281e+00
-7.898958571165887177e-01,-7.252209662285686864e-01,1.008369029447034215e+00,-1.049425951981222162e-02,-5.666758150350470827e-03,3.046260295075199805e-03,1.766944050788879395e+00
-7.475679699780568566e-01,-7.526875717838518165e-01,1.018169396725811859e+00,-5.253020274648984717e-02,-2.814508831074517131e-02,3.176202888259668095e-02,1.772166967391967773e+00
-7.561954204274329294e-01,-7.931802808714631947e-01,1.033444270611982851e+00,-7.224478718767447794e-02,-2.541233166710301847e-02,4.026834317853902195e-02,1.814615011215209961e+00
-8.548369911671713783e-01,-8.623030949779536547e-01,1.034768369397441878e+00,-1.824392418212480689e-03,-6.228674061299170617e-03,-6.616691120313540446e-03,1.893417477607727051e+00
-8.077611112489802014e-01,-9.859531085821465757e-01,7.600709433501742218e-01,1.334293499287157216e-02,-3.935268074236657893e-02,-2.492060529926376153e-02,1.666213631629943848e+00
-8.310379254689234108e-01,-8.051120207015016739e-01,6.656683151807777366e-01,1.084540490498069054e-02,-6.405063705125195461e-02,1.200226304651235698e-01,1.502622723579406738e+00
-8.628051084041961083e-01,-8.416972173890566733e-01,8.211716925174512571e-01,-9.756544801102759457e-03,-3.954734420272264239e-02,1.539920439886801329e-01,1.696112155914306641e+00
-8.295344061895735255e-01,-8.634996990795013039e-01,8.807186257626986592e-01,-1.056627392640675962e-02,8.594766694153876735e-04,9.519878732744026240e-02,1.735434770584106445e+00
-7.876231003040399248e-01,-8.006814085275812953e-01,6.889679608081048512e-01,1.089876000221494563e-02,1.185952422135850767e-02,4.128496862813268303e-02,1.485148191452026367e+00
-7.957479325700356210e-01,-7.925485193699296493e-01,5.831747345605975408e-01,3.083108951235931719e-02,-1.421520492625409915e-01,1.697892159796615674e-01,1.430728673934936523e+00
-4.944272197435343741e-01,-1.187763557920320290e+00,1.201504161016375249e+00,-5.172422320152907094e-02,-4.252470338746887346e-02,-9.466378308019093857e-02,2.138477087020874023e+00
-5.875983993448941067e-01,-9.745586911982733191e-01,1.072490947190955835e+00,-5.536240426723085944e-02,-1.016308291575528447e-02,-1.940104030781497971e-02,1.886440515518188477e+00
-6.337284390212263308e-01,-9.984441916072269718e-01,1.134649956465542786e+00,9.087116712276330915e-03,9.025399282422743100e-03,7.133703411853126175e-02,1.980124831199645996e+00
-5.515767001406590708e-01,-1.031756375974789641e+00,1.012049990923690412e+00,4.606459016460424938e-02,-7.538685568120304104e-02,4.672020670931801428e-02,1.859109044075012207e+00
-5.181347258753350449e-01,-9.596171148298214826e-01,1.037025364449920994e+00,-6.418735616125726025e-03,1.845034112655306868e-02,-6.668556133432996386e-03,1.816943526268005371e+00
-8.718497326565859407e-01,-8.592961747653899973e-01,1.039120400022586876e+00,1.428369119960470023e-03,-4.096856018371074042e-03,5.314289089035198303e-03,1.904761433601379395e+00
-6.248692131051345466e-01,-1.058607619828726865e+00,1.184524616467596214e+00,-6.542699104984953107e-02,2.223669134036177636e-02,1.169758762365787248e-02,2.064358234405517578e+00
-8.571627405594354210e-01,-8.577282581124131555e-01,1.069901281885949018e+00,-4.140190469031137794e-04,7.070012345398662447e-03,2.969036711402389672e-03,1.927392721176147461e+00
-1.000182625701435457e+00,-5.597218875301468444e-01,1.227425945856786216e+00,-2.380332783197171009e-01,-4.236831328792867168e-02,7.293453154466518484e-02,2.089591979980468750e+00
-8.537843866889033295e-01,-7.043854249112554422e-01,1.098420238005407779e+00,-1.564934505124424557e-01,-2.048059523713014959e-02,1.287870967797632646e-02,1.901839137077331543e+00
-9.740264973280819971e-01,-4.811676431503832396e-01,1.063325993046396301e+00,-1.483816870729720017e-01,1.345346575237635345e-02,-5.104599727711365414e-02,1.861182212829589844e+00
-8.794769511180731136e-01,-6.342334569790104570e-01,1.070982866249160725e+00,-1.081010471891838826e-01,-4.772099306223474141e-02,8.233648399295320774e-02,1.856967329978942871e+00
-7.644312054556452463e-01,-8.214960342184910447e-01,1.036247232426208198e+00,4.054597105331455426e-02,-4.118979029340578274e-02,-3.685957606664740094e-02,1.833726286888122559e+00
-8.063951167518139673e-01,-8.356510824686049776e-01,1.028069550719910907e+00,4.967440024324240588e-02,-2.713859090253838841e-02,-1.105407153347226848e-02,1.851962327957153320e+00
-8.342164546554290405e-01,-8.491680217859053359e-01,1.050118241830613863e+00,1.644246673790627708e-02,1.642317840232410814e-02,-2.902434838851515597e-02,1.892950654029846191e+00
-8.199599552916375655e-01,-8.336636308428175823e-01,1.031606364946351162e+00,3.615292774019306793e-02,-3.658349037973754325e-02,-1.113665052091405636e-02,1.860689997673034668e+00
-7.480440955387189783e-01,-8.397400768314827735e-01,1.045043657023985828e+00,4.946019866748387062e-02,-1.956417083201760637e-02,-9.358792645924089715e-03,1.843024849891662598e+00
-7.620284831419303906e-01,-8.318273904252034834e-01,1.023131735765252959e+00,4.717995019465923145e-02,9.176457661621593292e-03,9.448571005319220985e-04,1.822965741157531738e+00
-8.637072532399222569e-01,-8.649931804810314651e-01,9.964343181308974451e-01,-3.143009048945928901e-03,7.427443363777915496e-04,1.810717174641797433e-02,1.861057519912719727e+00
-8.418306042103848030e-01,-8.549398455541241670e-01,1.037285312254073277e+00,7.249590215701689350e-03,2.302981166474475649e-02,2.152508661950576496e-02,1.886536836624145508e+00
-8.311203992311125832e-01,-8.575408863740013876e-01,9.897008310406050224e-01,6.110913137523567296e-02,2.180805830943096085e-03,-3.718414818904885316e-02,1.838358044624328613e+00
-7.297737629224505529e-01,-7.419810611772419406e-01,2.678053012265980692e-01,-3.673474254281280851e-03,-2.829775001470469786e-01,1.831223150330771668e-02,1.117482066154479980e+00
-8.328905718317523021e-01,-8.517400555788938732e-01,9.493684702033695633e-01,-1.834474805508929524e-03,2.618926441776369546e-02,-1.307564414141759203e-02,1.792478203773498535e+00
-8.338902093540909721e-01,-8.767737181635804067e-01,9.762955891618949611e-01,3.822115016399557121e-03,3.142123188552385649e-02,2.647265727040706493e-02,1.833397626876831055e+00
-7.849041910830359958e-01,-9.022694724121532728e-01,1.024480940643925697e+00,4.732236495590799730e-02,1.237887852239369368e-02,2.227603304321286795e-02,1.873145699501037598e+00
-8.995503893935744566e-01,-6.294310413063787246e-01,1.049996323101639151e+00,-1.172208164714156758e-01,1.824663174032985224e-02,-2.837593581748616527e-03,1.841013789176940918e+00
-7.769657184557956509e-01,-7.622031252381159527e-01,5.688478708913937698e-01,-1.382835963607873192e-03,-6.149192313119226927e-02,-1.101729021811000131e-03,1.342727661132812500e+00
-7.339368008666351528e-01,-6.491108149018173235e-01,1.133723781504280881e+00,-2.579533331308020427e-01,5.451317198184685991e-02,-9.854444409367603408e-02,1.890659451484680176e+00
-8.250749665363483754e-01,-8.599099960634727369e-01,9.152819990577916176e-01,1.186904977721192763e-03,5.240178875932919450e-02,-2.223193809429797538e-02,1.760797023773193359e+00
-8.402959135105376731e-01,-7.995639826032452380e-01,7.222620936512398337e-01,5.688811979565775931e-03,1.212996575002579930e-01,-4.220239568950383095e-03,1.556885361671447754e+00
-8.360528730864769109e-01,-8.672893750496959431e-01,9.503562612280864741e-01,7.951246803212134529e-04,2.002294995148482318e-02,1.478676864786828034e-02,1.802746534347534180e+00
-8.341395875486310452e-01,-9.356738066723840896e-01,9.820313694796725112e-01,-5.238706053701826064e-03,9.226362813690734688e-03,-6.457886521051876480e-03,1.869131445884704590e+00
-8.251509947926951583e-01,-8.474399756261068450e-01,7.459404534022129329e-01,1.334159401092939110e-02,1.496083844237597882e-01,1.142526863420854390e-02,1.603719711303710938e+00
-8.041475882107709250e-01,-8.116787774577941539e-01,5.682547409599266741e-01,-7.111723035076154137e-03,1.245089631389909857e-01,-2.776086511535342041e-02,1.393862247467041016e+00
-7.560586048503724621e-01,-9.894188100711931444e-01,8.220154149518612563e-01,-3.767199546403792593e-02,1.608411156844588574e-01,5.909848432906023713e-02,1.733603000640869141e+00
-6.898358751003063061e-01,-8.812787993747633886e-01,1.090172558168773786e+00,1.099621538265177362e-01,2.800741106141793960e-02,3.453515951161444109e-02,1.894216656684875488e+00
-7.922110185766562118e-01,-7.830207068172376772e-01,1.090076660879375714e+00,1.235875044741341355e-01,2.922724672333530671e-02,3.318320618563323082e-02,1.891422867774963379e+00
-7.499999825794777530e-01,-7.289675646174693657e-01,1.039979142451321614e+00,3.008437191807286637e-01,1.049704570287132988e-01,3.506367635349862816e-02,1.864158153533935547e+00
-7.920858578179097442e-01,-8.223526775227818497e-01,1.100821658547889603e+00,1.400966813335465799e-01,2.677464627129855917e-02,1.886105623101954828e-02,1.924423694610595703e+00
-7.642372733094174864e-01,-7.882199153696494154e-01,1.018487109848870587e+00,1.029305027601850331e-01,6.830629614360133467e-03,1.018707409590173876e-02,1.803793549537658691e+00
-7.696993041758891652e-01,-7.843966646057113357e-01,1.006498543330716533e+00,1.176443775684819504e-01,-1.825889893843874248e-02,1.458936682497247346e-02,1.795650124549865723e+00
-7.871471240063773189e-01,-6.475870957321163690e-01,1.046586239836521326e+00,-1.098611108344201559e-01,1.119036234649226601e-02,1.729501116694703855e-02,1.778656959533691406e+00
-7.248898650769398655e-01,-8.088493892485195680e-01,1.023299021592809721e+00,-6.980629457102111024e-02,9.306053635413685104e-03,-1.248600079179975654e-02,1.795922279357910156e+00
-7.332725578307015546e-01,-7.356450060740769015e-01,1.013978499726306159e+00,-5.779028211241550583e-02,-1.417507345720080310e-02,-1.807425187540397798e-02,1.751753211021423340e+00
-8.630246065965769819e-01,-8.593936429399224863e-01,1.072743848553204371e+00,-1.930470359072452647e-03,7.619704421577600830e-05,1.617300257303324598e-03,1.933960437774658203e+00
-7.288797122856146560e-01,-7.376583780715326721e-01,9.886797494658998708e-01,-6.703463332934657404e-02,8.099573149092957267e-03,-3.785054401727501027e-03,1.725944995880126953e+00
-8.387173749445125948e-01,-8.452756209287649591e-01,9.179009389871610747e-01,-1.471621878921326385e-02,9.032404485107644113e-03,1.252334806856857108e-02,1.760294318199157715e+00
-8.501395405088627566e-01,-7.646137866912016134e-01,1.150193844310584801e+00,1.481723075480125829e-01,-4.676126348414477718e-02,3.150578835587874299e-02,1.978123068809509277e+00
-6.701871615307831709e-01,-9.612901230279106146e-01,1.079394764480202662e+00,1.943746149871893314e-01,5.666682647559731500e-02,-1.068880731859905711e-03,1.943725228309631348e+00
-7.055870787553575330e-01,-7.564448612647665104e-01,1.022407282730557476e+00,2.020184338100733390e-01,3.425419777730752402e-02,4.730308661258860077e-03,1.789540290832519531e+00
-8.601030192736623947e-01,-6.893729812969956461e-01,1.118339158879110729e+00,2.180313971294381425e-01,8.130925580156555393e-03,6.365354453730730222e-02,1.939218759536743164e+00
-8.629453612261717144e-01,-8.357241905889067901e-01,9.457453286224222211e-01,3.728279731155137878e-03,3.847172318299054073e-05,3.259041717130176677e-05,1.795246481895446777e+00
-7.639100428239907759e-01,-8.914898282897577575e-01,1.059818012188749270e+00,1.033376596146026033e-01,-4.654137352249851714e-03,-3.264325186267929418e-02,1.900060296058654785e+00
-7.413660091591914858e-01,-7.971822263093144567e-01,1.024553234840759552e+00,9.511876669012526986e-02,2.402377323850536997e-02,7.368670828541657065e-03,1.802551031112670898e+00
-8.363017691243678220e-01,-8.964683375745310379e-01,1.090429807186232392e+00,7.485440594085930599e-02,4.023696621645392324e-02,4.291218081719498645e-03,1.963048934936523438e+00
-8.689344187514573825e-01,-8.626982031455887601e-01,1.061191970640244842e+00,2.773780409853321850e-03,1.463628482846788745e-02,7.071921355749043181e-03,1.927227497100830078e+00
-8.539494169587984462e-01,-8.581045805907053792e-01,1.052845102275632216e+00,7.987661651918800260e-03,3.680652611722166900e-02,2.243892037826171124e-02,1.910385251045227051e+00
-8.776473011831584792e-01,-8.211904437180453931e-01,1.049764560849621109e+00,1.381282388627762606e-02,2.466919634809230932e-03,-1.252729196581769608e-02,1.900092005729675293e+00
-8.514331366408182111e-01,-8.539632271936415941e-01,1.049281062996152203e+00,3.528205388673528661e-03,2.119162039641576956e-02,2.315515753346017794e-02,1.902767181396484375e+00
-8.561246662699542043e-01,-8.305808876389050299e-01,1.018994118256333570e+00,1.100778116405803225e-02,-2.779557829387377735e-02,-3.112179685382062549e-02,1.863977551460266113e+00
-8.527985577965667696e-01,-8.788006844904322490e-01,1.016665421492363608e+00,1.713309946415090927e-03,-2.613624582576968766e-02,1.878167320301181789e-02,1.883427262306213379e+00
-5.322202847214734245e-01,-1.305785579493820237e+00,1.381269578062694015e+00,-3.973556361222886357e-01,1.911433356856410137e-01,-1.101055981540088186e-01,2.521846055984497070e+00
-8.191095826452670092e-01,-8.393141938897098475e-01,1.016898643092998711e+00,5.981687746188446564e-02,3.278214289123815989e-02,3.379251182984562007e-02,1.850895524024963379e+00
-8.124805209226774183e-01,-8.559886719934620691e-01,8.434346210517014164e-01,7.393955865505074526e-03,-6.198856612010300582e-02,1.364536969325142249e-02,1.681738376617431641e+00
-8.318794337015007478e-01,-8.174747096860194295e-01,8.244315324145454760e-01,-1.459976564428119329e-02,-5.347193407573722253e-03,-1.091144396747768634e-02,1.649483919143676758e+00
-8.719576823298841317e-01,-8.559211492702438751e-01,8.665084880883848761e-01,6.624986076633286765e-03,-8.786815129446327866e-02,-1.137496699772639480e-01,1.748357534408569336e+00
-8.880303552353517871e-01,-8.448568818542835368e-01,1.025539477787808185e+00,1.295555958454007277e-02,5.017002486976682163e-02,3.727534545387036630e-02,1.895579338073730469e+00
-8.783097467822841287e-01,-7.305074025162824336e-01,9.726453091630520298e-01,9.503580138416777359e-03,-2.161198789254243149e-02,-1.941626691243890021e-02,1.782444357872009277e+00
-8.571525843461420546e-01,-8.078116879096401970e-01,8.383139219831126088e-01,8.795762222036398971e-04,2.577440681013856271e-03,9.018718744769500806e-02,1.678632974624633789e+00
-7.857114438276981971e-01,-7.842461501018821446e-01,6.337206817827674143e-01,6.270835321976296096e-03,-5.868387657957734038e-02,-1.086470988958302547e-02,1.422502517700195312e+00
-8.556448045353932663e-01,-8.423327646751214148e-01,1.051195479370058861e+00,2.532440247178024528e-03,9.190494717885344981e-05,-6.980130467895745774e-03,1.900262713432312012e+00
-9.148617728017426343e-01,-7.737299040928709015e-01,1.046121016733830844e+00,1.866088591312525455e-02,-1.182385367398408257e-02,2.060691794844828062e-02,1.895086407661437988e+00
-9.068854159168059370e-01,-6.551499974010948080e-01,9.339399323212893567e-01,1.014762527057196384e-01,-3.059113051990236531e-02,-6.968280422672909480e-02,1.742663025856018066e+00
-8.048785411037100435e-01,-7.976401485434801986e-01,7.178321164536849430e-01,1.788092575451272594e-03,1.419316994819414847e-02,-1.702243088619023043e-02,1.519592523574829102e+00
-8.975669904764135287e-01,-8.436505615472920105e-01,9.979374418526638646e-01,1.456834851863418601e-02,-3.725409136007306471e-02,3.019852270934597974e-02,1.871144413948059082e+00
-1.038107506657151236e+00,-5.211235106541167728e-01,1.108743434818709961e+00,4.768183670984925404e-02,-4.396222883727221586e-03,-1.280437330939020873e-02,1.942607641220092773e+00
-9.814710415217884343e-01,-5.645009559040290448e-01,1.051766324082714421e+00,9.168074861557629074e-02,8.803640212843827362e-03,7.939500432258446427e-03,1.867018103599548340e+00
-9.340986223946846634e-01,-4.797637098298825897e-01,1.090487342259717662e+00,2.166060645892191328e-01,2.067254393174825997e-02,4.612168135460802121e-02,1.879879474639892578e+00
-9.537792620660870968e-01,-5.791398845180713018e-01,1.206532928517544567e+00,1.744407024980508258e-01,-6.298624204405445237e-02,-2.643954050922789345e-02,2.025648832321166992e+00
-8.953799196114311520e-01,-6.163626908008797978e-01,1.033471373477251820e+00,1.292234158088423901e-01,1.412831632516076651e-02,1.339443925286645451e-02,1.819716572761535645e+00
-8.350637575937714940e-01,-9.156569921151065383e-01,1.070221008394859341e+00,6.242133446266400106e-03,2.195681294732571009e-02,-3.078409141839115806e-03,1.947241663932800293e+00
-8.564298497519029496e-01,-8.437368389343070652e-01,9.640729045608158465e-01,-2.323438981395120270e-03,2.173569246877025268e-02,-2.105151190799770325e-02,1.814950942993164062e+00
-8.458706679227493419e-01,-8.884766560703621918e-01,1.001459559262326771e+00,1.923523476261485444e-03,4.970658745186685989e-02,3.382332652785505905e-02,1.871899247169494629e+00
-7.920460937897914055e-01,-7.815843862033711176e-01,6.484138144178498431e-01,9.493123829523372748e-03,-7.412686014211161689e-02,2.311560444728462740e-02,1.441638708114624023e+00
-8.426299654155640084e-01,-7.743564051449768337e-01,6.343885751376081572e-01,-4.463529255305614908e-04,4.931365674338310245e-02,-3.410207392531845044e-02,1.447822093963623047e+00
-8.248062793571491191e-01,-7.943500933623000027e-01,4.688861789859177787e-01,-1.645369286990007798e-02,1.167688107210269194e-01,-1.315365122097539585e-01,1.314834356307983398e+00
-8.318772162355729805e-01,-8.285553658450725001e-01,6.127453495780453840e-01,1.401423984261519675e-03,9.928377067172250436e-02,-2.290746358922091108e-01,1.506369709968566895e+00
-8.683449612536501272e-01,-7.172159217935190068e-01,1.032172235225732315e+00,-3.829507687049940601e-02,-2.951358579294729306e-02,4.736453461052166775e-02,1.833391666412353516e+00
-8.593230255999984024e-01,-8.598179824370185687e-01,1.070347446888615606e+00,-1.523657641932180031e-03,-2.166288495719476126e-02,1.323455466107900137e-02,1.930420637130737305e+00
-8.224363006847772439e-01,-7.999958499804130652e-01,1.044407532078839518e+00,-3.642009724385189551e-02,-2.573259744258618933e-02,1.275318341293824910e-02,1.857463359832763672e+00
-8.619214839881392809e-01,-8.503501798310039161e-01,1.052233250215514060e+00,-1.822473242292429411e-03,-4.800703720895470837e-03,-1.660761921601559138e-02,1.908632874488830566e+00
-8.606621688722319030e-01,-8.513993271726847389e-01,1.062162135171049293e+00,-2.980966417817386849e-03,8.749453678032950016e-03,-2.107425755813480128e-02,1.918623685836791992e+00
-8.597704944784740899e-01,-7.967855446589574564e-01,1.025807610478069565e+00,7.644910242565106442e-03,1.504974844793810322e-02,1.331369065117671974e-02,1.855261564254760742e+00
-8.493133082298005565e-01,-8.537597995145582708e-01,1.066159009158116344e+00,1.705394099154030523e-03,-4.745348994699847590e-03,-3.488931391274514762e-03,1.917728781700134277e+00
-8.566884289038987355e-01,-8.507193707824158846e-01,1.038573078424904539e+00,-1.343946036381961188e-02,5.647985700910005541e-02,-1.176327985314518793e-02,1.895063519477844238e+00
-8.393613337780466699e-01,-8.411217059731439516e-01,1.065475378381881777e+00,-2.878436273609676771e-02,-7.717142728647904786e-03,3.301315455831605600e-02,1.907273769378662109e+00
-9.581589649534004716e-01,-6.060666680397200912e-01,1.104441760030867581e+00,-9.954044854325380665e-02,6.022130840953480134e-03,-1.516752791126866340e-01,1.936727881431579590e+00
-9.258811963741103712e-01,-7.227382429451788548e-01,1.070038165255173590e+00,9.430386901859905135e-03,6.541544095552796409e-03,7.581958352871879039e-03,1.902648687362670898e+00
-8.247573748389257497e-01,-8.398016435261288493e-01,9.503490286713063284e-01,1.062458304692074501e-02,-2.174911298685756542e-02,5.654367402047976929e-03,1.783195972442626953e+00
-8.405354226413045415e-01,-8.340583366417455569e-01,9.190399133598625703e-01,5.072007371539383885e-02,8.343986121652093024e-02,2.691588221879571974e-02,1.765085816383361816e+00
-8.496796147598745241e-01,-8.694026779293478890e-01,9.558037572091897527e-01,-3.149837878051104430e-03,2.821517920215744005e-02,-3.142768737011494840e-02,1.816906690597534180e+00
-8.078735060740427354e-01,-8.010957912921322643e-01,7.172167957354200762e-01,-6.254264680529914369e-03,2.017887062506629539e-02,2.036904614391461463e-02,1.522561430931091309e+00
-8.294842441845824421e-01,-8.490975011345801571e-01,9.845622454010167779e-01,1.962064643443820269e-02,-9.485660097232012297e-03,-1.231444542919995881e-02,1.824447393417358398e+00
-8.487374810468958364e-01,-8.817143498829895787e-01,9.422636231017476049e-01,-4.781568985965819335e-03,4.673531003541951320e-03,-3.903448503371757805e-02,1.809016108512878418e+00
-8.379616348052808528e-01,-8.682152456040856947e-01,8.884387335451029433e-01,-2.098699608055406684e-03,5.269656289440829283e-02,8.203613072544585494e-02,1.749896287918090820e+00
-8.689044773149936507e-01,-8.803941042834702024e-01,1.011402845524236094e+00,8.379623897677353564e-03,2.318528233841971042e-02,4.346764445450326808e-02,1.888063430786132812e+00
-8.217049986106963466e-01,-8.353464713617810844e-01,8.865124333877143492e-01,8.154909559905103300e-03,4.152840197367738823e-02,4.538815965077266229e-02,1.718443751335144043e+00
-8.249765313371789643e-01,-8.104359408641598206e-01,7.312941831335033616e-01,6.860005132224220904e-03,-1.903221460817853747e-02,6.152209090443192668e-02,1.553107738494873047e+00
-9.611702961667650813e-01,-7.305674753315729575e-01,9.961435557677675856e-01,1.394539647115393150e-03,1.879667697321586034e-02,-1.727378710771669545e-02,1.853335857391357422e+00
-8.222720239401570819e-01,-8.084306602985109613e-01,8.265300350652264871e-01,-2.044007738914201122e-03,-3.699690674391669515e-03,8.973234673780300374e-02,1.649280905723571777e+00
-8.600791316510334461e-01,-8.663180087383109962e-01,1.028632558025535326e+00,6.546229088640010893e-03,-1.129922886549531054e-03,2.004511617863538597e-03,1.891877055168151855e+00
-8.352709831204495616e-01,-8.490533094100382039e-01,8.964878803796072493e-01,2.911233798967526303e-03,-8.875340734008562923e-03,4.187061821239185938e-02,1.740278005599975586e+00
-8.662352187362152289e-01,-8.635959907933205004e-01,1.073636869357606383e+00,7.504799616601776730e-04,-1.143795559145039482e-03,1.096573592488908405e-03,1.938556194305419922e+00
-8.682914351005991405e-01,-8.247592022523366762e-01,9.112538011523461101e-01,-1.462884969690098416e-02,-1.112583764755687050e-02,4.373778809701876769e-02,1.760102629661560059e+00
-9.010228783862701540e-01,-7.514092547451924897e-01,9.794081332807407225e-01,-8.578359791406668308e-03,9.520316884308909974e-03,-2.638968210272685765e-03,1.810408949851989746e+00
-8.731705941293563811e-01,-8.478987267551143514e-01,1.038392281796125305e+00,-6.534899555859106403e-03,-4.110497966418072587e-03,2.169507331279940318e-02,1.899471879005432129e+00
-8.472480869722336383e-01,-8.654736107862176508e-01,9.784174966194900680e-01,2.825954435272592588e-03,1.430338247286917037e-03,1.759555597584899767e-02,1.835107564926147461e+00
-8.552959991292874431e-01,-8.688857073764891803e-01,1.001556960382792960e+00,8.196927071507804571e-03,6.692608666241911530e-03,2.774032067393443143e-02,1.864394307136535645e+00
-7.593616233711502073e-01,-7.277402804956561999e-01,3.961354492988399256e-01,-1.267504406967366777e-02,-8.369290207959306782e-02,7.908757270603081202e-02,1.157538294792175293e+00
-7.250170878975805699e-01,-7.310480892026720579e-01,3.958359370748523176e-01,-4.907254730915088653e-03,-5.092142095685792125e-02,8.348136602605558260e-03,1.127460837364196777e+00
-7.457401042480904518e-01,-7.232579183690164282e-01,3.742165854039127826e-01,7.705897247453414277e-03,9.954034721131270469e-02,3.556337861478178763e-02,1.123978018760681152e+00
-7.561236409726161956e-01,-7.779478700880018138e-01,6.112227090675699248e-01,-5.782757725865105350e-03,-5.032452350871501751e-03,5.102507283440286395e-02,1.381282210350036621e+00
-8.392576531447921706e-01,-8.492837945271917155e-01,1.034595458977276783e+00,-1.187610053328831856e-02,3.247696275361874191e-02,-3.033032491364704916e-02,1.880574584007263184e+00
-7.728307613483880179e-01,-7.787205131286856208e-01,1.012010712885733188e+00,-1.122000672574908044e-03,2.320658451493114779e-03,2.769310587004763461e-03,1.787805676460266113e+00
-8.352318645392529106e-01,-8.213587177781457305e-01,1.052821816315877346e+00,-2.920502463272532309e-02,4.190579043280466716e-03,3.572173964759491581e-03,1.881859660148620605e+00
-8.657739093299302580e-01,-8.372898500431122937e-01,1.034854837585547083e+00,-4.070515533117733363e-03,-2.021791696626274934e-02,2.812987169509754970e-02,1.887515068054199219e+00
-8.649090121924216668e-01,-8.408179502850690046e-01,1.038537275639171309e+00,-4.156852410954752809e-03,-7.295646864792087148e-03,7.249944802548975546e-03,1.891613364219665527e+00
-8.762381783054377093e-01,-8.603334655488831251e-01,1.038124319829223374e+00,-2.225609049046766222e-02,-2.915809693766148111e-02,1.282879194399844276e-02,1.907647728919982910e+00
-8.539825731565515721e-01,-8.304395702066258433e-01,9.709329552332759405e-01,-1.465639343333668271e-02,-1.229921321194065408e-03,2.955367464572998537e-02,1.814159870147705078e+00
-8.592074666961463381e-01,-8.485346115522547361e-01,1.045874899195003538e+00,6.390763016051143964e-04,7.926854575978435624e-03,-9.041690536164683628e-03,1.899882912635803223e+00
-8.629187407056059245e-01,-8.678306097620617221e-01,1.055440359171041731e+00,8.821898180456427471e-03,4.300940451027157087e-03,6.492558545137327476e-03,1.920927882194519043e+00
-8.614665629059878871e-01,-8.369354655149658928e-01,9.350986989054617116e-01,1.131503120370770318e-02,5.293073720362562878e-02,3.085284918017376990e-02,1.787686109542846680e+00
-8.395813038810143736e-01,-8.536044352695881798e-01,1.002637025002331539e+00,9.950769904861132137e-03,1.441806465912714129e-03,6.170593798158101502e-03,1.849382638931274414e+00
-9.625913450503817970e-01,-7.298343500301347486e-01,1.081887851008596080e+00,3.869305843297539405e-03,9.136422102756546273e-03,3.236163952041446606e-02,1.939495086669921875e+00
-8.651555241533771534e-01,-8.650699902494916049e-01,1.012551597597224795e+00,-3.690707086059859428e-03,1.822155637384532262e-02,3.746057022738586307e-03,1.877951622009277344e+00
-8.663535785455114269e-01,-8.388450180143671719e-01,1.007912679208265549e+00,8.884388501677777236e-04,2.030317304003180848e-02,1.798097827788408890e-02,1.861258029937744141e+00
-8.695936758821399826e-01,-8.479711176152240348e-01,1.047935380275794248e+00,4.581045977629751628e-04,6.432184994402904282e-03,1.256936774839630643e-02,1.906966686248779297e+00
-8.717446460720010837e-01,-8.510447792876287831e-01,1.047794555075788780e+00,1.805380225600585831e-03,-6.890705204229566859e-03,2.968650966591563495e-03,1.909320235252380371e+00
-8.204476708138015439e-01,-8.392300441997970761e-01,1.053810602228081761e+00,-2.778980080920227889e-03,2.697753732933941620e-03,-1.375357477294431377e-02,1.883882284164428711e+00
-8.707620836885554549e-01,-8.348319583423373658e-01,9.868526376062123351e-01,8.989730868414783039e-04,8.082431560120780650e-03,1.813554684360389399e-02,1.840234875679016113e+00
-9.050875316246580482e-01,-7.759022675964777349e-01,9.334486509948214383e-01,5.761423270279295017e-02,-8.537977273189010022e-03,6.146003779224985808e-02,1.783508181571960449e+00
-8.545828452000608921e-01,-7.975893681282869574e-01,8.678327148322431128e-01,-4.178767565199459398e-04,7.418215537837737593e-03,6.758100772642788856e-02,1.698724389076232910e+00
-7.593172885219381385e-01,-7.107826406516324358e-01,1.168985517079075054e+00,-2.045272592994496486e-01,1.793732782200808604e-03,1.059975540121610958e-02,1.937255501747131348e+00
-6.335991551400901312e-01,-8.043565493168609581e-01,1.037119695951815412e+00,-1.279567777737665446e-01,7.646953004151199086e-03,-2.794310596985516426e-02,1.776902914047241211e+00
-5.672042190531998429e-01,-8.789867928369484718e-01,1.227583749401786273e+00,-2.107947447404374952e-01,-9.861693223825671040e-03,-3.094633251194351536e-02,2.003627777099609375e+00
-5.903821892674929739e-01,-8.711761196714762345e-01,1.026851709269771762e+00,-1.182038332737941205e-01,-1.887654288271732941e-02,2.543718714585658375e-02,1.786988139152526855e+00
-6.287697659222097890e-01,-8.856911555065057895e-01,1.078254826153161483e+00,-1.009448010765391368e-01,2.471217663370841450e-02,-1.078614274290603777e-03,1.857664585113525391e+00
-5.369439355360334787e-01,-8.352041058721048072e-01,1.017888027927474681e+00,-2.297711091473506329e-01,1.105145979612654449e-02,-1.573068353679887149e-02,1.769095540046691895e+00
-6.949387068290204805e-01,-8.837251148216417329e-01,1.090270000429178321e+00,-9.349729312501896261e-02,2.542255687642510156e-02,-2.024468813691926786e-02,1.894472837448120117e+00
-7.332335279358166424e-01,-8.076248865030470903e-01,1.031331868353266623e+00,-6.604941988735552050e-02,2.628106391020635160e-02,-2.802896899400762060e-02,1.807763814926147461e+00
-7.948974521605430832e-01,-7.755438643580928604e-01,1.051929243752942389e+00,-1.373506230435760089e-01,-1.227381029856929907e-02,5.315666224953540095e-04,1.852687001228332520e+00
-6.916969016255966052e-01,-7.634214678140930355e-01,1.013770747565196251e+00,-1.070761540208367835e-01,-7.041384386916103681e-03,2.576899707940314994e-03,1.752327799797058105e+00
-7.163673188937980107e-01,-9.442421282796026327e-01,9.658499067931871629e-01,1.500741064854368145e-01,-1.510389491054443117e-02,-2.331679834113657614e-03,1.825755715370178223e+00
-9.240930034944118132e-01,-6.748028155698302388e-01,1.057344515989318223e+00,1.612547853916490234e-02,5.471180680545900850e-03,2.440190293554381218e-02,1.870011687278747559e+00
-7.073912338801335853e-01,-9.112812297772356906e-01,1.095560463081637792e+00,1.093885611800542584e-01,8.567005212461134556e-02,-2.798650231117489132e-02,1.928749680519104004e+00
-7.430177688632638722e-01,-7.736149677205691466e-01,9.148200066754414994e-01,1.774211985538418912e-01,-2.359513967845720470e-02,6.471426636603628060e-03,1.701857209205627441e+00
-6.001531754303207622e-01,-8.716878617029653054e-01,1.184342012369649089e+00,-3.670945336199346598e-01,-2.301273192183372340e-01,2.880113818217318600e-01,2.134176492691040039e+00
-8.592743475328965541e-01,-8.607121697762712964e-01,1.037832376164962600e+00,-4.821178740495748669e-03,3.300381664017353815e-04,8.297346496765421048e-03,1.897898912429809570e+00
-4.262975462225989109e-01,-9.909741653679695617e-01,1.004860272275788002e+00,-2.511734469032655404e-01,-2.602103748644067349e-01,8.973983203417787435e-03,1.888874769210815430e+00
-1.988716834842655934e-01,-1.072666922056854766e+00,1.018264326219314730e+00,-2.061016533533200357e-01,-6.777642776837490557e-02,-5.614689666826803288e-02,1.859875798225402832e+00
-8.628084837531617701e-01,-8.667670350824562275e-01,1.061541836044841647e+00,-2.714758986218691623e-03,7.500571227194510748e-03,-5.941798239688213593e-03,1.926409721374511719e+00
-3.942169100861372399e-01,-1.343282796065450979e+00,1.088040999543163245e+00,-2.795397441010192829e-01,-1.972228423920066864e-01,2.708218137092880395e-01,2.252937316894531250e+00
-4.501417518018588915e-01,-1.121036521796028751e+00,1.240974898034289620e+00,-1.511627128499363204e-01,-2.372198707968109777e-01,-5.603434145015850215e-02,2.165946960449218750e+00
-5.017874193751890033e-01,-1.009640447222999837e+00,1.173154076762387810e+00,-3.821380678672752773e-01,-9.392484458532425126e-03,1.125745801606307384e-01,2.095313787460327148e+00
-8.545610558726945971e-01,-8.546177090496405171e-01,9.903344776406790562e-01,1.609862819065328507e-02,-1.553039543432839162e-02,-3.908954531026781476e-02,1.846572279930114746e+00
-8.374975815687079050e-01,-8.317919880123338938e-01,9.002593150600681771e-01,2.586187100008758774e-02,2.279892146796627661e-02,7.257920254815134441e-03,1.735984086990356445e+00
-8.385956207193532297e-01,-8.658252340834153848e-01,8.986069401649965371e-01,-1.066816614063155651e-02,6.313499887402231059e-02,6.247594686280307646e-02,1.757818818092346191e+00
-8.757131491750879126e-01,-8.503803941199791216e-01,9.424034230488693709e-01,-1.096934632048032418e-02,4.241714968747221232e-02,2.250800208651916948e-02,1.807597875595092773e+00
-8.160184314598025734e-01,-8.640541850118667044e-01,8.900335441924160929e-01,6.505145401694195639e-03,6.769954053530377602e-02,6.323145873575666820e-02,1.738028645515441895e+00
-8.524576575848074045e-01,-9.134317030193974674e-01,1.054259134022625943e+00,2.181223680369608064e-02,1.202708921208437386e-02,2.407467059268290563e-02,1.938851952552795410e+00
-8.884098867751323292e-01,-8.580040317816665096e-01,9.812051924494269439e-01,1.220433700043860592e-01,4.226240177150749483e-02,7.661071061873979404e-02,1.872748613357543945e+00
-9.393358765640777985e-01,-5.942708975187442899e-01,1.039390315949227039e+00,-1.037134213614174238e-01,-3.527545545382033791e-03,4.463145024703282782e-02,1.841173768043518066e+00
-1.039710780823541070e+00,-6.017640439937799179e-01,1.095398986653232765e+00,-1.226760790893963449e-01,9.683253043160764198e-03,4.091694684412822136e-02,1.966183781623840332e+00
-8.818833038434203964e-01,-7.258513970858508912e-01,9.743308805841108811e-01,-2.837969628836075828e-02,-1.620256871292259301e-03,-5.124715705145123021e-03,1.784026741981506348e+00
-1.047289083216405459e+00,-5.738284603016179375e-01,1.092011737839470698e+00,-2.921461372047220659e-02,5.643257305616639768e-02,1.079335601875547473e-01,1.958305835723876953e+00
-9.529502711937855031e-01,-7.086654946531250054e-01,8.809393494495201260e-01,2.280206276507076510e-02,-4.688228196425323069e-02,7.501661631329684110e-02,1.732013583183288574e+00
-8.862332893986811788e-01,-7.640852887724856046e-01,1.009021607719962743e+00,-1.944828260338185566e-02,3.298829889894339118e-02,6.494084157584310846e-02,1.841863512992858887e+00
-8.424379811934609164e-01,-8.638539787940180403e-01,8.901559330420312222e-01,-1.682578802527869566e-01,-4.082942556061182338e-02,-5.310293688534636208e-02,1.771394491195678711e+00
-8.699871868784307960e-01,-8.468558436824602520e-01,8.715342793884288675e-01,-2.746985243951699518e-02,4.338874712056588895e-02,4.959892324791895235e-02,1.734485507011413574e+00
-7.336912453906432319e-01,-9.676925738653520126e-01,9.191064803453641296e-01,-1.538259907425311608e-02,4.567887545219847384e-02,1.461472960354238786e-02,1.783497691154479980e+00
-7.879985223893173352e-01,-8.406763186525885168e-01,7.797962040587564925e-01,-1.148713257307090729e-02,1.726624076686338882e-01,-2.797725498189943677e-02,1.623429775238037109e+00
-8.687288254067779825e-01,-8.586588003149153714e-01,9.409118465432013689e-01,-1.114012538629859453e-02,4.854704886558179611e-02,-4.585193302781174346e-02,1.808432340621948242e+00
-8.357795106175416322e-01,-8.322826340090534458e-01,8.296315520675556776e-01,8.692923235875740784e-03,6.886435419662005619e-02,-7.201119324769181262e-02,1.672660470008850098e+00
-8.627069197108281351e-01,-8.634534743122814771e-01,1.060317866227599826e+00,-4.326598172898974727e-03,1.701759600562873474e-03,-1.486310145608192189e-04,1.923415064811706543e+00
-9.605994379128156568e-01,-5.400139075502550234e-01,1.040052922982019679e+00,-5.504107003090613973e-03,-4.646916356461338812e-03,4.598185642178816146e-02,1.828812479972839355e+00
-9.686365671760576168e-01,-6.518707933485334838e-01,1.041420461377423834e+00,1.586239115910554123e-02,-4.113258987960028736e-03,-1.008605361703336124e-02,1.872181415557861328e+00
-9.249632955527107292e-01,-6.789828979327741099e-01,1.043232998159768554e+00,6.310518254747678017e-03,-2.848960252079264354e-03,4.349852963995701899e-02,1.859028100967407227e+00
-8.610785970971124303e-01,-8.686601278766561407e-01,1.045958803240124357e+00,-4.424172565382867781e-03,-2.398162787962842667e-03,-2.641670345929027219e-03,1.910864830017089844e+00
-8.653151868604831431e-01,-8.258732984494920881e-01,1.046927544949895150e+00,3.432332865914341277e-03,-1.005252173002628251e-02,2.088475534534916384e-02,1.893265008926391602e+00
-8.518143256078357650e-01,-8.424344128790475228e-01,1.032107288962530012e+00,4.431611648842115683e-03,1.098966206232999477e-03,-5.325813476516524578e-03,1.879288434982299805e+00
-8.643547172440151360e-01,-8.712242697719705387e-01,1.056028010244444815e+00,-1.343260991501116740e-02,-2.683030292678479853e-03,-6.828380413872211022e-03,1.924009323120117188e+00
-8.519199295422020812e-01,-8.637601918372881382e-01,1.030596999536217195e+00,-2.598026790182126570e-03,9.880673480863522151e-03,4.918176699369882117e-03,1.888566970825195312e+00
-9.052699262893530996e-01,-7.313080067096793258e-01,7.166222345244868119e-01,-9.268375408707656832e-03,-5.309891768610509183e-02,-2.542666480536833196e-01,1.606648802757263184e+00
-8.303241784468812225e-01,-8.412786204391423661e-01,8.760063889098430590e-01,-6.168639488797965711e-03,-2.165561717215858106e-02,1.922868878239530205e-02,1.712602138519287109e+00
-9.001009252499564406e-01,-7.690342572280080002e-01,9.927996163218126835e-01,-1.165370751983073154e-02,-2.293294876661726434e-02,9.963464697057285158e-03,1.831512451171875000e+00
-8.552527241925711454e-01,-8.136379646566103130e-01,1.044599107515345793e+00,3.780143713135509110e-03,1.750873354364648748e-02,1.361071433975584964e-02,1.879793882369995117e+00
-9.353982475913190653e-01,-6.447031713061602831e-01,8.863356522331882204e-01,-7.337466813150443634e-02,-5.181207520568922170e-02,2.652660035398590396e-02,1.702928304672241211e+00
-9.494931504803194589e-01,-8.881012509130680188e-01,9.679991383616595169e-01,-5.648547386886305921e-02,1.135424616385349687e-02,-7.887627037214683945e-02,1.895112156867980957e+00
-8.823835400311336175e-01,-8.409133750209273339e-01,9.067276741101317761e-01,1.516423683404082706e-02,-2.059867174740231260e-02,-7.106291683042996465e-02,1.773571729660034180e+00
-9.514105012495250868e-01,-7.684128018962743667e-01,9.188174304372771495e-01,-5.904185744374539774e-02,-3.925892197764011167e-03,-1.412800017876072317e-02,1.788881301879882812e+00
-8.397419791710550863e-01,-8.213879220752835497e-01,8.583205146890424686e-01,8.023422807694005968e-03,-1.384143866834989731e-02,-2.958745864236119599e-02,1.689964771270751953e+00
-8.693236860287835155e-01,-8.565988317080586167e-01,1.074841752964027508e+00,-3.750695420655773306e-04,-1.337632273587083427e-02,1.871163824416349764e-02,1.938243985176086426e+00
-8.559024623474602578e-01,-8.846227623513011062e-01,1.019351891151635714e+00,1.061473013718719841e-02,5.918724418189387493e-02,3.793240121084794775e-04,1.892646193504333496e+00
-8.238306575138016896e-01,-8.623624936978276923e-01,9.586607101266428899e-01,-1.614558950155673203e-02,1.377579097589866526e-02,-8.531752862099235835e-03,1.802501797676086426e+00
-7.235683074277298177e-01,-8.675269921343575774e-01,9.839832540540462968e-01,-2.170180130417090694e-02,-2.602881044275058564e-02,1.550841043887651351e-02,1.785060286521911621e+00
-8.507846585209282164e-01,-8.726823172671958062e-01,1.054756652738424672e+00,-5.573218935330273745e-03,8.595948665330654243e-03,-3.227702824431176367e-03,1.916674256324768066e+00
-8.386986723695714074e-01,-8.705708316484656040e-01,1.008615014913922359e+00,-4.608811450039542075e-03,2.363279837177093695e-02,-2.311691599512384968e-02,1.864350795745849609e+00
-7.942062857125835595e-01,-1.029567210097766194e+00,1.071163458130959256e+00,-5.787011242873190547e-02,7.926182369956423501e-02,-2.272137180861272254e-02,2.001118898391723633e+00
-6.078548912836682083e-01,-9.115978918695559763e-01,1.167119096526075372e+00,-1.507280642354017763e-01,6.232291495627526046e-02,-4.857289440949332654e-02,1.966930508613586426e+00
-5.648660545602963712e-01,-7.895529517523478535e-01,1.021405529635091236e+00,-2.377307994730522567e-01,5.254146462689753168e-03,2.177513998699762057e-03,1.758636116981506348e+00
-5.781409126520371533e-01,-9.637291402424521536e-01,1.098744316530395171e+00,-2.610988303857953996e-01,2.484405331139259362e-02,2.092581499609523152e-02,1.953175067901611328e+00
-8.694384504363480426e-01,-8.625858141498001785e-01,1.033770256023955447e+00,1.137650200253731252e-02,-1.835041646436937415e-02,-1.710620718618431190e-03,1.900161981582641602e+00
-8.620050318263243749e-01,-8.580108747275366765e-01,1.027676873649249645e+00,8.109902212353149384e-03,1.033193485515301966e-03,-9.915853501304115053e-03,1.887819290161132812e+00
-8.103413245800192843e-01,-8.019863133954147072e-01,7.308608531152185339e-01,5.162961967632025487e-03,5.163688210507308418e-02,-4.383510473735167945e-02,1.541538476943969727e+00
-8.282612561826648845e-01,-8.001242569636227708e-01,7.943196683731095220e-01,7.997885929818423362e-03,6.305207442975627186e-02,8.201466381555763685e-03,1.612521767616271973e+00
-7.676625398037821846e-01,-7.540862790940976446e-01,5.591457894328573097e-01,-6.788358621137853370e-03,6.281335990044056850e-02,-1.964429898724864842e-02,1.325037360191345215e+00
-7.719049979454355448e-01,-7.777201625396648055e-01,5.945957577239051606e-01,-9.036029556071379157e-03,5.615855609831208600e-02,-4.534944114262909332e-02,1.375202059745788574e+00
-7.818675137922405094e-01,-7.856411591734194788e-01,6.325450311359186450e-01,1.238255914862768960e-02,8.180661718659584802e-02,-3.255768743157266831e-02,1.424651384353637695e+00
-7.996925407447561529e-01,-7.920235130908780397e-01,6.675347348542670645e-01,7.411064001145642802e-03,8.498511756525799210e-02,-3.058267630852801525e-02,1.471801757812500000e+00
-8.005223937849992311e-01,-7.990700033466010543e-01,7.181788668713342538e-01,1.368294546698029142e-02,-8.033979368020294914e-03,-4.400676897484336741e-02,1.520136475563049316e+00
-7.832219027037520265e-01,-7.818470128102741334e-01,5.968691978411433396e-01,4.194938791982623198e-03,1.077370560274325817e-01,-1.439042690319142052e-02,1.392211079597473145e+00
-8.750715992683910649e-01,-5.514015123947435537e-01,1.055256934401935576e+00,1.674333779283070367e-01,3.007993537143885746e-02,5.852489230820032140e-02,1.817479729652404785e+00
-6.673673794618861788e-01,-6.749093244711813488e-01,1.014024869679220897e+00,2.324138309538211766e-01,5.750429494664473923e-02,6.890313370960975126e-02,1.739548683166503906e+00
-7.160217051505928243e-01,-7.274521744627676645e-01,1.226818805815277136e+00,2.179883078837468735e-01,2.024612875238157930e-02,-4.365777700738755068e-02,1.986572861671447754e+00
-8.874749554779071126e-01,-6.663624241026058215e-01,1.109645465767771899e+00,2.818430866129523760e-01,-5.151629695764763962e-03,3.754301022201505383e-02,1.959185242652893066e+00
-8.647949434778815503e-01,-7.908435788447769621e-01,1.293069272008714687e+00,3.050406282170958772e-01,-1.857264808979293760e-02,-2.408048862553146749e-02,2.187279939651489258e+00
-7.945613206087536184e-01,-8.835564142487751793e-01,1.034626940203516865e+00,-7.447809448284672083e-03,-2.976701112696678031e-02,2.059488879175295009e-02,1.876362323760986328e+00
-6.820706561000746682e-01,-1.053616500304456194e+00,9.269337459149407099e-01,-1.348008347999916368e-01,-5.442989086815062591e-03,2.198684092826911490e-02,1.838698863983154297e+00
-7.854738319739973385e-01,-9.454198815263826772e-01,1.024722206803527547e+00,-4.087665521682479208e-03,9.650361718202649097e-02,-9.514655126715532499e-03,1.902678847312927246e+00
-7.263423065491145802e-01,-8.821909207422915511e-01,1.058848085873391298e+00,-3.693093280495748226e-02,3.663447718636936995e-02,2.742120883724064647e-03,1.870174765586853027e+00
-6.189307511942739870e-01,-9.570258788695088503e-01,1.071928033147060200e+00,-5.092574772611383610e-02,1.168243240370826358e-01,-1.703850523820626267e-02,1.895937204360961914e+00
-5.295236987347828883e-01,-1.083244314305442657e+00,1.013136349503033218e+00,-1.562340853642545657e-01,3.955940965345549482e-02,6.687712321198863163e-02,1.905767321586608887e+00
-4.632157572937630752e-01,-1.055786417204027661e+00,1.182072433254797161e+00,-2.185346557864339401e-01,-1.004408814360699571e-02,3.623767916252936677e-02,2.044646024703979492e+00
-5.348096509276989430e-01,-8.053334232632776146e-01,9.907561947114369438e-01,-2.313210849269128067e-01,1.725112205894501968e-02,7.396901805384879444e-03,1.724767088890075684e+00
-8.536081940150258562e-01,-8.357712132755166223e-01,9.522749325877701843e-01,1.400344115480424423e-02,3.869074305742316571e-03,-4.501001168484231041e-02,1.798897266387939453e+00
-8.409892939221137453e-01,-8.444127230758375902e-01,1.030780865041725836e+00,3.225583594374177576e-02,-2.810716893945772871e-02,-1.588128431459406159e-02,1.875150918960571289e+00
-8.433816707595024331e-01,-9.038073184036917729e-01,1.054237737509034822e+00,1.875892460226381495e-02,-2.557791830420209217e-02,-1.414547784929969659e-02,1.929480314254760742e+00
-7.971182769695152048e-01,-7.507624012929178248e-01,7.423870404253667399e-01,5.508367961332887724e-02,-4.431113929006813557e-02,-6.281937233251055908e-02,1.525677680969238281e+00
-8.425967879931677285e-01,-8.220758779757580959e-01,8.428002419309781335e-01,-8.678335464855415141e-03,-7.984176986378507812e-02,-6.987970480580188437e-02,1.685348033905029297e+00
-8.722496115950266748e-01,-8.320465518067039490e-01,8.641593626604326950e-01,1.006976658762271000e-02,-8.105859646196333923e-02,-6.374694810154805935e-02,1.726015686988830566e+00
-8.269137914284597768e-01,-8.142616124414602252e-01,8.143475014300154413e-01,1.003438052459776526e-02,3.797973916771799074e-02,-1.735972909431139632e-02,1.636663317680358887e+00
-8.346606540668335406e-01,-8.620388941759673518e-01,1.031079838269715498e+00,2.838446455613059544e-03,2.507126397130552548e-02,8.848265802998463853e-03,1.880149602890014648e+00
-8.376635143277000317e-01,-8.533006552604339712e-01,1.052439802223406051e+00,9.539365148238604722e-03,8.058365387461586746e-03,-5.041065035786774541e-03,1.898113489151000977e+00
-7.390595337779288787e-01,-8.684443470271047127e-01,1.032496265910217925e+00,1.426575502074687272e-02,-1.711567549202110128e-02,-1.572632428268172511e-02,1.840270161628723145e+00
-7.949786643233807126e-01,-8.804360427593891369e-01,1.038409562362923699e+00,6.282473617111868774e-03,-2.910887536793410266e-02,-3.747819857466028193e-02,1.879405736923217773e+00
-7.561849354276883872e-01,-8.440643484288621323e-01,1.031508760944964020e+00,1.127487904584575582e-02,-2.056383665968334468e-02,-2.378913911517541863e-02,1.834126710891723633e+00
-7.379655206073008067e-01,-8.740114928891964396e-01,8.362231286344683490e-01,-7.725375647197953166e-02,-5.036693413506718175e-02,2.506242669957507371e-02,1.654732465744018555e+00
-8.363207452944497744e-01,-8.228937760416739078e-01,8.226615115266919798e-01,2.003839958970922083e-02,-4.417266536658093386e-03,8.552418818541525358e-03,1.652758240699768066e+00
-8.057429039899454137e-01,-8.808639858518249044e-01,1.044131311308829524e+00,-1.128517844231776042e-02,-1.027389951017094460e-01,-4.182593911745744603e-02,1.898404240608215332e+00
-8.245915940742748473e-01,-9.280867209425717190e-01,1.084544610458123781e+00,-3.923952147885040320e-02,-4.385493156660298653e-02,2.201685161448553932e-02,1.965945482254028320e+00
-6.242748507390883939e-01,-9.421552493952052298e-01,9.233628754974023689e-01,-3.246275048450739109e-02,3.645555904874915598e-02,1.006714109185874104e-02,1.730793714523315430e+00
-8.655578677337019133e-01,-8.638794662120761192e-01,1.072715505103064570e+00,3.942287736161627365e-03,4.426526511729986582e-03,3.354795034831350845e-04,1.937461972236633301e+00
-8.057532930710221697e-01,-9.530918448746023008e-01,1.038320840398351930e+00,-3.040898447999226123e-02,-8.775401279065299376e-02,2.348865781580021517e-02,1.929132699966430664e+00
-8.337200682241817651e-01,-8.429055077127404205e-01,8.810325221596306822e-01,1.505145579467831798e-02,4.545037007712636468e-02,-3.127600672060525805e-02,1.722214579582214355e+00
-8.490703236735499537e-01,-8.435341741735730148e-01,1.017962704494929094e+00,-2.201493968543362812e-03,-7.869567141182099920e-03,-3.982339790084697857e-03,1.864337563514709473e+00
-8.420613879520825185e-01,-8.530115092345171846e-01,1.041183747120766556e+00,-4.342457264539731354e-03,6.937347488294078740e-03,-7.132673186996005450e-03,1.888837575912475586e+00
-8.651251786075853101e-01,-8.703727464014314741e-01,1.071773384420126263e+00,5.342591586550385352e-03,9.163610716875025906e-04,-1.505012421151106844e-03,1.939552187919616699e+00
-8.451242730335669640e-01,-8.367671328705417189e-01,1.036253875446471850e+00,-4.793899243217473842e-03,8.515914877229092614e-03,-4.747324755921839695e-03,1.877307891845703125e+00
-8.486480771076597707e-01,-8.654721582732469720e-01,1.030075867410901624e+00,4.260898820064740015e-03,-3.439395296295691580e-03,-9.606144015595231974e-04,1.887216806411743164e+00
-8.684186243074011324e-01,-8.632586742446873851e-01,1.069936785051306849e+00,7.010799319778107490e-03,-8.079287852618801183e-04,-6.662834906687224940e-05,1.935819149017333984e+00
-8.503782803276462854e-01,-6.770213867105034922e-01,9.544654745490654957e-01,-1.772199162910654546e-01,-5.113141077336572082e-02,1.990684046775614141e-02,1.754390001296997070e+00
-8.736099283364645585e-01,-8.475332613792181391e-01,9.984574680912390310e-01,4.815034798138644739e-03,-8.534477611500951169e-04,-3.994276152249925937e-02,1.860472321510314941e+00
-7.427743661388112040e-01,-7.994548189720851461e-01,1.071126748699803510e+00,-1.696416172452450966e-01,3.042900566070557214e-02,-4.030209081123106718e-02,1.868220567703247070e+00
-8.207096593188693001e-01,-8.041640236389814289e-01,1.014560523534944858e+00,-4.085896938401065853e-02,1.586343979768336035e-02,-3.703851667426105720e-02,1.829755067825317383e+00
-8.264356416104966518e-01,-8.265693329905805520e-01,1.049918447525664877e+00,-4.790552053949470590e-02,2.297945605972669114e-02,5.949369232170052813e-02,1.881500244140625000e+00
-8.453796118501907264e-01,-7.635213655379091691e-01,1.041360454371624167e+00,-9.498682919086152976e-02,3.592936482307259368e-03,-3.163542394495703902e-02,1.855303764343261719e+00
-6.807759851503315529e-01,-8.364213964515835320e-01,1.024594556706998283e+00,-5.430605895153188534e-02,-1.862144354506522700e-02,9.285576283293793184e-03,1.791115164756774902e+00
-8.577709551006482691e-01,-8.612387563687224912e-01,1.047940754095568527e+00,-9.738409229241596363e-04,-8.574703247492643926e-03,5.630134858926508223e-03,1.907531499862670898e+00
-7.871797302504386362e-01,-6.693775275118717394e-01,9.951088494188802258e-01,-9.782559407227368886e-02,8.115507380725242234e-03,-5.475444711282476812e-03,1.734782218933105469e+00
-8.538271682371501026e-01,-7.924420219778360863e-01,1.017719127859161521e+00,-2.351743175601922198e-01,7.491782297676592706e-02,-9.621345924851582021e-02,1.897919535636901855e+00
-9.240464406043084056e-01,-7.719320136775177366e-01,1.047533326476965954e+00,-1.161187754951637993e-02,-1.229768366309462284e-02,-2.443435790047821660e-02,1.900791764259338379e+00
-8.334433706237650563e-01,-7.781437713044871973e-01,7.235332672089616057e-01,-4.678448042492422757e-03,-2.550102873450097590e-02,-9.550529628279065542e-02,1.539647459983825684e+00
-8.785087142202799848e-01,-8.986381527979541151e-01,1.036194402392222047e+00,-2.288048914149612770e-02,6.299390928592542467e-03,-8.830769553776684697e-03,1.925346374511718750e+00
-8.934177499231414910e-01,-8.823873796482986087e-01,1.024810737153071916e+00,-1.678902663967771561e-02,-1.194914406161679508e-02,-5.134900885266069186e-03,1.913090825080871582e+00
-8.626106614665541850e-01,-8.662327148837739577e-01,1.048047181773297476e+00,7.867224828183746327e-03,-6.178234597777534400e-03,-3.676012936359730060e-02,1.913609504699707031e+00
-9.140442926788159284e-01,-7.680929405964956880e-01,9.514638659917098451e-01,-1.816444460861178500e-01,3.782474484737142345e-02,-1.146092085334454204e-02,1.825601100921630859e+00
-8.408692340094395812e-01,-8.650846129190974398e-01,9.313179706528984525e-01,-4.856717423877235373e-02,-2.981996355293669437e-02,-3.734108333285020287e-02,1.788316249847412109e+00
-8.589605390310584010e-01,-7.048600847208796871e-01,8.691053114651881017e-01,-9.644532551571997903e-02,-8.985443912382476070e-03,-5.450943174468307400e-04,1.664875626564025879e+00
-8.315434136570459822e-01,-8.338232463313394183e-01,8.355939017751008446e-01,7.360056466510112895e-03,5.727837451229481763e-02,-5.180870563872418816e-02,1.673681616783142090e+00
-6.612098264324555164e-01,-9.562004741057771318e-01,1.018457447241833513e+00,-1.099670984705356132e-02,-2.471178581631128593e-02,-3.058474773060392352e-02,1.846290588378906250e+00
-5.198086030531985369e-01,-1.040642152298613343e+00,1.057083480549436461e+00,-8.713275713473180029e-02,2.682219428143966383e-02,2.059970662291570748e-02,1.898779153823852539e+00
-6.469947941390987722e-01,-9.475556584152418083e-01,1.083059523967584870e+00,-3.044316308691997347e-02,-3.509195603132003044e-02,8.130517640334230384e-03,1.900022268295288086e+00
-5.252340675023083882e-01,-1.001598075362641005e+00,1.075851989559328370e+00,-2.093833999281002889e-02,3.259968136816357442e-02,-1.514925132037660618e-03,1.886162638664245605e+00
-5.005479446770271235e-01,-9.834356215091197839e-01,1.065070529760156814e+00,1.549536010912647317e-02,6.779247445337762724e-03,-1.545396985686973805e-02,1.855245113372802734e+00
-6.732293937035325193e-01,-9.715741155862350764e-01,1.109185929315197550e+00,-3.407589049185053964e-03,-9.712368240810448274e-04,-6.065996651552107120e-03,1.948829412460327148e+00
-9.079360913052245685e-01,-8.370813530781786582e-01,7.815006542053808403e-01,3.810060062409000026e-02,2.104807355192921947e-01,6.687650595773300677e-02,1.700056195259094238e+00
-5.748237928651651618e-01,-9.030152510398395949e-01,3.066856441748582185e-01,-5.909662886428498213e-02,1.393415022380224688e-01,6.374981705899229745e-02,1.120263338088989258e+00
-7.098431635398194661e-01,-8.706232569294767298e-01,7.493900764527614555e-01,-1.236364925680107432e-02,8.990704322980119789e-02,-4.612725046865083500e-02,1.555930256843566895e+00
-3.356611121189684854e-01,-1.501051550693365044e+00,1.487995082248970480e+00,-7.984866445599766993e-02,2.401710916666804571e-02,1.856398771965235648e-03,2.613426208496093750e+00
-8.884477478643181270e-01,-8.044640905458106950e-01,1.078091277244676238e+00,6.608641159211650629e-02,-7.283087271739847358e-03,-8.543905532082044299e-03,1.929417610168457031e+00
-9.327503864494618435e-01,-8.102355959876961222e-01,1.102967543570991360e+00,4.796862692534601541e-02,-1.641433156075281473e-03,1.887144275364300260e-03,1.979058742523193359e+00
-8.796869907805949795e-01,-7.924735886444140842e-01,9.502193619020014026e-01,6.629174313524899276e-02,5.140044152918631093e-02,1.229668218679061537e-01,1.806389570236206055e+00
-8.408912529591461293e-01,-7.553138718011679353e-01,8.484914846533997412e-01,1.380867945565779076e-01,-5.940909413191940158e-02,5.033139638640514446e-02,1.670974731445312500e+00
-7.996224543540499941e-01,-7.944999931597943599e-01,1.119205647906302170e+00,2.874143103529677168e-01,8.863628685339595970e-03,2.024863046730518076e-02,1.980248689651489258e+00
-8.639328958527576763e-01,-8.024596126344517577e-01,1.088527252034025894e+00,8.330564545056455550e-02,3.229789495321068460e-02,1.708916693471729600e-02,1.928906559944152832e+00
-8.477042806971876177e-01,-6.037816271949716374e-01,9.368508184442996267e-01,1.600258514866484683e-01,-9.428386596857341734e-03,-2.711169012677254117e-02,1.699452400207519531e+00
-5.084337195433880074e-01,-9.468735037950201106e-01,1.064331732455655599e+00,5.388303276251255047e-02,-2.147251603320986940e-02,-1.840336345710053001e-02,1.834800481796264648e+00
-8.938107859488522156e-01,-7.979926578416941529e-01,1.038828597426656675e+00,3.672369272642099503e-02,-1.362103377855150566e-02,1.383582692272293697e-02,1.887927651405334473e+00
-8.527695416302678577e-01,-8.600909816104778116e-01,1.006154694550816409e+00,6.990087948713151304e-03,6.061560310727684420e-02,2.618444372981836715e-02,1.866142868995666504e+00
-6.223174279968359812e-01,-8.375044686619714795e-01,1.001218379660627544e+00,1.324837937758082673e-01,2.344054157585152495e-02,-7.956481449721646698e-03,1.756710529327392578e+00
-8.899290177190386508e-01,-7.719688782358803403e-01,1.015753565482771847e+00,2.437197229204354429e-02,1.042253948052129960e-02,6.445115018789978646e-03,1.850129365921020508e+00
-8.604173342138752290e-01,-8.398524913596971953e-01,1.029120327459646766e+00,1.698383079897810080e-03,1.497514617374343104e-02,7.615126554834204461e-03,1.879567146301269531e+00
-4.605690280223026511e-01,-9.788691979524499764e-01,1.256209297901799360e+00,1.415979901341519742e-01,2.112458685152777960e-02,7.499520528165500022e-02,2.045514822006225586e+00
-8.615901563344240399e-01,-8.405712853555488140e-01,1.020075028298200737e+00,2.026862038993920874e-03,-1.183994240145852007e-02,9.433397802233827595e-03,1.871431231498718262e+00
-6.829610762336003615e-01,-8.930684726278409480e-01,1.095330912360362952e+00,-1.409718418119752514e-01,4.517169603765729818e-02,-2.892152506262548814e-02,1.910065412521362305e+00
-6.999386555212128158e-01,-8.036617147697689978e-01,1.069768569918886580e+00,-1.807110542299726064e-01,-6.445093045630939654e-02,4.598120912896890705e-02,1.855520367622375488e+00
-8.642837671031249336e-01,-8.656805342160734940e-01,1.072534526777237263e+00,5.765807131281121571e-04,1.401252310254452304e-03,-8.950114889117969253e-04,1.937519431114196777e+00
-7.434071434008419077e-01,-7.426363748112864149e-01,1.011421602924318819e+00,-5.621460208356491434e-02,-1.458145353330643707e-03,1.068304111963172542e-02,1.757242441177368164e+00
-7.374577877491217404e-01,-7.317456917254784310e-01,9.904076517209208230e-01,-6.386029004337596959e-02,2.420199159264047311e-03,-5.400159612252286058e-03,1.728589415550231934e+00
-7.283130825446110235e-01,-7.974473361852596476e-01,1.032876700548625903e+00,-7.629081755437164269e-02,-2.687304118221175292e-02,2.903639102235522698e-02,1.802909970283508301e+00
-7.764981186527363244e-01,-6.362398464311680435e-01,9.864461174874765703e-01,-1.221190626617217889e-01,-4.892299596750086972e-03,-6.965179941142222693e-04,1.710318565368652344e+00
-7.368849866895519352e-01,-7.696019911493433563e-01,1.002286872421158215e+00,-8.743451517754124991e-02,2.994019253539038396e-03,-3.386100474651686405e-03,1.762295484542846680e+00
-7.297137514408499337e-01,-6.856338054817230354e-01,9.943181063244608264e-01,-1.353892221742760416e-01,4.996879924676457009e-03,3.366070349001171365e-03,1.718526482582092285e+00
-8.282366079718455065e-01,-8.327315960623966618e-01,8.817291973578951225e-01,3.760041822801867863e-03,-1.029676390239887482e-02,-5.333231873666643280e-03,1.712347865104675293e+00
-8.555932135456899568e-01,-8.335004952673378265e-01,9.888292570195869047e-01,3.498738330673302477e-03,1.565622695356537128e-02,1.361499064213428194e-02,1.833838105201721191e+00
-5.577722380725962381e-01,-9.876062520640281894e-01,1.064066457319627013e+00,-1.498857358086645025e-02,-1.206939587009637528e-02,1.351581449351543264e-02,1.874539494514465332e+00
-7.318871976592254969e-01,-9.423666025941987989e-01,1.088076219140164058e+00,-5.003417388961382134e-02,3.518199201364709955e-02,-6.407903596374222091e-03,1.936744689941406250e+00
-6.577894154073240518e-01,-8.998653294188222462e-01,1.011135321451523295e+00,-8.797984060575912355e-03,1.377282333733812619e-02,-2.161979595683161288e-03,1.802423954010009766e+00
-5.572618422886126410e-01,-9.239339447346041068e-01,1.017941314536381370e+00,-5.029877225481764469e-02,-5.440075306026938284e-02,2.551543636856396305e-02,1.792126655578613281e+00
-8.668427830406602030e-01,-7.831073986412191434e-01,1.009770160708501008e+00,-2.353006481437350944e-02,1.240748734448048930e-02,7.606686621754358592e-03,1.836802959442138672e+00
-8.544302126468990011e-01,-8.385316054569954547e-01,1.004649558593791125e+00,-1.053545306308764466e-02,3.526646361172995191e-03,-6.875858648054189622e-03,1.851320028305053711e+00
-8.598013486488118584e-01,-8.511210289070928470e-01,1.065708599925407229e+00,2.680211212825384538e-03,-3.629438037254265558e-04,1.096846839242808687e-02,1.921284079551696777e+00
-8.092252634547539847e-01,-7.566716620251338066e-01,1.015215864629405385e+00,-6.501033726105183430e-02,-9.389093545339047622e-03,1.230945534559744863e-02,1.802460670471191406e+00
-8.653627066643159171e-01,-8.514083674025517690e-01,1.069119702033509256e+00,1.478854881686913515e-03,1.333968638979333640e-02,1.798177178577014396e-02,1.927934885025024414e+00
-7.478876330466767142e-01,-8.926528538370051002e-01,1.078217500515725957e+00,-1.417974969580048650e-01,8.758376494451104721e-02,1.303030513624688948e-03,1.924398779869079590e+00
-7.576323055626424940e-01,-8.588307514659393460e-01,1.018003204006314499e+00,-1.361785034769684988e-01,2.777385700219384915e-03,-5.821078051331952941e-02,1.846249341964721680e+00
-6.361771162141087732e-01,-8.941077283564176081e-01,1.074132360517307205e+00,-1.180099880143057195e-01,-2.554039451149185680e-02,1.100002425553387592e-02,1.864651918411254883e+00
-5.726762678464010214e-01,-9.201753425727160485e-01,1.068708305542146464e+00,-1.364411075833957265e-01,1.226299059970455650e-02,-9.552586375088406578e-03,1.855222940444946289e+00
-5.073013501556997706e-01,-9.333181919612429933e-01,1.103364267612878091e+00,1.245676491802795299e-01,4.268800543678269444e-02,3.198789273422549678e-02,1.875364661216735840e+00
-8.299910324094244007e-01,-7.997577110079145957e-01,1.047684062520837234e+00,-7.688750627202459165e-02,9.675589614836152541e-03,1.197213877163921282e-02,1.867687225341796875e+00
-8.701180262922973974e-01,-6.805592357566681017e-01,1.022868877110088004e+00,-7.854044377166399804e-02,-4.748119410301229054e-02,4.110656196584952515e-02,1.814066767692565918e+00
-6.931644161647722013e-01,-7.928789105439690843e-01,1.047202187163944087e+00,-1.086245113207737062e-01,-7.240871113434338424e-02,3.245112373275713114e-02,1.807386159896850586e+00
-8.652775791161442243e-01,-8.588009886611199795e-01,1.071088038212000493e+00,-2.227766450234324163e-03,9.365682873765790581e-04,3.655410073220351653e-03,1.933150410652160645e+00
-7.481585414098717024e-01,-7.945937483701419612e-01,1.015983828119649379e+00,-6.214251496098705668e-02,-1.458848312472779164e-02,9.392754901290144634e-03,1.791301488876342773e+00
-8.638519174196170880e-01,-8.061586633363666543e-01,1.017990364262005620e+00,-2.318350292506201477e-02,-8.604824448380333363e-03,-6.331043096255656311e-02,1.857403635978698730e+00
-8.579286804079176987e-01,-8.552479922567862713e-01,9.611753331361561070e-01,1.651436687092130984e-02,3.999319073775257916e-03,-1.822093239581960844e-02,1.818277239799499512e+00
-2.993086294251119384e-01,-9.569794568614290453e-01,1.133564100406460273e+00,2.503587636003705708e-01,1.494393179292248242e-01,1.013200565934606473e-01,1.927134156227111816e+00
-8.537236450738417970e-01,-8.716855941905072847e-01,1.048025462220731674e+00,-1.316600977256235545e-02,1.120343096419977244e-02,2.264916077384953458e-02,1.911430597305297852e+00
-8.355550375154531251e-01,-8.846039717477948150e-01,9.992525798093589984e-01,-3.805179117938798164e-03,5.594063763371669509e-03,8.999082983566114233e-03,1.859919428825378418e+00
-9.156678799449216033e-01,-8.657917331598034005e-01,9.152311777346664456e-01,-1.352068922105157667e-01,1.395213590651903646e-01,-1.712325381530835910e-01,1.861333847045898438e+00
-8.806133260499727777e-01,-7.980440178012501162e-01,1.035177403583953160e+00,-2.072140632344002947e-02,-1.604068416293949820e-02,2.686757964577501587e-02,1.876995444297790527e+00
-8.658071886263103423e-01,-8.367626474079664645e-01,1.042943289093858361e+00,-1.602108552430322325e-02,1.555275927302405062e-02,7.858409608297553181e-03,1.894838809967041016e+00
-7.863125015819143471e-01,-9.214578039223374484e-01,8.033373071518483677e-01,-1.493987403638951661e-01,-1.533654075980616371e-01,-5.548981299111733351e-02,1.704947113990783691e+00
-7.362292354174251319e-01,-9.245226327970667013e-01,1.017760232309938395e+00,-8.293694335902528081e-02,4.358392230533268794e-04,6.050678618188908009e-02,1.863817930221557617e+00
-7.472086892379475875e-01,-8.638274706609507803e-01,1.009518833359199341e+00,-1.299590887024874852e-01,7.775264266989743989e-02,-2.628460066778314647e-03,1.836677432060241699e+00
-3.687529560904701520e-01,-1.266120627427504752e+00,1.285980592675075140e+00,2.334572488659247651e-03,2.313452065664476087e-01,8.406657582614182611e-02,2.282563447952270508e+00
-5.400245533917362728e-01,-9.666565557301727285e-01,1.179186243650495847e+00,-2.348115031290167187e-01,6.842848058097562858e-02,-6.609883900830273995e-02,2.015870809555053711e+00
-5.322637428912059265e-01,-1.206067000131260780e+00,1.655481868931392819e+00,-4.463438807871141778e-01,-6.784814226870611309e-02,4.369832078957740229e-03,2.706637620925903320e+00
-4.077687376796993446e-01,-1.194887354307214933e+00,1.172903413407003992e+00,-5.013779768528935366e-01,6.759935120058206681e-02,-7.797135012695201317e-02,2.268996238708496094e+00
-3.304745571378571167e-01,-1.185241803665244786e+00,7.000748458482931591e-01,-1.541175807609927728e-01,2.421073414808824764e-02,-2.081659887780173135e-01,1.696040511131286621e+00
-4.652830292317882144e-01,-9.431476489543922925e-01,9.358636889602343079e-01,-2.621698775500185263e-01,7.727640409158206825e-02,-8.887615411629279372e-02,1.763217568397521973e+00
-3.736251197108857447e-01,-1.037318065912113729e+00,9.933450418838203344e-01,-2.101711557885310167e-01,-4.896851606179435795e-02,3.445796033862277147e-02,1.832925438880920410e+00
-5.012245116992579685e-01,-9.525927397361917404e-01,1.117612135839682219e+00,-4.049207827958358763e-01,2.237344268855623042e-01,-8.095744616766407942e-02,2.053478240966796875e+00
-8.175191532953108853e-01,-7.848882000997120523e-01,9.975243770009469824e-01,7.849974209564025696e-02,2.501287963954388835e-02,1.504949959114529681e-02,1.804789185523986816e+00
-8.557196655611490899e-01,-8.357905759964793235e-01,1.006655010467822464e+00,-1.804019284712484730e-03,-6.526612987031841888e-03,7.817187596955696427e-03,1.852577090263366699e+00
-8.217149519445144934e-01,-7.878370028850231188e-01,9.070225826366291599e-01,5.937716232840226788e-02,6.006717479296559692e-02,1.212891470797143045e-01,1.731083273887634277e+00
-8.662976885011531847e-01,-8.487449208236835796e-01,9.442146267538811255e-01,-3.195168206414339580e-03,-1.049628454935969124e-02,2.976539767842656045e-03,1.801907658576965332e+00
-8.505089234812555077e-01,-8.291846197969021670e-01,9.702651229866141591e-01,-3.381865831998452730e-03,1.697499713054221888e-03,1.593249831107094658e-02,1.810428261756896973e+00
-8.515312690782513849e-01,-8.673721866214507692e-01,9.875611972363098623e-01,-3.619896339693819565e-03,1.623194384329861018e-03,1.799991518552208555e-02,1.847339749336242676e+00
-8.650419438287912932e-01,-8.597115163876590804e-01,1.072566295786031798e+00,3.193243225240929763e-03,-7.644447152191725979e-04,3.383705881765018946e-03,1.934965729713439941e+00
-8.407785640301522756e-01,-7.711669954878834776e-01,9.889252633653589086e-01,4.803551974571260152e-02,1.778209662112347975e-02,2.559121926957794863e-02,1.798646450042724609e+00
-8.709896766496880716e-01,-7.918553668473523599e-01,1.036834314275882685e+00,-1.346194320184207482e-02,-9.799933595621122123e-03,-3.041958152379799565e-02,1.870478034019470215e+00
-8.987684099365430557e-01,-8.360918335726730266e-01,1.039808366397950712e+00,2.021741523309730781e-02,-1.127370989603575062e-02,3.719366226850683715e-02,1.909518957138061523e+00
-8.568122948063064959e-01,-8.776862180897436749e-01,1.037040931719022785e+00,5.890054095879250322e-03,8.377964374974994095e-04,-7.711434129407526011e-03,1.904450654983520508e+00
-7.208593915685093112e-01,-1.049599211042655078e+00,1.141425745685090032e+00,4.430007339964120439e-02,-5.915130844841277880e-02,-4.918862970747803730e-03,2.050570487976074219e+00
-6.991856060920945692e-01,-7.510660081610768257e-01,1.009734240991533527e+00,-1.104493370078588610e-01,-4.351432579662897759e-02,3.432438979058648199e-02,1.748590946197509766e+00
-6.940409381668291022e-01,-8.865192805603959725e-01,1.075048066323166074e+00,-9.703126246109609887e-02,1.822157694397259775e-02,-4.256118812651575600e-02,1.881996512413024902e+00
-6.589640088719613820e-01,-7.092107797697920768e-01,1.009741754473940212e+00,-2.426620732267124048e-01,-2.375041299207984388e-02,1.337534045816079695e-02,1.746377468109130859e+00
-8.630396563827575918e-01,-8.594729831283904886e-01,1.057606935910907708e+00,-1.097965982689614586e-03,-2.908225517051164430e-03,1.426928562821437423e-02,1.919032454490661621e+00
-7.657203312046954036e-01,-8.827166139621900331e-01,1.091643897132598573e+00,-8.696109280232536265e-02,-1.336922088365857797e-02,4.347121703545452596e-03,1.924597144126892090e+00
-6.287547174152021690e-01,-7.699769389325709090e-01,9.888110841667214768e-01,-1.320129502253624132e-01,-2.614943960460830875e-03,-1.885630547326192516e-03,1.707984924316406250e+00
-8.379831522233746055e-01,-7.887911804573534136e-01,1.087541448124490051e+00,-1.156882371959725708e-01,4.066151965623830689e-02,-4.869824153888507173e-02,1.915090203285217285e+00
-8.453709524732502256e-01,-8.382612631997720110e-01,9.936356023592105569e-01,-1.431009460069491285e-02,1.441401516850520162e-02,-7.004601246267021589e-04,1.835799574851989746e+00
-6.564798700395408915e-01,-8.287621879259384761e-01,1.147140064497111034e+00,-1.991703347487192299e-01,-5.593430695278898621e-04,-6.398745585427440853e-03,1.926807761192321777e+00
-8.631611746842740018e-01,-8.602799137831580456e-01,1.069877700662340114e+00,1.459053528984191389e-03,7.960675752257787051e-04,3.640813890756489524e-03,1.931612253189086914e+00
-8.529754020573867557e-01,-8.753402557756539970e-01,1.031142390871945480e+00,-4.661373630052314393e-02,-1.976202174980785323e-03,2.000789806969027057e-02,1.897437572479248047e+00
-7.257562439946584343e-01,-8.893480642978704998e-01,1.153944098442070798e+00,-9.279357947512151261e-02,1.402328384485693885e-02,-9.392349762345465758e-02,1.980006575584411621e+00
-7.484949838529354471e-01,-9.406765497194576886e-01,1.018208761375311466e+00,-1.839252232818665636e-02,-2.884065318686367813e-02,1.408184370231632156e-02,1.871312022209167480e+00
-6.729262440213736873e-01,-8.536633369022724738e-01,8.489849684025614351e-01,-1.151398633811907823e-01,4.853959350087251601e-02,-2.490756440804168040e-02,1.634823083877563477e+00
-6.618833148982796732e-01,-9.374375898117207617e-01,8.580384895511992127e-01,-6.309623924625047675e-02,3.763784843196495145e-02,3.754198132329997911e-02,1.680873274803161621e+00
-8.243036210488378090e-01,-8.266538719440826855e-01,8.550500508944562927e-01,5.431034054248420374e-03,7.907088246151901256e-02,-2.177334187147967476e-02,1.686549305915832520e+00
-8.998793089894197017e-01,-9.394505747241614912e-01,9.720451119256647843e-01,-4.255879643488440223e-02,3.257830660414137020e-02,2.353748104924566209e-02,1.894735097885131836e+00
-6.765453041077222895e-01,-9.197874908103049751e-01,8.183999147867433432e-01,-2.190374474485697054e-02,-1.067987450088971196e-01,2.837006845840013905e-02,1.641868948936462402e+00
-9.332389769055834394e-01,-3.673504783902561410e-01,8.728237535296112792e-01,-2.300894136532806999e-01,4.861294536004616418e-02,-1.214117665045876399e-01,1.664391160011291504e+00
-1.027374267441538258e+00,-4.950249118066030740e-01,1.228592740677163953e+00,-2.857658611773868096e-02,9.052413684541092687e-03,-5.198463202717207299e-02,2.045146226882934570e+00
-1.035248686298028353e+00,-5.150862201457983014e-01,1.242325773333049721e+00,-6.728287753702458240e-02,-5.154940735376153244e-02,-6.441855841446936237e-02,2.075381278991699219e+00
-9.420295812373804534e-01,-6.396942433395758076e-01,1.074645136267443402e+00,-8.407377222072856537e-02,2.964618001622339530e-02,-7.553199968112275786e-02,1.894631505012512207e+00
-9.744673421494441934e-01,-5.299352026384046566e-01,1.169186141552409852e+00,-1.426404486660648174e-01,8.361030176998987540e-02,-3.546833004319306648e-02,1.981343269348144531e+00
-1.018766908696810969e+00,-4.228218248203223228e-01,1.043228918436025943e+00,-1.240039882436502761e-01,1.206248252482212437e-02,2.920750879738448491e-03,1.850603699684143066e+00
-1.061560605043958994e+00,-5.311162977497729809e-01,1.115820072723577638e+00,-1.081422456505257146e-01,-5.073536286501235948e-02,4.281587432724133502e-02,1.978808879852294922e+00
-9.586097309435528402e-01,-5.458643858459708564e-01,1.050681764614392888e+00,-4.773679906931604933e-02,2.761993804652319168e-02,-4.628384163593274314e-02,1.842236876487731934e+00
-9.446353736715523697e-01,-4.844132104187541255e-01,9.469817993427722680e-01,-1.613995719757413683e-01,8.515544778920833280e-02,-1.720036121333744922e-02,1.737885832786560059e+00
-8.772277429364121470e-01,-8.548461406350387204e-01,1.013771367890874187e+00,1.708988817815701444e-02,3.530307874518888184e-03,-4.289721315750979341e-02,1.881618738174438477e+00
-6.936829542980487151e-01,-8.205291658124993504e-01,1.018349756618295077e+00,-2.270134613911839461e-02,2.528683314765740528e-02,-1.749634504431914553e-02,1.780082464218139648e+00
-7.352135703943935008e-01,-8.311249472394554028e-01,1.035322257564759596e+00,-5.569574093665081299e-02,1.314993757061243794e-02,-2.006406146874453386e-02,1.823415279388427734e+00
-7.226933696714821220e-01,-8.653679287141962106e-01,1.065511514670831605e+00,-5.730435800247488803e-02,3.022534110453024489e-02,-5.031498184906194049e-02,1.869050860404968262e+00
-6.557226893256181688e-01,-8.679431659404442945e-01,1.021284189584304780e+00,-2.684437139903374583e-02,1.346439657571582744e-02,-1.345092485934048544e-02,1.793469667434692383e+00
-7.264861107137965401e-01,-8.707449492311132300e-01,1.037902273287017563e+00,-2.037709908345285495e-02,2.880513383573041555e-02,-1.582203591697498718e-02,1.841980338096618652e+00
-8.478848458051856385e-01,-7.723277223268727454e-01,1.068361868360298006e+00,-9.043711992306296965e-02,1.048900737895970526e-04,-9.500866046964959871e-03,1.886195063591003418e+00
-9.048612923275967113e-01,-8.011495993857958853e-01,1.107952694089244128e+00,8.276972433618379199e-02,-7.578079810825702305e-03,2.932814009656272564e-02,1.968941092491149902e+00
-7.921910297445324822e-01,-7.038214100816817531e-01,1.026147350816297044e+00,8.826603408395082562e-02,-4.007826210832724466e-03,-6.375017100330834970e-03,1.782419919967651367e+00
-8.091607650579362154e-01,-7.562004178550149058e-01,1.067672814280275606e+00,2.045906150435159443e-01,-1.719285278030663680e-02,-8.940264044512954977e-02,1.891123652458190918e+00
-8.578508054994227194e-01,-8.586593870350142099e-01,1.104798676503270016e+00,5.705759400601412290e-02,-2.540173717549851565e-02,-3.634124731653468054e-02,1.967039704322814941e+00
-8.522345229358262442e-01,-7.246288902161360790e-01,1.052954719583126364e+00,5.562084851679195696e-02,-2.394535031675512973e-02,-5.302729488464185542e-02,1.849960327148437500e+00
-7.951836948909939418e-01,-6.144286909397829177e-01,1.087859248328601147e+00,2.540585729503866963e-01,7.322365989106874307e-02,7.593842198049408077e-02,1.861498355865478516e+00
-7.810276532993769560e-01,-8.175538882658746065e-01,7.131706347358355291e-01,2.236886866592201553e-02,2.215039130491488345e-02,1.667574217446071141e-03,1.513777256011962891e+00
-8.006286527807164877e-01,-7.878761597706940289e-01,5.882747558077542349e-01,2.176886021851755226e-02,1.176023485012239606e-01,3.450100614812322275e-02,1.399280786514282227e+00
-9.111004768307865431e-01,-8.242257800154627612e-01,7.687031464336335773e-01,-1.568386049161478793e-02,2.234720944104461038e-02,-8.133657475479167190e-04,1.638777971267700195e+00
-8.738898306695001006e-01,-8.449362364136751014e-01,9.259449953824578916e-01,-1.775076696321587410e-03,7.205729767418896092e-02,8.500143178092106622e-02,1.795938134193420410e+00
-8.415219802099045410e-01,-8.176291853015816846e-01,7.371805062374685580e-01,-3.085377023024591520e-02,2.440339605591204317e-02,-9.148980181389482561e-03,1.568453431129455566e+00
-8.264974789343711992e-01,-8.497000264585201634e-01,1.042546120548408783e+00,-2.942530407148775604e-02,-2.994032003265027081e-02,8.561418194963012207e-03,1.882215619087219238e+00
-6.561715832435892626e-01,-9.803932149318255185e-01,9.807605062226960602e-01,1.603525014981233843e-01,-2.006843803033245277e-02,-7.971594161316560012e-02,1.847378134727478027e+00
-8.037310881659298634e-01,-8.438490298021246172e-01,7.145101298139744372e-01,9.960497932504069202e-03,1.331579755948427701e-01,3.762456955903714217e-04,1.555977463722229004e+00
-7.751402128852604712e-01,-8.546214676504239049e-01,7.396081934370668520e-01,2.141175166898370147e-02,1.443214510704852842e-02,1.607774830736666272e-02,1.556903958320617676e+00
-7.575811629606916675e-01,-7.669716416214656940e-01,4.580970802750222726e-01,1.529115150512495511e-02,-2.629091833929544583e-02,-5.744813154309282716e-02,1.225582957267761230e+00
-8.307951460514030328e-01,-8.365242716867665740e-01,7.535881384430653807e-01,-7.393849098193918355e-03,-9.009220650069824088e-02,-1.176933043171656812e-01,1.607933282852172852e+00
-7.504103583682905088e-01,-8.349493097568707611e-01,7.827452555870615392e-01,6.111678794798981046e-02,-8.745996097728206409e-02,-3.094928776867829356e-02,1.588820815086364746e+00
-6.731111964043710039e-01,-8.840537108875461403e-01,8.626680320940638413e-01,-4.191246125067216860e-02,-2.835370350514667889e-02,1.153393496103879458e-02,1.653830885887145996e+00
-8.535231357264170260e-01,-8.604863743792028341e-01,1.071073393649218719e+00,9.901159405742926758e-04,-3.736591456061809022e-03,-3.549779583012898244e-03,1.928109049797058105e+00
-8.431070066224201076e-01,-8.624984157279905750e-01,1.049469138088261477e+00,-7.059518287325309682e-04,-9.815941942850301208e-03,1.197058440440181351e-02,1.902535319328308105e+00
-8.002608625349924010e-01,-8.437897131640373916e-01,1.034838259324649679e+00,-5.797340337990523201e-02,3.582841818669751238e-02,-2.855074087752337841e-02,1.861650466918945312e+00
-6.574041020825041048e-01,-8.765899697214216690e-01,1.051144373338545712e+00,-7.326705212099861309e-02,3.298952772250506038e-02,-1.834347889579642996e-02,1.833588957786560059e+00
-6.704638900631707532e-01,-9.915320036548064264e-01,1.232076010749249217e+00,-1.837638739346803829e-01,-5.218276593236004799e-04,-2.312616666663057634e-03,2.105923175811767578e+00
-6.352870737343712104e-01,-1.105220462829278549e+00,1.242841116826161052e+00,7.863280405258270267e-02,-2.439981683911953206e-02,1.481440302625221077e-02,2.156801223754882812e+00
-5.952914357025054226e-01,-1.087570670271289508e+00,1.216837586344317046e+00,-1.029600008244329831e-02,7.436870346405434484e-02,-5.865138361931581529e-02,2.108424425125122070e+00
-8.545536436316386597e-01,-9.008887759663596340e-01,1.016243293949819382e+00,1.078011756336261229e-02,-1.970989354065363908e-02,-2.251940337565904587e-02,1.895190596580505371e+00
-8.439217769613919229e-01,-9.516353294029576970e-01,1.026955246826251500e+00,-1.401087161592162733e-02,-3.380474236828502621e-02,-8.410677927190619504e-03,1.928090095520019531e+00
-7.218466380347584588e-01,-9.489612814174486211e-01,1.058647124783377302e+00,-3.311865827188793365e-03,-5.007402105784724416e-02,2.403546408600762754e-02,1.906673431396484375e+00
-7.283195681085903317e-01,-1.010408197034748934e+00,9.771777240716543744e-01,-1.203736443413953305e-01,2.190730167166484756e-03,-1.739076445208777300e-02,1.874509930610656738e+00
-6.142553354346256267e-01,-9.023989983930531533e-01,1.137808831672969756e+00,1.208146782879243736e-01,-5.798380257395276127e-02,-7.054429758924668503e-02,1.930390119552612305e+00
-7.006919583650106365e-01,-8.804934912147523995e-01,9.102647282712528209e-01,8.936072393945145020e-02,2.387430325058299569e-03,-2.584566822249173210e-02,1.715558052062988281e+00
-6.892408203151250135e-01,-1.071367976679423073e+00,9.426700854192426871e-01,4.928340056869603275e-02,9.796046125097154084e-03,1.094593399634843089e-01,1.864475846290588379e+00
-8.591814417173483376e-01,-8.460415837142469808e-01,8.892564072341846426e-01,1.942650893193261993e-02,1.209022862053023978e-01,7.402648533533684461e-02,1.759448051452636719e+00
-8.872306975057633327e-01,-7.992583475533386883e-01,1.050418565552925676e+00,5.830662497833746100e-02,9.000295541783432524e-03,5.261983126467139477e-02,1.900134921073913574e+00
-7.073507017043896283e-01,-9.196254908228728153e-01,8.326679851925975484e-01,2.858506304407600063e-02,1.188500146707922311e-01,-2.718283443455942958e-02,1.670529603958129883e+00
-8.429844307971696704e-01,-9.201387975400941999e-01,8.054419545653126455e-01,-3.757915124130057488e-02,9.763019174033732428e-02,5.241580903538147623e-02,1.700446844100952148e+00
-8.189185115219408395e-01,-8.443077945196557632e-01,1.053999179175311385e+00,-2.092094721782988484e-02,2.361429585253446012e-02,-2.652600188916728538e-02,1.887091517448425293e+00
-7.877111178956841542e-01,-7.944222763015219568e-01,1.030227724687537982e+00,-2.189800785397715693e-02,8.537287306102437842e-03,-1.096005932495111882e-03,1.821759581565856934e+00
-8.273681150564093922e-01,-8.153857822356492813e-01,1.025466359080511758e+00,-5.399602222971319060e-02,-4.224456951581359414e-03,-3.495524436966354620e-02,1.850244283676147461e+00
-8.404664055292239144e-01,-8.075516241296329945e-01,1.048572345176034704e+00,-3.014066598148573348e-02,2.484143114683590864e-02,-2.472099502668868853e-02,1.874508857727050781e+00
-7.572822000099870277e-01,-8.268975441328503262e-01,1.032081343698739939e+00,-5.889799716415092257e-02,-5.837967661228662432e-03,2.135318654938019815e-03,1.828047633171081543e+00
-8.751958236669220570e-01,-8.681041768322015351e-01,9.303282138181896421e-01,4.937356174948624547e-03,-1.059385338181448658e-02,4.680990358167890636e-02,1.803925275802612305e+00
-9.239052666939295833e-01,-8.584697662201161705e-01,9.108201700051981042e-01,-9.685765123694377310e-02,3.196458927542550365e-04,2.129587085232306082e-03,1.810690760612487793e+00
-8.486295186605554708e-01,-8.408418026977237947e-01,8.019418823679624886e-01,-6.498353699273647782e-03,-1.232644155418301801e-01,1.208392889147865690e-01,1.673651099205017090e+00
-8.070082970102580022e-01,-8.207291466914964362e-01,7.256262884128596991e-01,1.471595444259474889e-02,-5.691338429004411809e-02,1.370038706812438944e-01,1.561045646667480469e+00
-8.682318090569461910e-01,-8.409639523393087623e-01,6.733653952187093061e-01,4.710449163424663271e-02,-2.457710369442391019e-02,-1.011214319059327779e-02,1.531014323234558105e+00
-8.823217690382799683e-01,-8.646055811781753198e-01,9.214848630495866555e-01,-1.155691951760594825e-02,-1.165262883167613311e-01,2.714343275157181032e-02,1.807047843933105469e+00
-8.087133919578985974e-01,-8.389751907636381345e-01,9.106018641272299874e-01,-3.030977084213439324e-02,1.026950076420671265e-02,1.707554711972627138e-03,1.735532045364379883e+00
-8.573266466408347997e-01,-9.092700761878513838e-01,9.130957269401063225e-01,-1.144529308816145084e-02,-6.774764165128177584e-02,-3.485451716943629291e-02,1.801905155181884766e+00
-8.126881030493173785e-01,-8.305738358128079701e-01,8.386348409523987080e-01,-1.045985533798459016e-01,-1.193549313044913740e-01,2.050502429030281668e-02,1.683313131332397461e+00
-8.884073341839382465e-01,-8.481471951653215546e-01,8.973363267787271003e-01,-3.317877234879889302e-03,-2.864562490023811123e-02,7.824390226722625907e-02,1.771854400634765625e+00
-8.605285788025803795e-01,-9.188459568131235322e-01,1.001382971010449596e+00,-2.421462718440385575e-02,-1.224276148094633893e-01,4.917070585901782420e-02,1.905957818031311035e+00
-8.457369041502256213e-01,-8.344258019257644321e-01,1.052139739317057954e+00,-1.698615468748958105e-04,8.927902130028314218e-03,3.277742605437520586e-03,1.892318129539489746e+00
-7.924230340825614283e-01,-9.675171539370786000e-01,1.027525139480697902e+00,-1.486688587991314148e-01,-7.306126322273838458e-02,1.859630559695648472e-02,1.935171842575073242e+00
-8.361192865128849183e-01,-8.137646472362197736e-01,8.490335191453342034e-01,-9.834088673025251359e-02,-9.893202009740624525e-02,-9.926012796550347933e-03,1.691519975662231445e+00
-7.963742810216815071e-01,-5.650974775663551997e-01,1.006097673131838066e+00,-1.926862127414468162e-01,-3.561875384133901708e-03,-4.700012353383657346e-03,1.731188178062438965e+00
-8.653604651264209524e-01,-6.398326610279074789e-01,1.058336096706300022e+00,-5.441887576027368278e-02,1.391080054819875643e-02,1.566885451151989184e-02,1.824232816696166992e+00
-1.007712883178105701e+00,-5.509832254403635998e-01,1.209827169323836493e+00,-2.070344480024781664e-01,-1.232630950365153598e-02,3.966437758346086362e-02,2.060833454132080078e+00
-9.192839157900014602e-01,-6.216367171638934597e-01,1.064406903210425970e+00,-2.736881420559329411e-02,-7.562684108131312137e-03,3.012676887934643763e-02,1.854272007942199707e+00
-9.698368622012365492e-01,-5.775712297877028112e-01,1.065843718194855905e+00,-4.646334124576354668e-02,-6.521100258344506538e-03,2.526263951084927600e-02,1.872927904129028320e+00
-9.249426252605910115e-01,-4.386894925265903966e-01,9.975217456231366686e-01,-1.230267664626413932e-01,-2.082162291736981349e-02,2.933735792197767964e-02,1.745507478713989258e+00
-1.006040698727229898e+00,-4.861100095736940463e-01,1.176696939152616750e+00,-1.212413878258141037e-01,1.539728390005730592e-03,-4.291107633052115844e-02,1.987316966056823730e+00
-8.459743149886150837e-01,-8.413467038510575868e-01,9.081200500724868618e-01,1.969565864355178521e-03,5.163080436955084368e-02,-3.425779925464544212e-02,1.755072832107543945e+00
-8.563447255223263221e-01,-8.485434124942358158e-01,8.987520434584046480e-01,-4.399091515248262614e-04,-6.317036402069696466e-02,-2.335576173958074653e-02,1.755090355873107910e+00
-8.444408565122407673e-01,-8.560804511655094595e-01,9.787745224484565298e-01,6.256517085330551287e-03,3.713070806798114687e-02,-3.451914950592484960e-02,1.831201672554016113e+00
-7.566290541789056912e-01,-7.996331549360901070e-01,1.041062685864763582e+00,-6.985573275082307410e-02,1.414611620788373478e-03,1.082136300517728272e-02,1.823691248893737793e+00
-8.342698938990025237e-01,-7.827648900344800209e-01,9.295231009462550098e-01,6.135153926444114614e-02,-5.045859706917642240e-02,-4.608807955479307661e-02,1.745874285697937012e+00
-8.768225269581445547e-01,-8.286768653467210255e-01,1.025499263009751028e+00,5.890980904946961638e-03,1.077093609753563067e-02,1.647128861037397071e-02,1.879048585891723633e+00
-8.441666785189083644e-01,-8.479680636054341969e-01,1.067862420007406277e+00,2.379483021897889697e-03,-5.542929123920768870e-03,8.114044034864566907e-03,1.914012789726257324e+00
-8.938773730039430987e-01,-7.525116737284045509e-01,9.821142625139358540e-01,7.474537780092286622e-03,5.474247410023035283e-03,-1.940603486538101420e-03,1.809529423713684082e+00
-8.989529405917013882e-01,-7.214354043429702656e-01,8.515334774693374964e-01,2.703467588458113857e-02,-6.734351230458751614e-02,-3.370376120692817300e-03,1.673560619354248047e+00
-8.682843838664682234e-01,-8.356772860372168044e-01,9.928602455107764513e-01,-2.165398830112305086e-03,-4.620750113118888246e-03,-2.779066857792377235e-02,1.845706105232238770e+00
-7.838512847922676219e-01,-7.923585160830964869e-01,1.024865383501543548e+00,3.646560874267495284e-02,8.368987690571547469e-03,1.456607175442004888e-02,1.814318418502807617e+00
-8.223375994848115544e-01,-8.649697702109683251e-01,1.053459769703382065e+00,1.241448771804769052e-04,-6.193360789836120303e-03,8.655888705952952816e-03,1.897562265396118164e+00
-7.760584741494441774e-01,-8.185633444346512855e-01,1.034684191162265732e+00,6.058211943510371372e-02,-8.389204790422726335e-03,-1.463609554165308003e-02,1.835599422454833984e+00
-7.683207801249705149e-01,-6.571951271183901211e-01,9.891836221510734717e-01,1.188428832456285972e-01,-7.793423755434131326e-04,-9.364840974436102264e-03,1.717120409011840820e+00
-8.141243849858464943e-01,-7.858453986805209457e-01,1.033258803842428852e+00,4.506486495845987705e-02,9.424539391233889910e-03,5.883422478915267817e-03,1.835168957710266113e+00
-8.168669506204939701e-01,-5.980601656681210354e-01,1.093051022619277113e+00,2.709952397435198557e-01,-5.457563706569845685e-02,-8.156627257548328125e-02,1.878022909164428711e+00
-7.930385092472077568e-01,-5.380071744743901707e-01,1.214893135025460591e+00,4.119039294451939393e-01,-6.466293090180717795e-02,-7.384450616778873155e-02,2.030429124832153320e+00
-6.521594436324666955e-01,-8.464790981472821718e-01,1.089552995864172980e+00,1.195679289277872537e-01,1.375958006211566199e-02,1.485394953125941490e-02,1.858464598655700684e+00
-7.242359091849039920e-01,-7.710458832980126020e-01,1.004169107270320049e+00,4.859962380860864684e-02,3.598710039393519799e-02,3.503443060174447898e-02,1.756455183029174805e+00
-8.274326625399351931e-01,-7.932573868769351444e-01,1.015417735127904342e+00,-3.720336732223031295e-02,-2.293262698398603958e-02,2.827632555406713044e-02,1.828227043151855469e+00
-6.565623740667675401e-01,-7.529624795564584527e-01,9.972742515440067290e-01,1.377533935566749579e-01,-2.554478391523276690e-03,-7.639199801841542112e-03,1.720761775970458984e+00
-6.851817912071697103e-01,-9.347460250349554078e-01,1.131422540270550225e+00,1.709924945997086665e-01,1.210612396683114107e-02,2.333750767701093035e-02,1.976229190826416016e+00
-8.667376679202868361e-01,-8.611268438743708842e-01,1.046026494033298393e+00,2.654081513625087749e-03,5.421786004146963642e-03,6.940263535738622203e-03,1.910031318664550781e+00
-8.390161246951591822e-01,-7.951732665522303067e-01,7.608358208345475937e-01,1.103342621561628420e-02,-8.077764322685704323e-02,1.333262212968948542e-02,1.584859609603881836e+00
-8.225359429749715678e-01,-8.521927125349040288e-01,1.020343822191530192e+00,-1.828879003499712247e-02,1.179407157202513878e-02,-4.008316818500713002e-03,1.858281016349792480e+00
-8.355765349859733959e-01,-8.637083688045515961e-01,9.381895803748021567e-01,2.312769978154663106e-02,2.188286212759593674e-02,5.368867709603638433e-02,1.791263699531555176e+00
-8.739160376125734153e-01,-8.800768086821086911e-01,9.012991934154597207e-01,9.929239673392509583e-03,-1.822280395921842266e-01,2.385823994446524543e-02,1.806651115417480469e+00
-7.624802794123337613e-01,-7.958645389814569260e-01,5.705403715944941112e-01,-3.903399728444537781e-02,-6.652252777198964899e-03,4.854133403611810005e-02,1.354375481605529785e+00
-6.587063394362956403e-01,-1.046816091091013368e+00,9.671105461727711461e-01,-5.609808269707007577e-02,8.744764051613033648e-03,-5.405970584030705961e-02,1.855624675750732422e+00
-8.518360618387761374e-01,-8.837818292100445561e-01,1.027682579787385420e+00,-9.385975316944985408e-03,-1.799296401094519632e-02,-1.826455407731433431e-02,1.896283149719238281e+00
-8.669147767765833512e-01,-8.876916409686026466e-01,9.447477008599463044e-01,1.896993833700189036e-02,-9.293401625463149074e-02,4.093634618433519834e-02,1.830904245376586914e+00
-1.493111494495027225e+00,-6.543281961838921523e-01,1.047769676442265041e+00,1.075710826281067595e-01,5.235051571586840646e-02,4.576209958063265359e-02,2.253354072570800781e+00
-8.763413262351452682e-01,-8.509053866210379846e-01,7.785125216305797125e-01,4.792199196107593817e-02,8.506008314247649402e-03,-1.833763451112678244e-01,1.674838066101074219e+00
-8.612790162274207573e-01,-8.423130784069607913e-01,8.748728973192512193e-01,4.534326709649962907e-03,6.067343949046996587e-02,-6.885905613998066777e-02,1.734066247940063477e+00
-8.874598521144466678e-01,-7.494397644341079801e-01,8.455705079678903502e-01,-7.567757200090068082e-02,-4.815871863107875489e-02,-5.101901073407669185e-02,1.677855372428894043e+00
-9.246468696229809270e-01,-8.232914161042144130e-01,9.764932172462839066e-01,-3.207062485345996139e-02,-3.264046747846813257e-02,-1.554419912187042230e-01,1.873681902885437012e+00
-8.227517704594512482e-01,-8.081517841932714941e-01,6.889953135454036648e-01,-6.382007977149500508e-03,7.353573761456685953e-02,-1.306633653411299889e-01,1.526788949966430664e+00
-6.754648981716462330e-01,-5.806435589197780356e-01,1.100925626219330544e+00,-5.062158781533298013e-01,-3.238996539393560609e-02,5.376982450144534437e-02,1.943373084068298340e+00
-6.118144697256470144e-01,-7.644892860746735908e-01,1.605493765888822200e+00,-3.860815523247857484e-01,5.401751706388076280e-02,-3.604312983425991129e-02,2.395437479019165039e+00
-1.022527558571954209e+00,-7.471889695547521137e-01,1.278436897417299933e+00,-2.199100645776884411e-01,-1.812006229122307965e-02,3.694114785272582108e-02,2.210625410079956055e+00
-8.285546341721297114e-01,-7.643342870045766180e-01,1.213322151758817080e+00,-3.046709035035262692e-01,-2.118122892802837363e-03,1.749369349211827825e-03,2.078641653060913086e+00
-6.749370963966547787e-01,-8.405352181779565113e-01,1.052659975448232643e+00,-1.170855784071892086e-01,-7.508018128293794669e-02,5.129523818035252453e-02,1.834130048751831055e+00
-7.888346818053569853e-01,-8.980694789317513749e-01,1.097130080317488821e+00,-1.934300613048486883e-02,-5.281125350677124720e-03,1.632587383720309274e-02,1.943402647972106934e+00
-6.662940116712005034e-01,-7.310646381043715003e-01,1.153482564207993111e+00,-2.245745363840774833e-01,-2.303456160246154447e-02,-1.395053638691186836e-02,1.893971204757690430e+00
-8.312386395395909844e-01,-8.699371299669578228e-01,9.006289036811154780e-01,-1.152567186057633234e-03,7.395077205524388207e-03,-5.027762738143004562e-02,1.753748893737792969e+00
-7.818165061275310634e-01,-8.040413555381540345e-01,6.028890621683511419e-01,-2.975735158088376950e-02,-8.036498226756806640e-02,-1.372460700483581209e-01,1.423804759979248047e+00
-7.412651881674950927e-01,-7.429700504496719038e-01,4.555104300666066308e-01,-1.357699135572103429e-03,-3.037468542185787698e-02,-4.644350151684199096e-02,1.201482176780700684e+00
-8.625343995852797763e-01,-8.339122833481404928e-01,9.545776491770208150e-01,1.441641447762395537e-03,1.921393597319830072e-03,-4.700730353684375029e-02,1.804813623428344727e+00
-8.292551564009231768e-01,-8.604206631711787123e-01,1.037027084924477149e+00,7.230812911835378387e-02,4.283456386631161877e-02,1.669784994516113064e-02,1.887901067733764648e+00
-8.255153271537526427e-01,-7.653982550601952095e-01,8.358101824539230229e-01,8.038245283395592522e-02,-1.315805564386277049e-03,-5.893554665054780844e-02,1.641204357147216797e+00
-9.002932935260998804e-01,-8.335924670736898356e-01,6.818994032561749297e-01,-2.764432397087678017e-02,-8.085112719598515352e-02,-7.075184373357421008e-02,1.561784267425537109e+00
-3.608178655743534691e-01,-1.240154958493471904e+00,1.267226765313000048e+00,3.960351545533756790e-01,3.695230160715471529e-02,2.106324259944943322e-01,2.337325096130371094e+00
-9.827623479164018239e-01,-6.054215104812347148e-01,1.191311367225057039e+00,-1.150559844849066982e-01,-1.837537933075617663e-02,-3.291265668086846424e-02,2.023015499114990234e+00
-4.991595844312357588e-01,-9.402645770000256364e-01,1.258166784629621615e+00,6.169474532729484206e-01,3.725854153002022828e-02,1.032274084843221862e-01,2.288217544555664062e+00
-4.322635955484537829e-01,-9.677184792519809564e-01,1.133236484949660339e+00,3.099308003855484883e-01,-9.776596548042816581e-02,-8.446819309030599576e-02,1.978385090827941895e+00
-2.893810757849256676e-01,-9.610209985909391461e-01,1.248100247955429953e+00,3.835761426481404390e-01,-1.042856180037979585e-01,-6.923297646199742805e-02,2.082301855087280273e+00
-5.212411335572189053e-01,-1.033970209194505774e+00,1.318863180805512902e+00,2.951139998833718914e-01,6.877262985619482516e-02,3.382222408322178159e-02,2.207090377807617188e+00
-4.902069171636422862e-01,-1.012051649573000089e+00,1.119417106442710086e+00,3.108545944476818201e-01,2.747839055320611124e-03,-4.386199760918157997e-02,1.999717831611633301e+00
-9.456878692317135515e-01,-4.428705332834982356e-01,1.037924832053005897e+00,-1.477138947151900861e-01,-7.365054659100467131e-03,-5.735189344581387641e-03,1.804402828216552734e+00
-9.312553666832813493e-01,-6.547399164348193246e-01,9.283041820736377403e-01,7.756641459469906796e-02,2.640451002350498177e-02,-6.186616774996193252e-02,1.746954202651977539e+00
-8.812710399150074370e-01,-7.883196659105109472e-01,7.032661992183744104e-01,-1.100826109692467410e-03,-6.124039186584796790e-02,-2.727067296082755221e-01,1.614458084106445312e+00
-8.702532378584200146e-01,-8.588729615721524269e-01,9.440896008663746120e-01,1.172554370780978274e-02,-3.825600051216987429e-02,-8.779559163189011584e-02,1.816383481025695801e+00
-4.440482247894602108e-01,-9.957073201066857226e-01,1.024120287083643888e+00,-1.691957933687190940e-02,-1.031798836233313935e-02,-1.630861029610984267e-02,1.808798313140869141e+00
-3.427193555882177001e-01,-1.002544691774363894e+00,1.039471377558711218e+00,1.669839339791181348e-02,5.996127894693869392e-02,-7.838858768021811710e-03,1.808212399482727051e+00
-3.274899528477691057e-01,-1.020022154483041898e+00,1.041442429749567467e+00,4.558394940564228399e-03,5.272955101768762171e-02,-1.047393707911641395e-03,1.819344162940979004e+00
-3.699364831500895345e-01,-1.235961964034624216e+00,1.341675966498206307e+00,-3.824457003752538501e-03,-4.340131753332675257e-02,-2.748558111007953081e-02,2.273736715316772461e+00
-3.103417671820473678e-01,-1.085505565022409913e+00,1.020580955872981477e+00,-6.332433671306106349e-02,7.378202890531350422e-02,4.779102757066498730e-02,1.854489326477050781e+00
-2.857984391334407182e-01,-1.064083816279485450e+00,1.052936515139587081e+00,-8.124993226034043321e-04,-2.477525251688889388e-02,1.083369069534211721e-02,1.855277061462402344e+00
-3.714854687261257005e-01,-1.175008872716074348e+00,1.322923183179480544e+00,-1.317008174885721727e-03,-5.330557644622409968e-02,1.527396562753490297e-02,2.210745811462402344e+00
-7.356316865915212277e-01,-1.097678267021568121e+00,1.224760125205969219e+00,-1.262611768694007763e-01,2.301339570242237967e-02,1.251826448793376921e-02,2.175741672515869141e+00
-3.474382778576852737e-01,-1.088079186058529046e+00,1.286965828186153571e+00,-4.203813654332081567e-02,-4.715601820906965835e-02,1.279619273136323176e-02,2.107794046401977539e+00
-1.184657058215870640e+00,-4.776935982073197695e-01,1.614975865500273278e+00,2.250453067739066615e-01,-3.676789250070116449e-02,-1.269390146527303587e-01,2.561803340911865234e+00
-1.048935055341088329e+00,-3.472186203002943783e-01,1.234188028752559951e+00,1.269673392471173667e-01,-5.412529501586336306e-02,-9.293671698116233448e-02,2.045975208282470703e+00
-1.064174345382405296e+00,-4.021303850679025516e-01,1.110136432047436283e+00,1.004899916963763046e-01,2.439479876912911682e-02,7.352220700020342670e-02,1.942868232727050781e+00
-1.040151374496717906e+00,-2.504905056465495661e-01,1.084374396075238112e+00,1.366361212994745278e-01,4.565156840031094065e-03,-2.811766582018889599e-02,1.875622987747192383e+00
-9.515284872785274572e-01,-3.105916428601230295e-01,1.235890075060686932e+00,2.319842171618652360e-01,-1.401477715565193904e-01,-1.823817568814460055e-01,2.028242111206054688e+00
-1.190434630493544255e+00,-4.036495527504456726e-01,1.120538456887973933e+00,4.386028316738417587e-02,6.376679013934330453e-02,1.065013196860635503e-01,2.047775745391845703e+00
-1.183463675954778971e+00,-1.968781938040125024e-01,1.644132478630162986e+00,7.519732169429536872e-02,-6.059571737679100151e-02,-1.431329736998684932e-01,2.503682613372802734e+00
-1.434933438910072079e+00,-1.962414421138352072e-01,1.406794748545054707e+00,1.682043157701169911e-01,3.647520936744304970e-02,1.196880544831011028e-01,2.494312763214111328e+00
-8.531853205480550706e-01,-8.072460503582832292e-01,7.111883157029743607e-01,-8.427416285709695559e-03,-5.614968754015642327e-02,-1.849850281314767697e-01,1.577922344207763672e+00
-8.484845175931127192e-01,-8.227367978242062785e-01,7.578035634921418406e-01,-9.319913550525818491e-03,-4.849220135890638245e-02,-2.162106445602804128e-01,1.639213919639587402e+00
-8.033761065173321558e-01,-8.204270245981314380e-01,6.990550913101283292e-01,-3.594588603439523994e-02,-4.421118415579939481e-02,-1.930644498401065667e-01,1.550732016563415527e+00
-7.935178218187683985e-01,-8.000746267126439548e-01,6.779181375700044088e-01,1.424538718940490667e-02,2.661005087146170803e-02,-7.039471242898097392e-02,1.480680227279663086e+00
-7.997140358088036249e-01,-7.922708229256956169e-01,5.565850782325881818e-01,-9.332873469025303181e-03,4.965348880553734773e-02,-1.338310748713963660e-01,1.375099062919616699e+00
-8.280337852721360026e-01,-7.737660952995606412e-01,6.537494535276079377e-01,-2.722913889668192311e-02,3.125514762017869708e-02,-1.931653298319142009e-01,1.495094299316406250e+00
-8.476165294490412006e-01,-8.584093898369865583e-01,1.067425465317870081e+00,-2.229893160886179532e-03,-1.942134067929266687e-03,8.923643883088071618e-03,1.920530200004577637e+00
-8.541949590164648054e-01,-6.705233068610789715e-01,1.075915225930373254e+00,9.959505984281949442e-02,1.216118529674925335e-02,3.873444151010884545e-03,1.853321433067321777e+00
-7.165338890816441708e-01,-7.911084181113436919e-01,9.963429149378419947e-01,1.366656314652486479e-02,1.392029215140619652e-03,-8.837057327538196810e-03,1.751583814620971680e+00
-7.357271569082640683e-01,-7.366593099735735395e-01,1.010871984302182724e+00,5.894621080928722640e-02,1.938049538350346615e-02,7.484405474099749440e-03,1.750416040420532227e+00
-8.576364740606478021e-01,-8.097950664174676794e-01,1.056510689456440666e+00,-4.065590193440015744e-03,-1.553593949254877468e-02,-1.033525534776006012e-02,1.890969753265380859e+00
-7.382593309284471994e-01,-7.094356467859723736e-01,1.001268863574816814e+00,1.284254607165164763e-01,-1.079455561154519898e-02,-7.312231557276499885e-03,1.739723801612854004e+00
-7.847321439872170235e-01,-8.099278605362865147e-01,1.114410419473869984e+00,1.496229964623031206e-01,-1.111010504941934915e-02,-2.511741452424893009e-02,1.929935693740844727e+00
-7.572122154211128331e-01,-6.660669008140707170e-01,9.999341772937027084e-01,1.240462439881176854e-01,2.679263008060814039e-03,2.717720644377990928e-03,1.726824045181274414e+00
-7.379124800297852671e-01,-6.737029019650179196e-01,9.881405322090177634e-01,1.257389641819957327e-01,-8.432144329010791625e-03,-1.195453162601712964e-02,1.708983778953552246e+00
-7.733639358409003517e-01,-1.007536040152843038e+00,1.088216860868322700e+00,2.196896995176091938e-01,6.224277890947545883e-02,6.254408647357045936e-02,2.030861377716064453e+00
-7.422677743197422240e-01,-8.219116096025894658e-01,1.021823972816351178e+00,8.398254827847898007e-02,3.932197058933915162e-02,3.143681243592720553e-02,1.813180804252624512e+00
-8.236888832639388536e-01,-7.384877039362008899e-01,9.647777785974445131e-01,1.527431662666994816e-01,-2.973227034053791545e-02,1.582566367032150687e-02,1.768300771713256836e+00
-7.199236365513552727e-01,-8.631643268225309695e-01,9.211044543745103841e-01,-5.102529296991820638e-03,-1.808450492159725462e-02,-1.141068906444827648e-02,1.717557311058044434e+00
-8.842165836229977094e-01,-8.255869565025230061e-01,1.107915245148658467e+00,8.473702313918443640e-02,4.881507347953774334e-02,3.799709895436218648e-02,1.971864581108093262e+00
-7.929583425944788377e-01,-6.542821904529306787e-01,1.005909066047461442e+00,1.201103415077129921e-01,8.598969476610632615e-03,3.316707207826141614e-03,1.746204257011413574e+00
-9.517065511994461380e-01,-5.176491696148902699e-01,1.101788322136769471e+00,2.670829065969868577e-01,-1.289476944019747259e-02,-6.489419460609618939e-02,1.934178113937377930e+00
-7.806496205244717324e-01,-6.399368112559185029e-01,1.060190110184698220e+00,1.150290744089100953e-01,-1.315727937198698551e-02,5.224120151773086612e-02,1.788257002830505371e+00
-8.327931075403371963e-01,-6.341959057184658466e-01,1.058020800814519324e+00,1.317802001971372095e-01,3.468933422135268146e-02,2.499653630262540366e-02,1.815679073333740234e+00
-7.778372739633353516e-01,-6.641704273924410318e-01,1.020453809810942358e+00,1.057105904300569138e-01,-2.517425280850597163e-02,-3.323614614877045455e-03,1.754372715950012207e+00
-9.071950256207816921e-01,-5.611368209277284302e-01,1.063354203858665636e+00,1.619150193583481223e-01,2.038824039547342329e-02,-4.010500951000766159e-03,1.844136834144592285e+00
-8.865483757052681213e-01,-5.886309746053386416e-01,1.018620342526570965e+00,1.580119455760686520e-01,1.088987956566789608e-02,5.707150100065240539e-02,1.798852443695068359e+00
-1.082659212783308345e+00,-3.714287052798715960e-01,1.132232547455868099e+00,2.356765959338699701e-01,2.516087729274560023e-02,-3.322354626467869353e-04,2.001206159591674805e+00
-9.447008119128308401e-01,-6.705262533030855732e-01,1.117825365063889187e+00,5.320033301545961518e-02,-2.586937213829509224e-02,-3.247383097746543712e-02,1.943542122840881348e+00
-1.100999159875752698e+00,-4.006161078940142506e-01,1.203055590650618845e+00,7.038055719229760476e-02,-3.368892242246564889e-02,7.730630740619449937e-02,2.054672241210937500e+00
-1.081060125426447582e+00,-4.466605374712341314e-01,1.141563447728892289e+00,2.111858615889458946e-01,2.458252241453387846e-03,9.741924932893650246e-03,2.016578435897827148e+00
-1.100093059164186649e+00,-6.362602685457493523e-01,1.134771378765037086e+00,1.475793884263826572e-01,-9.182908029768868663e-02,-6.841872584127320356e-02,2.068293094635009766e+00
-1.029808077158579138e+00,-6.672272246822990027e-01,1.067402279375172736e+00,1.038360427634083955e-01,6.038599391623375445e-02,1.304014459375871411e-02,1.952727079391479492e+00
-8.617541057079001199e-01,-8.601880770104541885e-01,1.043787072197531085e+00,2.922083807868704457e-03,7.840132209980664457e-03,-3.792197428218894995e-03,1.904825091361999512e+00
-1.080192779492485045e+00,-4.142206162038583050e-01,1.084811784830483683e+00,8.382401401616317027e-02,-7.263167515969017052e-02,-5.746920663283051206e-02,1.932807445526123047e+00
-8.370392371693835543e-01,-8.133346048006020457e-01,1.055985386533683457e+00,2.359712049048210553e-02,3.102601590444113364e-02,2.313988290605339948e-02,1.882922053337097168e+00
-7.045769012345618476e-01,-8.589440884621868388e-01,1.075809267041020423e+00,1.474848531530352502e-01,2.111471620785461065e-02,4.991655783360809950e-02,1.882154345512390137e+00
-8.844353896794523440e-01,-7.369741882242889508e-01,9.982469944418326246e-01,8.918612538879812368e-02,8.135645355512473309e-02,4.511180256367903346e-02,1.827139735221862793e+00
-7.888790542089361146e-01,-8.238235129720186123e-01,9.971673564369885057e-01,4.628866090877424566e-02,3.352859165640733469e-02,1.377669995760042419e-02,1.806644678115844727e+00
-7.575675673141901711e-01,-8.492352350872717226e-01,1.034426848743678962e+00,-2.988235094648165890e-02,2.974543357915310562e-02,3.960126396229812426e-03,1.841003894805908203e+00
-7.427243203637846625e-01,-9.035999186216749912e-01,1.079381072348143178e+00,-3.271575411305302494e-02,-4.562377630605315981e-02,1.958317262538619014e-02,1.910415530204772949e+00
-7.354548309854903598e-01,-8.853399456753846541e-01,1.029402604715699887e+00,-2.961591152883381525e-02,-4.065919002841000829e-02,8.212415608861014377e-03,1.846484899520874023e+00
-7.561139771514394647e-01,-8.816537214227372354e-01,1.069910247311708362e+00,-6.214337264208093931e-02,-3.283651136700518891e-02,2.973257738909200129e-02,1.896532535552978516e+00
-7.424528374643122319e-01,-8.906012915802828944e-01,1.051648448525785984e+00,-4.280985553019045486e-02,2.490857849102515870e-02,1.164118065537180294e-02,1.874648451805114746e+00
-7.259106452847443602e-01,-7.255522819617985508e-01,3.933967371047372152e-01,-3.436247617611911179e-03,-5.234230618845200911e-02,1.587327658775958272e-02,1.123146653175354004e+00
-7.798679804794970138e-01,-7.976486879349800052e-01,4.489474617251456579e-01,3.754950457253972140e-02,-7.941569359881817114e-02,3.588030138280244585e-02,1.248665452003479004e+00
-7.681736874023096240e-01,-7.759151419190671861e-01,6.102482613112104604e-01,-4.114925888284940575e-03,5.231097785667890646e-03,5.037291539232475329e-02,1.385107636451721191e+00
-7.386570965119176879e-01,-7.530279513423659976e-01,4.860239517780896579e-01,-6.509176609937622308e-03,2.002000843649249032e-02,6.914421352440046353e-02,1.238273859024047852e+00
-7.559609836907509317e-01,-7.315320519681680622e-01,2.829099648425703606e-01,-1.798152339770043087e-02,-1.526775499325147001e-01,2.762257345940456570e-03,1.060846447944641113e+00
-7.786755740922945979e-01,-7.514545861235020219e-01,3.181138834298258278e-01,8.640998994457676358e-03,-7.257773473529087471e-02,-1.649839674706925774e-01,1.127616167068481445e+00
-8.276506650613661975e-01,-7.328570272625830606e-01,3.085875617804142435e-01,2.181410121697685209e-02,-7.162535968450424451e-02,-1.375043519360498803e-02,1.099863767623901367e+00
-7.543733236997570701e-01,-7.663804830430986925e-01,4.731532150780445312e-01,-2.987995768377383135e-02,-4.388814013009216530e-02,1.646988863563788805e-02,1.237325906753540039e+00
-7.437919042830554162e-01,-7.764375630549433804e-01,4.772683101343717649e-01,-1.602681573571057561e-02,7.071157156528026441e-03,2.667899977714461961e-03,1.238086462020874023e+00
-7.477320706268484329e-01,-7.528134706321389924e-01,5.289457503416763462e-01,-2.042532504274635619e-03,-1.994953435227866251e-02,8.281028015874984660e-03,1.279777884483337402e+00
-8.788218784832153574e-01,-8.932356117813695651e-01,1.395991182104664441e-01,2.496515155978399347e-01,1.351276134854836608e-01,-1.604883470933548412e-02,1.137803673744201660e+00
-7.943119910647695736e-01,-8.603199591779638888e-01,6.576553096439787804e-01,3.443556299387715968e-03,2.857921141067687812e-02,3.632882013389380355e-02,1.488238096237182617e+00
-7.946383766655340519e-01,-7.867907297427585434e-01,6.341286865732029820e-01,2.475000876328252030e-04,7.833564361521229424e-02,-6.335540648180153223e-02,1.435505390167236328e+00
-7.965712861738474260e-01,-8.600002420529528901e-01,5.671599322433293899e-01,-1.014989197438793955e-01,8.123095373899376359e-02,-6.962579415030574481e-02,1.419693946838378906e+00
-7.691449071526192949e-01,-7.783305339505721676e-01,5.745228499570759206e-01,-1.959142749250137932e-04,7.409633322703108871e-02,4.341910102412366995e-02,1.356464624404907227e+00
-7.597408369639375714e-01,-7.625637680364787396e-01,5.573491310096366780e-01,-1.401585878474083391e-02,9.401709223288225170e-02,-4.235179589765662896e-03,1.328763604164123535e+00
-8.624611840243697758e-01,-8.650938792101481312e-01,1.034183905007753035e+00,-9.255887542281347399e-03,-2.128487724171713568e-03,-3.122926042391219268e-03,1.898041844367980957e+00
-8.527138328530090572e-01,-8.388994340693799456e-01,1.022862807051590828e+00,4.085871989290341955e-03,5.353030281352583533e-03,7.326360280505061530e-03,1.868787169456481934e+00
-8.666228741520990431e-01,-8.505340145260770202e-01,1.054253912802727289e+00,8.772883893497729563e-04,-1.415388254363618079e-02,-2.231131374150640070e-03,1.913044691085815430e+00
-1.297651903257709627e+00,-4.233150808806664389e-01,1.408944833550337172e+00,-4.195399207183898582e-01,2.436140242174034409e-01,-1.022431972394545301e-02,2.535754680633544922e+00
-1.118616204965026562e+00,-4.940854327709472416e-01,1.292169380637000486e+00,-1.548483116773017587e-01,7.362024686859686530e-04,-1.730792218822772843e-02,2.183838367462158203e+00
-8.544024212271134067e-01,-8.478307897690210426e-01,9.391772719496416233e-01,2.019366115514576940e-02,1.427772720926926732e-02,2.703355481174230662e-02,1.791427373886108398e+00
-9.336743530740559960e-01,-5.138554224497779988e-01,1.094072954376584805e+00,-1.479500687885514365e-01,-3.805486222329503010e-02,6.070709069985278511e-02,1.875576853752136230e+00
-8.441605584498935722e-01,-5.465113054853527608e-01,1.051982453563242714e+00,-2.022837631117135881e-01,-1.979415228248819492e-02,8.345314240250655685e-03,1.801029801368713379e+00
-9.547172954834117764e-01,-5.491451027082546732e-01,1.090662547306822550e+00,-1.597306407433652931e-01,-3.263546151126903855e-02,4.415830971884293632e-02,1.898448109626770020e+00
-8.640291126707491109e-01,-5.454053204655520126e-01,1.081296836803213868e+00,-1.857290598379531532e-01,-2.345999455599614633e-02,3.466231544314882923e-02,1.837043404579162598e+00
-8.237951791924802425e-01,-3.922884451617169033e-01,1.140050097654532246e+00,-3.777772613804368240e-01,8.036548423192722834e-02,-8.037668586963513107e-02,1.913734078407287598e+00
-9.606736256213168623e-01,-6.310309732221912604e-01,1.249969058199974281e+00,-2.980568665509774617e-01,-1.010997531330446071e-02,9.861058505776384986e-03,2.129317998886108398e+00
-8.650545210998058510e-01,-8.585719921147487721e-01,1.014048116480881667e+00,8.760389285748241411e-03,-4.240990159215665863e-03,-6.828865545960433915e-03,1.875982761383056641e+00
-5.984829772653688096e-01,-9.518838714932904566e-01,1.083023293688729405e+00,-1.106386586947821354e-01,-5.595552088656383614e-03,1.027019033810756474e-02,1.893075346946716309e+00
-6.237121830145933021e-01,-9.157595403383386179e-01,1.129675686962541059e+00,-2.133078228013911004e-01,-3.397001497289602046e-02,-1.747893446075252794e-02,1.952591061592102051e+00
-8.566076863002668462e-01,-8.544717766741691811e-01,1.007572937520227807e+00,5.686382459046583106e-03,1.426277713494429958e-02,-4.739725800193792492e-03,1.863321423530578613e+00
-6.946422651751428257e-01,-8.530488085929077702e-01,1.028255097358285797e+00,1.096949614684798041e-01,-1.906846601892972504e-02,-2.749442255265777124e-02,1.818197965621948242e+00
-8.586663741743664202e-01,-8.345195564540378586e-01,1.026117239265929237e+00,1.041734484414599121e-02,-2.369917267369412578e-02,-2.753256908958661917e-02,1.873970508575439453e+00
-8.627952492231143466e-01,-8.574510285528469389e-01,1.015304253551728042e+00,-8.932420520913744375e-03,-4.892257012259570645e-03,-1.224111946646145276e-02,1.875635862350463867e+00
-8.124238311913654087e-01,-8.478323674860617221e-01,1.045241626834290782e+00,1.147107135492952436e-02,-2.130540227534174352e-02,-1.968184274483810239e-02,1.876398324966430664e+00
-8.327465295890487118e-01,-8.593132098773933469e-01,1.041613872934186391e+00,1.811528236259409008e-02,8.577204509791297449e-03,6.840851035690773477e-03,1.888140320777893066e+00
-8.531062562601833266e-01,-8.549540272317969203e-01,1.063936892310792581e+00,3.130908281159316270e-03,4.416120648998279538e-03,-3.446412024167130796e-03,1.917999863624572754e+00
-8.486803785875308703e-01,-8.510982975179117727e-01,1.039156038707943930e+00,1.502153010991945630e-03,5.254791931690034994e-03,-1.445060417129737616e-02,1.889236092567443848e+00
-7.518700635199841997e-01,-8.325508795113247817e-01,6.703453771100817971e-01,-3.375489524842879840e-02,-1.190745539156441296e-01,-4.097331310169924357e-02,1.481533885002136230e+00
-7.784691164377962602e-01,-8.789639519211031038e-01,1.050938209118278843e+00,3.517241566618558440e-03,-1.520259400671394520e-02,1.586024763147332248e-02,1.882063031196594238e+00
-8.655645133448159889e-01,-8.547852275553197154e-01,8.705126990410043675e-01,-1.171421218894492557e-03,-6.887723285512890870e-02,5.271324364709485677e-03,1.734844803810119629e+00
-7.814195951689497655e-01,-7.915860140967341252e-01,6.284112730988259399e-01,5.313168884838993800e-02,-3.197549939602521013e-02,-3.980068052209356083e-02,1.420685648918151855e+00
-8.585210867925876510e-01,-8.604257102346257735e-01,1.022633990761198097e+00,6.817219807369457978e-03,9.924843487745171541e-03,-1.453660322658878110e-02,1.882392048835754395e+00
-7.197652194114890767e-01,-9.602694451552939992e-01,7.058631222772215885e-01,-2.787060124347507176e-02,-1.036446785390484349e-01,-3.031252266429997327e-03,1.570895433425903320e+00
-8.151010801343038237e-01,-8.231184461088121296e-01,7.507238279963692751e-01,4.242807636635437425e-03,-6.698952482027682731e-02,-2.218263931485446941e-02,1.574617028236389160e+00
-8.406027002006571935e-01,-8.919842745470949463e-01,9.907362596688813472e-01,6.301475595064285999e-03,3.997998749328132533e-03,2.093963324113654219e-03,1.857611298561096191e+00
-8.505731920722801043e-01,-8.534202363816638659e-01,1.051661011530521384e+00,-7.878580030394852262e-04,-2.091352509280100871e-02,8.963039896740260942e-03,1.904067754745483398e+00
-8.846540298596676788e-01,-7.552894688662820100e-01,1.083193657257732978e+00,-9.531314233006890624e-02,4.822903054644810117e-02,-3.592893913048280513e-02,1.916427493095397949e+00
-6.442348101806538718e-01,-9.004486636801398713e-01,1.036678238473187852e+00,-1.162494765699756960e-01,2.738286913629149263e-02,-5.298428198916252385e-03,1.834301710128784180e+00
-5.796894394975753428e-01,-8.775015005013245828e-01,1.019344348553706814e+00,-1.093739358088499647e-01,-2.399808909872973208e-03,-1.294076515128077687e-03,1.776998281478881836e+00
-7.676959036067165787e-01,-8.567662315037665177e-01,1.282298930159601946e+00,-3.218459951821809328e-01,-1.551626556669950807e-02,1.283926855998451105e-02,2.169095993041992188e+00
-8.925228669373107548e-01,-7.857789881548846722e-01,1.032481044572852058e+00,8.330131672774852489e-03,2.229519492467143681e-04,-1.276326235514349712e-02,1.874099493026733398e+00
-6.825093394294424742e-01,-8.590737908311876225e-01,1.027067700241998782e+00,-7.318270767877918526e-02,-1.018120288746049082e-02,-1.120972190863336014e-02,1.808987140655517578e+00
-6.849975153911426196e-01,-8.989453022971960472e-01,1.082210347033625952e+00,-1.937697537290681282e-01,-5.317831478360873082e-02,2.549134981812623685e-02,1.915714144706726074e+00
-6.871723190956430249e-01,-8.136717544309036709e-01,1.025663611142517473e+00,-1.599691049113051711e-01,-1.819908669715235988e-02,2.484106429031704422e-02,1.801692843437194824e+00
-7.536285356935490398e-01,-7.372179040080343304e-01,9.926223186732250348e-01,-1.939076325996055492e-02,-3.559713717812359405e-03,2.141606104898193755e-03,1.738443017005920410e+00
-7.317633845502757861e-01,-7.232927666583501836e-01,4.531761164925948160e-01,1.596233065459121050e-03,-3.277239276675106370e-03,9.574402656827087381e-04,1.180745005607604980e+00
-4.687869046660926853e-01,-1.110809147223297932e+00,1.237569366778576541e+00,6.615871209039283878e-03,4.761164243209958812e-04,-1.327588764400896258e-02,2.102385282516479492e+00
-2.896944358120683294e-01,-1.313865873208898805e+00,1.516095834910812901e+00,2.164570912243374279e-02,2.459903647473880503e-02,1.336375201973356297e-01,2.493199110031127930e+00
-3.789058211827522338e-01,-1.057104810429462027e+00,1.613513516581966956e+00,-2.178458869891219951e-01,-2.237179675151953692e-02,-3.933209335082730324e-02,2.435047864913940430e+00
-7.211801308598293769e-02,-1.059365089430185591e+00,1.099746590198118046e+00,-1.956818031166490321e-02,-7.252904426902778701e-02,-7.852328735855080427e-03,1.876688122749328613e+00
-2.510112786565527054e-01,-1.051975253311860925e+00,1.106154703916333526e+00,-2.638915857118923625e-01,3.641286275831368685e-03,1.338373656229316540e-02,1.944216370582580566e+00
-8.643906715402761565e-01,-7.968338774480789866e-01,1.029448484537638597e+00,4.188565208145056742e-03,-1.326421469284314557e-02,-1.556989289226977553e-02,1.861331939697265625e+00
-4.858018669174304360e-01,-1.079991678800882760e+00,1.131639681010588872e+00,8.054231024969905894e-02,-1.902229779364022696e-02,-1.302114783366549629e-02,1.987788081169128418e+00
-2.798311194585523243e-01,-1.089407533556588259e+00,1.019912880097294527e+00,1.945997728358315748e-01,7.400127639098308396e-02,-3.121764762553978778e-02,1.878816127777099609e+00
-2.999244231009242645e-01,-1.154070195399883092e+00,1.029566048109179288e+00,-2.223777245354274790e-02,-6.944593313288979775e-02,1.281258349131927099e-01,1.922989606857299805e+00
-5.089416299989925063e-01,-1.073267342863027940e+00,1.120934429618928752e+00,-1.800139437803676204e-02,2.792706902518601875e-02,2.817888401921789590e-02,1.974951744079589844e+00
-1.881602685820982501e-01,-1.105465597461957383e+00,1.149879333598205156e+00,-1.096619922059933472e-01,2.510122664829550487e-01,2.723801398111617977e-02,2.021512985229492188e+00
-2.950305018488567632e-01,-1.222456820627537910e+00,1.388487347444412157e+00,1.702458229812404134e-01,1.313034368690922937e-01,-3.186153753108118131e-02,2.323232412338256836e+00
-8.274945688563056789e-01,-8.615568029859659305e-01,9.870766868739173638e-01,-1.319793111935279066e-03,-1.453434598192767345e-02,-4.627582868376627426e-03,1.832031846046447754e+00
-7.269896756621949674e-01,-9.219874023630733051e-01,9.781798592948010018e-01,-1.675137381309059481e-02,-2.327865261841701242e-02,1.950614070868379388e-02,1.811557412147521973e+00
-8.340597410677682566e-01,-8.523358533249335567e-01,9.847442359645113275e-01,2.457185654723068589e-04,-1.037939128322118952e-02,-6.487914087003140810e-03,1.828133583068847656e+00
-8.243157081433712952e-01,-7.963254907151793294e-01,9.160889850740354667e-01,1.057133791463229083e-01,-9.129918117282051493e-02,-5.145507594699928050e-02,1.745724201202392578e+00
-8.624744445293491824e-01,-8.040841542803439657e-01,1.035588420111842156e+00,1.383066135445605235e-02,3.049914115942755841e-02,1.607321090925650439e-02,1.870658516883850098e+00
-8.405509679927778421e-01,-8.498212966542388891e-01,1.028738381072928476e+00,7.647054029195385176e-03,-2.204577643464563155e-02,-1.055340174172053440e-02,1.874466657638549805e+00
-7.870897982329344567e-01,-7.485317786759325687e-01,1.029231907068158591e+00,9.370635235048252465e-02,1.296949393459849789e-02,3.034215694100506067e-02,1.805570960044860840e+00
-8.384046141341963132e-01,-7.614057466091332937e-01,1.020189558271043850e+00,6.678056721227060288e-02,2.514920033025272797e-02,3.036076364012627732e-02,1.826262116432189941e+00
-8.435263879522202357e-01,-8.574093251210858080e-01,1.065987770747901742e+00,5.415140513696074798e-02,2.566440627377987102e-02,-1.561833424503570808e-02,1.919492602348327637e+00
-8.282737867174519986e-01,-7.425308780072725767e-01,9.988109272005789574e-01,7.832854815001563664e-02,1.916461617807762099e-02,2.559275953629378680e-02,1.791759967803955078e+00
-7.998947610488987836e-01,-8.567720159604964580e-01,1.045048111711851746e+00,3.354311873400078747e-02,-5.230170997866811881e-03,1.515181833790512841e-02,1.875134825706481934e+00
-8.538504175637607885e-01,-8.683392786166627131e-01,1.022871006088635903e+00,-2.945489611509835744e-03,-2.465478996911918581e-03,3.821362749404749650e-03,1.884031057357788086e+00
-8.525408586573721692e-01,-8.575882155180345467e-01,1.017588541378393607e+00,-1.472328849680085855e-04,-1.040113794092465370e-02,2.891832538733298962e-04,1.872744917869567871e+00
-8.691104804876161882e-01,-8.575279361439333004e-01,1.017102730805601096e+00,-3.552767961006210885e-03,9.120280027683303273e-03,-6.793786494043402117e-03,1.880561947822570801e+00
-8.631066668803750730e-01,-8.744248129145114623e-01,9.773402420524415213e-01,-1.146577671965964612e-03,5.492020942805603788e-03,-1.183063132858671630e-02,1.846271276473999023e+00
-7.903112501667188816e-01,-8.735837969797037861e-01,1.028821307058582990e+00,1.948292664571995539e-04,-3.570285989440515756e-02,8.097346529653695960e-03,1.863245129585266113e+00
-8.174287243554401172e-01,-8.609309934734672431e-01,9.417228048199783874e-01,2.675906371170643297e-03,3.224512520928992515e-02,-1.030789493823383411e-02,1.782271862030029297e+00
-8.196029432680262961e-01,-8.663043285339458999e-01,6.540530469261452984e-01,-4.001902535618827306e-02,1.766029002904735412e-01,-1.940079320887320297e-02,1.530413150787353516e+00
-7.610033558209756688e-01,-7.491236905607896457e-01,4.334040892904337250e-01,2.006523545831143465e-02,1.470544215365152119e-01,-1.489397793489317112e-01,1.243057966232299805e+00
-8.568051266118589249e-01,-8.593701985185918657e-01,1.004218227706638711e+00,1.009393072510311393e-02,-5.864588180458139323e-03,-9.981931191758856500e-03,1.862497210502624512e+00
-8.766843875383127926e-01,-7.326567215849257853e-01,1.041554803177048294e+00,-1.841223148250493644e-02,2.107872484342228001e-02,-3.075151293820735723e-02,1.851835012435913086e+00
-8.708144980989415140e-01,-8.958268770335506836e-01,6.418309525808931770e-01,-2.795619148919140790e-02,1.057773167585847607e-01,1.281478017945046795e-02,1.537192463874816895e+00
-6.485901869521183416e-01,-1.319168064776574445e+00,2.354266017483419571e-01,-7.137267976066884179e-02,-4.696466438590622683e-02,1.571450834281199610e-02,1.358897566795349121e+00
-7.632505304527108514e-01,-7.989736985052702245e-01,4.531427927578014492e-01,-3.125701094028234678e-03,1.539566410831050003e-01,-1.229922474213191452e-01,1.280960917472839355e+00
-8.271845578516859865e-01,-7.896136516661639293e-01,6.041859111752518885e-01,1.978364837674884136e-02,2.029002321118710817e-01,-2.123892789524408839e-02,1.456876158714294434e+00
-8.492229006726842444e-01,-7.801960815984195774e-01,4.722162036457249190e-01,-6.435077413306771604e-03,1.119510433411478600e-01,-1.282811689382745424e-01,1.321681857109069824e+00
-6.942929756401852170e-01,-7.881958001753127663e-01,2.742758325312808498e-01,-1.412265669951977103e-02,5.843955473681779894e-02,1.068900742358243477e-01,1.040680050849914551e+00
-7.081448389043019098e-01,-7.624735914461471253e-01,2.962354812709815377e-01,5.329923657752421405e-03,7.705758134238062385e-02,-1.328467373452150713e-01,1.066368460655212402e+00
-6.266864997942608317e-01,-9.168591628639859437e-01,9.610417269922801875e-01,5.682565574908335360e-02,1.354361454635615893e-02,-2.184189816950491900e-02,1.754270553588867188e+00
-8.464885897991624164e-01,-8.981155924810982905e-01,1.005494645839750456e+00,-5.823971089436271592e-03,9.198345660838531945e-02,9.721482829505920589e-03,1.885175824165344238e+00
-8.492823882722632112e-01,-8.986776694823420675e-01,9.037988663524252342e-01,7.075657430326569297e-02,1.111276587025416263e-01,-1.243406640893891940e-01,1.805762171745300293e+00
-8.441231517607147294e-01,-8.709940877836040984e-01,1.065861243132252278e+00,8.904680662252804565e-03,-1.578481746707326508e-02,-2.611421761584650086e-02,1.924348354339599609e+00
-9.075401167159876659e-01,-8.401449365479489728e-01,1.040924777119990763e+00,2.512681960464979020e-02,-2.834392729547506595e-02,2.980904841218956405e-03,1.916786670684814453e+00
-8.156574506688573090e-01,-8.920083988342253356e-01,1.068255978492647085e+00,8.304146707055974630e-03,2.579452281581208484e-02,9.514708834198646117e-03,1.923869132995605469e+00
-9.155595978879743635e-01,-8.621775963857657432e-01,1.068445188264720791e+00,-2.334679835569725137e-02,4.779256834524130203e-04,2.254333188302058005e-02,1.958666682243347168e+00
-7.992056218546083057e-01,-8.156024440553398813e-01,9.364058717509204932e-01,-6.581238288450161344e-02,2.029076795018171925e-02,-4.486813745816242011e-02,1.749669432640075684e+00
-8.419343515793958899e-01,-8.448683674972417013e-01,8.973247240339026209e-01,1.564527448462503523e-02,-2.774629632124421194e-02,1.300739092162167196e-02,1.741747736930847168e+00
-8.525583394893350153e-01,-8.955542248853399778e-01,7.712589075504727720e-01,-1.011895693796479312e-01,-1.383466067360497875e-01,1.951265410330494665e-01,1.706109285354614258e+00
-7.836428353601667673e-01,-8.055430667128521405e-01,6.759311527527334107e-01,1.692476481695394386e-02,5.957640288705957736e-03,1.343884583876167604e-02,1.471158862113952637e+00
-7.904564771649247312e-01,-7.825883230191845730e-01,6.647082356749437482e-01,-2.209026223273749968e-03,1.419797232894543307e-02,3.906808443495658062e-02,1.453036546707153320e+00
-8.169146224877293916e-01,-9.151159820684472423e-01,8.564868038283017793e-01,-3.993937286727534952e-02,-1.856263214112088833e-02,7.122761810646192904e-02,1.730689287185668945e+00
-8.910238859592088945e-01,-7.864880676956572669e-01,1.069434088214574308e+00,3.385667328688178601e-02,-1.197658911235093340e-02,-4.060675206009260740e-02,1.912642359733581543e+00
-7.637758869421324981e-01,-9.444646382101143933e-01,1.031603637651894445e+00,7.789472878690121074e-03,-4.438674839119566978e-02,-2.148989217466083096e-02,1.894180297851562500e+00
-8.248061888789343099e-01,-9.063190126988779349e-01,1.049507670113757785e+00,-1.240248636811162701e-02,4.218440039021165155e-02,1.394483797811045013e-02,1.918035626411437988e+00
-8.362471044057201430e-01,-9.133048710166394857e-01,1.066633719470788444e+00,7.067145895487129265e-03,3.944876153004399366e-02,-6.336896227895924202e-03,1.943827152252197266e+00
-8.606906171894536106e-01,-8.373538634800401503e-01,8.956237834920246499e-01,-1.267289786051891548e-03,5.719659857320962687e-02,5.021545877321471896e-02,1.749737739562988281e+00
-8.262458951345221791e-01,-8.629640233807737149e-01,9.664777520675789102e-01,1.276991241633482210e-03,3.166749798862206200e-02,-2.622428031216650357e-03,1.812199115753173828e+00
-8.444827913130587005e-01,-8.318267175377709322e-01,1.041238103086166378e+00,-6.540014242214141349e-02,3.240988523594284104e-02,3.621702399103339520e-02,1.884716272354125977e+00
-8.426345562163319869e-01,-8.615396567539383987e-01,1.056436473562220257e+00,-1.159511491847968825e-03,-1.466014361686392327e-02,5.487821030991759871e-03,1.908787369728088379e+00
-8.560718566989991007e-01,-8.383507455161924860e-01,9.684361990528682629e-01,3.069347520821577753e-03,1.760009323915191076e-02,-2.342282589369980988e-02,1.816429138183593750e+00
-4.216166709879058394e-01,-1.288811149353956464e+00,1.784207798203507389e+00,-3.516308717194286393e-01,-4.638020682861151815e-03,3.445767873085249511e-02,2.811605691909790039e+00
-9.232630046362452214e-01,-7.758266973229759333e-01,1.100707173101654668e+00,1.548071255086845045e-02,-1.456365505141114965e-02,-4.048286728580583783e-03,1.954786539077758789e+00
-7.953352196468872481e-01,-7.387832914606751178e-01,1.014897560255163977e+00,-7.346815618020359484e-02,6.969937886116602671e-04,8.713575143706766418e-03,1.787229895591735840e+00
-8.224561316215849294e-01,-8.409274719107948659e-01,1.040528275664673208e+00,-2.461856378259551920e-02,-5.220110403980075982e-03,2.423950349181338594e-03,1.872800469398498535e+00
-7.853627850433446689e-01,-7.556620056851095502e-01,1.018003616329598238e+00,-6.788691499450197342e-02,-4.594357597790961131e-03,2.589210914805932387e-04,1.792579293251037598e+00
-7.859789893103762415e-01,-8.132441530090075421e-01,1.026523595163136404e+00,-6.378175407531552765e-02,-7.481080596780992006e-03,3.390586494834671449e-02,1.830614209175109863e+00
-8.620684106843633510e-01,-9.467653532007598294e-01,1.054296424225732887e+00,-3.737861476828648055e-03,5.357011949434601489e-02,-3.268808050544669969e-02,1.963108420372009277e+00
-8.163662942826727109e-01,-8.487757957281266696e-01,1.032865010179127241e+00,-1.335701604939043725e-02,-1.308007713344394932e-02,1.512162356437007221e-02,1.866111993789672852e+00
-7.839310146735491980e-01,-7.959792273978746335e-01,1.042946357184640904e+00,-1.132753016597980444e-01,-3.839259354963133614e-02,1.777783549613837309e-03,1.844603538513183594e+00
-8.170115221964563412e-01,-8.322115085184370598e-01,1.035328408443151549e+00,-1.666258344642567585e-02,-9.776255759075832760e-03,-3.809694125345262786e-04,1.860287547111511230e+00
-7.948679962266513854e-01,-8.669126784812604125e-01,1.099383768769817582e+00,-9.408661871696968881e-02,-5.689329227568086511e-02,2.824005716969663071e-02,1.941265225410461426e+00
-9.130397298671066864e-01,-6.962713387214326533e-01,1.040423251384735126e+00,-8.654880904707673572e-03,-1.084406741780672215e-02,-4.075323429661308061e-02,1.856102705001831055e+00
-8.344894924478579723e-01,-6.186515642446930308e-01,9.747631871297259831e-01,-1.518482363515957501e-01,-2.400295523119068408e-02,4.965603225019660227e-02,1.734293818473815918e+00
-8.977730684360167857e-01,-6.713027226156775829e-01,8.070222171176868464e-01,7.402864092201688617e-02,-6.324619224848583576e-02,-6.411165736507645763e-02,1.616261720657348633e+00
-8.762065726390629861e-01,-7.047694927490157912e-01,8.089147672801009215e-01,9.763180804946200442e-02,-8.671897207281488440e-02,-4.796596739160502443e-02,1.624250888824462891e+00
-8.700321906262132865e-01,-7.303570360152742413e-01,1.027565462855947631e+00,2.378706566694853419e-02,-2.534529992712245342e-02,-1.542534559249128003e-02,1.832942247390747070e+00
-9.007786593243454210e-01,-7.600285305858255347e-01,9.889346049472589328e-01,-2.373502917560718368e-03,1.564270358952346909e-02,1.273608493107648539e-03,1.823624253273010254e+00
-8.324619188662102376e-01,-8.236416944155443565e-01,8.543207798093368499e-01,4.789042056366553217e-03,2.535753921059433549e-02,-5.477430616259572338e-02,1.685655474662780762e+00
-9.364139239323787667e-01,-9.281290128382629900e-01,8.247955967881970274e-01,-4.995144530491801155e-02,3.708359975988193002e-02,2.852933861841437310e-02,1.761076092720031738e+00
-8.554404129399438839e-01,-8.648854838806098178e-01,1.007845410473497960e+00,7.676248727389274780e-03,-1.826929779308185398e-02,4.649605666335248494e-03,1.868358969688415527e+00
-9.096689326993835367e-01,-9.143285721627332219e-01,9.618553710924142575e-01,8.702821752684365697e-02,-4.692028771555660505e-02,3.621198426108471202e-02,1.882712364196777344e+00
-8.706044811065546396e-01,-8.804866706222672645e-01,9.053342377996986823e-01,6.461280911371079967e-03,-3.134645168495989870e-02,-2.591415704531916525e-02,1.782328248023986816e+00
-8.191656822676983696e-01,-8.468233027542630964e-01,1.055910758776609670e+00,2.501833871960129716e-03,-4.106879872735107184e-03,7.387384870522190235e-03,1.889118790626525879e+00
-7.915898015705222779e-01,-8.762282393400345759e-01,7.459669224952862887e-01,7.153871786844478997e-02,-8.385420193659341714e-02,-8.327310093471168573e-02,1.599572420120239258e+00
-8.232227875893800562e-01,-8.278774536557949038e-01,7.781243125792505211e-01,2.862727651268761817e-03,-1.094505587368506255e-01,-5.102464158354834585e-03,1.614877343177795410e+00
-5.861354746251772330e-01,-7.920663272667277655e-01,9.938879976147219075e-01,2.141293313883920191e-01,-1.555297936953255840e-03,-1.041012886114262362e-02,1.732669591903686523e+00
-6.917871360228966537e-01,-8.255260950444865964e-01,1.165956694022421969e+00,1.576097261267216387e-01,5.142704443503137018e-02,-4.347397311882299914e-02,1.950814604759216309e+00
-8.181434595306567026e-01,-9.655957724787058716e-01,1.119181169143805832e+00,1.382933162940471750e-01,7.953103928469047734e-02,-3.232333624434761965e-02,2.034727811813354492e+00
-7.326583632580355721e-01,-9.099029850079458637e-01,1.064649218852732337e+00,9.149820817566350906e-02,7.541438709372907988e-05,2.004516977782602391e-02,1.899108886718750000e+00
-8.437915421429829088e-01,-8.094879896892842597e-01,1.133388585294998974e+00,1.543125384816754486e-01,7.577824809291545949e-02,1.062972878800553939e-01,1.991269707679748535e+00
-6.935942414443553306e-01,-8.699306628436097588e-01,1.016767197554633073e+00,5.365313120248336315e-02,-4.509133359193370078e-02,-2.353346488713273232e-02,1.809537768363952637e+00
-7.429291018756488674e-01,-8.894762191590815936e-01,1.055720410132476195e+00,9.304378493648787773e-02,-3.537184388334014412e-02,-1.919374766617368971e-02,1.884418487548828125e+00
-8.625105065999963960e-01,-8.555416905198163224e-01,1.065230422238956143e+00,1.516922295992588704e-03,-1.711529062563943221e-03,1.833235118642502623e-03,1.924272656440734863e+00
-8.151822277992862853e-01,-8.570654417882931364e-01,1.042115717140312148e+00,3.488506900683763842e-03,-1.883205750740152978e-02,-2.039340583392687881e-02,1.879214644432067871e+00
-8.474452579551690068e-01,-8.668873376170016520e-01,9.924354728651429980e-01,-2.684742108414473957e-03,-8.795972939596003425e-04,-2.010034863434194755e-02,1.850012540817260742e+00
-8.688031639620233948e-01,-8.607807440256142195e-01,1.058689812626228743e+00,-4.228681265799983345e-03,-4.367899896660839935e-03,-1.031810481860410966e-02,1.923606157302856445e+00
-8.161938683051602750e-01,-8.531271542746836634e-01,1.041245409686392343e+00,4.002879344651728150e-03,-1.813579124194472647e-02,-2.242593964783677271e-02,1.876856327056884766e+00
-9.206218161655196353e-01,-5.677941493117679705e-01,1.108059314798878647e+00,1.665146180813232846e-01,-1.901796725334839639e-04,-4.065465431106832228e-02,1.900631308555603027e+00
-9.620656204436880410e-01,-6.378569754178891049e-01,1.271052734859233757e+00,3.138933885914410027e-01,1.571091224230066266e-02,1.460159071237993565e-02,2.159837961196899414e+00
-9.335520241473610481e-01,-7.855996320069340566e-01,1.079083447978615551e+00,2.542121749726198102e-02,-3.152263162636205485e-02,-4.392620457539656020e-02,1.945642709732055664e+00
-8.544996791933596736e-01,-5.672109131361898759e-01,1.067640903399452057e+00,2.359008463495669006e-01,2.296381246520644639e-02,7.257051269406589178e-02,1.846423268318176270e+00
-9.567504594225023640e-01,-5.213904982657500131e-01,1.070899769252866340e+00,1.049126324782831687e-01,7.481638512866724440e-03,5.648422516155402612e-02,1.860350847244262695e+00
-8.306933140565515572e-01,-8.378880519758318268e-01,1.056129005884965499e+00,-5.837280676430765163e-04,6.521064558564998968e-03,1.883383758123013995e-03,1.890466809272766113e+00
-8.387757556768797862e-01,-8.492352510688885303e-01,6.381254097255956159e-01,3.505968695994972351e-02,5.439270126854933718e-02,-7.713252091091739315e-02,1.492382526397705078e+00
-8.181698975573312715e-01,-8.374133043224540884e-01,1.053159975477407029e+00,-2.472020810356160767e-02,-1.589401028969539276e-03,-1.611127605842949118e-03,1.881516695022583008e+00
-7.787066231591607268e-01,-8.515447946195560114e-01,9.905483336366838198e-01,-8.732933764345279792e-02,-3.562901309646424042e-02,-3.442652820891711762e-02,1.815125584602355957e+00
-8.343741510070589174e-01,-7.909013060745626600e-01,1.053740751483012827e+00,-8.712920357504361224e-02,-9.080457144672300293e-03,4.636755979926272114e-02,1.874635338783264160e+00
-8.396182098471188793e-01,-8.560289344728289063e-01,1.061986935748649108e+00,-4.487605555201977688e-03,-7.415599988414074695e-03,-6.742719857722833179e-03,1.909958124160766602e+00
-9.306301640989140811e-01,-7.544329597115844166e-01,1.052362596154624352e+00,2.966575565968221362e-02,2.491384562302401129e-02,4.397521829789993730e-02,1.903736233711242676e+00
-8.823407840692167881e-01,-8.194757276345864261e-01,7.574849491620203601e-01,3.417039639886273322e-02,-1.290972442343412546e-02,4.571900678118477612e-02,1.612503051757812500e+00
-9.048971715886326983e-01,-8.919569547587672398e-01,7.868867390239770998e-01,-1.125005742535270525e-02,2.015040960897632183e-02,9.680600606033472333e-02,1.694142937660217285e+00
-8.275406621590940537e-01,-7.946315026359626055e-01,8.464812975476250223e-01,6.236242015505175616e-03,3.446371851342011367e-03,6.328276858411971406e-02,1.661477804183959961e+00
-9.448308354892763772e-01,-8.305181550072623375e-01,1.024122535156060776e+00,5.899980849532196307e-03,1.839317614377948204e-02,1.602075246042759804e-02,1.914851903915405273e+00
-9.799429923541467247e-01,-7.580034600367777653e-01,9.219588404952172578e-01,-3.427728323021198009e-02,-3.155534297928471593e-02,1.763617181552363800e-01,1.828716158866882324e+00
-8.638310748003787953e-01,-7.707453902006828894e-01,8.234178377788681225e-01,1.134352220161236914e-02,-7.895205308534087793e-03,3.650522661787242162e-02,1.644075989723205566e+00
-8.764877782840614362e-01,-8.806154376929846705e-01,8.485440098234073858e-01,-5.077714113752489905e-02,5.515034966173359282e-02,1.194021552248460266e-01,1.744277000427246094e+00
-8.303051006971492454e-01,-8.243752172808085366e-01,1.068157622912465410e+00,7.814133923382593494e-02,4.973583963013675224e-02,3.928597196415531401e-02,1.903498768806457520e+00
-8.736359712461518878e-01,-8.259211473003352788e-01,1.100209752599990765e+00,1.570820769486637458e-01,-4.328765926552493627e-03,-5.199185959564128767e-02,1.971383213996887207e+00
-8.528079521006696195e-01,-8.311569093199275837e-01,1.029141239606431002e+00,1.105330715178143020e-01,-4.603655083233771511e-02,-8.092345114314378196e-03,1.882727384567260742e+00
-7.911289938206135242e-01,-9.023839314028343495e-01,1.008091809470538891e+00,5.732518616051174298e-02,-6.387482628763607728e-02,3.304913578143872654e-02,1.864167571067810059e+00
-8.635004220276601972e-01,-8.210387942728006871e-01,1.068865720636918315e+00,8.260476364210392330e-02,9.443407680923764438e-03,-3.246713120073609071e-02,1.917730689048767090e+00
-8.207754457600312525e-01,-8.464978373112770349e-01,1.048193766507491853e+00,1.887359619730180973e-02,-2.235824253776987763e-02,-2.166410761389072834e-02,1.883018374443054199e+00
-8.785446642842552611e-01,-8.832190367109441498e-01,9.945969522661284312e-01,-7.697528789972402953e-03,1.215816392771801729e-01,-6.140366039978925605e-02,1.890310168266296387e+00
-8.371558027396694968e-01,-8.525496670584433723e-01,8.735734605287042154e-01,-1.605709806643437071e-02,-2.278663889159985093e-02,5.627774006461438994e-02,1.721917271614074707e+00
-6.762452178094754407e-01,-8.413404145394547395e-01,1.038510518431915886e+00,9.373811679262100682e-02,-4.760039427731055373e-02,-3.453779206917185346e-02,1.813140392303466797e+00
-8.292708789014673343e-01,-7.696943645590741401e-01,1.045678590517027828e+00,-4.813672904819418091e-02,-2.990124606210250308e-02,1.911940187895000420e-02,1.848786711692810059e+00
-6.242034544865306955e-01,-8.347530475669630023e-01,9.931376201886326083e-01,1.018716599182108856e-01,-3.983940274637739337e-02,-3.229509999036195289e-02,1.743467211723327637e+00
-7.477991931456838826e-01,-8.030719752806743106e-01,1.085661244893928457e+00,1.434133785296645147e-01,2.877102157865245487e-03,2.051424750761127180e-02,1.878553271293640137e+00
-6.449210442957400424e-01,-7.963970864805312022e-01,1.001188501945236453e+00,1.074422786385473838e-01,1.087283052987909372e-02,6.991440999629263721e-03,1.736980319023132324e+00
-8.172799770315667400e-01,-7.371565775403714493e-01,1.037837746251840221e+00,6.266115935884597477e-02,1.315904965733650893e-02,9.076846056288036257e-03,1.819832205772399902e+00
-7.395383588072897973e-01,-7.943311295558914686e-01,1.035319015015993216e+00,1.471645713021145774e-01,-1.974160754236793311e-02,-4.340609227951972883e-03,1.821144819259643555e+00
-7.135461724399991823e-01,-8.624836076784847538e-01,1.037032750084470045e+00,5.747259949919360927e-02,-1.859284349559315111e-02,-3.725881878945219716e-02,1.833724856376647949e+00
-7.115115227145447641e-01,-8.067736202208134477e-01,1.028949743740030343e+00,4.606982557072884787e-02,-2.670625075475902346e-02,1.025245318567724780e-02,1.792457103729248047e+00
-7.160363622210094148e-01,-8.763433590363020054e-01,9.798505680137743479e-01,-1.113141982706569999e-01,5.688112452525453944e-02,-5.837877200977788922e-02,1.797413825988769531e+00
-7.987518550997644295e-01,-9.212766090238957428e-01,1.038312477476922124e+00,8.180622736726039790e-03,-2.557941900413337327e-02,-1.687648064959940131e-03,1.901861190795898438e+00
-7.212306835788377946e-01,-7.454008533647786816e-01,7.770482133264489111e-02,-1.831984431515706196e-02,1.804659129123373229e-01,-1.299230145959473781e-01,8.986340761184692383e-01
-8.542100809697427133e-01,-8.700419803282117837e-01,1.022500098391509127e+00,-8.339992285428740604e-03,2.376883300009536779e-02,-1.187361519586808099e-02,1.885293126106262207e+00
-5.803358865860774873e-01,-8.905442876071797409e-01,1.108309405159147332e+00,1.554061568450484654e-01,-3.507860235342971644e-02,-1.932528484859956375e-02,1.883839011192321777e+00
-6.438054065467067044e-01,-8.594729127806491897e-01,1.073135983133157723e+00,1.199513729106516241e-01,4.609785413300061807e-02,2.710776166483628083e-02,1.848359584808349609e+00
-7.651829697232425120e-01,-7.875577909562214707e-01,1.038850431538531849e+00,7.617817204279013488e-02,-2.659372037166072081e-02,-1.639558770697294859e-02,1.820917248725891113e+00
-7.194414780974304202e-01,-7.298826876376621753e-01,9.986719073719909634e-01,1.706804639990723571e-01,-7.396532651920323213e-03,-1.703688536589523239e-02,1.748825907707214355e+00
-7.628390088198493402e-01,-8.007674318345259223e-01,1.090884016344950691e+00,1.387885510502678832e-01,-2.056760720711131238e-02,-2.039405393998192095e-02,1.889005064964294434e+00
-6.430177974006729968e-01,-8.650468592868092443e-01,1.071578512954253215e+00,1.043965773875480674e-01,-1.570318406629639743e-02,-1.762122113327139680e-02,1.845046043395996094e+00
-7.869353233285459881e-01,-8.733632185046577012e-01,1.030803774914013093e+00,2.065768045436944950e-02,3.080380258225321605e-02,2.603885144690792561e-03,1.863570690155029297e+00
-7.164260691771148215e-01,-8.547551899124834485e-01,9.692475885783069511e-01,-4.913129132178160885e-02,-1.372657614489716099e-02,2.416249738698800133e-03,1.761145353317260742e+00
-8.311298024642184146e-01,-8.746611547691655053e-01,1.035519109429761109e+00,-7.103183218960014075e-03,-4.166872729517005075e-02,1.586928981384934725e-02,1.890409111976623535e+00
-8.617366619537467631e-01,-8.742119114709511196e-01,1.031688559601101174e+00,4.106591914908609524e-03,8.092104527372709008e-03,-8.677625739857931439e-03,1.899818062782287598e+00
-7.366779821942335271e-01,-9.198913951281053603e-01,1.008239811528725660e+00,-7.305686162210924851e-03,-1.897008368802662048e-02,-1.177189205923493548e-02,1.843814849853515625e+00
-8.716996841150076447e-01,-8.630251034043653346e-01,1.031277968344349372e+00,-1.936075131274939696e-03,-5.133149891517837897e-03,-1.063418719239951670e-03,1.898679852485656738e+00
-8.631715919115457991e-01,-8.679681032342864144e-01,1.067391848621455974e+00,-1.699218463956360912e-03,-6.149151484181708018e-03,1.924078231100953204e-02,1.933284997940063477e+00
-8.266005037800592259e-01,-8.462827789529334677e-01,8.279528520901611177e-01,3.465531597362631576e-03,1.788520592189601910e-02,-3.684211687747830644e-02,1.666003346443176270e+00
-8.521636447022761240e-01,-8.372934374950247172e-01,9.262797408514527042e-01,5.569407847384360774e-03,3.255815992019895494e-02,-2.416983624990296994e-02,1.772473335266113281e+00
-8.285740784793094171e-01,-8.690565985351876854e-01,9.826575596441506910e-01,-4.912778363293834709e-03,1.485980745743931478e-02,6.196653498764592878e-03,1.832040429115295410e+00
-8.325730327909713901e-01,-8.484336151574209950e-01,9.718506151078709632e-01,2.877658038250629179e-03,2.214980853756869789e-02,2.129197146052023981e-03,1.812822580337524414e+00
-8.415803857847315994e-01,-8.833607971682821969e-01,1.052611561185512912e+00,-8.357936857501810715e-04,2.161140158575166476e-02,8.284843469873594962e-03,1.915843963623046875e+00
-7.031902035132306938e-01,-8.467110865367252215e-01,6.554628643172111246e-01,-3.306518525875223186e-02,-1.409489511856074351e-01,5.515726317397982165e-02,1.460663676261901855e+00
-8.014123725822858146e-01,-8.215351862410990025e-01,8.358913213988974356e-01,7.953862870991448147e-03,-7.629281887989847188e-02,-1.133146523927972514e-02,1.652922391891479492e+00
-8.219971615309825674e-01,-8.277136164749245850e-01,6.910857863842174709e-01,-1.985625744965034342e-02,-1.870432912190082286e-01,3.907023268409522132e-02,1.552037358283996582e+00
-8.540884227096803283e-01,-8.852478718599775531e-01,7.430695497764943092e-01,-1.026481661328898509e-01,-8.299744126974209490e-02,3.618046122533244164e-03,1.629099726676940918e+00
-8.111627056250287904e-01,-8.615648498945424061e-01,8.776633032703378134e-01,-1.021638155783202717e-02,-7.242840528918931264e-02,3.145036834584502561e-02,1.720119833946228027e+00
-8.542026251332976994e-01,-6.197438958998323644e-01,9.660363000494518460e-01,1.259477329009962010e-01,-1.536066472908885483e-02,3.796643167613932696e-02,1.730344057083129883e+00
-8.989210634637164743e-01,-6.445970931081395072e-01,9.946832415037756281e-01,1.224320614363031134e-01,-1.183130835494338937e-02,3.113284881526828460e-02,1.793634772300720215e+00
-9.834227620867551645e-01,-5.872284681041852750e-01,1.190674988867775452e+00,1.414257781199244716e-02,2.500254312349082034e-02,5.602824982357910294e-02,2.008531570434570312e+00
-1.001030124565188695e+00,-5.567748465938993085e-01,1.054415342995323357e+00,7.009848123208992088e-02,-1.599678006249054610e-02,2.849787809041682760e-02,1.878036737442016602e+00
-1.063644180087852664e+00,-5.618131606195840844e-01,1.208329482234551833e+00,9.307392420930402088e-02,-4.822976870105222247e-02,3.526645006739920901e-02,2.076114177703857422e+00
-1.051745423936577550e+00,-5.044855532384134866e-01,1.057355132892795702e+00,1.042159955137819394e-01,-8.235557399197995787e-02,-1.479478365618920425e-02,1.909753680229187012e+00
-9.113514706674591404e-01,-8.132501684216744131e-01,1.055877145903013181e+00,-5.566031298656005238e-03,-1.379401976119719927e-03,-3.902787262765793075e-02,1.921273708343505859e+00
-8.484071340525134453e-01,-8.476444256276425282e-01,8.814253870640778032e-01,-3.015710831722036300e-03,3.235688840861374732e-02,-1.291556964199731539e-01,1.744767427444458008e+00
-9.387390554908677798e-01,-7.183865086425016422e-01,1.054379800263255618e+00,2.329165227440280900e-02,-4.059589006093622388e-02,-1.180518653651505684e-01,1.905326604843139648e+00
-8.737039279256482160e-01,-8.334347957530845452e-01,1.055671178952716227e+00,-7.340030211951044381e-03,-1.221528253807578797e-02,-7.264725183280865140e-02,1.913859367370605469e+00
-9.086962701392028441e-01,-8.460214125721846612e-01,1.036488497927870345e+00,-2.313933356646303424e-02,4.605604630340409678e-02,-3.958286544058600698e-02,1.917922854423522949e+00
-9.945409075757285500e-01,-7.943997073323451064e-01,9.255248165556466677e-01,-8.997553404622311846e-02,7.095603639469830193e-02,-5.503487672963926908e-02,1.841440200805664062e+00
-8.539713872296441632e-01,-8.632530000861359243e-01,9.922858918020853736e-01,1.012082339952372761e-02,-1.335031321639021558e-02,-1.159706639064022292e-02,1.851251959800720215e+00
-8.720354864310884135e-01,-8.519618382422811109e-01,1.017032908253623802e+00,2.457954196844129580e-03,-3.973862357227355216e-03,2.101555935787607736e-03,1.879132986068725586e+00
-8.798613916000517232e-01,-8.158287572979243674e-01,9.822835888203282906e-01,1.015736233509353416e-02,1.404936732529719901e-02,-1.369566905328415025e-02,1.831368446350097656e+00
-9.130870184620172303e-01,-6.755091348315328537e-01,1.242698425121624206e+00,-2.332857969690884659e-01,5.214232459610488452e-02,1.312208788592154375e-02,2.088929653167724609e+00
-1.022675614931864096e+00,-6.400794831995151313e-01,1.188271602216616429e+00,-1.817811887812368077e-01,-4.622927165154973317e-02,-3.445220855470856880e-02,2.073131322860717773e+00
-8.411377641781421222e-01,-8.565568067906678129e-01,1.063725055153155186e+00,-3.818598876679244608e-02,-1.882345531387525500e-02,2.520755602447249596e-02,1.914537787437438965e+00
-8.802652808588046218e-01,-7.269835269658531107e-01,1.079087928323427592e+00,-1.000617443621413249e-01,-3.660511539755868793e-02,5.186798309013770231e-02,1.898513913154602051e+00
-8.996477257992574472e-01,-6.671549124219670057e-01,1.097653629589754765e+00,-9.962380215414953777e-02,-3.118305521419019975e-03,-3.246711606071089884e-02,1.900493025779724121e+00
-8.769925082404962380e-01,-6.644686555034247100e-01,1.029349927888290495e+00,-1.007610522196399627e-01,-1.864355118190784769e-02,-3.200061351588436888e-03,1.818157434463500977e+00
-8.791364785531695647e-01,-5.800395924291804617e-01,1.075972952734699506e+00,-1.378170214372476388e-01,-2.439018945723171738e-02,3.362018793038556302e-02,1.841005444526672363e+00
-9.370752229619560003e-01,-5.229675114616267884e-01,1.051674251200361621e+00,-1.230608642333935604e-01,-4.413744315104042859e-02,7.776372848195328702e-02,1.836428880691528320e+00
-9.465075304374596099e-01,-6.318356040279248242e-01,1.051834659967705754e+00,-7.627475228210860159e-02,-1.755999862065354272e-02,-1.954114792200764214e-02,1.866304397583007812e+00
-8.590636586652556916e-01,-8.598045280518583633e-01,1.041485037814635639e+00,3.854358927635853551e-03,3.592243179550750742e-03,-6.895375148676650447e-03,1.900978684425354004e+00
-8.542696222181808130e-01,-8.490008375941656693e-01,1.056559795513627664e+00,-3.478696194334485008e-03,-7.792825043547198368e-04,4.649178174827267584e-03,1.908227443695068359e+00
-8.516691120902543100e-01,-8.515551528731264419e-01,1.023675575107032110e+00,-6.395013076352896130e-05,5.392204242298501843e-03,-6.930976769452961567e-03,1.875349402427673340e+00
-8.453445335580411779e-01,-8.531547958385157227e-01,1.057726897929990084e+00,-3.937010921058603855e-03,-5.637624150286578255e-03,4.008893252067852186e-03,1.907038331031799316e+00
-8.459015491748869131e-01,-8.598615968194582848e-01,1.003465894809606684e+00,5.699164035256732916e-03,-1.495347565471826130e-02,-1.100093398124781744e-03,1.856594681739807129e+00
-9.132764801519965836e-01,-8.155778791024870245e-01,1.044874027184216514e+00,-7.716286785007725468e-02,-2.300788673501162965e-02,9.555026291678607453e-02,1.923390150070190430e+00
-8.488852016925538813e-01,-8.632729003371585330e-01,1.062992500653942685e+00,7.437303521692098735e-04,-9.354475784337511505e-05,-1.717900101259327295e-02,1.919343113899230957e+00
-8.565797116190495553e-01,-8.701333331118829006e-01,1.049045690882867810e+00,1.330892059439884624e-03,5.200150785437095309e-03,1.488263318584286425e-03,1.912462592124938965e+00
-8.047544033078630754e-01,-8.688439493732201813e-01,1.043378208080920855e+00,-8.033776926343751124e-03,1.248779692092619360e-02,-3.085437336241844165e-03,1.881179809570312500e+00
-8.566685624034030555e-01,-8.558876608926183627e-01,1.043855353092778326e+00,-9.385948789391140423e-04,1.230499380462098807e-02,-3.773770056113628577e-03,1.900265097618103027e+00
-8.089016889844284908e-01,-8.623405639399540634e-01,1.044594116564072639e+00,-1.954181234885099799e-03,1.634280074662456186e-02,-1.452923979472359878e-02,1.881169080734252930e+00
-8.622305119068782719e-01,-8.259967216711121551e-01,9.218680097899036863e-01,8.154775872491543814e-03,1.023232739091624738e-01,1.158205381074581125e-01,1.786484956741333008e+00
-8.192432191903149530e-01,-7.962649746535105377e-01,6.818515771198336850e-01,-1.849995932888311850e-02,1.261127662513233591e-02,-9.008347466113227758e-03,1.490324974060058594e+00
-8.661814797720966963e-01,-7.700943266735289505e-01,5.719361628355473792e-01,6.609100431416825572e-02,8.589136760431100720e-03,1.059583755628520363e-01,1.409339308738708496e+00
-9.029619034405520495e-01,-8.183010581933585215e-01,6.037041282818356169e-01,1.611406933295194896e-02,1.193740358005838595e-02,1.113543898421626849e-01,1.479209303855895996e+00
-8.100640609110388857e-01,-7.531673372478584483e-01,5.719061712257912378e-01,2.854492151057571540e-03,7.618465101038744691e-02,6.768833907410357065e-02,1.365881085395812988e+00
-7.532467520775226744e-01,-8.679400680460273021e-01,1.066874763600169418e+00,-7.377031278773230061e-02,-8.298909137025663098e-04,9.779396958039103874e-03,1.884507298469543457e+00
-7.511875863089770844e-01,-7.825294292700396559e-01,1.030048787995414550e+00,1.736376276760840109e-01,-3.147872064262851894e-03,4.283039982726076500e-03,1.822127223014831543e+00
-9.194646275514855027e-01,-3.824950240105456922e-01,1.156314403808098135e+00,3.567036401634705034e-01,2.570088793187319878e-02,-2.639731417102641683e-02,1.966811895370483398e+00
-5.248002417456052449e-01,-5.729658206310627167e-01,1.108279322343832751e+00,5.004109007376965623e-01,-3.119466350794841518e-03,-1.850646854943294173e-02,1.870886683464050293e+00
-4.913470434983693291e-01,-1.090032701553254935e+00,1.323701008668132006e+00,4.990704987193929076e-01,2.191840377498841252e-01,-6.385725370153319536e-02,2.375508308410644531e+00
-1.048382249185385806e+00,-5.603672906836675294e-01,1.264882623000685546e+00,5.620224589438066465e-01,1.045505234229775759e-01,-3.206255145626663722e-02,2.333222866058349609e+00
-8.423947836965384184e-01,-7.223218948605092393e-01,1.102181575889972454e+00,3.231432718930021264e-01,1.740278147934138297e-03,2.273797045213049595e-02,1.969042539596557617e+00
-9.835501035666303071e-01,-6.908703017370745325e-01,1.237777015479870402e+00,2.357978539250392969e-01,3.535780477308809316e-02,7.400741533272756426e-03,2.130853176116943359e+00
-6.861792769151970894e-01,-9.387635702910269719e-01,1.082494222571395159e+00,-6.830809586281585966e-02,-8.745510709645413355e-03,2.099958728371516953e-02,1.911620855331420898e+00
-8.375961775087211736e-01,-9.042276989501912832e-01,1.056461473976198606e+00,-2.276141840097799240e-03,2.502236163893550511e-02,-4.676000871966065793e-03,1.928745031356811523e+00
-7.227706416570770509e-01,-8.858733266348910451e-01,1.042526864195382874e+00,-2.344750951667440297e-02,-3.991124119002084636e-02,2.058826909949631329e-02,1.854319930076599121e+00
-7.699888704806422401e-01,-9.065076021561976338e-01,1.070767525838572487e+00,-9.743484605030805143e-03,5.035371124639765814e-03,-4.930790493985291907e-03,1.912786722183227539e+00
-7.923066222927372948e-01,-9.015896338954156874e-01,1.034542060377223516e+00,-8.733396572120267001e-03,-1.997755928721597213e-02,-2.562088014611752472e-03,1.884252667427062988e+00
-8.566955051285561895e-01,-8.548875651176306434e-01,1.067069630412817771e+00,6.383248081256533190e-04,-3.300271524376945532e-03,-2.754560638177526097e-03,1.922876477241516113e+00
-7.959294362354590868e-01,-8.892137309781319443e-01,1.036711121701167082e+00,-1.205828222905555754e-02,-2.160086368942025145e-02,1.016366151028495800e-03,1.881507158279418945e+00
-7.710306897398658821e-01,-8.906080442281829601e-01,1.053075186122415241e+00,-6.014082217739914228e-03,2.046364102990341424e-02,1.154298488103795012e-02,1.887206196784973145e+00
-8.698028243068718357e-01,-8.337620731387542783e-01,1.045609877813133748e+00,-4.329617397751936436e-03,-7.053179188333596680e-03,-3.488099888262018861e-02,1.898664593696594238e+00
-9.016981800748341547e-01,-7.422226962885399848e-01,1.027700887372290373e+00,-2.516625925763061114e-02,2.228685395029822436e-02,-2.430573539218887705e-02,1.856201410293579102e+00
-8.659026532015787758e-01,-8.396523557188100284e-01,9.759121965286337019e-01,1.245093204960563346e-03,5.641002847478084233e-03,-3.234543351227973929e-02,1.829716324806213379e+00
-8.671104700961834721e-01,-8.528414492157748716e-01,1.049019024585968740e+00,-6.877556485631755676e-04,-6.004633332317182992e-03,1.094421270929266631e-02,1.909157752990722656e+00
-8.978688179881256781e-01,-7.372092991399088469e-01,9.967900090950614356e-01,-2.557824912451148874e-02,2.187605426848273846e-02,-2.760224873959306671e-02,1.821217298507690430e+00
-8.895038238809248599e-01,-7.631987148775587482e-01,9.649982073465734889e-01,-1.023739123330297783e-02,-2.992514609016097907e-02,-1.502956061664962803e-03,1.795523762702941895e+00
-8.686444769055121640e-01,-8.567201809068850649e-01,1.026162297561019621e+00,8.563438713372305278e-03,-7.590668440305877764e-03,7.973197061003916772e-03,1.889027357101440430e+00
-9.044754807925411422e-01,-8.403957693280825758e-01,1.015217829375331116e+00,2.628863705375475424e-02,2.243957200911619529e-02,7.559071171988270520e-03,1.889463067054748535e+00
-8.676877187057963070e-01,-8.405721322046292299e-01,1.007910935640484951e+00,-7.422964145421390852e-03,4.433228726669922255e-04,1.127255358063526669e-02,1.862335801124572754e+00
-8.565933286146589776e-01,-8.545569321431351062e-01,9.979856677327509917e-01,-1.119228643694112138e-02,1.162597146961693792e-02,-4.134563774886365964e-03,1.853786230087280273e+00
-8.551566276567712510e-01,-7.533948188717447536e-01,7.843584505153926578e-01,6.770568977167788771e-02,-7.507697293796505855e-02,-6.895683891984875913e-02,1.605133056640625000e+00
-9.135507993439579977e-01,-8.594082833358234197e-01,1.090104039639821831e+00,2.792948304129565587e-02,9.999009474603739664e-03,-2.017221591271852257e-02,1.978115797042846680e+00
-8.034659077738863786e-01,-8.366550886599162240e-01,7.956842731201754226e-01,3.407960284891615316e-02,2.900375802840979983e-02,-5.865263518348861477e-02,1.621044635772705078e+00
-8.695107896439104866e-01,-8.887730245900673509e-01,1.068874391993879014e+00,1.907547385861013342e-02,1.361362171570417758e-02,-1.552726918565561394e-02,1.948696136474609375e+00
-6.287781013074942305e-01,-9.427516077459638932e-01,1.097498381413555935e+00,1.257622400688659936e-01,-2.700784837079984319e-02,-1.326253079174782943e-03,1.915791511535644531e+00
-7.179747597261979530e-01,-9.306742152530125267e-01,1.052120508036126001e+00,5.839167289588714782e-02,1.310318012511050567e-01,4.870339393249827759e-02,1.903635859489440918e+00
-7.842160622966968253e-01,-8.052731365111088779e-01,9.720556819703207729e-01,1.120280883144309098e-01,-4.184728243374025158e-02,-6.009467994357120188e-03,1.779024600982666016e+00
-7.289485837835120163e-01,-8.836555300852370065e-01,9.951688403525731363e-01,2.451634021704010569e-02,5.442822244679616783e-03,5.678810979444112728e-02,1.809644937515258789e+00
-7.898078461700498432e-01,-9.304557696456533522e-01,1.040071529828689112e+00,1.040197245539503657e-01,-3.846994807397699501e-02,-2.388130656459017467e-02,1.914215326309204102e+00
-5.620359425820221633e-01,-8.622822498354766330e-01,6.342934723828461685e-01,-3.218246138034287496e-01,1.014770552494976413e-01,8.512348195525785977e-02,1.497961759567260742e+00
-7.481089830391969286e-01,-9.805187325741560045e-01,8.918682791462206882e-01,-3.338202394175927151e-02,-9.530343883356921786e-02,7.435686626903328933e-02,1.780972957611083984e+00
-8.278518318942150733e-01,-8.744909193211356513e-01,9.148274398043119149e-01,1.273450630260319384e-03,-1.367698886692340042e-02,1.539545421942639268e-03,1.766622900962829590e+00
-8.233832287002753603e-01,-9.419053959464387393e-01,1.087026200514909169e+00,-3.912480982000256235e-02,-4.458103782727918657e-02,1.464685538785229918e-02,1.975179910659790039e+00
-2.577717662972749402e-01,-1.320254755242395550e+00,6.881994850700706712e-01,-3.953239446600688156e-01,8.663862172695702135e-02,7.409584639861561961e-02,1.880596280097961426e+00
-8.066945232803846011e-01,-1.008409088803965847e+00,8.741971490838615910e-01,-1.132837191226593598e-01,-1.962045972502856617e-01,1.848213506982805676e-02,1.833073616027832031e+00
-8.590881044452230997e-01,-8.347052712406245467e-01,1.057411913014850491e+00,-3.326652822468851092e-03,3.207350769256899631e-02,-2.823191845305910580e-02,1.905871868133544922e+00
-8.631393740321875452e-01,-8.577054985528641540e-01,1.085117528254303965e+00,-2.388634574260926208e-02,-8.283508053658246439e-03,4.150639220105547741e-03,1.946051716804504395e+00
-8.102036634650935376e-01,-8.503295367667060844e-01,1.062818221119867790e+00,-2.450453797999681965e-02,1.953606944768271087e-03,-1.256248452675583736e-02,1.894007444381713867e+00
-7.954686572687905688e-01,-8.257352824668784397e-01,1.042181896040803357e+00,-4.479132358375920164e-02,1.427476269914520861e-02,-1.659224688226409658e-02,1.854980111122131348e+00
-8.031483654992005450e-01,-8.553216400627704497e-01,1.060216395444895099e+00,-2.985265259142552696e-02,-2.310435770258784712e-03,1.531647931726382158e-03,1.890704870223999023e+00
-8.637568706861620260e-01,-8.680047533480738098e-01,1.064398415423430055e+00,1.033365349490133079e-03,-3.748116948447898899e-03,2.102967256121546138e-03,1.930297970771789551e+00
-5.525802086603512908e-01,-9.435517091542142687e-01,1.041186121438083090e+00,-8.516808548173733506e-02,2.262714564664415617e-02,-2.815455057708221229e-02,1.828043222427368164e+00
-7.724380209797367947e-01,-9.265487849198223991e-01,1.107456522886499428e+00,-6.863059816752346831e-02,-6.306207560242088270e-03,-8.354431135742532502e-03,1.965178012847900391e+00
-5.955474114371337446e-01,-1.015401187426578034e+00,1.083348086304245284e+00,-4.286162102995803858e-02,-1.807244229105592001e-02,1.988759579006389722e-02,1.925496220588684082e+00
-6.338380885790837471e-01,-8.852742065913801195e-01,1.030473106083567236e+00,-1.124576427755777930e-01,7.563172056174798097e-02,-3.434717058825777214e-02,1.819411873817443848e+00
-8.433811412250593609e-01,-8.377196432525063630e-01,8.823255814541721698e-01,1.446938092587403608e-04,5.309279849840948563e-03,7.644059519727515462e-02,1.727987170219421387e+00
-8.537345589473473995e-01,-8.097579744045957373e-01,1.042415354319115250e+00,-7.958259568262140982e-02,1.727627160785694463e-02,-5.834308366468137635e-02,1.882561922073364258e+00
-7.933861928715206790e-01,-8.393396919171605131e-01,6.208665493234948318e-01,-1.872815953544282042e-01,-1.735363661073964503e-02,2.055307910204018096e-01,1.516597390174865723e+00
-8.769354825005047926e-01,-8.628887240924795199e-01,1.001150745244328899e+00,-5.451828319869656513e-03,5.857407414526182715e-03,-1.428938142334320628e-02,1.871317386627197266e+00
-7.468443238928862415e-01,-9.482675745575034343e-01,1.096688717383395906e+00,-1.354751882406052266e-02,-2.902577441991732385e-02,-1.137097131521713246e-02,1.952941775321960449e+00
-8.629287193511664400e-01,-8.654859471583519204e-01,1.051473269926122889e+00,8.019222873345201175e-03,-1.484804104056724160e-02,-3.069221726204632902e-03,1.915912270545959473e+00
-8.570033447286371509e-01,-8.493813852945932830e-01,1.069708669102539700e+00,-7.691961012308434634e-04,9.673304085345739781e-03,2.230469874635654815e-03,1.922989726066589355e+00
-8.645645381008291164e-01,-8.508137707313293552e-01,1.059451203163258359e+00,1.280241647462014446e-03,-1.888514039056660501e-02,5.173446301003652072e-04,1.917457818984985352e+00
-8.629295564003875985e-01,-8.202736600997083682e-01,1.055161459286496850e+00,-7.625065074359846720e-03,-8.625897154881864703e-03,1.328786484074506204e-02,1.897367119789123535e+00
-6.679681919673391421e-01,-8.572325867686398926e-01,1.020883272928214680e+00,-5.952025996806965813e-02,-3.540505351268274665e-03,-1.886246190142844628e-02,1.794272184371948242e+00
-6.259564909559485191e-01,-8.735590951342848687e-01,1.019993441029727332e+00,-4.701587561911574342e-02,5.255256010649596993e-02,-3.416908910954190304e-02,1.787853240966796875e+00
-6.591454177305082762e-01,-9.519405354878232028e-01,1.082341666782585143e+00,-4.440439848091522895e-02,2.568967774117244043e-02,-2.366537475521715908e-02,1.907349109649658203e+00
-5.573642201187117839e-01,-9.267838068416153208e-01,1.050260179149194117e+00,2.866191451381370787e-03,6.869358504559751333e-02,-2.273089729464118722e-03,1.824557900428771973e+00
-6.839117815444573090e-01,-9.030684683360883369e-01,1.042766350356546079e+00,-3.147596569305091685e-02,2.240285290001399823e-02,-9.467806698745223626e-03,1.847324252128601074e+00
-6.746214034772064494e-01,-9.309910958810159176e-01,1.064950981747539771e+00,2.388202131540588611e-03,-2.999774572231150155e-02,-1.572847834233184099e-03,1.881631016731262207e+00
-5.866992949400891000e-01,-9.476282932932718062e-01,1.068795581581954091e+00,5.268006653951273766e-02,-3.825280595936979972e-02,-1.531591115553614102e-02,1.865976452827453613e+00
-5.296472888217063080e-01,-9.957997137894144535e-01,1.072077321603609024e+00,4.092571797292947344e-02,1.421238054102433312e-02,1.733857185727171249e-02,1.880425572395324707e+00
-6.460507588745123542e-01,-9.244049193923801200e-01,1.032371662892115349e+00,3.306259169595671121e-02,2.003345121987637825e-02,-6.646052146116666025e-03,1.834773778915405273e+00
-6.945197276130308239e-01,-9.302920934606777603e-01,1.054373008775020937e+00,1.464047100618386978e-02,-3.508588740907337550e-02,-1.110561196009084324e-02,1.879165053367614746e+00
-5.552031579615661627e-01,-9.492641090972041562e-01,1.020448019309952326e+00,2.770830198275273798e-02,-6.120098636941603831e-02,-2.480507729149266510e-02,1.809488654136657715e+00
-6.134895095603326576e-01,-9.654652766741403935e-01,1.049893753826699694e+00,-8.653004728244553800e-03,2.294505063851324037e-02,6.180484891589003993e-04,1.864941477775573730e+00
-5.338349155359829457e-01,-9.626684191228787046e-01,1.037228304898207831e+00,1.995072008850872804e-03,-5.428344438964320673e-02,-9.377632639862705467e-04,1.826120734214782715e+00
-8.656008386358498008e-01,-8.526634614411537916e-01,1.004927733204938667e+00,6.130703782387602122e-03,-9.102850329893188291e-03,-1.888450208253213483e-02,1.864477396011352539e+00
-8.683274679196573143e-01,-8.654746010565521619e-01,1.047124294625629837e+00,7.111055185119821188e-03,8.007904405216663760e-03,-1.093780543231163797e-02,1.914210557937622070e+00
-8.294110528594210718e-01,-8.412372625703053997e-01,9.480434771319368181e-01,-8.346751000691482805e-03,1.242630600713337183e-02,-1.766051475065348250e-02,1.783847808837890625e+00
-8.790499671000658877e-01,-8.522226388943388020e-01,1.017643085995624475e+00,9.547288993946525040e-03,1.490686423206473953e-02,2.399997172146787778e-03,1.883676886558532715e+00
-8.674278014918133106e-01,-8.660338421406210685e-01,1.035968547247352101e+00,1.091857087942682547e-02,9.011558230069827147e-03,1.982499645876030156e-03,1.902860879898071289e+00
-8.623062694866145961e-01,-8.436021279249361626e-01,9.650972903174468431e-01,7.326044397000392935e-03,3.295005841973505656e-02,1.028866657281493277e-02,1.819150686264038086e+00
-7.706835039831008149e-01,-7.897935561145822403e-01,1.017090769930741878e+00,-4.926809001503690277e-03,-5.045016745281197257e-03,-9.480610387226242816e-03,1.797521948814392090e+00
-8.672946446621109251e-01,-7.835507655453156639e-01,1.022573148889965422e+00,2.657509302033291346e-02,-2.976040273766904914e-02,-2.024314985348288007e-02,1.851041197776794434e+00
-8.655665285390071739e-01,-8.487081503517429626e-01,9.821003579951883555e-01,-9.874772709325718364e-03,-3.593216187863092909e-02,-2.032543044534828106e-02,1.840764403343200684e+00
-8.234702934380664363e-01,-7.978857857491296057e-01,8.011003363337043659e-01,2.691999359988555066e-02,-3.373274621840637900e-03,2.086245055846900828e-02,1.613020300865173340e+00
-8.377330441069850142e-01,-8.196376755587359009e-01,8.574942553726667693e-01,-8.872731155455197347e-03,6.049095813617162004e-02,8.072723528384177782e-02,1.695349931716918945e+00
-8.440998540170987496e-01,-8.459452809357312919e-01,1.060085928057386662e+00,4.415580043367788726e-02,-1.691897694377835631e-02,-2.916652017352185447e-02,1.907537937164306641e+00
-9.894124213823030090e-01,-6.349775355191726867e-01,1.110680764226537054e+00,8.516346494647304699e-02,3.189544556735260210e-04,-5.497343269844059271e-02,1.955119967460632324e+00
-7.876649625297890145e-01,-7.263488470318472112e-01,1.013738331439804075e+00,8.795839448591293019e-02,-1.357143955268624164e-02,-1.929364032039227253e-02,1.778549313545227051e+00
-8.750935356139342147e-01,-8.543492957904141871e-01,1.071476012282613022e+00,5.609760728242049223e-03,-7.479305272409926542e-03,6.709533553957885803e-03,1.936383366584777832e+00
-8.795527084993637335e-01,-7.327363825942103670e-01,8.423223113931215256e-01,1.486831196054920479e-02,-1.203203206478812778e-02,1.077158567985069398e-01,1.664186000823974609e+00
-8.563488894498715309e-01,-7.731760369118172438e-01,7.964041739127305508e-01,8.384565386038123416e-03,1.575651114997957125e-02,4.527748362725833586e-03,1.613091230392456055e+00
-8.554287813025865939e-01,-8.641473675775497298e-01,1.005350919378689367e+00,-8.487782963525163440e-03,1.310062503820857462e-02,2.114619539907304155e-02,1.865709781646728516e+00
-8.733945365143531703e-01,-8.885910825532804536e-01,1.020501612010641823e+00,1.759456245114359102e-03,1.861442304533209371e-02,2.721911300272321713e-02,1.902400016784667969e+00
-9.311760358576822716e-01,-6.565167983988147160e-01,1.091511158508673196e+00,2.418427638181774586e-01,-1.150509952372156738e-02,-1.298405439860111366e-01,1.958976268768310547e+00
-9.123197249395536002e-01,-6.445208998560862934e-01,9.228930150852541203e-01,8.529596728566331276e-02,1.391952175239624320e-02,2.661135354253510443e-02,1.724177002906799316e+00
-9.336463045685247097e-01,-8.202173604340405877e-01,1.034961064869615477e+00,1.965672067178833304e-01,-9.043644287871423215e-02,2.131290889541066769e-02,1.951102018356323242e+00
-7.641031953610961658e-01,-7.974306607870468300e-01,1.021209520024234374e+00,6.601052002389222462e-02,1.106527640091348793e-03,-9.140745284186433534e-03,1.805901050567626953e+00
-8.460425979616496006e-01,-8.772141660468951718e-01,1.048557686385264365e+00,5.543570842958483666e-03,2.357195806468791177e-02,-4.670974441426500000e-03,1.910854339599609375e+00
-9.007878376197701042e-01,-5.951139748612633840e-01,1.066408975361322176e+00,1.486461526757540674e-01,-2.282990148069774863e-02,-2.971111507240529331e-02,1.852694869041442871e+00
-8.579752032186608313e-01,-8.726092596587728956e-01,1.033143228414750370e+00,-2.432779946046067371e-03,-5.584949330491610284e-03,2.423627122876960372e-05,1.898507118225097656e+00
-8.000439883828529553e-01,-7.560783343043003812e-01,1.018360614241784257e+00,5.406158368359301886e-02,-1.474499183936334862e-02,2.731029603891813994e-03,1.799450874328613281e+00
-8.228657893360782349e-01,-7.800953568951315420e-01,1.043876357221444673e+00,-3.890901638235892690e-02,-2.850157259882381278e-02,2.821995529733136929e-02,1.848264575004577637e+00
-7.563092014486094694e-01,-8.165533536386890834e-01,1.032070773014528653e+00,-5.098962417882899750e-02,-2.050152500333225075e-02,3.309330972100458373e-02,1.822640419006347656e+00
-8.766555690512866095e-01,-9.132820073541203509e-01,1.003217247082083485e+00,-1.284957057134533676e-01,1.184615047227401477e-02,-7.243824798760535588e-02,1.915675520896911621e+00
-7.708188054057313332e-01,-6.458705114585275853e-01,9.873249881337713418e-01,-1.199881876003047465e-01,5.049405741020111457e-03,-1.226159450936349822e-02,1.711935639381408691e+00
-6.100677893398569474e-01,-8.002048306523588117e-01,9.912165349871446818e-01,-1.240112748967391737e-01,5.236965606131627204e-03,-6.077666462776743807e-03,1.717863917350769043e+00
-7.386481364934039950e-01,-8.049413951402529799e-01,1.013721437373345413e+00,-6.398437213716941241e-02,-2.171418633382093131e-04,8.584106157723155051e-03,1.789934992790222168e+00
-8.591816362438677857e-01,-8.643878581351285284e-01,1.034147327981188358e+00,3.715775482283029639e-03,7.713120857467444663e-03,-2.330979113633821920e-03,1.895999670028686523e+00
-8.641701709889081373e-01,-8.682202655246064049e-01,1.057498445832785183e+00,2.430928024384633804e-03,-4.561098777775348008e-03,-4.363732679758354147e-03,1.923732519149780273e+00
-8.657544719129431909e-01,-8.438502910141254532e-01,1.054679375227141280e+00,1.542699199191817361e-03,3.512090134255414992e-04,1.368637629382507027e-02,1.909725069999694824e+00
-8.493339519463218856e-01,-8.519582724294740839e-01,9.838520333189852973e-01,3.961657338486414617e-03,-3.726345331136822221e-03,5.401549680303226360e-03,1.834547638893127441e+00
-8.658384306705054767e-01,-8.663918781366095612e-01,9.922509253079532243e-01,3.432012613140147505e-03,-9.710251314184310117e-03,2.101307908243752257e-02,1.858808159828186035e+00
-9.890994545762912260e-01,-6.952312027558142926e-01,8.595365340117093744e-01,-7.832751449397064303e-02,-1.785899756410483374e-02,3.705599995049004697e-02,1.727437376976013184e+00
-8.513077699416008448e-01,-8.616401495714038905e-01,9.899745167771702992e-01,1.258888300070256337e-02,-1.248224025184183940e-02,1.107069083877820076e-02,1.846825003623962402e+00
-8.573317601573293700e-01,-8.648765293472334692e-01,1.032555734142418524e+00,2.708219948386167333e-03,7.256650657800819146e-04,8.347527266872028368e-03,1.893732547760009766e+00
-8.695449404593758036e-01,-8.545055681732627306e-01,1.032131565198241008e+00,1.413069664436409408e-03,1.106928952400591413e-03,-5.104946256558616328e-03,1.894224762916564941e+00
-7.650945161756406154e-01,-7.530563217123917852e-01,8.558050388467772773e-01,-1.355676957996077014e-01,1.523549524713265629e-02,2.620623977487338344e-03,1.632115244865417480e+00
-8.481990896414181025e-01,-8.647012394375598321e-01,1.059017620454147046e+00,2.627733740917579611e-03,1.574845212172417200e-02,3.518711074268611114e-03,1.915730357170104980e+00
-8.654120863218642823e-01,-8.544633306422692032e-01,1.068209078055632588e+00,2.629226131490394660e-03,9.160831668899907174e-03,-8.421140023066783428e-03,1.928295969963073730e+00
-8.790810089208959122e-01,-8.275161281432193983e-01,9.115222254044730299e-01,6.313093526660542958e-03,6.811823201889418214e-03,-2.978687576638042872e-02,1.766212701797485352e+00
-9.750373458118209991e-01,-7.680409227797851957e-01,9.584778473359247819e-01,4.933241185051637917e-02,4.991776560211896169e-02,-8.964372339314426175e-02,1.849319338798522949e+00
-8.432273547809437941e-01,-8.656283825915176422e-01,9.663413331915271520e-01,-7.929186061468898291e-04,3.060607743041011877e-03,6.738262753667703837e-03,1.820918202400207520e+00
-8.517305580829200862e-01,-8.576717647377828380e-01,9.796845556743425387e-01,8.595616937683117284e-03,-2.418315119926459783e-02,1.513193865639180131e-02,1.835118651390075684e+00
-8.411497030358985327e-01,-8.522448333925705111e-01,8.947462038584836908e-01,-1.744473570979505894e-02,-1.595961927329066568e-02,1.146548596193564806e-01,1.753234744071960449e+00
-8.820781883213794083e-01,-8.341841533603943093e-01,1.015110404709513414e+00,5.870327074068645151e-03,-9.001172373553795528e-03,7.701192260308352064e-03,1.873840689659118652e+00
-8.460164379329085937e-01,-8.666488467029135334e-01,9.699376788814952910e-01,6.699044391295954541e-04,5.170817804753856731e-03,4.176319355110517766e-03,1.826394438743591309e+00
-8.620092330531176072e-01,-8.308352086837079709e-01,9.702062472671277860e-01,4.132825323853537430e-04,1.095672782265677374e-03,2.496811987896545987e-02,1.817344784736633301e+00
-8.484454863502566280e-01,-8.222455811792696023e-01,1.061903796443191439e+00,-1.800532192013515331e-02,-2.319688298881289121e-02,1.980591351960258803e-02,1.898376584053039551e+00
-8.198398462057114866e-01,-7.643101306785456961e-01,1.028855991725660557e+00,-3.016176334570556256e-02,-2.225523115957827799e-02,-5.645290956414178560e-05,1.822722554206848145e+00
-7.822846267937452192e-01,-7.818317038221315185e-01,1.023937455086748827e+00,-5.630545153579847445e-02,1.780748877783690752e-03,1.836942897610045061e-02,1.808909416198730469e+00
-7.810777587760000529e-01,-6.699672515149106555e-01,9.952674429584025262e-01,-1.122274281838459981e-01,-1.312549566102177122e-02,5.195340004632242187e-03,1.734577775001525879e+00
-8.142918156346180547e-01,-8.365070757590803430e-01,1.055383084482070855e+00,-9.536996297858460828e-03,-2.085571037266181413e-02,2.018407100229933915e-02,1.881625056266784668e+00
-8.483519547193000276e-01,-8.228104038334523862e-01,1.059729387461757488e+00,-1.754838327717864882e-02,-2.563111660525782889e-02,2.949475282070508630e-02,1.896891117095947266e+00
-8.633078039857227104e-01,-8.533140027200158961e-01,1.051612173610594558e+00,7.999120750831019075e-04,-4.893011721986003162e-03,-1.444217049891711492e-02,1.910125732421875000e+00
-8.624786015386003424e-01,-8.507179984657952110e-01,1.046789552167556758e+00,4.806470532915466283e-03,-5.338695142312612288e-03,7.005171583225027875e-04,1.903456211090087891e+00
-8.362444993494456691e-01,-7.121082699984215836e-01,1.054894588414382106e+00,-1.826011338204424628e-01,-2.130629339915014742e-02,-1.833557412181812535e-02,1.859961867332458496e+00
-8.502094957199823888e-01,-8.660956447371295219e-01,1.064995948583049357e+00,-1.940066351913895867e-03,1.012182450495992085e-02,1.083209800964127743e-02,1.923372030258178711e+00
-8.507994164558807526e-01,-8.524101174464633335e-01,1.022787151186201671e+00,-3.099464365889966020e-03,-2.875283201018130055e-04,-1.878215133200477694e-03,1.874402999877929688e+00
-7.985129000354144191e-01,-8.392843726534089388e-01,1.019038577339742346e+00,-3.062180871516240882e-02,-1.329577930946498551e-02,3.818668041562790424e-03,1.839197397232055664e+00
-8.215293655247986049e-01,-8.463109282545679957e-01,9.428439254721991958e-01,-1.703658135031174648e-03,2.429191336794752146e-02,2.450597652177249810e-03,1.777399301528930664e+00
-8.647434430088705160e-01,-8.616758779216439068e-01,1.026376706214467305e+00,1.309660731819748888e-02,5.398401700892575469e-03,-5.286045147627916468e-03,1.889769673347473145e+00
-8.492361584118023332e-01,-8.402523051941989118e-01,9.189970135312857114e-01,-8.412358939489420276e-03,-9.957248709174608414e-02,9.311997870458285642e-02,1.779554486274719238e+00
-8.551393696932574340e-01,-8.647621740871284102e-01,9.136702925478692450e-01,-3.072828375041647148e-03,-6.689429457886915398e-02,7.453036314038001542e-02,1.782110691070556641e+00
-8.568671657317585844e-01,-8.423010299378058674e-01,9.707207258400665228e-01,3.808647833083968204e-03,9.771223019483965544e-03,2.380976437759887640e-02,1.820906162261962891e+00
-7.739979197156644508e-01,-8.391521075246658468e-01,9.940664427967338401e-01,-5.656805110763553357e-02,-1.467574783376470815e-03,-9.846301135343104791e-03,1.804270148277282715e+00
-8.635630912040047624e-01,-8.707629181510733174e-01,8.140837935333968822e-01,-3.523475304579367501e-02,-3.322096043454580289e-02,-5.601122971443162069e-02,1.686142563819885254e+00
-7.148933416743572522e-01,-9.059257226477608338e-01,7.112556190311649651e-01,-5.711079874643663207e-02,-1.386087575451850351e-01,9.652068165913188502e-02,1.561475515365600586e+00
-8.299641563644599707e-01,-8.512872329479230782e-01,8.986513261168465050e-01,2.427063205831808766e-03,-4.694605290089374355e-02,2.154086957596026281e-02,1.741679430007934570e+00
-8.349472004018423377e-01,-8.391504167441009576e-01,7.808479387294999796e-01,1.040010442026874718e-02,-9.498224083968652420e-02,7.510518224664300413e-02,1.631537556648254395e+00
-8.452749163415274047e-01,-8.290447284339876877e-01,8.518964703564364527e-01,-1.264122358023264854e-04,-5.436418897841702180e-02,1.078914066054171422e-02,1.691840529441833496e+00
-7.027155352135282529e-01,-7.903811753701809328e-01,1.002540616572697552e+00,3.811037577063777076e-02,1.705736463359420682e-02,1.547990613042087710e-02,1.752434015274047852e+00
-7.353059458039038487e-01,-8.063399694583662791e-01,1.039431117086516254e+00,6.275614263737364085e-02,-1.021347807430478261e-02,-1.687217539657442922e-02,1.814879059791564941e+00
-7.684280661917181066e-01,-7.731567465590846178e-01,1.025981920113614665e+00,4.461868030786387412e-02,3.112445402240358525e-02,2.588507595032095432e-02,1.799806475639343262e+00
-8.428605118204417490e-01,-7.510529603209563643e-01,1.069195790570123705e+00,7.833567511569645980e-02,3.431383166478947470e-03,4.329453912359559897e-02,1.874277114868164062e+00
-7.010608430800996382e-01,-7.084619978015348485e-01,1.102990075754178845e+00,2.497037611011345970e-01,1.352464025191327593e-02,9.138289551534711785e-02,1.865653753280639648e+00
-7.882203554161198999e-01,-6.882700849079951277e-01,1.000232606883087350e+00,9.635775626939088734e-02,-1.238080919964540871e-03,-1.186601269555653208e-03,1.748616814613342285e+00
-1.031585048427288820e+00,-5.040073970217817667e-01,1.147823458395798468e+00,5.878836615934804333e-02,3.022005654094361837e-02,2.598329422917807462e-03,1.972683668136596680e+00
-1.205208370547668384e+00,-4.060862081353507347e-01,1.283388579997860379e+00,3.499450098718540764e-02,1.506540798489688741e-02,-5.172279866680264820e-02,2.203496932983398438e+00
-1.169393836241887419e+00,-8.854522817138588131e-02,1.124600455114335817e+00,6.217034302154361008e-02,4.220310457023952050e-02,-1.617769814027278374e-01,2.011625528335571289e+00
-1.204910425392138329e+00,-2.882660924247314460e-01,1.131475188773465756e+00,2.830636404849323773e-01,1.041676829852214992e-01,-2.342079862101991150e-01,2.143545627593994141e+00
-9.183575811997669591e-01,-6.617140139726445103e-01,1.075539310488908162e+00,-1.507617162744612216e-01,-1.699739995839807775e-03,1.686587963813619348e-02,1.897055387496948242e+00
-1.018552515377670664e+00,-4.975375917589620056e-01,1.042627586799003803e+00,-9.170729957441296765e-02,-1.716932714173761976e-02,3.168581782694967347e-02,1.864173054695129395e+00
-9.415206769238471107e-01,-4.792696062588217565e-01,9.966043205669339322e-01,-5.907444991802431045e-02,-2.205504071068136948e-04,3.928193823375504545e-02,1.757612824440002441e+00
-1.067043930292516318e+00,-5.372311405590215472e-01,1.161256676648564357e+00,-1.609809370665792050e-01,-2.751781104923660751e-02,-2.841453014207498060e-02,2.036634922027587891e+00
-1.028010538089499493e+00,-6.357902048466658185e-01,1.092362895027469971e+00,-1.045827713188328401e-01,-1.715119137797862028e-02,-7.781122967480808006e-02,1.967238068580627441e+00
-9.515395288154743225e-01,-6.354514448536308091e-01,1.075848188262578997e+00,-8.027503794933144032e-02,1.542014185318419349e-02,-6.524063903645900553e-02,1.897944688796997070e+00
-8.645482395890403682e-01,-8.313482647533330105e-01,8.548223690708796063e-01,1.238672309440017787e-03,-6.795994303212811449e-02,3.159195851783152403e-02,1.707954645156860352e+00
-8.583688460410938692e-01,-8.762249777211474910e-01,8.944426361839954431e-01,1.007984872594924058e-02,-8.475218385184318109e-03,1.017475054349927244e-01,1.770746588706970215e+00
-1.007985414732502694e+00,-7.524146798972257688e-01,9.982313361662153994e-01,-1.907713677415565426e-02,4.532352378801848825e-02,5.984365557475599708e-03,1.893370985984802246e+00
-1.013483799696555110e+00,-7.496353441133085660e-01,8.665047446353468796e-01,-4.925216151190355690e-02,5.580598517245671797e-02,9.940946280757562148e-02,1.776008963584899902e+00
-7.521899014962284413e-01,-9.343855744995758217e-01,1.016802783137912058e+00,2.780392190618612060e-03,-2.685431797935890555e-02,-2.747687282535832623e-02,1.867962718009948730e+00
-7.849704693594649063e-01,-8.191665262545867465e-01,1.035742554952664651e+00,-1.364179157642824575e-02,1.614781001420955223e-02,-1.808165740233090221e-02,1.838680982589721680e+00
-7.529570884026772770e-01,-8.943575700898049874e-01,9.742843693363707480e-01,-9.246092359925716861e-03,3.084004037461305649e-04,-3.067322492133808462e-03,1.802186131477355957e+00
-8.286059981931905849e-01,-8.737439048259247887e-01,9.821335158949335842e-01,3.393131897312545633e-03,1.413645221003361277e-02,-7.299017627419368721e-03,1.833941578865051270e+00
-7.452269476021861072e-01,-8.782481590524705561e-01,9.851530989771299929e-01,1.674862164506664419e-02,1.065481864681820240e-01,2.338173375206177226e-02,1.810697674751281738e+00
-7.628222721730927303e-01,-9.394572794815999606e-01,9.997397532428795586e-01,-1.851534805317163468e-02,8.632002476425580662e-02,-1.837226786170095133e-02,1.863746047019958496e+00
-8.278011787970968038e-01,-8.509375995656849323e-01,9.748335972627821810e-01,1.630768949594893708e-03,1.086789772516907546e-02,2.100777551140521528e-03,1.814417123794555664e+00
-9.125262905045581352e-01,-6.127432326070109125e-01,1.056791245882090724e+00,-1.170247065775874840e-01,-4.417353904736072250e-03,-2.913174040690607279e-03,1.849021792411804199e+00
-8.614765871775539319e-01,-6.610373327288276979e-01,1.014431643306752173e+00,-7.311949124683106427e-02,2.297136333091092872e-02,-7.142118904100640091e-03,1.789127588272094727e+00
-8.570331546296067193e-01,-6.551732825212410738e-01,1.014138152367368706e+00,-8.052421815395159610e-02,1.507864584254895932e-02,1.450849072709594657e-02,1.784679532051086426e+00
-8.588779242316215701e-01,-8.700414284262451003e-01,1.029011263001775367e+00,-2.715373924671669621e-03,-3.872085461633734647e-03,1.830233771097068913e-03,1.893515944480895996e+00
-7.988639648165190010e-01,-7.853139299866286338e-01,3.504638225285181541e-01,3.058086993519102542e-02,-1.900113760000793003e-02,-1.657455708882653866e-01,1.179774522781372070e+00
-8.326272509508609865e-01,-8.202343129571355584e-01,4.394573585486135636e-01,4.223898495266630027e-03,1.212049581496352918e-01,5.991204165256229508e-02,1.287432193756103516e+00
-7.206607829536876286e-01,-7.495001184064717936e-01,-2.781129999855969093e-03,2.651408297816376658e-03,7.389125031959115075e-02,1.294848634926584197e-01,7.769079208374023438e-01
-7.121053480255710166e-01,-1.152838804212749757e+00,2.188458019054602133e-01,2.211823956964317495e-01,7.665466197523687630e-02,-4.558049224370609026e-02,1.281344175338745117e+00
-6.989329429732359378e-01,-7.669515538685067746e-01,4.860487865535534358e-02,-1.204665712379250631e-02,-8.707353315925853154e-02,1.575743130153187122e-01,8.437746167182922363e-01
-7.456235433560072234e-01,-7.706879476152539432e-01,-2.809712110369966265e-02,-5.017839710886238397e-02,-7.125146179805053048e-02,-1.972816722373408049e-01,8.203663229942321777e-01
-8.632981356287174890e-01,-8.658984766489482565e-01,1.064426971223559892e+00,4.631274044157235488e-03,1.006858791910940050e-03,-4.215935961131801399e-03,1.929057836532592773e+00
-1.360924481915234630e+00,-1.183509956968241017e+00,6.658401406751179863e-01,1.234824069468993223e-02,-1.389237781598667842e-01,1.438397321362637205e-01,1.974866986274719238e+00
-8.835532347105717887e-01,-8.036188515904514329e-01,1.112407377285162591e+00,-1.156748896522052095e-01,8.687082029931583738e-02,-7.854437867772953719e-02,1.977875590324401855e+00
-8.508515542968364542e-01,-7.603661579162579454e-01,1.086854419387512038e+00,-1.005936094399894343e-01,1.364317752031051802e-02,-4.021782670161889311e-02,1.903503656387329102e+00
-7.711835684702629257e-01,-7.576833412582583138e-01,1.010358237849106056e+00,-7.919990360389121686e-02,4.102570376441499328e-02,-2.425438124640115489e-02,1.782036542892456055e+00
-7.904536800111725547e-01,-7.847703003800514665e-01,1.094416412092949598e+00,-1.419650970528473222e-01,2.004448820571347323e-02,-2.012633951221595024e-02,1.898667454719543457e+00
-7.713502107852182599e-01,-8.108237730962047918e-01,1.076635626452471239e+00,-2.763233717541788148e-01,5.682504946225423736e-02,-2.111608776284202432e-02,1.931228876113891602e+00
-7.465197863084667151e-01,-8.104679643730950955e-01,1.016345020073584848e+00,-7.034698838081211714e-02,5.246210547547675712e-02,-4.452413999000497807e-02,1.803763747215270996e+00
-6.909213440296791964e-01,-8.194763792018737725e-01,1.016192758722024747e+00,-8.103918179051392001e-02,1.816743344747699142e-03,-1.928183386168372607e-02,1.780744314193725586e+00
-7.724105366848208476e-01,-6.714045829089073658e-01,1.065362512357006741e+00,1.208892608591726064e-01,-1.166770686400511736e-02,-1.973066913002613845e-02,1.802055716514587402e+00
-7.847255108968209658e-01,-6.940277286668081747e-01,1.054597616333986521e+00,1.001575404881011461e-01,3.479882973335124419e-02,2.647796770033532948e-02,1.805642247200012207e+00
-5.840556730310999534e-01,-9.539000163664930199e-01,1.046321269011210919e+00,1.055822259275810832e-01,2.040984759530076447e-03,4.188769685883883542e-02,1.853811860084533691e+00
-6.560673012521387459e-01,-7.959474483519805021e-01,1.040190034799434615e+00,2.050239894765762960e-01,-1.772227976416973494e-02,-2.443377960955141551e-02,1.806368112564086914e+00
-7.358404006769510008e-01,-8.088940514659138659e-01,1.034333944763978108e+00,6.953806049364381903e-02,1.854055782116577691e-02,1.197179584317207245e-02,1.812219500541687012e+00
-4.915582694029940747e-01,-1.151154133606297814e+00,1.329869132670705278e+00,-1.909345998801645627e-01,-1.826469023618915166e-02,-2.180877447111610745e-02,2.250747919082641602e+00
-8.403533589295000272e-01,-8.418485625856081400e-01,1.061417274756405238e+00,5.934333370157578169e-03,-3.441057119499765955e-03,1.886077025662643084e-02,1.902836203575134277e+00
-8.443187234118663120e-01,-8.543672973125986392e-01,1.062916640569209648e+00,-2.900086717486395887e-03,3.866139189656463051e-03,-1.459241632533324503e-04,1.912297844886779785e+00
-1.562008632353583670e-01,-1.057974594468638507e+00,1.037230387679290766e+00,-2.250591667643344063e-01,-1.728074657819100579e-01,-1.396633307619008640e-02,1.885684609413146973e+00
-8.417628729485007177e-01,-8.627353028503502719e-01,1.049764524222711826e+00,-3.314219300808861248e-05,-7.440060877569182329e-03,-9.950463652381547758e-03,1.902222037315368652e+00
-6.177718120435333748e-01,-9.004028229867107047e-01,1.012182006691104030e+00,-1.912149718822202249e-02,1.595207713254215981e-02,1.516717806464890940e-02,1.788814067840576172e+00
-8.401414265713599283e-01,-8.566979701286577820e-01,1.023341608285672999e+00,-2.678803092733459366e-03,8.954302125705920420e-03,5.406146872685826076e-03,1.871909618377685547e+00
-8.308838360703159343e-02,-1.175915080428714843e+00,1.228021824734248479e+00,-1.930067122455344508e-01,5.229206695514409219e-03,-2.712625913747172129e-02,2.111904621124267578e+00
-1.426636527252956199e+00,-3.365919400624388658e-01,1.338210167658022476e+00,2.418021665404794796e-01,1.232701050119976022e-01,-2.823054639411354816e-01,2.505763053894042969e+00
-8.715026893116314399e-01,-8.606842195538438878e-01,1.050293004471104741e+00,1.498145388886763275e-03,-3.280005371472083028e-03,5.851201253599128127e-03,1.916446328163146973e+00
-8.191447877920019494e-01,-8.602196683392203669e-01,1.042193842602915810e+00,1.826079869678507795e-03,7.881372981431307087e-03,-5.799768618454842310e-03,1.882291197776794434e+00
-1.890002028245404142e-01,-1.023191206228467154e+00,1.166639158055766901e+00,-3.574822235082632527e-01,-6.010012192575146274e-03,2.507344431041345304e-03,2.011964797973632812e+00
-7.398846584971328078e-01,-7.280388407830300501e-01,4.876754824077604855e-01,2.170261029135509261e-03,-7.431969675457225817e-04,1.797214532862480643e-04,1.221686840057373047e+00
-8.582457619358995204e-01,-8.653689115050414715e-01,1.063223618315699115e+00,4.310271462001000892e-03,-9.427638005597441251e-03,4.633295589903074253e-03,1.925141334533691406e+00
-3.594310737120213761e-01,-1.499956285539201684e+00,1.457192335350481649e+00,7.390880796266198483e-02,3.935099458003537415e-02,4.284555993393746737e-02,2.588312864303588867e+00
-8.961585249841593770e-01,-8.448434830838388310e-01,1.063290878598299516e+00,-2.871411692112184767e-04,-6.895207960969376541e-03,1.806064434256861653e-02,1.934592366218566895e+00
-9.117848954007042872e-01,-7.604199856385518430e-01,1.023100537794161990e+00,-3.886693805201273111e-02,-1.947490607858464806e-03,-2.098919528944668406e-02,1.865391135215759277e+00
-8.665564420953094649e-01,-8.465961469662937056e-01,8.734260343798643245e-01,1.614647932959027005e-02,-5.047332607466349652e-02,8.856694358364035347e-02,1.739299893379211426e+00
-8.361953308163763143e-01,-8.183114597195121354e-01,8.921518197464721744e-01,-2.959220964666747344e-03,9.415506525997107551e-03,4.314014028174024268e-02,1.721182584762573242e+00
-8.538064955192571359e-01,-8.175160807635847293e-01,9.028865293402887904e-01,-2.392081974072595915e-03,-6.668626150188517419e-03,5.003272731433654197e-02,1.741033196449279785e+00
-8.560330726147913349e-01,-8.439119978165877667e-01,1.014965418320048940e+00,-4.375780108643218295e-05,-1.740451118479524606e-02,-1.311646643780741252e-03,1.865212559700012207e+00
-8.632774543187101690e-01,-8.437494839063190977e-01,1.029110099973447490e+00,-1.246408237563065204e-03,5.324885570102658346e-03,1.185596034539781134e-04,1.882723331451416016e+00
-9.983603477718773211e-01,-8.472557699807276022e-01,9.485793767107952856e-01,-3.488888377348590281e-02,-5.719459414888372617e-02,8.475351214393833654e-02,1.885266661643981934e+00
-8.554944763295186938e-01,-8.576055950846431797e-01,1.056614009356880102e+00,-2.429178818757858106e-03,1.908523427425275372e-03,-7.746193372385295518e-03,1.913219451904296875e+00
-8.288639322824862266e-01,-7.626868169081645332e-01,5.637746189682858455e-01,-1.217787619425670688e-02,-7.835249063887257670e-02,9.433016434454187527e-02,1.377395153045654297e+00
-7.339318105759139454e-01,-8.113873161266038636e-01,1.030046606521304753e+00,7.851667129402002676e-02,-9.944717354325812234e-03,-2.872077808262878725e-03,1.809161424636840820e+00
-7.764923569243487034e-01,-7.866602721196425119e-01,6.621039615683217416e-01,-9.950442479147272520e-03,-2.672106976167103794e-03,-6.524463287766269458e-03,1.443861603736877441e+00
-3.673387880757280066e-01,-1.489936550849898289e+00,1.619413483998149550e+00,6.119788897056575860e-02,2.353288617623436052e-01,-2.091274914422002265e-03,2.759551048278808594e+00
-8.398702887843439990e-01,-7.973947244486137009e-01,1.085170352294263951e+00,7.126529509900346449e-02,8.551363281221330270e-03,2.547793315401945119e-02,1.908722519874572754e+00
-6.929519055287925999e-01,-8.791427985169372183e-01,1.049429494371092897e+00,5.452392541268205606e-02,2.955029763422245895e-02,-1.257664974751611722e-02,1.845802903175354004e+00
-8.231980823659541535e-01,-7.839216883949333692e-01,1.045755320833736901e+00,4.064882891933119941e-02,-3.280864673097352857e-02,-3.390444798145023086e-02,1.852770447731018066e+00
-7.879330831696418347e-01,-7.784603310278480626e-01,6.781888786485631426e-01,-3.853969701997133658e-03,-1.241057399214730642e-02,-3.054488129253666966e-03,1.461591482162475586e+00
-8.431307906884666359e-01,-8.626129925680379174e-01,1.059079628823185848e+00,-3.349929767646033028e-05,-7.425223503952663347e-03,-2.765463605330174997e-03,1.912075161933898926e+00
-8.607884461205785875e-01,-8.609956209360766222e-01,1.023149634181676593e+00,7.176700099568876848e-03,-1.032532516698955564e-02,9.304304681526716359e-03,1.884236454963684082e+00
-8.899832947485567525e-01,-6.738819809028659957e-01,1.044373738435303123e+00,1.332415999849292237e-02,-3.069535907739311315e-04,2.404116523837348390e-02,1.836487531661987305e+00
-8.305079997362836419e-01,-8.943715318077760656e-01,1.113427035594137138e+00,8.182567557188438756e-02,-5.217599005819598124e-03,-1.240021801491971972e-03,1.981736898422241211e+00
-8.504862305821553337e-01,-6.732390417126283833e-01,1.011683153539561841e+00,-2.315052818803747109e-02,-2.827396075693294872e-04,-5.154444156953742751e-03,1.780650138854980469e+00
-6.885366748170275164e-01,-8.797975738490317887e-01,1.065051322189052962e+00,7.390575391898281110e-02,5.090047380937634189e-03,-2.597315801022493514e-02,1.861593961715698242e+00
-5.241578300899381038e-01,-1.019937227890136189e+00,1.244284803735111966e+00,2.779778662286345181e-01,1.271053723205068653e-01,1.202454388657424877e-01,2.138598442077636719e+00
-5.825588383881138421e-01,-9.093519025699313696e-01,1.010430222428910119e+00,2.610831622550802839e-02,8.449120279478236628e-03,-5.190456653477666486e-03,1.779698133468627930e+00
-4.560922947849981313e-01,-9.468294828989367584e-01,8.647020637963314105e-01,2.804761267202969810e-01,1.761343751523433976e-01,1.300702761005242125e-01,1.735888481140136719e+00
-8.632362070591055314e-01,-8.696202093554104007e-01,1.032439547009939007e+00,4.673432722787910403e-04,1.479273753428102375e-03,5.182080764825532267e-03,1.898898959159851074e+00
-7.611772609702474046e-01,-9.797805105950693205e-01,1.099057811212247993e+00,1.546338943030887980e-01,6.290763218038139537e-02,-2.118606668191394191e-02,1.999967217445373535e+00
-8.660774157838005971e-01,-8.606106313077281911e-01,1.013681949195097243e+00,1.097943595054436117e-02,5.488772513897429220e-03,4.216395966818856263e-03,1.877166509628295898e+00
-8.576434976193871851e-01,-8.642179684815454177e-01,1.061538945165726666e+00,1.223634280665106310e-03,5.334149845141801863e-03,-5.269416641022553471e-03,1.922523140907287598e+00
-8.471121103071573843e-01,-8.736918405669864551e-01,1.057995653060497254e+00,1.259638329935441154e-03,-1.581586754808777390e-02,-9.246110150546816425e-03,1.918799400329589844e+00
-8.589743566579329803e-01,-8.630544124583652277e-01,9.906966531281546917e-01,-7.284537126992096309e-03,-1.440471710363497998e-02,-1.874818145252888507e-02,1.852210164070129395e+00
-7.219221355861618061e-01,-8.562714643566821104e-01,6.882809522328554586e-01,1.942531300913738143e-02,-1.250572902573663103e-01,-1.163203738467559478e-02,1.498211741447448730e+00
-6.828508462146485325e-01,-8.756744432856108373e-01,7.876596608648391840e-01,1.411731294829079997e-02,-5.260242906218872555e-02,-1.111697779082422913e-02,1.578733921051025391e+00
-8.409118938408436383e-01,-8.571547864654833759e-01,1.019873041003964698e+00,-4.668529884236230281e-04,-9.024569383619910224e-04,-8.521972246615392224e-03,1.869018435478210449e+00
-7.949838531866330049e-01,-9.968059865978479150e-01,1.045056379144527536e+00,6.534462025916483452e-02,2.751768731906028415e-02,-5.237026643800884312e-02,1.954776287078857422e+00
-7.441172238275466366e-01,-9.679613209557427211e-01,8.900450087245261876e-01,8.762041075969376203e-02,-4.374027189262885001e-02,-5.841140436865621677e-02,1.767879366874694824e+00
-7.584662020384655978e-01,-8.613952837249625460e-01,9.568709161128150509e-01,9.885653407547585411e-03,6.565754458361005436e-03,4.093242531498242093e-04,1.769168376922607422e+00
-8.250516689273913462e-01,-8.517119741012192380e-01,9.064874481430238440e-01,5.093272746439603954e-03,-7.187163670517716929e-02,-8.008259594432742823e-03,1.749533891677856445e+00
-7.694694595984733487e-01,-9.269248116451342945e-01,1.082491207877877004e+00,3.894590166825399186e-02,-1.770725152684867951e-02,6.591743519508215694e-03,1.936949372291564941e+00
-8.612764682053599685e-01,-8.621282306532127571e-01,1.031171345706031417e+00,8.854340243246848485e-03,-6.074372653516737879e-03,6.930997953389444154e-03,1.893003225326538086e+00
-8.633002995470818730e-01,-8.561981909244885669e-01,1.048835327244446836e+00,2.694169414436429092e-05,-1.925073746619672410e-04,-5.174254996501918835e-03,1.908615589141845703e+00
-8.715482264345879582e-01,-6.737726254107908597e-01,1.045419633990007924e+00,9.062168443981302723e-02,1.669308614594563339e-02,1.431682851189718629e-03,1.833093166351318359e+00
-8.596575516988276267e-01,-8.582187658755906501e-01,1.028982564061852178e+00,-3.377607297278505984e-03,-1.214463244534340087e-03,1.431538954147719379e-03,1.887933015823364258e+00
-8.614003194542975139e-01,-8.532877744464346659e-01,1.077174512762121728e+00,5.970015782129493159e-02,3.327946039927940497e-02,2.194963985915670407e-02,1.938523054122924805e+00
-8.307919210320762193e-01,-8.632416939365752384e-01,1.007502825535117275e+00,-6.578972580467401347e-03,5.131160668961837808e-04,3.297181584345801938e-03,1.854776501655578613e+00
-7.792969348366384219e-01,-8.190271168110072608e-01,1.033762699771716420e+00,3.428386291329841434e-02,3.300675149122654205e-03,1.261259736138774755e-02,1.834348082542419434e+00
-8.412918865797536228e-01,-8.256692018593714266e-01,1.042266431857175712e+00,-4.225962479954048826e-04,-1.053845354908356305e-02,-3.494882604570128271e-03,1.875894427299499512e+00
-8.030332717816583976e-01,-8.294594964794983483e-01,1.045490029063163462e+00,-5.146420017883521214e-02,4.350307934631174323e-02,-8.488095564033465087e-03,1.865589857101440430e+00
-8.152806726016463834e-01,-7.138442472471803191e-01,1.120775494943296646e+00,3.115323705357526118e-01,8.360171283911789486e-02,3.554267760932143527e-02,1.969297051429748535e+00
-6.675871633267038696e-01,-7.024871460084518571e-01,9.771473206035434789e-01,1.598756600719721532e-01,-5.781559431962014902e-04,3.077637709321583929e-03,1.685372591018676758e+00
-8.554499737061526110e-01,-7.296187796595979824e-01,1.033460773026593893e+00,-1.700864608247382170e-02,-1.198081874690957484e-02,-9.102614433961800713e-03,1.829666733741760254e+00
-8.049602319825981400e-01,-7.728958408570395511e-01,1.032388429780697559e+00,5.629954329167759924e-02,3.215670859239089935e-02,3.752885178903609537e-02,1.826143741607666016e+00
-7.344875043410679094e-01,-8.043181897295507143e-01,1.018591813226177534e+00,6.842240069390159718e-02,3.616679587906938831e-02,3.775901599569152917e-02,1.795223712921142578e+00
-8.007454107973820401e-01,-7.400137682520322446e-01,1.038100978673098584e+00,6.175608869569633452e-02,-3.185682424999108225e-02,-2.870556089855116552e-02,1.813925623893737793e+00
-8.390865833998155665e-01,-9.047412155827898594e-01,1.009809645597833372e+00,-9.288229170345585137e-03,-9.599536178819428542e-03,1.803501640829600558e-02,1.882983684539794922e+00
-9.035703513256616581e-01,-5.726168990374852497e-01,1.005189534514353111e+00,2.678817712156512931e-02,4.158669858662902320e-03,-1.139980981359436929e-02,1.767421364784240723e+00
-7.416431223374855275e-01,-9.381148678494509729e-01,1.077156773431829917e+00,-1.453212626498164711e-02,-4.005978579814604285e-02,1.793827720780291624e-02,1.926237344741821289e+00
-6.483012072560752070e-01,-8.758932659725684466e-01,9.095415542983253943e-01,-1.036240256182800884e-01,-9.916691479287394542e-03,-4.783781993999361090e-03,1.692868113517761230e+00
-7.485553134331512926e-01,-8.444977517611643725e-01,8.531180243516194306e-01,4.885350989326459753e-02,-4.158845854831355973e-04,-3.877620032762508356e-02,1.655264973640441895e+00
-8.341348314152661203e-01,-8.157247656678670023e-01,8.821683913367543983e-01,8.351211598713564714e-04,-8.134181622815475285e-03,4.909088318585395905e-02,1.709347486495971680e+00
-8.587064963556173547e-01,-8.552042634444771974e-01,1.013654578677086970e+00,5.580422890934064184e-03,2.207974118108271475e-02,5.235053403636058533e-03,1.871050238609313965e+00
-6.649793240688633977e-01,-9.024186872128932002e-01,1.038541292671466332e+00,-7.791766954109034804e-02,8.009167133615759104e-02,-1.303286703207915710e-02,1.844128489494323730e+00
-8.769596818015290562e-01,-8.569756848922167602e-01,1.021713559211645084e+00,-1.382366980855851291e-03,5.822006858774522210e-03,-2.572217882510590119e-03,1.888794183731079102e+00
-6.744446651592646003e-01,-9.738599925942855728e-01,1.072130500856774971e+00,-1.283633711587238435e-02,7.898153205350866291e-02,-6.992525839362095930e-02,1.922759175300598145e+00
-7.945604603890222828e-01,-7.959847825660500975e-01,1.029722712987961586e+00,-1.475102894227833458e-02,-5.808985988156953849e-03,1.455772690351395116e-02,1.825376510620117188e+00
-8.412102085794059825e-01,-8.684039586689632495e-01,9.963193447303597683e-01,9.815451962585845444e-03,-4.104026200006894061e-03,8.850500662999690599e-03,1.851431369781494141e+00
-6.589788680263222176e-01,-9.957868402144506303e-01,1.123609034550196561e+00,-1.870597978845468107e-02,-1.687139466437409877e-02,8.642575917509987687e-03,1.973214864730834961e+00
-7.670313055697552951e-01,-9.166214640734823282e-01,1.018689337570870102e+00,-8.832024845953712414e-03,1.578817326524744463e-02,-2.177959009507264912e-02,1.865665197372436523e+00
-7.894535907674893327e-01,-7.730200099467758879e-01,1.019585634116522366e+00,8.675435129919148794e-03,-4.511675088569030295e-03,5.307515978422700127e-03,1.800981760025024414e+00
-7.413245159241869109e-01,-8.873412761603128862e-01,1.106016893711549098e+00,-6.683543970301687731e-02,-1.511360191292449896e-02,4.655848943645446436e-02,1.929850578308105469e+00
-6.677570868716813379e-01,-8.473579830644215605e-01,1.022371874326858610e+00,-2.140841581919555175e-02,5.880106844116249516e-04,-1.382025722889363914e-02,1.787257671356201172e+00
-7.951515301667165803e-01,-7.883004667072939231e-01,1.081444933097744920e+00,-1.408679925351676299e-01,-5.485645199168899533e-02,5.149725149083687198e-02,1.893494009971618652e+00
-8.174235349137982665e-01,-7.328743694360164707e-01,1.082611552991856296e+00,-2.712652326150780113e-01,-1.111250955942909846e-01,2.240240168863269488e-02,1.927677869796752930e+00
-7.479067045993399443e-01,-8.927590617070163548e-01,1.044273019338987529e+00,6.964367322145170736e-03,2.401559179329046737e-02,1.261589438387365238e-02,1.869450449943542480e+00
-8.784918064627477152e-01,-8.355838936282381502e-01,9.873744935787809318e-01,-1.084070560429271392e-02,1.324367780689446328e-02,1.013805499042053429e-02,1.845108389854431152e+00
-8.703490008841299197e-01,-8.652213003659813273e-01,1.037860041900159347e+00,3.760949637123002769e-03,2.235593493570274027e-04,8.107041408404196473e-03,1.905713319778442383e+00
-8.687155932828631855e-01,-8.569908614694153881e-01,1.031167200123020544e+00,-2.135761888461114918e-03,9.935295696977312907e-03,-4.665457164563634879e-03,1.894146680831909180e+00
-8.277101440373347829e-01,-8.548695589634309755e-01,9.058729586621978580e-01,2.313905345296174681e-03,2.104979832492978077e-03,3.400534413215636903e-02,1.748321890830993652e+00
-1.227233949563053095e+00,-1.292141817080833199e+00,5.836123153171017819e-01,3.076247085733122000e-02,-2.712105544432476603e-02,8.743614269319745572e-03,1.845586776733398438e+00
-8.196237462534412543e-01,-8.085954853363597206e-01,1.043600277324834291e+00,-6.558142758026749321e-03,2.553649776541713160e-03,4.938716775655944101e-03,1.857794165611267090e+00
-7.180559567145682331e-01,-9.043627456202655290e-01,1.050294343030631961e+00,-2.300409046745785502e-01,-3.314048609335798826e-03,-3.844489996275567839e-02,1.911662101745605469e+00
-5.676421164904652539e-01,-7.042905800981055231e-01,1.001735649937098627e+00,-2.822742062690016263e-01,2.072469783545561120e-02,-2.174085101844778004e-02,1.714005589485168457e+00
-6.942521538945795045e-01,-8.615370981273712259e-01,1.067593266686684306e+00,-1.143524795255009552e-01,-5.036788945491531277e-02,5.585228543744510249e-02,1.866283059120178223e+00
-8.260168311842354116e-01,-8.421424903670191586e-01,8.601767090326164489e-01,-7.330020813548196283e-03,-3.674423471422216380e-03,-3.794092963833820692e-02,1.695647358894348145e+00
-8.617850400062927463e-01,-8.544951529677595747e-01,1.052278258245968656e+00,-1.522573318541504961e-03,4.011214747521858574e-03,-8.560021150733506529e-03,1.910500764846801758e+00
-7.707641363860904260e-01,-7.915493343801979220e-01,4.413067607778354828e-01,-1.515530913807369880e-02,1.198365370784132064e-02,-7.981641865389342907e-03,1.223132014274597168e+00
-7.721867827058879197e-01,-8.030740466634945784e-01,5.536558645683887780e-01,-3.662545247983733931e-03,7.802780891223964031e-03,-1.351032604567644624e-01,1.361890554428100586e+00
-1.116734637140704978e+00,-7.809108874175919590e-01,1.193170435640910076e+00,7.305494442310335457e-02,5.849730926473424575e-02,3.684574449148105002e-02,2.168655633926391602e+00
-9.655583503962186231e-01,-5.139798087896894074e-01,1.035700116079353084e+00,1.186785403105742182e-01,-6.123737913787496295e-02,-1.445000014019107507e-02,1.832856655120849609e+00
-1.081639052975749582e+00,-6.340830929951923878e-01,1.224895331762326123e+00,1.419906568820087089e-01,-3.262268647358702867e-02,-6.915567240887371403e-02,2.136850118637084961e+00
-7.540588978696920464e-01,-7.721064548521027193e-01,1.002545098248300404e+00,4.940734554547069300e-03,6.878223930527456670e-04,-4.581961986346926724e-03,1.765735983848571777e+00
-1.014629342839226123e+00,-6.675523804897408597e-01,1.034606481217116292e+00,1.100347152301368175e-01,9.165119662257770194e-02,-9.856207355184896934e-02,1.923344373703002930e+00
-8.563732775252504981e-01,-8.635349040964901413e-01,1.066044818340564859e+00,-2.077331224920194851e-03,-2.425698594929159325e-03,-3.755372101245165340e-03,1.926027774810791016e+00
-1.281491279887071233e+00,-2.739284277279606661e-01,9.690918600584284004e-01,2.212124955627089995e-01,1.794731854754816058e-01,5.883221778434536559e-03,2.014011859893798828e+00
-1.079101122262694279e+00,-1.534902776775896593e-01,7.511025717282594494e-01,4.616102389700969810e-02,-1.051230072245203095e-01,7.891534808062619644e-02,1.603300571441650391e+00
-9.025321014957756738e-01,-2.609977920406024721e-01,1.121993164996351044e+00,2.810646979990330530e-01,1.112459680491029168e-01,1.503319952733399301e-01,1.885042309761047363e+00
-9.667709014452923189e-01,-5.208678084464065661e-01,1.036223705524840666e+00,2.729674273086766037e-02,5.970686650587008967e-04,1.025935122690610143e-02,1.822149157524108887e+00
-1.052514447188812152e+00,-4.939985444829545491e-01,1.085422050843453556e+00,3.231078177286918728e-03,4.152756165541114652e-02,5.945668859071179257e-02,1.924695134162902832e+00
-1.036576390527827574e+00,-4.019253909044503970e-01,1.097262861384496579e+00,6.954261199507077301e-03,-1.526999461038067857e-02,-1.213711541194427285e-01,1.909671783447265625e+00
-8.617018890444413382e-01,-8.642307834997996485e-01,1.058739794337380191e+00,3.065045217242555724e-03,5.274687246229563774e-03,3.756950091922272097e-03,1.921747446060180664e+00
-8.491294035868014456e-01,-8.399958542706138509e-01,1.063116836376805985e+00,-4.934276927405737735e-03,8.661590047067811065e-04,4.485756765459225116e-03,1.907731413841247559e+00
-8.836365231357989902e-01,-8.260576615923580501e-01,8.758770530133141996e-01,-3.210406027416055821e-03,6.761733599994748656e-02,-6.562812011136544277e-02,1.739126443862915039e+00
-8.970512300734685418e-01,-8.529366319088372839e-01,1.103822586593515398e+00,-4.208278269634503632e-02,-8.991637273729341517e-03,-2.961719838680939611e-03,1.980594873428344727e+00
-8.589622932552550827e-01,-8.588318356735149539e-01,1.022041088898964833e+00,7.268992587363503483e-03,-4.196286504991091071e-03,1.200637854425767349e-02,1.881109237670898438e+00
-8.490835956862889944e-01,-8.586816106767094503e-01,1.065681578325233358e+00,-4.958979700574056744e-03,8.704931447115915209e-04,-9.852589440744432409e-03,1.919677853584289551e+00
-8.668796161603636863e-01,-8.678575204566475465e-01,1.011316321355453907e+00,-3.642991550634555251e-03,5.315241111398068784e-03,-2.352910380599710846e-02,1.879160165786743164e+00
-8.241110473159709571e-01,-8.790865442992021883e-01,1.048055734937136441e+00,-2.719301362621802734e-03,1.936995387448846653e-02,-8.072728438891511177e-03,1.900604486465454102e+00
-8.479807963879785193e-01,-8.261257577976807154e-01,8.966706844258389708e-01,4.271957453508046058e-03,4.410829939411000516e-02,4.156735913499798318e-03,1.735540270805358887e+00
-8.673763736153734527e-01,-8.413102719314884403e-01,1.050771111505579780e+00,-1.187379916297056585e-03,-1.073330432136071141e-02,2.115582368613387262e-02,1.905692338943481445e+00
-8.699103716410486742e-01,-8.634498835904299563e-01,9.997151784196176560e-01,8.974260284238236643e-03,-2.275893240304679294e-02,-1.419495306751248666e-02,1.867046475410461426e+00
-8.745778389541388753e-01,-7.582892647716309442e-01,9.810669386619594867e-01,-2.783577745044536755e-02,-1.400525657822641531e-02,4.569030693384778380e-03,1.801145672798156738e+00
-8.267297392086800922e-01,-8.701616717781089916e-01,8.876139406919616448e-01,1.302771375445289058e-02,1.011565810980988474e-02,-7.719129277161365654e-02,1.741840839385986328e+00
-8.580828831235294274e-01,-8.358151508785025552e-01,9.822723556922781096e-01,-2.542280024146031155e-03,2.453978629539042833e-02,-1.664797942398371644e-02,1.830049276351928711e+00
-8.425525420836527113e-01,-8.571543910434455960e-01,1.056314356812214639e+00,-5.325814991910292513e-03,5.502785185461857732e-04,-1.318632805758652646e-02,1.906369090080261230e+00
-8.670898957879991098e-01,-8.621695019758303102e-01,1.061880075834104264e+00,-2.638212336655450067e-03,2.392689535584034514e-03,2.300353692893824555e-03,1.926528453826904297e+00
-8.471518051214659284e-01,-8.285966134301655517e-01,7.610993338021965204e-01,-4.892656534856882310e-03,-4.887744878125409309e-02,-1.469229045883661822e-01,1.621410608291625977e+00
-8.653951246745736903e-01,-8.632730190311849183e-01,1.065750833634484751e+00,-1.848841098689204805e-04,-6.237502527930209551e-04,-3.477861553063997437e-03,1.930095553398132324e+00
-8.213522124290750792e-01,-7.421721472122416730e-01,5.818356073203927448e-01,1.109185869883949974e-02,5.424505910495440800e-03,-7.801377171007799205e-02,1.372157692909240723e+00
-8.774917563458626280e-01,-8.531993835995823616e-01,8.897114425629464307e-01,1.155736767859612407e-01,-6.446425943800129787e-02,-1.048262773749152887e-01,1.779374122619628906e+00
-9.235390516298513930e-01,-7.902772927357495369e-01,8.271742791945400075e-01,8.311135680981449059e-02,-1.473480453434960202e-01,-1.249696985496505652e-01,1.726893663406372070e+00
-9.278209824974671394e-01,-8.383898996935392756e-01,1.076792256664479863e+00,9.920444846836832045e-03,5.373587006301293323e-02,-4.513753192998477132e-02,1.965265274047851562e+00
-1.032811717174902721e+00,-6.728337229887566551e-01,8.286907930230937858e-01,1.193111391925900065e-02,1.249656541296798873e-01,-3.932378087909233627e-02,1.725280046463012695e+00
-8.992486482561747874e-01,-8.356146090971905416e-01,1.087360944583078526e+00,4.701172489386886560e-02,-2.310207610416396481e-02,-5.982337671650338889e-02,1.960412979125976562e+00
-8.738454611677959338e-01,-8.562471925497335823e-01,1.052820338833005964e+00,1.004138730720098051e-02,2.232184878834563013e-02,-3.937693674761681348e-03,1.918407797813415527e+00
-8.676199234694654816e-01,-8.604102440379428618e-01,1.049018872183364648e+00,-1.239439365891086258e-03,-1.535083978994554715e-03,-5.887243379722893223e-03,1.913074374198913574e+00
-1.735827920404734992e-01,-1.072463936232227910e+00,1.158168248794498423e+00,2.087910086969613777e-01,7.092390565892400280e-03,1.794165262498883975e-04,1.977262258529663086e+00
-7.647113561709405483e-01,-7.720645330392765793e-01,6.328541439771636634e-01,-9.143982496060257259e-03,5.642465576612432782e-02,-9.237155720680897270e-03,1.404840946197509766e+00
-7.488895854274761898e-01,-9.221291391396937431e-01,1.057186427617481161e+00,-9.657668740592843240e-04,2.513634370750898739e-02,-2.541681351484797926e-03,1.899137735366821289e+00
-8.661116798443231346e-01,-8.315609736345214165e-01,1.035911967522615607e+00,7.706813348482318381e-03,-5.272467375975251232e-03,-1.451707275299351889e-02,1.885222911834716797e+00
-8.788824110199642270e-01,-7.361768250211525588e-01,1.020945185407965194e+00,-8.477806834009353476e-02,-8.162155497944472912e-03,3.701685872152630369e-02,1.839691877365112305e+00
-8.107479078188671862e-01,-7.551685535483504408e-01,8.802223673424294237e-01,-1.090461916747950816e-01,3.751557507998427854e-02,-7.246116532937502130e-02,1.680515885353088379e+00
-8.823366754793307010e-01,-7.535821244131144514e-01,1.039026223925087811e+00,-2.867138687659765914e-02,-1.288036110241460967e-02,-3.733539702318893622e-02,1.862249851226806641e+00
-1.022751162170726591e+00,-5.897072016105624481e-01,1.176376990987874516e+00,-1.624761283558638914e-01,-5.073335378961090630e-02,7.684490574316402145e-02,2.043527603149414062e+00
-8.713660167679972979e-01,-8.584663327752219963e-01,1.028599881644014280e+00,-1.293230504184915636e-03,5.802124984264350228e-03,-7.012320231625807782e-04,1.893577337265014648e+00
-7.950667392895094387e-01,-7.700234741792804094e-01,6.401268875919258194e-01,-2.313896829014778448e-03,4.269578722808188564e-02,-7.839422442634353186e-03,1.424828171730041504e+00
-9.590934055451931783e-01,-5.418375943003682638e-01,1.041274383982620177e+00,-6.874594419624653618e-02,8.671740329601395486e-03,-4.655796100988775221e-02,1.833525300025939941e+00
-9.699013658602780863e-01,-6.534576025423559642e-01,1.070199630928608814e+00,-1.139715047622900101e-01,2.187894136816208313e-02,8.428484521638166665e-03,1.912377834320068359e+00
-8.144574694593637032e-01,-7.967249677814028930e-01,7.398423050810731816e-01,1.824696551525498232e-03,5.849101542369324752e-02,-1.723489520527176494e-02,1.549117565155029297e+00
-8.423136670232524992e-01,-7.899660461196859051e-01,1.098734195611880127e+00,-1.375717325318260020e-01,-5.010507544020507964e-02,-1.119973080397837148e-02,1.932222485542297363e+00
-9.761228854975693148e-01,-7.304875009419247167e-01,1.094049299916399987e+00,-9.665444795479571916e-02,1.518982401086592382e-02,1.375723428740004972e-01,1.980641007423400879e+00
-8.487072171447952451e-01,-8.607149344155854420e-01,1.057739400253137951e+00,1.347505089174694248e-03,1.138929840407898984e-02,8.639697159000916601e-03,1.912640452384948730e+00
-8.495006888368095144e-01,-8.690142538568473851e-01,9.901179876145613790e-01,5.084415593587472693e-03,-2.577788715209201886e-03,5.906427289740395423e-03,1.849507331848144531e+00
-8.013578856576099030e-01,-8.546530768529891908e-01,8.456499434072188848e-01,4.611739228045786797e-04,-7.522272704405598420e-02,5.352825578997823068e-03,1.679379224777221680e+00
-8.106494578505332171e-01,-7.969287193781091627e-01,7.324397855068014440e-01,-2.374409475280042821e-03,5.695459274047475623e-02,2.260623157761582416e-02,1.539942145347595215e+00
-8.250537753543221164e-01,-8.331853367534988175e-01,8.939547171108126467e-01,-5.703018983967484551e-03,-3.956151233099940850e-02,-8.491275418152395907e-03,1.724541664123535156e+00
-8.751551848801228939e-01,-8.535294917942060078e-01,1.018813415198448036e+00,-1.381302463840000314e-03,-3.570592590903623378e-03,-2.305222765145342051e-03,1.883264780044555664e+00
-7.923297746079251969e-01,-1.075117691301336498e+00,1.083489962393691108e+00,-6.845856156724895725e-02,-1.062375592047665185e-01,1.103150581376223377e-01,2.052694559097290039e+00
-8.463652900997459261e-01,-8.239872492129373116e-01,8.755656044085464718e-01,-9.804468198722333938e-03,-4.316905225170487512e-03,-5.299232998373881905e-03,1.710976839065551758e+00
-8.653164821215095781e-01,-8.478485997933793428e-01,8.374431237098844960e-01,-1.478368193866896538e-02,-3.191397902824739952e-02,-4.721403505483189045e-02,1.697159528732299805e+00
-7.344138814653378144e-01,-8.711712505538039553e-01,9.414081503616589242e-01,-5.626961830913182645e-03,-2.140984172323550250e-04,-8.232667354646752006e-03,1.748302459716796875e+00
-7.029667875651768316e-01,-8.075303110731940626e-01,1.006560651672271378e+00,-3.901826941378919861e-02,1.991744644600924527e-02,-1.417024659174573493e-02,1.765936493873596191e+00
-7.853024864935304050e-01,-7.963574358890442850e-01,1.035911402948652693e+00,-3.579429375699754584e-02,2.227226555633983127e-02,-2.775089627778089610e-02,1.828856945037841797e+00
-8.155417474115835841e-01,-8.443970116365421275e-01,1.045582650513509959e+00,-1.290048985849570097e-02,2.856395038931302741e-02,-2.840948740857780763e-02,1.877148985862731934e+00
-8.359386421086421048e-01,-7.942632461210293870e-01,1.052420132251980611e+00,-2.467780336331296120e-02,2.528459316459377021e-02,-2.850861658520413566e-02,1.869524240493774414e+00
-8.122121743357680890e-01,-7.476001155148206401e-01,1.009228840575034036e+00,-5.581947036971787041e-02,-3.877029194700331097e-03,-7.484634329069416239e-03,1.792678356170654297e+00
-8.630404940123307389e-01,-7.727322721082809931e-01,8.900725553141646262e-01,-4.965562776781608234e-02,-3.319120099446008082e-02,1.462094489246463895e-02,1.713062644004821777e+00
-2.154931089574629033e-01,-1.224605380752502803e+00,1.333478899841831877e+00,1.520651102274640232e-01,2.522143054910757493e-02,-7.609914543025271538e-02,2.251524209976196289e+00
-8.638770736899465952e-01,-8.565517787424533624e-01,1.068402937940312381e+00,1.175884536494907831e-03,6.799078426518887983e-04,5.017189462638065251e-04,1.928629398345947266e+00
-2.598315230461071268e-01,-1.183411701930745963e+00,1.356466081878602070e+00,2.522441052084987145e-01,-3.079301302564143028e-01,-3.705693497503806388e-02,2.331879615783691406e+00
-8.296507644132007364e-01,-8.912686001267419167e-01,1.041602708707351388e+00,3.621202528292196895e-03,2.324891814906292903e-02,-9.263507840250900793e-03,1.903314828872680664e+00
-8.080001516830834785e-01,-8.614903597385040745e-01,1.058271349165197384e+00,-1.713235909064962051e-04,1.238709497507839256e-02,2.009272650107240751e-02,1.894024610519409180e+00
-3.432160210828127389e-01,-1.133156335575875362e+00,1.750966354319511975e+00,2.808455042714309013e-01,-4.331953579129441123e-02,-1.596986841232635457e-01,2.642470121383666992e+00
-2.418000938758565754e-01,-1.395198327382121573e+00,1.514963742298423011e+00,1.333272732263018068e-01,-2.565277728486994868e-01,-1.486957751633461583e-02,2.587316513061523438e+00
-7.504081996521994036e-01,-8.753285343836781918e-01,5.965414148891529100e-01,5.847555868926483658e-02,1.276869405325170848e-01,7.533843126266744072e-02,1.440255999565124512e+00
-8.501992250529069040e-01,-4.942831868045399202e-01,7.068096418176873508e-01,3.115403520085714417e-01,5.501620242374129222e-02,-1.086713103740289399e-01,1.527242422103881836e+00
-8.932371690444599333e-01,-5.790614733392664970e-01,1.227367682498433643e+00,2.802072689743581035e-01,-1.271663914830543918e-01,-8.058675419528041339e-02,2.057419300079345703e+00
-9.274761107772065971e-01,-6.018620720755423203e-01,9.608716442449924955e-01,6.145281033601259629e-02,-1.468955939559245076e-02,2.474063515520878026e-02,1.752376198768615723e+00
-8.617211932733324087e-01,-8.653178002833071814e-01,1.060104410031961875e+00,2.978866882968371314e-03,-8.552954188162645765e-05,-4.112372242377579368e-03,1.923646569252014160e+00
-1.052614590367610514e+00,-6.701960014517953645e-01,1.109969727317100086e+00,1.224886569285413285e-01,5.353188187547631982e-03,-4.407217331075907740e-02,2.011697292327880859e+00
-6.456175895142239884e-01,-1.013966687816507450e+00,1.095114184784888645e+00,5.905475783631987385e-02,2.117875680224798676e-02,-7.901162034508840692e-02,1.958969593048095703e+00
-1.239429614912605393e+00,-2.733144155667171504e-01,1.014181234102528695e+00,1.243806741678350758e-01,3.382686628903570220e-02,-2.399261890884324955e-01,2.014306545257568359e+00
-6.974332211434429718e-01,-8.189735468182303135e-01,1.023731615851779964e+00,-7.754917882369311011e-02,-1.821116617198854232e-02,1.195833648700282345e-02,1.790485143661499023e+00
-8.003284512089484659e-01,-8.027399989329340180e-01,7.258663896850661157e-01,1.389726621830991195e-02,-8.506236289875426099e-03,-7.015426774946301181e-02,1.532487630844116211e+00
-4.507304561888451633e-01,-9.536145562468703041e-01,1.129740624922441983e+00,2.070835796291673747e-01,-6.348339120547019654e-02,-5.189436495067557137e-02,1.922080993652343750e+00
-8.656155230560867997e-01,-8.635964128596625988e-01,1.063482012886938888e+00,2.239274990697864755e-03,-3.710397526282136621e-03,2.021232856687976177e-03,1.928106546401977539e+00
-6.791712071889810520e-01,-7.238898387633631026e-01,1.092416375654750471e+00,2.300286330739307328e-01,1.681020173427093256e-02,3.818615963905613864e-02,1.839485526084899902e+00
-8.648130845759446350e-01,-8.575434641572988737e-01,1.030673984359171236e+00,4.433070181160178765e-03,1.848215935024170344e-03,5.460355326083876117e-03,1.891904711723327637e+00
-8.496501835629405308e-01,-8.390205305574743866e-01,9.256304199681113509e-01,1.248720417211103551e-02,-8.093699022546661792e-03,6.121708033185875933e-03,1.770209074020385742e+00
-4.149719015504896857e-01,-1.077046286036561717e+00,1.123537256307866272e+00,2.433431141253291630e-01,-3.357066498951948724e-02,1.041571457191772625e-02,2.001328229904174805e+00
-6.265024148203570675e-01,-8.736591895537616503e-01,1.037933408810214564e+00,1.264698747241897459e-01,1.596734829000801686e-02,-8.541177799339135304e-03,1.814325571060180664e+00
-8.631804172848983603e-01,-8.489003798533272249e-01,1.058582584836283313e+00,1.672945465954620925e-03,-1.235199264189024843e-02,-3.929249469340979385e-03,1.914796710014343262e+00
-7.047906851514775806e-01,-7.834029804935007668e-01,1.260098443223622633e+00,2.586457753722390396e-01,-8.182846875684331167e-03,-6.397903360644194293e-02,2.057816267013549805e+00
-6.377777768966743643e-01,-9.469674567246614272e-01,1.161930927209222419e+00,2.453904182418988333e-01,3.125965513113682787e-02,-7.251035904826828860e-02,2.022462606430053711e+00
-8.396793300076881295e-01,-8.285522934966146336e-01,8.611144154875480794e-01,1.242652444445970644e-02,-1.380210452286068264e-02,1.040634537042196307e-02,1.695658564567565918e+00
-9.693202826861752053e-01,-7.475873317626430259e-01,1.111919172534735045e+00,-3.903067345482917616e-02,1.274276770815824938e-02,1.686271741833409842e-03,1.980987071990966797e+00
-8.786258374457653897e-01,-5.248887704998588255e-01,2.274811578544154722e-01,1.499810005974156479e-01,-1.201871727982336546e-01,-1.409215210207860336e-01,1.061944365501403809e+00
-1.026710422662096001e+00,-3.476758807459949807e-01,8.959263147026752527e-01,1.118981248738786238e-01,1.176928828521940119e-02,5.001058383627635801e-02,1.702223658561706543e+00
-1.089414742171355144e+00,-6.017462974688345678e-01,6.809284667035140348e-01,1.472587276282935793e-02,1.478872073778459140e-01,5.207673515529247232e-03,1.604661583900451660e+00
-8.599918628746253679e-01,-8.708855952111819176e-01,1.030895655856555404e+00,8.460914950954575436e-03,-7.874196732660094025e-03,6.688972038323121212e-03,1.896498918533325195e+00
-1.094330466995790507e+00,-4.774286609507003565e-01,9.853318757106215298e-01,2.424552310386741683e-01,5.216879483585144806e-02,-1.909943154547670829e-01,1.927840948104858398e+00
-8.480439985946890413e-01,-8.559639484493520856e-01,7.359855546175235741e-01,-9.379265321234658143e-03,-3.918197685561369131e-02,-1.712199522162757559e-01,1.616965174674987793e+00
-8.629424821342583929e-01,-8.581596258213639583e-01,1.057400966745684734e+00,1.355451972163881436e-03,2.642121216946454604e-03,-1.033125894555655651e-03,1.917964220046997070e+00
-8.426400440830664751e-01,-8.235116824780198685e-01,9.544959232777485703e-01,6.548484343664519834e-03,5.970961894030927739e-03,-2.001692125730804642e-02,1.788050651550292969e+00
-8.485149584959350566e-01,-8.646061277275417511e-01,9.746697568316546878e-01,-2.790800090842697045e-03,-6.369119286890963585e-03,-3.291771921731390192e-03,1.831331849098205566e+00
-9.633459113866127410e-01,-7.125486919392096663e-01,9.748560845630853677e-01,1.072104411628992532e-01,-5.383456236152968366e-02,1.600998187566094258e-02,1.837763905525207520e+00
-8.030979487881479972e-01,-8.890411830351836464e-01,8.800105226414125514e-01,2.957188708812961628e-02,3.539010002687471151e-02,-4.995515491864387092e-02,1.731692671775817871e+00
-1.032100249615166776e+00,-7.401438847080452632e-01,9.213554259821474801e-01,1.063805480438875014e-03,1.519419502610543787e-02,-1.780404134447360065e-01,1.851133465766906738e+00
-8.216613418088610787e-01,-8.301988272013337555e-01,9.573670466193446860e-01,2.274790416201634413e-02,-3.150766892751804410e-02,-1.802125540125622954e-02,1.784855246543884277e+00
-7.381229300581447772e-01,-7.178268771092892742e-01,9.838072938920414678e-01,-6.321485379777933011e-02,-1.070446399103651674e-03,4.257127709893581725e-03,1.715387225151062012e+00
-6.963172327914826099e-01,-7.684608881956170867e-01,9.851067412371727894e-01,-1.794168544712156088e-01,8.848168507499776583e-03,-2.101575272897087537e-02,1.746947765350341797e+00
-8.155752744762310158e-01,-5.805714071084875361e-01,9.549560672611487888e-01,-1.768136867767146070e-01,-6.307849304028676071e-04,-7.327501501861453156e-05,1.693433403968811035e+00
-7.813197904190656295e-01,-6.750327382705506585e-01,1.121285350966575001e+00,-2.145407724269780825e-01,-4.266352010395414729e-02,1.107111819341365377e-01,1.899814605712890625e+00
-7.317114597598740611e-01,-6.246360791527182377e-01,1.158688720029831032e+00,-2.669316195572897232e-01,-7.854065230417436871e-02,7.405316174006651431e-02,1.905617356300354004e+00
-8.236073872442130073e-01,-7.350163603666296508e-01,1.035558173130992854e+00,-6.104916863791956527e-02,8.897793526306754450e-03,-1.213390755104714648e-02,1.819752693176269531e+00
-7.794709349716969493e-01,-8.049792557252030134e-01,1.095552772095456096e+00,-2.185142166730352498e-01,9.426125063709769880e-02,1.595003885721879566e-02,1.932577967643737793e+00
-7.927016926701145882e-01,-7.002445837937694151e-01,1.015406841537884297e+00,-1.811612298297588242e-01,2.542027021124156766e-02,-6.806392877215870774e-03,1.791973233222961426e+00
-7.110039225396485030e-01,-7.970730275110414764e-01,1.031869147545051213e+00,-8.431710022676082439e-02,9.352021663938404547e-03,-4.117042809715510364e-03,1.793505907058715820e+00
-7.824774095059032764e-01,-6.818853422305035661e-01,1.042716978104519798e+00,-1.076459643084780177e-01,-5.087066491435607990e-02,5.718096102879925008e-02,1.791699886322021484e+00
-4.366591203677737121e-01,-1.104912310787758312e+00,1.110362471285493813e+00,1.881169568777232371e-03,8.546276962722318404e-02,1.957409060216118088e-02,1.974009156227111816e+00
-6.420799841779198935e-01,-1.085648823536722984e+00,1.263840797563664964e+00,-3.037461302549045519e-02,7.207682968798596879e-02,4.880238456234544352e-03,2.166360855102539062e+00
-3.597576094304307803e-01,-1.021413502671739915e+00,1.114529474833953815e+00,-5.832637878952099536e-02,-1.059240836474246994e-01,4.073483901849835748e-02,1.906731605529785156e+00
-3.438735243089767746e-01,-1.424648427171708587e+00,8.650602772723192668e-01,1.036446452134806295e-01,-1.901272852235088295e-01,-9.060982261817156214e-02,2.025211811065673828e+00
-8.661336052762665938e-01,-8.651388574108016538e-01,1.074154417870530454e+00,7.124604531358491751e-05,-1.175057334346016336e-03,1.421654483280494459e-03,1.939793467521667480e+00
-4.660350146864120080e-01,-1.063596482831417056e+00,1.290823992014653365e+00,1.606198726377034702e-01,-9.131808827508385018e-02,-1.311775324905751494e-01,2.155806303024291992e+00
-3.590457237751571440e-01,-1.031688334362738768e+00,7.024156627767723649e-01,1.864361559892724618e-01,-2.111112174382044904e-01,-8.359400459835092390e-02,1.597521662712097168e+00
-3.874891615683544455e-01,-1.069260926521768074e+00,1.149645080177997825e+00,2.730532152345173658e-01,-9.704718570317928672e-02,-8.123623152707853956e-02,2.036491155624389648e+00
-6.612062775836087258e-01,-1.083445344156959589e+00,1.029836159093869385e+00,6.989339242476742819e-02,-8.889790435316466399e-02,6.057594242176550514e-02,1.949694037437438965e+00
-5.316653119839969133e-01,-9.462756689363343021e-01,1.048740330138328680e+00,8.766624530438599239e-02,-5.453467605027548931e-03,-2.520355990396422590e-03,1.829754233360290527e+00
-4.155529572377224534e-01,-1.085851245148919730e+00,1.130786190088297394e+00,2.140372905410097004e-01,6.087535084823447740e-02,2.319115214918914328e-02,2.006773471832275391e+00
-4.337671768573352349e-01,-9.902813047211126429e-01,1.097296528573692864e+00,1.477417600934675945e-01,1.823947587289552821e-02,6.229145652503584318e-03,1.890111088752746582e+00
-8.682954024288542794e-01,-8.600502847478588286e-01,1.037009469670611805e+00,-8.332850982564862091e-03,-2.487427417660168557e-03,-5.663797501981544802e-03,1.901280641555786133e+00
-5.589175054667239184e-01,-9.245243989696347864e-01,1.112961749593661676e+00,1.584040305046157671e-01,6.647140269344121999e-02,7.013765746528305249e-03,1.904935121536254883e+00
-6.878365741053992233e-01,-9.521689798976148422e-01,1.091592621003822483e+00,5.726751550001975971e-02,-4.033329334602465954e-03,-1.981988308661170733e-02,1.928125143051147461e+00
-6.745441880750646657e-01,-9.083250840841601281e-01,1.028304947010585391e+00,7.162265678042066541e-02,7.362954871706646866e-04,1.174748561379235397e-02,1.835278511047363281e+00
-7.056580611129013025e-01,-8.750634779854916667e-01,1.045130064700181327e+00,8.787144005607545882e-02,-5.225103955413585438e-02,-3.285080945591470347e-02,1.850714087486267090e+00
-8.229474762110687847e-01,-8.133335400886921862e-01,7.177435516378922742e-01,-8.182215761251825092e-03,5.679002402104446623e-02,7.808163386755766211e-02,1.545048713684082031e+00
-6.251634064023365855e-01,-9.110074309441367202e-01,1.069883338528300198e+00,1.662531876573488387e-01,-7.440962602599801579e-02,-4.104214834147142110e-02,1.882549643516540527e+00
-6.220697522906510901e-01,-9.758922514897621081e-01,1.064215009944557977e+00,1.647787491492829215e-01,-5.394747005161639429e-03,8.999929054482362634e-02,1.916046738624572754e+00
-8.019662909733922262e-01,-8.590827804241085719e-01,1.055133918582559671e+00,4.982845369630396239e-03,1.231591474750144861e-02,-1.454461365941898607e-02,1.886615633964538574e+00
-6.956969156683301403e-01,-8.829946848629482981e-01,1.089431095402342509e+00,1.497390230943336509e-01,5.925148954697035536e-02,8.713575750038304868e-02,1.912246942520141602e+00
-8.121331411401260247e-01,-7.769415664015346668e-01,1.039420183108157536e+00,2.858729771233274250e-02,-2.909085257507704192e-02,-3.441781709749994200e-02,1.836538434028625488e+00
-8.354721545530376936e-01,-8.605442248632260149e-01,1.045472268580101671e+00,-3.440481229646445965e-03,3.875847167856414938e-03,-1.337121343139049609e-02,1.893767833709716797e+00
-5.547498942804456323e-01,-1.050638732588078827e+00,1.067374316196631145e+00,1.339634619960740625e-01,-1.328911211164208461e-01,6.140518203619394627e-02,1.949286222457885742e+00
-5.321828518755284954e-01,-1.049954543983029343e+00,1.048703461263213788e+00,1.555066696407595428e-01,8.198548261244677227e-02,5.839010054445441245e-02,1.920616388320922852e+00
-8.150566636140190724e-01,-8.205178779619914931e-01,8.012351233787375904e-01,2.259076663712084043e-02,1.084387500364921179e-03,8.543815164841755006e-04,1.619503855705261230e+00
-3.228674693436694998e-01,-9.807104883950067409e-01,8.692090012017765766e-01,2.228942890724035231e-01,-1.596036940207711807e-01,-2.668067649380708589e-02,1.692809581756591797e+00
-3.119433306498897718e-01,-1.261080545589882584e+00,1.191048151844172454e+00,-8.788191811010740220e-03,9.963911511381844111e-02,-1.212873343888441757e-01,2.158827781677246094e+00
-4.743555032667885474e-01,-1.022077951018657060e+00,1.186558301978828167e+00,5.815475059038874295e-02,5.984079954844211124e-02,-2.457824250033621011e-02,1.997762560844421387e+00
-4.543973264678353163e-01,-1.063322326938445528e+00,1.085046745819504110e+00,1.374664724830452489e-01,-2.535083356391816534e-02,5.270396080704113639e-02,1.935209512710571289e+00
-8.581238881073677272e-01,-8.386766623017468669e-01,1.049149617239343302e+00,1.441804437010672313e-03,-1.322034415705139639e-02,1.016876872776872019e-02,1.897846102714538574e+00
-9.169714547075198396e-01,-6.123392649691027367e-01,1.195381577949466090e+00,1.962596296489497461e-01,-9.266675504033826394e-02,-2.979611536550001976e-03,2.013128757476806641e+00
-4.670272967297239841e-01,-1.078895435394049418e+00,9.973346995881025023e-01,-1.736840333077610543e-02,4.993748904878117512e-02,-6.787425475198814728e-02,1.853899121284484863e+00
-8.578178286725228752e-01,-8.622992538929588058e-01,1.029328869912480959e+00,5.471167342548905561e-04,-6.657974137721867428e-03,-3.204961270188239932e-03,1.889434933662414551e+00
-5.428509250406594600e-01,-9.444614961474200321e-01,1.049469281519390229e+00,8.190321563682997907e-02,-1.503944096726466707e-02,1.866660136011042206e-02,1.832516193389892578e+00
-1.078613713802189178e+00,-4.575256764832265066e-01,1.000080592438584270e+00,-3.122747674820379182e-01,4.260832573548373192e-02,2.655703376067760080e-01,1.981222867965698242e+00
-1.305405652187877408e+00,-3.356588537603714117e-01,1.221880929895884371e+00,-2.054632907590262236e-01,-4.708953448760049704e-02,3.003391108473122198e-02,2.238919973373413086e+00
-1.298648439379300523e+00,-5.641388857681468583e-01,1.132067382110267584e+00,-2.629274951793406090e-01,3.914962829575573816e-02,2.246029336893209383e-01,2.241836309432983398e+00
-1.510839061904167391e+00,-4.437326178124029186e-01,1.054216037472193612e+00,-1.712225196768622226e-01,-2.096550977035598340e-01,2.416053887688526802e-01,2.318614721298217773e+00
-1.048868024099744112e+00,-4.744648048129756490e-01,9.742813958897131865e-01,-2.640931389714768485e-01,2.751928330285432697e-02,1.388530262847196273e-01,1.878913760185241699e+00
-8.512035637715489322e-01,-8.394898653338989103e-01,9.303018927188515530e-01,7.557501294039471913e-03,5.809800309513511035e-02,-2.979261772363103050e-02,1.779323220252990723e+00
-8.635710123422333240e-01,-8.349528987788904510e-01,9.476581060155941927e-01,-3.977042963814480560e-03,-8.633784450750844885e-03,-4.098684907425670203e-03,1.797180414199829102e+00
-9.321531642405265217e-01,-4.491679670150148240e-01,6.835426409455115371e-01,-2.209172286255219331e-01,8.757350610086589437e-02,7.934380307861263817e-03,1.494322538375854492e+00
-8.216329624419450584e-01,-7.926297166115050530e-01,7.602868602478882742e-01,4.463910339435126461e-03,5.477819217903823201e-02,4.236385720323222574e-03,1.570524215698242188e+00
-8.729213552585309843e-01,-8.801327582341543776e-01,1.021509266524232240e+00,1.313457730804677148e-01,4.825768304080784582e-02,1.310013503436357751e-01,1.926864385604858398e+00
-8.553575561270119199e-01,-8.293406825296849583e-01,9.180976608603312883e-01,3.439954607170845127e-03,2.945413174739877106e-03,-7.911031159453023320e-02,1.765932440757751465e+00
-8.264713837625666804e-01,-8.349297899896332975e-01,9.804072318986727375e-01,2.101307294568244971e-02,-3.384750033303474820e-02,-1.769731286905136536e-02,1.812695860862731934e+00
-8.615214104744185475e-01,-8.641476960736208524e-01,1.071773980837887663e+00,-4.691746616768591172e-03,-3.789867066364006453e-04,-2.607344726427107641e-04,1.934627056121826172e+00
-8.172570616826494438e-01,-8.223039365921140931e-01,1.047850260857472904e+00,-7.523533972924188913e-03,3.629560108358447640e-03,2.148538796886017774e-02,1.868062615394592285e+00
-8.610810623695888122e-01,-8.433361013058046085e-01,1.026610015050544833e+00,3.792787978946798779e-03,6.210352957252266749e-03,9.786008901653501114e-04,1.878924489021301270e+00
-9.614886442309775738e-01,-8.409631666284372864e-01,1.052628770313317474e+00,-1.751942205347405829e-02,6.786280832797110356e-03,4.795745261507582125e-02,1.958673477172851562e+00
-1.026350103107422029e+00,-7.224190883728605073e-01,9.041244361778093541e-01,4.919739290040510415e-02,-2.542305250818432255e-02,9.183293196264935565e-02,1.807449817657470703e+00
-9.137075666829159726e-01,-7.903861899344196695e-01,9.859606093826380757e-01,4.407209323355644470e-02,-3.083410649048439617e-02,5.783783537926104508e-03,1.843490481376647949e+00
-9.534378292534707589e-01,-7.481597108709842070e-01,1.082432865832921864e+00,-2.838055191775126079e-03,-2.315572077466500692e-02,3.966124364021136189e-02,1.943023562431335449e+00
-4.975024961636553278e-01,-9.685496610794200878e-01,8.322490431476405881e-01,-1.597263350382190361e-01,-2.997319327683105827e-04,1.947503416267927501e-02,1.641394495964050293e+00
-8.017600805770285222e-01,-7.811309151863816691e-01,1.023299672542861805e+00,-8.360022244493771305e-05,-1.376698140015098805e-02,-1.417751796149481491e-03,1.814991474151611328e+00
-9.577353369459465915e-01,-6.849321899079965359e-01,1.059451171194283114e+00,2.547993380958974916e-02,-1.039497729709010221e-02,1.151341785568794386e-02,1.896269440650939941e+00
-8.999505482731008366e-01,-7.718067515767172981e-01,9.944542568770042834e-01,3.250218887602230461e-02,7.045571890277483283e-03,-2.251374459012881954e-02,1.835013031959533691e+00
-8.288507833080448473e-01,-8.474267674015522056e-01,1.055451958044418603e+00,-3.821685780953451225e-03,-9.977672208126401460e-03,1.294595493609983217e-02,1.893882274627685547e+00
-5.341769304870966906e-01,-1.315348406751464250e+00,1.470746694266048982e+00,-3.666874566906629385e-01,1.607089718901504038e-01,-5.443305802538994653e-02,2.585708141326904297e+00
-9.356252635992209354e-01,-8.069390132771652180e-01,1.090755110289283181e+00,4.141578122873563333e-02,-3.185817923806234103e-02,2.228599424052616750e-03,1.967286348342895508e+00
-9.804468121340704778e-01,-5.626108276180616929e-01,1.020018335543279697e+00,3.418043724048058785e-02,1.742450201826109199e-02,6.684743995013833762e-02,1.832594633102416992e+00
-1.126045172190257571e+00,-4.683974089764435522e-01,1.088047865155655325e+00,1.655711075717278546e-01,-2.341776133170275428e-02,-1.203689277328216511e-01,2.001491308212280273e+00
-7.681749282952207158e-01,-6.874251780189259975e-01,1.063322917421780867e+00,-1.124387538748214538e-01,-2.232299725392854553e-02,4.930158250880899845e-03,1.803470849990844727e+00
-8.516199345146906463e-01,-4.614462254640246952e-01,1.166734591142989608e+00,-2.135288272906018525e-01,8.960250025009412755e-02,-5.478101113778129777e-02,1.899566769599914551e+00
-8.805675447674747858e-01,-8.568819919022276910e-01,1.067725931771061232e+00,-3.604712181143828495e-04,-4.016960235537944159e-03,-1.018501428675345176e-02,1.936652302742004395e+00
-7.491539041664980747e-01,-7.966933006308184462e-01,1.037833996639514256e+00,-6.286382099690443481e-02,-2.980231556515551810e-03,3.457369328648099687e-03,1.814512610435485840e+00
-6.919169194167142933e-01,-8.642080797189112262e-01,1.200798581518438102e+00,-2.972692638970296231e-01,-1.891255412014113818e-02,-5.887710493960546070e-04,2.050447702407836914e+00
-7.893007267677516481e-01,-4.482297513615821072e-01,1.162090937302083127e+00,-4.239115442257195832e-01,9.975651641533406222e-02,-1.545321909079970801e-01,1.974662899971008301e+00
-7.674896550741804324e-01,-6.760983174782928540e-01,1.003599152824515173e+00,-1.112172160744052951e-01,3.289302572449424259e-03,3.162173571420995484e-03,1.737934470176696777e+00
-1.129614042547474995e+00,-7.931045330953672146e-01,1.154118043630648183e+00,-9.849241192241636744e-02,-3.098813112985862248e-02,3.860173827600978103e-02,2.143974542617797852e+00
-7.179965881519224657e-01,-7.963705678681785027e-01,1.007770845807236526e+00,1.266071733584383380e-02,4.580790623166087691e-03,-4.877054981659584808e-03,1.766433119773864746e+00
-8.492793359890439264e-01,-8.542903347652407442e-01,7.616971985402736234e-01,-2.752496724731028424e-02,-4.672136804107435842e-02,2.056530025053718638e-02,1.616611719131469727e+00
-8.182283196130519798e-01,-8.355255407778582333e-01,8.367880192052361554e-01,-7.909115838850620459e-03,4.156227476026924661e-03,1.085591527916505983e-02,1.663910627365112305e+00
-8.322094737470494552e-01,-8.639064394466985375e-01,9.981137010043206192e-01,-1.376514169499494684e-02,2.571911936937679860e-03,-1.758465259392566829e-02,1.846786141395568848e+00
-8.377710611924198414e-01,-8.608384321767681424e-01,8.714107142327662814e-01,7.578890309757922890e-03,-6.817819523100497950e-03,-4.072554722753525536e-02,1.722367048263549805e+00
-8.343954948045259057e-01,-8.869325081127892307e-01,1.044318601963349247e+00,-1.633544400571611429e-04,2.304375821740004340e-02,-5.149110386609449461e-03,1.905964732170104980e+00
-8.543500671841941507e-01,-7.854884590743718142e-01,1.034353419121411433e+00,-6.850860511463681413e-02,3.558118046745427365e-02,-7.180343648536456624e-02,1.864196658134460449e+00
-1.005645295703805786e+00,-5.961732984311127748e-01,1.033193243264217687e+00,-7.060655229484999462e-02,3.855056989217233582e-02,1.060752843700312475e-01,1.882246732711791992e+00
-3.882022411765241876e-01,-1.023254087694068115e+00,1.022812389523859000e+00,6.434394304410925858e-02,-3.134300026338025791e-02,-1.806701849895083270e-02,1.818424463272094727e+00
-7.608905968876501502e-01,-8.802052108853891665e-01,1.049632078212132891e+00,1.803928128123128641e-03,2.732553347698432958e-02,-6.537108336346145188e-03,1.873667001724243164e+00
-8.117622585724844075e-01,-8.213717730867605704e-01,1.044613631717049351e+00,7.549543870005567727e-04,3.999962549039375731e-03,-6.400581275527996057e-03,1.861245632171630859e+00
-9.468009334118850928e-01,-7.049535778141378106e-01,1.084673955605581996e+00,-4.666576952255836741e-02,1.463914461751014175e-02,1.054488991308593845e-02,1.923949837684631348e+00
-8.461889562742785920e-01,-8.443884304532188745e-01,8.969142763107980088e-01,1.303814737335510544e-02,-4.984592681977927618e-03,3.179912825073997334e-02,1.743241667747497559e+00
-5.954118719663235026e-01,-9.645713564176595645e-01,1.037668051884498066e+00,8.824022266139657997e-03,2.769044839946592854e-02,-1.639533397458685718e-02,1.846465826034545898e+00
-8.994537170424660166e-01,-7.792242014631882707e-01,1.098120790730084728e+00,-5.129614272985767720e-02,-4.835569380237490084e-02,8.892827843771276830e-02,1.950185894966125488e+00
-8.558471544857395585e-01,-8.639996158907399249e-01,1.023406592523415259e+00,7.877144609944096085e-03,1.145200086614652640e-02,7.272526951340139989e-03,1.883539199829101562e+00
-8.462766228375433464e-01,-7.806954241129402394e-01,1.034145861859227633e+00,-9.700658783463694812e-02,2.472193677765192193e-02,-9.214300323559429171e-03,1.856687426567077637e+00
-8.626773044546461877e-01,-7.956110772951499044e-01,1.054332482482090327e+00,5.741697602478516328e-03,-1.395230731855264666e-02,1.709603201294468411e-02,1.884785771369934082e+00
-8.019528763026784191e-01,-8.578518926191079919e-01,1.054839163882105746e+00,4.963177761636266248e-03,1.230939672304377612e-02,-1.370338198303742636e-02,1.885652661323547363e+00
-8.384297675613889833e-01,-8.811963080917096791e-01,9.723580716276014613e-01,2.628178140256058615e-02,-2.692241684180426281e-02,2.431124168214009520e-02,1.834187150001525879e+00
-8.397601771154139527e-01,-8.073881727209911707e-01,8.530776316619590460e-01,9.001296733346186504e-03,-1.006466937095961550e-02,-7.068159759568099030e-04,1.677049756050109863e+00
-8.552247102113528232e-01,-8.533849553276220412e-01,9.959775673968784826e-01,-8.434829980497706922e-03,1.926851063338386530e-02,-2.851486447691738840e-02,1.851300597190856934e+00
-7.978594259387806753e-01,-8.137091289051811005e-01,6.986183619997778926e-01,-6.098673881857256257e-03,5.815231496869945928e-03,-1.355667155977832161e-01,1.522748708724975586e+00
-7.235594956660482691e-01,-8.540552795380739193e-01,1.033444344835421802e+00,1.337178671840092217e-02,1.601823890060674951e-02,-2.210949455930456831e-02,1.826511979103088379e+00
-7.610209425020315610e-01,-8.960862650747636327e-01,1.053602926432297915e+00,7.258383806117647656e-03,2.818773594412685504e-02,-1.707273396745891472e-02,1.886693239212036133e+00
-8.515830954687612087e-01,-8.671322205969556052e-01,9.753979571749191724e-01,-1.067593883234265080e-02,2.326726112407210070e-02,1.202722108326188290e-02,1.835458874702453613e+00
-8.630180774409077493e-01,-8.225230375050662790e-01,9.985105418535995536e-01,4.158955248650524419e-03,6.258795257306299688e-03,1.502817956110950350e-02,1.841845035552978516e+00
-8.845119505035671237e-01,-8.434200305659304009e-01,1.068278604766630391e+00,1.603687649315968522e-02,-6.907091221448230164e-03,-2.258994525677751261e-02,1.933204889297485352e+00
-7.496255138116668659e-01,-9.355301836390742531e-01,1.064702889994612933e+00,1.651753314917617579e-02,2.376925757311215345e-02,-1.188650959769468017e-02,1.914830923080444336e+00
-9.519736068155436604e-01,-8.048619529692430108e-01,1.059442329963379281e+00,3.207370867482271792e-02,1.997889512702486631e-02,3.242541664393977507e-02,1.943957567214965820e+00
-8.620233399775562022e-01,-8.519259569189938652e-01,9.757185026150234641e-01,-5.548789741394721808e-03,-4.047810567086296968e-03,-3.044504880637058722e-02,1.833511114120483398e+00
-8.420410095234733827e-01,-8.545834465368367105e-01,9.080258330085868579e-01,-1.036320173848608722e-02,-2.446278319616267474e-02,-5.275124052910418193e-02,1.759348392486572266e+00
-8.536132391953666909e-01,-8.498190905797087247e-01,1.066125018468890184e+00,2.350044494214486961e-03,-3.163205299818720295e-03,-5.535033448375504227e-03,1.917880058288574219e+00
-7.620242270541414120e-01,-8.781108973029418951e-01,1.045771745790065044e+00,-1.702231962888740109e-03,3.067076379209024428e-02,1.849698580326323075e-02,1.869577646255493164e+00
-8.570836109161197314e-01,-8.636049272057605419e-01,1.040288888035144854e+00,-1.125928060911856980e-02,3.733174335553410272e-02,-4.104327733458482813e-02,1.903169274330139160e+00
-8.140227255145874308e-01,-8.182105745165395572e-01,1.088853498148472987e+00,-9.549762174509746071e-02,-3.088690098639323284e-02,6.065623326587065572e-02,1.915772199630737305e+00
-8.207903675927035181e-01,-8.186327410860679832e-01,1.038477165716015227e+00,-2.100372945848009987e-02,-1.122480194081435997e-02,1.081892151093567615e-02,1.858741879463195801e+00
-3.835000475321049818e-01,-1.099600836460866038e+00,1.053080182172113188e+00,4.706869559971595812e-03,-3.457663675551992527e-02,-5.448256282778736470e-03,1.899747729301452637e+00
-4.978649066623274666e-01,-1.002454380207182805e+00,1.056156233154151414e+00,-8.733806135317538633e-03,4.022861123564326277e-03,2.099026505782194702e-03,1.858500838279724121e+00
-4.468655403484377286e-01,-1.056720790769039242e+00,1.144289504440850092e+00,-4.345545932614210821e-02,2.703523603632668193e-02,3.042014367372889577e-02,1.970965743064880371e+00
-5.239594554267792414e-01,-9.841082996147774153e-01,1.058645941972573556e+00,2.663062977423030081e-02,1.624360158744959232e-02,3.226396858098518755e-03,1.856760978698730469e+00
-5.311344211759689848e-01,-1.018827608015172359e+00,1.083319835114582297e+00,-1.673866900656123535e-02,-2.015410144300949433e-02,1.041305237854288877e-02,1.906318426132202148e+00
-8.046235117573191653e-01,-6.780819083453655249e-01,1.015416101072957877e+00,-3.042973109108843346e-02,6.454983639757704136e-04,-2.681154670352469110e-03,1.760978937149047852e+00
-8.074827736121189536e-01,-8.547235033453171038e-01,1.053506157180990277e+00,-1.599487877595366083e-03,1.310693697440201179e-02,2.224073769462807729e-02,1.885585546493530273e+00
-6.494320449855617294e-01,-9.519071640195861939e-01,1.064744516466225033e+00,-1.300291307031993656e-03,2.725106022678572813e-04,-3.279469911150825496e-03,1.883726596832275391e+00
-5.412926898883545501e-01,-9.860626819297101386e-01,1.056434202554576318e+00,-2.259753035727301435e-02,-9.897744223456985541e-03,9.538496834863807033e-03,1.860986709594726562e+00
-5.609814839465956382e-01,-9.884761498034846383e-01,1.082917465092273490e+00,-1.575432249523472245e-02,-1.040505385554863806e-02,4.069367516546849514e-03,1.894474267959594727e+00
-7.984053318044288527e-01,-8.607183281098580441e-01,1.055750134044709521e+00,-4.854515675680287114e-03,-1.283066335820298720e-02,-1.280896857857863856e-02,1.886364221572875977e+00
-4.946077426746275929e-01,-9.813920675112181025e-01,1.019978870278066774e+00,-1.323545656875699597e-02,-2.323981843216372297e-03,4.107546575349061042e-03,1.807982563972473145e+00
-4.257294340409418787e-01,-1.057216429477058295e+00,1.236643875015929428e+00,7.654171109962940034e-02,1.585581453240214253e-02,-2.015014983002584581e-02,2.057079553604125977e+00
-8.387130331016169338e-01,-8.481286914455903325e-01,9.669467081971643285e-01,3.082205015262371849e-03,-1.707534345721923100e-02,7.071601158197404887e-04,1.810635805130004883e+00
-8.494381740577094941e-01,-9.096531281418639425e-01,1.060831613704638743e+00,-2.576490533276106637e-02,-2.997519946341754837e-02,-3.839098015407361141e-03,1.942296147346496582e+00
-7.573441136818314101e-01,-9.401287045989266122e-01,1.093548917551265376e+00,-2.397786484489893705e-02,-2.054837973609733096e-02,-1.610140877265893444e-02,1.949692130088806152e+00
-6.729133353862797318e-01,-7.635376969867422314e-01,9.862855895832285391e-01,1.159163815260437769e-01,9.114516933085729800e-03,4.861831462140856451e-03,1.718181490898132324e+00
-8.467210558967978029e-01,-8.326604805975353907e-01,1.056031448103864401e+00,2.091954361241923563e-03,-9.523049769997852382e-03,-7.116990502679412106e-03,1.895876646041870117e+00
-7.389585088673766844e-01,-9.620600553984675063e-01,1.084817487374194256e+00,8.430796327976166141e-03,-4.663284550751738838e-02,1.994963443679836912e-02,1.946985244750976562e+00
-8.443516442852218029e-01,-8.722763974858854796e-01,1.058902069156091086e+00,-7.137667891637568783e-03,-1.781838189657259860e-02,1.043408905731942928e-02,1.917742013931274414e+00
-7.147599419108199292e-01,-9.880499417496251269e-01,8.779669929580673493e-01,1.630680642768203223e-02,-3.184795237632565001e-02,6.612506692332283109e-02,1.750343084335327148e+00
-7.333708703008861018e-01,-8.060145295975906787e-01,1.056846634474429836e+00,-1.331206617132171255e-01,-7.739256836273958849e-03,2.220891157579507613e-02,1.842559814453125000e+00
-8.287331155105116531e-01,-8.387954839865255918e-01,9.809841789757114405e-01,-1.219008357738251072e-02,1.495991973575696264e-02,-1.731936600347146540e-02,1.815325021743774414e+00
-8.409824455116148290e-01,-8.472800219016964896e-01,1.068040217866619956e+00,-2.515407481460615879e-02,-3.737744421209168028e-02,6.012111247616207244e-02,1.916601777076721191e+00
-8.404781034175634602e-01,-8.538988341946930349e-01,8.842797068315551012e-01,-1.287732118937604539e-03,-3.089115071199153781e-02,-4.042728244392462811e-02,1.733749747276306152e+00
-7.789487040189555511e-01,-8.013960260434201954e-01,1.021727845923611433e+00,1.030069256532744996e-02,-9.508625395036122670e-04,-4.135402471898324932e-03,1.812107205390930176e+00
-8.738237866240565754e-01,-8.354818089334159481e-01,1.004501104478585649e+00,-3.212021401843122292e-02,1.388741041140039052e-02,-2.402738579424104626e-02,1.860903382301330566e+00
-1.399920111147581414e+00,-5.977214967094305331e-01,8.918005453397512827e-01,2.605312060201962487e-01,1.236130379243415151e-01,3.540141689298419853e-02,2.076131343841552734e+00
-8.667449358118991531e-01,-7.752833591617341868e-01,1.074032474005487403e+00,-1.432184450285299282e-01,1.465022776031683557e-02,3.234641512613475878e-02,1.913842439651489258e+00
-7.601187834764249196e-01,-8.206438385617768061e-01,1.034688685269324893e+00,7.071663526430730339e-03,7.368406040706934439e-03,-2.127548142474138676e-02,1.826279997825622559e+00
-7.567081180334820356e-01,-7.600428710103424024e-01,5.707020544053169608e-01,-2.473850975514870366e-03,5.749484211093003339e-03,1.575813458961580760e-02,1.329405069351196289e+00
-7.717558823699998127e-01,-8.928257647170440015e-01,1.053501557100128494e+00,4.875084871178373379e-03,-2.658381144424599302e-02,-6.330561150714010023e-03,1.889316797256469727e+00
-5.960507686270285488e-01,-9.305000023870758641e-01,1.032580383767315091e+00,1.531634192943373725e-02,2.904491654925887151e-02,7.248793916704978323e-03,1.819995164871215820e+00
-7.622583334959682766e-01,-7.443783203830587336e-01,4.703314146557537878e-01,5.637403835260224299e-04,2.594675249128199079e-02,-4.333802350266575260e-02,1.226871490478515625e+00
-7.710894901653664313e-01,-7.587283858415257987e-01,6.138363109560240893e-01,-3.831903573133927255e-03,-5.645918174170455606e-02,3.092970702090191981e-03,1.382276654243469238e+00
-8.431156284646700305e-01,-6.450958405512131622e-01,9.962915826121785390e-01,3.025999241291509392e-02,1.431021410341836060e-02,-5.971773001767056652e-03,1.749817132949829102e+00
-7.667921851200611982e-01,-7.712046861337295001e-01,6.198127703936677779e-01,-1.392144790123457827e-02,1.012176244239762664e-02,-5.591351725021659336e-02,1.392508149147033691e+00
-7.675933370182385085e-01,-7.669468601444758837e-01,5.789426936317504380e-01,-1.833959640347106092e-03,-2.567874088493109566e-02,-3.684112839913423337e-02,1.348461866378784180e+00
-8.336474862772620398e-01,-8.483943420878756747e-01,9.522381943057602882e-01,6.650936823645877717e-03,3.131628380494959341e-02,-6.479760425006452981e-03,1.794196844100952148e+00
-6.936850674839660780e-01,-9.155509996750407220e-01,1.051793995638822921e+00,1.542884737276279880e-02,2.686047250892891272e-02,-2.296131478566191056e-02,1.867523550987243652e+00
-1.494134503124837643e+00,-3.264195490958175516e-01,1.518685437283024298e+00,1.874758236577743209e-01,4.596832275658058187e-02,1.904237828053934878e-01,2.672656297683715820e+00
-8.133668557602198312e-01,-8.799321700127569201e-01,9.513367978075459863e-01,1.104880844338560070e-01,8.467561746706205733e-03,-3.172656952361749966e-02,1.809954643249511719e+00
-7.460771606164326997e-01,-9.192011048188479805e-01,1.063546486169841598e+00,4.098247681860421598e-02,1.362254205847943794e-02,-9.147790750198324730e-03,1.903640031814575195e+00
-8.500269159078077674e-01,-8.707696101829646151e-01,1.019271549458559134e+00,-3.429328628534715744e-03,1.443300040723264612e-03,1.918475787921148463e-03,1.879769682884216309e+00
-6.839844316705967486e-01,-8.426762752955707647e-01,1.014067976315507380e+00,-2.495517375846192931e-02,4.127421687557399077e-03,9.177433352738584250e-04,1.783242583274841309e+00
-7.319199988459580419e-01,-9.607100733393884040e-01,1.083981150256126957e+00,2.309249245964023825e-02,2.779925541916897572e-02,3.833107536627335544e-04,1.941448092460632324e+00
-5.572281223079093015e-01,-9.680718100801327664e-01,1.153366555149181183e+00,1.092986636885563412e-01,1.507497138762690751e-02,-2.718419996679169795e-02,1.958685994148254395e+00
-6.296070339297537011e-01,-9.666721379765830235e-01,1.055951378466356338e+00,4.675728965877036861e-04,2.858537716186193914e-02,-5.573499171862978697e-03,1.877606987953186035e+00
-8.517762678110345487e-01,-9.418196515807648606e-01,1.065852439410584607e+00,2.038545609327558489e-02,1.488774992833018056e-02,1.203524529823981302e-02,1.964796066284179688e+00
-5.106317638460036168e-01,-9.750875382660618707e-01,1.032169233189167201e+00,-1.424985791456116237e-02,1.210445138625671803e-02,1.076882927613653567e-03,1.820321202278137207e+00
-9.600449767279829461e-01,-5.955276295451844559e-01,9.467140005490655152e-01,-2.072131282161394639e-01,-1.087164322020823665e-01,-3.219820255809930504e-02,1.800259947776794434e+00
-7.453511745981020731e-01,-8.899435221439584431e-01,9.989364512457046263e-01,1.938713709404284863e-02,-2.291166891661627555e-02,-1.569882925123673376e-02,1.821839332580566406e+00
-6.595066449184516788e-01,-1.034544596687638318e+00,1.083323632901042943e+00,7.670844938731095908e-02,-6.223940047614260479e-02,3.105771288544988823e-02,1.965682029724121094e+00
-8.307043216030559618e-01,-8.304912052502417819e-01,9.503287124713657441e-01,1.166503504694956783e-01,-9.131160633589215092e-02,-3.223834027682204867e-02,1.800181269645690918e+00
-1.907748602428627760e-01,-1.073408168461203127e+00,1.067152416553192928e+00,1.290704038719443503e-01,2.561514213168135379e-02,1.296304592540615608e-03,1.877141952514648438e+00
-8.631364703352760737e-01,-8.657786999261256611e-01,1.060786366486360377e+00,2.228760879098203290e-03,3.697505667932554554e-03,-2.204702493357574636e-03,1.925263643264770508e+00
-8.244200775761665323e-01,-8.104717676960530026e-01,1.045411131692003170e+00,3.716139513730655486e-03,-6.438594130628519895e-03,-5.999930347281070761e-03,1.862969756126403809e+00
-7.251235964871028949e-01,-7.973795233958442807e-01,1.001859293549252738e+00,-1.463550228288653353e-02,4.369830779738494370e-04,-1.000352696835854569e-03,1.764404058456420898e+00
-8.058752745254694760e-01,-8.687423140872417848e-01,9.870240127851053202e-01,1.500039658121922748e-01,-1.493189597102374117e-02,-5.387549294108851146e-03,1.843750000000000000e+00
-6.200716213050141423e-01,-8.773619514404545905e-01,8.835267512579627613e-01,1.672102303123620126e-01,1.573626470813059564e-02,-3.948893762126656770e-02,1.674265980720520020e+00
-7.686716009455295540e-01,-8.203737358430841509e-01,1.026916937896536153e+00,-1.041364964190454566e-02,4.980343916346855956e-03,5.679628651982036869e-03,1.822126150131225586e+00
-8.234939141043194910e-01,-8.579273205687870663e-01,9.963836789531168581e-01,2.883102844609795965e-03,5.400995591042880017e-03,6.488768676628684298e-03,1.837401270866394043e+00
-8.203417849355285618e-01,-8.645590184285673052e-01,1.056446219362186634e+00,8.150985443120751378e-03,-3.021918154873096465e-02,-8.475693079497184299e-03,1.900112986564636230e+00
-8.628046849673952634e-01,-8.573461436894165288e-01,1.057167181374775611e+00,-1.267289019369396280e-03,-5.409872818622974561e-03,8.299728394626009961e-03,1.917326450347900391e+00
-7.853573261074170420e-01,-7.883954625277909134e-01,1.031066894425407332e+00,1.222657040920613614e-01,1.867787588214144326e-02,-1.086771612972933961e-02,1.830620765686035156e+00
-8.517981763327759914e-01,-8.590378135478042854e-01,1.070766696525210726e+00,-2.750330311055382022e-03,-1.139517293041623133e-03,-9.185934146065860562e-03,1.926267504692077637e+00
-8.643507570093953429e-01,-8.632352220658672248e-01,1.055700915153027664e+00,-4.039550676160110800e-03,3.584454094851333757e-03,8.037083646861158809e-03,1.919567465782165527e+00
-8.217747720899748476e-01,-8.682363384859508315e-01,9.656953838473640861e-01,3.095634211354946971e-02,-1.103965669134766327e-02,-1.986300019220470225e-02,1.812368869781494141e+00
-7.871132889362849605e-01,-8.746445635395840856e-01,1.030186612084739828e+00,2.277811093641021745e-02,-6.455387245157078596e-03,2.016403622361978565e-02,1.863387346267700195e+00
-8.276160384721256147e-01,-9.197527587902759594e-01,1.047572192861694118e+00,2.211557060077937176e-02,2.920681675935131796e-02,1.914306175173421942e-02,1.924245238304138184e+00
-8.496105575000461041e-01,-8.473605498724146035e-01,1.051995192199299378e+00,2.700238569525480366e-03,-4.220341816980804905e-03,2.873580843993151987e-03,1.900508046150207520e+00
-8.152244033726331329e-01,-8.496793644565839854e-01,1.047384318024819239e+00,2.593165088666287994e-03,2.590199696369309065e-02,1.771982967927309555e-02,1.880864024162292480e+00
-8.427508108614392146e-01,-8.575091744000342686e-01,1.003479876920039260e+00,8.709350271001102886e-03,1.152159269923993742e-02,2.019926918461913742e-03,1.853826045989990234e+00
-8.908827770744269792e-01,-8.936327821561550477e-01,6.513099076311659186e-01,7.458688270476136750e-02,-1.475793440794084532e-01,2.267303002544607607e-02,1.570406794548034668e+00
-8.126461177274977299e-01,-8.084426655522287675e-01,5.354551954518602663e-01,9.680582543365658099e-03,-4.047352145009751323e-02,-1.026308004326788037e-01,1.359603881835937500e+00
-4.286340930153116346e-01,-8.862692803031306799e-01,2.213059748751030620e-01,8.227219280708879257e-02,-1.153741340901593554e-01,5.208135378894803574e-03,9.947907328605651855e-01
-7.358415457614508881e-01,-7.851962145915099001e-01,-1.719259374370540883e-02,-3.626292064122413339e-02,4.305340261046608497e-02,2.851768321475617318e-01,8.988015055656433105e-01
-7.736973645198008676e-01,-8.473189264121305797e-01,5.358450097846806370e-01,6.287123615435892543e-02,-1.040113566343668361e-01,1.243954115767551410e-01,1.381111145019531250e+00
-8.044586754221911828e-01,-8.563827215134002246e-01,5.334681892749676413e-01,-9.417819549974011661e-03,-5.467241595333948226e-03,6.974634959279554791e-02,1.370096445083618164e+00
-8.391162258150887121e-01,-6.852164095249164699e-01,1.037843095513579783e+00,1.010179821361258667e-01,-3.270739185868131588e-02,-2.270981992818757109e-02,1.814708828926086426e+00
-8.689749763997074439e-01,-6.826585960732667324e-01,1.063234663391173340e+00,2.489695655964523913e-01,7.879974323667904637e-03,-2.093137003998924231e-02,1.896207690238952637e+00
-8.360606655417440747e-01,-5.437709737437836921e-01,9.905372730766519584e-01,1.904078729454938557e-01,8.955994576574969300e-04,6.684391875955948865e-03,1.731155514717102051e+00
-4.740732324645826057e-01,-1.007505986336296511e+00,1.105277304037330266e+00,-1.252692059444055796e-02,-3.709069955069344698e-02,-1.601240984129405354e-02,1.904400944709777832e+00
-2.673017794987342377e-01,-1.206303136923629671e+00,1.508885232923080855e+00,6.889709523476324204e-02,-8.085050091124454386e-02,3.772758650980220091e-02,2.396357059478759766e+00
-6.487705867939226323e-01,-8.501602995201044122e-01,1.000095337466875955e+00,2.736259951447908220e-02,-5.782413805698327636e-03,1.700781558060904296e-03,1.758902072906494141e+00
-1.621872295312340173e-01,-1.496591204280699028e+00,1.198738243434601891e+00,-1.734191411161780175e-02,1.508595352216068886e-01,-4.608729890848599353e-02,2.350388526916503906e+00
-1.482070534263281447e-01,-1.069110950007687855e+00,9.600849856173290231e-01,2.148225310336799587e-01,5.792647177342044595e-02,1.954281167243766826e-02,1.801850199699401855e+00
-3.063202095113774504e-01,-1.108294853681657699e+00,9.488047999942668120e-01,2.303985296355932910e-02,2.640856764110987576e-01,5.920883589449391776e-02,1.856451988220214844e+00
-6.569859634648662627e-01,-8.423912565894673410e-01,1.002403414007495108e+00,2.722790605287526630e-02,9.631298175983940904e-03,-1.169646503610253727e-02,1.760261535644531250e+00
-7.268901825347897638e-01,-8.004346713471354180e-01,1.002674192649924301e+00,1.685747431291970133e-02,-1.122649365083281834e-03,-1.423040968966689365e-04,1.767726778984069824e+00
-6.655021997150427637e-01,-1.089398374302049222e+00,1.057099362474410942e+00,-1.114614467301527564e-02,-6.886211795239334521e-02,-6.821591806327818863e-02,1.976311564445495605e+00
-6.761429038703331562e-01,-7.876867798828074418e-01,1.050824640776334418e+00,1.593785085922222733e-01,3.763834700802503458e-03,3.205909315344319249e-02,1.807435154914855957e+00
-5.141311427827537361e-01,-1.115224279712237365e+00,1.229106057586823786e+00,1.654070229422890115e-01,7.549866580120830062e-02,1.562658203340229479e-02,2.132591962814331055e+00
-4.654810024282326486e-01,-1.076340546563639311e+00,9.832565961665602483e-01,1.995969178354505824e-01,1.606675412161985006e-01,6.589228548142097609e-03,1.885220050811767578e+00
-7.667713837627347928e-01,-8.029687990028111511e-01,1.026975743900046867e+00,1.314024520691921619e-02,-1.602703374814924567e-03,2.360817382157219535e-02,1.812723278999328613e+00
-5.952700090608319394e-01,-9.157756885495846877e-01,1.023569981266324147e+00,2.612206439415342210e-02,1.225386712204942774e-02,-1.569053579555449579e-02,1.801513314247131348e+00
-1.289582705170629007e+00,-4.883110323097783478e-01,9.790117072748474314e-01,3.786862874452566752e-01,1.917243546360331841e-01,1.331460347525382504e-01,2.136460781097412109e+00
-1.091597016495608585e+00,-3.484789204933629314e-01,9.065243780986802502e-01,1.901005180473356038e-01,6.285514866341673779e-02,2.470753199040198744e-01,1.833924531936645508e+00
-8.582141048790697946e-01,-7.954627963634272048e-01,1.052498928107898024e+00,6.013227123021241093e-03,-1.634995968746931136e-02,1.710262622858933074e-02,1.880598425865173340e+00
-1.264137073087067797e+00,-4.834116295441371891e-01,1.709036825465755749e+00,4.398817389204799366e-01,4.887883600433860776e-02,2.948991130171895944e-02,2.778187751770019531e+00
-9.768131660095275004e-01,-5.850339467747378563e-01,1.083961547325551056e+00,1.576830574124249706e-01,2.769244558530843323e-02,8.512579681448462915e-03,1.915730834007263184e+00
-7.202324845670007303e-01,-8.846318954787242284e-01,1.033241256417781750e+00,5.892119340689678381e-02,3.965124737440590963e-02,5.033143320370476320e-02,1.847349166870117188e+00
-9.483406650984232966e-01,-5.767532979739813381e-01,1.119100208676260477e+00,3.263560471605255753e-01,2.086861750139936550e-02,1.700610125708881815e-02,1.991444945335388184e+00
-1.062857391333814183e+00,-5.893660837049476964e-01,1.014812072619877270e+00,1.065106746335975768e-01,-2.382809874080450696e-02,-5.916185418141392538e-02,1.898257970809936523e+00
-1.048526398523574876e+00,-5.857912401431772942e-01,1.074343881923207622e+00,2.218941973549216212e-02,3.503533378312077146e-02,-5.320131510360282673e-02,1.937014698982238770e+00
-1.502209697995730453e+00,-2.340777574395618010e-01,1.158555632236469179e+00,2.107472444928456534e-01,8.887729489931266158e-02,1.342379978886364678e-01,2.350453138351440430e+00
-5.936698139366642923e-01,-9.374418613305582904e-01,9.273280820312073125e-01,-1.156614378397870756e-02,-9.473792373350431494e-04,2.040320414348692837e-02,1.719343900680541992e+00
-8.369257250071358012e-01,-8.657241792732821573e-01,8.918595524795025486e-01,-2.919788528398125152e-03,1.015881815138125199e-01,2.821468764916078634e-02,1.752908587455749512e+00
-4.804794377944607842e-01,-9.801853578283039603e-01,1.022666421472740117e+00,9.362109120879069310e-03,1.943583636080797872e-02,-7.134219890827515724e-03,1.806054592132568359e+00
-7.657791407077824131e-01,-8.917488319667544738e-01,9.995129827307089876e-01,1.188974858469781133e-02,-2.521042328319882467e-02,1.109432656008373444e-02,1.832265853881835938e+00
-8.436555075585956409e-01,-8.612247528065550828e-01,1.000440546992026558e+00,-2.871789758663328366e-03,2.280138094778432628e-02,-7.358705911965445975e-03,1.853414416313171387e+00
-3.188835086505618088e-01,-1.020155041952891750e+00,1.520280457617229297e+00,-4.550239958734592083e-01,1.039385279223228042e-01,-2.050075329201711538e-01,2.437969207763671875e+00
-8.272188612102688854e-01,-8.171735336263674654e-01,7.931536498982212358e-01,1.100597723084906741e-02,-6.241929908175423286e-02,4.959046338911837076e-02,1.621376037597656250e+00
-8.525733072072613217e-01,-8.681207549884047969e-01,1.065864995183630093e+00,1.668810968701889969e-02,-2.200091978033582793e-02,-1.751769986630020634e-02,1.927091717720031738e+00
-5.222962256041399076e-01,-9.607144489634105167e-01,1.028979895966811942e+00,-1.757245894211058312e-02,-1.355025441613425148e-02,2.924075757119401833e-03,1.811154007911682129e+00
-7.568008489219693047e-01,-9.407785249497953028e-01,9.857980486040001100e-01,-2.146141272339512421e-02,1.004988864950132621e-01,9.674218423121383470e-03,1.850151538848876953e+00
-8.195822145774085410e-01,-8.594662220490836280e-01,9.677823942473184893e-01,-4.910971011502050267e-03,3.256925374956699121e-02,-5.182162234869561873e-03,1.808558940887451172e+00
-6.509176057888936828e-01,-9.190990268427412513e-01,1.032853884201066386e+00,-2.439282523177640355e-02,-2.415783001000123414e-02,-3.525921355460630291e-02,1.834619641304016113e+00
-8.087356453307698034e-01,-8.403582808952392291e-01,9.419041693822338690e-01,1.775485576557038134e-02,4.662733844343734668e-02,1.106958854476674040e-02,1.768879652023315430e+00
-7.205635311578991731e-01,-8.911181127350721320e-01,1.003705035174003113e+00,1.111385452682841085e-01,5.323548442098289396e-03,2.705983625792249617e-02,1.826365232467651367e+00
-8.477863172494315425e-01,-8.550944325358359466e-01,8.687171144213587937e-01,2.999061847763711142e-03,6.773765476304947908e-02,5.942295972884800714e-02,1.727242708206176758e+00
-6.300484444260523453e-01,-8.435724030679998542e-01,9.963743307423131856e-01,-2.324098144852966910e-02,4.247513559476590018e-04,-1.261544531812341940e-02,1.743623256683349609e+00
-7.697668425994381725e-01,-7.624542658584180232e-01,1.005670462312125313e+00,-3.209051509331139335e-02,-4.718797930852757123e-03,5.476780537602899367e-03,1.772708177566528320e+00
-9.782765964243975709e-01,-1.005428248063346741e+00,1.298276979029835854e+00,-5.426748623408885752e-01,1.878183439958309997e-01,-1.015435483220709090e-01,2.503096818923950195e+00
-7.730357940483931767e-01,-7.710858391193431416e-01,1.008654721782744845e+00,2.127571297395009203e-03,-2.559122883594572555e-03,2.359324628971256905e-03,1.780730366706848145e+00
-8.253249586701764118e-01,-7.826452205409930585e-01,9.616052378411068524e-01,-4.568014170244209804e-02,-1.181853747239698486e-02,-2.441889120518026673e-02,1.768373012542724609e+00
-8.191155549098085853e-01,-8.444799268129922210e-01,8.921771793053248079e-01,8.804493091327724938e-03,-8.879250273350165409e-03,1.097857736046499617e-02,1.724355697631835938e+00
-8.346349225662109683e-01,-8.820386719871531334e-01,9.564832214715859315e-01,2.432109666364183024e-03,4.712611826259805597e-03,1.199751421141674428e-02,1.815426468849182129e+00
-7.758405926851684731e-01,-7.761518980699083636e-01,1.016129930101046686e+00,-6.904908453540236149e-03,1.278543169603321358e-02,1.597434158145589296e-03,1.792304992675781250e+00
-7.523869149744115692e-01,-7.588739656213717710e-01,9.938002746457803571e-01,-4.364039322730043323e-03,-2.414702087604097495e-03,-4.971308879836194345e-05,1.749461054801940918e+00
-8.452209057843375062e-01,-8.591406135805750299e-01,9.678656444188187269e-01,6.503525572359980175e-03,-1.890059242797398342e-02,4.928555686706535648e-03,1.820435523986816406e+00
-8.499702855456781059e-01,-8.668844251559099101e-01,9.982212878789422650e-01,2.209440958267813639e-03,-2.054430946112472973e-03,-8.972068427558077194e-03,1.856778860092163086e+00
-7.703408064105053965e-01,-8.568372470698372156e-01,9.693213960664683881e-01,-3.490146884721552489e-02,9.542401532936110875e-02,-2.233957202085167654e-02,1.793557763099670410e+00
-8.622245100397606388e-01,-8.473723073431156383e-01,9.816485464074573564e-01,1.143927576687473954e-02,-1.250362346052332797e-02,7.687395032611641331e-03,1.836774826049804688e+00
-6.271008977242931159e-01,-8.556696128073999486e-01,1.014060827075014215e+00,5.595374651431000990e-02,2.638309299064583655e-02,1.483869255973754506e-02,1.770004272460937500e+00
-8.485745946245059068e-01,-8.178256118975761879e-01,8.875951278593159355e-01,-7.746582695477927105e-03,-1.675427883532809928e-02,-8.745077612896497848e-03,1.721364855766296387e+00
-7.622909999172997608e-01,-8.981338092728198275e-01,1.027645138214008602e+00,-5.515023032991573509e-02,-1.355332132531984757e-02,1.229517314938260303e-02,1.864297151565551758e+00
-7.662407572585553384e-01,-7.953707742125809554e-01,1.017463828059542941e+00,-3.449915982132391052e-03,-5.506328534513892786e-03,-1.017923094500811955e-02,1.798568129539489746e+00
-7.837498648077015906e-01,-8.968972203955215550e-01,1.093041211274888402e+00,-2.641182128598272560e-02,4.128211799712541534e-03,-1.977615553912646582e-02,1.936702966690063477e+00
-8.486732849782342436e-01,-8.168020119128633905e-01,1.036207121225272143e+00,-1.135381140272010564e-02,-1.726879099873429926e-02,6.309741588726282789e-03,1.869523286819458008e+00
-9.818913741849814025e-01,-7.946191645548953408e-01,1.061546295132895112e+00,-5.218275694229553702e-02,6.663915361314032282e-02,-3.312336227992412896e-02,1.962858200073242188e+00
-8.682986426183048057e-01,-8.618655204030343242e-01,1.057034551773514686e+00,5.525785019816943297e-03,4.436363355748294129e-03,-6.048954418629181283e-03,1.922192454338073730e+00
-7.681473436287983292e-01,-8.304320700468899030e-01,1.183870118472600819e+00,-2.351565514838585835e-01,-4.883054996071454872e-03,9.313258459633228653e-03,2.025354385375976562e+00
-8.640699618998675113e-01,-8.754010620204145665e-01,1.075943394762025163e+00,4.865364718876919424e-03,-8.739109658881886664e-03,7.246055772239388265e-03,1.945821285247802734e+00
-7.532664175926853112e-01,-7.592864964956018703e-01,9.978740267053132218e-01,7.989866454133262227e-03,-3.796379389530223731e-04,6.793184070417127712e-03,1.754252433776855469e+00
-8.223949239464311001e-01,-7.547310266546699564e-01,1.040544979038830142e+00,-5.143167647867425557e-02,-1.359811168885503331e-02,9.252053993175350655e-03,1.832434654235839844e+00
-8.480749023410512066e-01,-8.854217931444836598e-01,1.139515611422013963e+00,-6.569287398887423135e-02,-8.606021699401047650e-03,-9.676872064011013495e-04,2.009804248809814453e+00
-7.617288810340382410e-01,-8.333148443697947494e-01,1.002940896306856455e+00,-5.263511343957043981e-02,-1.544613456744656395e-02,1.055607461283619534e-02,1.804126143455505371e+00
-1.056881217737065448e+00,-7.438523994946186768e-01,1.210884537461807353e+00,1.123225154962205763e-01,-2.581391883140519983e-02,-3.941574385358900812e-02,2.139014244079589844e+00
-9.464108411180737201e-01,-8.281009249654560644e-01,1.045747749492231593e+00,1.122165220999935681e-01,-8.240840233280601057e-02,1.115030762517360378e-02,1.950775504112243652e+00
-8.665166853472744402e-01,-8.167906252374038667e-01,8.893135120244897163e-01,6.653845730962477945e-02,1.700910590253151833e-02,-9.037140721112513209e-02,1.742628097534179688e+00
-8.420765908592687810e-01,-8.616065099831206053e-01,9.553338211769870636e-01,-1.035082916366358852e-02,2.556078668620510343e-03,3.359490041241784751e-04,1.807348966598510742e+00
-8.544303730948514808e-01,-8.348087004445913228e-01,9.707729410780874257e-01,1.944769756905707567e-02,8.049916462258785779e-03,-1.298239582256295946e-02,1.815977215766906738e+00
-7.450580876673700281e-01,-8.163412692113636293e-01,1.012914952786203804e+00,5.382388767658830009e-02,-1.744924627954748397e-02,-1.848559501959546464e-02,1.797635674476623535e+00
-8.636194946749603529e-01,-8.264114634592535369e-01,8.582174687308292693e-01,1.739311920365499767e-02,-4.826252051323874637e-02,-1.346605705105540229e-01,1.721724867820739746e+00
-7.793096269024758493e-01,-7.920231649616337188e-01,6.643930349549234116e-01,2.872763909931576234e-03,3.283071445561444764e-03,8.687411945252151643e-03,1.450199007987976074e+00
-7.991871061123475561e-01,-8.571696247188186346e-01,1.050657768442043283e+00,5.624096645604262194e-03,-1.173137635206826165e-02,1.390415906608476714e-02,1.879796385765075684e+00
-8.481714909116925272e-01,-8.579718354829430904e-01,1.070225679029558341e+00,3.636984053166060753e-03,-1.731266566930003345e-03,-2.937605133701106860e-03,1.923335433006286621e+00
-8.533763310622916043e-01,-8.586959035781216443e-01,1.022420178568494098e+00,-8.353434310790100112e-03,-8.359685139962408362e-03,1.597193161262989644e-02,1.878777146339416504e+00
-8.656351261856187751e-01,-8.593202659001680788e-01,1.043489992235646868e+00,-2.466848331195664427e-03,-6.255949765951036336e-03,-4.178606893757269222e-03,1.906024813652038574e+00
-5.998453482213894628e-01,-8.657451890481698831e-01,1.035814891199396071e+00,5.066988859851625365e-02,1.807479330696322439e-02,-1.420045315560703424e-03,1.785972356796264648e+00
-9.476071975236434186e-01,-7.279256258782571543e-01,1.122384646092327021e+00,7.771424382897013095e-02,-1.336093995499912368e-02,-6.793273464639815185e-02,1.977595925331115723e+00
-8.955214789163249423e-01,-6.997011018517357295e-01,1.052166819512908358e+00,6.638685155413193151e-02,3.331932635727000158e-02,9.943729777520056434e-02,1.869934201240539551e+00
-7.464518804568374133e-01,-7.941991179536541656e-01,9.801453710393581709e-01,1.801086996865497447e-01,-1.727084998567160468e-02,1.984003889900952736e-02,1.779115319252014160e+00
-1.010749605783169081e+00,-3.583925483580751026e-01,1.017817691806966796e+00,-1.587034167774151877e-02,-9.246369461764767858e-03,6.527112429822444842e-03,1.794002413749694824e+00
-7.990097248360388260e-01,-9.203726391028040910e-01,7.877573830942870003e-01,1.544787338014137756e-01,1.174062374928763752e-01,9.933401942822792097e-02,1.693422317504882812e+00
-8.477077329462937572e-01,-8.730578288671987375e-01,8.151408303144442868e-01,-2.481645199603873392e-02,6.597539156483293865e-02,1.029945800746483592e-01,1.689553380012512207e+00
-8.564589737323079488e-01,-8.602047543756210501e-01,8.928790594566515804e-01,-1.083847620826028542e-02,4.401579434257488210e-02,8.604141207762673604e-02,1.759296536445617676e+00
-6.732886135870785882e-01,-8.147849877033962462e-01,9.622736971538570216e-01,1.764222805284179352e-01,-6.727645300468515499e-03,1.277121946161724128e-02,1.737961769104003906e+00
-9.562579597675308074e-01,-7.764946101138148205e-01,1.107333433462943439e+00,-2.409995536056831408e-02,2.114346780904428902e-02,-8.822218458207362404e-03,1.980677485466003418e+00
-9.051328534092489830e-01,-6.824899162964395138e-01,1.040568863724442350e+00,-2.677081655239576738e-02,-3.275810110283498573e-03,-1.297325255535335640e-02,1.845214247703552246e+00
-9.430496241550491154e-01,-6.902224712446850541e-01,1.099743686165211010e+00,-2.811557194635366796e-02,7.169760468146834514e-04,-6.140670541396307108e-03,1.929491758346557617e+00
-9.298362380929968696e-01,-5.179325687836422443e-01,1.033272985974430069e+00,-7.996594248238306224e-02,-5.999996928827456416e-03,2.494973679139405806e-02,1.798891186714172363e+00
-8.805753680958966489e-01,-6.406514273755417044e-01,1.038678764052012760e+00,-4.504739432850642100e-02,2.273288874946551713e-02,-4.296420741944973615e-02,1.814883112907409668e+00
-8.879127545057551307e-01,-6.499179603997395915e-01,1.059116799105307427e+00,-8.523033080853972820e-02,6.315887421818812582e-03,-1.614019737584754255e-02,1.845772624015808105e+00
-8.225619078479619040e-01,-8.458165748955033258e-01,8.722690008264641914e-01,9.538798452948936846e-04,1.336205864049551774e-03,-8.326566923302015227e-03,1.706640362739562988e+00
-9.098754642582476126e-01,-5.921480685387698895e-01,1.043009637833212766e+00,2.958185207355770729e-02,-3.648608687969951640e-03,-1.677667186098532465e-02,1.815966844558715820e+00
-4.968775043282600001e-01,-9.137183609025595343e-01,9.998175841965282196e-01,-5.692903787345645478e-02,-2.024437009107156894e-03,1.127742905243708620e-02,1.745810031890869141e+00
-6.757079595660208104e-01,-8.944485920721507721e-01,1.033697398830316416e+00,1.342372729266539527e-02,1.678561272402610480e-02,-1.505914137386722002e-02,1.829179286956787109e+00
-8.322386557177903210e-01,-8.450115075626850603e-01,8.883677871115689406e-01,1.531999595959529503e-02,-1.165867472359415806e-03,-1.652573918843385295e-02,1.727470517158508301e+00
-6.335688787006341638e-01,-9.295684336959314509e-01,1.051448724342412655e+00,-8.574370040351518563e-03,-2.602997687173004560e-02,6.670735018093339012e-03,1.851499676704406738e+00
-8.735282431272262116e-01,-8.237146157945959279e-01,9.217846393285387130e-01,1.176560706998944911e-02,5.301353816931955731e-02,9.092163575080605686e-02,1.780405998229980469e+00
-8.711578137064774907e-01,-8.330193366478584327e-01,1.009191602135112387e+00,1.934946448431107023e-03,1.789374374058379583e-02,2.539612614539078078e-02,1.862353801727294922e+00
-7.801568494725441560e-01,-8.815122585416046430e-01,1.054984767082117969e+00,3.947125872010162108e-03,1.581181205329238240e-02,-1.809874824594553261e-02,1.888332247734069824e+00
-7.254175866998656685e-01,-1.386590752108388003e+00,9.142193286193844859e-01,-4.018735645913079080e-01,1.165969751376204518e-02,-4.571426264446422361e-02,2.168139219284057617e+00
-9.097167171740594416e-01,-8.485996400437847420e-01,1.065756064003427817e+00,-1.663797552749323805e-03,-2.709187133303737026e-03,1.292239046548380663e-02,1.945770859718322754e+00
-8.756771973790838937e-01,-8.079290520244594154e-01,8.513584449150797262e-01,-3.922878142325003648e-03,-6.598232478792666333e-02,4.780741103096910333e-02,1.700059533119201660e+00
-5.866828452086456647e-01,-9.159885017198885482e-01,1.033257879918858979e+00,1.521673532087551052e-02,3.753340224397892777e-02,1.681483798292977144e-02,1.808832526206970215e+00
-8.820837870568833949e-01,-8.417808970629782062e-01,1.023945583213552002e+00,2.127965802160242201e-03,-2.549837948305552424e-02,4.880457267685187756e-02,1.888614177703857422e+00
-9.415706728014811011e-01,-6.727429865118264019e-01,8.640932306999673518e-01,-1.904038426755492314e-02,1.611678931139383722e-02,5.777395031545068393e-02,1.690904617309570312e+00
-9.294874565321193938e-01,-5.788986460943310597e-01,1.024729002486407525e+00,-2.584779270828952737e-03,1.527922539752546091e-02,3.145450424846440302e-02,1.805667877197265625e+00
-8.355017156825284008e-01,-8.670721517083306296e-01,9.097321817662513688e-01,3.792416868893849942e-03,1.027341148807324987e-02,4.638784403820919722e-02,1.763165116310119629e+00
-7.981181192603856722e-01,-7.533783207914501734e-01,1.012701338432289377e+00,-1.070807586936532545e-02,-1.159568603791254725e-02,-5.112606069521559958e-03,1.789100050926208496e+00
-5.557212975018761547e-01,-9.430167934449633638e-01,1.036697679527941451e+00,4.959119844327988802e-02,-5.212475307714160150e-02,1.826887390188576543e-02,1.821829557418823242e+00
-8.947236086440795155e-01,-4.972186556246770417e-01,1.042091488187360637e+00,-1.730044017592433370e-01,-1.762155000791848156e-02,1.998668320108792570e-02,1.797579169273376465e+00
-8.233631606627788146e-01,-7.788149554155604504e-01,1.033103247108309475e+00,-6.659321119963213138e-03,2.404531900032155257e-03,5.014731052102064553e-03,1.834659576416015625e+00
-8.931244319153721634e-01,-6.695088503635777677e-01,1.017566197366483793e+00,-9.957432053096246238e-02,-6.940455880918324286e-03,5.899156345821456038e-02,1.820387840270996094e+00
-8.225533953093877582e-01,-8.363582845665360477e-01,9.689147973197449470e-01,-1.768276202288129526e-02,-3.010124217703271515e-02,2.355681870279315721e-02,1.799889206886291504e+00
-8.882284710216729051e-01,-7.052434006176884207e-01,9.462777529554367018e-01,-8.175247501934380934e-02,5.007596758043316582e-02,-2.483417938450461007e-02,1.758588314056396484e+00
-3.268856877167704567e-01,-1.378958760499717551e+00,8.254949799247626174e-01,-1.644866916383905808e-01,-1.004874967437198313e-01,-1.304298221808084246e-01,1.951851487159729004e+00
-9.927202026214568820e-01,-7.116813525229067627e-01,1.210177802517569789e+00,-2.168812554901409506e-01,4.721854807507021995e-02,-8.597338549346725256e-02,2.117219448089599609e+00
-8.283795225959281749e-01,-7.716032233207414937e-01,1.027804996781617408e+00,-4.743688471917090893e-02,-1.985020090118967944e-03,1.168463635506522894e-02,1.830417871475219727e+00
-8.958020469974671274e-01,-7.661809675635251615e-01,1.073825315612496167e+00,-2.761797439747747801e-02,8.288471834053429133e-03,3.500510138780081604e-02,1.909737825393676758e+00
-8.797868103015651364e-01,-8.446513208128761940e-01,1.067310566066119293e+00,1.984562374043801023e-04,-2.865630773021471574e-03,1.384730010287698806e-02,1.929924964904785156e+00
-8.641575801672313206e-01,-8.363071153970947913e-01,9.761058380132396906e-01,-2.583311411346399245e-03,-1.020360463827959564e-02,7.545667413441219454e-03,1.826635122299194336e+00
-8.421908601616702184e-01,-8.870726315654307026e-01,1.064349605690567468e+00,-9.474419872993421893e-03,-2.045649731925542475e-02,1.082485730445436646e-02,1.929859042167663574e+00
-4.405743832166180152e-01,-1.317637351284815184e+00,1.640687903853594198e+00,-3.331817355867630615e-01,-6.735038695964841449e-02,-1.606697051101754758e-02,2.696980476379394531e+00
-8.231137488709180383e-01,-7.787106070524870693e-01,1.032125449066346956e+00,-7.314125925616235882e-03,2.065916988622213887e-02,5.041271111383215098e-03,1.833854675292968750e+00
-8.600567058540096177e-01,-8.747403016550397981e-01,1.022208821030107018e+00,6.137352833827814519e-03,-1.293132792370297636e-02,-5.382815809375593452e-03,1.889835715293884277e+00
-7.383818873129235349e-01,-8.844808321250617889e-01,9.836139430527577332e-01,-2.147234716495295334e-02,4.365607221525675055e-03,-1.275001828741384978e-02,1.800034523010253906e+00
-8.217042026720825509e-01,-8.545633724514964946e-01,8.911669296523530015e-01,-3.094410146679549712e-03,-6.194306612817108287e-02,4.551540406142116912e-02,1.734660029411315918e+00
-7.604866255091591309e-01,-7.601950944640378793e-01,1.000552495098946393e+00,3.514668255424235194e-02,-2.261448911686707135e-03,6.272067908873508340e-05,1.761949658393859863e+00
-6.209690562112646361e-01,-8.997350294322735698e-01,1.037378985917004837e+00,-1.200437190954519590e-01,5.987078079376797340e-02,-3.610612629973979776e-02,1.829758405685424805e+00
-8.295134549079137276e-01,-8.690824900385403229e-01,9.560503915470497383e-01,-5.753858102443659174e-03,-4.659275708234392188e-02,3.270101176760891598e-02,1.808390736579895020e+00
-8.686830737538883129e-01,-8.634744784579206911e-01,1.023274021301525893e+00,4.784703626287837089e-03,-8.719135819569312842e-03,6.676382200721874688e-03,1.889472126960754395e+00
-1.251546083939759635e+00,-4.612502947964097766e-01,1.706606535645019962e+00,4.598012840959985748e-01,1.881613172679640067e-02,-1.112653420668563709e-01,2.776665687561035156e+00
-7.929858420940332220e-01,-8.706259182610703862e-01,1.025582335793378430e+00,-1.946914868911231444e-02,1.622619058708086454e-02,-2.429711270656765426e-02,1.859599471092224121e+00
-8.550545767020369947e-01,-8.619721020831062619e-01,1.046752670405024066e+00,-2.269649661532030863e-03,9.216524203215241753e-03,-5.905711909453216849e-03,1.905373811721801758e+00
-8.014236922354680548e-01,-8.539251440126593984e-01,1.054455867898474786e+00,-3.169671807211421610e-02,-1.901804701484204919e-03,5.516386935535560337e-03,1.883506774902343750e+00
-7.201129393092451370e-01,-8.007753860448603156e-01,1.000063669007561939e+00,-1.510259616771578335e-02,-2.266471146069321506e-03,4.064344794101211987e-04,1.762091875076293945e+00
-8.492503990619761911e-01,-8.415665726595635832e-01,9.827609748210952567e-01,-6.781372805510232221e-03,-2.134803378197540694e-02,3.272115727242096844e-02,1.829471230506896973e+00
-7.972619211301595898e-01,-7.200501181003694517e-01,1.006371446460225139e+00,1.265564658059397697e-02,6.017813718577040213e-03,-3.620438600728367786e-03,1.766471505165100098e+00
-8.151321503686402847e-01,-8.085674227903527633e-01,1.059481635360409069e+00,-1.606468076867963168e-02,3.408046344886271964e-03,-2.655694452288514477e-03,1.871561884880065918e+00
-8.490976877768026121e-01,-8.620471162466751824e-01,1.061955477859013675e+00,-2.861445914787604395e-03,1.195361344372281162e-03,9.574982871905193121e-03,1.917639851570129395e+00
-7.121690830817517526e-01,-9.133774173071486091e-01,1.069244679954625576e+00,1.084140621786288707e-02,-2.294372348241299417e-02,1.146052366689071303e-02,1.890682697296142578e+00
-7.898301302827710479e-01,-7.187383462036358583e-01,9.956904589155894936e-01,1.421991414106864304e-02,7.638640157286120252e-03,-9.162314016869318621e-04,1.751281261444091797e+00
-8.560729292434209325e-01,-8.587367319941224819e-01,1.074679288563967994e+00,-2.095315143449642727e-03,4.557131946436965113e-03,-1.636055336168146029e-03,1.932107090950012207e+00
-9.332128650544321280e-01,-7.721091596306020044e-01,1.066965448727073884e+00,1.032965781616319682e-02,8.556653619796921253e-03,-2.769990866264803592e-02,1.925428032875061035e+00
-7.470609685409086431e-01,-7.566365817950393424e-01,4.396308061591486238e-01,-1.749231436798826238e-03,-2.569465986768996318e-02,5.198013455758125276e-03,1.192377090454101562e+00
-8.206123647552190370e-01,-7.864157345958503464e-01,1.031365225861192503e+00,4.248804552844095972e-02,-7.708204802051832685e-03,-1.467543081617045213e-02,1.836817622184753418e+00
-7.101404096571387603e-01,-8.958052125089200901e-01,1.052527955910679269e+00,1.616923139471362902e-02,-2.783115211410031389e-02,1.372457654084749575e-02,1.863440275192260742e+00
-8.525854064768899621e-01,-8.058218848851522731e-01,1.052315899188171811e+00,-1.717866941243458706e-02,1.540403745407759213e-02,1.169119072749336867e-03,1.882380723953247070e+00
-7.567365355799533511e-01,-8.187036839387812348e-01,1.024451025669165460e+00,1.997203692441383918e-02,-8.347214108967999924e-03,-7.031591556660700404e-03,1.813394069671630859e+00
-8.528276817328466208e-01,-8.600015049981483140e-01,1.070121818156153370e+00,-1.675723060929350380e-03,-1.595494642383239953e-03,4.542955906638733270e-03,1.926566720008850098e+00
-8.954917437896747767e-01,-7.056549663828546315e-01,1.091348419544140080e+00,1.758502465923297009e-01,2.759113034841384135e-02,3.072633378234875326e-02,1.924651265144348145e+00
-8.162737644206995435e-01,-7.865100605703776449e-01,1.049012296359414176e+00,5.497539074792764241e-02,-8.925562816168569960e-03,-9.230272673260543972e-03,1.853165268898010254e+00
-8.888981982113381974e-01,-7.876425214354915161e-01,1.084988246695540726e+00,5.263470435960519722e-02,-7.256325548826967481e-03,-2.486568247126634545e-02,1.927936077117919922e+00
-8.305550149503448942e-01,-8.134928369683434024e-01,1.021111078725603916e+00,4.368614854780653034e-02,-3.638257003934983191e-02,-3.948789676567574652e-02,1.847089409828186035e+00
-8.690044313860305625e-01,-8.818849615895655303e-01,9.375405228969853066e-01,1.032518011846344369e-02,3.357648732521480855e-02,1.255676342399044965e-01,1.827031373977661133e+00
-8.685749978484567091e-01,-8.639956110394411137e-01,1.061521617267666251e+00,1.912687557201404745e-03,-2.932318040463162565e-07,-2.557367599045522882e-03,1.927818894386291504e+00
-8.182736125075381617e-01,-8.062197091920499936e-01,1.038401098692308677e+00,-1.877953214810711494e-02,1.827880242519980963e-02,3.616096508218304313e-03,1.851244330406188965e+00
-8.001403631560946028e-01,-8.462520320257164164e-01,1.024582459776751442e+00,-2.107356317338531654e-02,1.587660307451098721e-02,-9.712718131500744714e-03,1.848851561546325684e+00
-8.685538748393669684e-01,-8.612998006138219420e-01,1.031903383704670718e+00,-2.267554202760128750e-03,-7.393197400320456261e-03,-4.959057931417400027e-03,1.896907329559326172e+00
-8.224376043789130009e-01,-8.390448769958737119e-01,8.588366893017909121e-01,2.522913899735013381e-03,2.030903245975925527e-03,1.062602465889799647e-02,1.689748644828796387e+00
-8.660412031947120060e-01,-7.502542993727574494e-01,1.037287442003282045e+00,-8.487375970342606740e-03,7.846493095216813124e-03,-1.571472917948948250e-02,1.848466277122497559e+00
-8.589431598773692444e-01,-8.738177623778871084e-01,1.037944013315500680e+00,3.806797124686497891e-03,-2.669438142071415936e-03,-6.094780103767290062e-03,1.904414296150207520e+00
-8.585422006725760280e-01,-8.052639102733777365e-01,1.022064041570380111e+00,-1.199421061514242479e-02,-1.194604863631586319e-03,-1.589506277045141594e-02,1.854863047599792480e+00
-8.193229879847759856e-01,-8.565754567206806946e-01,1.042070537454614865e+00,-3.409338810394906688e-02,-4.072758975786099078e-02,1.948127591290254798e-02,1.882848143577575684e+00
-6.882308986329844780e-01,-8.503870351329069210e-01,1.035149889034450821e+00,1.862713345289973565e-02,2.056016068602002644e-02,2.278265637670066554e-02,1.810982823371887207e+00
-8.491149013229507547e-01,-8.633502488338656855e-01,1.014205313344936021e+00,3.974814121640331667e-05,-2.792511020227488212e-03,-2.458603998781306536e-03,1.870489597320556641e+00
-8.579960824156641630e-01,-8.438944866505002640e-01,1.016368889254481100e+00,-3.378537941499968949e-04,4.272682700054149067e-03,9.376247549830584588e-03,1.867439508438110352e+00
-7.633079706766343620e-01,-8.321431128031113733e-01,1.005645253810777406e+00,-7.071789302354040962e-02,2.021800271307856722e-02,-3.270031916630556507e-02,1.809733986854553223e+00
-8.604887690223772534e-01,-8.499520127374660117e-01,1.035576682480266575e+00,-4.876084840327426714e-03,1.008279677319763416e-02,1.674282262312723479e-02,1.891140937805175781e+00
-8.471303991994700855e-01,-8.356980316495621341e-01,1.059474509319189739e+00,2.235724296278336198e-03,-1.491949405733045478e-03,8.199510074100970283e-03,1.900973320007324219e+00
-7.695868505175559315e-01,-8.922135573499679895e-01,1.052430384641244165e+00,1.048647016880462730e-03,-3.343870015719478672e-02,1.756524921580178075e-02,1.887457370758056641e+00
-7.658618506494556666e-01,-7.516697818685562638e-01,1.006579027990547770e+00,4.029502344313906637e-02,-5.632020484722792888e-03,1.956830013040940838e-03,1.766796827316284180e+00
-7.323862617363766647e-01,-7.578181346475025837e-01,1.040850970848967716e+00,1.235108399896681641e-01,1.239179780576597778e-02,2.062901424108708887e-03,1.798986434936523438e+00
-8.648057652959665331e-01,-8.591259966249417124e-01,1.036286568313404377e+00,6.304165336153490923e-03,5.761319748547525169e-03,5.571715005332906513e-03,1.898340940475463867e+00
-8.202113382962660237e-01,-8.391851137480436096e-01,8.580862456777385017e-01,8.652088298623692234e-03,-4.417480493155852631e-03,1.070763738680221254e-02,1.688050150871276855e+00
-8.093366529573027268e-01,-7.361916346764760810e-01,1.042944316993913434e+00,6.704082555508956986e-02,-1.197667208942782349e-02,-8.168126311453022606e-03,1.820693254470825195e+00
-8.373126181361413289e-01,-7.890553734238618944e-01,1.077667614310102939e+00,7.325280611125840891e-02,-4.279778971885803314e-03,-4.201190695867481478e-02,1.896975040435791016e+00
-7.834810521429288466e-01,-8.221646505775367375e-01,1.043489232780675291e+00,5.305682419297957225e-02,-3.516838715666267129e-02,-3.611132280925104243e-02,1.850961446762084961e+00
-8.699117316586321147e-01,-8.625565306208027305e-01,1.046134922060782735e+00,2.053663114429619702e-03,-3.527850258390002013e-03,1.906498147193553747e-03,1.912395596504211426e+00
-8.470046210171535694e-01,-8.699548020097048751e-01,1.046295643009904186e+00,3.025387842672398481e-03,2.245952832700831223e-02,-3.487627343882182367e-03,1.905292987823486328e+00
-7.600344426212123361e-01,-6.888004624720371893e-01,1.113493355638604632e+00,2.146516114917943752e-01,-1.922615200396367990e-02,-5.431590668583792525e-02,1.878804802894592285e+00
-8.304048170338228507e-01,-7.061603430605059017e-01,1.023708002826789532e+00,7.948011919447077467e-02,1.550963577908793124e-03,5.671686627405041550e-03,1.800517320632934570e+00
-9.961819908090403519e-01,-3.768677903341944302e-01,1.051341493242262004e+00,-6.435608463692230052e-02,9.134964873194845181e-03,-5.947148444583889859e-02,1.825137853622436523e+00
-7.470696627457567018e-01,-8.586933367345692680e-01,1.036690397383286610e+00,-1.258447306590928551e-02,2.507239527901019768e-02,-2.402354262737241633e-02,1.843220591545104980e+00
-9.978398993263921657e-01,-4.742403889950499996e-01,1.078360869217399154e+00,-6.799468890706142875e-03,4.469301287840837279e-03,2.409771917407195832e-02,1.870724201202392578e+00
-8.541270286330920891e-01,-8.618594747085507324e-01,1.003245727750972094e+00,1.421076198902558119e-03,4.308474153960735291e-03,-9.834213538977051861e-03,1.861345529556274414e+00
-1.012060076308115342e+00,-4.755079984108249169e-01,1.085494634181332962e+00,-3.946614020640054100e-03,-4.443459677330267692e-03,2.582941095487571032e-02,1.887931108474731445e+00
-9.909558649768094307e-01,-5.166805291296201474e-01,1.056830103756172035e+00,-2.697031654579614898e-02,9.710629381037529789e-03,2.275657930037830110e-02,1.857732176780700684e+00
-9.819430986907707881e-01,-5.060647459119498315e-01,1.053147677202026511e+00,-4.624100727566417268e-02,-1.506168668835329918e-02,3.187717282446446421e-02,1.846548914909362793e+00
-8.101073089675164818e-01,-8.199110022306241863e-01,1.041289333026899300e+00,-3.047879459662393951e-03,2.873362171799689457e-03,4.687755470365737726e-03,1.856349825859069824e+00
-1.004339642671253419e+00,-5.026692504316481180e-01,1.045656736133696585e+00,8.103453817490115577e-03,2.554854460860693163e-02,-2.895502122180087026e-02,1.852135539054870605e+00
-7.803162963176895062e-01,-7.843216040543273815e-01,6.428345471533812860e-01,4.659014895233746893e-03,-5.759521848644397202e-02,4.332172301562792552e-03,1.428687334060668945e+00
-8.099016206722905453e-01,-7.956774176692033018e-01,7.551154646281974525e-01,1.488982699657228487e-02,1.198111910699328070e-02,5.967651213830606899e-02,1.561729550361633301e+00
-8.493453012113464373e-01,-9.051440738411956621e-01,1.081507474435057015e+00,-4.483384186397299659e-02,2.888688109088817513e-02,4.202157805768888012e-03,1.961538076400756836e+00
-8.162621825556121147e-01,-8.612365277626788940e-01,8.919246180737474550e-01,3.998184922828846438e-03,7.242099137293847577e-02,7.196374644768591122e-03,1.735709428787231445e+00
-7.476886152892404658e-01,-1.025714467764783144e+00,9.687443915116569215e-01,1.796995765029046552e-02,-2.754144681812599124e-02,4.169620893609129325e-02,1.873262763023376465e+00
-7.997064206827092514e-01,-8.605246541799778104e-01,1.054801026587659729e+00,5.208429146560914109e-03,-1.114746209785410190e-02,1.418185587774760392e-02,1.885932683944702148e+00
-8.302160501328278430e-01,-8.730175663570141076e-01,8.906671449927454631e-01,-1.166786853827665379e-02,9.016552314543331559e-02,2.348457754714213669e-02,1.750251412391662598e+00
-8.169088900151866284e-01,-8.350422900326806008e-01,1.050276519982438650e+00,8.053181361588742856e-03,-2.186302340451088538e-03,-4.682582167007012623e-03,1.876391053199768066e+00
-7.774016188383904291e-01,-8.796256185358013457e-01,6.124501838917771890e-01,-6.833966316225294213e-02,1.362247779837535422e-01,1.479941775236568238e-02,1.467839717864990234e+00
-8.105731623208738412e-01,-8.359133999239203305e-01,1.046963237060892782e+00,-4.332215370489761637e-03,4.263205142600544166e-03,1.311546884741250467e-02,1.870502829551696777e+00
-7.596897846465937576e-01,-8.743903752741511992e-01,9.707488789471470092e-01,-2.020501551751176066e-03,1.256024881237030296e-03,3.000940999219543163e-03,1.790558695793151855e+00
-7.503971230341917042e-01,-9.099795495866823680e-01,1.081729193267364275e+00,-6.060953891877252780e-02,3.098067166237600256e-02,-4.032903361336330657e-03,1.920540928840637207e+00
-8.642601440105593946e-01,-7.835875543160255585e-01,1.008601587222403007e+00,2.975468960769038149e-02,2.144334455712336093e-02,5.578752817703930798e-03,1.834982156753540039e+00
-8.490796527009666361e-01,-8.634711111037084441e-01,1.062461322658358576e+00,6.635272730600975553e-04,-1.370032727146309722e-03,-1.162456982467334780e-03,1.918780088424682617e+00
-7.504353165371026035e-01,-7.531972357635347004e-01,4.927189436360156494e-01,8.182772613627466163e-03,-2.503217026889665436e-02,4.476365734654824680e-02,1.247784256935119629e+00
-7.712214321142190077e-01,-8.262154464502668993e-01,1.032039234093493407e+00,4.213044914512666106e-02,1.157705123472744894e-02,2.135364484655618428e-02,1.833313107490539551e+00
-5.869330162643617843e-01,-8.909905527963015714e-01,1.081277800001894329e+00,1.803673757600938177e-01,2.253568304637127567e-02,1.535383606983503103e-02,1.866129279136657715e+00
-8.025388496031268248e-01,-8.103221614173284904e-01,7.436428590526968918e-01,-6.808015858906529827e-03,1.075447592916288497e-02,5.107186216901112409e-04,1.550245046615600586e+00
-8.182563988546650569e-01,-8.286206098837642919e-01,1.045774831056309084e+00,9.667874683649718345e-03,1.528626313827729892e-02,3.874834806715629805e-03,1.869509458541870117e+00
-8.594697715593904164e-01,-8.443405499058770358e-01,9.613344222774127257e-01,-1.148602865302388032e-02,-7.993524721465045807e-03,1.291865072066367137e-02,1.813586950302124023e+00
-8.522851031412478351e-01,-8.352254952151468848e-01,9.322133678767474674e-01,1.479428083288900075e-02,-1.170662855462687758e-02,8.275680841611329774e-03,1.776388525962829590e+00
-8.615253236042672569e-01,-8.776702138818314181e-01,1.037166416334402763e+00,-1.153246555082084943e-02,-1.111866335100854079e-02,-2.066489554118098454e-02,1.907353162765502930e+00
-8.204925674520778811e-01,-8.751833904183512480e-01,9.338625419167476682e-01,1.360882601334715766e-02,-1.833916791631789306e-02,-4.752797062610397000e-02,1.784668445587158203e+00
-8.072791221382247251e-01,-8.625735756805004151e-01,1.046495644047942930e+00,2.315775739065698002e-02,1.819057738903569546e-02,1.877385059096544490e-02,1.883003115653991699e+00
-8.655000248135986674e-01,-8.583778308723254424e-01,1.055310357163558033e+00,-3.254581112616883581e-03,6.936092068571445002e-03,-3.133837653489199813e-03,1.917312860488891602e+00
-8.759032507898365516e-01,-5.778564325409696334e-01,1.149419114867026970e+00,1.672133283911246548e-01,3.164277990381705874e-02,1.378216425236317502e-02,1.916918396949768066e+00
-7.832515628154171905e-01,-8.931865335032147524e-01,1.061413893155679800e+00,-5.217692143080722086e-03,-2.417015422766116001e-02,-1.505031627235388358e-02,1.902677893638610840e+00
-7.167026816879777940e-01,-7.301986321164806171e-01,9.829960849426329084e-01,6.819910486832622687e-02,-2.966601480764373324e-03,-3.664629446038095758e-03,1.710589647293090820e+00
-9.357907942171315163e-01,-7.317097699501619035e-01,1.200449661136633761e+00,2.987220867012022607e-01,-8.218344130595206520e-02,-4.872643005314644671e-02,2.112888097763061523e+00
-8.531649856796286180e-01,-7.065284027009348655e-01,1.007382463647306992e+00,5.027441794439645173e-02,-3.102428493091843181e-02,-4.390252371298439260e-02,1.796264767646789551e+00
-7.143584926802234447e-01,-8.775701025711721837e-01,1.048464164841387714e+00,1.059601278208468500e-01,-2.497226287328930400e-02,2.678981685355200787e-02,1.860000371932983398e+00
-8.637255059891928433e-01,-7.754673947104671061e-01,1.062525780528696950e+00,6.760448234991833782e-02,-3.550121922494340471e-02,-4.604143434944344554e-02,1.889994144439697266e+00
-7.461214661172873575e-01,-6.946440168624240519e-01,1.015445554821108098e+00,2.014299029393860352e-01,2.302343885057848982e-02,1.880503572326506362e-02,1.771852254867553711e+00
-8.455331564709173131e-01,-8.388340629827980566e-01,1.084379184453219791e+00,2.352927770022062992e-01,8.800900870228308207e-03,5.213098361454516355e-02,1.971332311630249023e+00
-8.203668939555750494e-01,-8.293017072024022607e-01,1.039088929654657489e+00,-1.903461411382472226e-02,-1.517793210209658194e-03,1.067692025055640495e-02,1.864324450492858887e+00
-6.472481120133051213e-01,-9.662026988996853527e-01,1.068378407084241699e+00,6.174228130650108925e-04,-3.743651306520306976e-02,-2.569206924483240489e-03,1.896454215049743652e+00
-8.489752720530170382e-01,-8.660396615390381081e-01,9.800263349625586429e-01,-7.319037222103336399e-04,-7.234063428730026953e-03,1.911142447974799319e-02,1.837934494018554688e+00
-8.447082044734057771e-01,-8.567256576063811968e-01,1.031005169100300378e+00,-2.151359350533440639e-03,1.046775258763296690e-02,-7.374330761011651386e-03,1.881885290145874023e+00
-7.892810371011917958e-01,-8.196335763117913453e-01,1.036994509286144783e+00,-7.798219891643177158e-03,-1.878775983278366951e-02,1.387663986078452143e-02,1.842133164405822754e+00
-7.485807399021539021e-01,-8.683090482898681017e-01,1.052809634562370089e+00,-6.001013954227332053e-02,2.421702647692008242e-02,1.154311601254424599e-02,1.867614030838012695e+00
-7.488116535789446360e-01,-8.180201424760068507e-01,1.028193213385171445e+00,-8.965827671990484957e-03,7.641938267061811930e-03,1.461813297627078366e-02,1.812891960144042969e+00
-6.586585394678554639e-01,-9.301672242628815646e-01,8.915180989420867785e-01,-6.209153060559112480e-02,-3.654593361525204642e-02,-3.373894513212506024e-02,1.707816958427429199e+00
-7.668451217314182777e-01,-7.689580587054083427e-01,5.829631796181088399e-01,-6.252610601216776476e-03,-4.449580219246966617e-02,-4.405319984595239269e-02,1.355255722999572754e+00
-8.104220022284265301e-01,-8.453985953655218655e-01,1.047325990050580025e+00,4.582311635285404514e-03,1.656428315979548236e-03,2.215429100230698403e-02,1.875892400741577148e+00
-5.504089146665611665e-01,-1.396665552621220829e+00,9.966149594024587000e-01,2.434875605112380714e-01,1.622211343917857318e-01,6.144217880363512380e-02,2.164888858795166016e+00
-4.665905117766990240e-01,-1.101851404643360954e+00,1.096443224847697628e+00,1.426943600802945966e-01,-4.049819363283656271e-02,7.701383864627707118e-03,1.976296663284301758e+00
-7.866723291441392041e-01,-7.802657266842528694e-01,6.414049775207916193e-01,-3.675432879942427695e-03,2.813598266582488516e-02,-5.567981218978362151e-02,1.428990125656127930e+00
-7.833266197978620005e-01,-7.662601495740085644e-01,6.287287102378724679e-01,-1.097485090988070157e-02,-2.989221996314497115e-02,1.022053923629873129e-02,1.404794692993164062e+00
-7.510818847611497873e-01,-7.504741896309599092e-01,5.499322971734780241e-01,9.142050736709254888e-03,8.651144660617667709e-03,2.756661343258093051e-03,1.300901889801025391e+00
-7.693155408945875351e-01,-7.681544937112358973e-01,5.492944125628019814e-01,-1.504224695718184204e-03,-2.597076039911588169e-02,-6.610382205457815408e-02,1.323760509490966797e+00
-7.440400550074304231e-01,-7.256053262084327660e-01,4.721889945033856950e-01,8.744257942181140903e-04,-4.355289377851070953e-02,1.137960523438039367e-03,1.209474563598632812e+00
-8.650068414459554100e-01,-8.524086761531095569e-01,1.055327170671003234e+00,5.155856112376367220e-03,6.032927063576501263e-03,-3.540034093884317917e-03,1.914125204086303711e+00
-8.463973605866877969e-01,-8.379316452502034718e-01,9.207286663098892543e-01,1.358239366824668705e-02,7.446439314196410218e-03,-7.519878045748063997e-03,1.763160705566406250e+00
-8.234764704335884034e-01,-7.841890441393918332e-01,1.035440491151639497e+00,8.756276805282783501e-03,1.505369990483074356e-02,1.601214858430151378e-02,1.840044260025024414e+00
-1.649694667624295452e-01,-1.394917599586729562e+00,1.386303116719041162e+00,1.892402364807142801e-01,1.279258470976221695e-01,1.050016880591093521e-01,2.452918767929077148e+00
-7.858749365391717312e-01,-7.926144422212628715e-01,6.645429809375794639e-01,-7.812566534272173333e-03,9.315622365194076116e-04,5.097630379381833110e-02,1.456541776657104492e+00
-1.104720767822451988e+00,-4.268154586465171541e-01,1.242371369546477311e+00,9.879430903248501150e-02,-3.153388834796676948e-02,-4.654475922282401423e-02,2.101440906524658203e+00
-9.000728883953250659e-01,-6.997397487562013740e-01,1.055830253700936305e+00,-9.948810895784527056e-03,-7.480973222473318550e-03,-1.256283665679776805e-02,1.864080667495727539e+00
-8.460799124495712586e-01,-8.563319049161927099e-01,9.647245216719384509e-01,-1.342278363811285832e-02,-1.200434601851830922e-02,2.040545815754849640e-02,1.816563844680786133e+00
-8.360649952834502407e-01,-8.465268200515149166e-01,9.014940333767966774e-01,-6.099660579541075524e-03,1.009008950989281374e-02,7.811287093931616049e-03,1.742985606193542480e+00
-8.532467799951155563e-01,-7.931098559646089230e-01,7.425070784292693293e-01,3.342468578471154573e-03,1.648588267456759654e-02,1.902786968000143991e-02,1.567168831825256348e+00
-9.224199884192518795e-01,-6.433716865382688166e-01,1.041425154618574656e+00,7.561182435715778360e-02,4.499840390006174396e-05,-4.760712006600730656e-02,1.846753597259521484e+00
-9.290200005735931299e-01,-6.067464095201249297e-01,8.551735906123032471e-01,-3.140790649364615800e-02,2.190728558475145762e-02,-5.973358187039770617e-02,1.651457548141479492e+00
-8.730031428853737285e-01,-8.665136484753617196e-01,1.073117215607334973e+00,-4.851327131126093387e-03,9.451123210454817711e-04,3.749361520828346263e-03,1.942913413047790527e+00
-8.364408005804033763e-01,-8.699860220806843181e-01,9.718992334680118805e-01,-4.358586879173175464e-03,3.154252276745044600e-03,3.582669761424727654e-03,1.825378179550170898e+00
-8.642015291132635335e-01,-8.690758144590267076e-01,1.052410965142672294e+00,-3.068546833880734116e-03,-1.874462669264228805e-03,-1.511906024575205079e-03,1.919066190719604492e+00
-8.577624551185955015e-01,-7.779273534035986426e-01,8.978918641810524903e-01,7.427629262891663475e-02,8.365445640882475387e-02,4.573480225460883203e-02,1.729841947555541992e+00
-8.234301227503826315e-01,-8.158667310876038803e-01,7.880329372582073333e-01,4.029232111496990239e-03,2.775378202369667077e-02,-2.160506800083532297e-02,1.608863592147827148e+00
-8.469670015998080892e-01,-8.272524093640040155e-01,7.642918592288534541e-01,-1.883269787441425869e-02,5.272172159574764483e-02,5.134495089275099844e-02,1.606888294219970703e+00
-8.616254975992329035e-01,-8.689675564362889792e-01,1.034936960710556741e+00,-5.021219287454255220e-03,-2.229406852441936666e-03,-7.593232728481840929e-03,1.900313496589660645e+00
-7.264124484216951672e-01,-8.294342338387638014e-01,6.901055783413473366e-01,3.175717939233210774e-02,-1.266415611865179536e-01,-3.165150522503556302e-02,1.489031314849853516e+00
-8.527799312161159495e-01,-8.477085972789673018e-01,9.835901935842010779e-01,-3.684481005457411300e-03,-2.768507813935061623e-03,3.251070959378847200e-03,1.833865761756896973e+00
-8.514081563384751083e-01,-8.893512728809928047e-01,1.009617337435865014e+00,8.770613924409068410e-03,-2.640084578817928837e-02,-4.799285750712403015e-02,1.882737517356872559e+00
-5.966603761242801340e-01,-9.939849148087502861e-01,1.157699945157251831e+00,1.805413228921103619e-01,-1.471441322089736270e-01,-7.270904235756682488e-02,2.027633428573608398e+00
-8.053982725269536180e-01,-8.266680261039694999e-01,7.680497096422118641e-01,3.505066557509309288e-02,-1.332157760609717703e-02,-2.032048900473135480e-02,1.585911273956298828e+00
-8.545606277475618073e-01,-8.705385735671495873e-01,9.978205650052096587e-01,7.523632600030479012e-03,7.125422400525239022e-04,6.128002894014398551e-03,1.860497951507568359e+00
-8.554513453156686875e-01,-8.644774623141204817e-01,1.042147139258049693e+00,-3.490348692176967974e-03,-1.842143843223020133e-02,-6.632691894056089166e-03,1.902439475059509277e+00
-8.652868105256554809e-01,-8.650113106855088496e-01,1.073084502544671803e+00,-1.547649005768417544e-03,-2.747528910926827408e-03,4.047792371454106766e-03,1.938253998756408691e+00
-8.366505011972168449e-01,-8.711532694623561612e-01,1.033718199282506633e+00,-1.935537777491610351e-03,-2.282424933624720501e-02,9.274015054652652449e-04,1.888274073600769043e+00
-7.291055369573733458e-01,-7.233918034812599762e-01,9.851394090268115189e-01,6.727445325389119768e-02,9.522957238393272433e-03,7.078241809106603638e-03,1.715480566024780273e+00
-8.498904703510029579e-01,-8.658574228815227869e-01,1.045606310001193417e+00,3.431271638459307835e-04,-1.985764496991046860e-02,1.165513064685095614e-02,1.903948307037353516e+00
-6.765605383003373552e-01,-8.543839211279466994e-01,1.136981936863735054e+00,3.107503190710480534e-01,7.093013176484314064e-02,3.540132295287418823e-02,1.987862706184387207e+00
-8.500186823803075331e-01,-8.789246416611905532e-01,1.058537097428738694e+00,-1.740536670854039847e-03,-1.365725090288537856e-02,-6.013122473084190830e-03,1.923347711563110352e+00
-8.247187318040940518e-01,-7.920569012301652556e-01,1.062692852310661573e+00,3.939793600679609292e-02,9.376353061106753803e-03,2.995449811412417146e-03,1.872615933418273926e+00
-8.795684457247758825e-01,-6.229858654069719837e-01,1.094053743793464317e+00,1.474045721033287459e-01,-5.604504520616912511e-02,-5.802515923743712528e-02,1.881310820579528809e+00
-8.780101472781484118e-01,-8.659643296427599335e-01,1.038213965594404486e+00,-2.731808207849425996e-04,-9.527124671985716733e-03,-2.870712915055847157e-03,1.910307526588439941e+00
-7.877832247825875545e-01,-7.967866705518275028e-01,1.028071965301186275e+00,7.545592857266848058e-03,1.897530254092170965e-02,1.323510381237088564e-02,1.820861458778381348e+00
-8.789179309310901633e-01,-7.208060532396055597e-01,1.071590387142926870e+00,5.769548485472889704e-02,4.440044904071509257e-02,2.190062806235833562e-02,1.881069660186767578e+00
-8.854848676139784880e-01,-6.019268622421110049e-01,1.192768833009346663e+00,1.472523068079512887e-01,-2.679530802335042955e-02,7.027621509081241613e-02,1.972880601882934570e+00
-8.588631987907768828e-01,-8.476678030596060953e-01,1.053189547317635144e+00,-5.575639222537121615e-04,4.951657807043155328e-03,7.534428899513867170e-03,1.906543850898742676e+00
-8.698958506841127925e-01,-5.072642824575410714e-01,1.008053793786530816e+00,1.767034688999256919e-01,-9.857862534105222077e-03,-2.160148506553375564e-02,1.752870917320251465e+00
-9.110122090705622400e-01,-6.886477484988242637e-01,1.149382275051387348e+00,1.027658489928857527e-01,5.735444941963650789e-02,-4.464029366961896894e-02,1.970797300338745117e+00
-9.952525541574853696e-01,-6.600359446481943726e-01,1.040532059185668601e+00,8.178109502090136207e-02,-4.517702450803510322e-02,2.534022654578515013e-03,1.897516012191772461e+00
-9.719965176844530541e-01,-5.569723035203483219e-01,9.602296776226619812e-01,3.360297786141534099e-02,-3.661495915133157475e-02,4.213442670254086836e-02,1.765377521514892578e+00
-8.362350700831814310e-01,-8.423275199931269386e-01,1.033172540888382063e+00,2.659559968770215319e-02,-3.467390015031736328e-02,-9.202119631480496290e-03,1.874058127403259277e+00
-9.296204644287078267e-01,-7.106779094444195533e-01,1.055070376088087292e+00,7.081531290120078592e-02,-1.907128347335349666e-02,-3.059204639878463153e-02,1.889799833297729492e+00
-8.742486401624186554e-01,-6.960498173488631757e-01,9.120234082962117572e-01,9.947072581696560223e-02,-4.341168209582634691e-02,-2.134663344729004208e-02,1.714909672737121582e+00
-9.543470894972938545e-01,-7.329336404188323550e-01,9.995638813304157377e-01,1.864916769190006762e-01,1.223762056535534527e-02,1.064342814491832725e-02,1.881301760673522949e+00
-8.486892579568985351e-01,-8.367299197447605197e-01,1.062348844609412479e+00,4.816568765395165888e-03,-1.337714217916098841e-03,4.702107061502884891e-03,1.905123710632324219e+00
-7.288580582850386902e-01,-8.920687402961308132e-01,1.042556988072674384e+00,2.401161044974604863e-02,3.942243252393500680e-02,2.060531058364220569e-02,1.860464572906494141e+00
-8.684909765691004591e-01,-8.029883576925259669e-01,1.037887811927995951e+00,2.628941617638176284e-02,3.243589594038782942e-02,1.889633198531972397e-02,1.876165986061096191e+00
-8.122748814643079296e-01,-9.163718313947523120e-01,1.047229475668343346e+00,1.461584752246600782e-01,4.284912207742788345e-03,-6.663644997903785117e-02,1.933810949325561523e+00
-8.745675623420957612e-01,-8.581118293484477633e-01,1.031970496922063107e+00,1.162913934962118371e-03,4.315690835596709511e-03,-4.651626265844722823e-03,1.898396611213684082e+00
-7.557257499797939149e-01,-7.830502921688922147e-01,9.510232763088701802e-01,1.869066211006691069e-01,7.818223827278866778e-02,5.750538567361190845e-02,1.758816480636596680e+00
-8.492712503660176937e-01,-8.591295476977068857e-01,1.059978968397666810e+00,1.287530462802923209e-03,-3.774566908683627941e-03,-1.342330802146621087e-02,1.914352059364318848e+00
-8.111530950152416874e-01,-8.455408080351227706e-01,7.960179545231655940e-01,-9.236083121360656734e-03,-1.668944556263663587e-02,-1.156778823518153226e-01,1.637279391288757324e+00
-2.813760420274430962e-01,-1.195781277489814665e+00,1.128590990315224918e+00,2.301072012306654424e-01,6.810870076480931082e-03,1.824724811603248981e-02,2.067223072052001953e+00
-1.044044989609489438e+00,-4.243761784128665671e-01,1.134694581780404166e+00,-2.393049681648756477e-01,-2.200971695659299787e-02,2.536231025921499294e-01,2.036424875259399414e+00
-8.544908807045352717e-01,-8.332564857344623155e-01,8.560340523269205359e-01,-8.177295067135399026e-03,2.180591669107602784e-02,-3.423029695947919088e-02,1.701518893241882324e+00
-7.600276962295260397e-01,-8.712988624758096767e-01,8.844602196844497666e-01,6.103339115916978780e-02,-1.247312796755973702e-01,-7.557242458073068492e-02,1.724728465080261230e+00
-8.731456240627614163e-01,-8.451356256377281495e-01,1.048568344508214123e+00,1.231958490831810754e-03,7.132906451124878123e-05,1.440636831529711753e-02,1.908027529716491699e+00
-9.800016841023933001e-01,-4.889819758057161736e-01,1.033750065208685731e+00,-3.726272694203965757e-02,6.207895256509941492e-03,-2.156059384106247256e-02,1.820214390754699707e+00
-8.210576805087373975e-01,-9.531886399858802150e-01,1.077150449782558583e+00,5.125444145660187217e-02,2.302452055685160447e-03,5.148405044180706831e-03,1.969629764556884766e+00
-4.491097337864111694e-01,-1.051796352133990364e+00,1.197095088406857188e+00,-4.829433387121705168e-02,-2.488876067183139543e-02,-2.842211783027328784e-02,2.019070625305175781e+00
-8.931338700127390284e-01,-5.926623265703736543e-01,1.067692264363564236e+00,-1.461969354799163845e-01,5.337493838459438783e-02,-3.778428029881750194e-02,1.850108146667480469e+00
-4.512492272197241028e-01,-9.128482498975825088e-01,1.079712112612113861e+00,-2.101010460237313637e-01,-3.273486003372177988e-02,3.800500552815372357e-02,1.844879865646362305e+00
-4.073637693758000444e-01,-1.127678034543876384e+00,1.131801010206426872e+00,-2.216642928586569361e-01,-5.595135428253694698e-02,9.135638091707901434e-03,2.038040876388549805e+00
-7.311849712437246129e-01,-8.658814778847577776e-01,1.018835520730391631e+00,5.927266055989751509e-02,-4.188979740755442716e-02,2.396102853588926926e-02,1.825914263725280762e+00
-3.619456084623726699e-01,-1.037005091099831189e+00,1.042187305571725675e+00,-1.054092613907602616e-01,4.842492235049740412e-02,-3.278543660442696100e-02,1.848989129066467285e+00
-4.947230357318200822e-01,-9.500921050918769151e-01,1.023702321691316364e+00,-9.694759465231643503e-02,-4.850373357889432857e-02,1.383472804908505473e-02,1.800069212913513184e+00
-1.092886221566428784e+00,-4.245210494569504611e-01,1.077595387727674492e+00,-1.771473128682913012e-01,2.636487943969912512e-02,-1.713512916089037982e-02,1.950419902801513672e+00
-7.802733679524508359e-01,-8.899986048443664366e-01,1.056753211547748483e+00,3.122488130417133689e-02,5.570199504603789813e-04,1.580360979890245779e-02,1.895244002342224121e+00
-8.971384208528984106e-01,-7.978511474606798659e-01,1.057363242422808991e+00,-4.029297456861670457e-02,-7.011474348727808961e-03,6.025690214188812732e-02,1.910965323448181152e+00
-8.251043677215889049e-01,-6.659196453513962499e-01,1.039411248612540195e+00,-1.967762094299129461e-01,1.851801900831019296e-02,-2.284381878985575123e-03,1.822680115699768066e+00
-8.903268934681021207e-01,-4.642502473738776003e-01,1.019944555147836995e+00,-2.078250786819691720e-01,1.039716453527306586e-02,-4.811834630373278132e-02,1.775838017463684082e+00
-7.389192855352544331e-01,-6.864115689096390582e-01,1.022612112809336837e+00,-2.050539080642206913e-01,-5.553543850695512492e-03,-4.464057604344023292e-04,1.771860718727111816e+00
-7.658255889527778582e-01,-9.162592747489316514e-01,1.037930963371183735e+00,-6.426070684083255713e-02,1.966709475813759392e-02,-2.152117743214979409e-02,1.887445926666259766e+00
-8.669034983761976232e-01,-8.475164934908941961e-01,1.055977499866485259e+00,8.490356561691903177e-04,1.203913774830766593e-02,1.220299007894378764e-02,1.913492083549499512e+00
-7.858760038015561999e-01,-8.209918256062036512e-01,1.033910073421912656e+00,-5.339988120527065264e-03,-1.495007308569293314e-02,1.828046180378199367e-02,1.838074088096618652e+00
-8.080569803686650232e-01,-8.242519252340467784e-01,7.996620730501797780e-01,-8.173335630240367161e-03,-1.815845854174303513e-03,4.250387058308606469e-02,1.617618560791015625e+00
-8.344869318567216254e-01,-8.273475264126031181e-01,8.911421988601444522e-01,-1.031068807632812279e-02,-4.992738251456504961e-02,2.117520094074225312e-02,1.724722981452941895e+00
-6.659400445111771649e-01,-9.532518621505446932e-01,1.080013737073822089e+00,-5.091147399260941703e-02,3.400151211233257836e-02,-1.760059801085564479e-02,1.909112215042114258e+00
-8.724092813807450275e-01,-8.703916565908392799e-01,1.054938241702813917e+00,7.849409515032616282e-04,5.607761311096371923e-03,1.676461170852861990e-03,1.926366686820983887e+00
-7.985181605771746183e-01,-7.357582562656785896e-01,1.015470584811392962e+00,-1.806457170074778767e-02,1.405418787916700709e-03,1.176858644777384290e-03,1.783714413642883301e+00
-7.693994711883317406e-01,-7.634097756157617320e-01,1.013818586696923596e+00,-3.463545175823538880e-02,4.303105951092441560e-04,2.472518466537350790e-03,1.781246542930603027e+00
-8.551505619059150964e-01,-8.542732707286632143e-01,9.847852684693387815e-01,-1.038325445123783851e-02,1.107969697969051620e-02,1.039902740513404776e-02,1.839773535728454590e+00
-7.499705097908883067e-01,-8.749884757175178107e-01,1.111407921131399856e+00,-1.188763033769853622e-01,2.858674987492615741e-02,-2.247110145533893696e-02,1.938923954963684082e+00
-6.553042352298376061e-01,-7.902396203950668996e-01,1.013332761393738624e+00,-1.956926786233550153e-01,5.955453004601909267e-02,-4.651927329299414965e-02,1.777564167976379395e+00
-6.927590823512320695e-01,-8.920059568437543884e-01,1.043146783881303330e+00,-8.767057452073120927e-02,3.064959471753858655e-04,-1.689358042092122328e-02,1.850096583366394043e+00
-8.719380963251951444e-01,-8.566439616078848074e-01,1.031426389146793854e+00,-2.033146866238052207e-03,-5.174968843970839671e-03,4.674806857802980657e-03,1.895805478096008301e+00
-8.937130986481950368e-01,-8.052100402833692883e-01,1.179668768912519372e+00,-2.429016939407510900e-01,-1.622611562274505273e-02,6.769419536925909420e-02,2.077206134796142578e+00
-8.689938366456081420e-01,-8.507168506323554702e-01,1.018301884128119505e+00,6.224862187426355963e-03,-7.942900597165312992e-03,5.951472038428893933e-03,1.878333568572998047e+00
-8.117698972214770770e-01,-8.462277660138558533e-01,1.051790321955102803e+00,1.518196820751055096e-02,-8.666133137794155769e-03,-2.485438202097167704e-02,1.881762027740478516e+00
-8.172098443763343711e-01,-8.646299372884325152e-01,9.118722901749081178e-01,-1.134736152688032434e-02,-2.374718251597872365e-02,5.213812650937069831e-04,1.753865957260131836e+00
-6.459239870802402361e-01,-9.284203098805686727e-01,1.051340782131259033e+00,7.592086249428134023e-03,-3.831590194466442945e-02,1.583003107043297678e-02,1.856155157089233398e+00
-7.651984396758929607e-01,-8.868341128309072952e-01,1.003423820905618991e+00,-3.851647089712471189e-02,2.005909746431880358e-02,1.510902858381495649e-02,1.834200143814086914e+00
-8.524107268000963300e-01,-8.021565478325763943e-01,1.113957469126465760e+00,-9.779709135465312897e-02,-1.120199453024191272e-02,2.319104570668545362e-02,1.949613809585571289e+00
-8.865028486518549133e-01,-8.006070874607220667e-01,1.104969966041980500e+00,-8.800656256382984044e-02,3.702991424600916154e-02,-1.357634433004949095e-03,1.956946015357971191e+00
-7.430458685341797542e-01,-9.379160109036788207e-01,1.100017790400128703e+00,-3.090609883336818686e-02,-2.100369580287248308e-02,-7.340204892310559989e-03,1.948939919471740723e+00
-9.815148931183229619e-01,-5.141328419864795718e-01,1.206957671916977892e+00,-2.929088160411609243e-01,4.337735273188667029e-02,-9.032256798214347016e-02,2.067005395889282227e+00
-8.678161636396432010e-01,-8.639568707625707722e-01,1.062446803707221443e+00,2.090202188687436107e-03,-1.907406406430429350e-04,4.602605748184343537e-03,1.928356170654296875e+00
-9.080809015434425646e-01,-6.660423462516166238e-01,1.056299948517093634e+00,-1.029415508374944138e-01,3.727716814576400445e-02,4.404752428295504590e-03,1.864922761917114258e+00
-8.312475357901921713e-01,-6.142569490854946634e-01,1.207585462190227554e+00,-2.150454787187796313e-01,-2.632426994200363565e-02,-1.292056462232284327e-03,1.975432872772216797e+00
-7.243730924433410268e-01,-8.634771544649613162e-01,1.060635642894047770e+00,-1.941820638001215682e-01,-6.363149767577248872e-02,6.886359377745635002e-02,1.895627021789550781e+00
-8.650573208713370210e-01,-8.319183189608334583e-01,8.745469295978003377e-01,2.745602402142741615e-03,-7.236339121481127727e-03,-2.707757401722186291e-02,1.723963975906372070e+00
-8.449579636989511533e-01,-8.573285853356125141e-01,9.816247784214999772e-01,-5.548979685330891753e-02,3.980095324474750007e-02,-3.768113454336020213e-02,1.837771177291870117e+00
-8.519783215623651929e-01,-7.164851462516620417e-01,1.029657916656271155e+00,-9.115167654621869620e-02,-3.171844752697307313e-02,5.404821918092487382e-02,1.827750563621520996e+00
-7.714393449084839816e-01,-8.145746708146577308e-01,1.025400580710012388e+00,-2.492833366954619323e-02,-4.189261090947776767e-03,2.053878314902959565e-02,1.819665908813476562e+00
-1.098621191185568113e+00,-3.943256663680673180e-01,1.273613859357782152e+00,-4.203949756418920436e-01,1.037583873378287447e-01,-3.915967239539604183e-02,2.240506649017333984e+00
-8.048382239342484201e-01,-5.079498046528623245e-01,8.256531640619874102e-01,-3.344110499076564103e-01,1.414318912814972462e-01,-2.298012676320905223e-01,1.678242564201354980e+00
-1.024333255692719380e+00,-3.959327083392436553e-01,9.525655921649203162e-01,-3.093689276960713275e-01,5.628661555735552102e-02,2.196247572559863886e-02,1.832705974578857422e+00
-1.094150540171976882e+00,-6.172488731041206877e-01,1.250021208773272274e+00,-5.254756822177658604e-01,-1.530341424025668806e-01,-5.050926874859186511e-02,2.347535610198974609e+00
-9.237138916999191318e-01,-6.534004118170014808e-01,1.161988074642074320e+00,-4.142207780647593762e-01,1.563093402954335576e-01,-1.697002935260023826e-01,2.129285812377929688e+00
-7.836910931871683417e-01,-7.890378991200136527e-01,5.717233263022418743e-01,-2.540087601557185909e-02,4.037772086597783000e-02,-4.872330415404797777e-02,1.363221406936645508e+00
-8.465641361940109411e-01,-8.587814615971581800e-01,1.058934802811078768e+00,-1.399859020011534356e-03,-8.391375644969965852e-03,-4.216853128709960666e-03,1.911707639694213867e+00
-8.634737139077490742e-01,-8.585041581736195804e-01,1.073497100604685173e+00,1.873751275575477691e-03,-3.143094516390985450e-04,2.971360517363195834e-03,1.934500455856323242e+00
-7.999647529325992767e-01,-8.673976169838424344e-01,7.445016682787897189e-01,2.579553579402159985e-03,2.634372956594580040e-02,-9.186172046414081693e-02,1.587919712066650391e+00
-6.905600884369909043e-01,-9.445274063334709869e-01,1.053417827644712368e+00,6.238423765209222954e-02,-5.786246007727047919e-02,-3.185094012160927246e-02,1.890406012535095215e+00
-8.187098956573343189e-01,-8.255477822584247338e-01,7.195375183919041628e-01,-4.089892243391385525e-03,9.068973401289347203e-02,1.125468803982239245e-02,1.549798130989074707e+00
-8.654347542410152361e-01,-8.644338485196120248e-01,1.072500125059002940e+00,6.215319084437710912e-04,1.687678162606585930e-03,-1.203833249033170027e-03,1.937438249588012695e+00
-8.292827026222131526e-01,-8.288516209999648998e-01,1.053364061961844733e+00,-8.652655650746219479e-03,6.936768249530785198e-03,1.481527079102672173e-03,1.882531046867370605e+00
-7.809725245831498075e-01,-7.976554062604541695e-01,6.272568229172273968e-01,1.698989649904620106e-02,2.831501507469256010e-02,-1.892804118903700442e-02,1.418177485466003418e+00
-8.344085195790508225e-01,-8.097547014652408670e-01,7.861611843613225403e-01,1.541688398241841673e-02,1.900346319052831703e-02,-1.073109258262984998e-02,1.609050273895263672e+00
-8.594840229271838439e-01,-8.360729852076428381e-01,9.170526939787178033e-01,-1.764326246079974195e-03,6.457827902097666717e-02,-1.529911397670558927e-03,1.768493056297302246e+00
-8.588012844433845494e-01,-9.493052189293036403e-01,7.776559602156591922e-01,1.525422949820312221e-02,9.515586935988609718e-02,2.436313938460210951e-02,1.692315459251403809e+00
-7.869784303462618036e-01,-7.738269539886672987e-01,1.016829048192537943e+00,-2.381482325676755833e-03,-3.367056986877181753e-03,-1.585050819022437068e-03,1.797284126281738281e+00
-7.449643267422275672e-01,-8.489459802191333671e-01,1.045780871964809178e+00,6.079027591742248299e-02,-3.066290743459948107e-02,-3.740682884180045187e-02,1.849835157394409180e+00
-8.636762352203174453e-01,-8.596145028776264185e-01,1.095390825996171991e+00,3.207754596442355388e-02,-5.137473074162624692e-02,-4.842890915147553960e-02,1.961643218994140625e+00
-8.822851592466817161e-01,-8.725259745333392436e-01,1.228026635041080672e+00,2.138770393043938900e-01,6.441526665270704000e-02,3.288356918287745762e-02,2.141457080841064453e+00
-7.782875486983260593e-01,-7.999665690565141984e-01,1.020090903817109096e+00,-8.752382824286480609e-03,5.212244567762462037e-04,-4.380745285975806529e-03,1.809395074844360352e+00
-8.642969885129113683e-01,-8.463304050258551037e-01,9.711534125552316876e-01,8.321943327898978851e-03,-1.546722107677397755e-02,-3.217772341565807576e-02,1.827636718750000000e+00
-7.779113899456682191e-01,-7.709567411258652081e-01,1.013383186588080465e+00,-7.113093085301562708e-03,7.626048454880326186e-04,1.506031753860246486e-02,1.788060665130615234e+00
-1.119979662081684424e+00,-6.566312871316303257e-01,1.352939674427665606e+00,-5.315297032311551151e-01,-2.110389282303475056e-01,2.569181281433939867e-01,2.522578716278076172e+00
-7.708699401266813078e-01,-7.565162549578160478e-01,1.005637149580317580e+00,-6.208624996880088287e-03,-3.765512884772819185e-03,-1.922757965276698832e-03,1.769421696662902832e+00
-8.692149157850932450e-01,-8.655430274581212835e-01,1.061666180638680457e+00,5.923284897248502941e-03,-5.614590887113992540e-03,5.142818726486417420e-03,1.929120182991027832e+00
-8.151509555988492028e-01,-8.947814219398944058e-01,1.066410907661881957e+00,8.529642374160104415e-03,3.133406762674612739e-02,-8.250171429643416918e-03,1.923489928245544434e+00
-7.748610279673814327e-01,-7.735901637389595020e-01,1.013514523279890556e+00,2.618060429314735315e-06,3.384650649139534125e-03,8.559614442673498230e-04,1.787750720977783203e+00
-5.373658541435193392e-01,-8.948169904111721307e-01,9.868217238044492134e-01,1.368663122380320285e-01,-2.729774998046329351e-02,-2.564416939244242716e-02,1.748183965682983398e+00
-8.582889350507211246e-01,-8.564162173431497660e-01,1.068346793776247194e+00,-1.176123658024284856e-03,-3.181254169380956422e-03,4.641409635458272794e-03,1.925725817680358887e+00
-7.187834170656383082e-01,-8.995258867492900157e-01,9.251866516382958316e-01,5.612825890598181072e-02,6.674405136085362344e-02,-2.650130313985004163e-02,1.748531699180603027e+00
-8.602621831039233280e-01,-8.606264586958498608e-01,1.050431570240225154e+00,2.130245174703359647e-03,5.134261169396349368e-04,2.057632239331035236e-03,1.910883069038391113e+00
-8.664607840930514948e-01,-8.502859389950707669e-01,9.842256483876010709e-01,7.959894377786151665e-03,-1.304206965971375747e-02,7.342471571503308807e-03,1.842886209487915039e+00
-8.139054470607199887e-01,-8.221553070894558335e-01,1.049584118136042354e+00,8.988417709612735174e-03,-6.826450978133250143e-03,-3.909318799560019923e-03,1.867742776870727539e+00
-8.456603294675324456e-01,-8.180619858942426159e-01,1.043773725753957438e+00,1.129532557798515816e-02,-1.547276578936049307e-02,-4.901382944559457694e-03,1.876099824905395508e+00
-7.587163777359706707e-01,-7.554680167379506095e-01,9.961608544945517174e-01,-3.139093764048769050e-03,-5.867398035454466200e-04,-3.869171983237032833e-03,1.753276824951171875e+00
-8.032400054622719221e-01,-7.800190812294263143e-01,1.024398874685826133e+00,9.128442151361909618e-03,-4.064967103782304858e-03,-7.888928612472750164e-04,1.816222786903381348e+00
-8.377281372812243054e-01,-8.537981120872647489e-01,1.050706140452091208e+00,4.291311031877227330e-03,-1.043012083330221475e-02,-2.361851232947935128e-02,1.897062063217163086e+00
-8.041781030292081134e-01,-7.937288190344045091e-01,1.033176065670551980e+00,1.319412685729611607e-03,9.798958740258389283e-03,8.729173729469727472e-03,1.832294344902038574e+00
-8.593367345345146457e-01,-8.542625926231802724e-01,1.058259085325407467e+00,-2.879685928727700097e-03,-3.881005710669863107e-03,3.076550406493992057e-03,1.915089488029479980e+00
-8.257389901733215298e-01,-8.410277460861956822e-01,1.053926542110118936e+00,1.763546045489967212e-02,9.915286973306687568e-03,-3.414513060633795824e-03,1.887690901756286621e+00
-7.655622933204666580e-01,-8.704364805720437026e-01,9.076158569715306879e-01,8.029485398549773834e-02,-5.888341954926837318e-03,5.668349319339018033e-02,1.736399054527282715e+00
-8.622986957379563666e-01,-6.985697018489903654e-01,1.012484518625702323e+00,8.009178977221936835e-02,1.857958965651561800e-03,1.191290591371146033e-02,1.803979754447937012e+00
-8.852535342881322489e-01,-8.042936573757705210e-01,1.043832350807277543e+00,-9.100705738273607778e-03,-6.157764720839176142e-03,1.859190483282142925e-02,1.890277147293090820e+00
-8.705044952494948030e-01,-8.496257667650451983e-01,9.852194500389948040e-01,-1.437922877878626202e-02,-1.024158627450132489e-02,-8.978437027199139345e-03,1.845692038536071777e+00
-8.668957140827284746e-01,-8.462791139366413473e-01,1.056318038793846448e+00,-8.600223346194840312e-04,1.246116317476390727e-02,-1.166635633369296661e-02,1.913217782974243164e+00
-8.360512279730906160e-01,-8.026015054538309101e-01,1.027888555692376693e+00,3.044085556236569151e-02,-1.079429151702518234e-02,-4.608760483954209286e-02,1.850011825561523438e+00
-8.482787032264548222e-01,-8.341946473006246476e-01,1.059663270367536825e+00,3.041143445991737956e-02,-1.302617696371691051e-02,3.468740000715998546e-03,1.901812076568603516e+00
-9.008357049680236761e-01,-8.053665192299279685e-01,1.049599342918895228e+00,1.826575828153821981e-03,-5.734624214753059751e-03,-2.515149440394476993e-02,1.905022621154785156e+00
-8.630907029009139420e-01,-8.699112777819367759e-01,1.047422380721276580e+00,2.009354246328659815e-03,2.617135157188336600e-03,-6.167796207643307625e-03,1.913970828056335449e+00
-9.002858128432018603e-01,-7.154922442959055218e-01,1.039048940719004444e+00,8.002135577015163578e-03,-1.086721138122409037e-02,3.963157834412027458e-02,1.855276226997375488e+00
-9.404882769590594549e-01,-7.327209228640004790e-01,1.034497033729323556e+00,3.360475030869086721e-02,3.153693911780550141e-02,-2.782880737410691266e-02,1.882044553756713867e+00
-8.135467589875432504e-01,-8.017775939259883522e-01,1.038408199772915763e+00,-1.461820168228279140e-03,7.467255364267263388e-04,1.475257808556447621e-02,1.846277475357055664e+00
-8.177658922521398033e-01,-8.461025421913751510e-01,1.055253961858694467e+00,-3.067980408277670885e-03,3.943550613885743114e-03,6.787304376901132780e-03,1.887404203414916992e+00
-9.664710604156943052e-01,-8.050236086470390351e-01,8.594174542328345545e-01,7.061189648577857747e-02,1.840575358182711119e-02,9.323792082993425517e-03,1.755387187004089355e+00
-8.122795527956940820e-01,-8.377492994572236507e-01,7.899756449171175809e-01,-2.966958622521714481e-02,1.078999186350551760e-02,7.160179146164907804e-02,1.620817661285400391e+00
-7.990319528825952089e-01,-7.827716057067712896e-01,6.959001147071015581e-01,1.368644208800041517e-03,-7.964921050416112064e-03,2.151699621902904147e-03,1.486939191818237305e+00
-8.291791709263143240e-01,-8.124089287545228633e-01,7.863423466709267284e-01,-2.169014198322209014e-02,1.695926166116031725e-02,6.292680552364339486e-02,1.611599206924438477e+00
-7.524205535097209241e-01,-9.264793213791847615e-01,1.014028907193888385e+00,-3.052533503367223233e-02,-1.777975272378285593e-02,-3.932532391342326468e-03,1.860617160797119141e+00
-7.986490066285873990e-01,-7.314065004338760057e-01,1.015233073230620953e+00,-1.256566819542464034e-02,-5.441203978200766407e-03,-3.510414092282660142e-03,1.781381249427795410e+00
-8.822070946365754285e-01,-7.245965620411146668e-01,1.047538383563069386e+00,-2.180764452080318286e-02,-1.939304648981491491e-02,2.708394753599126584e-02,1.857246875762939453e+00
-9.852004203564981299e-01,-8.211777672407205575e-01,1.086290727474044981e+00,9.279675145659430080e-02,1.862174012688963542e-02,-9.203564771934191063e-03,2.001333475112915039e+00
-1.077783448302808367e+00,-6.268849430179945781e-01,1.252103541389391284e+00,2.527380093606337308e-01,-1.377756022143634095e-02,-5.522088765898486296e-02,2.186889886856079102e+00
-8.636771053794077835e-01,-8.760007108319030067e-01,1.036167953219816251e+00,-2.112761380200094173e-04,-2.348604374432117052e-03,-4.666299827919602287e-03,1.906058311462402344e+00
-9.162523894161909155e-01,-5.851622720131075539e-01,1.033273285350829740e+00,-2.466503998093335162e-02,1.314357089935789917e-02,9.291244151663251988e-03,1.807596325874328613e+00
-8.571850824818028070e-01,-8.676241877515236123e-01,1.030798911045361921e+00,1.113996888849949499e-03,-5.018092958538078810e-03,-1.262385005771631419e-03,1.893247365951538086e+00
-2.999874881667135007e-01,-1.013350311286112415e+00,1.155647876298657284e+00,-3.196458097176591573e-01,-1.772334724484612434e-01,1.153693644088771703e-01,2.026534557342529297e+00
-8.142069747231284182e-01,-8.470568283978688884e-01,8.150036816319554678e-01,-2.519249466175386368e-03,8.593092393191567938e-03,2.535878232146373396e-02,1.646540522575378418e+00
-8.413714236568337057e-01,-8.612510464101351682e-01,9.140787283975451150e-01,-1.628672705789711503e-02,7.480626515159145840e-02,8.616561012154512478e-02,1.776726007461547852e+00
-8.440010185249227082e-01,-8.518494731274935949e-01,9.281159236280003277e-01,-1.121262036256857712e-02,6.836627875344252446e-03,1.171906450440999073e-02,1.776315808296203613e+00
-8.438036315286071565e-01,-8.290607053217561306e-01,8.233852210629841739e-01,-3.183011494193148123e-03,2.264344456441765713e-02,4.050538422117992005e-02,1.661820530891418457e+00
-8.610907023015481609e-01,-8.496249480171659263e-01,1.063208225322546552e+00,8.504029939107664001e-04,-6.994569613379360284e-03,-6.049662562519392099e-03,1.918659210205078125e+00
-9.463912645546198599e-01,-8.835408160960135371e-01,8.728994744267948303e-01,4.143550197675568980e-02,2.946374021059131043e-02,9.070764859038629724e-02,1.797738671302795410e+00
-1.050893946796039646e+00,-2.435655274224443334e-01,5.926004775642335076e-01,-1.197916657942043328e-01,3.901921974166164958e-02,-1.853534398585362786e-01,1.475363850593566895e+00
-7.974483937782351761e-01,-7.270023472607907156e-01,5.590306284215080801e-01,2.890320721389368422e-02,3.881589452825173758e-02,1.369472239352267362e-01,1.346376299858093262e+00
-7.826916393634906211e-01,-9.773842041082101417e-01,3.369438235198470855e-01,2.402675410223963082e-02,-6.346449140186646853e-02,-2.012366326745856637e-01,1.282488584518432617e+00
-7.263969105311843810e-01,-7.280590272909315264e-01,-4.732213995271028484e-02,-3.931181411032641515e-02,-5.108191707221883954e-02,-1.436059125400394043e-01,7.325341701507568359e-01
-8.176263573321677081e-01,-7.911667263937319783e-01,1.037827409831604264e+00,-1.229242318242276984e-02,-2.061423220155781527e-02,1.508047911428525047e-02,1.843020558357238770e+00
-8.235819623635407538e-01,-7.810869337505257359e-01,1.036478700060608382e+00,-7.262013765887491770e-03,-2.038963286507777112e-02,1.355711358775699149e-02,1.839713335037231445e+00
-8.626104203125383174e-01,-7.986868682926552276e-01,1.054795930970308326e+00,4.555505635308695900e-03,1.245446902652139892e-02,-1.021604585958851841e-02,1.886479973793029785e+00
-8.444852144896526358e-01,-8.522015555315677338e-01,1.023948190965159988e+00,-1.917517367015588803e-03,7.649736992273540107e-03,8.339064516276971026e-03,1.872408986091613770e+00
-8.894148072035322761e-01,-7.907044253597470540e-01,1.034955428576665559e+00,-5.484722617968028346e-03,-9.167910964940980886e-03,2.225067011477454768e-02,1.877449631690979004e+00
-7.690817954633214493e-01,-7.998982563137498891e-01,1.026550992239172455e+00,-1.548796703934929818e-02,2.704188552839560753e-03,2.253131093486760925e-02,1.811862707138061523e+00
-1.234965281834881523e+00,-7.239962446259529116e-01,2.680197164559614542e-01,1.287660367388370197e-01,-1.811037583511942439e-01,-1.186492797370707619e-01,1.393716335296630859e+00
-9.079665954446016762e-01,-6.231702114984425389e-01,9.768521063926740577e-01,-4.403798187900018896e-02,-2.174119750847655630e-02,5.151177468982521407e-02,1.764102458953857422e+00
-7.819430087655069306e-01,-8.053526683291929444e-01,1.030150433838286306e+00,1.428259854069289375e-02,-5.501534655551519951e-03,7.278731874453948578e-03,1.824147105216979980e+00
-8.638962843909381295e-01,-8.715695213724581336e-01,1.030932610075711686e+00,-1.730591457784111040e-03,-3.430124851791098266e-03,-6.121731982321694521e-03,1.898718357086181641e+00
-8.432891835682467807e-01,-8.647670590411387082e-01,9.863488000757609786e-01,1.016568784499956475e-02,-7.345800577114627557e-04,7.129397777023750889e-03,1.840597033500671387e+00
-8.554603672676974746e-01,-8.752331004380574653e-01,1.029202798969125032e+00,3.472404671842619413e-04,-4.979972677758649812e-04,-5.064984939069305629e-03,1.894647479057312012e+00
-8.568288552909988365e-01,-7.887904748027920743e-01,1.048933607664424006e+00,-6.141619994596056627e-03,-1.478488355480019577e-02,-1.644490174599442731e-02,1.873092412948608398e+00
-8.215549065885078273e-01,-8.590714256122513603e-01,8.574953705839993834e-01,1.134156020520057061e-02,-1.127715085152101136e-02,-6.866254720944231504e-02,1.702504158020019531e+00
-8.453925032462982214e-01,-8.456399920914882129e-01,1.011804340505421562e+00,-9.022911789842913075e-03,8.789568455468190281e-03,-2.383703490590387275e-02,1.857907533645629883e+00
-9.981755611479056212e-01,-8.027641661774077564e-01,8.483625617626147086e-01,-1.221550225878250406e-01,3.579271515844057588e-02,-1.894534343569623247e-01,1.800927758216857910e+00
-8.629716236446787203e-01,-8.694211742562140133e-01,1.033897312782315892e+00,-2.279230446953588868e-03,-4.917184409206716914e-03,-7.395975576536910172e-03,1.900168299674987793e+00
-7.987123506819995278e-01,-7.163804899503486423e-01,5.107886519120639068e-01,-7.079988870660769429e-02,1.239002189471992595e-02,-1.072331777488065713e-01,1.289865493774414062e+00
-8.322138355254794506e-01,-8.482997561093160721e-01,8.714391003600905350e-01,1.015726168773632351e-02,1.672051175132015927e-02,-2.516846126237850742e-02,1.712642788887023926e+00
-8.032086031737715182e-01,-7.897447040855596345e-01,7.226770614022217654e-01,7.887234096533761799e-03,2.608773632557432123e-02,-4.047186234152753970e-02,1.521547317504882812e+00
-8.605620904473147981e-01,-8.642777988574670278e-01,1.044204231534363814e+00,-2.714110959327442618e-03,-3.920412663673177034e-03,-4.971247046100814825e-03,1.906664252281188965e+00
-7.919592581775649620e-01,-8.314557931291651771e-01,1.110477380768001732e+00,-1.329393129890486802e-01,8.898769825474023287e-02,5.413904749613978294e-03,1.942376852035522461e+00
-7.870724906061297155e-01,-8.274860039541164225e-01,1.042998775703014802e+00,-4.478535844456952436e-02,2.009998281905974599e-02,-2.415841923788441051e-02,1.853033661842346191e+00
-9.241948514478417476e-01,-7.604562545503050774e-01,1.059629231363948376e+00,-3.461120050594354916e-03,-3.908741804046374051e-03,-3.833810548358831949e-02,1.908410549163818359e+00
-8.520216362117578601e-01,-7.109408605625917588e-01,1.025140852557081317e+00,-1.438309719167273418e-02,-2.232893678286177602e-02,-1.099621676628873349e-02,1.811433196067810059e+00
-7.205785527755080855e-01,-8.128544376980990638e-01,1.009261589929312697e+00,-6.918439037520067447e-02,9.871710632182895129e-03,-1.341557538027842063e-02,1.782042622566223145e+00
-8.217622502798209716e-01,-6.970959113682408947e-01,1.017614092924844282e+00,-8.422984540183525715e-02,1.490838222760132795e-03,3.368961152474640730e-03,1.786298751831054688e+00
-8.116898343635691182e-01,-7.707835341624684755e-01,1.042381527604456792e+00,-5.906244224850869251e-02,3.834080124067924811e-02,-3.463533357736339746e-02,1.838990092277526855e+00
-5.103270552315235520e-01,-8.699355351119584245e-01,1.030408856576248144e+00,-2.415848244746247042e-01,4.164920704790216199e-02,-3.762454392926157382e-02,1.800496459007263184e+00
-7.339282115770336956e-01,-8.227833979690796218e-01,1.094132102589021605e+00,-1.582499042940401779e-01,-1.406114534655059783e-02,9.167202338820670251e-04,1.894163966178894043e+00
-7.644182737346010281e-01,-8.640469718926807596e-01,1.051734720121113131e+00,-2.352166784584597747e-04,8.044496966281377767e-03,7.918497221623297874e-03,1.868063449859619141e+00
-8.356992876591988750e-01,-8.473540921293761796e-01,1.030519646045490845e+00,-1.369475522271531610e-02,1.058441915615128057e-02,-1.161058576664392638e-03,1.872314691543579102e+00
-8.514473378424801675e-01,-8.780815008253743947e-01,1.024351712571983430e+00,1.981751378568607797e-04,3.967150541028601277e-03,4.191298413954385078e-03,1.889283418655395508e+00
-7.509409401296177622e-01,-8.329333520507252731e-01,9.992522617656514061e-01,-5.787169637277553291e-02,-2.613693836608883131e-03,1.032473537645607273e-02,1.795491337776184082e+00
-6.585327851138220723e-01,-8.654082501841664499e-01,1.018224136086636644e+00,-3.860340351060214531e-02,-1.447872690602181218e-02,2.343479073321698761e-02,1.791071772575378418e+00
-8.576074074351917043e-01,-8.649609166029837981e-01,1.065516146368029604e+00,2.641288682808443349e-03,-5.321295354393851262e-03,2.737548171560816573e-03,1.926844120025634766e+00
-8.540991612892422369e-01,-8.565878494684654454e-01,1.059651291468387990e+00,-4.727787040602534144e-03,-5.955122010598397570e-05,5.274617712257704313e-04,1.915013790130615234e+00
-8.033029636314914512e-01,-8.146903196306634065e-01,1.038808808691985996e+00,5.113910444658132520e-03,4.134471312337487277e-03,-1.201189567652180545e-03,1.847868084907531738e+00
-8.557316805508602409e-01,-8.785024883356103986e-01,1.030877709275049625e+00,-5.543923674258163271e-03,5.347442096323094460e-03,3.226956599051044889e-03,1.898152351379394531e+00
-8.797212226120038059e-01,-6.556223046101472551e-01,1.053626607966606787e+00,-2.412172502639814420e-01,4.822526160708535958e-02,-3.485624508969718122e-02,1.881481409072875977e+00
-8.604781804841943327e-01,-8.742022061697189983e-01,1.058245232194494623e+00,-3.052737674803210517e-03,8.120588291653562177e-03,2.120765939301980530e-03,1.925684213638305664e+00
-8.001349172968332812e-01,-8.266406856942322134e-01,9.752320288104963097e-01,-5.638587119620509097e-02,4.357821200966659897e-02,-2.492437848615798937e-02,1.793540239334106445e+00
-7.125340374112270059e-01,-8.811767433047122955e-01,9.427982890357851087e-01,-9.567491956166472578e-02,-3.510557457691181743e-02,7.666433764273845874e-03,1.754724979400634766e+00
-8.599699115397154703e-01,-8.556786942338961977e-01,1.012348111439748344e+00,-1.213146836751201113e-03,-1.408764561721396460e-03,-1.247125603776047531e-02,1.870303630828857422e+00
-8.467493633353111449e-01,-8.554331307382074812e-01,9.329865266665258172e-01,-7.739061561950618621e-04,5.510829161481297506e-02,-6.496901362842064098e-02,1.790185928344726562e+00
-8.164078010121361695e-01,-8.469228368987978817e-01,7.629653464618197933e-01,-1.624716766956613156e-02,-1.651426213443778768e-01,-3.419715786872536828e-02,1.621623158454895020e+00
-8.593915013966132443e-01,-7.907787911190063967e-01,7.707185520777224408e-01,-4.065752635618510163e-02,1.136717267936672958e-02,-4.351818697906163769e-02,1.600358843803405762e+00
-8.288698301334395113e-01,-8.561415626058715977e-01,9.153761819901959917e-01,3.113223802420609157e-03,5.640161190064522240e-02,-6.137104228859010385e-02,1.763966560363769531e+00
-8.390180015501538247e-01,-8.494355664326367350e-01,9.887343855118018165e-01,-9.740463464034006952e-03,-2.695041770966693367e-02,9.236217240904315284e-03,1.833725094795227051e+00
-8.462765636269450331e-01,-8.900015383458985685e-01,8.744874252901191358e-01,-1.666346612178999306e-02,1.198821220974505275e-01,-9.748291423874819173e-02,1.763700008392333984e+00
-8.646293629167201011e-01,-8.631702205046649645e-01,1.070645211097655869e+00,-3.046109726104859910e-04,4.431302457863422334e-03,-3.988837135332142479e-03,1.934573054313659668e+00
-8.579389238243267934e-01,-8.614877241704181898e-01,1.057907192285582054e+00,-1.439961399315772524e-03,4.874985254831755823e-04,-8.222150915196011975e-04,1.917625308036804199e+00
-8.125944305850728577e-01,-8.657224334734364701e-01,1.053798094288181275e+00,-1.374096179734075364e-02,-1.678146010365944366e-02,9.002992868963119802e-03,1.893952488899230957e+00
-8.219893259958827025e-01,-8.285444582358248988e-01,8.473066405287337233e-01,9.277111178421783635e-03,3.692426857967304882e-02,1.624367161364456344e-03,1.673884987831115723e+00
-8.473177146475188160e-01,-7.341647280475205317e-01,1.042234144968508636e+00,1.758699406088656825e-02,2.434245000165690884e-02,-6.660366040694375850e-03,1.836365938186645508e+00
-8.560667040930320937e-01,-8.491427446224999454e-01,1.070157076217409076e+00,4.065424969224607464e-03,-3.079487810554472176e-03,-2.785662973753090695e-03,1.922797441482543945e+00
-8.411275850889107231e-01,-9.211606436109472940e-01,1.018412941552888418e+00,-1.804923776910111535e-02,-2.217976644983288162e-04,2.719516921516092981e-03,1.901084065437316895e+00
-8.227377788894780775e-01,-8.214378724648787600e-01,1.052575777036141247e+00,-2.033519462051106355e-02,-2.420968217674089595e-02,1.961401140963928147e-02,1.875771284103393555e+00
-8.457222768631954546e-01,-8.521591176547825830e-01,1.058778013533644202e+00,2.285685986500199645e-03,9.977437530152547321e-03,-5.383901847644042594e-03,1.907832026481628418e+00
-7.499185331557940426e-01,-9.309913780100704805e-01,1.072432898780818489e+00,-2.437979142078627176e-02,1.976285790439695489e-02,1.257135899740514061e-02,1.920197725296020508e+00
-8.555755016196323615e-01,-8.565670143660836233e-01,1.067877163167481935e+00,9.162488559053883798e-05,3.195711575133338474e-03,6.089872651478467173e-03,1.923985481262207031e+00
-9.033180542999342810e-01,-6.621068338173474732e-01,1.006928852863913981e+00,3.558864005547626719e-02,1.360724378209084498e-02,-4.852900384242104376e-02,1.804957985877990723e+00
-8.728758621613453839e-01,-7.973806925136104340e-01,1.065857211374553914e+00,2.980572304324749858e-02,1.797369476959388354e-02,-5.767468885470548867e-03,1.903090834617614746e+00
-8.577141317254096675e-01,-7.983351486442731293e-01,1.051500008054389479e+00,5.565892124279030878e-03,1.412236089594050108e-02,-1.068068174302772358e-02,1.880502820014953613e+00
-8.353981414262929839e-01,-8.157692376935238299e-01,1.051026774207200143e+00,5.147006005153467907e-03,-1.426907877517813103e-02,-1.208968203362473931e-03,1.876872539520263672e+00
-8.559421035700687241e-01,-8.506805994325478126e-01,1.047285844104253183e+00,-1.685259155527839671e-03,5.471467544236630412e-03,3.697805482523327907e-03,1.900639295578002930e+00
-8.212801452394680179e-01,-7.437347902664752652e-01,1.025311186961794352e+00,2.141590236789208540e-02,1.123999999456315110e-02,-1.059437427594270113e-02,1.809643626213073730e+00
-7.928252891408877900e-01,-8.056861940334881789e-01,1.031551151576428182e+00,1.220964744941214000e-02,1.528255666651630318e-02,9.437103457430699727e-03,1.831227183341979980e+00
-7.832131939222709560e-01,-7.888295712609479926e-01,1.024994280881866615e+00,1.012935538286775447e-02,-5.140719586828034274e-03,9.316289264342386689e-03,1.811200976371765137e+00
-7.878858929086658414e-01,-7.862338071642608339e-01,1.022796054308956037e+00,1.189768030447953089e-02,1.309453183021636567e-02,1.296075126401338359e-02,1.810255050659179688e+00
-8.605279212227338048e-01,-8.656081620563955692e-01,1.071182896616588831e+00,-1.517201124649339818e-03,-4.014663408470985463e-04,4.342926454389189894e-03,1.934272527694702148e+00
-7.650074728116754708e-01,-8.280667234238489050e-01,1.045895950391482865e+00,4.620652740194060304e-02,2.634953514546014772e-02,2.907017922118097439e-02,1.846230030059814453e+00
-8.364440114380972124e-01,-8.496016005638755697e-01,1.063011442911906190e+00,6.085628067391428420e-03,4.707259312971856860e-03,-1.399191632716932816e-03,1.906116485595703125e+00
-7.884698542939996280e-01,-8.030456697920870246e-01,1.031583369994405253e+00,1.364772962962053403e-03,-2.557268641653897678e-03,1.222399730335950625e-02,1.827514290809631348e+00
-8.601081807460051465e-01,-8.463355151481162242e-01,9.838600961177306203e-01,2.252086302749465186e-03,-1.231153844005306551e-02,-3.854146361344135303e-04,1.837248682975769043e+00
-8.212204955013464591e-01,-8.477753478688877520e-01,1.054204743832364732e+00,-5.517433458471704584e-03,-5.793710084443287958e-03,2.037050503924481455e-03,1.888896822929382324e+00
-8.705004193873723262e-01,-8.539167296504928117e-01,1.025075821554845001e+00,-3.490904496451703500e-03,-9.868045568027885781e-03,6.040835984022525397e-03,1.887455105781555176e+00
-1.119926080704964466e+00,-1.264446078060326439e-01,1.146243714722899876e+00,1.472179695214311836e-02,-5.572020007345469123e-02,-1.592006815108934215e-01,1.989254236221313477e+00
-8.630216177653160514e-01,-8.518742039324000981e-01,9.899596450336520803e-01,-1.532270749624493628e-03,-1.197209183807391650e-02,-2.445912405564892606e-03,1.847555875778198242e+00
-8.535095156737709798e-01,-8.584850977248411619e-01,1.004911265917846519e+00,4.241596741726980438e-03,-1.935585577008500438e-02,-2.589018861755472065e-02,1.861770153045654297e+00
-8.752683761778978777e-01,-8.570795890283724461e-01,1.028364339196563781e+00,-2.258992370639036854e-03,3.512272111256921955e-03,2.573303592948244633e-03,1.894622802734375000e+00
-8.635820937091596150e-01,-8.544056412534648537e-01,1.047744421148483651e+00,-3.605211526880370589e-04,-4.360913514871193539e-03,-1.018668063093693295e-02,1.906851530075073242e+00
-8.538669524598374583e-01,-8.615664945536999353e-01,1.017503788937121900e+00,3.055242795102107965e-03,3.194893698838400858e-04,5.154762312437695740e-03,1.875261187553405762e+00
-8.648620771708988020e-01,-8.469185132092439394e-01,1.037672034063077842e+00,-3.018974665022131770e-03,3.287687957332673713e-03,-1.623717649435993393e-02,1.893850684165954590e+00
-5.792403775352431561e-01,-9.215485975166817223e-01,1.022858232865219374e+00,-2.538618081068597446e-02,-1.329270281403371716e-02,-1.475192022586061490e-02,1.798728108406066895e+00
-8.554590220453111016e-01,-8.576827504941904046e-01,1.022621158765570248e+00,4.403899904695004856e-04,3.194749317139864483e-03,-3.070721539386435037e-03,1.879208803176879883e+00
-8.549037015699872954e-01,-8.597562444785764590e-01,1.024209658297523973e+00,4.923189400599005264e-04,1.432482476538137406e-03,-1.097358524791302529e-03,1.881547093391418457e+00
-8.702832818772868739e-01,-8.571393607599639974e-01,1.029737918109276729e+00,3.949351347182525167e-03,-5.207084925569716201e-03,2.554164594684322771e-04,1.893517374992370605e+00
-8.533024705711538260e-01,-8.583750343637747138e-01,1.023232746113745151e+00,1.963042972459869921e-03,1.932600230324466777e-03,-6.261610296345886985e-04,1.879083037376403809e+00
-8.703232469007131655e-01,-8.589939030321736002e-01,1.030261672144374030e+00,4.199095771134278739e-03,-5.108806897121144323e-03,-4.647418032223699785e-04,1.894980430603027344e+00
-8.488169669625933444e-01,-8.543121857217836901e-01,1.051666250648945589e+00,3.640083238713474022e-03,1.594546053089516274e-02,1.631274021374734887e-02,1.903657317161560059e+00
-8.455656779681157698e-01,-8.094794319079040568e-01,1.051292330497149097e+00,3.405917456732376371e-03,5.369704398411650342e-03,-3.294567612627233646e-03,1.879115700721740723e+00
-8.141939659004295837e-01,-8.033586912714583139e-01,1.036925461117782499e+00,-1.597160483865353196e-03,-3.790554747178873692e-03,-4.672437135731987053e-03,1.845757126808166504e+00
-7.792893197704813257e-01,-8.188215952004550546e-01,1.032289159020047586e+00,3.428751499981118334e-02,8.439686777893242939e-03,1.460819516527273564e-02,1.832860112190246582e+00
-7.581695641728239954e-01,-8.165429505217611794e-01,1.024347640756278599e+00,1.985483351076198361e-02,1.362156822000263126e-02,1.429113003415348297e-02,1.813057780265808105e+00
-8.880798007147661099e-01,-8.485658892169650747e-01,1.046643856579919207e+00,-6.243802988118872001e-03,-1.017134046661630382e-02,-2.576997393419772076e-02,1.915903925895690918e+00
-7.838286574493095182e-01,-8.238013479898574909e-01,1.035572338846773466e+00,4.428246835126896722e-03,1.590977067626329899e-02,1.652823989911151106e-02,1.840158104896545410e+00
-8.910169053627821079e-01,-8.487710842508887632e-01,1.055574689794649190e+00,-2.874395273024203581e-03,-5.896354613415544406e-03,-1.636028352046957693e-02,1.926058173179626465e+00
-8.320037672316156208e-01,-8.553923590952531297e-01,1.058017614045380084e+00,-3.622036946611812292e-03,7.945432845437087194e-03,6.029583578267889987e-03,1.901912331581115723e+00
-8.242348913796323506e-01,-8.557861354642664065e-01,1.055467507416396611e+00,1.126981250525729318e-02,-8.614807135341783287e-03,6.297602269767776928e-03,1.895865559577941895e+00
-7.886569448411969718e-01,-8.214126166949858865e-01,1.036408897221707592e+00,8.566503068294746212e-03,1.537534600033281344e-02,1.759458064343488032e-02,1.842166543006896973e+00
-8.804151777322860584e-01,-7.812456482057263951e-01,1.053397954086827903e+00,7.131954889378077506e-03,1.760985435280636169e-02,-2.338141198396319689e-02,1.886906266212463379e+00
-9.646559228444654410e-01,-5.956606086698299496e-01,1.041156946512421744e+00,-1.000762924609837137e-02,-1.770490442795429054e-02,-3.307411500372278018e-02,1.850359320640563965e+00
-8.618428562074962329e-01,-8.502804693067651520e-01,1.055973630120933482e+00,-1.343863674935478212e-03,4.894049597872313431e-03,-8.743934010976301546e-03,1.912141680717468262e+00
-8.505475390000984959e-01,-8.524429487405885686e-01,1.066614317889755803e+00,-5.487461343653323581e-03,-2.639926806008364556e-03,6.628145230529425627e-03,1.918173670768737793e+00
-8.371048637726776764e-01,-8.333857899290242344e-01,1.055348831268688947e+00,3.064910588443926515e-03,6.930772332608480663e-03,9.157657971644434652e-03,1.890709042549133301e+00
-8.793888122874791158e-01,-8.454598461174404056e-01,1.053376167406610220e+00,-4.168749195939122805e-03,-6.355442282124876838e-04,-1.429105410859240165e-02,1.916199564933776855e+00
-7.264774383428581617e-01,-7.869921897316780601e-01,1.010012184537540048e+00,-1.741335464479860234e-02,-3.414107433615144651e-03,1.352615829397641259e-02,1.767946600914001465e+00
-8.640146746186554427e-01,-8.644032199844102760e-01,1.068726962027804150e+00,1.045967495052182918e-03,1.382724589381460192e-03,3.011318616931246239e-04,1.932938337326049805e+00
-8.658966673867478647e-01,-8.651289781646842592e-01,1.063794326916486233e+00,5.742429434485658672e-03,-8.134819223781357758e-03,5.456645763543881318e-03,1.929407477378845215e+00
-8.603470294083834791e-01,-8.665665606782170238e-01,1.053935978864521950e+00,1.599903641465319623e-03,1.332186367841043393e-03,1.416954287755183180e-03,1.917405247688293457e+00
-8.454295015325389295e-01,-8.241702944390103536e-01,9.626141298685015890e-01,-3.878886187950836544e-03,-1.418087796153867132e-02,-1.732566773637117530e-02,1.797939181327819824e+00
-8.324323382477250011e-01,-8.269311492865523139e-01,1.050964963282265074e+00,3.819909563776947240e-03,1.041751066246092948e-02,1.219540411886067821e-02,1.880869507789611816e+00
-8.690072881899005841e-01,-8.637219454237209382e-01,1.036029318469982252e+00,-1.104351005343660571e-03,-4.226643951798856290e-03,-1.392482345209397317e-03,1.902415990829467773e+00
-8.676498919953502531e-01,-8.637173919415410683e-01,1.059782217163893092e+00,-6.391473523634152477e-03,3.747396851255665844e-03,5.339759666369475570e-03,1.925533890724182129e+00
-8.651850921247449255e-01,-8.618532745805439488e-01,1.060215539388571937e+00,2.700144681640025482e-03,-3.166230973418909193e-03,9.540746273541349633e-04,1.923751115798950195e+00
-9.162276512932391315e-01,-6.253452502381864342e-01,1.031071059572466586e+00,3.165123128525499513e-02,3.632293260550331290e-03,3.386834911255199448e-02,1.821163415908813477e+00
-9.418348918841168427e-01,-5.581984729767917042e-01,1.036522697797866099e+00,4.806616507417458412e-02,-6.987397863260740027e-03,-3.816999282477607364e-02,1.820317029953002930e+00
-8.716362562228203714e-01,-7.224369409832545053e-01,1.038439091137791204e+00,1.610605492844633876e-02,-1.812696091550290364e-02,-3.970376121103265377e-02,1.841781616210937500e+00
-8.937935609946786597e-01,-7.138559387093211805e-01,1.043347026048865089e+00,1.113332440705658288e-02,-2.553791203306948060e-02,-3.577634463329245479e-02,1.855396151542663574e+00
-8.653788490491752805e-01,-6.844466406813148884e-01,1.046298482589127721e+00,8.727578029445250130e-02,-1.792669085258068867e-02,-9.300442432763128195e-03,1.834512829780578613e+00
-8.646435225429562887e-01,-6.591010760333138041e-01,1.019094098459563780e+00,2.792666120752885714e-02,-1.198545501361616798e-02,-2.587334806728077731e-03,1.790619373321533203e+00
-7.655220790305562462e-01,-7.676395605957897494e-01,1.011891792443808225e+00,3.056898926559446089e-02,-1.300919622299892900e-02,-1.028205985531929247e-02,1.779493331909179688e+00
-7.720859133998145829e-01,-7.651049180146466400e-01,1.008286341184279067e+00,2.438783952527365066e-03,-9.135015421757130757e-03,-7.347239387917487395e-03,1.777013063430786133e+00
-8.341479116436673058e-01,-8.350727075181761938e-01,1.057322810447163253e+00,4.950797590204388074e-05,-1.053280919530804466e-02,6.763292014099941442e-03,1.892057538032531738e+00
-8.618458419009064064e-01,-8.589332037870516245e-01,1.051795173364294289e+00,2.068576858086790347e-03,2.871361724055555321e-03,5.547356524505833546e-03,1.912220358848571777e+00
-7.605164253296408106e-01,-7.515731728863649375e-01,9.977860242076441732e-01,3.599729877371774054e-03,-9.207840562081334290e-04,-2.833252742364822797e-04,1.753859758377075195e+00
-7.676546653178700774e-01,-7.406482640775154946e-01,9.975383211119182025e-01,1.981336299609545368e-02,-2.509795755811253855e-03,2.500861317695759947e-03,1.752192735671997070e+00
-8.306488266922195107e-01,-8.327475624037072865e-01,1.055433710554839699e+00,3.344121306087410872e-03,1.657991642255824414e-03,-4.131941903447020406e-03,1.887157440185546875e+00
-8.187345297142764045e-01,-7.514010730269733429e-01,1.026905325991240181e+00,2.175374819896628772e-02,-1.013851498110558344e-02,-1.449154251831896723e-02,1.813561439514160156e+00
-8.906844212272905237e-01,-7.395097375108629079e-01,1.040582141235165237e+00,-2.016155459435927874e-02,1.143414412372886421e-02,-3.004023546487777710e-02,1.861452341079711914e+00
-8.198671487768636190e-01,-8.375467008430055316e-01,8.302719349050295961e-01,4.170220572908506750e-03,-1.345664880197797349e-03,-1.216709333327182108e-03,1.659068226814270020e+00
-8.213533842689488829e-01,-7.884768751522691632e-01,1.040413431415913914e+00,8.520188152274267568e-03,-1.690262597736247666e-02,-1.958727954989033376e-02,1.846151113510131836e+00
-8.413338289044458573e-01,-8.266068345709494114e-01,1.051834248591450471e+00,1.314927940948062285e-02,-5.565341402561636494e-03,-1.702875973428192788e-02,1.886240482330322266e+00
-8.210392545994816826e-01,-8.317793859196580541e-01,1.055359534306498315e+00,2.301696299065872711e-02,-1.126312965429950713e-02,-2.330225821799976598e-03,1.882319569587707520e+00
-8.890321751450931398e-01,-7.589614106139582761e-01,1.042131984453120275e+00,-7.541905896497241683e-03,1.278491305351208904e-02,-3.726884085114467310e-02,1.870816230773925781e+00
-8.558571998944953796e-01,-7.127574665240391516e-01,1.038180429020844064e+00,-1.439785292771104258e-02,-1.613170580583424621e-02,-1.066530770222933779e-02,1.827173709869384766e+00
-8.562939163472236270e-01,-8.650466797122782214e-01,1.026492991100533825e+00,2.013467380296306720e-03,4.382199635944708169e-03,-1.015490207947556192e-02,1.887278914451599121e+00
-9.144596972090005549e-01,-6.988365391098106949e-01,1.052965790751371644e+00,-1.206839074387723240e-02,-2.145976229951112105e-02,-1.408845862190593809e-02,1.869611740112304688e+00
-7.667947627322312387e-01,-5.719436081180119258e-01,1.018171358611926758e+00,4.895629903693788920e-01,-1.166715227098607810e-01,-2.539083281329210240e-02,1.907368540763854980e+00
-6.552748962386516496e-01,-8.559654334696352729e-01,1.013783248243440793e+00,-1.706560398887571606e-02,-1.029507552428466331e-02,-2.063744072161991655e-02,1.778613328933715820e+00
-8.639861842437953632e-01,-7.907154926459784017e-01,1.049720739434946148e+00,-1.373833063444907313e-02,1.180507537774731991e-03,2.225915520920768165e-02,1.878691315650939941e+00
-6.537153664767443306e-01,-8.907722435139614481e-01,1.044408507967365063e+00,-2.705009774540100345e-02,-2.667123165509939151e-02,-4.017839421488733284e-03,1.829412579536437988e+00
-5.599966048144303654e-01,-9.005993558596628867e-01,1.026340916107388423e+00,-1.485328078218129955e-01,-2.981500545299963292e-02,2.820623460955363343e-02,1.801118373870849609e+00
-8.663971666128545968e-01,-8.641449438785143711e-01,1.040318245207956904e+00,4.333049542338600520e-03,-4.920839186745503378e-03,1.800803279630570127e-03,1.905626654624938965e+00
-5.803487227298117501e-01,-9.173500740791734609e-01,1.028616390254756263e+00,-2.519820167847969250e-02,-1.301169249029946254e-02,-7.499819391241232570e-03,1.801983237266540527e+00
-8.521780517673006594e-01,-8.626789517987735190e-01,1.011792951337661117e+00,2.832946661753343344e-03,-5.904091383221278695e-03,-1.454997188918436685e-02,1.869447827339172363e+00
-8.590467802095682615e-01,-8.670431323970103632e-01,1.045198158218847428e+00,4.308993519252323108e-03,2.990364155353073851e-03,-4.276504567177927436e-03,1.908291697502136230e+00
-1.131587876072957854e+00,-6.794687212905848872e-01,1.446313753330664920e+00,4.201734915220784461e-01,1.254841718912758086e-01,1.419017976672238279e-01,2.514309883117675781e+00
-8.247382004989571858e-01,-7.486866930180142710e-01,5.162681006211120582e-01,-2.001945772993453040e-02,-1.504070601634382165e-01,2.479078847576295097e-02,1.331543922424316406e+00
-5.771193890941762605e-01,-9.424647098758149877e-01,1.038633814403330025e+00,2.334523113060527066e-02,3.504744313173447506e-02,1.804809532665535912e-02,1.827769279479980469e+00
-7.984157621010504746e-01,-8.629230349487204688e-01,1.056189182581635633e+00,-4.889253539939349830e-03,-1.284452856996794179e-02,-1.438060101029458270e-02,1.887999773025512695e+00
-8.243281496283979548e-01,-8.091004545536474302e-01,1.045110844400452876e+00,1.099022169571025991e-02,1.877978630154695378e-02,-2.586440898088607568e-03,1.862258672714233398e+00
-7.885199107974808497e-01,-7.830847008282116883e-01,6.406600257959973455e-01,7.161509278486032776e-03,5.365232834220569347e-02,-6.829200073238622659e-02,1.434432983398437500e+00
-7.476056234000703071e-01,-7.687839786391639230e-01,5.610969428768453060e-01,-7.453091654708418785e-03,-2.488028371717821222e-02,2.843446847427888186e-03,1.320195078849792480e+00
-1.072579068541690939e+00,-6.771492786822104204e-01,1.144719679862605588e+00,9.315825013061902748e-02,2.568787816665847601e-02,-1.059301840149951511e-02,2.055320978164672852e+00
-8.308080920875225983e-01,-8.242847107093441705e-01,8.117588469611201063e-01,1.619780801462524997e-02,-3.422182088897550434e-02,8.749507244554284927e-03,1.640696167945861816e+00
-6.593381767115616965e-01,-7.072150047208991541e-01,1.026805658928472864e+00,-2.472693754641431263e-01,-1.010471813303373025e-02,2.503791219267383766e-03,1.763477206230163574e+00
-7.508788148445547650e-01,-8.038783130648465836e-01,1.019695350665387412e+00,-7.643238061326679267e-02,-2.736202037111505354e-03,1.335422654041875691e-02,1.802682638168334961e+00
-8.368161399713072157e-01,-8.389205280912221951e-01,9.658696203782473066e-01,-1.028087499264332579e-02,1.318836260256991272e-02,-3.322156015961857944e-02,1.804888844490051270e+00
-8.330450114079288593e-01,-8.300087880606246138e-01,1.054902261794782525e+00,-1.054126006398754117e-02,1.076399379485344643e-03,9.519756251013672399e-04,1.886520981788635254e+00
-8.263702180164693711e-01,-8.136382245795653612e-01,1.047186456431748569e+00,1.161157100557149748e-03,-5.776999077766079710e-03,-5.448188181140368840e-03,1.867274999618530273e+00
-8.428198992403023171e-01,-7.715628889391362710e-01,1.036581342474699019e+00,-7.574729575997850642e-03,-6.824412266189436131e-03,7.564779420148163430e-03,1.844936251640319824e+00
-7.864486878842602557e-01,-7.898003016930229547e-01,1.109132645471396339e+00,1.162654104437658015e-01,1.044038208410212783e-02,5.926653759890886108e-02,1.910761833190917969e+00
-9.165130657974177586e-01,-5.534467633052227997e-01,1.075508358498011852e+00,1.329245429760055330e-01,5.688148967166833936e-02,1.161512691423752935e-01,1.865453600883483887e+00
-8.542240831986285254e-01,-7.902784767278842049e-01,1.069518343578925945e+00,1.129759405776418479e-01,2.188295368701339769e-02,-9.361111008095175223e-04,1.903047323226928711e+00
-7.462857954297879015e-01,-9.292473153047453582e-01,1.057066923083795018e+00,8.710421113693512813e-04,-2.831246390003854321e-02,1.736753520009043372e-02,1.902317523956298828e+00
-8.043787945012916829e-01,-8.082911589774857131e-01,1.036633486609471300e+00,2.798169309845093249e-03,1.221280857948157418e-02,-3.468574955874210823e-03,1.843109130859375000e+00
-8.155259156718693836e-01,-6.712210267836012934e-01,1.001177776838728439e+00,2.035170480193373432e-01,8.054700445088136193e-03,2.582873486323974607e-02,1.784805417060852051e+00
-7.564942098901148437e-01,-8.075099618719007166e-01,1.158171977675497288e+00,2.520269145841818048e-01,-1.008458310253984719e-01,-8.812965982406661958e-02,2.002645730972290039e+00
-8.703015895888965847e-01,-6.426792370172207391e-01,1.013528054090514718e+00,-3.031142089246136040e-02,5.035511977551397796e-03,-1.199047228646707951e-02,1.781877636909484863e+00
-8.025607950310892358e-01,-8.034980927185526589e-01,1.036501152229259315e+00,3.575670583163238596e-03,1.163931773461997568e-02,7.756516575668287970e-03,1.839700698852539062e+00
-8.970618046949373481e-01,-6.616365073276089248e-01,1.006128764629627748e+00,1.057466613672032874e-01,6.921318541107125688e-02,8.507961379821256387e-02,1.816351890563964844e+00
-8.421206619612326971e-01,-8.258035501820585322e-01,8.743360068179089062e-01,-1.245436256925078200e-02,7.065450787442714362e-03,8.263718044229328291e-03,1.708596467971801758e+00
-8.031656514757145038e-01,-8.389899360186158228e-01,1.046590583383871120e+00,-1.431377179503399814e-02,2.007206194483683592e-02,1.829617349532830506e-02,1.868682742118835449e+00
-8.011058622164601850e-01,-8.044342331417864145e-01,1.036072308404722975e+00,-1.760723834418578349e-03,-9.597178856564168165e-03,1.324207922292173177e-02,1.839065313339233398e+00
-1.008084742352697294e+00,-6.527450691899947532e-01,1.110057930544047000e+00,7.849206625738021359e-02,4.373023501168509658e-02,1.688788820068334862e-02,1.971093654632568359e+00
-9.353574726669969808e-01,-6.911803794924415989e-01,1.091936238307801510e+00,-7.777310333830164853e-03,9.000350096785398116e-03,-1.659622863481009097e-02,1.917230963706970215e+00
-8.450952599324487169e-01,-7.117036098766336139e-01,1.029197181213928003e+00,-4.950538632620507529e-02,2.292458158266071425e-02,-2.436117430382310142e-02,1.814238071441650391e+00
-8.021039020026194954e-01,-7.300309441426694468e-01,1.006540248001860371e+00,1.198877560421052722e-02,1.594557359855872667e-03,-1.925553676238209947e-03,1.773833036422729492e+00
-7.819143977021192349e-01,-7.659970182077524559e-01,1.011521584078577840e+00,-1.716425759604165227e-02,-9.626561779887393006e-03,-4.000843261890743054e-03,1.785869240760803223e+00
-6.978763756719515987e-01,-7.291746907867115990e-01,1.029930823202793055e+00,-1.900142377987288633e-01,3.888080734667319349e-02,-1.560286509363704478e-02,1.775938153266906738e+00
-9.462781976971699205e-01,-5.720225330780087658e-01,1.035181376108678775e+00,-2.453731082277772757e-02,2.245400684585328183e-02,-2.944418136436281058e-02,1.824992179870605469e+00
-8.331475276927950979e-01,-8.476687849988634449e-01,1.066247199901887655e+00,-2.621394839376630682e-03,-9.205052199604190841e-03,1.090719021996079674e-02,1.906862497329711914e+00
-8.573917248347473485e-01,-8.610772913254507444e-01,1.022145606843245957e+00,8.153949843625617894e-03,-3.691619602153081020e-03,4.372954937290767646e-03,1.881461977958679199e+00
-7.891851173145321141e-01,-7.298948124167844442e-01,1.002836166305298926e+00,-1.140533074405797147e-02,-6.612293394903999248e-03,-5.271954391325521169e-03,1.763295531272888184e+00
-7.651793094043642940e-01,-7.458083376549907717e-01,9.986583774281374559e-01,-2.243947271256351017e-02,-4.923209097236461509e-03,5.440042479205416635e-03,1.754708886146545410e+00
-9.383291183767136223e-01,-5.503431986513378504e-01,9.734784958633666552e-01,-3.003756029245548131e-02,4.940540952480283222e-03,-5.712975933139270018e-02,1.753955125808715820e+00
-8.334244592741850699e-01,-8.582663206989175064e-01,9.397298515712373401e-01,7.668524438182802890e-03,1.711051285008011180e-02,3.208949882123327078e-03,1.786008834838867188e+00
-9.533460212628035446e-01,-6.776739365921224945e-01,1.068571734611107216e+00,-9.854739947999830926e-03,2.478873090854425039e-03,-5.377802324804862449e-02,1.901511549949645996e+00
-9.139376701212938992e-01,-5.687390042766209408e-01,1.010473619467990414e+00,-2.999338969694972587e-02,-1.192955682350320401e-02,-1.968869613969994117e-02,1.778343439102172852e+00
-9.573091253967724867e-01,-5.503707528747133759e-01,9.712629394242258130e-01,-2.399355201927375059e-02,2.633344037122035963e-02,-6.748748979881441512e-02,1.765686869621276855e+00
-7.964242981857697634e-01,-7.211752762517290583e-01,9.972910773861927147e-01,-1.871998037729280182e-02,6.705908168411516728e-04,-7.816596975772687405e-05,1.757599115371704102e+00
-1.000197874031243384e+00,-6.384379636457487850e-01,1.023267242074443750e+00,-1.106576752157232002e-01,1.241339061053487770e-02,-4.613397174025418712e-02,1.880652904510498047e+00
-1.319354589768878316e+00,-4.441781417098291107e-01,1.392764019251464980e+00,2.473406963138201631e-01,6.960814292361890143e-02,1.198595982732850590e-01,2.447264909744262695e+00
-8.489644026179844483e-01,-8.579526111950372957e-01,1.067508029893737387e+00,2.157131283416732423e-03,-1.792246318070303763e-03,-9.864604650026455313e-03,1.921064376831054688e+00
-8.651510184667254855e-01,-8.604344599404398775e-01,1.043644177439871479e+00,2.098471739408973476e-03,-1.914765578362011083e-04,-6.776575032650323377e-03,1.906480908393859863e+00
-8.591302964539426767e-01,-8.274438036985534151e-01,1.057645625361632424e+00,-5.666280563889374532e-03,-6.874633828120451338e-03,-7.458163842286790086e-03,1.901237249374389648e+00
-9.684556494639194879e-01,-4.477957699001124947e-01,1.053415920698497210e+00,-1.521816223914209953e-01,4.940464623022417651e-02,-4.492867264143887707e-02,1.840978026390075684e+00
-8.930763932044211151e-01,-6.898947954637654201e-01,1.042407268830024991e+00,9.435396987660531892e-03,1.541238860941741666e-02,-1.178435225546980644e-02,1.842694044113159180e+00
-8.634782002119317790e-01,-8.634132437289326889e-01,1.065500096401194918e+00,-4.664929341102140407e-03,-2.040255613025419883e-05,-1.227860582705836163e-03,1.928963899612426758e+00
-9.707356833059359591e-01,-6.164149846099882257e-01,1.052278241582838891e+00,-2.334925946991953723e-04,-1.440142010399210817e-02,-4.158246990554116673e-02,1.872736573219299316e+00
-8.538937669230017846e-01,-8.591332919200225238e-01,1.058924837630649707e+00,1.467292520738388206e-03,-2.816813035095614825e-03,-3.651154873507954108e-03,1.915462136268615723e+00
-7.528331562273622435e-01,-8.551078571092638470e-01,1.034137570652122085e+00,1.106433781606680836e-02,-1.983339526894482840e-02,-2.281622808406510994e-02,1.841085433959960938e+00
-8.436691033373426851e-01,-8.280734226608467141e-01,1.059539289673367746e+00,-2.073579389679422176e-04,-5.977870296830781888e-03,-2.852819375710313916e-03,1.895493388175964355e+00
-8.648470477666814205e-01,-8.634775075994606253e-01,1.071111675196778856e+00,-1.464600246726278660e-03,-1.023111911450461488e-03,3.197059683134292657e-04,1.935276865959167480e+00
-8.993714674796091657e-01,-8.350918612077432579e-01,1.101114393112435419e+00,4.325004977125175391e-03,-2.191330886764552080e-02,3.180432193911749555e-02,1.970283269882202148e+00
-8.977645716088185068e-01,-7.327940989603008992e-01,9.707672262999420543e-01,-2.489152660014127064e-02,-2.037002239225817884e-02,-2.980497194383266088e-02,1.793360590934753418e+00
-8.484935878732327019e-01,-6.589068904835222451e-01,1.007267768865087731e+00,-2.675706754404204996e-02,-1.069702563119054144e-02,-9.257761919080020191e-03,1.769382357597351074e+00
-1.006444870025214211e+00,-7.187822970035393499e-01,8.783796713514029353e-01,-1.781822334429720859e-03,-3.698922939743330696e-02,-9.428104803311614102e-02,1.767456054687500000e+00
-9.111969810343492071e-01,-6.925503377576522901e-01,1.063112701567830776e+00,5.916882124395918090e-03,1.554413146088584087e-02,-7.432760302456365570e-03,1.874839901924133301e+00
-9.280004438784007492e-01,-7.585417400945082544e-01,1.060263073273058243e+00,5.847009622228931808e-03,1.747056280007841869e-02,-3.611665319659105450e-02,1.910474061965942383e+00
-9.744726102608751717e-01,-4.549840519505918279e-01,1.008721356004453007e+00,-6.872418976124622901e-03,-3.923970420139484766e-04,1.137032928340010914e-02,1.781350612640380859e+00
-8.472828453469690713e-01,-6.560938947963281809e-01,1.021103769180105481e+00,-2.335341957868051002e-02,1.428331672435095368e-03,1.142090773615632264e-02,1.781078457832336426e+00
-1.102364110906435268e+00,-7.656616445091252166e-01,1.145004656704520896e+00,-6.028498562665250693e-02,-6.627792391754470415e-03,-5.626912488922709843e-02,2.104251384735107422e+00
-7.381623043019859276e-01,-7.680839197000581819e-01,1.135914457893201002e+00,4.035883006264694428e-01,4.831186199170980217e-02,-6.336526730862851453e-02,2.019116878509521484e+00
-9.078028962621529363e-01,-7.791955118717730500e-01,1.037185718736647999e+00,-3.167335488145927615e-03,5.458035129620727316e-03,8.572851654419958584e-03,1.884070277214050293e+00
-8.559907422100409002e-01,-7.325684568336172653e-01,1.033154046744463539e+00,1.553424275097090891e-02,1.054026015503350608e-02,-1.024451920539766817e-02,1.830931663513183594e+00
-8.602674571084774069e-01,-8.630253757959410743e-01,1.049126882808665506e+00,-2.986079359373243394e-03,4.154251244727179791e-03,5.366449194159604759e-03,1.910817980766296387e+00
-8.639927430312558387e-01,-8.616439115906748825e-01,1.061694210378439029e+00,-3.439228920720319767e-03,-4.209408045649649412e-03,1.599944220253093820e-03,1.924538612365722656e+00
-8.612573813728252592e-01,-8.674435309197334742e-01,1.058366573687547163e+00,-2.290148981377808108e-03,2.237705434533188067e-03,-2.791585689884767008e-03,1.922738552093505859e+00
-5.937440601850272337e-01,-1.090505711208235695e+00,1.221920875926754135e+00,-8.058723762892093523e-02,6.714592555758246151e-02,-1.013505062063822099e-02,2.116289377212524414e+00
-6.928516309258876404e-01,-8.590342045440098051e-01,7.389775737523616161e-01,-8.893806986849507601e-02,-3.091987789487444724e-02,2.642272822514845840e-02,1.531139850616455078e+00
-5.412394084161120666e-01,-9.282114518863615604e-01,1.027578334083004030e+00,-8.327078300444208658e-02,-2.539924259746293919e-02,-1.895363563779594099e-02,1.800511121749877930e+00
-3.940095807075610912e-01,-1.039540684394056447e+00,1.046941403905998325e+00,-6.557013749388955481e-02,-3.836829646052816734e-02,8.846198114243135346e-03,1.854933500289916992e+00
-4.327623720640195737e-01,-1.158874707346711830e+00,1.281011219916134758e+00,-3.282213043631567514e-03,9.791547730673058614e-02,-9.147887126262526855e-03,2.176625013351440430e+00
-7.751351828232441177e-01,-7.794959265855410102e-01,1.016701179727554916e+00,1.193767729356364632e-02,1.388794112912285217e-02,-4.992498524476362458e-04,1.794301271438598633e+00
-3.808833496625134152e-01,-9.889107981449793972e-01,7.554176724436408863e-01,2.191370116640067589e-01,-1.614187362484257038e-01,3.314507954385423338e-02,1.605399131774902344e+00
-8.129459868294320879e-01,-8.752912879757905884e-01,1.054120141191742022e+00,2.725222276789508648e-03,2.252389992294091120e-02,1.070323971082001030e-02,1.899503469467163086e+00
-8.687637624441509887e-01,-8.644581931852478585e-01,1.048240124558998732e+00,-2.222388421253513029e-03,-2.887653284787984435e-03,-1.502796134910690728e-03,1.914866924285888672e+00
-5.908952408772401022e-01,-9.763152997161982372e-01,1.150186893628587059e+00,-1.849701146537570742e-03,7.005479065773024400e-03,-1.352487572541147091e-02,1.962567210197448730e+00
-1.874549997350857256e-01,-1.230309779426896899e+00,1.020208215068953539e+00,7.675884262611105957e-02,-5.276019899495364152e-02,1.005885227690906797e-01,1.965144991874694824e+00
-2.049618308032002401e-01,-1.170807185218665891e+00,1.245418965164417857e+00,-1.842951912564734229e-01,-1.694082742227644156e-01,-2.222136561129250953e-02,2.150994777679443359e+00
-8.304810424727954166e-01,-7.247626950157594061e-01,1.018602477223979008e+00,-3.754125367164826838e-02,2.408650321664359759e-02,-2.131161438501069129e-03,1.800218462944030762e+00
-9.032677864291570602e-01,-5.183927186693955136e-01,9.911018131783724261e-01,-3.227602343024525977e-01,-1.331655284529385530e-01,1.844643188703965209e-01,1.864261865615844727e+00
-1.112711312642397088e+00,-4.876381072130642758e-01,1.370309871050140238e+00,-3.043293333951723745e-01,1.236708834497313586e-01,9.354458163144289962e-02,2.313876628875732422e+00
-8.694472405390990533e-01,-8.396636250844303762e-01,9.718098309672142943e-01,-9.428288547182161724e-04,1.044553481483650841e-02,-1.964135670036123039e-03,1.826640844345092773e+00
-7.734009400887350560e-01,-7.511654974027992537e-01,9.997860533121674109e-01,1.048683418778246709e-02,-2.674486215944001186e-03,2.072865373945394305e-03,1.762277841567993164e+00
-8.469642514981828851e-01,-8.565650650524621046e-01,9.588383394419295325e-01,-8.024106703404051619e-03,3.208454964217770638e-03,2.685315341059369559e-02,1.811281204223632812e+00
-7.542009878697021330e-01,-8.257506916541493824e-01,1.021162515943094151e+00,-2.806108258603494388e-02,6.425137180783740444e-03,1.795910762415343920e-02,1.813150644302368164e+00
-9.009852304569788695e-01,-6.511430638574486895e-01,1.082790403193118145e+00,-1.121324821501109709e-01,3.339086356696539110e-02,-3.261198161615498636e-02,1.883192181587219238e+00
-8.727011791551559927e-01,-6.933091346115599629e-01,1.033075431927805043e+00,-2.855664730931385328e-02,2.009967739032375317e-03,1.999317751553459505e-02,1.823716640472412109e+00
-1.060593642713829388e+00,-6.706990019501755107e-01,1.203331934981396012e+00,-9.586142690561443025e-02,9.592681174539732965e-04,-5.076693336147736907e-02,2.104753494262695312e+00
-8.382186266263609298e-01,-7.532260723113204381e-01,1.062015707854341739e+00,-7.553321489534826905e-02,5.803020647281930539e-02,-2.142788072785887371e-02,1.866870164871215820e+00
-8.743074712051898123e-01,-5.441575634394071326e-01,1.143114264060622220e+00,-1.808191130726723994e-01,3.087692083671840504e-02,-4.341249444665359891e-02,1.902508497238159180e+00
-8.027405197449851704e-01,-8.000586323288765289e-01,1.035128191752502147e+00,8.859265881503386409e-04,-1.093590946859673320e-02,-1.437445318557810381e-02,1.836796283721923828e+00
-7.131142116832246414e-01,-7.850611959358420044e-01,9.929025881213788818e-01,-1.407859188589776107e-02,-6.183279756089544131e-03,-5.875851125568668822e-03,1.743337392807006836e+00
-8.344379330433869812e-01,-8.338041117042965800e-01,1.054724348182569216e+00,1.060373370899102751e-03,-4.631574842966719278e-03,-8.327091007473294559e-03,1.888918399810791016e+00
-8.227877277777044807e-01,-8.255124160070218542e-01,1.053727318630538257e+00,3.255094135551540521e-03,-1.688564016759473707e-02,-1.394365292188181824e-02,1.878270387649536133e+00
-8.480317911442069034e-01,-8.625804500771917516e-01,1.041868370074426897e+00,1.868935017458256149e-03,-1.727688684600950722e-02,-4.429540701818735111e-03,1.897470593452453613e+00
-8.335585769408709877e-01,-8.144399067342585896e-01,7.308154326983156146e-01,-3.377760172616425111e-03,6.831724625273739859e-02,1.064117372418723340e-01,1.570263981819152832e+00
-8.616788977498530677e-01,-8.644049174640593414e-01,1.060382615886425572e+00,2.531171285896430256e-03,3.641936173744058768e-03,-7.268199619754700178e-03,1.923482537269592285e+00
-8.160190396344374486e-01,-8.224214228347181965e-01,1.046442581807599082e+00,5.082329648785693585e-03,5.082408442862036170e-03,-8.546823284056228459e-03,1.865771293640136719e+00
-8.191400799862982307e-01,-6.058970662819389563e-01,2.086768970485883834e-01,1.902017816252993820e-01,-2.311064385124472764e-02,-2.118998986752964817e-02,9.970882534980773926e-01
-6.811601593787393050e-01,-7.144857302493611284e-01,3.125732245952358435e-01,2.719801209093751226e-01,3.435035706478811734e-02,-5.281768321731247773e-02,1.120518565177917480e+00
-7.909087039128903651e-01,-8.723524928387134114e-01,5.014147772953060356e-01,3.259850756551700701e-02,-3.768617432062212891e-02,4.756264977811291983e-02,1.340231418609619141e+00
-8.475528789890297565e-01,-5.892867473257716870e-01,1.006434736725044576e+00,-2.656343407042902754e-02,1.622018657781100492e-02,-4.967938439930993932e-02,1.742256999015808105e+00
-9.254839397100970144e-01,-7.733465478561012407e-01,4.691410100240438474e-01,3.823831932666242606e-02,-7.204345870582426481e-02,1.326851223194445463e-02,1.332829833030700684e+00
-9.285471280520893878e-01,-6.403708390119027261e-01,1.064794956627359346e+00,6.223937094709306589e-02,-3.060898169999253307e-02,-4.524610951872589520e-02,1.871522903442382812e+00
-8.541160881335567723e-01,-8.766658931178832326e-01,1.017634581151637407e+00,-2.920783369120900658e-03,2.429676621621208905e-03,2.436155975817113056e-03,1.883143067359924316e+00
-7.988974786043220311e-01,-8.047821438231373969e-01,1.031204459549506458e+00,-2.671387544260881482e-03,1.248415616885337719e-02,-9.522422959142943025e-03,1.833258867263793945e+00
-8.608729166690379797e-01,-8.667952815394788235e-01,1.069169576330911919e+00,-1.695961233893485479e-03,-3.132122089996882655e-04,1.884998531543737987e-03,1.933015584945678711e+00
-8.680368355313202722e-01,-8.621604748636108040e-01,1.072384642609516936e+00,-1.953534355335589771e-03,1.908865745816102494e-03,-4.297108277107162551e-05,1.937495708465576172e+00
-8.472707746104649607e-01,-8.320786070866816875e-01,1.059807031709820269e+00,1.947616597515675497e-03,5.566273689599134794e-03,9.356307470046595302e-04,1.899555444717407227e+00
-8.602208242751827605e-01,-8.562592735243055309e-01,1.069049335334433248e+00,2.227513829793050654e-03,8.614819534246562910e-03,5.359247001553563844e-03,1.927376389503479004e+00
-8.642389341710804418e-01,-8.650216043169206559e-01,1.076827498290764407e+00,7.598195577349816906e-04,-2.484532170771225085e-03,-4.808736308659985209e-07,1.941463112831115723e+00
-7.825212835881093509e-01,-8.794851554479782285e-01,1.053948079119052084e+00,-6.157618019598714264e-03,-2.386337052991076985e-02,-8.834646595501115252e-03,1.887365698814392090e+00
-8.522648728216388747e-01,-8.703952050168618504e-01,1.010060128088783094e+00,-1.483468180772761717e-03,-2.331734138504577836e-03,-1.399023720551737480e-02,1.871618986129760742e+00
-7.590947909983498665e-01,-7.466900897724699782e-01,5.462283489501273959e-01,2.313047372914361563e-02,1.244263020347178422e-01,-4.232079632227788921e-03,1.317548751831054688e+00
-8.633909429394039936e-01,-8.575558962671818719e-01,1.069733521745539928e+00,-1.313513390967285983e-03,-6.352048473480420999e-04,1.089353848859091461e-03,1.930216073989868164e+00
-9.718787080627415698e-01,-4.804241325139352314e-01,1.027915468584528202e+00,1.249580011696223986e-02,4.462332468429302569e-03,-1.250282358352079043e-02,1.805240511894226074e+00
-5.626110773516193042e-01,-9.154923701652094570e-01,1.012088264957043515e+00,-2.691218213790106881e-02,9.387679165625593221e-04,1.445848695076307287e-03,1.778220176696777344e+00
-7.908731285063661520e-01,-7.853135865991659470e-01,1.024975020651488711e+00,-1.891633696149583321e-02,-1.459832434713675964e-02,1.097029233080680857e-02,1.813646554946899414e+00
-7.704708707508840515e-01,-7.671139109623298369e-01,1.007886363580895006e+00,-2.488553033889969075e-03,-8.579869353596475401e-03,8.562863383022568942e-03,1.776810407638549805e+00
-7.934314290117716606e-01,-7.874799510197423302e-01,1.025887863036486047e+00,-1.204434850998716694e-02,-1.490626535561357865e-02,1.509050460113527808e-02,1.816842198371887207e+00
-1.095841435469869563e+00,-7.798256735106636750e-01,1.169842306249601727e+00,9.439804222417041979e-02,1.531151964434325843e-02,4.575058279985154408e-02,2.133286714553833008e+00
-7.934817277798386081e-01,-7.871496133918579607e-01,1.025396988635171702e+00,-2.114003457326751531e-02,-9.231451050601462149e-03,1.552163522816136197e-02,1.816359400749206543e+00
-7.671180412268898685e-01,-7.845971856341650286e-01,1.014576361364125878e+00,-1.896033967522111133e-02,2.236130528020481307e-03,1.150005747820584921e-02,1.790914058685302734e+00
-8.747961811167068724e-01,-8.795918453898330380e-01,1.027158216189577367e+00,1.687095672976816896e-02,1.719839963861603468e-02,3.127948286686740159e-02,1.905584216117858887e+00
-9.173244700845177846e-01,-5.749536795674279333e-01,1.022832645332399260e+00,2.385355177995053880e-02,5.507811443693639598e-03,-7.128604779843930074e-03,1.794191956520080566e+00
-7.730334594613196275e-01,-7.569636658823519770e-01,1.010102851510418231e+00,4.679661127198220943e-02,-4.973410664223138237e-04,-4.586648562694551137e-03,1.777023434638977051e+00
-7.861912890607499760e-01,-7.216379513503429211e-01,9.962948540898504124e-01,1.418389264265461011e-02,-7.271350824357820930e-03,3.777288617983789423e-04,1.751319885253906250e+00
-8.079049681419546713e-01,-7.581714043418682492e-01,1.065136842270435258e+00,2.801597549468867188e-01,-4.213128382633685859e-02,-7.052807952695484828e-02,1.916591286659240723e+00
-9.532452192507735456e-01,-5.862564221018569111e-01,1.049831406886738039e+00,8.555554513734341116e-02,-1.053137039943450454e-02,-6.531427105128594437e-03,1.853189110755920410e+00
-8.672376561856481869e-01,-7.233375680440026212e-01,1.039121956104468225e+00,2.410819304215736092e-02,-1.431416301042774328e-02,-3.124880406840843672e-02,1.840075135231018066e+00
-8.737069515436507450e-01,-7.870216028088209415e-01,1.054952721225255186e+00,1.024868737243780047e-02,-1.142851820611540288e-02,1.983277634916522439e-02,1.887310981750488281e+00
-8.992329412591822946e-01,-6.878622687370364863e-01,1.029897934235507906e+00,6.968085764983822546e-03,-1.088797163247452737e-02,-4.558986349265226751e-02,1.834447741508483887e+00
-6.288202736670349680e-01,-9.628035906049470238e-01,1.052471586477908172e+00,9.947208842158010780e-03,-2.732376302735514684e-02,1.481476980489846058e-02,1.871631860733032227e+00
-8.499698286175226825e-01,-8.448878193444921969e-01,1.040358423367403473e+00,-3.297114782123692495e-03,-3.208873278839307654e-03,-8.077953257063646975e-04,1.887809753417968750e+00
-8.426857753008281104e-01,-6.494803741257000329e-01,1.001545497243893523e+00,1.895022311768557524e-02,7.584874805440878186e-03,3.599787085814845806e-03,1.755987048149108887e+00
-8.640040945040339260e-01,-8.548127400240866924e-01,1.069440984605900757e+00,5.405423916643272916e-03,-4.940249308526040509e-03,-1.862582650900564780e-03,1.928910255432128906e+00
-8.360498805840739234e-01,-8.352879592418473997e-01,1.058131964347678533e+00,-9.266703870878602355e-04,-6.942311860352877104e-03,1.032761211288134653e-02,1.893924355506896973e+00
-8.553948965500587365e-01,-8.565114817092881472e-01,1.066712522926333451e+00,-1.613311343912573364e-04,-5.682370352718863621e-03,2.221326574002393823e-03,1.922695040702819824e+00
-8.512768978090152761e-01,-8.521947640574076832e-01,1.067257186644849032e+00,5.434502617420529542e-03,3.605269358258945869e-03,5.037572810094490330e-03,1.919046282768249512e+00
-8.650192222379464724e-01,-8.605654997101791492e-01,1.048035910723154496e+00,5.308116297031980485e-03,-3.290975809269836710e-03,-4.322976192699413793e-03,1.910877466201782227e+00
-8.533455665195484041e-01,-8.572492008311929368e-01,9.970157411627420529e-01,8.857570547449757775e-03,1.539806661220531267e-02,7.024118166188329793e-03,1.852611660957336426e+00
-8.637117725567827753e-01,-8.597847975191523773e-01,1.049269061525875069e+00,3.842545210619833802e-03,4.146260807412538441e-03,5.345777453344870665e-03,1.911067843437194824e+00
-8.297359531198679194e-01,-8.000175240590589043e-01,1.040344087689819341e+00,-2.340680269811900097e-02,1.625540479871971644e-02,-1.236533454236687750e-02,1.856179356575012207e+00
-8.547905153475736650e-01,-8.587115074972799800e-01,1.044947767013293172e+00,-4.327350199936920417e-04,2.287493854406951257e-03,4.710836902711301906e-03,1.901723623275756836e+00
-6.831976919094563394e-01,-8.141244824942378555e-01,1.004417613509731799e+00,-4.534092624853592463e-02,1.562732304374183246e-03,-1.123623261322069522e-02,1.758605957031250000e+00
-8.654276098263898875e-01,-8.638590025449607301e-01,1.052872082582817725e+00,7.155148688831638494e-03,3.893302682264905990e-03,2.493292360918795535e-03,1.917572617530822754e+00
-8.728018601030335111e-01,-8.714111746044178597e-01,1.041513630276522662e+00,-7.759673316232441193e-03,-6.486704824476745811e-03,-4.381536856454456078e-03,1.913715720176696777e+00
-8.521957795307276706e-01,-8.650909592133663173e-01,1.038990974159182734e+00,-3.929412563702977708e-03,-1.388786678213974925e-02,1.219531314817638338e-04,1.897831916809082031e+00
-1.529867044875527382e+00,-4.194209750549119375e-01,1.398011296249649593e+00,-2.763531652560412971e-02,4.694509108631135519e-02,-1.136677018538471834e-01,2.569430828094482422e+00
-7.929682173548309176e-01,-7.624603025188637639e-01,6.577339287463462858e-01,8.679140217768352081e-03,-4.543555402169639074e-03,2.974697925995189486e-03,1.435800790786743164e+00
-8.618179182801857241e-01,-8.742998635461551871e-01,1.045349872420398007e+00,-4.532547764724182034e-03,4.795187842923469539e-04,-2.544277337262566135e-03,1.913460612297058105e+00
-8.505919000291267684e-01,-8.632162589535700148e-01,1.005022100322522149e+00,-2.781835213360602920e-03,-4.511265011293333869e-03,1.107976668416781052e-02,1.862079858779907227e+00
-8.341951559224722867e-01,-8.012574828119354287e-01,8.276341844871148989e-01,2.812024274504810583e-03,-1.200474110732331103e-02,4.116519233125007053e-03,1.645761728286743164e+00
-8.636079648233694339e-01,-8.626853798574268817e-01,1.065054013418446965e+00,4.151055358595556743e-03,3.927706132220825203e-06,-2.080214252240999723e-03,1.928217649459838867e+00
-1.329992206527069065e+00,-7.067859417573794101e-01,8.258318407454974253e-01,-1.227753644033706126e-01,2.121623381775032680e-02,-2.093716659975348310e-02,1.933992505073547363e+00
-7.676409718476707722e-01,-8.224995522357857469e-01,1.031393550403765902e+00,-8.302991681340930741e-03,-4.397365612704423957e-03,-2.290095458454488933e-02,1.827584624290466309e+00
-8.643868702802158799e-01,-8.614083218291196387e-01,1.070324523659259564e+00,2.831999036637750967e-03,4.401226140073797016e-04,9.258360817065416828e-04,1.933230876922607422e+00
-8.626449054596467825e-01,-8.627946940885130589e-01,1.064671964387199354e+00,4.252305611244787918e-03,-1.566725229007931907e-03,-2.908578790577179014e-03,1.927414298057556152e+00
-9.732569899236114264e-01,-5.105217515999656008e-01,1.027291262179988784e+00,9.398962812462840349e-03,-7.775184060549925405e-03,1.441370984557459323e-02,1.814293980598449707e+00
-7.779963294035943111e-01,-7.817788503145999268e-01,6.242854217881120826e-01,-4.119593878422231174e-03,1.194827824031173893e-02,9.043970879610924163e-02,1.413056850433349609e+00
-8.574534374479159116e-01,-8.589366687743243967e-01,1.061782980619378813e+00,-1.039242190278315601e-04,-6.173185488192648070e-03,1.788669012130204286e-03,1.920010685920715332e+00
-8.548968504744708374e-01,-8.587787218639215681e-01,1.058228948473559194e+00,-2.347925670394138912e-03,4.902495328036313160e-03,-4.608012704092478637e-03,1.915109515190124512e+00
-8.575601780359031201e-01,-8.735647941324338195e-01,1.028714970183822963e+00,2.937772951968575970e-03,-1.513303648353293927e-03,6.950427770357132159e-04,1.894337177276611328e+00
-8.676293373289820643e-01,-8.609787012378302684e-01,1.045969601971896479e+00,4.101927478216729241e-03,6.320176323692089024e-03,-1.450519210551050493e-03,1.910328507423400879e+00
-8.684612849709941740e-01,-8.567081883392424491e-01,1.035505244148502202e+00,4.383084757871433777e-03,3.753782491593847005e-03,3.941256791631402761e-04,1.898143768310546875e+00
-7.922248492072041515e-01,-7.792562176326530698e-01,6.633766483726216689e-01,-4.395756527872535111e-05,-4.546635547738531007e-03,-1.648340163695920842e-03,1.449184894561767578e+00
-8.680343678401218899e-01,-8.590679339558200400e-01,1.032098651635440678e+00,3.304515688190324662e-03,6.923374578361138863e-03,-1.105227540335274863e-03,1.895713210105895996e+00
-8.180553773854803978e-01,-8.020421151316067254e-01,7.382167466750326756e-01,6.384404948441965363e-03,6.452077387287309673e-02,-4.070273676495574783e-02,1.553994655609130859e+00
-8.582369158753330174e-01,-8.537414214187989403e-01,1.063199162471717640e+00,2.199470824162488066e-03,-5.571905345364074405e-03,-9.620720708635906171e-03,1.919292688369750977e+00
-8.661775635126939266e-01,-8.548578686238801350e-01,1.016798589350033533e+00,5.599162369430613247e-03,1.484621408808353693e-02,3.969053748473104840e-03,1.877555608749389648e+00
-7.475231187722044535e-01,-8.090278695045458601e-01,1.019442525713951442e+00,-5.904422769482152444e-02,4.170439109383617358e-03,-1.756438652899799252e-02,1.801683545112609863e+00
-7.885670457617073303e-01,-8.923119176135886343e-01,1.036481823169631999e+00,-8.707864802297736115e-03,1.210804238767278218e-02,-5.437047642051731633e-03,1.879271626472473145e+00
-9.595236480696535120e-01,-6.751986138152622496e-01,1.067954533678749707e+00,1.361262383858732883e-02,-1.604023491865026393e-02,2.443630456414655483e-02,1.902147412300109863e+00
-8.395854766558494831e-01,-8.685627048162580799e-01,1.056143469120983891e+00,-1.126232996872748643e-03,-1.918862532377181226e-02,-9.387053779272347409e-03,1.910741686820983887e+00
-7.354167582818672555e-01,-8.931418114865584679e-01,1.060290831493973185e+00,-1.001587845490295101e-02,2.879579946066033666e-02,-2.324057729715100357e-02,1.880712628364562988e+00
-7.417669969200766378e-01,-8.790750899214844205e-01,1.058821768109565742e+00,-1.208056265810341333e-02,2.748749752769192450e-02,-1.810033570035385689e-02,1.874005436897277832e+00
-7.639656155024757700e-01,-8.488702862259178694e-01,1.053712247918671130e+00,-5.639029575379325004e-02,3.518550188441289805e-02,-4.357905053236956622e-02,1.866665959358215332e+00
-9.508747891728319690e-01,-5.103009580989489313e-01,1.020000465326702299e+00,9.355852204334724059e-03,4.588302781261236959e-03,1.434759789160441543e-02,1.791949152946472168e+00
-8.710990093868093975e-01,-8.525838206024012322e-01,9.971366825324061711e-01,-1.053526098235289636e-03,2.398488053958796468e-02,1.347642554856186411e-03,1.859513759613037109e+00
-9.158592319661819081e-01,-5.656876239697936626e-01,1.027922168751440601e+00,2.955248445162485249e-02,1.979422150032046461e-03,2.029354310642890458e-02,1.795582532882690430e+00
-9.196854919451125099e-01,-6.732231502506145215e-01,1.045971310293206447e+00,2.852471505790665773e-02,-2.350069259182775705e-02,2.997418541303791678e-02,1.856578350067138672e+00
-6.508790630849359271e-01,-9.626059105146468342e-01,1.069216056525025715e+00,-3.041054061607906603e-02,6.982195592706132159e-02,-7.254334219680334817e-02,1.904018878936767578e+00
-8.705120147808671494e-01,-8.451919511230785442e-01,9.696537657169768121e-01,-4.234899483253593694e-03,-2.465493796645787383e-02,4.222860864899991191e-03,1.828165411949157715e+00
-6.857553772253834889e-01,-9.365636533823746834e-01,1.065141792861887815e+00,5.987123503176616270e-03,-4.707505100687284227e-02,-5.191695525035477411e-03,1.890640616416931152e+00
-8.658433472852024027e-01,-8.619485627003508066e-01,1.049538411513379677e+00,-1.232664367607903171e-03,-3.148555577803848158e-06,-4.562048342540625176e-03,1.913454890251159668e+00
-7.329838650200433126e-01,-9.040834528612561316e-01,6.518659267683507563e-01,-1.464434701204313516e-01,-7.472954295570692629e-02,1.769365387902112619e-01,1.535917162895202637e+00
-8.128956414616170800e-01,-8.024255985757646759e-01,7.468003649855081694e-01,9.591683636706876829e-04,-7.168613859268756217e-02,-1.442673024241451080e-02,1.559639334678649902e+00
-8.482727968741019531e-01,-8.844756315494199939e-01,1.054704934501688118e+00,4.970649928849675721e-03,-1.876457885074004836e-02,-1.367632408921629766e-02,1.921775102615356445e+00
-8.601079771933626272e-01,-8.563326758557127105e-01,9.689201466834189702e-01,-3.854686484763868853e-02,-1.441589749968185188e-02,6.266028272343135419e-02,1.831751346588134766e+00
-4.998024609906357441e-01,-8.197182067810074857e-01,8.509352460618802017e-01,3.103305155073314281e-01,2.509771816480350637e-01,1.347512025095193300e-01,1.700387597084045410e+00
-8.583165446622998962e-01,-8.407010440533675411e-01,9.250983833097832232e-01,8.917527762742020331e-03,-3.757524383343827101e-02,7.034957220830546226e-03,1.775974631309509277e+00
-8.210156493044497017e-01,-7.384643913730187803e-01,1.033858279573832695e+00,5.644513580593897573e-02,1.749268253685857741e-02,7.474714108474012249e-03,1.817936658859252930e+00
-8.613173907026016041e-01,-7.532911573526364091e-01,1.080043658598941470e+00,6.954875525422388183e-02,5.491886115128007118e-02,3.888811968694787929e-02,1.897084832191467285e+00
-8.741248938830415982e-01,-8.545762757357102668e-01,1.018729702528920811e+00,1.929459364541512604e-04,-4.584143171444224861e-03,1.334183242042862602e-03,1.883174538612365723e+00
-7.597923049307272469e-01,-7.532482029566307524e-01,9.951690594078375085e-01,3.324714167367878552e-03,2.983002828168124362e-04,6.299667581036650548e-04,1.751708388328552246e+00
-7.614527716666640300e-01,-7.694908587024356095e-01,1.010483395012244268e+00,-3.466903839963193790e-02,-2.024707364700635299e-03,-6.207947917094864144e-04,1.776987552642822266e+00
-7.998687823460685076e-01,-7.789352685118613451e-01,1.030323238617677273e+00,-1.392855845957706451e-02,2.006916925596997914e-02,2.711501806938546207e-03,1.820313453674316406e+00
-7.756393153186492695e-01,-7.853869679265181869e-01,1.016043155211496796e+00,-4.382524382305624799e-02,2.658872200890561102e-02,-3.295600072831678107e-02,1.799674153327941895e+00
-7.505194421470745558e-01,-7.600110051765480712e-01,9.967542950012751035e-01,-4.345344360500163691e-03,-1.518113946424932048e-04,-1.230121798865539836e-04,1.752055048942565918e+00
-7.643273875875066237e-01,-7.721989394906504378e-01,1.007251220826117732e+00,-2.791185788487270114e-03,7.848848313026325629e-03,-8.716964460321413588e-03,1.775650262832641602e+00
-8.152297985026527583e-01,-8.464058837627305154e-01,1.056624236177153175e+00,-2.144855087548295960e-04,-4.567479333903874325e-03,-1.787028666516906478e-02,1.887905597686767578e+00
-7.624308756602933279e-01,-7.325711853188986433e-01,9.911615857109477012e-01,-2.736952360892589559e-02,7.300107304730010446e-03,-4.425731117251413787e-04,1.739547133445739746e+00
-7.902042420520483113e-01,-8.064077388653780876e-01,6.940983101392388388e-01,-1.020681064330306899e-02,-7.756364318859572393e-04,2.042410670291962271e-02,1.492994785308837891e+00
-8.612283143766519267e-01,-8.627582729796923200e-01,1.071188587861109154e+00,5.468702808500108641e-04,-1.445107122923003102e-03,2.494817986886662536e-03,1.933189034461975098e+00
-8.557367287687939195e-01,-8.626192253175766211e-01,1.069096454874584712e+00,9.366665097412709556e-05,-3.032951728599961923e-03,2.417331435029947389e-03,1.928295373916625977e+00
-8.611715687398753261e-01,-8.625845363026348744e-01,1.071298113309701705e+00,1.090761191114720608e-03,2.956545408379738539e-03,-4.695666636436853446e-04,1.933184385299682617e+00
-8.907528794745767087e-01,-8.472137119025795471e-01,1.053157260726402367e+00,6.849878302355527984e-03,-7.546732016326645337e-03,1.646883711686539936e-02,1.922803044319152832e+00
-8.641401089515597933e-01,-8.620407106199085012e-01,1.068038149555176952e+00,4.622292480242039129e-04,-2.147200669410841579e-03,-1.241525282203042452e-03,1.931134343147277832e+00
-4.824913079994728737e-01,-1.017768827510434182e+00,1.300125653224423861e+00,-5.623468232215648177e-01,-9.890651887961839084e-02,2.060518506808084183e-01,2.350289583206176758e+00
-8.599228510961977046e-01,-8.614228799492260613e-01,1.062943881799471857e+00,3.855492627951602577e-04,1.303552409695237077e-03,-9.086634002845167795e-04,1.923619270324707031e+00
-8.725286346935887671e-01,-8.601386554551793129e-01,1.034121667508288489e+00,5.136291682275216652e-03,-6.378128127690418404e-03,2.676801833743862715e-04,1.900538563728332520e+00
-8.679778007609078028e-01,-8.595782276572503378e-01,1.026969431123594845e+00,1.044720311651867357e-03,6.373830664468879692e-03,3.611388625021353429e-05,1.890794515609741211e+00
-8.677266241977247274e-01,-8.536683772693104411e-01,1.010009561658949728e+00,-3.155758305612592785e-03,1.661465967474981889e-02,4.215917437700309606e-03,1.870990276336669922e+00
-8.679127078572236309e-01,-8.583206564017994422e-01,1.031794548142185075e+00,1.798205279643478064e-03,-1.490570439708952281e-03,-5.442392300005360721e-03,1.894957184791564941e+00
-8.676927493877115705e-01,-8.591093011960712067e-01,1.031559411277519267e+00,-1.670517961611836218e-03,4.773445468512536351e-03,7.277377300270413156e-04,1.894995689392089844e+00
-8.568269485477935099e-01,-8.636205286954724558e-01,1.069495874389196022e+00,2.232700926142211321e-03,1.944193527442949652e-03,1.329034667423150805e-03,1.929736733436584473e+00
-9.001715605905800111e-01,-7.571904215489322354e-01,1.050979355654592329e+00,-2.511463726121110525e-03,6.042452967889039989e-03,2.459137809822285053e-02,1.884250044822692871e+00
-8.662860631036005676e-01,-8.507177083208213864e-01,9.994089235055152454e-01,-2.440212927084187394e-03,1.779508300973865406e-02,-1.568427132090080903e-03,1.858222126960754395e+00
-7.232687437437976818e-01,-8.330664703674386384e-01,2.359183076851366634e-01,3.163313042794587554e-02,-3.400446441631483352e-01,-9.561698847482012764e-02,1.189425349235534668e+00
-8.280932694364493418e-01,-7.745239448171130636e-01,4.784747552350760991e-01,1.575322270125977323e-02,4.104787399247653706e-02,-1.812856025770957086e-02,1.283270359039306641e+00
-8.136495986340803732e-01,-7.885298928430993781e-01,7.702293024580353364e-01,-7.819507145878350912e-03,-3.309961750615004333e-02,-1.159657505922596400e-02,1.572701692581176758e+00
-8.243178646707483015e-01,-7.934519429816621061e-01,7.446596569048071768e-01,1.123125883000735542e-02,-6.997369018640689498e-02,-3.830886921351946139e-02,1.560027360916137695e+00
-8.321733062686996751e-01,-8.141105728306106126e-01,8.206550373851866365e-01,1.894743580411462069e-02,-9.350203862151408585e-02,-5.277451051325707417e-03,1.652180910110473633e+00
-8.565953087239809305e-01,-8.810071473884057980e-01,1.039691307588989755e+00,2.214021861643091990e-03,-5.521405062921621969e-03,-9.415317843761912206e-03,1.908707141876220703e+00
-1.155044140274057884e+00,-4.612296969865020135e-01,1.231607325921954210e+00,-1.883903765117754450e-03,-3.523492708083480335e-02,3.212837455347723054e-02,2.128009080886840820e+00
-8.587777254748580891e-01,-8.693250038178016448e-01,1.025678137087290498e+00,8.179156563484753575e-03,6.610210944377328118e-03,-6.322918073479357436e-03,1.889871120452880859e+00
-8.327158522037392263e-01,-8.084390900586885254e-01,7.960981009032344069e-01,1.226672461417929218e-02,-5.281174761060723061e-02,-3.266113281522684680e-03,1.619547009468078613e+00
-2.977556982152285148e-01,-1.049651367171347882e+00,1.098900707864475024e+00,-1.806844309324844369e-02,-4.065144559394356233e-02,-1.607037840395642014e-02,1.890197873115539551e+00
-7.837503524641249442e-01,-7.836388934416500529e-01,6.045862520633864534e-01,5.467042833645274422e-03,-9.939693597353187193e-02,3.389346810982563768e-02,1.400178194046020508e+00
-7.246798735989525841e-01,-7.751838808669415659e-01,2.767415458462441080e-01,-3.035553572414185358e-02,-2.828666498604106086e-02,1.277809674489356340e-01,1.053622364997863770e+00
-7.984386005447543511e-01,-7.611443008346465700e-01,1.018594995696873395e+00,5.721453993408618863e-03,-7.455319471836851022e-03,7.836081570922259071e-03,1.798801302909851074e+00
-7.427855296752343683e-01,-7.366509706992721007e-01,4.347307353094054250e-01,4.844736216994504491e-03,-2.536094483130402893e-02,-7.064428685660272683e-03,1.175375819206237793e+00
-6.664028224153200064e-01,-9.226424437347163776e-01,1.056482898200334919e+00,3.350492673524820691e-02,-3.247921920845336929e-02,2.489252758031056611e-04,1.866011261940002441e+00
-7.451099375039843542e-01,-7.516781792050230004e-01,5.160764223346510082e-01,-2.315401397081638321e-03,-2.452709860753301066e-02,2.574310454650090979e-02,1.265988469123840332e+00
-7.669684989727425517e-01,-7.500252858684167689e-01,5.319004980850204900e-01,6.419241857021426925e-03,-4.170770003542429577e-02,2.613037148479684796e-02,1.293341159820556641e+00
-9.599565479850964422e-01,-4.941858702840375428e-01,1.028865585949124473e+00,-1.541298911028450049e-02,7.396113116800365553e-03,-1.074558592986786000e-02,1.802011132240295410e+00
-8.785264431726981238e-01,-8.572963048482293846e-01,1.022869274209507351e+00,-1.089510687460560831e-03,-4.922115158063029156e-03,-4.738558381935492050e-04,1.890890359878540039e+00
-8.765776270814135129e-01,-8.674695746385777673e-01,1.032870407504544508e+00,-2.901113116407445496e-06,-7.693440496663477880e-04,8.198732875515000150e-04,1.904911279678344727e+00
-8.700256341637997437e-01,-8.586748531936605477e-01,1.034039569369277434e+00,3.053785326177070863e-03,4.970377400918163033e-03,-2.410315724258292613e-04,1.898442149162292480e+00
-8.716908935263606439e-01,-8.483672865526885598e-01,9.998831285159861526e-01,-1.014596353960256356e-04,1.354185667816695110e-02,4.018337022538698636e-03,1.860182762145996094e+00
-8.433031826603287762e-01,-8.590413157662893928e-01,1.020382138518582282e+00,4.257177225092510396e-04,8.114186849323157605e-03,9.491179446137015113e-03,1.871729135513305664e+00
-8.444257361759128777e-01,-8.149755740611638322e-01,1.039620218059885248e+00,-7.335883866902189430e-03,-8.018691316787706844e-03,-5.173457226057387448e-03,1.869611144065856934e+00
-8.640741687881818844e-01,-8.625636891446417653e-01,1.060739426102195626e+00,4.061031638772608261e-03,3.485928281448402461e-03,-2.992505799835513481e-04,1.924081206321716309e+00
-8.572358981929860677e-01,-8.593836061711971341e-01,1.046560463436965849e+00,-1.896883673978111418e-03,-4.041143483864512121e-04,1.710975813432428615e-03,1.904876351356506348e+00
-8.547717176960911711e-01,-8.684229495975007707e-01,1.023770623818278880e+00,-1.161480892839838791e-04,-1.119544054082668045e-04,5.837791272712855931e-03,1.885432124137878418e+00
-8.608125753590638585e-01,-8.640975157538061113e-01,1.048514147191583978e+00,2.271952930830361400e-03,-2.918408830915447932e-03,4.716243687151757541e-03,1.910999536514282227e+00
-8.371495906350158167e-01,-8.553378495061146891e-01,9.115470551968114510e-01,5.784771510653779645e-04,2.844869000187821417e-03,3.327146192024495186e-02,1.758812904357910156e+00
-8.119218628574287333e-01,-8.231316551941981752e-01,7.673139307875915804e-01,3.210563537171053127e-04,4.292775327104494075e-03,6.595592372367629908e-02,1.588999867439270020e+00
-8.000859982804153780e-01,-8.156097955499502783e-01,1.036273860088352317e+00,-6.068546573682807171e-03,5.077490841716863351e-03,1.215671836106824817e-03,1.844222903251647949e+00
-8.683560676679121793e-01,-8.480417903217848385e-01,9.831407838920882547e-01,-5.088570084446786962e-03,-6.645896585808052336e-03,-3.161505904214015512e-03,1.841488957405090332e+00
-8.636115223403846297e-01,-8.564211912737631494e-01,1.034016732057382981e+00,7.480203405455364968e-04,3.232223053240249663e-03,-9.873621027002330020e-03,1.894129276275634766e+00
-8.580233020270441324e-01,-8.726956221196695562e-01,1.024356618610427594e+00,-2.910540638154476833e-03,3.221162430881938706e-03,-3.953492916684483820e-03,1.889786124229431152e+00
-8.602555630485470006e-01,-8.695543925973148180e-01,1.039316029731072177e+00,-2.811178836060589364e-03,3.131789616848202566e-03,-3.093007737384599609e-03,1.904259562492370605e+00
-8.611082477764288035e-01,-8.557944931949252876e-01,1.030730285752121000e+00,-2.916596030055531989e-04,-2.389841801285074504e-03,-4.719435863280329289e-03,1.889209508895874023e+00
-8.503517728256710928e-01,-8.762007026986403657e-01,1.013642530028519895e+00,-1.390975426887623365e-03,-1.423127226132977466e-04,3.360828030111774351e-03,1.877062797546386719e+00
-8.687741383654803418e-01,-8.715710025169380870e-01,1.031971980022162505e+00,-2.177609935289190769e-03,4.084186170782795090e-03,7.704759708303811697e-03,1.902209758758544922e+00
-8.555951250129198993e-01,-8.694999293931374718e-01,1.007733421143322650e+00,-2.970579298861719328e-03,3.052832403371347723e-03,1.882321754195281222e-02,1.870618343353271484e+00
-8.627335283366296403e-01,-8.721649849351171824e-01,1.051684254692853981e+00,1.216224313065703477e-03,5.718726677264606741e-03,-4.487118049808749148e-03,1.919193387031555176e+00
-8.555572560745546840e-01,-8.074863931952892537e-01,1.052503827337173181e+00,-5.087540255977798624e-03,1.760218818926233622e-02,1.046954913920629046e-02,1.884840011596679688e+00
-8.598155651565805302e-01,-8.077215295552298002e-01,1.054894162053677809e+00,-4.249746079007236943e-03,1.579164690318867262e-02,1.022924992424285515e-02,1.889496803283691406e+00
-8.567308924632969225e-01,-8.735986448868282572e-01,1.017125646709901909e+00,-5.632721627307001955e-04,1.675044067576438034e-03,-4.101675769360489318e-03,1.882362961769104004e+00
-8.625958925438564906e-01,-8.561773860107704248e-01,1.022817604429416383e+00,-1.557957351783492098e-03,3.004886543616659407e-04,-6.873340001877567898e-03,1.882252097129821777e+00
-7.556449970462724153e-01,-7.541068201008300775e-01,1.003049685771729926e+00,4.645603391242164593e-02,-8.598593321642110376e-03,1.018138832648809956e-03,1.759830594062805176e+00
-7.918391660982346814e-01,-7.507157142212478318e-01,1.013936721148903652e+00,1.646665730653915083e-02,-1.491246972987738707e-02,-1.082205964865300650e-02,1.786082267761230469e+00
-8.926008086808767672e-01,-7.570531542269367531e-01,1.048298793178965793e+00,-1.260160201319166819e-03,1.598404660035489949e-02,2.799645829230768337e-02,1.877632141113281250e+00
-8.534367117658931967e-01,-8.514573503597562265e-01,8.616033353721737065e-01,-7.442789735863917545e-03,-1.012212980551085439e-01,1.254391950835349046e-01,1.736686468124389648e+00
-7.532554633772553521e-01,-8.345792102304854243e-01,1.031027379524178222e+00,5.171478393920064809e-02,-8.008610206025822478e-03,-1.524705705999863763e-02,1.828741788864135742e+00
-7.307150805808173555e-01,-7.875366607660412299e-01,1.015130270064495521e+00,9.041002520428047251e-02,-8.455554606133274323e-03,-1.282895599323330763e-02,1.782031536102294922e+00
-7.938682963386561875e-01,-7.883545995169691789e-01,1.029272066826373511e+00,2.164678972069493390e-02,-1.346916516260171851e-02,-2.424612139152843363e-02,1.821409463882446289e+00
-8.936339447249852519e-01,-5.103242907984384402e-01,5.375324296029556637e-01,-2.137374133350014582e-01,-6.673890421630203351e-02,-1.300541184698512757e-02,1.340710401535034180e+00
-7.870590280691558416e-01,-5.101003781551896044e-01,4.979581460811229876e-01,-3.516320397265551012e-01,-8.102996530791056751e-02,-2.128642576118338833e-02,1.328183293342590332e+00
-9.453500539679979831e-01,-5.242623079480754900e-01,9.383842293637776333e-01,-8.684357331875353775e-03,1.174062711364086409e-02,2.803436105250452920e-02,1.713344693183898926e+00
-1.005991739671632690e+00,-8.725054917784660358e-01,1.083010270040784429e+00,-8.774756351649920516e-02,2.333296707537893880e-02,-4.080115830502888119e-02,2.032885074615478516e+00
-6.469182210339752270e-01,-8.496145648222261926e-01,1.021063863653691950e+00,-1.252116168857838122e-02,3.391606068738120799e-03,-3.065071514025176965e-03,1.778166770935058594e+00
-8.921632707643037952e-01,-7.786495524678315183e-01,1.062089876947228895e+00,7.562687116096635138e-03,-9.880482170661251951e-03,2.340863409381506097e-02,1.900595784187316895e+00
-8.626937516494129765e-01,-8.507989437425111934e-01,1.063074605688445473e+00,-1.198673028868560246e-03,-4.278040808231371034e-03,4.702992899446485631e-03,1.919881343841552734e+00
-8.626687219018994712e-01,-7.969568692527146947e-01,1.053480721781147045e+00,7.181909107849728489e-03,-1.553861961684266900e-02,1.278828268709260134e-02,1.884516596794128418e+00
-4.816992679542745903e-01,-9.740031810142473212e-01,1.122623666781893625e+00,1.185986921597521337e-01,6.945685386557851060e-02,6.401514193252568971e-03,1.913850188255310059e+00
-8.642222717968787160e-01,-8.490923367509037867e-01,1.063898935352015629e+00,4.274263429596406776e-04,8.528473404254961060e-03,4.547363898578377951e-03,1.920674085617065430e+00
-8.506305655201513716e-01,-8.701226081280903912e-01,1.000024707011498259e+00,-8.272999916258266806e-04,-3.920536016983403038e-03,-9.221649063016250369e-03,1.860559344291687012e+00
-8.524907049272827386e-01,-8.485533470857629101e-01,1.051245826560023744e+00,8.417302660529989849e-03,-7.468365275604136114e-04,-2.611531709653879332e-03,1.901832580566406250e+00
-8.631829141471932809e-01,-8.733755311455843051e-01,1.063882105368704645e+00,-6.224777269658233157e-03,2.113868090680229902e-03,4.824529856939600153e-03,1.932233095169067383e+00
-8.629663941985215025e-01,-7.976956234834712278e-01,1.058601414117948281e+00,7.174062938476439936e-03,-1.198090660594936137e-02,1.279453618970010156e-02,1.890062689781188965e+00
-8.265034573717494615e-01,-7.613798214590948854e-01,1.024539154825184761e+00,1.550504485113855281e-02,-1.232281578141763284e-02,4.755214412344821277e-03,1.819697141647338867e+00
-9.550638874760508656e-01,-6.403303625897719398e-01,1.069713319312779243e+00,1.769117456876489747e-01,-7.812506155263835086e-03,2.306577496975143957e-02,1.912377357482910156e+00
-8.617077390663243630e-01,-8.597218022532961967e-01,1.034217996771122028e+00,4.249617685797824583e-03,-6.317588220925735888e-03,-5.800345550603656572e-03,1.895006060600280762e+00
-8.495543560802625294e-01,-6.497656921602081859e-01,1.004634679104768669e+00,2.443120190871109904e-02,-1.529385740625217351e-02,-6.496327555386750569e-05,1.763513207435607910e+00
-8.609162068686380120e-01,-8.618460272296275537e-01,1.068839789666407691e+00,-2.604845891714579944e-03,1.344734131495905517e-03,-1.098700607171056252e-03,1.930228710174560547e+00
-8.584022618575984920e-01,-8.570288707530585581e-01,1.060339310083670661e+00,2.426512289254254283e-05,4.154794029590761981e-03,6.730527131711343258e-03,1.918104171752929688e+00
-8.593165350982785444e-01,-8.567625436472086076e-01,1.060607927611632917e+00,-2.538850892347675509e-04,-4.948728693577293149e-03,-8.792218185955383986e-03,1.918728351593017578e+00
-8.608211574082540452e-01,-8.690870275471025419e-01,1.058838928962098525e+00,-3.047561779451026572e-03,-2.085862077413481834e-04,-2.648273447895390948e-03,1.923819065093994141e+00
-8.658144280966174611e-01,-8.464040851157940137e-01,1.042435941469307403e+00,8.026436285344466228e-04,6.031977856111335468e-03,1.692879616275467722e-02,1.898875236511230469e+00
-8.675602134311231062e-01,-7.767975281266549237e-01,1.045350523798754594e+00,3.974742881939119510e-02,-1.798758434821490573e-02,1.890082938596060469e-02,1.870996117591857910e+00
-8.794320221918598968e-01,-7.777361505627099492e-01,1.053602035701679540e+00,8.462311502202300717e-03,-5.267807216138736467e-03,2.296219351747884330e-02,1.884744286537170410e+00
-8.747860971776687533e-01,-8.537966098620587418e-01,1.051451255084132397e+00,-2.084833470657994695e-03,-8.813212572897015373e-03,6.009855511007690734e-03,1.915921330451965332e+00
-8.603504250869441483e-01,-8.515986108327286974e-01,1.026395570694803805e+00,2.814985214697307992e-03,1.425759747119156352e-02,1.782268646221591910e-03,1.882556200027465820e+00
-3.305208961920763078e-01,-1.198808901203697985e+00,1.498213213771003138e+00,2.085596824109978709e-01,1.291950558861478249e-01,1.204315611956228299e-02,2.422201633453369141e+00
-1.048197995689013062e+00,-1.433111790167216071e-01,1.163430635701548255e+00,2.852813301307488003e-01,1.349268521250725737e-02,3.690999193865505956e-02,1.989381074905395508e+00
-1.131298524880963718e+00,-1.585378262918228365e-01,1.126144640520064133e+00,8.510136414791559523e-02,-6.938645862143470559e-03,2.284837800799369850e-02,1.967180252075195312e+00
-4.489770283755297742e-01,-1.092462882277462910e+00,1.275410964202803754e+00,2.230621074027952788e-01,2.871860340825161534e-02,1.684147908608114863e-02,2.156340122222900391e+00
-1.061282286976375833e+00,-1.936565202688213527e-01,9.346968415301772914e-01,3.341536511272499843e-01,3.269142654265588116e-02,1.852419830035030301e-01,1.856359362602233887e+00
-8.094080948896172911e-01,-8.151093933784427925e-01,1.041403409371707722e+00,1.730171629394721203e-02,-1.891665886482283470e-03,1.340360706799757252e-02,1.854059219360351562e+00
-6.602882223087217506e-01,-7.813353569339351878e-01,1.003955041174285023e+00,1.131123046638610047e-01,-1.287637565342905979e-02,-1.094988920894518838e-02,1.739267110824584961e+00
-7.504847955061509923e-01,-8.259699680033586455e-01,1.033790024063959923e+00,2.740221276563182401e-02,-1.135659730299213438e-02,7.348034144586329704e-03,1.823957920074462891e+00
-7.431432902730621404e-01,-8.000473553533937743e-01,1.019425665917025547e+00,7.734964568581806192e-03,9.299204131032931184e-03,1.500938103438380182e-02,1.792009949684143066e+00
-7.601475936022706881e-01,-7.524861023849795938e-01,9.978300400070692078e-01,2.800335470412728019e-03,1.278759310710674609e-03,-1.662945997990305071e-03,1.754169940948486328e+00
-8.383971706976124372e-01,-8.164337997118170653e-01,1.047632165184900987e+00,-1.306515537780711519e-03,-1.934837574500844481e-02,1.618924713826623563e-03,1.875447034835815430e+00
-9.259227967111416380e-01,-6.598743820254722170e-01,1.029845022709386049e+00,-5.260061704230223519e-03,2.101013286386086906e-02,5.497221996747005818e-02,1.840096116065979004e+00
-9.720567387925416192e-01,-6.132464112877804574e-01,1.051594738121146566e+00,1.235600928659012082e-02,1.055315617447507952e-02,-3.839341420566606822e-02,1.871634960174560547e+00
-9.720072533604948717e-01,-5.818236974799420036e-01,1.175641170504720279e+00,-2.447552696119132537e-02,-3.075121934163618093e-02,1.326916593838400188e-02,1.982882261276245117e+00
-8.767492472171789508e-01,-8.463688103736217716e-01,1.050307528303166205e+00,3.496238912646075069e-03,-8.612635270995603123e-04,1.533713388409112775e-02,1.912242293357849121e+00
-8.634984074254425934e-01,-8.592705186786949723e-01,1.022735826137591397e+00,5.026735878636424959e-03,-4.846763127935047565e-03,-1.535138549365713855e-03,1.884164571762084961e+00
-8.601904343097669381e-01,-8.599755183684366644e-01,1.041588433242777390e+00,4.417888966351467619e-03,-3.000205687458264072e-03,7.420327490147906636e-03,1.901737332344055176e+00
-1.130285503875489761e+00,-6.062141719779945426e-01,1.234306000450250185e+00,-9.339977987868193499e-02,1.341394853324268457e-02,2.258775972753590544e-02,2.157537937164306641e+00
-1.087886636391369954e+00,-4.483474377567798208e-01,1.118787228025357905e+00,-3.171472088329378020e-02,-2.493788347120166199e-03,-5.652623969446693430e-02,1.969717502593994141e+00
-8.473183811182953828e-01,-8.407934900646328868e-01,1.060112665891604911e+00,-4.182324569230174566e-03,4.541254357089797612e-03,4.220908186318921007e-03,1.904221057891845703e+00
-9.712216881614185171e-01,-5.270296281667316007e-01,1.043556278069696752e+00,-1.900798702410093398e-03,1.254719373678562892e-02,5.624575355645727165e-02,1.836208701133728027e+00
-8.841578661172080356e-01,-9.551285702879291906e-01,1.084270188368399168e+00,-1.105798887836972472e-01,-6.741154555794177938e-02,6.420675969681477468e-02,2.020428419113159180e+00
-8.915985535775341475e-01,-8.444035986707874031e-01,1.050970802286848027e+00,8.470629385692141772e-03,-4.714922929649001740e-03,2.148610194477800286e-02,1.919841289520263672e+00
-7.754990567922150912e-01,-9.095547414616378390e-01,1.052595887998058588e+00,-2.774751856825791521e-02,1.628655929110548947e-02,5.503184943909098827e-03,1.899517059326171875e+00
-7.840241956370422871e-01,-9.020812588396954768e-01,9.743233441947811713e-01,-1.735611585597314765e-01,2.096514220605719472e-02,2.770343978088536663e-02,1.845887422561645508e+00
-8.397687314738050413e-01,-8.077630634149979283e-01,8.531682295293507856e-01,8.929984836651222446e-03,8.552605378537032899e-03,3.874106958612223445e-03,1.677313327789306641e+00
-8.675884284772324984e-01,-8.444905368818980129e-01,1.046332013667254257e+00,3.032282830346867512e-03,1.260662889180700318e-02,2.008109150841371968e-02,1.902927160263061523e+00
-8.446802126351135032e-01,-8.594772951100945191e-01,1.014590502555567708e+00,1.120456409820117004e-03,-7.813540952346161028e-03,-6.404888903553180267e-03,1.866796255111694336e+00
-8.484663190950650913e-01,-8.287761239034415750e-01,8.878340299373674860e-01,1.001036657234058089e-02,1.272380366342211466e-02,5.285986586110003743e-03,1.726791381835937500e+00
-8.493017766549388892e-01,-8.330379275587387333e-01,9.121485061168399522e-01,9.435014730945800662e-03,-2.630960263996442311e-02,2.318439548335783293e-02,1.754502773284912109e+00
-8.789548229777754962e-01,-8.493985700444776077e-01,1.059118146300994434e+00,3.076551363408540525e-03,-4.416351584886077722e-03,9.958716381589115610e-03,1.923565149307250977e+00
-4.953648323890434968e-01,-9.819479920389275751e-01,1.041947622421143915e+00,1.897209457998997456e-02,1.078745534910000199e-02,1.548740552149325753e-02,1.830374717712402344e+00
-7.638146469955382489e-01,-7.959360934634041040e-01,6.603136887764057272e-01,9.151561359797010659e-03,-6.024769853425969131e-04,9.491440516440127068e-03,1.440639138221740723e+00
-8.553233380083755666e-01,-8.513130202609973107e-01,9.637101672950492137e-01,8.956094641376907695e-03,-2.674945320241712762e-02,5.943430812022365561e-03,1.817717552185058594e+00
-8.606606977828494820e-01,-8.493166441591704086e-01,1.052516651906563183e+00,-1.346378818948902470e-03,-1.054673246166224973e-02,8.039531548901371338e-03,1.907670378684997559e+00
-8.627395207509342967e-01,-8.682534294445203304e-01,1.031482177918773058e+00,2.123330573836782441e-03,-5.810940386017388742e-03,7.998332851520840309e-03,1.897065520286560059e+00
-8.630529763822432088e-01,-8.547740792764402240e-01,9.978076704452771839e-01,-4.322308048699088565e-03,2.442629726320608152e-02,4.093165275370618840e-03,1.857245564460754395e+00
-8.665837513464599295e-01,-8.740797707830232355e-01,1.046483732799202260e+00,-4.330075169059488700e-03,1.062792968926821319e-02,-2.430463364218287368e-03,1.916934132575988770e+00
-8.558472199967521732e-01,-8.453085210648754177e-01,9.393433140278537596e-01,-7.621292731217125908e-03,2.034824298727309216e-02,6.543362886814109609e-03,1.790375947952270508e+00
-8.705467410242304638e-01,-8.603343137523886686e-01,1.035667490548692449e+00,-4.880199732779255672e-03,1.888444184165913309e-02,-4.975620438268696551e-04,1.901428937911987305e+00
-7.394614577750785456e-01,-7.622524967182133793e-01,9.964841137152165018e-01,-1.588619971487259530e-02,2.367015590926126699e-03,-8.663127926916644201e-04,1.747674584388732910e+00
-7.689462762980011634e-01,-7.383092103743030821e-01,1.006102857848205412e+00,-1.930972017428899193e-02,-3.952795732601179315e-04,4.627829966943038630e-03,1.760266780853271484e+00
-8.593083543937156676e-01,-8.595476746294206105e-01,1.022615381515907362e+00,-5.442106662327975825e-03,8.319605546101413104e-03,4.138219710442247838e-03,1.882135868072509766e+00
-7.378804778800183151e-01,-7.618811432078228529e-01,9.944236379677173776e-01,-1.917360487672482502e-02,2.509916551918754245e-03,3.088006085733521755e-03,1.744758009910583496e+00
-8.632293477469910048e-01,-8.475324866178871597e-01,1.043415577805130612e+00,-4.088534096890286164e-04,-2.625259389367952823e-03,1.332601608357106629e-02,1.898990988731384277e+00
-8.397832846701999143e-01,-8.425823843714258521e-01,1.060875577407219383e+00,-1.752692827507037641e-03,3.578680594994001866e-03,2.618960207956993243e-03,1.902077913284301758e+00
-7.592150147163579943e-01,-7.528941244816570455e-01,9.997330775395540936e-01,-3.031002185555565359e-03,-4.716716829263337065e-04,1.019764910812982154e-03,1.755805134773254395e+00
-7.704098410926550899e-01,-1.044875284562200246e+00,1.117907783644922048e+00,-6.888846454607828497e-03,-4.397397119729580528e-02,-4.341806021339230867e-03,2.040919542312622070e+00
-8.565793859880607153e-01,-8.652137083210834634e-01,1.029529555557819887e+00,-1.885693596273144710e-03,-4.850754795353219573e-03,1.454504198232659581e-03,1.890464067459106445e+00
-8.603783022476656495e-01,-8.621312693904263913e-01,1.062754857097076622e+00,-3.726662705381850746e-04,3.112523319908825845e-03,3.768517491744541770e-04,1.924018025398254395e+00
-4.417383578071178429e-01,-1.312360021798729681e+00,1.212721983124354086e+00,3.135236552177985692e-01,2.710182983388211703e-02,2.825898804476929468e-02,2.288038492202758789e+00
-5.189606589994730790e-01,-9.969709009004159572e-01,1.040902767824358754e+00,3.570271572384472319e-02,1.650169472392661388e-02,-4.104494397638784944e-03,1.847157239913940430e+00
-4.459790224678856774e-01,-1.005326134818199657e+00,7.856184433533046629e-01,3.040593637660157778e-01,-1.210336790681199315e-01,-1.271831010115293259e-01,1.699535965919494629e+00
-7.773174924591992330e-01,-8.865074338430435352e-01,1.026554739956981654e+00,4.653307978654898369e-02,5.173403224685126783e-02,1.176445104731155310e-03,1.864771127700805664e+00
-7.984251902049506189e-01,-1.047804886425397708e+00,1.073978953378234902e+00,3.090942506186823008e-02,-6.410954845768240817e-02,9.556538835641005536e-02,2.019312143325805664e+00
-6.309165219426335902e-01,-9.439789360601873458e-01,1.027963711403332425e+00,4.438649607632911415e-02,8.674366883534445627e-02,4.376260519966165830e-02,1.844845294952392578e+00
-1.035497282203657665e+00,-8.503576314076072284e-01,9.923014600709818556e-01,2.983020515792545596e-02,1.587990127047639310e-02,2.061194729363439448e-01,1.975272178649902344e+00
-8.246623853191001885e-01,-8.493412950886763957e-01,8.279084055095424777e-01,-9.035894821678137900e-03,-2.287717507079237850e-02,2.437001637851944624e-02,1.666127085685729980e+00
-8.340769139284118783e-01,-8.531409589242759939e-01,9.143917360146016637e-01,-7.263531815376504316e-03,8.714240390517892162e-03,3.494547118802821678e-02,1.759229540824890137e+00
-8.260618014359295547e-01,-8.477303033946339550e-01,8.845941852089076463e-01,-1.431942825825531507e-02,1.981484242453222105e-02,-1.778898440459541694e-02,1.722388744354248047e+00
-8.358772822068888386e-01,-8.520238748417496844e-01,8.984767246838707422e-01,7.831716818428767967e-04,-7.168736169320044302e-03,4.254156902036409366e-02,1.744085431098937988e+00
-8.149716323400164608e-01,-8.130547653663121599e-01,7.617759071490877165e-01,-1.469124748732001079e-04,-1.004230749493192042e-02,5.840870495474321383e-02,1.579129934310913086e+00
-8.095118812685229148e-01,-8.289657037676155804e-01,7.787710714471147710e-01,-1.285349712496890347e-02,1.304071613902495382e-02,7.722279732887289694e-02,1.603999733924865723e+00
-8.155183639850712707e-01,-8.276014830380954423e-01,7.973066639417869528e-01,9.703069453847100456e-03,-1.419180849949179188e-02,6.364601629996094467e-02,1.622922539710998535e+00
-8.398056111682332681e-01,-8.568999500360181543e-01,9.733628465546277919e-01,4.192363284815381515e-03,-2.530019754906768017e-02,3.046367514325427645e-04,1.822317242622375488e+00
-9.982141768382745139e-01,-8.356704684016764695e-01,8.294773874715211104e-01,-4.515818188758961155e-02,7.169286180416130361e-02,-1.746093730608770656e-02,1.758479237556457520e+00
-8.431081726362359419e-01,-8.735795531947367909e-01,1.045392994421630251e+00,-9.452331963446443733e-03,-2.168521123674689924e-02,-7.878006029349203521e-03,1.904409408569335938e+00
-7.984324867432899264e-01,-7.990035180448527008e-01,6.854669078457766851e-01,9.435928970716774000e-03,-1.850196730418589633e-02,3.570835310429700676e-02,1.485908627510070801e+00
-7.899329243966959346e-01,-7.913020135939267119e-01,6.466120796803035420e-01,7.104757989817611294e-03,-4.777499315984856665e-02,7.620738816689050232e-02,1.445701122283935547e+00
-7.926646289972303361e-01,-8.221342981631740710e-01,7.565726343826975064e-01,5.672036028763645203e-03,1.393133468685966948e-03,6.699693932825066811e-02,1.568511486053466797e+00
-8.174598829591690485e-01,-8.387893989805577100e-01,7.390625356209439278e-01,-3.404999061550549599e-02,-3.259454965812908552e-03,6.226781156544239360e-02,1.572119235992431641e+00
-8.554829570762992885e-01,-8.536486036104893316e-01,9.830352673561633114e-01,1.179949512672183627e-02,8.905404487058310795e-03,-8.285197640931010743e-03,1.837836146354675293e+00
-7.889889125256221991e-01,-7.876910465724659138e-01,6.416157906312172088e-01,1.530438697399287215e-02,-2.528033938167324052e-02,7.937328346941067980e-02,1.437461376190185547e+00
-8.602725596881096726e-01,-8.628929254290520490e-01,1.065450210794953723e+00,1.607880508832713710e-03,3.486283996911935558e-03,4.104550663569980426e-03,1.927058935165405273e+00
-8.551157282229746581e-01,-8.707247380677349824e-01,1.009052412503921303e+00,-2.838208817731345361e-03,-5.451335072290216209e-03,-1.221243533603739995e-02,1.872171163558959961e+00
-8.640031042614633172e-01,-8.683053653498062907e-01,1.027065916897155207e+00,5.435016017832505634e-04,-3.635769107527228507e-03,9.505327192774644385e-03,1.893306136131286621e+00
-8.420203441979571268e-01,-8.532397194017566910e-01,9.523100591688842265e-01,-1.183351788628054374e-02,2.759750920680670641e-03,-2.410868630635825988e-04,1.800089359283447266e+00
-8.565940179894211415e-01,-8.778644068831620295e-01,1.024084360798118487e+00,-3.474582397561605421e-04,-7.888862363002740888e-04,3.537861144954885118e-03,1.891413807868957520e+00
-8.563050743438110901e-01,-8.689224043583405610e-01,1.029391623291407321e+00,1.826954062856353794e-03,4.947668464698153773e-03,1.056315405615853957e-02,1.892147421836853027e+00
-8.569991731837655058e-01,-8.782747494269838029e-01,1.029643272712639224e+00,-2.188107636516416297e-03,2.566897261067853375e-03,5.276137308678306194e-03,1.897400736808776855e+00
-8.622643174926821752e-01,-8.517539042142783234e-01,1.015517546658482484e+00,2.522461060495299889e-03,1.710901149193039131e-03,-6.697886467556616588e-04,1.872556567192077637e+00
-8.681505601812283812e-01,-8.757348481782037952e-01,1.042086318823335578e+00,-3.301731250731132494e-03,-2.046906273886681810e-03,-2.872594656285447877e-03,1.914058566093444824e+00
-8.637729739208711566e-01,-8.696098661156208554e-01,1.033714606001330916e+00,-1.323360780822371158e-03,-3.460168825470562575e-04,7.233798885631940664e-03,1.900455474853515625e+00
-8.620417516236019706e-01,-8.750232557872344996e-01,1.040433761412534075e+00,-9.583692295825245802e-03,9.889516145406599627e-04,-6.598694409820366445e-03,1.909106492996215820e+00
-8.535228474479473748e-01,-8.711862575030275835e-01,1.014683719252272853e+00,-7.101079933322217846e-03,4.487118755036503814e-03,-1.512039758562661908e-02,1.877339720726013184e+00
-8.610011533384301918e-01,-8.721200118111513966e-01,1.044214028255475490e+00,-3.277223940559328454e-03,-3.687719543076248361e-03,1.883651746913165941e-03,1.910820722579956055e+00
-8.616304297037852278e-01,-8.630163548218214853e-01,1.059459498056441795e+00,-5.252207514133048691e-03,-1.013891071717820842e-02,-9.183329296344720089e-03,1.921950817108154297e+00
-8.632359389651179660e-01,-8.676639253984054223e-01,1.047414181514008336e+00,-2.414678537144781742e-03,3.090222970398720688e-03,4.126646782696781826e-03,1.912893414497375488e+00
-8.673064390284838110e-01,-8.593446443287990899e-01,1.048321329777394784e+00,-4.261399212036317240e-03,7.671592197769710846e-03,2.699682941504458721e-03,1.911725401878356934e+00
-8.615798579752287356e-01,-8.656078206619146620e-01,1.061386133484101046e+00,-2.164814661429750528e-03,3.970728848237173834e-03,1.123272148259539792e-04,1.924999117851257324e+00
-8.616706084063593396e-01,-8.645995616267994066e-01,1.060136034533798011e+00,-4.179724492587542917e-03,3.756314944944027720e-03,-3.129881511958941109e-03,1.923305034637451172e+00
-8.686369173116851305e-01,-8.605260008632413804e-01,1.055982196162118525e+00,-2.218737797597932285e-03,-2.313630483135175209e-03,1.719418904369951007e-03,1.920586824417114258e+00
-1.094367180220545466e+00,-2.419431174610094382e-01,1.491908641788594503e+00,-5.112379831007105024e-02,-1.337178121923696672e-01,-1.956538980796826421e-02,2.296405076980590820e+00
-8.645062044838227600e-01,-8.510147893935786634e-01,9.966363018038475463e-01,-8.113129061808830797e-03,-5.484766052639789523e-03,-5.397268980478602159e-03,1.854534745216369629e+00
-8.367871000929171243e-01,-8.342710302103113484e-01,1.059019698486873384e+00,-4.657643837836075089e-04,5.944947119951015171e-03,-9.641258879504104734e-03,1.894651770591735840e+00
-8.463547351498710292e-01,-8.289374999814523859e-01,1.058955611255450568e+00,-7.642077068633674856e-03,2.097071961336484641e-03,1.255007381102385368e-03,1.896712660789489746e+00
-8.636670101747245809e-01,-8.638351095361895826e-01,1.076484055508455162e+00,3.349890041573630938e-04,2.267466273095876741e-03,1.935425653792923127e-07,1.940239191055297852e+00
-8.438507126195053942e-01,-8.528858010585034233e-01,1.061325589533706149e+00,-4.496678099468132128e-03,9.766203990385791817e-04,-4.613889252091019424e-03,1.909743189811706543e+00
-8.506619913537003530e-01,-8.509855289530177114e-01,1.065418400146040723e+00,1.572033206480924830e-03,7.945353238422115869e-03,-1.261317055631190967e-02,1.916418075561523438e+00
-8.444125984936469154e-01,-8.549274104289816822e-01,1.063895546742760434e+00,-3.084771956578924185e-03,6.550804918932975202e-04,1.747669908721417214e-03,1.913597464561462402e+00
-8.687560839467384222e-01,-8.635259072974283967e-01,1.059335938331103177e+00,-4.226344555262138286e-03,-3.979279980892968908e-03,-7.472669256441382378e-03,1.925552010536193848e+00
-8.709650800321929731e-01,-8.604055661159383250e-01,1.038241866539192593e+00,-2.581645244199925505e-03,-4.091250935575822811e-03,4.282757879303081619e-03,1.903982043266296387e+00
-8.643906366718256962e-01,-8.591285607921637091e-01,1.029088403578064748e+00,-4.241834224844913404e-03,4.960839772743101152e-03,4.684170336639930862e-03,1.890904664993286133e+00
-8.596341614099523021e-01,-8.610614052100878935e-01,1.045461214253763593e+00,-5.306337656000571085e-03,5.218662222824510359e-03,5.136619070976300612e-03,1.905873775482177734e+00
-8.537707855239368149e-01,-8.604946843102246890e-01,1.052646949372081586e+00,-2.377845096490495511e-04,-8.138660480392068824e-03,-9.745281517370895860e-03,1.909915208816528320e+00
-8.662144855466828997e-01,-8.618775219816310340e-01,1.047689909076194859e+00,-4.115627074336890984e-03,7.168759827256728639e-03,2.145968067242493092e-03,1.911796808242797852e+00
-6.242397233938199452e-01,-8.844404093787331389e-01,1.024760057190431395e+00,-1.142219743429143952e-01,-3.837324522549070277e-02,2.042515842850913584e-03,1.805421113967895508e+00
-9.621842869217211991e-01,-6.631490754760043238e-01,1.090396935751611451e+00,-1.811371257879219876e-01,-3.845364012150107730e-02,-4.139747041027983659e-02,1.948519110679626465e+00
-7.349108021472821051e-01,-8.837063789502805911e-01,1.041391115815655466e+00,-3.861304576326422128e-02,-7.301978002734378246e-04,1.288137754356495288e-02,1.856520056724548340e+00
-8.474865533308499899e-01,-7.648880418738036591e-01,1.035675601740368545e+00,-3.474131340512712218e-02,-7.891533982478410314e-03,3.456651388629283957e-03,1.844293713569641113e+00
-6.351951159305563310e-01,-8.595137665259253712e-01,1.013298138474149068e+00,-4.695276303788406547e-02,-3.897329394474626733e-03,1.748315706046961807e-02,1.773474812507629395e+00
-6.939195275298556398e-01,-8.439021660158396720e-01,1.026160120742163118e+00,-2.044189702601028127e-02,-1.772412512503210649e-02,2.593150018095943116e-02,1.800934314727783203e+00
-6.991453203220604484e-01,-8.153654756820526428e-01,1.017599498136702474e+00,-3.027824707414244684e-02,-2.147947297444581863e-02,2.568716177671398829e-02,1.779425263404846191e+00
-8.488208306600848463e-01,-8.668571895194316923e-01,9.946774767316186594e-01,2.834525889780426487e-03,-7.349867489228522005e-04,-1.069990162852060660e-02,1.852681994438171387e+00
-6.961760007055648458e-01,-7.784432047035828584e-01,9.943494745465577545e-01,-3.873662906423598618e-02,-1.206450602392003177e-02,1.265158023835484362e-02,1.734686613082885742e+00
-7.556745533564226402e-01,-8.138083674221682218e-01,1.020512010497916622e+00,-2.360744214848829389e-02,-1.396673606835810606e-02,1.511138564806323477e-02,1.806769728660583496e+00
-1.067582564780996446e+00,-8.186665287882261000e-01,1.086313262124657619e+00,-7.827641740054455677e-02,-1.615668002623570423e-02,-2.541867518727121411e-02,2.046018123626708984e+00
-9.522737190406561636e-01,-5.471695706797663483e-01,1.027732910913566000e+00,-9.987226137139065818e-03,5.110504310877726428e-03,-7.771266515996975988e-02,1.816843986511230469e+00
-5.794507874300273143e-01,-9.164493958792848671e-01,1.037896198211035736e+00,2.970133483003901259e-02,4.831656697262928964e-03,1.553655027500418923e-02,1.810487151145935059e+00
-9.204736334647627416e-01,-7.281797040536572840e-01,1.067174181647162046e+00,-9.118374742220854492e-03,1.423858801634694110e-02,3.060632963834056600e-02,1.899783134460449219e+00
-1.075020853782376662e+00,-6.397866102674772959e-01,1.060877463001389964e+00,-1.104104231624854493e-01,-7.859059059214226761e-02,1.943533133460875490e-03,1.969006538391113281e+00
-9.541218858995968999e-01,-7.710532797416309592e-01,1.032218736673676363e+00,2.837171407835641871e-03,1.103912684447947400e-02,7.226729856411513719e-02,1.905645251274108887e+00
-8.198253374335687793e-01,-8.047173112378670501e-01,7.491514851943850140e-01,-1.577360116357634512e-02,3.784001359058857678e-02,8.047489925236767094e-02,1.569293856620788574e+00
-8.400263951637019222e-01,-9.191950764298744136e-01,7.806186934776357944e-01,-4.837282223515652207e-02,2.308439600877915110e-02,5.120775523242141608e-02,1.666597604751586914e+00
-8.117152092627692994e-01,-8.570436065015282212e-01,8.672237889859824023e-01,3.301670756217386232e-02,4.859819473163841039e-03,-3.422279981332577992e-02,1.704068422317504883e+00
-8.184088419374662138e-01,-8.275697205006018464e-01,8.076510269184276058e-01,-1.379367752639913507e-02,1.882114720739440014e-02,5.069701293667435577e-02,1.633522272109985352e+00
-8.613830506872551807e-01,-8.608360304875061209e-01,1.070753541859963853e+00,1.263157240445776782e-03,9.674828445407465585e-04,-4.447620287085772908e-03,1.931880474090576172e+00
-8.564897589574798076e-01,-8.524748276707603267e-01,1.015671004279058209e+00,1.300381066992612389e-03,2.299126424733267081e-03,-4.926923314300135116e-03,1.870181560516357422e+00
-7.712117315459134925e-01,-7.821335567678305845e-01,1.015573407868515909e+00,-6.301711204075604277e-03,-1.479171245536639936e-02,-1.611589629352084630e-03,1.792489528656005859e+00
-8.577482366472571895e-01,-8.732919925030623309e-01,1.025017658432053391e+00,3.617917322134942427e-03,2.912163469950627948e-04,-4.747807227112167336e-03,1.890614032745361328e+00
-8.586847387995543146e-01,-8.665711105704093642e-01,1.029698598797146314e+00,4.083678185573738975e-03,8.842209397109093618e-04,4.770397189033676738e-03,1.892370700836181641e+00
-8.646468559929285647e-01,-8.661247797546750560e-01,1.065973808859899341e+00,2.937495757200350092e-04,-3.519455499004947932e-03,3.613518486120776037e-03,1.931379914283752441e+00
-8.568041650215403315e-01,-8.612054870984798827e-01,1.069619188855168712e+00,3.678915257871178020e-04,-1.845399175222293010e-03,-1.989901630007684125e-03,1.928633570671081543e+00
-8.591507010392015475e-01,-8.686779406484866906e-01,1.026461792507340709e+00,9.591382840172323716e-04,-1.110797039534418664e-03,5.990143014287753129e-03,1.890424251556396484e+00
-8.676425990601595029e-01,-8.569172665337785322e-01,1.022791545391480650e+00,-3.156745765494713054e-03,-9.757808728677855661e-03,-2.343368984313539283e-03,1.885182380676269531e+00
-8.623739890808841402e-01,-8.582146360444675715e-01,1.022024267627747118e+00,-2.779376254912150959e-05,-1.235505231896607062e-02,-3.253656436914667376e-03,1.882452130317687988e+00
-8.531345950428202984e-01,-8.614766310629645707e-01,1.017492014422581192e+00,-7.010553962980881114e-04,1.958931932102110033e-03,-6.956473314443701889e-04,1.874815344810485840e+00
-8.727620786654001206e-01,-8.592910110376201782e-01,1.029909536088991828e+00,-1.564113402342008890e-03,3.462950351880753931e-03,-3.315703713948016731e-03,1.895992040634155273e+00
-8.162055927780345055e-01,-8.232096104537341974e-01,1.041875420540500308e+00,1.401133715385724336e-02,-2.077128324008594915e-02,-9.335596987359496071e-03,1.862168908119201660e+00
-8.460191658910654056e-01,-8.285878886100206397e-01,1.057418572580720806e+00,3.110516769879723576e-03,-6.914023808321783683e-03,-2.162624526689894532e-03,1.894831418991088867e+00
-8.682136325930237541e-01,-8.580698497608154618e-01,1.060950257272440300e+00,9.717788908842592971e-03,-2.001547092999549689e-03,-1.071694989438023646e-02,1.924278378486633301e+00
-7.964511245379575222e-01,-8.021856892577257092e-01,1.029965212469145852e+00,8.720179660711189313e-04,-1.004064468294603267e-02,-8.498126770925408524e-03,1.829432845115661621e+00
-8.610811689647016598e-01,-8.542751499753512556e-01,1.026760972530142535e+00,-1.919618751271481762e-03,6.054896624955043161e-03,8.943821408208579155e-03,1.884544134140014648e+00
-8.286108565966439077e-01,-8.280208494283767262e-01,1.051019005629515446e+00,4.280344345098113443e-03,-1.002142015549606011e-02,-2.199845622870180966e-03,1.879433512687683105e+00
-8.137828989452154937e-01,-8.251526545259380008e-01,1.045870496781631687e+00,-1.721464667944287144e-03,4.493783742212765532e-03,-8.235951956019699205e-03,1.865437388420104980e+00
-8.657930247981970862e-01,-8.616643915019849276e-01,1.070255457104942298e+00,1.000117792555710533e-03,-9.646172317964125465e-04,-1.453739847143819403e-03,1.933990597724914551e+00
-8.640704075534969553e-01,-8.737191985586360010e-01,1.057986660820602332e+00,1.339882734278671425e-03,-4.207114399086463175e-03,5.153439821655396609e-03,1.926935434341430664e+00
-8.648713680199299203e-01,-8.646275060729599060e-01,1.072937244983076521e+00,2.621014962898190071e-03,-9.947100811715842063e-04,-2.092756121402026322e-03,1.937696218490600586e+00
-8.659879682516424815e-01,-8.633195335692911421e-01,1.072865634869380802e+00,2.044653545662775823e-03,-4.515499488774254652e-03,3.014666787911861453e-04,1.937539815902709961e+00
-8.648325038677767695e-01,-8.640079404826137566e-01,1.076249240056671885e+00,-1.184702385587668662e-04,2.060263854898400446e-03,-6.218141513158151529e-08,1.940672874450683594e+00
-8.625016757212935481e-01,-8.605318778918384925e-01,1.062943064755216493e+00,1.607940870363313733e-03,3.301820737776051205e-03,-1.135062200158614939e-04,1.924471139907836914e+00
-8.639176707595870308e-01,-8.619861865739797402e-01,1.068135370626268177e+00,1.601292998108332999e-03,-1.802073983239501492e-03,-2.636762177738661856e-03,1.931097984313964844e+00
-6.557244636220981304e-01,-8.050614038190853083e-01,1.048769378371783967e+00,-1.251593476993672349e-01,1.821253451408964136e-02,4.771511952316519027e-03,1.797276496887207031e+00
-8.692253392107219812e-01,-8.646516302540214749e-01,1.041303600079487968e+00,1.311999739979668664e-02,-6.972809613254161813e-03,7.458624762901652945e-03,1.908463478088378906e+00
-8.669682324289874620e-01,-6.210933530951027182e-01,1.008249761271500899e+00,-3.552849738561965343e-02,-2.073276829104523863e-02,3.352067629233126261e-02,1.767561912536621094e+00
-8.558253147625891621e-01,-8.631273759966208159e-01,1.063206015396769732e+00,4.923750112992513308e-04,-2.891695272100646818e-03,7.581538262573607467e-03,1.922744274139404297e+00
-8.004718578976562915e-01,-8.211121719000411545e-01,1.040224468223499343e+00,8.014841178229203944e-03,-6.218105941936303942e-03,-1.528153073890576447e-02,1.851375341415405273e+00
-7.540612425372263949e-01,-7.529124046982038632e-01,5.429648018528354658e-01,-7.424801258049993670e-03,1.834093271846182248e-03,5.090064728458184445e-03,1.296549677848815918e+00
-7.894806074865011736e-01,-7.846524246077544174e-01,1.024308233886281894e+00,2.650638915766012627e-02,-8.019082231730508339e-03,-1.644839074735615983e-02,1.812238454818725586e+00
-7.709641518814603911e-01,-7.904808131699753160e-01,1.017768451636505089e+00,5.196406284222515083e-03,4.733673347055830129e-03,-8.764616736288834836e-03,1.798675656318664551e+00
-7.682260386292337762e-01,-7.742050684696116791e-01,1.010010596375206626e+00,2.062057626715093402e-03,-5.230398794947131377e-03,-7.815448497240315776e-03,1.781311750411987305e+00
-1.007997766903457659e+00,-5.161558133321411113e-01,1.055478212728901077e+00,-2.148136514283557202e-02,-1.838419091033306405e-02,-3.374941941412813728e-02,1.868355631828308105e+00
-8.681677986542110093e-01,-8.621088752868387717e-01,1.061249245632401639e+00,-2.447640143002732544e-03,-7.180108427396874986e-03,7.100627808734533315e-03,1.926478743553161621e+00
-8.613344139896877971e-01,-8.597801964822826548e-01,1.048136918544737117e+00,-3.457923126062076909e-03,5.264015445017736564e-03,4.279674440819235953e-03,1.908740282058715820e+00
-8.635774735940988656e-01,-8.650414034770860239e-01,1.052625389468611061e+00,-6.404799909389876852e-03,-2.528727521529371917e-03,-6.521758184142311429e-05,1.916972398757934570e+00
-8.543120144031990382e-01,-8.776311228591794356e-01,1.024107846168481828e+00,-7.880905468012475894e-04,-1.737779811072442991e-03,-7.314100725628388134e-04,1.890190601348876953e+00
-8.521257830801028943e-01,-8.777036600711822789e-01,1.050684216983461372e+00,-3.855859122266457484e-03,-1.423705223487910058e-02,-4.691724312145034194e-03,1.915914535522460938e+00
-8.634925801799233636e-01,-8.690790715523208920e-01,1.052637459931361041e+00,-4.721444854353563578e-03,-6.751280838282135675e-03,5.659674888807212680e-03,1.919007420539855957e+00
-8.494646970538416442e-01,-8.902436790917557241e-01,1.048119111861349095e+00,-5.847393788647772296e-03,-2.219757203337199836e-02,-7.676930729036276005e-03,1.918756484985351562e+00
-8.160653589432337318e-01,-8.031298039917491582e-01,1.039655081866844188e+00,3.221081874197971161e-03,-2.327391795474533735e-03,1.462623310094159253e-02,1.849472880363464355e+00
-5.390224106865384446e-01,-8.732966417699463690e-01,1.095619251355259394e+00,2.401260860505849692e-01,1.091515394548031245e-02,-1.717326500877428691e-02,1.872013568878173828e+00
-8.706103949124877062e-01,-8.591200664258148434e-01,1.045197761921137225e+00,-3.322028283406571521e-03,-1.215699529031824891e-02,7.265282342188456033e-03,1.910255074501037598e+00
-8.606469916239789519e-01,-8.623561647913866590e-01,1.041695014787080931e+00,-4.375430461013139587e-03,-5.266388182174878800e-03,2.855343471711283953e-03,1.903240561485290527e+00
-7.324147386926352921e-01,-8.555448801476678300e-01,1.033009130735729642e+00,1.519439821652200651e-02,-4.957668094281735341e-03,1.082606974861460673e-02,1.830403566360473633e+00
-7.576713309108471517e-01,-9.319347082370519342e-01,1.063378330599355825e+00,-5.937277246896779416e-03,-3.304557978538436025e-02,-1.809620829575397591e-02,1.915279626846313477e+00
-8.574773401671667017e-01,-8.694814534140942186e-01,1.031666330259963793e+00,-1.505229610396090949e-03,-9.782679201913889108e-03,-1.902906578066986855e-03,1.895254611968994141e+00
-8.709199694162568228e-01,-8.592372221040206481e-01,1.033955883420799138e+00,1.196389130851944474e-03,1.133516544556222895e-02,5.885700134315162077e-03,1.899191379547119141e+00
-8.536919462913918899e-01,-8.656622522747720039e-01,1.058752523732443329e+00,-1.256483057443323397e-03,-1.089361481961893981e-02,1.200518438620416274e-02,1.918664336204528809e+00
-8.694920967109998067e-01,-8.569421847842494389e-01,1.024956808161266997e+00,6.903722169043484012e-04,8.045732492716546266e-03,3.219388132010033658e-03,1.888265252113342285e+00
-8.550089607344925069e-01,-8.639508376920378430e-01,1.026313859160060016e+00,1.634754816984233935e-03,-7.998751414030801088e-03,5.223450363193284962e-06,1.885862708091735840e+00
-8.646216958296883970e-01,-8.613077923158670712e-01,1.055441596153253947e+00,1.909329605592373314e-03,6.329781210986649195e-04,7.397126874673498739e-04,1.918412089347839355e+00
-8.607402391056218072e-01,-8.592728145899944936e-01,1.039883341210925405e+00,2.001302518270856295e-03,-4.103580771092377351e-03,2.934348278916075383e-03,1.899913549423217773e+00
-8.600973115626966425e-01,-8.699729155189288576e-01,1.037750560770613006e+00,3.765132886653833281e-03,3.487573349925624823e-03,2.196834714502185655e-03,1.902829408645629883e+00
-8.549163932031819124e-01,-8.630659697634712746e-01,1.067452653317226829e+00,-1.410861632471886078e-03,-8.000588535161503104e-03,9.096527161366317962e-03,1.926572561264038086e+00
-8.534198255020216672e-01,-8.598156453467701299e-01,1.056605827083846538e+00,-9.592256968005771637e-04,-1.141062898171240139e-02,3.574398382723156450e-03,1.913344383239746094e+00
-8.527784468016187391e-01,-8.750232588489801344e-01,1.014095653901099681e+00,-1.992468019639990866e-03,5.516154507039136264e-04,3.015734132792009109e-03,1.878105998039245605e+00
-7.788503208278376722e-01,-8.962967411970577114e-01,1.057083252236649562e+00,-3.197528051152771517e-04,-1.526333154965135198e-02,5.845592024665600440e-03,1.897596240043640137e+00
-8.615461018429674267e-01,-8.625340073251697159e-01,1.039246519389447565e+00,4.860972701434628993e-03,-5.511914549834550855e-03,-1.091158229995596585e-02,1.901423335075378418e+00
-7.780213960086441727e-01,-7.571014049699666959e-01,1.012086502457471671e+00,2.892324530470781474e-02,3.894035879356233347e-03,1.812875736024551453e-03,1.780460596084594727e+00
-7.548577164752179325e-01,-7.601252498841807315e-01,9.984927232616620518e-01,3.623773200660615132e-03,1.854862790404794874e-03,-1.907073725775710379e-04,1.756004333496093750e+00
-7.736577639216187796e-01,-7.595288360921669257e-01,1.010835819035165173e+00,3.124226563792730643e-02,1.107894907985405505e-02,1.281829133351117950e-02,1.778536915779113770e+00
-7.327140244351970644e-01,-7.556856689341604483e-01,9.897072596220637397e-01,2.591201459493140680e-02,-4.105602550608648707e-04,6.270651221972614250e-03,1.734636068344116211e+00
-8.577692977662330076e-01,-8.724621988077462253e-01,1.031266014670108699e+00,1.510816647278425415e-03,7.011617827205448607e-03,-3.337933272110852473e-03,1.896474003791809082e+00
-8.557276177082360213e-01,-8.586735342971568707e-01,1.024623627720306018e+00,9.232228307399098239e-04,9.108134131227043490e-03,-1.483339856968812287e-03,1.881894469261169434e+00
-7.865322733237535280e-01,-8.670536965298325516e-01,1.017505233229669459e+00,-2.550327672401327345e-04,1.893629715574061262e-02,1.760961557394324071e-04,1.845907568931579590e+00
-6.815867989691513085e-01,-1.070339626543674871e+00,1.026151784073423112e+00,4.191428455917498019e-02,7.105499040398143007e-02,6.956700655817607548e-02,1.940701842308044434e+00
-8.272845268187134504e-01,-8.660904697905655869e-01,9.800958512689170732e-01,-6.062353346157332325e-04,1.152799823347886582e-02,-3.118539416510583001e-03,1.827209830284118652e+00
-8.666012897271242466e-01,-8.565727346028660927e-01,1.035434317797546910e+00,-1.264320785479725951e-03,-9.344864045506417896e-04,1.388983159540852809e-02,1.897195696830749512e+00
-7.450835411642799944e-01,-9.624545326104380072e-01,1.072063294295371394e+00,3.955473351059405479e-02,5.499619876273672409e-02,-4.066886391593874106e-02,1.939844608306884766e+00
-1.258604346536317031e+00,-6.892053424666084727e-01,4.429563419710407235e-01,-1.660821887766308642e-03,-1.598437558558096494e-01,1.262973283280578174e-01,1.541158199310302734e+00
-6.733796097797783986e-01,-9.146678124009188782e-01,1.026463630173973129e+00,-8.942667634912053768e-04,-3.360702988091502502e-02,4.776954135827530569e-03,1.833384394645690918e+00
-7.879317688934627251e-01,-8.732971989161546489e-01,1.022876636380293913e+00,-1.238959119399159160e-03,-1.915029934267124812e-02,8.240589943435591355e-03,1.855317592620849609e+00
-7.703876449435271834e-01,-9.309264880785168561e-01,1.066217426572006355e+00,-7.893180103046976842e-03,-3.370588237098453427e-02,-4.853049093721388194e-03,1.922863245010375977e+00
-8.663070412068738513e-01,-8.632968628363769659e-01,1.073737638405791284e+00,-3.124055585234662528e-03,4.992170614038904559e-03,2.922648057423103077e-04,1.938568234443664551e+00
-6.740716075226159676e-01,-9.041234876019098587e-01,1.024082656380470580e+00,-2.981179342394849486e-03,-3.699165672599816906e-02,1.187771987736200435e-02,1.825341224670410156e+00
-8.580490409070873348e-01,-8.534567027994722777e-01,1.026914294270688144e+00,-2.359496611255295934e-03,-1.533729200757123420e-02,1.234887768927129051e-02,1.882984638214111328e+00
-8.540584502515310428e-01,-8.379923096273611538e-01,1.047476317962512837e+00,-6.920897181570236784e-03,1.196854982206869240e-03,2.110525885870997032e-03,1.893595457077026367e+00
-8.585808621469405155e-01,-8.557685230950931032e-01,1.012151310740703192e+00,7.574224045933673592e-03,-1.770108841977069067e-02,7.087810042838603268e-03,1.869665384292602539e+00
-8.529401668971240413e-01,-8.439879170324015023e-01,1.058069512287291403e+00,7.780856246364173043e-03,7.963610032637079977e-03,4.258491811626282340e-03,1.906661152839660645e+00
-8.456151186370075568e-01,-8.437558950442014538e-01,1.056963286024155568e+00,-1.332442026762230107e-02,1.256788244760693703e-03,-2.893954379025043787e-03,1.901797413825988770e+00
-8.579323718811007193e-01,-8.580656614538704208e-01,1.063904336328849842e+00,-2.194822289504430601e-04,1.958770109911817364e-03,-7.484436390293043237e-03,1.921950101852416992e+00
-8.670996272451654274e-01,-8.707520501891740095e-01,1.068502250813028631e+00,-4.647167996777546578e-03,5.811836753621079515e-03,1.290656260765560021e-03,1.937474846839904785e+00
-8.677883200116595086e-01,-8.668899293795482297e-01,1.055091760122628175e+00,-7.522241357539880338e-03,7.543898505502038068e-03,6.887189517377106593e-03,1.922556638717651367e+00
-8.616796375201196678e-01,-8.796033911079711443e-01,1.031375788315748387e+00,2.945736572922401809e-03,5.451052471442468031e-03,-1.099081203361573084e-02,1.902206182479858398e+00
-8.480268831169208710e-01,-6.848378288663120594e-01,1.016408567737422830e+00,2.193084417341410047e-02,2.263513356639463333e-04,4.357736142610108693e-03,1.788852930068969727e+00
-7.610801584772849404e-01,-7.695405957499149574e-01,1.010491793474871169e+00,2.934389259251707696e-02,-1.824439167821495815e-03,-2.610027705145520974e-03,1.776553034782409668e+00
-7.570822020173650913e-01,-7.346184615823139197e-01,9.910287956735086556e-01,1.649370445571188976e-02,1.981972947774527944e-03,4.243693560041733137e-04,1.737226486206054688e+00
-7.493321184870522789e-01,-7.834854053028198484e-01,1.009918001414722433e+00,1.693608331731204925e-02,-1.303968999558917027e-02,-1.705513991306112712e-02,1.777204275131225586e+00
-7.614949062291989090e-01,-7.648394105871615389e-01,1.004907543722572516e+00,3.103329307021346004e-02,-8.537628556078948744e-03,-7.402912201490697598e-03,1.769002199172973633e+00
-8.573247233855743055e-01,-8.666959929115886085e-01,1.032558168382629482e+00,-1.872425773569403890e-03,4.934549306089143494e-03,-3.940888181818541156e-03,1.894620299339294434e+00
-8.599236585699996382e-01,-8.676588077855170722e-01,1.046073895501126616e+00,-2.496896666263456483e-03,6.672342328885643055e-03,1.342708451382077623e-04,1.909916758537292480e+00
-7.586094880636696791e-01,-7.340510392731393052e-01,9.913635394977540205e-01,2.012740708103335704e-02,-5.999452178253752641e-03,-2.495838615215778718e-04,1.738204717636108398e+00
-8.727729814978142375e-01,-8.727177285009580787e-01,1.036325422187628575e+00,-1.077749788936701149e-03,-1.309382613579627985e-02,-3.402268887754126680e-03,1.909215450286865234e+00
-8.631121873638214481e-01,-8.557292443121748970e-01,1.006993906330150290e+00,4.849805566087473339e-03,-1.529318386344637008e-02,3.815284437224359098e-03,1.866644144058227539e+00
-8.611152928385656935e-01,-7.953813616894702676e-01,1.043160600443802766e+00,4.650432383603959711e-03,2.171127381994724520e-02,-1.254606122900994367e-02,1.872795581817626953e+00
-8.719812735112967284e-01,-8.582207719063711382e-01,1.023033505240541263e+00,-3.364018882384888984e-04,-1.632134238499190551e-02,3.149793728629487165e-03,1.888391733169555664e+00
-8.678188693897475048e-01,-8.591682079042666231e-01,1.030885353325784237e+00,2.182605840966036180e-03,-5.555705519855503455e-03,2.008754397284579114e-03,1.894425153732299805e+00
-8.567998716685009120e-01,-8.620925115687412266e-01,1.020608397744626306e+00,-7.092937631643918273e-03,5.481841584957803867e-03,4.638189891735055616e-03,1.880141496658325195e+00
-9.275114397124877286e-01,-7.616901783035906481e-01,1.065281852850355593e+00,1.372325002482678059e-02,8.589087190926152082e-03,-2.500798443534288373e-02,1.915968894958496094e+00
-8.646591231130673627e-01,-8.474029283095457776e-01,9.928489195545850965e-01,4.856152738696903857e-03,-2.355024175463011488e-02,-1.184500169263643689e-03,1.849410533905029297e+00
-8.615369992987484959e-01,-8.638558533838318620e-01,1.072233456062175128e+00,-2.062759330519939489e-03,-6.386346707641764461e-05,-3.106524885088367011e-03,1.934941649436950684e+00
-8.627167069127995580e-01,-8.672754102993772696e-01,1.057987661048782391e+00,-9.019942976774724449e-04,-1.128527790532850815e-03,8.390728889969089168e-04,1.922989964485168457e+00
-8.613154461510562632e-01,-8.637924640665530784e-01,1.041003948467130957e+00,-4.509982451299987018e-03,8.109522489928799871e-03,5.475620583200615024e-03,1.903650641441345215e+00
-8.560266296935380437e-01,-8.559393721341161942e-01,1.056232677579421297e+00,1.106958860356288066e-03,8.980693395280005330e-05,3.393595392068427322e-03,1.912225723266601562e+00
-8.604333653469485865e-01,-8.705534644261081478e-01,1.046368347153784573e+00,2.827581339644166542e-03,7.759424425082128360e-03,1.127062484843245616e-02,1.912034988403320312e+00
-8.602404383269233179e-01,-8.606294235505494994e-01,1.064619331985230621e+00,-1.365725742795460265e-03,7.599002872600409998e-03,2.601557627091377958e-04,1.925100803375244141e+00
-8.577518532677501639e-01,-8.632422012593147231e-01,1.037722522187452645e+00,-2.975581426413301516e-03,8.216858430703943492e-03,-5.026219629249226682e-03,1.898305773735046387e+00
-4.463430934112650461e-01,-1.110740774303119460e+00,1.146732181900571135e+00,3.012699575094114346e-01,8.205302802825395828e-03,-6.929455368584934438e-02,2.079578399658203125e+00
-8.409763584835665551e-01,-8.580295950383891590e-01,9.004607243061080180e-01,2.105143189712729151e-02,-7.224540041199629427e-03,5.155501278499458051e-02,1.752726674079895020e+00
-8.182780171323945639e-01,-8.172381891696764988e-01,7.888845587131225745e-01,7.382826203526228308e-03,-2.357347317954145913e-02,6.407734862320907387e-02,1.611039996147155762e+00
-8.685002567458386391e-01,-8.676721727946917762e-01,1.076497518169857059e+00,-2.404918576655873039e-03,1.639860901293393796e-03,1.316332388778359034e-03,1.944591760635375977e+00
-8.506717528350010715e-01,-8.660069612585629129e-01,1.008588194060727972e+00,4.342985622559291173e-03,-1.302326976228309827e-02,-6.730897899307294006e-03,1.867162585258483887e+00
-8.538527945537510710e-01,-8.680924027230834117e-01,9.843519083035470185e-01,9.606408354090630389e-03,-1.876254193419245840e-03,-1.006564711492388686e-02,1.845525979995727539e+00
-3.343069920343205714e-01,-1.178002796139440367e+00,1.379070748711362704e+00,3.486904995348066305e-01,9.472166736629336614e-02,-8.935583904373596564e-02,2.347057819366455078e+00
-8.495249692014790188e-01,-8.571587214259469567e-01,1.070325371351072974e+00,-3.557613213830777138e-03,2.627229424317871660e-03,-3.450896415096312096e-03,1.923703074455261230e+00
-8.632777432472185097e-01,-8.580161760379393376e-01,1.058033449478402721e+00,-1.452745993627249351e-03,-3.086560652788212719e-03,-1.415219248345235548e-03,1.918696522712707520e+00
-8.664125949504974944e-01,-8.646572438500255142e-01,1.074663865550068653e+00,1.617705827969998680e-07,1.258901853750874020e-03,7.541958260974735611e-04,1.940201044082641602e+00
-8.600159036830951065e-01,-8.596134685596455993e-01,1.043671842696549223e+00,3.782634294035073629e-03,1.573899908132148822e-03,-6.148814953209649076e-03,1.903529524803161621e+00
-8.325843051017930430e-01,-8.289402949056898784e-01,1.054510063219834759e+00,-7.921394241823344340e-03,1.584179581520179896e-03,6.296078176174289658e-03,1.885358452796936035e+00
-8.299407457082194073e-01,-8.287093118738824149e-01,1.053407342545926939e+00,-5.433683051772942620e-03,-7.335966396511901626e-03,-7.099821446900723759e-05,1.882799029350280762e+00
-8.485720440568863543e-01,-8.351689179282557607e-01,1.060264239288028154e+00,-6.569198156797811548e-04,2.238237241644808022e-03,7.973958229536190143e-03,1.902224540710449219e+00
-8.627203802837210000e-01,-8.650386097495773585e-01,1.071453921714419000e+00,9.424827789276499397e-04,-2.380528921944360075e-03,2.497767169903118614e-03,1.935344338417053223e+00
-4.965456473092662026e-01,-9.765898176091660776e-01,1.022374137974081165e+00,8.254066533959861576e-03,-1.566319214819620470e-02,5.702398910609885255e-03,1.807690858840942383e+00
-4.712974603821391550e-01,-1.032671629456162199e+00,1.504407990314731158e+00,5.171092461792464734e-01,-1.366654088672760170e-01,-1.013862111151187934e-01,2.493338823318481445e+00
-8.278622085632608707e-01,-8.458255290198321008e-01,1.054598542147905160e+00,-2.523776616367019634e-03,-1.222395068624950766e-02,8.520057551001717494e-03,1.891687512397766113e+00
-8.612498189599105958e-01,-8.603370399556757864e-01,1.036549939569984424e+00,4.153553352089717557e-03,4.640543081864316986e-03,5.305600392216554100e-03,1.897396445274353027e+00
-8.107823383559775721e-01,-1.269526832014115314e+00,7.420056444987448430e-01,-2.356478278386706926e-01,9.544404605332305891e-02,-3.510046651835936745e-04,1.878256797790527344e+00
-8.734064194237016743e-01,-8.675611532206211063e-01,1.057744059366676925e+00,-1.041178416894008099e-02,4.607298420568925836e-04,-6.078443223610123687e-03,1.928347706794738770e+00
-8.551155990178476163e-01,-8.580538074776526969e-01,1.067324419063830021e+00,-1.485485911129461522e-03,-4.161013606719544261e-03,4.773186496067902476e-03,1.923943758010864258e+00
-8.650934526155560356e-01,-8.614530554664950879e-01,1.060769121205718646e+00,2.771711814710613262e-03,-1.262379432003723524e-02,7.065977434461479141e-03,1.924214124679565430e+00
-8.617792292314851998e-01,-8.621753267010940913e-01,1.054276187225443584e+00,2.475170148383168227e-03,-3.594627275826056852e-03,-1.019507073313632647e-02,1.916349768638610840e+00
-8.413732253907455494e-01,-8.690169384444635936e-01,9.843193645347201315e-01,5.957886923711228078e-03,1.835714079526983532e-03,4.208550701897112618e-03,1.839716315269470215e+00
-8.610099983934111911e-01,-8.552833380213707981e-01,1.068465966998863204e+00,3.727163951484693794e-04,-1.465853321880016815e-03,3.208178378505184992e-03,1.926628828048706055e+00
-8.678163287618708699e-01,-8.595183472676330982e-01,1.032586351698199900e+00,6.975738838118939258e-03,-6.280725754204041257e-03,7.020416328375132450e-03,1.896376013755798340e+00
-8.136867710485062855e-01,-8.087242544847570436e-01,1.034684033343968190e+00,-2.909652739653137421e-02,-2.711899475391638462e-02,2.560085417725090073e-02,1.847711801528930664e+00
-8.464362827501350495e-01,-8.499829130724663173e-01,1.064041936641965114e+00,-4.684175129377012199e-03,7.921700851490043674e-03,4.983320149172475438e-04,1.912320613861083984e+00
-8.506258304156375516e-01,-8.588662701309315306e-01,1.055495392394192322e+00,-3.340161385646217562e-03,-5.925917284494395219e-03,6.692427814385812183e-03,1.910326242446899414e+00
-8.044527944312468426e-01,-8.063919619163723018e-01,7.546261634964011034e-01,-1.252226017738667686e-02,-4.445492504002605816e-02,8.045882559750834953e-03,1.562161207199096680e+00
-8.666751553974900713e-01,-8.618578690499902883e-01,1.056622435242439595e+00,2.965349813175035924e-03,-1.974233518598448190e-03,-1.609291540521508518e-03,1.920905351638793945e+00
-8.755073513311475430e-01,-8.529265668594914196e-01,1.015775872397138846e+00,-8.598384408623623666e-06,2.668326091665852262e-04,3.233633604201940296e-04,1.880094647407531738e+00
-8.191864783378932646e-01,-1.101266461227522253e+00,2.544485210712817969e-01,-2.527981973931115456e-01,1.282831755313504352e-02,3.513299407616936321e-02,1.315685987472534180e+00
-8.596736618035828448e-01,-8.632531133854639549e-01,1.059400466839548027e+00,2.301588223919528997e-03,-3.193494901123588355e-03,6.377432112256616048e-03,1.920910239219665527e+00
-8.628399374810808986e-01,-8.697455227337396177e-01,1.062211844242437309e+00,-3.174906793339211074e-03,-1.955314814761417285e-03,2.048880221995052760e-04,1.928524732589721680e+00
-8.443343482870273586e-01,-8.744996101161532920e-01,1.042252563153515332e+00,-4.644481765932937625e-04,-1.404519797813356084e-02,1.979965503619996164e-03,1.902007818222045898e+00
-8.609188102596085912e-01,-8.592285232401772888e-01,1.006616699257887326e+00,-1.488660617955333979e-03,2.410330725630815962e-02,-3.185953494517811124e-02,1.867974758148193359e+00
-5.427224963043619788e-01,-1.156082302250227123e+00,1.200046199036365557e+00,1.004861677451684802e-02,3.545389823174832644e-02,-4.941247355109301513e-03,2.118146419525146484e+00
-8.186905963678112741e-01,-8.249902915850584328e-01,1.049036364508727281e+00,7.776419995769106620e-03,-3.764704386511549990e-03,2.082158577066010874e-02,1.871292114257812500e+00
-6.834339184597532091e-01,-9.629237886180506134e-01,1.086467984057149616e+00,1.102719605268746850e-03,5.742360404936985852e-02,-1.056398673427732735e-02,1.927580833435058594e+00
-7.665802150032638984e-01,-8.746420733723696550e-01,9.620869695127911569e-01,2.360761049982071369e-02,-4.904511053843988583e-02,-1.813456833258881434e-02,1.787916541099548340e+00
-8.926358695931649878e-01,-7.718558382001204921e-01,1.057400966045269453e+00,5.601665936066743678e-03,2.693885818983726352e-03,3.000749523008361744e-02,1.893283724784851074e+00
-7.740048168469570999e-01,-9.021825945019740223e-01,1.027294533675961352e+00,-3.630715915466332586e-03,-1.773862800325913362e-03,1.042867850933328587e-02,1.868788599967956543e+00
-6.852891135594566530e-01,-9.121073109056565542e-01,1.055401781275891127e+00,-2.293297512061271120e-03,4.533607211787947511e-02,-1.400408420961448894e-02,1.866290926933288574e+00
-7.927216690391467591e-01,-8.036774230155020460e-01,7.341801303533947998e-01,-9.406570839205914344e-03,7.804101795377558874e-03,7.202550153502169580e-03,1.532606005668640137e+00
-8.453299460740774096e-01,-8.230828996541161846e-01,1.053388092222318440e+00,1.383663758891106807e-02,5.007883461252387279e-03,-7.398806345139036234e-03,1.887908339500427246e+00
-8.696032865873968287e-01,-8.734925256189067788e-01,1.040312963416994307e+00,-6.645116637560673700e-04,1.821933553362227454e-02,-2.516015052573309773e-03,1.912129521369934082e+00
-8.676668022090991972e-01,-8.638881899798204200e-01,1.041437976328652537e+00,-7.602184839376923547e-03,3.349448400131513522e-03,4.892211505448994767e-03,1.907291412353515625e+00
-8.692732745126727778e-01,-8.601022427632386558e-01,1.034452631176689286e+00,-4.058554307485726792e-03,8.091414731312895556e-03,2.054555028798915953e-03,1.899224996566772461e+00
-8.706720605341646824e-01,-8.549811260628780163e-01,1.027093746391026130e+00,7.128602580273024885e-04,6.738161884341612416e-03,2.440055746474083720e-04,1.890005707740783691e+00
-7.499993115116653231e-01,-7.377639122666095339e-01,5.363280206659504223e-01,3.464316156188734959e-03,1.532664905049911305e-03,4.163585278042831843e-03,1.280290603637695312e+00
-8.528115851727683383e-01,-8.726589798830003408e-01,1.031249259525146345e+00,-2.040833646540680512e-03,-5.963870232028505372e-03,-2.510527172823952442e-03,1.894098997116088867e+00
-8.781902555978687852e-01,-8.521856281129803756e-01,1.019421072572290310e+00,-2.198369186341438304e-03,-3.571810536560628743e-03,-2.306010518727569410e-03,1.884761810302734375e+00
-6.191675302707730921e-01,-9.136183505769610580e-01,1.045072960161511633e+00,2.009861996840769591e-02,-3.297909634895532238e-02,-2.795298282767793435e-02,1.831189155578613281e+00
-8.585258466415617296e-01,-8.559664758695182396e-01,1.064442828077943659e+00,7.970178775933565085e-04,2.405427684851575644e-04,-6.067211920596563696e-03,1.921719551086425781e+00
-8.502827192631849940e-01,-8.574870425719174349e-01,1.067737989309545110e+00,4.323807411705948454e-04,-7.916577236675286303e-03,4.798729332412946837e-03,1.921700000762939453e+00
-8.565357292209802020e-01,-8.551560088844465390e-01,1.066778678245087875e+00,-7.144035696344347387e-04,-4.415926729140644269e-03,4.710312497911848389e-03,1.922657847404479980e+00
-8.606397551898866682e-01,-8.665908145890359737e-01,1.023605679716792283e+00,-1.111059038075796861e-02,5.612345328607156597e-03,4.788758215247241636e-03,1.887369394302368164e+00
-8.653823437415716358e-01,-8.589528693481172095e-01,1.043396136582682932e+00,-5.760810419553460439e-03,4.180900004297443025e-03,-1.245985926260960962e-02,1.905733942985534668e+00
-8.640668785098294391e-01,-8.796467857720287054e-01,1.062489844368815328e+00,-1.240990628742122404e-02,3.903084916199469831e-03,-8.964805568417462791e-04,1.934525609016418457e+00
-8.751304992456516718e-01,-8.605230132327275072e-01,1.056146673423513427e+00,-4.278000900128769816e-03,7.582099463543928849e-04,7.085076801487059928e-03,1.924068927764892578e+00
-8.585055408648375463e-01,-8.642404806923975613e-01,1.032348707445064129e+00,-7.494443890487224695e-03,5.750793607165258746e-03,-9.898336370584716326e-03,1.893876552581787109e+00
-8.569751917324986978e-01,-8.469685909712995064e-01,1.062270081729132176e+00,-5.627132475427279977e-03,5.836216716273127589e-03,-5.782124273531213769e-03,1.914339303970336914e+00
-7.345455044103242903e-01,-8.555874985389309018e-01,1.047299370214459291e+00,1.551552614535950565e-02,-5.550845697538199291e-04,2.125998831817612830e-02,1.845908880233764648e+00
-8.432185837304997378e-01,-8.557193316569321473e-01,1.018959609010454237e+00,3.922544863570523281e-03,-8.445788488951344337e-04,-1.008155713523752614e-03,1.868473649024963379e+00
-8.510254077124317362e-01,-8.597030314227739334e-01,1.045597099961069532e+00,1.669416947176876383e-03,6.761606268168941780e-03,8.400637866907185655e-03,1.901070117950439453e+00
-8.604937397174258207e-01,-8.624565549969597233e-01,1.059530769004133566e+00,-1.440389208818813839e-03,-1.427541129166264760e-03,7.341821518574724072e-03,1.921051979064941406e+00
-7.564531472527387113e-01,-7.988899713930663893e-01,1.021116013284931734e+00,-4.517751464410831724e-02,-2.400546267189661992e-02,4.236672314385267479e-02,1.802837729454040527e+00
-8.631741044932316198e-01,-8.068604532137071406e-01,1.037808303992489245e+00,-4.181365695013979783e-03,-6.020672136340877306e-03,-3.060490781678849165e-03,1.873510956764221191e+00
-8.625071152970434918e-01,-8.654059006191150427e-01,1.061320630856695368e+00,-4.423641733491851316e-03,-4.053787660743390225e-03,5.510088209717223197e-04,1.925307035446166992e+00
-7.543321929032964501e-01,-8.985324693779436211e-01,9.826935385226693853e-01,-3.955664981611896162e-03,1.652096428919281202e-03,1.390511209581838520e-02,1.813606023788452148e+00
-8.322312274216694394e-01,-9.566122756824280149e-01,1.178576499757780338e+00,-1.771785995741928521e-01,1.016848408986254504e-01,-3.432612015382640464e-02,2.106574296951293945e+00
-8.538268659190505483e-01,-8.484959005809226129e-01,1.053520685179941463e+00,-3.344557191159671598e-03,-7.181400981458229901e-03,2.769235824902466746e-03,1.904743075370788574e+00
-6.541417934382434130e-01,-8.414134235212121782e-01,1.031836448494739544e+00,1.035681254347531333e-01,-3.626006291056125402e-02,-4.950170326605291687e-03,1.797088265419006348e+00
-8.465183119337057471e-01,-8.615740063782865166e-01,1.019822225435488949e+00,-5.359120821239995482e-03,2.910755533782505722e-03,5.540392295144879777e-03,1.873968124389648438e+00
-7.913038150136827431e-01,-7.887527446260858000e-01,1.024915359226413303e+00,1.611664510500792138e-02,1.496195831197444023e-02,8.563503991496055484e-03,1.815405249595642090e+00
-7.723694570865965447e-01,-9.000087543277317526e-01,1.056800200056128070e+00,-1.125988553233832692e-02,2.462580416075930631e-02,1.544564071430237426e-02,1.896982550621032715e+00
-6.230495219736023049e-01,-9.147444029439932844e-01,1.034152230100065628e+00,-5.032660880167443701e-03,3.654139238695603559e-02,-4.495190316267662703e-03,1.821796655654907227e+00
-7.799055114283430790e-01,-8.833747529178624935e-01,1.204673616194736896e+00,-2.622057122305795906e-01,-2.031558567518880476e-02,-9.770325944612565094e-03,2.088631868362426758e+00
-5.976910059995733659e-01,-9.323909422292018245e-01,1.033569646236487838e+00,-1.171212426527159650e-01,-3.953901274661875131e-02,2.575387204883328521e-02,1.834897875785827637e+00
-8.696343354025333205e-01,-8.596972394742657952e-01,1.037474084222012261e+00,2.572659567711168584e-03,-2.020830189608453006e-03,-3.419395720202624521e-03,1.902176976203918457e+00
-8.281257151575166509e-01,-8.343268642544149349e-01,1.053068679090080506e+00,-1.454846445651999335e-03,9.675775392363045874e-03,-5.898082145030345176e-03,1.884406566619873047e+00
-8.568350594001163945e-01,-8.562541680368087604e-01,1.069387932749035652e+00,-9.568504013785471274e-04,2.319655462050382224e-03,-3.283475087265264568e-03,1.925945878028869629e+00
-8.755835440155657068e-01,-8.440245810843590712e-01,8.798242276993373245e-01,-5.248136405889013839e-03,-7.261413951083964605e-03,-4.227427878260862221e-02,1.741452217102050781e+00
-8.192454036703857856e-01,-8.383681087148355804e-01,8.568576667931990798e-01,-9.131698812730529302e-03,7.105121269028936114e-03,9.750105668540393414e-03,1.685949444770812988e+00
-8.442238613836395844e-01,-8.452194951992882954e-01,1.060793821996159458e+00,-2.212891195016193115e-03,4.678422125338315904e-03,6.191977842275444253e-03,1.905566930770874023e+00
-6.866060867583010374e-01,-7.993290914825109672e-01,1.009763025768131151e+00,-9.241979160605080790e-02,-1.042971374263157273e-02,2.082912324190774184e-03,1.762826681137084961e+00
-5.865782058883722838e-01,-8.618114825497950049e-01,1.000955858054885628e+00,-6.533769108299575246e-02,9.801730524660011434e-03,-1.540525693949806353e-02,1.745499134063720703e+00
-5.299379063336904228e-01,-9.014948665018076568e-01,1.008772868762409569e+00,-1.652255013604837786e-01,3.685704189558340529e-03,4.580117150576885031e-03,1.777471899986267090e+00
-8.639680547987294013e-01,-8.535471151589040240e-01,1.046459512535851566e+00,1.249503937269556353e-03,-2.195299337562541669e-03,3.562700858537697340e-03,1.905253529548645020e+00
-9.150638944972406819e-01,-5.786497460768884604e-01,1.006963505528853275e+00,8.964393598860995183e-02,1.688753158183440087e-02,9.809902172217782688e-04,1.784862279891967773e+00
-1.383339154427811302e+00,-6.706590126320959300e-01,9.161315149802995439e-01,-2.271260815460042215e-01,3.959628350503237998e-02,-6.523911125424682045e-02,2.080606222152709961e+00
-1.089671926398767532e+00,-5.302109676026808271e-01,1.046955638648340070e+00,-2.197075762809733990e-01,1.345824983867072722e-01,-1.441323976512997318e-01,1.986023187637329102e+00
-8.229334499770151190e-01,-8.201809506140128603e-01,8.285514100581028440e-01,1.366411699083628847e-02,9.596330946953366553e-03,-7.877949730757175667e-03,1.650420188903808594e+00
-7.677010853638112087e-01,-8.929431699757636176e-01,1.051774943525552120e+00,-4.929720277542204128e-04,2.706320827929866238e-02,-1.775710481277787203e-02,1.886053442955017090e+00
-9.361250941359899880e-01,-1.145780130365120497e+00,6.821981369341316714e-01,-3.320948315406667128e-01,1.786177129414142362e-01,-1.876477771367504599e-01,1.880006313323974609e+00
-7.256719209570734463e-01,-8.766049190501161714e-01,1.189695741332024825e+00,-2.255370561995053147e-01,6.518314999311984603e-02,-3.165513885793620058e-02,2.036875009536743164e+00
-8.562275408059322190e-01,-8.407826772351293387e-01,1.071064066548195193e+00,1.502912487777223688e-03,1.322847930480549987e-02,9.045109467932781894e-03,1.919818162918090820e+00
-9.621619646566746953e-01,-4.766130378198726869e-01,1.003864080075437260e+00,1.149638698044804994e-02,-3.944632109121723809e-03,-8.899444303927417366e-03,1.774005413055419922e+00
-7.328495471363711822e-01,-7.862890603742997975e-01,5.294185216222115908e-01,6.833756495983780814e-03,9.342859389779301083e-02,8.730845357095300130e-02,1.308750033378601074e+00
-3.300565200469455784e-01,-9.480232878534438079e-01,1.207068207204981425e+00,3.946096928139770088e-01,2.686556920287371322e-02,-1.536043011152086156e-02,2.040723085403442383e+00
-7.853263788035889092e-01,-8.376428901367272140e-01,5.980057212992632154e-01,-5.292715672731043014e-02,9.070148542937325753e-02,1.603490368054659998e-01,1.448770284652709961e+00
-7.711595921217537786e-01,-7.653329458065385449e-01,5.580223951781712044e-01,-2.473263619477916947e-04,-2.401619673837977753e-02,-5.590759017643620599e-02,1.330459117889404297e+00
-8.430863959126024820e-01,-8.631996416650018489e-01,9.728450417048997156e-01,-5.670214572440311976e-03,1.905609251022100450e-02,-1.864008245996937041e-02,1.826681137084960938e+00
-8.472967915559491692e-01,-8.634350837583529836e-01,1.019036910422324027e+00,-5.733504592788411618e-03,-6.183833617833104680e-03,8.619816140622169054e-03,1.874571323394775391e+00
-7.235171256141252893e-01,-7.304791339202504341e-01,4.528131895692765196e-01,2.213566007390892730e-03,-3.397844972110914460e-03,1.060580752991896686e-03,1.179849028587341309e+00
-7.589955866550130992e-01,-7.767707279710861501e-01,6.063485793377580979e-01,-6.166348645224532972e-03,5.796297193808984220e-03,5.150966625675067190e-02,1.377288818359375000e+00
-8.578465499306183739e-01,-8.579486262533581042e-01,9.870744887704525627e-01,-1.349680374864836198e-02,1.084256362927254851e-02,1.006650290047096663e-02,1.845298171043395996e+00
-5.328835097336868110e-01,-8.337758452641533813e-01,6.589237154928092588e-01,2.625548384543440750e-01,-3.381869212858518853e-02,-8.790463783077806514e-02,1.450160026550292969e+00
-7.443595615059674930e-01,-7.681113858854951015e-01,5.716903766593909308e-01,9.394378926874655256e-03,3.323063401800936678e-02,8.843337514807625421e-02,1.338226079940795898e+00
-8.499703817031249997e-01,-8.329690907828061208e-01,9.242431299489726193e-01,-1.185465390679948938e-02,5.708160084931982771e-03,5.949381168175807595e-03,1.765951395034790039e+00
-8.222284270420263663e-01,-8.189679146132198273e-01,8.297616425281200137e-01,-1.117614837769008093e-02,5.713613411044890164e-03,9.903453189394688730e-03,1.650594592094421387e+00
-7.843136705568576339e-01,-8.037126308815317755e-01,7.312304189805529653e-01,-4.955491568018805838e-03,1.116259759873563726e-02,7.272834518791284827e-03,1.525534749031066895e+00
-7.765602542593192936e-01,-7.777081847323383812e-01,6.143716145307893672e-01,-1.155944279869106951e-02,-4.818567263121209532e-02,-7.886925756635264351e-03,1.394217491149902344e+00
-8.079053137569430776e-01,-8.436938258382261635e-01,7.929399352659649569e-01,-1.004094331138878117e-02,4.338593084629544655e-02,6.838255611053398186e-02,1.625194191932678223e+00
-7.130849347851061504e-01,-8.917567147466998190e-01,1.017841834165222004e+00,1.530849701844119032e-02,1.583532422558211680e-02,2.555023879498549352e-02,1.827761650085449219e+00
-8.669804205959089627e-01,-8.964164328327369757e-01,1.075232371271090281e+00,2.157462972566447090e-02,-2.373283510179343553e-02,1.720575305393925655e-03,1.957887411117553711e+00
-8.665175685496407931e-01,-8.180178935155333342e-01,8.416264048106676388e-01,-3.103769852387737145e-04,-1.739655493612398546e-02,-6.883391443484722025e-03,1.684729695320129395e+00
-8.536535220606112917e-01,-8.336285173649888858e-01,9.032447683429729590e-01,1.133287103580070572e-02,-3.117122162176275135e-02,-1.113761471033163607e-02,1.748022675514221191e+00
-8.691380226165562606e-01,-8.604308587096616279e-01,1.028374287705523527e+00,-1.065537639152448236e-02,5.887786474743473587e-03,8.046752115302150538e-03,1.893342494964599609e+00
-7.201499235147672540e-01,-8.599446200851151856e-01,1.007294647239541430e+00,2.830689804909920435e-02,2.218400187093260562e-02,2.340717918243075471e-02,1.802947282791137695e+00
-8.611096878336910176e-01,-8.457118824180236416e-01,9.720437562487198591e-01,-7.932177804141554017e-03,5.371835732551961083e-03,5.126024224506969297e-03,1.825600266456604004e+00
-8.676067690126059162e-01,-8.465729433469109111e-01,9.746907396813939695e-01,-5.111548270936928755e-03,9.252252345849931031e-03,3.183964850958613969e-03,1.831970930099487305e+00
-9.236526708366067373e-01,-6.182968952206731039e-01,1.040640268482244224e+00,9.444340850768425180e-03,-9.191436056593556975e-03,-2.816819641426570112e-02,1.831606388092041016e+00
-7.996051460233891683e-01,-8.601697820705491715e-01,1.033380233790520908e+00,2.382330803915356371e-03,2.143878916761125450e-02,1.250914956241059271e-02,1.864506125450134277e+00
-8.547019894972482934e-01,-8.716100349247226653e-01,1.076641623118510527e+00,5.894621678381930553e-03,-6.346158197935184049e-03,4.305178440267115950e-03,1.939925193786621094e+00
-7.880674264061434675e-01,-8.904236685336794910e-01,1.039897836934841946e+00,6.960689038668420835e-03,1.039820242963002822e-02,-5.246012928362952035e-03,1.881379723548889160e+00
-8.575942217585090788e-01,-8.491512477333258424e-01,1.061319842309553341e+00,-1.347884197406479440e-04,8.013993140149324942e-03,6.050854823991231625e-03,1.914785504341125488e+00
-8.562932599622180563e-01,-8.568458678853688726e-01,1.023603062403260600e+00,3.911325548253356127e-03,6.302044447949891291e-03,-6.318091232676918169e-03,1.880248427391052246e+00
-8.657690612385696705e-01,-8.613425022218914595e-01,1.072879902071930847e+00,3.643545217932054876e-04,-3.597240419709260215e-03,-5.887785431204693026e-03,1.936476469039916992e+00
-8.722113777636496534e-01,-8.614433434363359954e-01,9.518211791833295354e-01,-1.911348269435148017e-02,-1.186212741248331322e-02,-1.446366942324205269e-02,1.819262266159057617e+00
-8.659813285164283947e-01,-8.568735567693509525e-01,1.017887408766141366e+00,1.276102788888610999e-02,-7.286760927681665626e-03,-1.540643030506279841e-02,1.879693150520324707e+00
-8.572885505191472078e-01,-8.679742220038150213e-01,1.038619488353212938e+00,2.120631494265624514e-03,-6.930332108018311295e-03,1.644578375252047156e-03,1.901317000389099121e+00
-8.740976820854386986e-01,-8.569770019036031528e-01,1.031964911101671767e+00,1.451953379530577289e-03,-4.647635052141646690e-03,4.709639407746340871e-03,1.897596478462219238e+00
-8.582707703433738455e-01,-8.713193455332858273e-01,1.040543363328320536e+00,3.094919289318751477e-03,4.513887137358375823e-03,3.083937845598557458e-03,1.905403017997741699e+00
-7.984898549757978303e-01,-8.668211959115404985e-01,1.056359663972318064e+00,2.184410150167897385e-02,1.207923615125260607e-02,-9.311324816655969575e-03,1.890505075454711914e+00
-8.652906344674713424e-01,-8.661998299778095323e-01,1.064827436815079187e+00,3.594652869475293243e-03,-6.860770973157109126e-03,-6.765210707384912599e-03,1.930655002593994141e+00
-8.694232779967552283e-01,-8.555849442480095712e-01,1.059639561380033124e+00,1.076514579535210823e-03,-4.343420922718484157e-04,2.923539923664991453e-03,1.922188758850097656e+00
-7.482417891829801215e-01,-7.612612869590187348e-01,9.987150712618859671e-01,2.215721645147483362e-02,-6.537678768257045546e-03,-6.645170272844671058e-03,1.753997087478637695e+00
-8.025565979570272734e-01,-8.021033230246300549e-01,1.031780682071878452e+00,-1.516087821754476912e-03,-1.185485254565533074e-02,1.229130455652236754e-02,1.834351062774658203e+00
-8.108873440067427829e-01,-8.164307209292032130e-01,7.990691879529854269e-01,1.154209919242174531e-02,-1.060313239067750546e-02,1.050485381407363812e-02,1.613066434860229492e+00
-7.995593988280289555e-01,-8.009405533109946740e-01,1.030124474309779492e+00,4.477570732800448088e-04,-1.397375129681190271e-02,9.987293701233567259e-03,1.830616712570190430e+00
-7.898945589588974858e-01,-7.874377320993718454e-01,1.021179248935579320e+00,-1.094325574687391410e-02,-1.188544599355604442e-02,5.201427667995243108e-03,1.810085415840148926e+00
-8.747983931248672906e-01,-8.529190568882947243e-01,1.006646452187675678e+00,7.025674379190414293e-03,-6.363632054580254521e-03,4.820883439216663673e-03,1.870691776275634766e+00
-7.470152570144356075e-01,-7.851264881165185283e-01,1.013367879338553657e+00,-1.181800953185929877e-02,-1.432831767287040189e-02,1.196168805165416689e-02,1.780156135559082031e+00
-8.156183307315082454e-01,-8.188402281530159366e-01,2.251116918274425061e-01,9.544885129583195738e-02,-1.275988235727184006e-01,-2.970199872681056896e-01,1.194705367088317871e+00
-9.506828837651999375e-01,-7.687187376287137885e-01,8.736101965219689180e-01,9.292119109240042085e-02,-6.119098131323673362e-02,-7.699706652445909016e-02,1.756166815757751465e+00
-9.678139686264979336e-01,-7.885724637021509498e-01,8.497745731335968333e-01,-5.900647152309067972e-02,-1.424765261180005807e-02,-9.111480186011468307e-03,1.738180518150329590e+00
-8.604680229351854281e-01,-8.644500279722294733e-01,1.067006464225501050e+00,1.019497701971859398e-03,1.552855839336764925e-03,2.446450957019007198e-03,1.929475903511047363e+00
-8.460874499337814880e-01,-8.430869087459823552e-01,9.328140622505098900e-01,1.397445465980142257e-02,-1.201966077525244529e-02,8.670126300520771684e-03,1.777753233909606934e+00
-9.360840463550641477e-01,-7.585768700594140990e-01,1.067760416973888349e+00,8.938996594633675033e-03,-6.196619905251850476e-03,2.686076146032538581e-02,1.921906352043151855e+00
-8.060829521106677165e-01,-7.907817973656621202e-01,7.306273735727319973e-01,-7.116543024221240812e-03,1.044057802421191790e-02,4.278736826732071688e-03,1.529291749000549316e+00
-9.737153016778725689e-01,-8.508429023373841327e-01,8.897411550712410744e-01,-3.014043455763941448e-03,1.301759361987324115e-01,-1.592177891885091234e-01,1.839977145195007324e+00
-9.580195192995869524e-01,-7.938794787037063427e-01,7.153346885634910279e-01,3.985868111285589127e-02,-1.409807595835324279e-01,-2.272319209941419393e-01,1.664838671684265137e+00
-8.484735587758711617e-01,-8.294253859406088836e-01,8.825681287963305088e-01,-1.154677500529980617e-02,-1.347040063411498838e-02,-5.897043807496684352e-03,1.721901178359985352e+00
-8.472685027537123492e-01,-8.453644342895730857e-01,1.062940948188509260e+00,3.605164754865662711e-03,5.380117627006087040e-03,-3.976589791480158315e-03,1.909303545951843262e+00
-8.210414341038103636e-01,-8.179283947397815169e-01,8.289713004645373751e-01,-1.002838491211548166e-02,6.203260862750399271e-03,1.033156062641020327e-02,1.648682117462158203e+00
-8.465258942800687469e-01,-7.964610315626576842e-01,4.826883535385158019e-01,-3.273908441503911582e-02,1.101366083567321408e-01,-7.489511369347852388e-02,1.326349735260009766e+00
-7.581750590673140833e-01,-7.925924401044733836e-01,9.953065696944662921e-02,3.826710566931728480e-02,1.083481202551047767e-01,-2.939458215403435992e-01,1.032078981399536133e+00
-8.134109062612505658e-01,-1.004629627486954391e+00,3.576897771322656849e-01,4.705906176566575921e-02,-4.415948068041363611e-03,3.658769862332023753e-02,1.281677007675170898e+00
-8.596186311457878482e-01,-8.731124038001109033e-01,1.041129361743916570e+00,-3.288286424921005573e-03,-1.256275935622286517e-03,3.941821207593494344e-03,1.907552599906921387e+00
-9.471229234622309257e-01,-8.466139317316101476e-01,7.177076431498703446e-01,7.868801293208534109e-02,-1.722983680059941292e-01,-1.961590939250141552e-01,1.684489011764526367e+00
-8.545245434854962241e-01,-8.264852583605798442e-01,8.997044602017145731e-01,1.498715591340124076e-03,-4.062761277586915409e-02,3.016098039939483404e-04,1.741802811622619629e+00
-7.571934654141225796e-01,-7.539715598848656386e-01,5.569287090059793499e-01,3.770492735080651584e-03,7.102547578684539377e-03,-4.733305000425625832e-03,1.312613725662231445e+00
-9.546645549571908251e-01,-5.241080226597206737e-01,3.975654112318444122e-01,4.877609515827779907e-02,4.351288993197136717e-02,-2.374711810182269511e-01,1.270310401916503906e+00
-7.180737790819138322e-01,-8.399026220803049725e-01,1.426704623574294173e-01,4.460695934889033487e-02,4.168693576154229863e-01,-1.818194571987176156e-01,1.219455122947692871e+00
-8.398390098164580930e-01,-8.409492128034599112e-01,9.000027100078047404e-01,1.343368519029611470e-02,-2.328829203608053997e-02,2.382166785983407670e-02,1.741508841514587402e+00
-9.156495643599190659e-01,-5.621863550801969867e-01,1.006691660993427329e+00,2.972089171649452619e-02,-1.225241812019272486e-02,2.062636877767000387e-02,1.773480176925659180e+00
-6.339696792113407309e-01,-9.669534540841308035e-01,1.062607721522823789e+00,-1.547974674581204489e-02,-2.658369679657003604e-02,-1.567144283380158751e-02,1.886202931404113770e+00
-8.449221588587855214e-01,-8.295239910921993198e-01,7.810518879271310944e-01,1.701458021422811318e-03,-5.754970419267206767e-03,5.349045687514686342e-02,1.621013045310974121e+00
-8.134553151101329149e-01,-8.644189911886734912e-01,9.620906854498900707e-01,-5.723730158564849409e-03,-4.867075015247870895e-02,1.853328281385333010e-02,1.803852677345275879e+00
-7.906180039994636921e-01,-7.917368952248300396e-01,3.389159772374689128e-01,-1.669031934801475797e-02,1.662149824684574020e-03,1.625118622434308380e-01,1.164983391761779785e+00
-8.389028634597883727e-01,-8.163192968319618048e-01,8.864964922384741541e-01,-2.039062024425975471e-03,-1.047234587004167508e-02,4.232131503786457777e-02,1.715885162353515625e+00
-7.600375903564255964e-01,-7.776828485925848522e-01,6.262828400031330567e-01,6.436845387976544187e-03,-7.920896179835140022e-03,-1.136542738222152543e-01,1.409156560897827148e+00
-8.610069290489140714e-01,-8.637969599491512884e-01,1.044157133830479589e+00,2.596847019774216336e-03,-4.068355759898034316e-03,5.947986628143835282e-03,1.906606793403625488e+00
-8.009457077479509302e-01,-7.814138324539168234e-01,6.877450371032981513e-01,3.152690564119464776e-03,9.070622346323489391e-03,-8.419831808709638552e-04,1.479115724563598633e+00
-7.672153568345402297e-01,-6.767659804488719288e-01,7.533072618912817209e-02,7.054424502012764803e-03,-9.388188228682561864e-02,2.228460791815500275e-01,9.041178226470947266e-01
-8.753459924360488253e-01,-8.538909285762859014e-01,1.028160553425252699e+00,-2.869471295735683079e-03,3.135875064514505491e-03,4.895972220902099735e-03,1.892903566360473633e+00
-5.008775927886750523e-01,-1.019911029731960905e+00,1.123588555051685089e+00,-6.097617465426555250e-02,8.574140231617922991e-02,-3.368216427969038945e-03,1.945425748825073242e+00
-8.898922747700723779e-01,-7.602173769767617273e-01,1.047653816180246444e+00,2.860177647402803881e-03,-1.022360166336636240e-02,-2.659011645296860404e-02,1.876728177070617676e+00
-5.485300576145502038e-01,-9.827868178351588657e-01,1.041314643643733051e+00,-2.689896941298883584e-02,-2.052680476519537153e-02,-9.494014942870863255e-03,1.846697330474853516e+00
-5.597909733433528157e-01,-9.630211183304258071e-01,1.051707200197794068e+00,-1.300507153271481019e-03,4.114111326654831813e-02,7.639208623194019589e-03,1.847859144210815430e+00
-8.636289064440391128e-01,-8.561869868296927422e-01,1.024867457676259974e+00,-5.964228265579693891e-03,5.876233992690570174e-03,8.030965457189178161e-03,1.884893536567687988e+00
-8.675583607623523763e-01,-8.423662662573094817e-01,9.731528685382522248e-01,-9.456874696961353743e-03,7.276624120581553189e-03,4.126229273211060034e-03,1.828376173973083496e+00
-5.645200794930840260e-01,-9.974657178059079810e-01,1.082302703017747003e+00,2.724044680563719040e-02,-1.987897509726026246e-02,-1.661915813674015585e-02,1.901760339736938477e+00
-4.218245717144960549e-01,-9.924015797526816174e-01,1.035571650882256112e+00,-8.106639236712376295e-02,-1.042054841275826677e-02,1.424064872107061279e-02,1.817076802253723145e+00
-3.143069366921321661e-01,-1.317449877092543353e+00,1.246014103781616367e+00,-1.417209999839958226e-02,-2.004512603035576157e-01,3.859477137135337160e-02,2.265333414077758789e+00
-5.051837103081014968e-01,-9.724502305765061472e-01,1.041570717389037837e+00,1.471330206786888688e-03,-9.040527673278168919e-03,2.058668890338441904e-03,1.825869202613830566e+00
-4.641286261688675197e-01,-1.013521840869579194e+00,1.047706891540323149e+00,-1.306303903846101934e-02,1.532174724028031836e-02,7.976734668293622779e-03,1.849183320999145508e+00
-8.406726876859481612e-01,-8.373801126718909416e-01,1.059980923428809119e+00,5.507097190956606290e-03,-1.625117173337533097e-02,1.728205037975815870e-03,1.899244427680969238e+00
-8.526746341408434349e-01,-8.612293776771609011e-01,1.058246516132705484e+00,-1.791964365765262536e-03,-3.315768574477537343e-03,1.805218452065125061e-03,1.915226578712463379e+00
-8.713596651539882165e-01,-8.547807685081837414e-01,1.017423070985476574e+00,-5.795905243432090959e-04,-2.932589507402531218e-03,-2.763436580780113862e-03,1.880561351776123047e+00
-7.211227104755117967e-01,-8.089597329431325035e-01,1.029253020517808315e+00,7.037938554154098136e-02,-3.230952695884476821e-03,-2.046167500314368705e-03,1.800050497055053711e+00
-8.502093514052200263e-01,-8.583851194442526644e-01,1.062544848384864959e+00,-1.010855305516268924e-03,1.001242722585733887e-02,1.407687909186564751e-02,1.917089462280273438e+00
-8.131346744326032328e-01,-8.556978583865083587e-01,1.082409455948128096e+00,-2.328451265281202692e-02,-2.512520552823079706e-02,1.695482919328591964e-02,1.918322801589965820e+00
-8.684435604552468435e-01,-8.592584271908924043e-01,1.059760305266739921e+00,4.641902227761458832e-03,-3.799332000405175481e-06,1.796295228631243981e-03,1.923647046089172363e+00
-8.697913691642219502e-01,-8.647326716963021909e-01,1.069998844454184805e+00,1.785982165035971195e-03,-3.702133452336131472e-03,4.384217667079907087e-03,1.937293767929077148e+00
-8.709202927021456597e-01,-8.333482429494466492e-01,9.759751407445711457e-01,6.035350868870952706e-03,-7.639965189737142094e-03,9.446739994861974056e-04,1.828477501869201660e+00
-7.860522450827949204e-01,-7.238709676307431007e-01,3.910600126332662851e-01,-2.839735538556742434e-02,-9.998568346990392708e-02,-4.286098137291205479e-02,1.163695573806762695e+00
-8.622056647474340974e-01,-8.643896996655969778e-01,1.051131638801280799e+00,4.903037258023044617e-03,6.462939471035680089e-03,-6.505279568841487031e-03,1.914515018463134766e+00
-8.628232014104885161e-01,-8.660312485656936898e-01,1.063810684744401103e+00,3.442114881026614968e-03,2.055984251875793943e-03,3.355803651746354452e-03,1.928261160850524902e+00
-8.655109073727598190e-01,-8.667446656399477867e-01,1.069183566014649145e+00,2.858828555949526323e-03,-2.439536258199291336e-03,3.762308614598058876e-03,1.935333609580993652e+00
-7.380098045593390665e-01,-7.527669050122972605e-01,5.387063068301657376e-01,7.454633644033259020e-04,3.196315531240945251e-03,-8.177902990697418981e-03,1.284248948097229004e+00
-7.987133541440252227e-01,-7.454305247258153910e-01,1.034705921979950149e+00,7.708458511605335850e-02,5.927971568007859259e-03,2.140967300104193796e-03,1.812324643135070801e+00
-7.377313876321044406e-01,-8.070405693306439421e-01,1.039233772673126888e+00,6.749382020139177429e-02,6.562245748973596221e-03,-5.742397793640358940e-03,1.816442489624023438e+00
-8.340749660511952435e-01,-8.114436804354767663e-01,8.312188668976532302e-01,4.507291246352285001e-03,-1.152014770377739541e-02,2.558178813694451156e-03,1.654239058494567871e+00
-8.695775934862850498e-01,-8.693166699671889264e-01,1.043471925803330480e+00,-2.504622556358907046e-03,6.352535327037433024e-03,-1.110835550123080457e-03,1.912956595420837402e+00
-7.368656665680264339e-01,-8.664482739614230988e-01,1.104583366058881966e+00,7.081012879952096328e-02,2.416609344854260197e-02,6.129552190073981471e-02,1.916875481605529785e+00
-6.371442535057489920e-01,-8.858677996876280769e-01,1.036078235911358059e+00,7.739946660301422199e-02,1.483597305455958484e-02,1.641369826735397663e-02,1.815804839134216309e+00
-8.598023796529130625e-01,-8.450435229102257750e-01,9.591178820212695744e-01,-1.113748616333717564e-02,2.909022813059414930e-02,-1.917441421225573456e-02,1.812693357467651367e+00
-9.132663195746608675e-01,-5.831744732969024181e-01,1.020478967368602774e+00,-2.511538104670884078e-02,6.692289304643645950e-03,1.265086137999205454e-02,1.792351722717285156e+00
-7.488728671189615049e-01,-7.559959714916008044e-01,5.435748783652715188e-01,-7.240473400145185090e-03,2.793947422410380296e-03,-8.347810907592054241e-03,1.296174287796020508e+00
-7.040343945303055850e-01,-7.257582957057575612e-01,1.119514123827110019e+00,2.110378082515101950e-01,-3.524569493626616978e-02,-1.457849613064750305e-02,1.871734738349914551e+00
-8.685385767031691406e-01,-8.600079541547023254e-01,1.044771370658682086e+00,-3.930028253822072208e-03,-3.280520069153711714e-03,-1.958912693604614435e-03,1.909082531929016113e+00
-6.669978944722666503e-01,-7.996033586309023722e-01,1.008394629409102405e+00,4.032791066617973097e-02,1.100321433627390877e-02,2.889158876604711631e-04,1.746978282928466797e+00
-6.750452583684113383e-01,-7.898640654246770199e-01,1.020504799093056025e+00,1.091189213229109833e-01,-2.225071626526959820e-02,-2.609760562560237140e-02,1.766919255256652832e+00
-1.076047608458669202e+00,-5.454481665184920391e-01,1.195985430725033716e+00,1.007189775143712412e-01,1.808853966667575697e-02,4.035935800790597244e-02,2.067469835281372070e+00
-8.654389185933707429e-01,-8.501728897688350939e-01,9.967712741433720769e-01,-3.088575050570729549e-03,-1.159980075384142717e-02,1.086533506753312043e-03,1.854741811752319336e+00
-8.606314645273347441e-01,-8.742024660099088074e-01,1.048682191278502041e+00,-5.953923751736383933e-03,6.836617043373769548e-03,1.958380955868480305e-03,1.916202545166015625e+00
-9.772684159816900085e-01,-4.963880641224520107e-01,1.055226680636070391e+00,4.793041240503839728e-02,-4.009560454657755575e-03,-2.775076006799528927e-02,1.842320799827575684e+00
-7.953048156682163139e-01,-8.014669537605504379e-01,7.306136863290304539e-01,-1.043962284433409653e-02,-3.040126505470002859e-03,-7.963920345475411500e-03,1.529187083244323730e+00
-1.103641395196915509e+00,-3.141435638815413545e-01,1.601672356644298301e+00,2.970077672832506233e-01,3.120822882651785521e-02,2.756076620712477263e-02,2.464960813522338867e+00
-9.835712501879294578e-01,-5.679302637368035533e-01,1.055705897031837814e+00,2.882267805284800116e-02,7.126806882730810609e-03,4.538709531184034751e-02,1.868856906890869141e+00
-8.345306271041790236e-01,-8.524939185602983249e-01,9.096208616683796322e-01,-2.169530313884387909e-03,1.402429505511334357e-03,3.465509871150665444e-02,1.754235029220581055e+00
-9.769390806664829396e-01,-4.920215125744623608e-01,1.021315047447779678e+00,-1.179299731544430213e-02,-1.054461597472491387e-02,-7.104009731469243354e-03,1.805568695068359375e+00
-8.422493939582041955e-01,-8.093694727318562210e-01,8.523421683624960998e-01,-3.104721762678580403e-03,7.046396191852611832e-03,8.203562193072010816e-03,1.678506255149841309e+00
-8.619310824407562244e-01,-8.699278003446346830e-01,1.061936420747178866e+00,-5.954230484653981470e-03,4.047057844213940679e-03,3.433352777435284446e-06,1.927918672561645508e+00
-9.361875270174204733e-01,-5.640015154007862463e-01,1.030488325763862401e+00,7.259660777342946680e-02,1.722640644139898994e-02,-1.495698129089882526e-02,1.814315080642700195e+00
-9.431043337525922832e-01,-5.505137794959981123e-01,1.015604299604129679e+00,-2.798364791818228753e-02,1.387833559838362422e-02,-2.075341272130148268e-02,1.796083331108093262e+00
-9.153677340581591881e-01,-6.925002967108421226e-01,1.079570866632302950e+00,2.518746090056824677e-02,-5.431760125859635968e-03,3.251576916437309145e-02,1.894731283187866211e+00
-9.546512780596622116e-01,-5.125561207957427534e-01,1.063222000747335638e+00,3.528832727921257795e-02,1.863667582219445023e-03,3.375862595653466441e-02,1.839112281799316406e+00
-7.284469636798022174e-01,-6.668945304288426135e-01,9.502965016993396574e-01,3.607040744866732984e-01,-7.618206402610087913e-02,-8.634081404455115627e-02,1.774467587471008301e+00
-8.770662816520264915e-01,-8.543166772561334721e-01,1.026500229677845155e+00,-1.034071499981688335e-03,1.787408562950944420e-03,3.494332987497449864e-03,1.892307281494140625e+00
-8.408873472839549779e-01,-8.869560562313607566e-01,1.048061622353802402e+00,-5.705216174938902707e-04,-2.759262658820120506e-02,-7.537540672459359589e-03,1.913041472434997559e+00
-8.720895818377144559e-01,-8.504721293927521852e-01,1.013658395620386177e+00,2.823291970448340085e-03,2.665196529595131739e-04,3.229828289851776821e-04,1.875039219856262207e+00
-9.898860353993804706e-01,-5.157314086663156161e-01,1.075680509741770319e+00,4.502420406575020212e-02,2.776442264841553695e-03,3.323517731331841751e-02,1.876541614532470703e+00
-8.841464149913176307e-01,-7.428213343878137254e-01,5.959141324607404311e-01,-2.180489084463093641e-01,-2.516840684889755653e-01,2.483544858434346969e-01,1.587164998054504395e+00
-1.029145909795630143e+00,-3.553347883049593481e-01,8.636267752878314941e-01,-2.495759891359349558e-01,6.520130860988171406e-02,-7.023119200673674789e-02,1.725008368492126465e+00
-9.650291292454252767e-01,-6.820734804291331832e-01,1.103342001575727371e+00,1.318267982505690571e-02,1.693564713625501233e-02,1.655804209539483984e-02,1.942979693412780762e+00
-8.670933176435265954e-01,-8.372716751185572681e-01,9.701671340052795411e-01,-4.784570398801585322e-04,9.117636803964141931e-03,-1.768547294844740941e-03,1.822603821754455566e+00
-8.716747404107239028e-01,-8.010216517601402852e-01,1.028032459308529045e+00,-7.755547429432524051e-03,1.249318163433127578e-02,-1.089211207270338912e-02,1.865653753280639648e+00
-8.840079618925814620e-01,-7.253552920142690708e-01,9.687371041154879681e-01,-1.855990264178806332e-02,7.493717706140217913e-03,-1.089909207591424969e-02,1.779171228408813477e+00
-7.747443365123457548e-01,-7.734676530823284546e-01,1.012664723439532510e+00,2.570302639173269274e-05,9.355894596715591885e-03,1.048828518166034646e-02,1.786936879158020020e+00
-9.235428064829603878e-01,-4.131884849438461904e-01,2.509450131449972865e-01,1.716948970977992886e-02,-5.956742895674323884e-02,9.665870549708853454e-02,1.039247870445251465e+00
-9.858542450482136177e-01,-8.487488147766224511e-01,9.140768652334505529e-01,4.089754259189664655e-03,1.129447601006502468e-02,6.893992080849342674e-02,1.839221596717834473e+00
-8.679460576168550601e-01,-8.640603054999881349e-01,1.064234449949549299e+00,-3.673910660622044331e-03,9.693373385675527892e-03,-7.475445931259576231e-03,1.930367469787597656e+00
-8.622801519878423582e-01,-8.610732230849502677e-01,1.059993016622746254e+00,-2.395045284591410060e-03,-7.000543069898923151e-03,-3.108280729610316331e-03,1.921720266342163086e+00
-9.242318146540564605e-01,-6.237189456908993623e-01,5.176618592160910914e-01,-1.443380702731136556e-01,-8.619181988084026469e-02,3.238932412429714192e-01,1.461357474327087402e+00
-8.663996179122168684e-01,-8.557097301453924221e-01,1.001383480863478281e+00,-1.079464946094780024e-03,1.699216158258207848e-02,-2.686399302233901114e-04,1.862694740295410156e+00
-8.807470590957320322e-01,-8.585800639383027733e-01,9.454350018229888963e-01,-4.946936775981684159e-03,-4.767425913603705323e-02,8.858071009547432983e-02,1.823563218116760254e+00
-7.304828581168311130e-01,-7.931633585484226812e-01,1.028961553814252472e+00,8.865498446571416780e-02,-4.740761058549978688e-04,-1.116148964044471302e-02,1.798279643058776855e+00
-8.686188752087313780e-01,-8.571978001737005082e-01,1.027588787267354586e+00,1.058105731816906276e-03,3.939039424480584445e-03,-1.072582725870522592e-02,1.890627503395080566e+00
-8.398886334540422993e-01,-8.583284986952155471e-01,9.973876905395187009e-01,8.494624533632158525e-03,2.196548667977447217e-02,-3.208183783057239578e-03,1.847024202346801758e+00
-8.779432864295017014e-01,-8.067952354849765584e-01,1.021155627183450765e+00,8.207155269750110102e-03,4.649700600377225032e-03,-4.119972704957089622e-03,1.864628434181213379e+00
-8.663870218656157807e-01,-8.486332047120305200e-01,1.062218421099804244e+00,-1.915755994585498917e-03,2.781148975442487414e-03,4.103521971898139824e-03,1.919812202453613281e+00
-8.656103971604807157e-01,-8.597143065653111149e-01,1.035661541621026638e+00,-7.884095719095929322e-03,-7.157719122457093831e-03,-7.836450079489142712e-03,1.898468852043151855e+00
-8.817750154192923739e-01,-7.612416474379851694e-01,5.752735773016048881e-01,-5.563972235413852663e-02,1.094803688673964825e-01,1.088121590524547405e-01,1.429217100143432617e+00
-8.368535739214563174e-01,-8.375525097994523938e-01,8.795558543658175132e-01,-1.459863166691443247e-02,5.704130324210259645e-02,2.111096553745875348e-02,1.720174074172973633e+00
-8.005286788847162383e-01,-8.079868751442284003e-01,7.347561408167375685e-01,-1.669969877201591887e-02,-4.784386538232501818e-03,-1.011978369342106387e-02,1.539421319961547852e+00
-8.531398106719148000e-01,-8.571064293822909796e-01,1.010085979262548728e+00,-5.318482577023691225e-03,1.977681425698965892e-02,1.939146659528756186e-02,1.865851879119873047e+00
-8.389507484305391838e-01,-8.574866665572365987e-01,1.009747443216997942e+00,-2.082489585246889881e-03,6.392121355122065175e-03,-9.514989679881886639e-03,1.858145117759704590e+00
-7.090108080394547097e-01,-7.220155838902394541e-01,1.481548735921045523e-03,-4.458115678956943960e-04,2.006691273461807812e-01,9.293624533730961146e-02,8.129727244377136230e-01
-7.520859127264848398e-01,-7.420243540658364445e-01,4.961769320740273548e-01,1.602523115797470712e-02,2.380476605308963836e-02,5.622070961160301888e-02,1.248060345649719238e+00
-9.609646247739160874e-01,-5.795165544152958148e-01,1.036539127381692627e+00,-8.044396246069529868e-03,-1.411405706414123285e-03,3.203809995457002763e-02,1.837623238563537598e+00
-1.759406770282866406e-01,-1.067837488831180570e+00,1.081038082242548937e+00,1.130118188868467488e-01,-4.563743309801684619e-04,1.627796574030035415e-02,1.880340814590454102e+00
-3.148962778697698139e-01,-1.050663856636012472e+00,9.590350416773794073e-01,1.566775115178412336e-01,6.329287823901916243e-02,5.516771535567645268e-02,1.787837862968444824e+00
-8.425622283097887744e-01,-8.200696606876149986e-01,8.585631138696292464e-01,1.249111357798634702e-03,7.777204202900028611e-03,4.481168937524060447e-04,1.690046548843383789e+00
-4.684975465235327596e-01,-9.663804221948217865e-01,1.223606378988645549e+00,1.887632086881723126e-01,-1.202377253506966281e-01,-1.479897081827014904e-01,2.041945457458496094e+00
-4.167304885132948056e-01,-9.459372914831402079e-01,1.000882818609778457e+00,4.365458822950299411e-02,-1.545672437079871619e-02,-5.378958911151534954e-03,1.745399236679077148e+00
-2.050624351896762898e-01,-1.040369212340617411e+00,1.329268897134357585e+00,1.676777374368961238e-01,-2.476662384313849108e-01,-1.022845755480942392e-01,2.152509450912475586e+00
-5.498730381116128108e-01,-9.138534948690935078e-01,1.020775008679681850e+00,2.117785393514212688e-02,-1.435091417931340894e-02,-3.518441745263709767e-04,1.781310200691223145e+00
-4.194293894024453961e-01,-9.991454633327766510e-01,9.988933396765358186e-01,2.643982693857933886e-02,-1.449778020181958409e-03,3.334558939170101377e-02,1.781957864761352539e+00
-9.183031719575303065e-01,-6.763365199079576229e-01,1.054430190137554790e+00,-8.442581635912613583e-03,1.144257967881288571e-02,2.145396216693905289e-02,1.864102125167846680e+00
-7.697785741792009251e-01,-1.071234400168717293e+00,1.234489785041619880e+00,-1.117153999955613486e-01,3.392914207990864461e-02,3.924722763052805596e-02,2.181210994720458984e+00
-4.589452567307678033e-01,-1.022323733517739530e+00,1.185586289881376265e+00,3.691253616428371437e-02,-2.365504069565355257e-03,7.549298852816338501e-02,1.992379188537597656e+00
-4.791008500117507340e-01,-1.169294891755303434e+00,1.222681523108067436e+00,-2.036930310407370284e-02,-2.758267532745105680e-02,-1.956383529994101789e-04,2.133194446563720703e+00
-7.657435138287966847e-01,-7.739688093770129562e-01,5.814956078872242085e-01,9.341791873402021176e-03,-2.695714910478958989e-02,3.332426891198123770e-02,1.353505015373229980e+00
-3.577055198906221589e-01,-1.141800434967092492e+00,1.149345154935305979e+00,1.220007025355053648e-01,-5.039566624209790985e-02,4.929009019557512722e-02,2.031560420989990234e+00
-4.717191247921649344e-01,-1.105052001167363462e+00,1.199908055589792966e+00,-1.303704372256703214e-01,9.895502128602455538e-03,6.944199732989262894e-03,2.074987173080444336e+00
-8.734880471541554003e-01,-8.586383131738897223e-01,1.024889973073072724e+00,3.813500250583207012e-03,1.476416130745270656e-03,1.839452106901034566e-03,1.891012787818908691e+00
-3.152169632166689217e-01,-1.521163991577960228e+00,1.614971879389224485e+00,-6.994423525439796840e-02,-1.966229416847054268e-01,2.803059704018764225e-02,2.764173984527587891e+00
-4.987211237132891939e-01,-1.002952992751642736e+00,1.048385382634361207e+00,-1.706945037588461847e-02,-6.878055703060856167e-03,6.820501353965905712e-03,1.851767897605895996e+00
-5.066183674064335118e-01,-9.537749602295502172e-01,1.014703535887667707e+00,-2.118629901745687494e-02,-1.998055937761165218e-02,1.340733517406495802e-02,1.788217544555664062e+00
-7.685468066178628987e-01,-7.655178403725115821e-01,5.594039747168134680e-01,5.063551343584065615e-04,3.965564745292114723e-02,5.234794128006997616e-02,1.331307411193847656e+00
-7.850155781476325645e-01,-7.941091864840461589e-01,6.424913399693124028e-01,-2.510146826913913203e-03,-8.408277986118040115e-02,-2.747840277089000707e-02,1.440254688262939453e+00
-7.812242097022756848e-01,-8.119040499219047913e-01,5.111420875698771127e-01,4.528666842011437599e-02,-3.421560749629642267e-02,-3.663585460674050141e-03,1.311680793762207031e+00
-8.713109945783396038e-01,-8.726179865307303052e-01,6.760081154015644689e-01,-1.101615729996495603e-02,-1.379543881109742687e-01,-1.104093029675011078e-01,1.578052401542663574e+00
-8.663755253344997964e-01,-8.371190614903816218e-01,9.698535815108650926e-01,5.984119860978038413e-03,8.235333013748164996e-03,1.979417259533135676e-03,1.821865677833557129e+00
-4.197762806284262571e-01,-9.804206831439820080e-01,9.235846938706764320e-01,-2.594888639912040773e-01,-6.700502940440559996e-02,-2.879197544041196127e-02,1.757853269577026367e+00
-5.271439272557144617e-01,-1.182761744077465149e+00,7.939797762786222624e-01,1.225684464346038505e-01,-1.103621057019981144e-01,2.563392900962140758e-02,1.767748475074768066e+00
-1.366568590129215499e+00,-4.846071572739460986e-01,1.594403749553013228e+00,-3.977318459226958924e-01,5.238071528019081977e-03,7.673901498655687214e-02,2.725081682205200195e+00
-8.651426753576456630e-01,-8.648990263273992340e-01,1.073391010408964563e+00,-8.356017414022311098e-04,-1.509196194777580975e-03,-1.130190492051928383e-03,1.938415169715881348e+00
-7.739063206781754412e-01,-7.506849129134939291e-01,9.981910932940136760e-01,-1.039851646171842045e-02,-1.621451208236420177e-03,7.291027233669792988e-04,1.760696411132812500e+00
-8.581660688795590408e-01,-8.083962870726424388e-01,7.376121226641940698e-01,8.584320291656266297e-03,6.553669706566285502e-02,-6.468258264886324327e-02,1.579626917839050293e+00
-8.652804174039039342e-01,-8.612246760357694653e-01,1.045588650981812862e+00,-3.702852608834687059e-03,7.574978522084738729e-03,4.442809617855965863e-03,1.908915758132934570e+00
-7.781011189783295645e-01,-7.690796098484149468e-01,6.078969776658555979e-01,-8.139466383937529054e-03,-2.885467500860090795e-02,-9.415950357744271026e-03,1.382581233978271484e+00
-7.824398608028986235e-01,-7.787711350223667228e-01,6.302051622186535251e-01,1.525516472726234874e-03,-6.971974496341325211e-02,1.088609071899718315e-03,1.415976643562316895e+00
-7.649497580546212872e-01,-7.493327177699675712e-01,4.729303370030270015e-01,8.112305511930350752e-03,-2.091579819436828122e-02,-3.219646859664582195e-02,1.232022166252136230e+00
-8.648226143090296247e-01,-8.599871337500782920e-01,1.067521619229234275e+00,9.241224520249333120e-04,1.418657010896339421e-03,2.265538597713893617e-04,1.929933309555053711e+00
-8.630317275789113340e-01,-8.606449306084131834e-01,1.069956565507019119e+00,1.436485720427177482e-03,-1.909211131798534610e-03,-3.509280138652459994e-04,1.931800484657287598e+00
-8.683202410541021043e-01,-8.569745992072806962e-01,1.029068853597288058e+00,-1.152730209853816863e-03,-1.063349994839335151e-03,-5.433798555867412963e-03,1.891767144203186035e+00
-8.625819227128861399e-01,-8.613450134001761072e-01,1.044531269823714137e+00,2.934165279387595821e-03,-9.544926837900830768e-03,1.815429371299339062e-03,1.906576037406921387e+00
-8.646357930171211237e-01,-8.636999666114604235e-01,1.061202539811514800e+00,3.716023285616416091e-03,-3.961347470775934340e-03,8.233334876733700968e-04,1.925394058227539062e+00
-8.613945382836609710e-01,-8.694120571357329963e-01,9.952296497929158381e-01,-1.179999981767721265e-02,-1.787313849035176289e-02,-1.372180135134047976e-02,1.861167430877685547e+00
-8.756601815342721640e-01,-7.835518005016488541e-01,1.008060632108943144e+00,-1.141498991456318642e-03,1.313903448184030286e-02,1.127587120576558494e-02,1.839642524719238281e+00
-6.646649924467767923e-01,-8.444412789897004501e-01,1.017121782918868567e+00,2.752665539767501501e-02,2.334747806880971190e-03,-1.091747332355584577e-02,1.779246687889099121e+00
-8.415126386401282632e-01,-8.297029971727556408e-01,8.801775120711190503e-01,-1.323666644613001250e-02,-8.745545804068088555e-03,-5.594517039482180785e-03,1.716063141822814941e+00
-8.610152279957679067e-01,-8.516314534241338219e-01,1.025552154852511721e+00,3.826476103509711098e-04,3.992035525646060214e-03,8.036574566136076708e-03,1.881957292556762695e+00
-8.530706741561294715e-01,-8.720086150412681425e-01,1.079227294211650090e+00,4.015323192836995833e-03,3.192319102151339877e-02,8.386611734298124454e-03,1.942690014839172363e+00
-8.588093781565293572e-01,-8.661344879925844120e-01,1.030385122013593335e+00,-6.197239929898867329e-03,6.256114520607590143e-03,3.985644907246957240e-03,1.892941713333129883e+00
-9.135121227419670253e-01,-7.032410994063559295e-01,1.059148121841642753e+00,1.148296067137438009e-02,1.925422951215063211e-02,-2.144081246696696516e-02,1.877151012420654297e+00
-7.523167992078596544e-01,-7.371360417069006132e-01,4.837173518958217677e-01,1.128603725521374473e-02,-4.705413065179096799e-02,7.265464499983278861e-03,1.231433987617492676e+00
-8.178073216053940442e-01,-8.029402590204962609e-01,1.024914951412016384e+00,5.956052654466108265e-02,1.060514625541931523e-02,4.689763605035612154e-02,1.840116381645202637e+00
-8.642635309434169022e-01,-8.084764620494253595e-01,1.044845572608588347e+00,6.943449689094531412e-03,1.468138497006455170e-02,9.716029232369910798e-03,1.882121324539184570e+00
-8.564008376066061246e-01,-8.736713346490332377e-01,1.030495324248979605e+00,-4.211581969632818313e-03,-4.361398470953489585e-03,-2.811455698012651615e-03,1.895625710487365723e+00
-6.669458487077647435e-01,-7.882781168518628867e-01,9.856664150941347735e-01,-3.980498669645623350e-02,1.362786183371348433e-03,-3.533824132790661359e-03,1.717894196510314941e+00
-7.977478390932483121e-01,-8.013925232034331270e-01,7.314510065063519750e-01,-9.473439113377404852e-03,-2.760429601406093770e-03,-8.184407202054480232e-03,1.531185507774353027e+00
-7.435213353367928768e-01,-7.995974350846397627e-01,1.013771803196710453e+00,-9.833081921131404252e-03,-1.101789862386577321e-02,1.242773907144990864e-02,1.786304354667663574e+00
-7.561609781737567149e-01,-7.658710579423630982e-01,1.006801258552187495e+00,-1.473379406149824371e-02,-9.113520805577068548e-03,1.605088495012507721e-02,1.768310427665710449e+00
-7.371033602636490878e-01,-7.684151741889168052e-01,1.002243062310718358e+00,-2.086582462220430007e-02,5.891625278838434707e-04,6.576662593198680435e-05,1.755584120750427246e+00
-9.327200739151743081e-01,-7.786483670441444183e-01,6.329665074752038878e-01,8.946572329182471417e-02,-9.516063716848435772e-02,-3.058319804437357320e-02,1.512570500373840332e+00
-7.842345682508748972e-01,-7.972160051889760624e-01,6.991957708467217980e-01,7.145451274363634822e-03,2.043414796784072222e-03,-7.306617265460514307e-03,1.490072846412658691e+00
-7.658142392454173608e-01,-7.600553898820655574e-01,1.006676888104442558e+00,-3.095794910414987472e-02,1.710088546528384630e-03,1.077831275700667822e-03,1.770434379577636719e+00
-8.312176584102517474e-01,-7.638968256064844198e-01,1.032732072013893498e+00,-1.605841034034910519e-02,2.476394869151679612e-02,-2.817960698928905633e-02,1.832581162452697754e+00
-7.615344800625735155e-01,-7.498593028376957514e-01,9.991943002632919235e-01,-2.211852663705653199e-02,-5.833429007755169989e-03,7.229001976276632109e-03,1.755412220954895020e+00
-7.650329511368813007e-01,-7.326921297242995346e-01,9.975144099269559472e-01,-1.996759808151959623e-02,2.100876208790334633e-03,3.469668253941002312e-03,1.746958017349243164e+00
-7.617838412936632775e-01,-7.652683440427120454e-01,1.008416324732046343e+00,-3.251407645514310663e-02,-8.601787462641235713e-03,1.603765149364324086e-02,1.773119926452636719e+00
-7.627218810106686231e-01,-7.369754431501782665e-01,9.930128231474757428e-01,-2.195118349315465164e-02,-1.144060599864358185e-03,-3.085223096778648248e-03,1.743427991867065430e+00
-7.741097409666971574e-01,-8.994527954971025530e-01,1.080292872476643184e+00,1.715911375851238499e-02,-5.275998662103680015e-02,3.068388905859840282e-02,1.923282384872436523e+00
-5.630107958596428652e-01,-9.162393876448694519e-01,1.036199109975026955e+00,1.409880545966769039e-01,-5.348097209308771928e-04,-1.317441426146151451e-02,1.818593978881835938e+00
-5.341396335966637210e-01,-9.422314091340803222e-01,1.016979408486352154e+00,8.374018990264005258e-02,2.795614469654427933e-02,3.570338941293155210e-02,1.797975063323974609e+00
-8.171670255903396018e-01,-7.873765804664404344e-01,9.972086051821220654e-01,3.930880183535128553e-02,1.166677216342374649e-03,5.305178755927010895e-03,1.800977349281311035e+00
-7.437917576506759554e-01,-8.174161872106606719e-01,1.086888634081118798e+00,6.379550240692030694e-02,5.093305393733130182e-02,1.936608291603970911e-02,1.874222874641418457e+00
-8.456391164000944816e-01,-8.399700976148285481e-01,1.056913097025213188e+00,-6.510256954628462940e-03,-1.203439252917105819e-03,-6.648298843968326183e-03,1.899793505668640137e+00
-8.335987494223535688e-01,-8.427704788750876030e-01,9.010357973156646327e-01,1.378748414474826114e-02,7.705990799888963461e-03,-8.959247697395807813e-03,1.739522933959960938e+00
-7.824344976333365009e-01,-9.419685206175121284e-01,1.077920967526728724e+00,1.699200368180371623e-01,1.028556977190527161e-01,-1.212804120678722189e-02,1.975338220596313477e+00
-8.544944356569358357e-01,-8.529640902689847870e-01,9.630741905582871354e-01,9.898988878506343250e-03,-3.010807609325460987e-02,1.559917360421604962e-02,1.817833900451660156e+00
-8.643910120254684193e-01,-8.636001844959629858e-01,1.066846799888413244e+00,4.800936396454577940e-03,1.723983465621648772e-03,5.418192200592702556e-06,1.930862784385681152e+00
-9.518831189456854469e-01,-7.337189989736541129e-01,1.187478070904411487e+00,1.840534021768879536e-01,-1.846433022046694780e-02,-8.931641491445137249e-02,2.069858074188232422e+00
-8.694190339902885256e-01,-8.574952302647352864e-01,1.029892713992448083e+00,3.927661334610698350e-03,3.457764253782549552e-03,-4.731801636966145516e-03,1.893417477607727051e+00
-9.113505363320772990e-01,-8.459509002773072384e-01,1.064491977246422749e+00,5.114084034773573421e-03,9.460118184976386638e-03,2.248596325671002594e-02,1.944447278976440430e+00
-8.712703938211725507e-01,-8.693898713647325582e-01,9.983819975656262891e-01,-1.801319845475503638e-03,7.459699657437703427e-03,8.027362362586392894e-03,1.868811845779418945e+00
-8.646756406030240427e-01,-8.521633612775736388e-01,1.002346271156859370e+00,1.027413039353543625e-02,5.032566141047595080e-03,-4.861021016386475602e-03,1.860921859741210938e+00
-6.051177569166024117e-01,-9.032573527692464577e-01,1.041924390198494699e+00,-1.388951962990500333e-01,3.990714914493091042e-02,-2.537496579725659687e-02,1.832285046577453613e+00
-8.616336405344884319e-01,-8.591453018497675620e-01,1.059010956626467825e+00,1.781522279273140864e-03,4.192115129870715474e-03,-8.724682574306025576e-03,1.919477343559265137e+00
-8.627642077196763237e-01,-8.594714665710178059e-01,1.022765797895629269e+00,9.149729281406100354e-03,8.158142025980726422e-03,-8.728954400056299426e-03,1.884066104888916016e+00
-8.683682882000676173e-01,-7.849974949157755288e-01,1.006170471251222720e+00,-4.616348174444714902e-03,4.403182939494592642e-03,-9.973295012319739056e-03,1.834389567375183105e+00
-7.585658492960284383e-01,-7.504746126236169212e-01,9.945534407180591785e-01,-7.689686576965472191e-03,8.488540168901031330e-03,1.091014047486885043e-03,1.749201178550720215e+00
-8.695587713714275635e-01,-8.702024910869863294e-01,1.030733215359189270e+00,6.248279445357171093e-04,4.060188399850934646e-03,8.538718535027675638e-03,1.900684833526611328e+00
-8.667809852038524943e-01,-8.601048118912459906e-01,1.043638992624806416e+00,-7.113958483258454174e-03,-6.697032541630201091e-03,3.052316143806201119e-03,1.907173037528991699e+00
-7.926522836131290051e-01,-7.932019297898372789e-01,1.025544209673997065e+00,2.116594125783614541e-02,-1.989622641611313910e-03,-4.763875145523553158e-03,1.818862915039062500e+00
-8.628192116465824846e-01,-8.626309714199850154e-01,1.072775786591738001e+00,-1.889355126367788310e-03,-2.823676358414288923e-03,-7.451564429961037407e-04,1.935510277748107910e+00
-8.403786814236975378e-01,-8.369449557605425083e-01,1.056986215115577998e+00,-1.457614570174014916e-04,2.531264268330828994e-03,2.446373990560625662e-03,1.895660161972045898e+00
-8.722440713042194371e-01,-8.462483732299092010e-01,1.043800785682457599e+00,6.819340911190516826e-04,5.346133492808667446e-03,2.862202011396803095e-02,1.903848648071289062e+00
-8.868009343130730526e-01,-8.456886184541111406e-01,1.048056222839402363e+00,1.414330803205112730e-01,-6.646855904528481407e-02,-5.300132807656412169e-03,1.933691859245300293e+00
-7.533119538564820861e-01,-7.596540171505917760e-01,9.999509386724294568e-01,-3.297940826115874132e-03,-7.904918906515468087e-05,1.949865876351556488e-03,1.756455063819885254e+00
-9.627146764297338510e-01,-6.079350402640941731e-01,9.899109236801917344e-01,2.577304034715227274e-02,3.485428213417401250e-02,1.901053029622439688e-02,1.803492426872253418e+00
-1.073414360421840463e+00,-1.510564668025748680e-01,1.271788429682273902e+00,2.625884973153417290e-01,4.443679358371698668e-02,1.288036518002157460e-01,2.109539508819580078e+00
-8.578661073067637144e-01,-8.428001164695149150e-01,1.065203878499768830e+00,-1.760313056530622526e-03,-8.854826990305665266e-03,2.630337897304722665e-03,1.915650725364685059e+00
-1.115118931567116833e+00,-1.346225725162232267e-01,1.091417317067520765e+00,-1.248276593268135559e-01,9.254469330014170048e-03,2.959149406752871470e-02,1.927771806716918945e+00
-1.068084750569897823e+00,-6.328952348933647443e-01,1.187685802936696788e+00,3.882574856448624961e-02,2.784288359534048754e-02,-1.280966381400137390e-02,2.074498414993286133e+00
-8.519065715395897076e-01,-8.523458806396236875e-01,9.778854375405439114e-01,-1.018369957188080405e-02,-1.363609181998671170e-02,-1.277617243719029148e-02,1.830382823944091797e+00
-8.647247959256112448e-01,-8.687557592115139338e-01,1.067981262596463310e+00,-3.177753646317232547e-03,-4.361541762045311431e-03,-1.972659784902867832e-03,1.934750318527221680e+00
-1.168458144586522529e+00,-2.559926303882378851e-01,1.390164738034132208e+00,-1.002370662843013807e-02,-3.622996782762918228e-02,-3.319251064635007908e-02,2.247673034667968750e+00
-1.096611270665375226e+00,-6.333402082281738288e-01,1.208183347400647145e+00,4.843665547868373361e-02,5.302595201299574457e-03,-1.964834983402475796e-02,2.113583326339721680e+00
-1.114451224058462975e+00,-2.668720258987259397e-01,1.117068179752852775e+00,-1.424702028921276398e-01,4.218733192017195405e-02,-2.286517978358706682e-01,2.007425546646118164e+00
-8.370724150264110541e-01,-8.493891476115517092e-01,9.253580562657681696e-01,-1.279989051542942610e-02,-7.694308521099302994e-03,-1.020090956524328032e-02,1.768898367881774902e+00
-8.619794821914968930e-01,-8.714579401402565706e-01,1.052520866536392541e+00,-3.990627379838981512e-03,-5.580738739274500142e-03,-1.641115658087270940e-03,1.919296026229858398e+00
-1.136998004661340378e+00,-4.720762566271438643e-01,1.173008006274049553e+00,-1.132235267211125773e-01,-3.497803879446918784e-02,9.202585524069838152e-02,2.076008319854736328e+00
-8.533192343982735073e-01,-8.682086546298714014e-01,1.008275443623851020e+00,1.175903780167474738e-03,-6.000372584682994205e-03,1.970972800619031490e-02,1.869425654411315918e+00
-8.506016518347923050e-01,-8.696790194941910190e-01,9.915103763188732877e-01,3.231595706793747528e-03,-4.804183093485580452e-03,-4.944793679829665931e-03,1.851771354675292969e+00
-8.592638946304650416e-01,-8.574118878087967355e-01,1.029306004328334190e+00,-1.278417963196703611e-03,-6.349145618496112448e-03,-7.706888991742742896e-03,1.887725114822387695e+00
-8.463932865690195761e-01,-8.312981324269400618e-01,9.616676611263126340e-01,-3.348309513138135549e-03,3.667009938236749731e-03,2.075356107515023002e-02,1.800940155982971191e+00
-8.578976051960833793e-01,-8.697410338055568957e-01,1.023699975430091946e+00,1.509439686737659367e-03,-2.616993564971225802e-03,9.509319120844924797e-03,1.887626290321350098e+00
-8.563151042936898438e-01,-8.680634788096039944e-01,1.028447146888199493e+00,-1.477942070422259488e-03,-4.360982150991551086e-03,-1.877848719516566440e-03,1.890683412551879883e+00
-8.877596823333420151e-01,-7.830181998731349235e-01,1.020951577734821925e+00,4.088915812178467099e-03,-4.080538269711125703e-03,-1.485780778345570548e-02,1.858760476112365723e+00
-8.716597518696812541e-01,-8.474087913798761251e-01,1.046377735962649602e+00,-2.155417416362247814e-03,-3.878581214260827699e-03,1.273192250832608577e-02,1.906170725822448730e+00
-8.245956324296780382e-01,-8.451098537756098761e-01,8.757147013422217352e-01,-6.052632034145984281e-03,-4.503140491153126944e-03,-8.312264930650735059e-03,1.710770130157470703e+00
-8.479542664711118283e-01,-8.635152562062531345e-01,9.946211548364898292e-01,-1.142148254552200620e-02,6.516720014315029348e-03,-1.606503709877932923e-03,1.850547194480895996e+00
-7.492772912925202977e-01,-7.655442940669672236e-01,9.992072753580176769e-01,-1.998070222326420523e-02,5.039912861179757404e-03,-6.506318582025285256e-03,1.757073283195495605e+00
-8.693268754648938446e-01,-8.563270935904391257e-01,1.025870873386711013e+00,8.473683981064107206e-04,4.403812990073837155e-03,-9.456043803581061849e-03,1.888818383216857910e+00
-8.669330010744024095e-01,-8.625019796774668901e-01,1.039573077295312009e+00,6.015553295939550515e-03,-7.861192507330475726e-03,-5.970874970630758640e-04,1.904371857643127441e+00
-8.630761051102098236e-01,-8.609900850283643825e-01,1.040358385233723482e+00,3.249822353477742603e-03,3.560205639705541999e-04,-6.546158015152249952e-03,1.902434587478637695e+00
-8.513268991781509643e-01,-8.718090811391610018e-01,1.013685941457420192e+00,1.366117648539867451e-03,2.222866742660581027e-03,-3.971133209555511787e-03,1.875355839729309082e+00
-8.518805676475275090e-01,-8.707163627503878844e-01,9.986075881841611768e-01,6.157683935401535476e-03,4.218494942625219783e-03,-3.172290240241833290e-03,1.860030651092529297e+00
-8.177719835494017264e-01,-8.576465923936055225e-01,1.046498422872136569e+00,-1.772757507383728240e-02,6.278765237701606182e-03,-2.419918511789970542e-02,1.885271668434143066e+00
-8.655093680626989583e-01,-8.704673959462583266e-01,1.064255432915937272e+00,5.250067242715619927e-03,4.735697072105830505e-03,-3.568764301021656697e-03,1.932297229766845703e+00
-8.375637979592189808e-01,-8.550452387333538073e-01,1.011230148644467919e+00,-3.001100805535515388e-04,-1.170490209457661530e-02,-8.019109161729391991e-03,1.857758998870849609e+00
-8.610170112495055816e-01,-8.671197577724493177e-01,1.045345151746675860e+00,4.745348547474619386e-03,-1.567714140871536441e-03,4.072531401586575520e-03,1.909453511238098145e+00
-7.531871673462436911e-01,-7.704293993672759466e-01,1.001357307908811167e+00,-5.278273398466509780e-03,-2.012157943159255651e-03,-4.138042117080645288e-03,1.763270497322082520e+00
-8.542074407077089315e-01,-8.547719271293119370e-01,9.829805659370576265e-01,1.187378378320973898e-02,8.859087392919514498e-03,-8.244279375486430333e-03,1.837704896926879883e+00
-8.643505618441525984e-01,-8.625040280499903789e-01,1.056352927716544876e+00,4.721866576662181458e-03,3.804954408659042518e-03,-8.127416191723546915e-03,1.919861197471618652e+00
-8.675992303922479554e-01,-8.630092711941697026e-01,1.056653114177090957e+00,2.600463413098247356e-03,2.204892556892701187e-03,2.210966366721707661e-03,1.921974420547485352e+00
-2.929527097402768732e-01,-9.475223624879605122e-01,1.148378701891152431e+00,3.366126142666996945e-01,-8.322850117026540928e-02,2.925786159559244995e-02,1.952593803405761719e+00
-6.534695746177286990e-01,-7.670632268858813552e-01,9.937515947468236188e-01,1.277615619757600518e-01,8.580756878699847406e-03,3.037949250610972804e-03,1.721212506294250488e+00
-5.857617305024815924e-01,-9.151354198909310567e-01,1.123879557137924312e+00,2.935928153040022748e-01,4.164650951282591190e-02,7.014693988470328823e-02,1.968000650405883789e+00
-7.383412296703609767e-01,-7.338298894357595525e-01,9.903708139104019370e-01,5.953083630318679875e-02,5.893155331723234566e-03,7.487677599659751417e-03,1.729615807533264160e+00
-8.677420011740583083e-01,-8.579627819568345082e-01,1.024015023587826034e+00,7.484606751318359508e-03,8.352721303000389119e-03,-8.795534657992768596e-03,1.887047886848449707e+00
-6.573793617360761399e-01,-8.547244923584732534e-01,1.077154240882912228e+00,2.846121607478123705e-01,2.987417362856502334e-02,3.478188510814437390e-02,1.907661557197570801e+00
-8.628917115752741118e-01,-7.784689821811896504e-01,9.958060973494309298e-01,-1.141133955069391359e-02,2.488945058674051081e-02,5.601222362575181352e-04,1.818575978279113770e+00
-7.656675286358282095e-01,-7.708958134915049332e-01,1.006410483909955245e+00,-2.372261353118773446e-03,6.083732770742694175e-03,-8.298907710765614232e-03,1.774792194366455078e+00
-7.524336737322225854e-01,-8.484440853517819514e-01,1.098061545167347441e+00,1.580525193473530376e-01,7.535253797249833428e-03,-5.624285199839650822e-04,1.919981837272644043e+00
-8.217846539496249658e-01,-7.960884974142996562e-01,6.741791424640933839e-01,-3.192323501648866493e-03,5.603689099588293060e-02,-4.786350601934132726e-02,1.488775014877319336e+00
-8.617373478720955493e-01,-8.597455859670770639e-01,1.063924051120452186e+00,1.208480295501463200e-03,-1.596993902815769520e-03,1.255754435602321343e-03,1.924670696258544922e+00
-8.669921771345507899e-01,-8.657596319889296899e-01,1.073535665048615639e+00,1.950230310286303441e-03,8.888264433202035762e-04,-3.594154829031929381e-04,1.939915537834167480e+00
-8.688501715696069772e-01,-8.659367641807487193e-01,1.070803990290400298e+00,-3.335111357345957924e-03,-3.742676644283711679e-04,-2.707195021656893207e-03,1.938213467597961426e+00
-7.222677065457308032e-01,-8.710405765446166404e-01,1.046939470173708475e+00,4.871670181290174012e-02,-9.482212868389065796e-03,-2.070277869729178835e-02,1.850435853004455566e+00
-8.512034329970554758e-01,-8.519936460063236572e-01,9.473101971143775835e-01,-1.638944977190889829e-02,-1.255538188616291996e-02,3.008813439183399135e-02,1.800018787384033203e+00
-8.151620340542169441e-01,-8.459263626982463924e-01,1.053580967794371936e+00,4.075236282648156058e-03,2.769639744513299924e-03,-4.815993955396979595e-03,1.884351372718811035e+00
-8.239354224264564541e-01,-7.835343092470583581e-01,1.039604299476383886e+00,4.315129020975526017e-03,-1.569340288190925956e-02,-2.019287414350188006e-02,1.844218373298645020e+00
-8.475868505015802246e-01,-8.543763398750798821e-01,1.048431658958699941e+00,6.180275051857392343e-03,5.021575045835133776e-03,-3.419328686314222591e-03,1.899481654167175293e+00
-8.628375395631193712e-01,-8.555273356666667217e-01,1.069381713878518658e+00,-7.487829735107059959e-04,1.470489030197877139e-03,-1.818993908308104814e-03,1.928579211235046387e+00
-8.638395812113449646e-01,-8.632581775308403316e-01,1.072507294465835148e+00,-3.373308595978103883e-03,9.795811422426241311e-04,-2.810204480512579119e-03,1.936071872711181641e+00
-8.467796545592489732e-01,-8.480253272678742738e-01,1.045788968671255370e+00,3.329554226113130150e-03,4.866138816073902786e-03,-3.952228057180886232e-03,1.893231630325317383e+00
-8.651570811148761031e-01,-8.627786144964632031e-01,1.073745233072442407e+00,-1.609139462615427401e-03,-4.071473332297393527e-03,6.028911499229751151e-04,1.937729239463806152e+00
-8.221005229159498162e-01,-8.209077652669248826e-01,1.045661942759522178e+00,9.717932739686236179e-03,9.380983379098492905e-03,-1.770093451178481438e-03,1.867315411567687988e+00
-9.504182567723463704e-01,-8.577498716016913605e-01,1.220944953414194734e+00,2.072699192352960851e-01,-8.075517336213047792e-03,4.379244117653247059e-02,2.158013105392456055e+00
-9.744685069630511232e-02,-1.522517398929619237e+00,1.362143788849519588e+00,-1.368723319096075974e-01,4.787934322303463025e-02,-8.091045112520232896e-02,2.514750480651855469e+00
-8.437103487522253920e-01,-8.242773774616352078e-01,1.043939711675727855e+00,1.986011919072322787e-02,-1.392405228098302604e-02,-1.049404596866016642e-02,1.878566741943359375e+00
-8.149652755983799457e-01,-8.254202023349942463e-01,1.048881269929275106e+00,9.078373538925588876e-03,1.866994219918218260e-03,-1.875312638588090206e-02,1.869447112083435059e+00
-8.634861642386567615e-01,-8.643091399508855410e-01,1.058717751032440368e+00,-4.488334050631931013e-03,-4.849779756853229637e-03,-4.747714733299122046e-03,1.922667145729064941e+00
-5.608167533349519562e-01,-1.081918652247819912e+00,1.306974977554407280e+00,-2.471751780728125847e-01,-3.704977882996451227e-02,1.852497958280762899e-02,2.218544006347656250e+00
-8.575773055977681247e-01,-8.364197431214820400e-01,1.056094234656929531e+00,-3.848559380304661989e-03,-1.311254596629127071e-02,4.541533165818391403e-04,1.903328299522399902e+00
-8.638600091633557021e-01,-8.640298693929613361e-01,1.068084580902881608e+00,-1.247253569220383102e-03,-2.176593985247594117e-03,-1.072052314743861170e-03,1.932035326957702637e+00
-8.598970668544324569e-01,-8.665812238651692256e-01,1.037611877314833952e+00,-7.429528874945470589e-03,-7.125607837705038097e-03,-6.307865666872107188e-03,1.900974869728088379e+00
-8.462864932909598403e-01,-8.545395836037044113e-01,1.065192147770073872e+00,6.812802772028694193e-03,3.900695333732995696e-04,2.375479867070486376e-03,1.915659427642822266e+00
-8.538662750256486023e-01,-8.558177752752715861e-01,1.064504170616378254e+00,-3.900939826062222934e-03,-6.370221621946346550e-03,5.536788709477040438e-03,1.919414520263671875e+00
-4.820040326717021095e-01,-1.139245468119010063e+00,6.060817928674305799e-01,2.098847093646934447e-01,1.740829041005620137e-01,1.820004570818405387e-01,1.628948688507080078e+00
-7.549941941894086073e-01,-7.780467389791156929e-01,5.864174925937647442e-01,-4.003427134699467341e-04,4.870541228691026119e-03,7.941385690066384007e-02,1.360084891319274902e+00
-8.101717659349884082e-01,-8.111810784776743999e-01,7.708231751075855787e-01,1.520478844748524364e-02,-3.587314483209832344e-02,-1.407296607407886556e-02,1.583126664161682129e+00
-8.357933846536955702e-01,-8.493599793668078490e-01,9.179255932329704049e-01,-1.019529910247161941e-02,1.772289312185709731e-02,2.395608634150947144e-02,1.761386394500732422e+00
-8.570264350071158388e-01,-8.600068659857958986e-01,1.065381201115266130e+00,3.487743997472758000e-04,3.877936519351770587e-03,5.845484472552971329e-03,1.923938035964965820e+00
-8.627264097119529129e-01,-8.601340021387328116e-01,1.071692862551151482e+00,-6.724832157801115089e-03,9.429541471942991249e-03,3.132779218403277267e-03,1.933236122131347656e+00
-8.470041285646580098e-01,-8.688169984566495030e-01,9.840060773371164249e-01,-4.303688493341096231e-03,-2.729935497325085367e-03,-4.752020107512249132e-03,1.842053055763244629e+00
-8.565302215625769655e-01,-8.589613736980078462e-01,1.063348991147935019e+00,-8.101620904444883648e-05,7.002849027040787371e-03,6.622883531691353470e-04,1.921134591102600098e+00
-8.406980538490546051e-01,-8.711222775878706415e-01,9.825596827397378163e-01,-2.354524980449068054e-03,-4.618712066034823954e-03,-4.036051655011971447e-03,1.838693857192993164e+00
-7.185914432917226424e-01,-9.108059634015573947e-01,8.560540028044483218e-01,2.038938041966764994e-02,-5.320191317081582327e-02,-4.289342635742785653e-02,1.683562397956848145e+00
-8.682045373911048136e-01,-7.476370655779223107e-01,9.421921777492381356e-01,6.092985463478787882e-03,-4.243400838279051679e-03,-4.722433100757839411e-03,1.753291249275207520e+00
-8.667965124837991864e-01,-8.493493903688017488e-01,1.054747536709470968e+00,-2.717550952831306044e-03,-5.200992547421339797e-03,1.074205368789705323e-02,1.912997603416442871e+00
-8.755270958100371814e-01,-8.182493569961257762e-01,1.054389561680629583e+00,2.722731124098593317e-03,1.456149519325557716e-02,3.660640049276685931e-02,1.903154253959655762e+00
-8.456590945157965722e-01,-8.700978528892550079e-01,9.772946289952988419e-01,6.104814273783871949e-04,3.289388440661342346e-04,-7.066962673294509105e-03,1.835336327552795410e+00
-6.931826025910869937e-01,-8.147474786640951372e-01,6.251774891494703557e-01,4.522413694620303765e-02,-9.661901801521151356e-02,-2.079686195344939911e-02,1.395907044410705566e+00
-8.368860658643558770e-01,-8.212146204619013012e-01,8.075628285362856928e-01,-8.533052896480727498e-03,-7.324329797183617985e-02,-1.815707407234763010e-02,1.641946434974670410e+00
-8.495866196288019978e-01,-8.651345661200767756e-01,9.957678927697370952e-01,9.972628336507114583e-03,3.549497039132714412e-03,-4.815500445925158246e-03,1.853286862373352051e+00
-8.607683962408552159e-01,-8.400891425390444311e-01,9.299910121541485886e-01,-7.563520757040788356e-03,-3.026587818833168658e-02,-1.800898825528616035e-02,1.781602621078491211e+00
-8.296993036008553091e-01,-8.149271449798153322e-01,8.037103314548508237e-01,-1.575063324336601137e-02,-5.953330320388922070e-02,-3.339638909428756935e-02,1.630594730377197266e+00
-8.108086681628547954e-01,-8.521606412019532284e-01,8.283236055130707154e-01,-1.102709607559576935e-02,1.150979586008107729e-02,-3.137207212291685116e-02,1.661312937736511230e+00
-8.784043010056549194e-01,-7.324978542899542866e-01,8.758364176079751484e-01,2.229184128459219677e-02,4.249088451755538703e-02,1.985944870217707658e-01,1.722765445709228516e+00
-2.711231643418788861e-01,-1.376687040938730844e+00,1.127224536325510895e+00,-7.256221168027252033e-02,-2.493885367752472770e-01,1.928360929707091109e-01,2.244448184967041016e+00
-8.404593346163278245e-01,-8.952595265306306782e-01,1.064731827062755709e+00,-5.267256822860048870e-03,-1.766191244679259434e-02,-1.133286290228392810e-03,1.933438420295715332e+00
-8.630158779414096593e-01,-8.643107888148157114e-01,1.071261977056368497e+00,2.415289324618867962e-03,1.942849755084025164e-04,-3.834126742084424059e-03,1.934941530227661133e+00
-8.363911994744641643e-01,-8.457737942324765612e-01,1.058007291379684967e+00,-1.180552266112357054e-03,7.206658181838635630e-03,2.951854534163551782e-03,1.899156212806701660e+00
-8.624371834071614673e-01,-8.649645003009348576e-01,1.048985328096157632e+00,4.782777581644529624e-03,5.729136999230363507e-03,-3.363882268546620601e-03,1.912739992141723633e+00
-8.571273408898647528e-01,-8.468694759595296606e-01,1.068927060318002109e+00,-3.929209475709693339e-03,-2.466205302157645652e-03,3.598530255839439002e-03,1.920972943305969238e+00
-8.591411375119899496e-01,-8.660174426142570603e-01,1.055535145129634644e+00,-8.580290188816215070e-05,3.036449492025482082e-04,-5.269323206633850891e-03,1.918145418167114258e+00
-8.654057107608178478e-01,-8.587228528676673633e-01,1.061393646802807122e+00,-1.371129355747544715e-03,3.823034242277593715e-03,6.189392523945434939e-03,1.923509359359741211e+00
-8.656421316381464059e-01,-8.685473726961150387e-01,1.074052235859289439e+00,1.271508654228700914e-03,1.835624424147015146e-03,-2.229521148046541106e-03,1.941156268119812012e+00
-7.390806820795394749e-01,-7.671617163797486150e-01,9.956005946804573625e-01,-2.038782009210947030e-02,-2.910977499998289222e-03,-2.241073339917369536e-03,1.749258875846862793e+00
-8.648301831014206797e-01,-8.643835013817139368e-01,1.076090329742793283e+00,-8.655492610281350502e-04,-7.604065584568030940e-07,3.449401561311009768e-03,1.940706968307495117e+00
-8.600158134321778114e-01,-8.586248651669550203e-01,1.066571043342824154e+00,4.693957419953394446e-03,1.142574471876596671e-02,-3.517174157571154990e-03,1.926020264625549316e+00
-8.377645227923884441e-01,-8.683833183396396649e-01,7.757534202066347362e-01,5.421988164359198281e-02,4.434750002704709870e-02,-2.001058608215019741e-01,1.669918656349182129e+00
-7.717022211291748590e-01,-7.679993765293176011e-01,6.050754010943921735e-01,-1.600214044565005525e-03,5.696061754756902469e-03,-7.488314186679799478e-02,1.381071925163269043e+00
-8.419408388053244430e-01,-8.381806589782506700e-01,7.615750482778795849e-01,-1.544601055964310576e-02,-1.395207078565408043e-01,-2.676687402741882368e-02,1.620651483535766602e+00
-7.856221281843673854e-01,-7.906392761448688411e-01,6.556266933196188695e-01,-1.476873976987542851e-02,-2.472084679119707085e-02,-1.129944268334342724e-03,1.444626569747924805e+00
-7.726740434644059352e-01,-7.817244287283657833e-01,6.405343275920277746e-01,-6.904393235276926402e-03,-5.083057852844864027e-02,-1.343184731016086771e-02,1.420727014541625977e+00
-8.366766071801449156e-01,-7.948719307759026798e-01,7.734766814242504118e-01,-6.510769153406364453e-03,-5.682683963942949945e-02,-2.322736704161711303e-03,1.592752456665039062e+00
-8.635235986127444141e-01,-7.941412564653547168e-01,1.056692059997206501e+00,-6.097139407819369972e-03,1.623993990082346281e-02,1.459105547837119890e-02,1.886890172958374023e+00
-8.680489086893359296e-01,-8.643867735127049867e-01,1.069256449747486792e+00,1.201326660603719903e-03,2.344484547509326049e-03,-3.581779540100986283e-03,1.935492157936096191e+00
-8.450783367036722726e-01,-8.579756836731430303e-01,9.780878955788134821e-01,-1.647098006081679483e-03,1.748075672537267172e-03,-1.407679475663925657e-02,1.829816222190856934e+00
-8.640887211015414460e-01,-8.573742371263404216e-01,1.038882494526561118e+00,1.890689926466408233e-03,5.897310934765968848e-03,1.280870443778305175e-02,1.899782657623291016e+00
-8.653943711632325897e-01,-8.342915162376794980e-01,9.809473074079173571e-01,-3.404803092368075945e-03,1.403329518736100463e-02,1.338490237007907563e-02,1.831305980682373047e+00
-8.591782157201014458e-01,-8.663183660211541959e-01,1.019262073200800200e+00,-1.044015929531600176e-02,-5.427805550732886335e-03,5.476161250814440620e-03,1.882154822349548340e+00
-8.617974700988706438e-01,-8.545486774677985009e-01,1.013854149694544571e+00,7.899757412526218353e-03,4.785360709055030623e-03,-1.205435748886264820e-02,1.872222542762756348e+00
-8.507782024236749674e-01,-8.468375414026048098e-01,9.593435911966514684e-01,-1.039686975531014385e-02,-7.805513495278348750e-03,-3.110133497465577754e-02,1.809097051620483398e+00
-8.542315052047779744e-01,-8.549375285619289500e-01,1.012474286276041635e+00,2.641854015700369294e-03,5.978007581016940531e-04,2.225854890588702378e-03,1.867068767547607422e+00
-8.646822860444256520e-01,-8.628335622366284374e-01,1.073408323046227242e+00,2.603357250173049964e-03,4.647766697719313105e-03,-6.278807148374286563e-04,1.937189221382141113e+00
-8.563301845336314111e-01,-8.606888954799630786e-01,1.037534751243027742e+00,-2.611151907215005299e-03,-2.197533625891007550e-02,-7.402908412356860174e-03,1.896478772163391113e+00
-8.216547681275898629e-01,-8.012333927075305784e-01,1.040974557699165581e+00,-5.019790405734573212e-03,7.469364715475836601e-03,4.146139351773878330e-03,1.852582573890686035e+00
-2.880364662777109008e-01,-1.047169806854808982e+00,9.935825337576420502e-01,-7.362197405470440048e-02,-2.926479797460921350e-01,3.295446489653806182e-02,1.862309694290161133e+00
-8.500718725785320062e-01,-9.179898236989231242e-01,1.073887878571875953e+00,1.734498675976603455e-02,-3.184035391065320741e-02,-2.771698167225289128e-03,1.959814429283142090e+00
-8.665229454597508374e-01,-8.636369589808725600e-01,1.075233071658047823e+00,1.564134861787861569e-03,2.464900057483788466e-03,-2.280131476785805193e-03,1.940325260162353516e+00
-4.173670015495776209e-01,-1.024624440557604821e+00,1.028118650671581369e+00,-4.115210522759652628e-02,-3.853156977474982842e-02,-4.136216164869999448e-03,1.829086661338806152e+00
-8.691255979646120844e-01,-8.142447682171297663e-01,8.403049946959546546e-01,5.977000860021542371e-04,-2.490205603380742441e-02,-1.310228604148085986e-02,1.683367490768432617e+00
-8.484805148392280394e-01,-8.405100791556257001e-01,9.180061500316800682e-01,3.369778207455796388e-03,-3.440332510438067620e-02,-7.357253407417113839e-05,1.763531684875488281e+00
-8.695597776156152037e-01,-8.585931717287825782e-01,1.029491797835782263e+00,2.849530217286397934e-03,-8.388453007518260895e-03,-1.815855559794419703e-03,1.893656849861145020e+00
-8.616744378809441107e-01,-8.537169185809533323e-01,1.029630299942198679e+00,-1.525554954007922502e-03,4.193360222144109674e-03,-6.523320635971981661e-03,1.887388229370117188e+00
-8.639457050210147537e-01,-8.484686773606615606e-01,9.891332748092467320e-01,-2.485193616612948325e-03,-1.225922162763122200e-02,-1.783460915908327430e-03,1.845518946647644043e+00
-8.596781348873028250e-01,-8.654304568471553605e-01,1.043943476291852246e+00,2.936669763614083248e-03,7.502510661492791527e-03,-3.842805646002764655e-03,1.906566977500915527e+00
-8.630127057837971849e-01,-8.681340803686529162e-01,1.063011262792106226e+00,3.026172488374146395e-03,-4.244008221040291608e-03,2.097509245685875458e-04,1.928610920906066895e+00
-8.540361485444162293e-01,-8.262490108999204219e-01,8.988698068116147688e-01,3.451025559708268808e-03,-4.215703019426163267e-02,-8.196287968118555175e-04,1.740721821784973145e+00
-8.528462116773118940e-01,-8.626210457886555050e-01,1.006787025421883808e+00,-4.233512518885955075e-03,8.835420902203497753e-03,1.351784677903314184e-02,1.864764094352722168e+00
-8.651131903178401750e-01,-8.527953001716841452e-01,1.001299690249467966e+00,3.476253409112842890e-03,-1.143031078301337891e-02,5.101250038987514487e-03,1.860420584678649902e+00
-8.591304606619731832e-01,-8.553391008949045027e-01,1.023564328476900265e+00,6.503481128999314027e-03,3.251282422845838509e-03,1.728904264646106623e-02,1.881082534790039062e+00
-8.303657770008792127e-01,-8.409426820516090473e-01,8.866375638317425256e-01,-3.476952846589504396e-03,3.546257659337915570e-03,-4.276033113481884224e-02,1.723929286003112793e+00
-8.641029641886003310e-01,-8.692599654938608644e-01,1.069675008365198687e+00,1.384915243394412715e-03,5.625891111749464768e-03,-4.305590961543658696e-03,1.936401963233947754e+00
-8.704101202670211368e-01,-8.621999978698856593e-01,1.050718001609680430e+00,1.210846609760894352e-03,3.933504871803364736e-03,-6.427800845036929327e-03,1.917081832885742188e+00
-8.540043903092758848e-01,-8.489669539105457741e-01,9.884548958095091820e-01,-4.058495031303970338e-03,-4.732925607161420772e-03,-1.772678491060374409e-02,1.840233564376831055e+00
-8.640078356555636052e-01,-8.579086550373934417e-01,1.031106740626406060e+00,7.763750572877071987e-03,1.103516942581356198e-03,1.035727226757177620e-02,1.892206192016601562e+00
-8.203338140338528595e-01,-8.573342179305427635e-01,1.050245411132733730e+00,-1.153265022216982266e-03,-1.126516040809894155e-02,1.328468136520159076e-02,1.889593124389648438e+00
-6.720838864804808965e-01,-8.604083562003150831e-01,1.016852591143595719e+00,-5.266245350332397074e-02,1.385667128747613067e-02,-2.561248464334496544e-02,1.793573141098022461e+00
-8.113259452633344582e-01,-8.481835619423712114e-01,1.054828539449397029e+00,-1.203287009591144001e-03,9.727951501779616428e-03,1.422359457771578926e-02,1.885091066360473633e+00
-8.365306270806019961e-01,-8.156874661954170991e-01,8.779733489632406407e-01,-2.215351745434806716e-03,1.464927909513188097e-02,5.308195101484512735e-02,1.706849217414855957e+00
-7.756012354869571412e-01,-8.162987272843079678e-01,1.027192511180427426e+00,-3.700556336183138950e-02,-5.284564875629330603e-03,1.697630500020913535e-02,1.824869155883789062e+00
-8.155604474120659031e-01,-8.208620212682564699e-01,1.045708249264649892e+00,4.558932384302661657e-03,4.365829915828587336e-03,7.594163298608068956e-03,1.864003658294677734e+00
-8.508116094799952345e-01,-8.246233721572703290e-01,1.054262526475665096e+00,-6.531153626500992189e-03,-1.482117089341154076e-02,1.242305541325926591e-02,1.892446279525756836e+00
-8.558556098708118842e-01,-8.478574354314256656e-01,1.057672144079634835e+00,-1.567485444417584736e-03,2.585915966796219299e-03,-6.488947598575312697e-03,1.909581542015075684e+00
-8.628847701951428695e-01,-8.662481233275312054e-01,1.072891124756974568e+00,-2.472809838219669747e-03,-1.726358389742258968e-04,-4.278919362827234354e-03,1.937478661537170410e+00
-7.798792976928656806e-01,-1.070151452288589322e+00,1.010193219272829124e+00,-1.012401690316113850e-01,-1.081668550936260714e-02,7.745816943928992247e-03,1.959465622901916504e+00
-7.318518400510850563e-01,-8.971725855234525815e-01,1.056952852164765533e+00,2.283142914701729795e-02,3.185069409257354489e-02,-2.339852770033569365e-03,1.878164887428283691e+00
-6.104097542325390702e-01,-8.562797774901559356e-01,9.129047790792148565e-01,-1.293288505711791547e-01,-5.990403170822911072e-02,2.056621826116734886e-02,1.678597331047058105e+00
-8.133069779365491581e-01,-8.620624799266168869e-01,9.283989054337840052e-01,-1.533876307138361088e-02,7.290370162525559861e-02,-4.691122541440616300e-02,1.773157358169555664e+00
-8.536902877678176349e-01,-8.431291856152851594e-01,8.262082992606061271e-01,1.075471421021407560e-02,9.137817988344085207e-02,-4.569114814489452780e-02,1.684069275856018066e+00
-8.769493080345946989e-01,-9.364334870441235470e-01,1.150458388739621141e+00,-1.625049855023832368e-01,2.369252535922662228e-03,-5.313979062934087033e-02,2.078997611999511719e+00
-8.553096937765453101e-01,-8.696793967531111225e-01,1.021728840975248964e+00,1.081772300462199117e-03,-1.714530719634689646e-03,6.526719766235242193e-03,1.884301662445068359e+00
-8.835090599126422806e-01,-8.722927773898512260e-01,1.029494481634895431e+00,7.659753877575271614e-05,-6.542535345113345384e-03,1.812544698949355992e-02,1.907712101936340332e+00
-8.557812359092344945e-01,-8.736664239323385095e-01,1.027064306190411447e+00,1.639707770101229544e-03,4.798200370607955643e-03,-5.939327026269691605e-03,1.891899943351745605e+00
-1.076288064246244236e+00,-6.151996354266054956e-01,1.057293132256189816e+00,1.317744882000283779e-01,4.265246844953991118e-02,-8.228024659380966943e-03,1.959274411201477051e+00
-8.674210048620932811e-01,-8.257849587362094956e-01,1.004497884965797061e+00,-4.589467673378017261e-03,6.337612790883848275e-03,-6.315007992719115330e-03,1.851533889770507812e+00
-8.543172785664476798e-01,-8.708059588880201485e-01,1.023918371194827870e+00,-6.630279166798858136e-04,4.849065021801997766e-04,6.517977211136128865e-03,1.886568307876586914e+00
-8.726006150889827895e-01,-8.547738739797183793e-01,1.003536905892492337e+00,-2.094927172849605623e-03,1.325771483159077398e-02,2.514674099825856511e-03,1.867437720298767090e+00
-9.040077600754193865e-01,-7.903994574741790569e-01,1.039699077040242559e+00,4.023015683072565102e-03,-4.260343484308048295e-03,-2.423972200682077225e-03,1.889497995376586914e+00
-8.578670339228773312e-01,-8.716242522942495574e-01,1.024328000017455720e+00,3.285736904674093489e-03,3.744046223644129643e-05,3.785776432238964918e-03,1.889131188392639160e+00
-8.715086462096003350e-01,-8.741764722999322279e-01,1.044158183588906219e+00,1.913588971503755835e-03,-1.464540156376231261e-03,1.765790101444389935e-03,1.917009115219116211e+00
-8.550988994922924524e-01,-8.748182293972192047e-01,1.020856570370124450e+00,6.053075094789895109e-04,1.882201926747605752e-03,-4.392251721461991505e-03,1.885910868644714355e+00
-7.823866060743047690e-01,-7.731645542620144695e-01,1.013930334012618895e+00,-2.444661307989001806e-03,1.927971020752059688e-03,2.922801095119607982e-03,1.791738986968994141e+00
-8.963560382890861655e-01,-8.179678585585409278e-01,1.047865319243944660e+00,-4.614863893363773013e-03,-8.951978687367898035e-03,2.806848394613979669e-02,1.906936049461364746e+00
-8.598980766957047273e-01,-8.623190560359654810e-01,1.046016547997760338e+00,-4.036363314618062782e-03,5.502114366520071895e-03,5.574130329657882646e-03,1.907187342643737793e+00
-8.974182955142632201e-01,-7.227152075385587793e-01,1.052880097085370226e+00,-8.792254270789249745e-03,2.376230082925041842e-02,-3.666738384681565016e-02,1.870674014091491699e+00
-8.410578175258518474e-01,-8.425300451278849856e-01,8.828674168938606126e-01,-1.436551169195854523e-02,-4.974563284753965448e-02,-3.714752032375243790e-02,1.728190183639526367e+00
-8.829440692617276376e-01,-7.237934787403959014e-01,8.667276884490551225e-01,1.910810011338226824e-02,-1.665206479000824746e-02,-3.720891359845398400e-02,1.677587389945983887e+00
-8.615434557268978333e-01,-8.529305740636675681e-01,9.789737389724249006e-01,-1.634865767822699101e-02,-1.582547791003892368e-02,-1.396011493249441765e-02,1.836807966232299805e+00
-7.989029736002128956e-01,-7.872079982476778426e-01,7.134582350855276367e-01,-1.380967742974922342e-02,2.884515514274704675e-03,1.615817314831049546e-03,1.506748557090759277e+00
-8.418594628492825915e-01,-8.309700625797117324e-01,8.670023098242551907e-01,-8.870425544370655682e-03,9.215403631865348721e-03,-1.214283820974014667e-02,1.703717112541198730e+00
-8.549766929177273767e-01,-8.726553441188407145e-01,1.016908815667586952e+00,-6.558381532373957047e-04,-2.318721543772446925e-03,-3.347269900905540212e-03,1.880800724029541016e+00
-8.684879299226260230e-01,-8.588655358879807578e-01,1.025158575227216096e+00,4.509307392852144637e-03,-1.486646651040983078e-02,4.779700528584995660e-03,1.889063477516174316e+00
-7.961707344503812234e-01,-7.961663967991243762e-01,1.077022789554622939e+00,1.195990057663795098e-01,-3.901273662607083331e-02,-3.088251170894647582e-02,1.886580228805541992e+00
-8.238289278993902176e-01,-8.329770018050491887e-01,8.951628795882000666e-01,-4.483665183261192314e-04,-7.069683488672769134e-02,5.362464934476132705e-03,1.727953433990478516e+00
-8.874762416855438429e-01,-8.442532083781091323e-01,1.045730849244048466e+00,-6.656476531778896671e-03,7.528574655705650917e-03,2.024825916084972352e-02,1.912362813949584961e+00
-7.988327557926784284e-01,-8.596157356014438866e-01,8.900933813551943352e-01,-1.785054032146171643e-02,-6.002548119176995441e-03,-3.673926166518240270e-03,1.720444321632385254e+00
-8.679356676015090866e-01,-4.064385109654843342e-01,5.843197288283557000e-01,2.944047948103609702e-01,-8.806105063882800621e-02,-9.907925326160881008e-02,1.401624202728271484e+00
-5.329261483595499893e-01,-9.331543320730441016e-01,1.044567159834058456e+00,-9.930315352479752999e-02,-4.792611109922297746e-02,2.909487997534471529e-02,1.821822881698608398e+00
-8.439752149825662242e-01,-8.682229619682521049e-01,1.042488514103085073e+00,-8.376358636208445282e-04,-2.215589125138476764e-02,5.214602541610362935e-03,1.899113535881042480e+00
-8.658922331613531087e-01,-8.641038972927491679e-01,1.052817986743881828e+00,7.247891141789896026e-03,-1.406677426641490206e-03,-5.289214988757780928e-03,1.917881250381469727e+00
-8.441151025167538124e-01,-8.611099677329074886e-01,1.023924078064496479e+00,-2.908490234999439733e-03,7.339903097152484027e-03,3.250943029514162877e-04,1.876644253730773926e+00
-8.037247393600307488e-01,-8.871200787398905163e-01,1.043548293568757002e+00,-2.470062210569230320e-03,2.721280519873400111e-02,-1.230221817308161519e-02,1.891063332557678223e+00
-8.900871937202327056e-01,-8.131647106893855614e-01,8.415359415624756867e-01,-2.441432350988893829e-02,1.234003417458856416e-01,1.549213676214286906e-01,1.729366302490234375e+00
-8.495862255604635926e-01,-8.637898617723234196e-01,1.064296892492654800e+00,1.632051944479691102e-03,1.042008517804691656e-02,1.100275627964891235e-02,1.921205759048461914e+00
-7.907944036193144122e-01,-7.223811168813072392e-01,1.003722845635999228e+00,9.411808698463189002e-03,-3.867140817086625170e-03,-1.840082833027793709e-03,1.761398434638977051e+00
-8.177946956090673680e-01,-7.326952389471810267e-01,1.019773702145312377e+00,1.978916404869877910e-02,-1.284770066732640256e-02,9.257083551099842128e-03,1.797067165374755859e+00
-8.493422929637087782e-01,-8.376455575746178939e-01,9.202587102810888542e-01,-1.172998774860889958e-02,-7.306491721244250982e-03,-8.128224736584383631e-03,1.764000296592712402e+00
-7.578201942190004869e-01,-7.753791229328323986e-01,1.006957245842899251e+00,1.322963636850875077e-02,-7.667864371730561193e-03,-2.365659461413222725e-03,1.773824572563171387e+00
-7.698041784115704500e-01,-6.650290148989945749e-01,9.781312567363595889e-01,4.598949317447776491e-02,-2.411501121885596156e-03,-3.888039324501950302e-04,1.699846744537353516e+00
-7.276592369142076411e-01,-7.451107003120744920e-01,1.015464051318214045e+00,6.206762451170997480e-02,-3.485038704073598753e-02,-2.591016070773562163e-02,1.756820440292358398e+00
-7.935165179525930368e-01,-8.305004881203016387e-01,1.030620747627609246e+00,3.890152592112700036e-02,1.440663268568127472e-02,3.754579359136929473e-03,1.844319224357604980e+00
-6.705406154004610597e-01,-8.387192823138381881e-01,1.255655721374329348e+00,4.062021134303697156e-01,-3.573041750596656074e-02,-4.028899826184851457e-02,2.136857986450195312e+00
-8.642292552229189351e-01,-8.654092490644549329e-01,1.070297089999980633e+00,-1.643288276512381478e-03,-4.625881950855515075e-03,5.133715271798106224e-03,1.935155749320983887e+00
-8.625179014190522686e-01,-8.682366181579105335e-01,1.053338578910591794e+00,-1.703066914491743657e-03,-6.557760922461889144e-03,-1.291669094385191350e-03,1.918759465217590332e+00
-8.614992538822721091e-01,-8.597020406355472266e-01,1.039851725573254448e+00,-3.769166486018119856e-03,-2.770132940990469809e-03,-9.473375271532144884e-03,1.900541067123413086e+00
-8.573351575516118261e-01,-8.631737495375617630e-01,1.053367609278464068e+00,1.562818561872621019e-03,5.335543104200846619e-03,3.831336054855702736e-03,1.913664460182189941e+00
-8.586000711500091365e-01,-8.573798611587443164e-01,1.028415618116842234e+00,-2.287108637799400903e-03,1.489101557276742167e-03,8.382881060837996980e-04,1.886412382125854492e+00
-7.693883917023804919e-01,-7.624124668492803236e-01,1.009897875470580741e+00,3.191924057589226593e-02,-4.458601982943480270e-04,-4.736869559201367392e-04,1.776669383049011230e+00
-7.591454975866108734e-01,-7.684620251019602666e-01,1.010086740664135396e+00,1.756416621671611639e-02,-1.191963658289902327e-02,-1.023997954075555987e-02,1.774378418922424316e+00
-8.007180851504697161e-01,-7.897351009652141540e-01,1.032079626009160922e+00,6.571282918407493623e-03,-1.600973105091635373e-02,-2.440942786857132341e-02,1.828065752983093262e+00
-8.506602094170550021e-01,-8.572803545766938260e-01,1.062375386881381001e+00,2.402593187123480082e-03,7.693131306512629268e-03,6.288944691963213596e-03,1.916436076164245605e+00
-8.657444788597861152e-01,-8.612796777512330415e-01,1.061071484284134669e+00,-3.921362001982623552e-03,4.119932266189207590e-03,-4.543697472456986806e-04,1.924612879753112793e+00
-8.004381095417029135e-01,-8.219090948887448622e-01,1.041811375785033800e+00,2.082500328997887677e-03,-1.039002640629724944e-02,-7.942391089639042751e-03,1.853220224380493164e+00
-8.565363865923527609e-01,-8.480256616097600064e-01,9.689245143712723607e-01,-1.289150885688492704e-02,-1.099155553431068952e-02,-1.131859850419548313e-02,1.821562290191650391e+00
-8.638794382903176583e-01,-8.529174157254981736e-01,1.066196525889809621e+00,-2.013410291349599160e-03,-1.174575827908433401e-02,1.535625876809912013e-02,1.924912810325622559e+00
-8.310152010251539156e-01,-8.486924395165235113e-01,1.061555795681264902e+00,-1.966049595297201006e-04,8.139049193358930626e-04,-4.244614657770737903e-03,1.901486039161682129e+00
-7.926396780456431701e-01,-7.782500129926657184e-01,1.023470506712064187e+00,1.790270238985744097e-02,-1.486883141191556318e-02,-5.104021057978698483e-03,1.809428930282592773e+00
-7.707787735760943670e-01,-7.808557666096749283e-01,1.015433705667925901e+00,2.120276940407549160e-02,2.677551758804365065e-03,-1.189773775431750974e-02,1.791773200035095215e+00
-8.537399992071859067e-01,-8.485554377204430621e-01,1.064921615494247353e+00,3.092350418867067987e-03,1.668895805120179177e-03,-3.414862141925336780e-03,1.916093349456787109e+00
-8.664496221547490773e-01,-8.604654277794010486e-01,1.042898253148849541e+00,-7.811222900780157540e-03,-3.917878822737985885e-03,3.638198809160152550e-03,1.906433343887329102e+00
-8.560735964485306493e-01,-8.629587307811871222e-01,1.066495933819755493e+00,1.847745896228325903e-04,-1.002579446392831090e-03,1.092008216249165274e-03,1.926023006439208984e+00
-8.537483978068955981e-01,-8.546830374105780503e-01,1.065934028042203385e+00,2.203595399521759025e-03,3.232291363176230826e-03,-1.227710495182358572e-03,1.920163035392761230e+00
-7.381854757555058599e-01,-8.683321490672314402e-01,1.032427687901126268e+00,3.317528506465297622e-02,2.500128554031130074e-02,-1.535444614895259234e-02,1.840742468833923340e+00
-7.890944744044321446e-01,-7.435318464576731179e-01,1.030595673476635943e+00,6.914910543066267457e-02,-2.324578255345197825e-02,-2.297936525362744009e-02,1.802217602729797363e+00
-8.754045565183067312e-01,-9.915674317879589195e-01,1.034943163068255290e+00,5.392763690447649472e-02,1.707690733584537046e-01,9.012139015334265368e-02,2.001352071762084961e+00
-8.768223806028145884e-01,-8.406643050721337440e-01,1.048467266333480641e+00,-8.402193191906651235e-04,-7.794493234553356333e-04,2.095357779301716683e-02,1.907813906669616699e+00
-8.447816683108771985e-01,-8.393189545071437774e-01,7.415328460513435083e-01,2.020154411345778389e-01,-1.245976011223724755e-01,3.911630696560441933e-02,1.637483596801757812e+00
-8.347151761212402432e-01,-8.494231749209610882e-01,1.059206416001249984e+00,3.561803907289797216e-03,-7.714117774576212568e-03,1.762112588361724064e-03,1.901377677917480469e+00
-8.368942658561862036e-01,-8.584846192190069836e-01,1.054817890655652679e+00,-2.729748855969708465e-03,6.641010630828148541e-03,-4.485228599849613515e-03,1.902655720710754395e+00
-8.615994052811870585e-01,-8.723899895505847768e-01,1.036596218951874260e+00,-1.260730868600399256e-02,-7.490973494688180773e-03,-3.665226403838291527e-03,1.903793931007385254e+00
-8.446421026355594996e-01,-8.429398627814219669e-01,9.657639138304026094e-01,5.053499469018526633e-03,4.316850900298112542e-04,3.336485560179221210e-02,1.810499310493469238e+00
-8.530508133604652876e-01,-7.529891876525761640e-01,6.939607939988778895e-01,1.806203655075712677e-01,-1.493608875093877242e-01,5.464246405883966401e-02,1.556346774101257324e+00
-8.587197316341504960e-01,-8.637178065901773838e-01,1.057707675475523912e+00,-2.445679277050904436e-03,2.432120530178788259e-04,2.124659317172663230e-03,1.918939590454101562e+00
-8.482623284436339173e-01,-7.235605869996745154e-01,1.027910028399705800e+00,-1.579267974762312010e-02,1.810999291277694961e-02,1.364551946271447443e-02,1.817663908004760742e+00
-4.899162571029155311e-01,-8.112705133044170180e-01,7.733830143849749206e-01,3.150346172365466324e-01,2.343722472154886327e-01,1.334198893406692843e-01,1.618979454040527344e+00
-8.429827070106777898e-01,-8.021043626018685702e-01,1.050305499577316226e+00,9.963722563813166833e-05,1.883348250444977223e-02,4.755560007413965964e-03,1.873485684394836426e+00
-8.695082126367512654e-01,-8.440618533878900820e-01,9.734200684374121337e-01,4.432874774496760838e-03,7.837854686768525730e-03,-9.012771005178789839e-04,1.830404877662658691e+00
-8.559951891043171557e-01,-8.453934404088213617e-01,1.059518632846977004e+00,3.913352256871881554e-03,8.471912595117338934e-03,6.710097955150430907e-03,1.910338759422302246e+00
-8.763530569697749462e-01,-8.563300144851374585e-01,1.022207163433761057e+00,-1.151382318719073976e-03,1.654016567879237464e-03,-1.673413822979822859e-03,1.888633728027343750e+00
-8.708200851417925437e-01,-8.608148985606649539e-01,1.040013641278229706e+00,3.220584203838733079e-03,2.816011486740335312e-03,2.403445724764062714e-03,1.905869722366333008e+00
-8.631456752089692319e-01,-8.526036225161091053e-01,9.987448327103993773e-01,3.314664105538784461e-03,-2.858219916685718343e-02,2.623276057416140759e-03,1.857316255569458008e+00
-8.670928039553721378e-01,-8.615967721402522095e-01,1.044772231563461107e+00,4.241012047795708097e-03,-4.120049498736510184e-03,1.086707933010625047e-03,1.909151315689086914e+00
-7.586805551967065187e-01,-8.590884330710745198e-01,9.714110105280724383e-01,-2.032378302177609841e-01,-5.055936913473236399e-02,-2.017920097532454465e-02,1.819291234016418457e+00
-8.466218889303920303e-01,-8.342562698577029590e-01,9.059319277312116725e-01,5.130945871448968146e-03,-2.049872781279640441e-02,1.971870062428537906e-02,1.747121214866638184e+00
-7.912540085129609047e-01,-8.923045905711817216e-01,1.043431462004593246e+00,4.331434499660723062e-04,-3.207997079422862663e-02,-1.407598399069062223e-03,1.888060331344604492e+00
-8.092480042019996045e-01,-9.010549245312997613e-01,1.035082824456077688e+00,-7.050166830006000807e-02,4.726149625562331424e-02,-3.564981304111404948e-03,1.897618889808654785e+00
-8.479865874510582602e-01,-8.658662244767650895e-01,1.059324251321136279e+00,2.793314292177402364e-03,1.920923929202825522e-02,1.344981984739738318e-02,1.916749715805053711e+00
-8.636077705271012483e-01,-8.439488734343469911e-01,9.731187106967140732e-01,3.257141942669519123e-03,7.681043476226077915e-03,7.932531712554837661e-03,1.827085137367248535e+00
-8.476908920128284342e-01,-8.681071360602239384e-01,9.791253896664129375e-01,7.643131963736519031e-04,3.233454014779541929e-03,1.921086114114665261e-02,1.837419867515563965e+00
-8.648619659992159425e-01,-8.456564417347446350e-01,1.038114197736815125e+00,-4.170193363499339993e-03,-5.414308317675581642e-03,1.671950227225543067e-02,1.893704891204833984e+00
-8.732146889335192785e-01,-8.692955691880379643e-01,1.046897809606893937e+00,-6.369422239974730643e-04,1.378370968595407121e-02,-6.495874775725023502e-04,1.918305158615112305e+00
-8.693702765146507083e-01,-8.591802869235147799e-01,1.053833572764527382e+00,5.141786996407079861e-03,8.924320389324945021e-03,1.342444302233123873e-02,1.918353080749511719e+00
-8.134242039580286132e-01,-8.435352207784608813e-01,8.579020912664181431e-01,8.440486390047003892e-03,5.308640552034701691e-03,-1.061755918711765508e-02,1.686772108078002930e+00
-8.538398296963710665e-01,-8.684010136555246895e-01,1.038712201389958345e+00,2.453925125684321487e-03,6.878883567546105297e-03,-2.723830515032735211e-03,1.899922490119934082e+00
-8.928632748735392255e-01,-8.471349845060898165e-01,1.053987211892285503e+00,-4.188021280029239485e-03,6.922532503588900953e-03,1.679091097528639248e-02,1.924664616584777832e+00
-8.550190993111844717e-01,-8.418298150012931691e-01,8.970767140814284168e-01,-2.290920271411601983e-02,3.084612338239714827e-02,3.677721015352546086e-02,1.747967839241027832e+00
-8.688240402659178629e-01,-8.526292871284353314e-01,1.014227969935015850e+00,4.287161077556935753e-04,1.298086728357077460e-02,5.299383829090101652e-03,1.875164508819580078e+00
-7.602685580160915002e-01,-7.325340474051807993e-01,9.908925264831180968e-01,-2.363176346913618484e-02,-1.445243743684390680e-04,-6.419477803903148950e-04,1.737942337989807129e+00
-8.673330875947032892e-01,-8.450468778399105041e-01,1.046605326273035264e+00,-1.433775402783703939e-03,-1.066315769729907388e-02,1.731337938392952039e-02,1.903220653533935547e+00
-6.480020064525648937e-01,-7.714762508388263162e-01,1.572060302556621547e+00,4.594543343080428333e-01,1.725747130996055090e-01,3.974245369287897345e-02,2.438323736190795898e+00
-8.947817983103416584e-01,-7.657189000526569700e-01,1.058238861596346503e+00,-6.082943679055426850e-03,-6.822933439941609828e-03,3.195382961749007600e-02,1.892669558525085449e+00
-7.968050526978365244e-01,-8.730042390097927374e-01,1.029794975769622756e+00,2.403606484959964085e-03,-2.664508098312852111e-02,1.138719056303287569e-02,1.866546392440795898e+00
-8.607084488734929595e-01,-8.092082971397598357e-01,1.041178708835058586e+00,6.262071513683136956e-03,-1.288619264899317114e-02,-1.261911509873999901e-02,1.876958489418029785e+00
-6.948010970210376502e-01,-1.063996233541110392e+00,1.903128498077584441e+00,5.549725847129806100e-01,-1.257687855238578435e-02,4.679248727838654365e-03,2.961285114288330078e+00
-8.564815034141529670e-01,-8.555202059324163999e-01,1.040418225269432506e+00,3.233800222318273924e-04,-3.871181787374738774e-03,1.351740727071469150e-03,1.896432638168334961e+00
-8.327894111314587677e-01,-8.271815336225651905e-01,1.050435556461929432e+00,-2.138445201409387968e-03,-6.752189087856468215e-03,1.029439096223328659e-02,1.880551815032958984e+00
-7.569365736570765613e-01,-8.259493341662891286e-01,1.029489639150467539e+00,2.227460482314624554e-02,-1.082673414644578364e-02,-1.490602568179475763e-02,1.822600960731506348e+00
-8.784721416546606987e-01,-7.791146112653459799e-01,1.053788875601136876e+00,3.197312982346246345e-03,-2.026926075334173002e-02,2.406481187559024112e-02,1.885343551635742188e+00
-7.532166646798166276e-01,-7.588594051371901905e-01,9.944629715014559057e-01,3.014360850559601266e-03,1.419610966950464979e-03,5.389150574498872406e-04,1.750517606735229492e+00
-8.573398760850328149e-01,-8.700023225610654665e-01,1.025687247991868167e+00,-2.067619977792253989e-03,8.393147337936400759e-05,8.188236745742564701e-03,1.889446854591369629e+00
-8.404479388396619566e-01,-8.446418790166906332e-01,9.111242128014411801e-01,-3.685325350641999523e-03,1.783617826952143843e-03,3.344355379438745252e-02,1.754643678665161133e+00
-8.333148391323071946e-01,-8.432641273100275336e-01,9.089415647690761713e-01,-7.047605450493320788e-03,-6.437954036893451908e-03,3.687531878309675132e-02,1.748497486114501953e+00
-8.693616529606111865e-01,-8.514390100160814656e-01,1.025220902529400124e+00,-1.956064399887446053e-03,-8.601329822969796049e-03,-7.073801690527048089e-03,1.885786771774291992e+00
-4.777108190491624606e-01,-1.013055734529627605e+00,1.071885579460141402e+00,1.242221633154744209e-02,-8.814424246125347057e-03,-8.918785235268388359e-03,1.875725507736206055e+00
-8.125174461750551691e-01,-8.417740016869157404e-01,1.052909987761347255e+00,-4.182819983438198878e-03,4.359455531806030563e-03,-1.778694346954090219e-02,1.880507946014404297e+00
-8.229598549682616282e-01,-8.172686165753317855e-01,8.007335324598829907e-01,-1.012397782711477005e-02,5.704721579789584496e-02,3.799580479172894043e-02,1.625291824340820312e+00
-8.615606627191931821e-01,-8.574651789716918326e-01,1.041605383528851680e+00,-1.161388862205309279e-03,-5.495027986793005366e-03,-2.220294673566754282e-03,1.901150345802307129e+00
-8.955422832004283906e-01,-7.793339921747332033e-01,1.058800085023404947e+00,1.318421171538266190e-03,-9.631273821372724267e-03,2.432104245396334019e-02,1.899448752403259277e+00
-6.451366907552174013e-01,-7.242839102535585383e-01,2.853751598630726027e-01,2.691015040402544023e-01,8.517466739289436973e-04,-2.212094133998648501e-02,1.079111218452453613e+00
-8.501023441975449346e-01,-8.539346684305473278e-01,9.742476098423626940e-01,-6.326325716145886346e-03,1.221317743690989843e-03,9.820138095330098807e-03,1.826382398605346680e+00
-8.451085799802060539e-01,-8.481230144255796910e-01,1.060536471899622413e+00,1.898793469705568459e-03,5.842798937109787948e-03,-4.850998282154437430e-03,1.907202243804931641e+00
-8.626152019026868123e-01,-8.460069572640285251e-01,1.050780828738989481e+00,2.453131544318864175e-03,-1.079534581940292228e-03,1.642117098611382137e-02,1.905364155769348145e+00
-8.408423293829705436e-01,-8.053382805716714499e-01,1.050170921044620398e+00,9.344177817530588750e-03,-1.102228661049749377e-02,1.553503183745240032e-02,1.873873949050903320e+00
-8.664928432431950878e-01,-8.479023296269562193e-01,9.837558688069585333e-01,1.042923365237344822e-02,-1.173844769768917808e-02,8.608106736926869271e-03,1.841285109519958496e+00
-8.716028315464863230e-01,-8.015399672538191522e-01,1.042214648381052378e+00,1.092972008719479346e-02,-8.109677964501188149e-03,-1.026488823500601791e-02,1.879997491836547852e+00
-8.998713812279226509e-01,-6.918509389900278084e-01,1.060729726587244182e+00,7.826056699683543727e-02,-1.219208307483705955e-02,-1.981211242018450849e-02,1.870663404464721680e+00
-8.002461459248745301e-01,-7.372020983968756713e-01,1.012133417226122711e+00,-1.035262407119087388e-02,8.675635724808840668e-03,-1.294301817546066741e-02,1.781988859176635742e+00
-5.837097379630074023e-01,-8.362925415741361279e-01,9.888526394162893141e-01,6.973653142303158636e-02,-1.137971158100610503e-02,-8.637410581465315013e-03,1.717310309410095215e+00
-5.786635408712539341e-01,-9.164408429517452159e-01,1.038255759642479736e+00,3.064863798556859489e-02,-1.413106628612413422e-02,-2.252764540914003327e-02,1.810972094535827637e+00
-6.014812281994098564e-01,-9.924659414383806277e-01,1.068610808064050843e+00,2.643601850913682161e-01,-6.830373835061697568e-03,2.046024031298745993e-02,1.950925827026367188e+00
-8.128732765158133144e-01,-8.035082067261930527e-01,1.038869858800471446e+00,-3.437715279191826817e-03,-2.347627343779798165e-03,-1.374375645034125841e-02,1.847245812416076660e+00
-7.272543553262690308e-01,-7.449507459206209381e-01,9.893184475239944486e-01,-6.839380299275933661e-02,1.018533973638222241e-02,-1.144977436885339685e-02,1.729754328727722168e+00
-6.561679453141764373e-01,-9.383094898861107369e-01,1.071060099374362640e+00,4.172878061529786825e-02,1.178396755537063599e-02,-1.328040776635219973e-02,1.885845422744750977e+00
-9.096614003989327291e-01,-5.716264102027296401e-01,1.027100870407642530e+00,-2.910611183023708096e-02,2.717534908347009771e-03,-1.649047669633720362e-02,1.792763710021972656e+00
-5.128405591591135293e-01,-1.059444711405036266e+00,1.064475879822190274e+00,1.100845181922645161e-01,1.511712142947181474e-02,-3.364174649157458674e-02,1.920757055282592773e+00
-5.793992588372551822e-01,-9.383545648557899410e-01,1.038758961983465623e+00,3.175229699970542885e-02,-3.212956382216420465e-02,-2.183177917242423369e-02,1.826385140419006348e+00
-6.518330108867941286e-01,-8.788996007117891862e-01,1.029513159030744029e+00,3.310887429225180950e-02,-1.989225573866331212e-02,-1.741286283352863964e-02,1.807110190391540527e+00
-7.230028275929187842e-01,-9.196932607998450360e-01,1.051226015180685369e+00,-4.724154509717533312e-02,-9.937700399339617630e-03,-1.103985251464589465e-02,1.882260918617248535e+00
-7.625425934416419915e-01,-7.805827640866496164e-01,1.009723053471626164e+00,-2.882559557711584716e-02,-5.797635615042079534e-03,5.427258604610217703e-03,1.782106876373291016e+00
-8.800577594571177276e-01,-7.817133374025192483e-01,1.059901552948136150e+00,-5.703889545542349324e-03,4.441673121183274502e-03,1.941608414267410529e-02,1.893044471740722656e+00
-7.791385826968115769e-01,-7.753169753880262416e-01,1.012853983250444401e+00,3.191803140889643269e-03,2.075649785684971667e-03,-3.234945456610122030e-03,1.790105700492858887e+00
-8.871758860866900687e-01,-6.816608823371570480e-01,1.011120413459311473e+00,-1.646357990562092102e-02,3.417074205274869131e-03,-2.966135357687809532e-02,1.805304527282714844e+00
-7.540301272573239899e-01,-7.996653998408695951e-01,1.015228300601146660e+00,-9.587143445153011034e-03,2.426718814830230650e-03,1.192820150037277038e-02,1.792712688446044922e+00
-8.436609433779546086e-01,-8.431381643814794824e-01,1.059871485014347359e+00,-8.647047362008290793e-05,1.725515752383523216e-04,3.934555517179703747e-03,1.903283357620239258e+00
-1.402887773811402949e+00,-9.206653652129286325e-01,7.867312482062707168e-01,5.012569572316236816e-02,-8.617914885284551352e-02,1.810089584839458948e-02,2.000471830368041992e+00
-6.964312220965533928e-01,-7.987021058986234490e-01,1.003208168996599925e+00,-2.796893314569016964e-02,7.877358401283993117e-03,3.328477560234406867e-03,1.753745436668395996e+00
-6.974901851742183467e-01,-8.070366432355279285e-01,1.009389145417131539e+00,-3.017185956999323196e-02,-2.893601683346690850e-02,3.010049682975106042e-02,1.766460061073303223e+00
-7.894998411081378675e-01,-7.495439989111399859e-01,1.012667570798555738e+00,-1.568923925878819292e-02,-1.417836343890877850e-02,1.497606175597204249e-02,1.783090353012084961e+00
-7.572636401757351088e-01,-8.211988918829141726e-01,1.027470797742326747e+00,-2.011634179805810163e-02,-1.124613401266343418e-02,9.527724633570738844e-03,1.818058848381042480e+00
-7.804125290890869815e-01,-8.064060975627426187e-01,1.026422107783493409e+00,-9.705277710209826280e-04,1.567264241323270682e-03,1.300996622280932262e-02,1.820112943649291992e+00
-1.021058003134835968e+00,-4.949660089139535923e-01,7.180862649924454333e-01,2.820762019875533086e-02,-6.518593178081034945e-02,2.305671287863889918e-01,1.600332498550415039e+00
-8.897273855304413948e-01,-7.681695739241827248e-01,1.052912573700750976e+00,-6.968512722670994718e-03,-1.458503089697109519e-02,3.915469748992274346e-02,1.886230707168579102e+00
-8.486238432579659152e-01,-8.658267431221441379e-01,9.946052166857000110e-01,2.612119095110544426e-03,1.554051711734052857e-03,2.059206450921850784e-02,1.852241396903991699e+00
-9.412874939525011087e-01,-6.638478584246987335e-01,1.042411934299542819e+00,-5.394695888331452194e-02,1.136697160658362363e-02,-6.942711555967731986e-04,1.863008141517639160e+00
-8.351723501534284999e-01,-8.495643738190618022e-01,9.029660848496841030e-01,1.162770775701552246e-02,9.150234501557781563e-03,-1.310854519335864082e-02,1.745714783668518066e+00
-8.575552310204899165e-01,-8.546468356580456671e-01,1.018171484652073300e+00,3.751807876893698619e-04,4.468994625836207732e-05,-8.885069221316349575e-03,1.874337553977966309e+00
-9.318725114161078293e-01,-7.698283748004888238e-01,1.072680434369503999e+00,-1.425211733093440566e-03,6.416228849055459135e-03,4.034805038963483470e-02,1.929942607879638672e+00
-9.775283846378992614e-01,-5.373092829016083982e-01,1.042062622858470622e+00,-1.441311326261884504e-02,7.407436750474521818e-03,1.456935289159067351e-02,1.839810490608215332e+00
-8.925199344990614181e-01,-7.953326429598053249e-01,1.037489364479432963e+00,-1.284279051888259464e-02,4.941467700393032368e-03,-2.189746609567369204e-02,1.883829951286315918e+00
-8.498681602640011379e-01,-8.540085895770831437e-01,9.642661811740080857e-01,9.376331967595153208e-03,-9.240562388678045386e-03,2.792414244368681200e-02,1.816995024681091309e+00
-6.504685595530087516e-01,-8.430473341698596634e-01,1.009764168035541143e+00,2.899038514782466616e-02,-2.301512314474426883e-03,1.426114240615055338e-02,1.765313625335693359e+00
-7.529870579073367765e-01,-7.694256351206844036e-01,9.970651519925735062e-01,9.625540898976249482e-03,4.888367637436748367e-04,-2.267854514328218607e-03,1.758412718772888184e+00
-8.543974771167185400e-01,-8.698640302060298701e-01,1.014355139271538864e+00,5.861704294659942846e-03,4.062855579581635922e-03,1.956483970263136335e-02,1.876880288124084473e+00
-8.621598874487808040e-01,-6.034040695212642413e-01,1.004039666772002848e+00,-6.264425294677596068e-02,-1.111560276515978236e-03,5.065322417105757626e-03,1.754599332809448242e+00
-9.699942918693656990e-01,-4.794466765797092966e-01,1.008207453527672381e+00,1.752397748937694136e-02,-7.473949713243883790e-03,4.805359476971787953e-03,1.784565806388854980e+00
-7.918720288906775373e-01,-7.002290718096793043e-01,9.971663172175135870e-01,3.005641865778476904e-02,-1.283851069758871685e-02,-8.917956013537446658e-03,1.746008872985839844e+00
-8.576579788208494870e-01,-8.681314334901151231e-01,1.017506251124194350e+00,1.030510825638932156e-02,-6.187862596939861827e-03,-5.281449255122200835e-03,1.880560278892517090e+00
-6.747113580969881230e-01,-9.492472861891415592e-01,1.039293249687936571e+00,-1.691719947675659683e-03,-3.634068590266951310e-02,-1.501190075257362658e-02,1.867721676826477051e+00
-8.509584371465116481e-01,-8.411156311508273253e-01,9.668080849332238991e-01,6.669132738403919791e-02,8.727331438123236973e-02,8.819146832685853532e-02,1.829209208488464355e+00
-6.115917524432896712e-01,-1.024507955318887831e+00,1.128196167740513678e+00,2.285886127960549963e-02,3.325882183229935535e-02,-1.567567034956575747e-02,1.980245351791381836e+00
-8.284442912941081261e-01,-8.236819438211590017e-01,1.048737109634467979e+00,5.419508656058523444e-03,-1.114826662881210177e-03,-1.228025018478858497e-02,1.874949932098388672e+00
-4.192329183838016116e-01,-1.275191223345281344e+00,1.835224796164506733e+00,3.918674989164483424e-01,2.047430178888983432e-01,4.239135410176687185e-02,2.887351036071777344e+00
-8.247613668838073009e-01,-8.242209974220704449e-01,1.051085059539358602e+00,8.039991292712649062e-03,-2.046857268678319366e-02,5.961166740914900126e-03,1.875991463661193848e+00
-5.593155644269474092e-01,-9.604880387892470450e-01,1.073057576211441377e+00,7.439449915135620817e-02,1.803482798752672339e-02,-1.559824828411454471e-02,1.870495676994323730e+00
-8.085955319492093007e-01,-8.191942582018804098e-01,7.262196706832948490e-01,-2.015209265403419825e-02,2.003399012162579776e-02,-1.063029308456727232e-02,1.541038155555725098e+00
-7.674655647089498878e-01,-7.588793427042538342e-01,1.008167715050562574e+00,1.542554640746557869e-02,1.257013369352082653e-02,1.126444421497693228e-02,1.771798491477966309e+00
-7.674158392544281337e-01,-7.727875087359156181e-01,1.009289326383611796e+00,3.759269624251552772e-03,-9.733895109337533172e-03,-6.749700184234738547e-03,1.779527306556701660e+00
-5.533802046738389713e-01,-9.466998202910650306e-01,1.021291016367401161e+00,7.697546798715605709e-02,3.258408470196273027e-02,-1.735375038616323792e-02,1.809835076332092285e+00
-5.856942733726123729e-01,-9.127247523391935902e-01,1.024391729162800191e+00,3.577875222652275589e-02,-2.514161900301734379e-02,-1.226696252511295243e-02,1.797793388366699219e+00
-6.688404780831403995e-01,-9.258548914169626443e-01,1.053716115360586292e+00,9.507397261393541257e-03,2.926865049105899577e-02,4.069646721394151560e-03,1.865172982215881348e+00
-8.568054555473306744e-01,-8.610949017766927893e-01,1.032507729931118501e+00,4.797830675660936812e-04,-4.190220280173987018e-03,2.832190949016058067e-03,1.891481995582580566e+00
-8.617142813607371332e-01,-8.619394533574372685e-01,1.034046726971248109e+00,7.615289690960504870e-03,-5.407268852549606229e-03,2.284250066344819217e-03,1.895946741104125977e+00
-8.585053883842570510e-01,-8.594426815100040251e-01,1.018066224062174285e+00,5.922851733548117892e-03,6.729686355914412006e-03,-8.500116698577905860e-03,1.877162337303161621e+00
-8.024139866632303830e-01,-7.827442177953223279e-01,1.026136808109536780e+00,-1.683903076548516923e-03,1.328978487067454528e-02,1.453688544289295564e-03,1.818945407867431641e+00
-8.723522037258336637e-01,-8.494660283638548748e-01,9.897360371188381745e-01,6.000134970108641705e-03,-7.641784691800116748e-03,-5.345908231212881216e-03,1.850850939750671387e+00
-8.595005860574927992e-01,-8.640302090683660285e-01,1.038859022754622830e+00,-1.592394529702361849e-03,-7.876877303089424229e-03,-2.518608690087414167e-03,1.900684475898742676e+00
-8.486638443375833507e-01,-8.423036595013522199e-01,9.376248718019064565e-01,3.937633646952229047e-03,1.222032312983782447e-02,-2.882968885805662403e-03,1.783262729644775391e+00
-7.783339946462940473e-01,-7.729677323315629067e-01,1.015008829292390002e+00,-6.648277251044262814e-03,-7.395740234183295625e-04,-1.471188866551577899e-02,1.790884494781494141e+00
-8.506997416058715844e-01,-8.512548012267598940e-01,9.765169387974719228e-01,5.834938983337452714e-03,2.548415270456440285e-02,-3.129012017892795344e-02,1.828858375549316406e+00
-8.489980386518078959e-01,-8.533814471504022059e-01,1.031355358073178241e+00,1.829105384448522108e-05,1.054857432594905921e-02,-7.111124023386134960e-03,1.882677912712097168e+00
-8.314882722315761754e-01,-8.497332913162793933e-01,8.810807993161315910e-01,-6.287666957654795656e-03,9.379549829534993000e-02,-1.094680943581460494e-02,1.729549765586853027e+00
-8.691585589298623793e-01,-8.641765380435065813e-01,1.041937864290678917e+00,1.475121420502730537e-03,5.546071822204653827e-03,-2.612315093973230709e-03,1.908641576766967773e+00
-6.851505875965786529e-01,-9.025195044099962871e-01,1.026551851906390311e+00,-1.213429045847318373e-03,-3.783256725243018537e-02,2.768598299192892836e-04,1.831268429756164551e+00
-8.523223716195739152e-01,-8.669245407198892250e-01,1.057542356904111802e+00,1.856661283817388547e-03,1.179985081423398814e-02,5.857168029211734864e-03,1.917346000671386719e+00
-7.964796191147665017e-01,-8.648445476840102009e-01,1.034430554751971432e+00,-7.732170674403317061e-03,-1.912043926595972596e-02,1.713172836490125736e-02,1.866609930992126465e+00
-8.619620615336238689e-01,-8.671623744751447704e-01,1.058946458930127621e+00,4.853153408008709958e-03,8.030704767565819552e-03,2.632269701776624132e-04,1.923582673072814941e+00
-7.918490144726650914e-01,-8.703515637627728951e-01,1.026095255942453210e+00,-5.325353075358613998e-03,-1.837511630319527134e-02,1.530355974684956266e-02,1.858923912048339844e+00
-8.142725159943916546e-01,-7.956986124463626409e-01,1.035367344913043164e+00,1.465269484058267721e-02,5.825798561528690821e-03,5.611598537836756662e-03,1.840651512145996094e+00
-8.204925930082609398e-01,-7.502997693253951050e-01,1.027707876340634874e+00,-6.641581612471078762e-03,1.791503369299729878e-02,4.051837953898435908e-03,1.814438223838806152e+00
-8.347268163864017820e-01,-8.465693224682756535e-01,1.074406467920701269e+00,1.981450964302022832e-02,2.710115092930713565e-02,2.846775599813331295e-02,1.916598916053771973e+00
-9.244114739849037532e-01,-5.862129072685622333e-01,1.020296958525447995e+00,-8.649309607023389010e-03,-1.493297259443559719e-02,2.569883653897127307e-02,1.800401687622070312e+00
-8.287028698431803120e-01,-8.499082978618894835e-01,1.054887642195037500e+00,1.840630345359054506e-03,8.548979038803493358e-03,1.424164462147914541e-02,1.894503355026245117e+00
-9.105271284791699449e-01,-5.812538218842040472e-01,1.035766557077888450e+00,-2.217749067035020352e-02,-4.277549549020088354e-03,1.073903775146313293e-02,1.804852843284606934e+00
-8.186661195019665493e-01,-8.331304644890064059e-01,1.047470154590133040e+00,3.057699174333245416e-03,1.546870765538095084e-02,1.128051343862112622e-02,1.873711228370666504e+00
-5.562882317553881073e-01,-9.088728158762088283e-01,1.079059243061522677e+00,-1.685991351111970904e-01,-2.347945002864681996e-02,4.486342221679070000e-03,1.860716700553894043e+00
-1.000065814983703616e+00,-7.292003155250245117e-01,1.742652263957278125e+00,-5.233988268311969838e-01,4.816414667389528476e-02,-4.543654185797393191e-02,2.772716045379638672e+00
-9.237688949256450677e-01,-5.333437363775332951e-01,1.004922333547847879e+00,-1.824653910353444403e-02,7.233595171279989756e-04,1.080614951446467673e-02,1.766528487205505371e+00
-9.963950587306227291e-01,-5.280138620394851934e-01,1.070462928867948804e+00,1.837063992414316935e-02,6.148392139185614343e-03,7.836628209402583811e-03,1.877369284629821777e+00
-9.569502602053641116e-01,-6.481191377850452628e-01,1.057387089703795358e+00,-5.156627824151421846e-02,2.084883918418033860e-02,3.657253642185077924e-02,1.882587432861328125e+00
-9.111587009984440932e-01,-6.429038594291482944e-01,1.028515201121189993e+00,-1.817373209128136588e-02,2.144952924099146480e-02,1.592658726656727419e-02,1.821290969848632812e+00
-9.608059224242315732e-01,-7.298238127474838688e-01,1.096593868845758379e+00,-1.986975748194888189e-02,-1.365928895706032108e-03,3.892931401761362542e-02,1.953653097152709961e+00
-9.503718500448169459e-01,-5.329900694691005469e-01,1.010120262621293508e+00,-5.273087676071163549e-03,1.793536291326649698e-02,8.754028702253745242e-03,1.789061665534973145e+00
-9.519489982646799353e-01,-5.294799347230575437e-01,9.552765259091937633e-01,1.241967776921719564e-02,-1.580624014704408789e-02,-3.531954483403846462e-02,1.736433148384094238e+00
-1.068329573544668953e+00,-5.515620244425127883e-01,1.222831294140293457e+00,1.692590285304261880e-02,4.971650204724186589e-02,1.573457110948488225e-02,2.083623409271240234e+00
-9.943535808468669801e-01,-5.393810054399457155e-01,1.061650980468376471e+00,6.458862798983609418e-03,7.550874050303713406e-03,-4.361937654210959470e-02,1.872093319892883301e+00
-6.600855050488410036e-01,-8.528549865643428873e-01,1.025158770011069809e+00,2.800566694313563754e-02,6.920335787331211193e-03,-4.115382705882074908e-03,1.790145039558410645e+00
-9.541463027757969284e-01,-5.803694390958651361e-01,1.057203870730225592e+00,-3.886898106330519825e-02,1.485579119335333001e-02,-3.823082483599544307e-02,1.855538129806518555e+00
-8.109880800427917702e-01,-8.390387017553612159e-01,8.541506394858231488e-01,-5.263036477086882603e-03,9.297608793868226973e-03,9.572835594625673378e-03,1.679523587226867676e+00
-8.550213731150866359e-01,-8.773276610482173554e-01,1.030000441114283127e+00,-4.943682700039241443e-03,5.579582320116225659e-03,5.112827678830626603e-03,1.896337985992431641e+00
-9.116545779054268106e-01,-5.775276051217332896e-01,1.022928940215737770e+00,2.648927765618790467e-02,-8.787775269631883934e-03,5.596438313574331885e-03,1.791727781295776367e+00
-8.280250440951070212e-01,-6.606517606595039283e-01,1.010001405326981905e+00,4.630060669064926110e-02,-1.684906034820281978e-02,-2.149675959757012603e-02,1.762778401374816895e+00
-7.314222806121921661e-01,-7.647251144693727465e-01,9.992402399530804225e-01,1.793196676722749738e-02,-4.029115178902817687e-03,-1.859924154680069963e-03,1.747844815254211426e+00
-7.526613845508915990e-01,-7.601345791246701955e-01,9.984394418316122621e-01,8.428007362163614583e-03,-3.305725057126349142e-04,-8.119869056947181390e-03,1.754966497421264648e+00
-7.525552728783441170e-01,-7.730436714055710645e-01,9.993082529845866979e-01,1.112858929406460723e-02,-1.286203543640544560e-03,2.011860372224674124e-03,1.762307286262512207e+00
-8.020649192463894517e-01,-7.626160714432755894e-01,1.024572287292150996e+00,1.319862904569988650e-02,-2.179506978891720612e-02,2.063580227591572892e-04,1.807774543762207031e+00
-7.551100593905468727e-01,-7.371819923396910612e-01,1.017021048191414367e+00,5.547511618477609513e-02,-2.594865784460807095e-02,-2.094345429993598948e-02,1.766795873641967773e+00
-8.557777830982428169e-01,-7.200718725391116459e-01,1.028157264151591699e+00,1.354453212425735242e-02,-1.174442420604518075e-02,8.695360926144516181e-03,1.820208072662353516e+00
-1.002735747957012036e+00,-4.632232411620282875e-01,1.045417064283246988e+00,-9.943012821141600233e-03,-6.591018772043696038e-03,-2.389825035030612374e-02,1.839331388473510742e+00
-7.999596043894108277e-01,-8.771909711201769655e-01,1.039024337742666670e+00,6.606620905595985034e-03,2.329457588765486420e-02,8.178787656385997501e-03,1.879311919212341309e+00
-7.889918599138386890e-01,-6.750890747524442848e-01,9.888432735983470057e-01,3.106048070335158326e-02,8.302182276470962408e-03,3.108047836816881480e-03,1.724616289138793945e+00
-9.602217463300177780e-01,-6.448601083333527217e-01,1.061870872874524530e+00,-1.106567403322116297e-03,1.110016357823105648e-02,-3.464554108979216868e-02,1.885363459587097168e+00
-8.499727059473963786e-01,-7.211483233579922825e-01,1.034189837370408815e+00,1.495805307050797166e-02,-2.090987343565503184e-02,6.258327885050020412e-03,1.823742985725402832e+00
-9.611415736597025417e-01,-4.487273646923357062e-01,1.044634822617178660e+00,1.004831650061498161e-01,1.208856298976425337e-03,5.955522867827612275e-03,1.813372611999511719e+00
-7.976481963394307373e-01,-6.740777175490464401e-01,9.959816155667113868e-01,3.488740735470369919e-02,-1.153333296718480130e-02,-2.004179026682701217e-03,1.736317992210388184e+00
-8.225153569287757538e-01,-7.623980439928295105e-01,1.026377096668655176e+00,8.161191130614102798e-03,-6.065511204419050256e-03,1.973203353412532942e-03,1.819667220115661621e+00
-8.791273911904974314e-01,-6.405897947973506756e-01,1.046547406268501179e+00,6.980233221044382375e-02,-6.285413240633081280e-03,-1.703575836584615352e-02,1.822466492652893066e+00
-7.361874978638592859e-01,-7.607266141724231545e-01,9.930253358600236169e-01,-2.438106595074686703e-02,1.725751478847907105e-04,6.828431149122365755e-03,1.742164134979248047e+00
-7.604307197265902651e-01,-7.360662232955359485e-01,9.926368014963584674e-01,2.004668560292885426e-02,-2.276013317698329357e-03,-9.083882945066519120e-04,1.741364479064941406e+00
-7.727287012286597756e-01,-7.701620746038657650e-01,1.010222411994018410e+00,2.238305661566244390e-03,-5.246111306467592106e-03,-7.187466552188190132e-03,1.781740069389343262e+00
-8.268904542909785160e-01,-8.651081907543595184e-01,9.745276376714504529e-01,4.263304953165064984e-04,-1.511099659727570786e-02,-1.312579535388268791e-03,1.821017503738403320e+00
-8.415064964647176460e-01,-8.199336937063114172e-01,8.581826965314116595e-01,1.733241283660836955e-03,-9.587564746543646155e-03,2.756334937650328516e-03,1.689097166061401367e+00
-8.476371323021884008e-01,-8.750240221947738206e-01,1.046489165837628965e+00,-1.059079005042149737e-03,-1.506750094091833733e-02,2.946331097125304711e-03,1.908153295516967773e+00
-6.785135397195867224e-01,-8.878625464146635560e-01,1.011503854961395943e+00,-1.048019790060370111e-02,3.148639418399271778e-02,-5.259694899623669484e-03,1.804764747619628906e+00
-8.659840337437592073e-01,-8.645286385799583195e-01,1.055366183223533261e+00,4.794377772007835971e-03,-3.606910453065091150e-03,2.590862420533710485e-03,1.920656323432922363e+00
-7.866023998846668475e-01,-8.864968983717628204e-01,1.024761992538463673e+00,-4.194045665202206230e-03,1.564264423081295971e-02,-6.583860129091461885e-03,1.863566994667053223e+00
-8.794380166783408725e-01,-9.695841838193128837e-01,8.411561186566776094e-01,-1.524082494266141598e-02,1.265145871762951013e-01,-2.024326621758594166e-03,1.781123876571655273e+00
-7.588764417125516415e-01,-7.514677980185892059e-01,9.965362542589910611e-01,-7.631051568321414041e-03,-6.693520566604410638e-03,-4.941356435870724543e-04,1.751808524131774902e+00
-7.583887251022874976e-01,-7.506404151405606795e-01,9.925739884559023896e-01,-4.317722507058461591e-03,-3.700376362450284859e-04,1.313303463007526022e-03,1.747119069099426270e+00
-8.406694794862551445e-01,-8.731705271759281350e-01,1.045517133622411832e+00,-4.465081874226750104e-03,-1.561844030978952122e-02,4.457019896203165930e-03,1.902868986129760742e+00
-7.858069469739336066e-01,-8.894826851900109466e-01,1.034748906569967541e+00,3.047023832523142704e-03,2.073807930862483703e-02,1.957620108031722216e-03,1.874899864196777344e+00
-8.564726782401137495e-01,-8.708154263011979035e-01,1.036944079130195373e+00,-3.449225522888960203e-03,6.836321465523546165e-03,5.092404884652634162e-03,1.900695443153381348e+00
-8.540800533381517345e-01,-5.836281635812706758e-01,9.932150025976074215e-01,-5.100750465940506739e-02,-7.085413658544995920e-03,-2.740259808596106836e-03,1.730322837829589844e+00
-1.010554824769734017e+00,-6.347918317267939869e-01,1.704225103486838089e+00,-5.299643492725929494e-01,-3.384735453023875185e-03,2.433434865195440236e-02,2.708415031433105469e+00
-8.052029555285481477e-01,-9.188328517353429037e-01,1.008333664728023660e+00,-8.037874830484844496e-03,-2.899776327025253841e-02,1.428828450920493175e-02,1.873826980590820312e+00
-8.613693494819311125e-01,-8.521295749451789359e-01,9.908709807886895149e-01,-2.720428256881752844e-03,-1.367742989786734260e-02,-4.147907489577862782e-03,1.847809672355651855e+00
-8.345686655273824028e-01,-8.812106930799045168e-01,9.715533560747677821e-01,-1.942599533315841724e-03,-7.735237664968031002e-02,-4.315858536386438932e-02,1.836312294006347656e+00
-8.901076831793889310e-01,-5.397561497781100393e-01,9.943813150305891302e-01,6.064864513451364431e-02,1.163522385845757248e-02,2.321819067248232296e-02,1.739790081977844238e+00
-9.163907186717663578e-01,-5.779583145319205917e-01,1.016986525196129643e+00,-2.222048230658083684e-02,1.315584745675055754e-02,1.043575455529324562e-02,1.788992404937744141e+00
-6.202516670003066501e-01,-6.574207115647229260e-01,7.302111848755417078e-01,4.205942480347685808e-01,-1.895704587171712086e-01,-1.104244315090537470e-01,1.597002506256103516e+00
-9.934691971059688154e-01,-4.529387064778989669e-01,1.162559226749714902e+00,4.226607436512871963e-02,-2.050747295131720438e-02,4.999792263420727717e-02,1.946626067161560059e+00
-5.144489005931278669e-01,-6.409121166328203278e-01,9.811634309981782653e-01,-4.258173164234875796e-01,-1.315494096444198291e-01,9.017987074340617915e-02,1.749932408332824707e+00
-7.716711379114638003e-01,-8.769486190188318098e-01,1.047617918444780916e+00,-4.825324136249484544e-03,2.490817144012027334e-02,2.588200253149934744e-03,1.874667286872863770e+00
-8.475835463817212867e-01,-3.646816112964802459e-01,1.062205577025361114e+00,-2.973406621195132105e-01,-1.272993671732783882e-01,9.266048666884016405e-02,1.815999865531921387e+00
-1.087495266741001609e+00,-4.000859644327945941e-01,1.110045616417177916e+00,1.082745361440318049e-01,7.949895544484128149e-03,-4.493352231445822687e-02,1.957683324813842773e+00
-9.094386719098616068e-01,-5.156255743797610869e-01,1.430024813356971070e+00,-2.593946203542347728e-01,-1.886639751393567599e-01,-6.384305527099441713e-02,2.242260932922363281e+00
-9.894032611351223361e-01,-4.641107589325502158e-01,1.031756084028144560e+00,5.060855865596446818e-02,-1.131272212679560775e-02,-4.955931487014654524e-02,1.820646405220031738e+00
-1.044879690366841807e+00,-5.830125481544377042e-01,1.234401156162217461e+00,1.464065005065681158e-01,6.288808947168674987e-03,6.466261085768514050e-02,2.105394124984741211e+00
-8.596668484873237759e-01,-8.609680787153337622e-01,1.034705928173351719e+00,-6.549149229884668362e-03,-6.886076367839954332e-03,-1.329046785035702984e-02,1.895235061645507812e+00
-8.452693417993257796e-01,-6.480635063271323881e-01,1.016821504071017790e+00,2.143177803888379404e-02,-1.054623044113716518e-02,-4.979735067675523713e-04,1.772221684455871582e+00
-8.622365677399547179e-01,-8.625504805036151579e-01,1.056472006746701719e+00,-5.514853121457266236e-03,5.489917123863657586e-03,4.213359652173523373e-03,1.918926715850830078e+00
-8.552262461204850341e-01,-8.367032391117343870e-01,9.902725077148062383e-01,-2.746368507852374637e-03,7.947337374267062285e-03,-6.680419020865442994e-03,1.836401581764221191e+00
-9.458452389180479480e-01,-5.226535446041495891e-01,1.032284450297891398e+00,-3.892865342962467667e-02,7.349636478010836312e-03,-1.639076750587076248e-02,1.805678367614746094e+00
-8.616845082367892150e-01,-8.744477261403446056e-01,1.038500923375489604e+00,-9.320069145803893534e-03,-7.450295668553384536e-03,-1.230620993507725892e-02,1.906830191612243652e+00
-8.586479375633137012e-01,-8.570102854469960896e-01,1.055380127155333581e+00,-9.705257962147794066e-04,2.628929325463939554e-03,-2.685961639658901532e-03,1.913221597671508789e+00
-8.566921448883700885e-01,-8.559954002035462528e-01,1.000329744137345767e+00,-8.098116320235821189e-03,9.330911477919076602e-03,-1.119852992203965517e-02,1.856898188591003418e+00
-1.485464119227955848e+00,-3.822466991896262267e-01,1.566554660931378073e+00,1.501775165568387249e-01,-3.514256791713064876e-02,-5.167731080854390258e-02,2.691513299942016602e+00
-7.691782256700031573e-01,-7.365236575380272877e-01,1.001304544251272022e+00,1.837080665358920700e-02,-5.184778387242591421e-04,-3.508631497622900688e-03,1.754682660102844238e+00
-8.578595276849683149e-01,-8.408734122040543157e-01,1.019905501850979501e+00,4.168240460918041720e-03,5.985532138386694470e-03,-9.399028985301348458e-05,1.869372606277465820e+00
-8.620700698388682470e-01,-8.519170080500889641e-01,1.050606092671712899e+00,2.970211233039146952e-03,-2.981822198327509655e-03,3.311023575203017231e-04,1.907633900642395020e+00
-8.583415193282623035e-01,-8.656588878435331758e-01,1.046136983308279644e+00,-3.589638795548025924e-03,-4.227238072932526687e-03,2.385504221085342404e-03,1.908176302909851074e+00
-8.372803907098272935e-01,-8.384232402967006781e-01,6.760259845183003158e-01,-1.018298307522948545e-02,-1.369024079282117334e-01,2.195202515969780777e-01,1.578902244567871094e+00
-6.621929281660415834e-01,-7.919941804349664993e-01,1.000333649470052766e+00,3.573078911196606033e-02,-1.258623936692847452e-02,-2.382638516806450356e-03,1.732328891754150391e+00
-7.953175471955375997e-01,-9.432036469205348217e-01,1.110179320154560223e+00,8.274310911116602302e-03,1.582155047205176246e-02,6.933756902068178955e-03,1.983856320381164551e+00
-7.917841365988161906e-01,-7.287563515920116863e-01,1.012638142350017478e+00,1.628404238293421763e-02,-1.217156926260352413e-02,-3.160739764937490603e-03,1.774106383323669434e+00
-7.969591488219228692e-01,-8.212516373919018786e-01,1.040428469205546769e+00,1.276797823398198584e-02,-7.546531106707576354e-03,-7.706497469472810107e-03,1.849880099296569824e+00
-7.994124789943850562e-01,-8.210113733812074432e-01,9.661210067133538804e-01,5.563728042696498149e-02,1.326655399672349925e-02,3.383553866586175730e-03,1.779201388359069824e+00
-7.277595707618751408e-01,-7.923404600700802991e-01,1.007586067118249717e+00,1.897885098657710670e-02,1.411178484065763296e-03,1.013818461555258954e-02,1.768914937973022461e+00
-7.401048963037546446e-01,-7.619440563959933854e-01,9.943967618730955582e-01,2.116194861190259791e-02,-2.422315420689377403e-03,2.407369942504397793e-03,1.745918512344360352e+00
-8.517493550921383383e-01,-8.560780064778655829e-01,1.061596155460670987e+00,4.949559705010233429e-03,3.413542062987807231e-04,1.648747396259396276e-03,1.915534853935241699e+00
-9.203944781144897114e-01,-9.781961968811114794e-01,9.876606716118918605e-01,5.739191962169871292e-02,-8.769145231433368715e-02,-7.728351296082704158e-02,1.950685381889343262e+00
-9.670916624642662551e-01,-5.333409344463543311e-01,1.037642433051265245e+00,3.007326037552587178e-03,3.164357538166054709e-03,4.587415363237620780e-02,1.828637242317199707e+00
-8.243531689975837073e-01,-7.690397415913408086e-01,1.029079730570751527e+00,-1.122235936709274282e-02,-5.043517443798800626e-03,-3.076367526661948418e-03,1.826536536216735840e+00
-8.475637651406603412e-01,-8.466241672467775814e-01,1.061333885208878280e+00,7.960245043243802110e-04,-2.851563266843426363e-03,6.450983534323054963e-03,1.908467650413513184e+00
-8.014984714812415367e-01,-8.162484059466880160e-01,1.040760826942112471e+00,-3.259714148530253128e-03,-1.433229130427239595e-02,-3.915778674356317282e-03,1.849866032600402832e+00
-8.533170637630874689e-01,-8.603878243561331463e-01,1.048140501774028621e+00,-3.026755879789735319e-03,5.203668276555207389e-03,1.079351473985153955e-03,1.905032277107238770e+00
-8.671937961387272686e-01,-8.526607801417885879e-01,1.052286201428406676e+00,-1.697883619714273408e-04,6.207405170999268605e-03,5.993624878489884483e-03,1.912313342094421387e+00
-9.781948928337749205e-01,-9.017535531240788993e-01,9.331609465610661847e-01,1.039125458196466234e-01,-1.357417112805906767e-01,-1.614163990685730243e-01,1.918033957481384277e+00
-8.469971327253297266e-01,-8.721190200675925652e-01,1.047668174580303369e+00,2.031107205076331662e-03,1.317091410464852480e-02,6.674189800565766967e-03,1.907525062561035156e+00
-8.435727560462424890e-01,-8.500258151384304517e-01,9.337115751847389067e-01,-9.788797644012697460e-03,-1.055739160185025990e-02,-1.050360695054830930e-03,1.780695199966430664e+00
-7.106509844215829208e-01,-8.347914342918884012e-01,1.019608127247298102e+00,-5.549372408762146686e-02,9.601177804194444346e-03,8.924061835773579310e-03,1.798264861106872559e+00
-8.609466105522122215e-01,-8.101811960841095450e-01,1.043443822450242697e+00,6.721706245895860132e-03,1.605144674321613493e-02,1.158748287604010642e-02,1.879870772361755371e+00
-8.586612057472351456e-01,-8.486669210486497139e-01,1.023964700547784767e+00,-2.256642938541006307e-03,6.014315644025152764e-03,6.101095542540967837e-03,1.877711415290832520e+00
-7.790146040036481923e-01,-8.780968367525709972e-01,9.989953215400579900e-01,1.374965447988113487e-01,3.629366393189404488e-02,6.066528780403349433e-03,1.846099615097045898e+00
-8.685502986277724435e-01,-6.004622380801423187e-01,1.009304400569443594e+00,-4.447737287427049740e-02,5.773232142650867350e-03,7.616163162397392855e-03,1.760962128639221191e+00
-8.617192387952755661e-01,-8.567750251724642885e-01,1.068696170553760316e+00,8.029501629235290261e-04,-1.373009984777563003e-03,2.078169557445495516e-03,1.927953362464904785e+00
-9.144162754979777707e-01,-5.376385354167083630e-01,1.007924133399056288e+00,-2.922229556596269567e-02,-1.138702993570399162e-02,-3.931636821578006653e-03,1.765235424041748047e+00
-8.494165387015968349e-01,-8.137473777472120640e-01,1.040744314077738375e+00,7.325745547000495073e-03,1.372158409496057607e-02,1.257992496403019349e-02,1.872901678085327148e+00
-8.630153691716222486e-01,-8.719569610655599767e-01,1.026868917585085805e+00,9.534816697115842260e-03,4.547101734664034910e-03,-4.257185164509675115e-03,1.894473671913146973e+00
-9.754698746272439935e-01,-5.064168147393696140e-01,1.030092967083347189e+00,-6.104367051571334309e-03,-3.571485355410871742e-05,-1.572154606780037933e-02,1.817259192466735840e+00
-8.841724696918771276e-01,-7.330697784625374025e-01,1.051983019780783346e+00,-1.835812448372356465e-02,2.263650858805323768e-02,-3.445939412937196883e-02,1.866837501525878906e+00
-8.687229074941800189e-01,-7.759515885429469906e-01,9.981428767995748075e-01,-2.239121071543235045e-03,1.598448254049647131e-03,1.629974802163015532e-02,1.822476983070373535e+00
-8.533866998270102089e-01,-8.695750667632088371e-01,1.001571353014968357e+00,-1.667663852040017318e-03,-2.109854309211415136e-03,-6.865802671418524787e-03,1.863148808479309082e+00
-8.637463813508364785e-01,-8.634213373262257241e-01,1.020359202074952565e+00,-4.073287524588801306e-03,2.867575427225297919e-04,-1.668768793760449023e-03,1.883958578109741211e+00
-8.541924065048078774e-01,-7.313126477343949716e-01,1.044580450229545932e+00,-1.755041861396535938e-02,-2.115486980345000420e-02,-5.464622408081534419e-03,1.841052174568176270e+00
-9.096661826229456294e-01,-8.312528308768203367e-01,1.061929581370722131e+00,5.695566741001903931e-03,-4.628772785821396417e-03,-2.566624831860735492e-02,1.934134721755981445e+00
-8.622537180373988086e-01,-8.511283134673899298e-01,1.052676640386284168e+00,1.958819697657659172e-03,1.756032257785571787e-02,9.634370952809421379e-03,1.909710168838500977e+00
-8.853054251442800116e-01,-7.765936481771947841e-01,1.014707413288987947e+00,-2.279957910879300362e-03,-5.539832043684948630e-03,1.086513071035596911e-02,1.848181605339050293e+00
-8.882121650380218059e-01,-7.917245254159485102e-01,1.041022993457335399e+00,7.584960793991289349e-03,-1.936317156035212081e-02,-1.876265900495749719e-02,1.883471369743347168e+00
-8.527939370622383830e-01,-8.726904936757450271e-01,1.021779511700516840e+00,2.318432540527739800e-03,-1.586320979275749471e-03,-2.200134377451321303e-04,1.884606838226318359e+00
-9.162421868159049687e-01,-6.169146090997272847e-01,1.032598260923851097e+00,-2.796384613280634285e-02,-2.566964088593485377e-02,2.288672051235285387e-02,1.819375872611999512e+00
-6.430869732577340070e-01,-8.602615683301513272e-01,1.019897484702274593e+00,1.016203418897084904e-01,1.198547345416150177e-02,-8.065063066874772132e-03,1.790376067161560059e+00
-8.681990678279905005e-01,-8.434032223657562666e-01,9.852598504571525861e-01,-9.987358753883415763e-03,-7.168562421906609326e-03,-2.376206581542719687e-02,1.841769218444824219e+00
-6.225657352353655138e-01,-9.397382929645881067e-01,1.256325328840304234e+00,2.677139322684228828e-01,-7.461049639810213296e-02,2.729182980118394219e-02,2.112039327621459961e+00
-9.384001219467011934e-01,-5.681984769953496439e-01,1.037657788545550019e+00,-2.139748839198346228e-02,2.148731656051188713e-03,4.979068376151388892e-02,1.821850419044494629e+00
-8.444153824692431920e-01,-8.642023887957782646e-01,9.726961263737388119e-01,-5.427541853757341002e-03,7.550123044629849893e-04,5.335485784060561322e-03,1.827133417129516602e+00
-9.515596896911580060e-01,-5.037286738327199087e-01,1.008198614827001238e+00,-1.103327522124197650e-02,-3.739078646279658542e-03,-2.004144212735430031e-02,1.779094338417053223e+00
-1.378584719397245806e+00,-3.592090774265525588e-01,1.724810434316308205e+00,-1.753111989722016539e-01,2.848162793767830981e-03,3.039802967091375860e-02,2.757111072540283203e+00
-9.039230976339607260e-01,-6.979233624068725828e-01,1.023746550381737785e+00,1.052931588148405678e-02,2.301395616330973934e-02,-1.908834764628879882e-02,1.834192276000976562e+00
-8.522917970798181697e-01,-8.730837548388088454e-01,1.011211410723926729e+00,-8.761810054997175301e-03,3.389882500152532549e-03,-1.878573994762399238e-02,1.874338746070861816e+00
-8.601748761995358095e-01,-8.609064233932537391e-01,1.013574231120090374e+00,-1.322267257033559254e-02,1.561352800111956082e-03,-9.280861812329467206e-03,1.874325752258300781e+00
-6.077646630479510703e-01,-9.245390712500014541e-01,1.218520285190570318e+00,2.265638592699409093e-01,-4.978357253080954031e-02,-1.484506082059299237e-01,2.059544801712036133e+00
-7.931265635364778133e-01,-5.342482172204305879e-01,8.207305592685122386e-01,4.100902506671337266e-01,2.236027137682490284e-01,2.322452536589452721e-01,1.752167344093322754e+00
-1.017202988191961088e+00,-3.520675102677706114e-01,1.616542159280308644e+00,-2.413885301324449895e-01,4.775960647622684574e-02,-3.684512101357915255e-05,2.410159587860107422e+00
-4.183209691532772667e-01,-9.746925288408270216e-01,1.075289877044499409e+00,1.123398046174102355e-01,-7.790464111930436863e-02,1.642940951413680850e-02,1.851567745208740234e+00
-8.552676769855257488e-01,-7.503031454615023410e-01,1.039231443951974088e+00,1.230477623894070047e-02,2.524087451664638534e-02,3.037512379969314544e-02,1.845649719238281250e+00
-7.808198752808171994e-01,-7.801657507707199235e-01,1.020108330611154468e+00,3.052718445232966218e-02,1.465622284347803915e-02,4.773898228443361827e-03,1.801575183868408203e+00
-8.444765323485261543e-01,-8.140281789531277346e-01,1.049878813149558887e+00,1.159116857782291517e-02,2.715489680233762297e-03,3.920063059562489162e-03,1.879441499710083008e+00
-8.140925838900686662e-01,-8.358363157730854809e-01,8.363218011633186677e-01,-1.148365754511319024e-03,7.375218029334045834e-03,1.671264883790491221e-02,1.661695480346679688e+00
-7.784581938917747301e-01,-7.712159477627525961e-01,1.014057068798500216e+00,5.665166070097154769e-03,-1.513550405551000559e-03,1.558080972894034834e-02,1.789137482643127441e+00
-8.455944743325576329e-01,-6.481161881085152343e-01,1.016958211102744647e+00,3.005284776619469161e-02,1.725425991925433984e-03,-1.075992319115431570e-02,1.772950172424316406e+00
-7.725653320635516019e-01,-7.928577928065605462e-01,1.019354983201388620e+00,7.593661142737391165e-03,-4.669645293549308171e-03,8.890956187649259185e-03,1.802284121513366699e+00
-8.176619461505566511e-01,-8.273473882584462258e-01,1.048596889526349774e+00,-3.124221204061963450e-03,-4.957331449667379437e-03,9.070767648547948397e-03,1.871213793754577637e+00
-7.663726371933794468e-01,-8.230083647502210997e-01,1.027424048762858977e+00,8.163810222499835040e-03,-3.792088127708619170e-03,7.197778662504296376e-03,1.822883844375610352e+00
-7.467916590584005032e-01,-8.581477795228108496e-01,1.029621268924830080e+00,-8.910664078396109480e-03,5.906596399323229933e-03,1.550461217460379244e-02,1.834917306900024414e+00
-8.114645125052181163e-01,-8.659623770289930356e-01,1.043961077459021780e+00,4.628788390578129734e-03,2.052807388299283248e-02,8.822071674684708181e-03,1.883680701255798340e+00
-7.406816397105392413e-01,-8.017733735488242752e-01,1.014906544638468411e+00,9.133446682010553860e-03,1.143113069678422002e-02,1.859908185412684559e-02,1.787387490272521973e+00
-8.182108256657258938e-01,-7.603797271603284225e-01,1.031788132611574982e+00,5.391137064386389288e-03,1.686058458668676652e-02,-6.462445194940728312e-03,1.822064280509948730e+00
-7.670469577731254818e-01,-8.209043692484716548e-01,1.026346031585920526e+00,1.230103380210638593e-02,-2.894522696469539660e-03,9.452311605794218308e-03,1.821124315261840820e+00
-7.687730892818793738e-01,-8.224197125540300135e-01,1.038785816496529568e+00,9.270632036785049837e-03,-6.201668082179834576e-03,1.813794674672003504e-02,1.835341095924377441e+00
-8.047434806552721254e-01,-8.386105851255507559e-01,1.048959294836988576e+00,7.919808030270151372e-03,-1.097715877623908591e-02,1.370138322926182060e-02,1.871163606643676758e+00
-7.515973283647229275e-01,-7.884492913363055910e-01,1.014131748100472352e+00,1.677367635528448017e-02,1.229744733358936054e-02,1.681110695542608474e-02,1.785041570663452148e+00
-8.632530729835110606e-01,-8.640493772234234537e-01,1.064727720441502878e+00,1.934000963467215469e-03,-3.913451351624242826e-03,3.006450620536416443e-03,1.928400874137878418e+00
-8.612312912417331434e-01,-8.612719546850808872e-01,1.071230328846229929e+00,1.401526330903928334e-03,1.139418523896274351e-03,-3.515347869176185282e-03,1.932494044303894043e+00
-8.912662459697512363e-01,-6.959226136353411363e-01,1.044925899151313287e+00,-1.569607244526827552e-02,-1.504701638861759803e-02,-2.505261481855790284e-02,1.847180962562561035e+00
-8.443426628421117908e-01,-8.398739621818165357e-01,1.056828011718181415e+00,-9.224493091780180953e-03,-4.585644713444653013e-03,-5.839811040214329570e-03,1.899051070213317871e+00
-8.592311880284609904e-01,-8.644358094913595636e-01,1.037636074377261686e+00,4.677063812238810465e-03,-5.970503003918402329e-03,5.734911688592308696e-03,1.899546265602111816e+00
-7.996167585816004175e-01,-7.825198886764755946e-01,1.022176650595692848e+00,-9.927225107149491995e-03,4.252265042780660823e-03,-1.068762756140071791e-03,1.813402891159057617e+00
-8.491851079016303760e-01,-8.333840354419409513e-01,1.045387878270729543e+00,8.059579133644929200e-03,1.470186449052675488e-02,1.024072419257188518e-02,1.887028932571411133e+00
-7.180687724850771669e-01,-8.147309333557757327e-01,1.011650501892278564e+00,1.359481611027211004e-02,5.099895499284235606e-03,1.239225285461666680e-02,1.780326962471008301e+00
-8.081250625799366594e-01,-7.056500232536978556e-01,1.020703139048188657e+00,2.541318031698202445e-02,1.053053696189659889e-02,1.908996447620688042e-02,1.780749201774597168e+00
-8.341004070985098551e-01,-7.555091308932675442e-01,1.034055832003146103e+00,1.546056723164623836e-02,2.841484097148423357e-02,3.177438475785055588e-02,1.831811070442199707e+00
-7.508552416662607198e-01,-8.032520733659543888e-01,1.024344114137391903e+00,5.754132866332880430e-02,2.826662787260673937e-02,2.583278230082226845e-02,1.805941581726074219e+00
-8.978406913360215125e-01,-8.801708585300991317e-01,1.175055034832113598e+00,1.713242804354816184e-01,-1.648297549270719489e-02,2.259695464279032687e-02,2.085901260375976562e+00
-8.026123208790336694e-01,-8.502562743316455229e-01,1.132317382675831485e+00,9.964746428454070160e-02,7.422603305860555473e-03,1.664016546130522856e-02,1.967027068138122559e+00
-5.670409314914302001e-01,-9.418420835860181750e-01,1.051245801825127169e+00,-2.224753746977418956e-02,5.659615657804879796e-02,-2.015536792255398849e-02,1.837981700897216797e+00
-7.128659473462886087e-01,-8.874149368017970607e-01,1.093580686327949136e+00,-1.296678782939428010e-01,-8.107009823487465808e-03,1.526086525271263183e-03,1.913027882575988770e+00
-7.063174333817358042e-01,-1.063078848599602555e+00,1.152059871478697373e+00,-1.072828012303778805e-01,-1.604576798309727964e-02,1.691377900882379964e-02,2.068816423416137695e+00
-8.547598696263705165e-01,-8.699432410272117666e-01,1.030515633697299371e+00,3.406602270143237535e-03,-5.498951924325372505e-03,3.286273458931754290e-03,1.892954587936401367e+00
-6.912037340100090077e-01,-9.444336403491094822e-01,1.060286033198847955e+00,-1.531292988718033383e-02,3.756275277209351199e-02,-2.148162855529077084e-02,1.892535924911499023e+00
-8.209297722231374550e-01,-5.911133662510863473e-01,9.277350485832445148e-01,-3.388704670793896701e-01,3.672026004857441989e-02,8.969783832674750601e-02,1.755407094955444336e+00
-9.364687332941405984e-01,-4.720568156512863767e-01,1.085189253724790692e+00,2.538336729795268587e-01,1.843361259196044100e-02,8.223606528108898250e-02,1.891692280769348145e+00
-1.371965516823376641e+00,-2.686102763321278064e-01,1.632233483698626308e+00,-7.024884258799958536e-02,-7.586326835124914758e-04,-3.569988414303211510e-02,2.635628223419189453e+00
-8.095617468307386710e-01,-6.797397796560374905e-01,1.087029225578213243e+00,1.903391835718309943e-01,-2.109626600653191977e-02,1.275474694522987264e-03,1.864864349365234375e+00
-1.101540025599502481e+00,-4.216149253950337572e-01,1.196446592474072590e+00,-5.851561156524567875e-02,-2.231374399073480022e-02,3.531956665498387632e-02,2.048435926437377930e+00
-8.929196729235789887e-01,-7.876719104358931300e-01,1.059567754634037628e+00,-1.032060371866768290e-03,-9.863147340968063739e-03,-2.543622076263797605e-02,1.902636408805847168e+00
-8.663659168549417977e-01,-8.104147905045813172e-01,1.062308125511993495e+00,-2.011764111137801739e-03,-1.248961905440301376e-02,-9.423971160546331174e-03,1.901512384414672852e+00
-7.730601859824606237e-01,-8.650830788556267414e-01,9.757824677923914169e-01,-1.208009225410359849e-01,-6.570983520214153384e-02,-1.772230446038275745e-02,1.812602162361145020e+00
-8.654809762354062075e-01,-6.894851143441617092e-01,1.031814880793723743e+00,7.182829641382057484e-02,-7.393717762901577152e-03,1.634925579493467368e-02,1.820229053497314453e+00
-9.075582409466095291e-01,-7.029907707661036120e-01,1.056353363440171389e+00,1.112516707392184612e-02,1.630265441358121764e-02,-2.147951849709308150e-02,1.870720982551574707e+00
-8.776780331495360743e-01,-7.914844154573751345e-01,1.036875145204930515e+00,2.969669682102647995e-04,-2.985599775256793896e-03,2.316266222385230181e-02,1.873381257057189941e+00
-8.473142229241301671e-01,-7.247754927297962446e-01,1.029420097905494602e+00,1.644340956370038062e-02,1.807377159327707219e-02,-1.278773643885619538e-02,1.819191217422485352e+00
-8.841303799118198636e-01,-8.476214259400663975e-01,1.035612771359119888e+00,-1.026765415607969016e-02,6.302209633601667249e-03,4.147210199327922703e-02,1.903222084045410156e+00
-8.755886168501391120e-01,-6.148350541025289218e-01,1.012786573573296822e+00,-3.343506600000017981e-02,-2.604889543950775904e-02,5.108494759880810587e-02,1.776167511940002441e+00
-8.850603162887422659e-01,-6.344877183758681483e-01,1.030109308930703182e+00,-7.573170029849807250e-02,-2.758270860179567671e-02,-1.419331835147340931e-02,1.808553218841552734e+00
-8.522359716824537967e-01,-6.927233871181303071e-01,1.147479316442294062e+00,-2.094613694236752421e-01,-4.450298480688777425e-02,8.425812748854301371e-02,1.965753793716430664e+00
-8.650064421896159761e-01,-8.637651100441218199e-01,1.052967284003063275e+00,-4.711115568472082869e-03,7.534968081570154672e-03,6.879036334206909374e-03,1.917452216148376465e+00
-8.791770150170344911e-01,-6.713159771554279009e-01,9.117935666932124317e-01,-1.056498954964962961e-01,1.893076000843900777e-02,-6.239910409517707840e-02,1.710190176963806152e+00
-8.044571545277082736e-01,-7.809692972397643818e-01,1.025769961298009569e+00,1.618437480425840083e-03,1.254267479206806063e-02,-1.641556125242300216e-03,1.818731069564819336e+00
-8.734444131556893254e-01,-7.396801723020610675e-01,1.032577787125357638e+00,-5.201781231198301936e-02,-2.716360628366673927e-02,-1.407652609654512846e-02,1.845746874809265137e+00
-8.343169090731089588e-01,-8.005602089627645856e-01,1.044319810222312350e+00,-2.930377344277953697e-02,2.774059942254239117e-02,-1.306554155973272194e-02,1.863436579704284668e+00
-6.318373462408504171e-01,-7.137815849748339048e-01,9.897530147655562160e-01,2.251756827267416827e-01,1.237790111390696217e-02,1.846133965321126308e-02,1.709603667259216309e+00
-8.471141244471384057e-01,-6.921599136223460791e-01,1.027885008508953923e+00,1.701478345668572256e-02,1.883226444780193576e-02,2.056370134071630607e-02,1.803411960601806641e+00
-8.433108287155026694e-01,-8.050289443289977420e-01,1.048998668017631308e+00,-2.559083353380215038e-03,2.062521880104587271e-02,-3.449662541684425654e-03,1.873817205429077148e+00
-8.309265875031326409e-01,-8.352548564907325002e-01,1.053787460601697923e+00,1.016096650317127592e-03,9.541415895267231148e-03,6.450439094074251513e-03,1.886988162994384766e+00
-7.962018073061694068e-01,-7.353480187308127913e-01,1.022833957779734737e+00,-7.174164121348879097e-02,2.328275010717843069e-02,-2.037923252969996851e-02,1.794494867324829102e+00
-8.034854989301757344e-01,-7.098701577887942538e-01,1.009733113507931934e+00,-4.983001910249533484e-02,1.016969087209651122e-03,-2.387873972200049363e-02,1.770859479904174805e+00
-8.057443572225863049e-01,-7.775089263835051057e-01,1.026678838514635483e+00,6.818844780838817336e-04,3.752589767828210486e-03,6.100289574755553106e-03,1.818512558937072754e+00
-8.329484580436103958e-01,-8.169342159504145995e-01,1.050089649629755595e+00,-7.128934107585710271e-03,5.554661758294412305e-03,-3.627478496751794165e-03,1.875158190727233887e+00
-8.604154202006353280e-01,-8.624055735492290875e-01,1.063972230405349828e+00,5.841134636766597346e-03,-4.922884915808138293e-03,8.308551032623649399e-03,1.925482749938964844e+00
-9.421539092895715450e-01,-6.104070320653047776e-01,1.174090104753326314e+00,2.543401182070094690e-01,1.341164225326413936e-03,4.450372901386925178e-02,2.021509647369384766e+00
-9.438089656472036237e-01,-4.710322471455057336e-01,1.239190943477329165e+00,2.400662593929395183e-01,2.039324984992679432e-02,-2.341305705640125880e-03,2.032509326934814453e+00
-8.681620921814782177e-01,-8.641763048842847628e-01,1.067226444822080733e+00,7.822370659094524548e-04,-4.623862512788166380e-03,4.536692210009636572e-03,1.933431744575500488e+00
-8.100230775108375747e-01,-8.076326307650731895e-01,1.038947243780627971e+00,6.453057863231721238e-03,3.177625826788944494e-03,-5.122963014854730636e-03,1.847839593887329102e+00
-1.017192584685192802e+00,-5.976816300944424176e-01,1.107639314666684971e+00,-2.928842807065483098e-02,5.645366078457050157e-02,3.717829303995463797e-02,1.953404903411865234e+00
-9.570664183163425376e-01,-5.416311480546592838e-01,1.153868155693589914e+00,1.149994973419980332e-01,4.456983166737138458e-02,4.917787997536323535e-02,1.950529217720031738e+00
-7.216355834329325480e-01,-7.930746603614527990e-01,1.005221825748529252e+00,-1.129763523710234155e-02,-9.884198874518155230e-04,-3.104786834361453196e-03,1.763779997825622559e+00
-9.280237303220206790e-01,-3.643691186126388204e-01,1.084753713308880929e+00,2.577760473390047213e-01,1.934194933429617125e-02,-1.679290762051299400e-03,1.853360295295715332e+00
-8.618073582029375235e-01,-8.627749174105221464e-01,1.028188074905191041e+00,4.109864752633394375e-04,3.449567717712404870e-03,1.389189483914416746e-02,1.890642046928405762e+00
-8.593622047794104990e-01,-8.621781355294091398e-01,1.027954113754413257e+00,7.355545677092560630e-03,-7.482733736465256059e-03,3.980020841115905136e-03,1.888825893402099609e+00
-8.638095496698762199e-01,-8.745970875068925787e-01,1.042936371625198699e+00,1.095179054960006108e-02,-9.398087727132966099e-03,1.178808588443633343e-02,1.912434816360473633e+00
-8.494833797350708204e-01,-7.792503004875903638e-01,1.043629917442671085e+00,-7.752733755075192192e-04,-9.741913099913634272e-03,1.008563117583545152e-02,1.859151244163513184e+00
-8.752915594226867713e-01,-8.435023996010755365e-01,1.042211587064977962e+00,-1.804584077858579312e-03,-3.531686188011407251e-03,-2.016898188341149922e-02,1.902141094207763672e+00
-8.215873158593406389e-01,-8.393113249898127570e-01,8.791213224056073638e-01,-6.080601471250285254e-04,1.809558771582141234e-02,-3.809917252983102687e-02,1.711199998855590820e+00
-1.383832718149855978e+00,-3.181577958234793613e-01,4.988237422158555701e-01,-7.703964487470355005e-02,2.386858221895630794e-01,-3.701924453498625645e-02,1.693100094795227051e+00
-8.746597784149321431e-01,-8.588021484555118379e-01,1.041912794277606302e+00,-3.603976004578941664e-04,-2.039509335153217359e-03,7.506978586021786741e-03,1.908740878105163574e+00
-9.495373987985902264e-01,-7.677668475047835228e-01,1.097297188135631707e+00,1.664992278405751439e-02,1.873348757955488244e-03,-1.683721834307488896e-02,1.962705016136169434e+00
-8.558064523261122991e-01,-8.639173999104164947e-01,1.018199621953659761e+00,1.722439736611659994e-03,6.374232331147391267e-04,-1.176469449117987370e-02,1.878187894821166992e+00
-8.618993105732618565e-01,-8.531444770873032324e-01,1.033935442954245554e+00,-3.128219560114895662e-03,-1.008182623026504347e-02,6.248979427419872924e-03,1.891591906547546387e+00
-8.908313119855882922e-01,-7.714082588145619868e-01,1.053056428346110796e+00,7.624146227312817922e-04,-1.688716797017259311e-02,-2.707500559433308196e-02,1.887822270393371582e+00
-8.879813317463012279e-01,-8.296317803392363466e-01,1.038306925311471174e+00,-2.457896467994600208e-04,1.066044605574964152e-02,-2.155973894448277167e-02,1.898243546485900879e+00
-8.805789951122925396e-01,-7.876314564293931397e-01,1.056735407822724238e+00,-3.719874629369006747e-03,-1.816059340385145146e-02,-2.488318971143916453e-02,1.893316149711608887e+00
-8.577805865823241449e-01,-8.742199767294026591e-01,1.033145406941086364e+00,-8.998242910837813693e-05,-4.715244644155467194e-03,4.424791955374270114e-03,1.899232029914855957e+00
-8.667488804215675025e-01,-7.787850089178299795e-01,9.889629178716028424e-01,5.486292575846170999e-02,-2.089228919079576252e-02,-3.866118987602515378e-03,1.816191792488098145e+00
-8.585232141792629168e-01,-8.685849928157307609e-01,1.022713581724498555e+00,6.132078024788911383e-03,1.266268706636787143e-03,-1.684166486805051613e-02,1.886544585227966309e+00
-8.068406815551290023e-01,-8.541463437744045706e-01,8.881650455716743053e-01,2.492276052514640766e-02,1.028170612617636433e-02,-2.771517135677761118e-02,1.720450639724731445e+00
-8.016191146070301699e-01,-7.389598486823119039e-01,1.013364383711374161e+00,-9.150850211508920057e-03,-1.556961560479905478e-02,1.303697256668073616e-02,1.784896135330200195e+00
-8.435342020650893335e-01,-8.093402410220370546e-01,1.050602053611169318e+00,-1.470373676012108090e-02,3.414857948433643996e-03,-4.308760595996483089e-03,1.877469778060913086e+00
-8.162760636393019409e-01,-7.470550196832181911e-01,1.023755148774651902e+00,-2.843454112479540732e-02,8.361395629528735329e-03,-9.680144128010388649e-03,1.807222723960876465e+00
-8.503976772359761460e-01,-8.582954039064498719e-01,1.068371289363068577e+00,9.107275814953863036e-04,2.880842088363525476e-03,1.059577664948282115e-02,1.922824740409851074e+00
-8.174129462689214698e-01,-8.224134930251714160e-01,1.046694783144102470e+00,6.684125675839001045e-03,1.127941770297426378e-02,1.754221882887142120e-02,1.866998434066772461e+00
-1.403106795379196026e+00,-8.367225480179216746e-01,7.426983871853016783e-01,9.536224826973413449e-02,-7.655273952975037710e-02,8.223577930341322006e-02,1.942954421043395996e+00
-8.535378366490909974e-01,-8.756740864909221544e-01,1.028109764723924791e+00,4.115396000687763546e-03,-6.326015955196587562e-03,-4.503586551764260544e-03,1.892874002456665039e+00
-8.638948045734097247e-01,-8.688535088659096184e-01,1.048467876950767153e+00,-1.909015197294026403e-03,-1.564294665885699372e-03,-4.102320315138610965e-03,1.914864778518676758e+00
-8.604773734649068251e-01,-8.488693600501945324e-01,9.634236245571425883e-01,-1.022340692311353959e-02,-2.974888850777379981e-02,-4.371327416170532436e-03,1.818956732749938965e+00
-8.582496427131307559e-01,-8.734038436820618090e-01,1.026819609274343126e+00,2.884175585674397108e-03,-1.298645091262786409e-04,1.748133605560286182e-03,1.892700910568237305e+00
-8.621116271310760304e-01,-8.543735669160382740e-01,1.020808015817868508e+00,-5.431486720143868709e-04,-2.735090537151358900e-03,2.865820848974013312e-03,1.879075288772583008e+00
-8.794905348016963664e-01,-8.361645934402021085e-01,1.004105329451611794e+00,-4.219694935452517927e-03,-1.566640354920983622e-02,-4.779693689455313810e-02,1.864361882209777832e+00
-8.666045581198787984e-01,-8.622010529310806248e-01,1.053675048941507875e+00,-9.210108648779542079e-03,-5.439903333311358821e-03,-1.665443993704724800e-03,1.918173313140869141e+00
-8.632722882504321182e-01,-8.498400455150160182e-01,1.065534282871911875e+00,-1.504019305288552353e-03,6.311056847935996375e-03,-6.028700225293337489e-03,1.922186851501464844e+00
-8.186749136053290687e-01,-8.041742613829295783e-01,1.039289548732647228e+00,3.404104500187535732e-03,6.678551213268718242e-03,-3.110587059314508761e-03,1.850810170173645020e+00
-8.496450822106049738e-01,-8.643478370705773850e-01,9.823372738984570418e-01,2.602180122755246450e-03,-1.898342883055598868e-02,9.771265973174342659e-03,1.839755058288574219e+00
-7.870784117272672242e-01,-7.932705179040918653e-01,1.026631930593218778e+00,2.147504383562153299e-02,1.884033924117671163e-02,8.932056613098499770e-03,1.817553877830505371e+00
-7.932399471450169992e-01,-6.014871881604448856e-01,1.040769109306878493e+00,3.563476395971386101e-01,-2.563100323849003617e-02,3.233718262725385900e-02,1.853305339813232422e+00
-7.505471025343449787e-01,-5.994902325148010469e-01,1.158201993129469143e+00,3.799256660003639263e-01,1.066801834593825576e-01,1.631064428945164513e-01,1.981109619140625000e+00
-8.580492987336317823e-01,-8.585948330684161078e-01,1.070987657253476444e+00,3.488578367541342404e-04,4.501474725022262813e-03,5.244560017142322825e-03,1.929347038269042969e+00
-8.517623259200711727e-01,-8.467937500523059491e-01,1.060530553075339499e+00,1.349683728234694728e-03,-3.207132671959338557e-03,8.657775308430280814e-03,1.909881830215454102e+00
-9.908089757053102353e-01,-3.680115100338167133e-01,1.046988992844315458e+00,2.652607290611750379e-01,-5.506641456783146343e-02,-6.856568112765830392e-02,1.872338771820068359e+00
-9.665844583273333068e-01,-3.102878382736549145e-01,1.550563159915995914e+00,2.671631775429799127e-01,-2.274400515085792385e-01,-1.397896579013442053e-01,2.354294061660766602e+00
-7.558119963489801085e-01,-8.192047836685750761e-01,1.030951524126266339e+00,-5.134228016979170903e-03,5.423347486068087059e-03,1.684181607556243729e-02,1.819568276405334473e+00
-8.330839603752542288e-01,-8.486196022896329572e-01,1.055931484990236147e+00,-3.213510605494650663e-03,-8.118761174922524762e-03,-4.037741782621408725e-03,1.896904110908508301e+00
-9.764143232024294905e-01,-5.514191361294985549e-01,1.165772274940927611e+00,1.018597375717522485e-01,-4.791235630970794301e-03,7.200942606950242776e-04,1.972400069236755371e+00
-7.983833674863334284e-01,-7.218048486667566488e-01,1.033603435931893522e+00,6.309342027366438010e-02,2.988574367355723883e-03,3.206770012111953561e-02,1.799111843109130859e+00
-8.587837664252556680e-01,-8.596696689949432368e-01,1.060159755914249047e+00,3.648144258918815290e-04,6.850784376410623219e-05,-5.895254627187926540e-03,1.919413924217224121e+00
-7.609501753637122334e-01,-7.589962909203498143e-01,1.085878192729126779e+00,1.636073066624692818e-01,-6.790901513320511673e-02,-5.128873749314847436e-02,1.873285651206970215e+00
-8.622635370790679987e-01,-8.610734259891071884e-01,1.037516337479221562e+00,4.831436338503286750e-03,-7.344371699446001697e-03,7.250814075938908330e-03,1.899287700653076172e+00
-8.571682257597078580e-01,-8.501446449253354798e-01,1.070411852942838360e+00,-3.224622289198385630e-03,1.742048185404428086e-03,-4.051712548307797451e-03,1.924101114273071289e+00
-6.642935010336268320e-01,-7.859997739185267118e-01,9.822433077364316478e-01,3.916174846556765010e-02,5.516735033156420359e-03,1.340410560961094628e-03,1.712012648582458496e+00
-7.352258585504026778e-01,-7.655258355037030116e-01,9.988775371019642524e-01,1.855976975265876197e-02,4.373128294326160230e-03,-1.772878235893054523e-03,1.749764561653137207e+00
-7.206034218219692367e-01,-7.918579816316757558e-01,1.002677253745421826e+00,1.016779490347405161e-02,3.737480013473123714e-03,-4.663593623211857069e-04,1.760090231895446777e+00
-7.915940296663932507e-01,-5.920391832934840393e-01,1.040823933789499112e+00,2.855923637543785754e-01,-5.794869000840439065e-03,-8.277366656570339307e-03,1.810222387313842773e+00
-7.833192278152510957e-01,-7.893597606203968109e-01,1.025102423165670906e+00,1.737081736238056326e-02,7.319741592625426431e-03,1.672297807021715793e-02,1.811975240707397461e+00
-8.474867467089430839e-01,-6.317859605916011922e-01,1.007083552818390126e+00,-5.124790570729668288e-02,-5.530068009240078283e-03,5.456742068549207646e-03,1.758972883224487305e+00
-8.474162087670651378e-01,-8.497388238796590443e-01,1.061448344756740658e+00,-3.261477074852383012e-04,7.468176514781722439e-03,1.442324006485896232e-02,1.910234212875366211e+00
-8.299463714553105831e-01,-8.519522906076685276e-01,9.206255014024580241e-01,9.201476195882820480e-03,-5.111553459591261332e-03,-3.574904511040356142e-02,1.762860059738159180e+00
-1.013926409004090479e+00,-3.165274791005051602e-01,9.504477073022505884e-01,3.909936163780589613e-01,1.558912163648556171e-01,7.373796516473109242e-02,1.876972198486328125e+00
-8.612483787299313187e-01,-8.633461266251262201e-01,1.044671043416810496e+00,3.624113522079176752e-03,5.158882019958899168e-03,-6.480477520133555262e-03,1.907033443450927734e+00
-7.426872953231088426e-01,-8.163978738197872342e-01,1.023360708467743851e+00,1.809747538314177701e-02,-8.024144430190914556e-03,1.724159967446202771e-02,1.804605960845947266e+00
-8.560160324779717556e-01,-8.690189615274447332e-01,1.006686090044012438e+00,6.090010264592833622e-03,1.558943566248048801e-03,-7.557877895751642303e-03,1.869315028190612793e+00
-7.083660092795938112e-01,-8.985846953975092921e-01,1.043745048986471247e+00,-1.343525230747815921e-02,-2.878860504967105730e-02,1.815848412391998096e-02,1.855633974075317383e+00
-7.615623983974524336e-01,-9.575216405452202650e-01,1.095021794339487098e+00,-2.436604404179093172e-02,-8.563445675213242347e-03,1.148873377405966803e-02,1.962528109550476074e+00
-8.777202548613726174e-01,-8.377328533804659916e-01,1.041503855025183611e+00,1.711293334643726590e-03,1.993880205194691491e-03,-2.068695012432044886e-02,1.899889469146728516e+00
-8.618980304137005000e-01,-8.676487017266517610e-01,1.036801409138943919e+00,2.306495861673043667e-03,1.442015150701069729e-03,-1.025228879292685961e-02,1.901670098304748535e+00
-8.702827866936035939e-01,-6.035198986682306366e-01,1.033820682054968909e+00,4.425301637727520332e-02,-1.110680874544836549e-02,4.133951624289945660e-04,1.787477016448974609e+00
-8.506095815701341101e-01,-8.533870573684491090e-01,1.053589147119490477e+00,-1.285960104267927029e-03,8.921093912921115388e-04,5.203466258235806344e-03,1.905612230300903320e+00
-8.539156149970147380e-01,-8.554463944156349697e-01,1.030443209519569914e+00,-2.136229130347834862e-03,1.232554827353089105e-02,3.708793736642959464e-03,1.885260105133056641e+00
-8.560587781616555425e-01,-8.642799501364212267e-01,1.025211469082230709e+00,2.896856451610356920e-03,-7.505499843071133416e-03,-4.165284995083687325e-03,1.885459542274475098e+00
-8.551631813390802028e-01,-8.724319204034564068e-01,1.029312851902445924e+00,8.648466775335659877e-04,-9.610156306212909103e-03,-3.849617323856522385e-03,1.893254995346069336e+00
-8.671534259851539916e-01,-8.585782735990576953e-01,1.025909759389556530e+00,-4.122892427875632024e-03,5.065920650563450998e-03,-4.437433764020769569e-03,1.888839721679687500e+00
-8.588220644453357089e-01,-8.533704570380842291e-01,9.606133158726599675e-01,1.791731501853708469e-02,-3.655160785588094756e-03,-1.760497130557279327e-02,1.817247629165649414e+00
-8.253271258956164091e-01,-8.313737799265988881e-01,9.582530276507568168e-01,-1.528560885798219138e-02,3.422538031294632133e-02,-2.958240068893906033e-02,1.788524508476257324e+00
-8.614874132901794157e-01,-8.567842154228513252e-01,1.050707163909465836e+00,8.817085262752107295e-04,5.950350116897848256e-03,8.783217930238602575e-03,1.909936308860778809e+00
-8.803404725502687045e-01,-8.443382061767912283e-01,1.062600548300839831e+00,3.350146357845780812e-03,3.761298157322516609e-04,-9.455035178407346710e-03,1.925270915031433105e+00
-8.718309146722428293e-01,-8.751701550545812891e-01,1.004689044520379326e+00,4.840342112500497715e-03,2.518528964346690782e-02,-5.528466322826889462e-03,1.878741383552551270e+00
-8.392165682788212955e-01,-8.201026653733775040e-01,1.055175240411561743e+00,6.589914268364950589e-03,-9.301058528967733399e-03,-5.217217270252997620e-03,1.885032653808593750e+00
-8.440109158698900771e-01,-8.565839381880834269e-01,9.542277205289162456e-01,-8.825978535748455964e-03,3.303765717128315672e-03,-1.574512470508833200e-03,1.804633855819702148e+00
-8.576639208416364513e-01,-8.557899238767610051e-01,1.069024335977959206e+00,-2.802484525276177857e-04,4.653024717695551822e-03,-6.209956906058758169e-04,1.925769209861755371e+00
-6.045778714882599214e-01,-9.550799938029969072e-01,1.052177678211188905e+00,2.025872244052613069e-01,4.083348162061611192e-02,-3.207059433166677825e-02,1.891982913017272949e+00
-8.360915958865748898e-01,-8.753877502054626669e-01,1.045563173374455479e+00,2.719592580077805511e-03,2.768336239332670062e-02,8.656495487787713161e-03,1.902276754379272461e+00
-8.459380965443200617e-01,-8.632237553737382996e-01,9.668084903643638928e-01,-5.160181375102478388e-03,1.035063573415224460e-02,5.173746171577772723e-03,1.821583151817321777e+00
-8.632144379183822602e-01,-8.412389314458639245e-01,1.038367632687634101e+00,3.957640025260437196e-04,3.844390968604003474e-03,-1.455704255255878786e-02,1.890870094299316406e+00
-8.626922568817954051e-01,-8.487330742603648170e-01,1.057812792389656753e+00,-1.506849871885550946e-03,1.168719811455819213e-02,-6.040041856810229870e-03,1.913701057434082031e+00
-8.590159824937170230e-01,-8.416444699785922134e-01,1.061070930674506974e+00,-4.079413155147266178e-03,1.217274889894615422e-02,5.627816644133103305e-04,1.911589980125427246e+00
-8.607993315394899536e-01,-8.480891987394788556e-01,9.728935322734995061e-01,-7.940428499142331009e-03,-1.517834092195208956e-03,-1.044953667910094273e-02,1.827514171600341797e+00
-8.495105953753723238e-01,-8.358580400740107663e-01,8.868760698335098613e-01,-1.290337380284499328e-03,4.758728692029254997e-02,-9.671437640893791772e-04,1.731565833091735840e+00
-9.254837114233797069e-01,-9.569678552602912669e-01,1.401323417754842593e+00,-5.007349660633053645e-01,9.874185211274009999e-02,-4.479592683846226470e-02,2.505146026611328125e+00
-8.578602559779456849e-01,-8.504491407637772005e-01,1.068494479143789588e+00,-3.253373081782731137e-03,9.753602252294194322e-03,-8.926080289922877671e-04,1.922742962837219238e+00
-8.638615039781312177e-01,-8.662204692484281043e-01,1.065707876590050063e+00,-9.706458691994432298e-04,5.807335095051645649e-03,1.295107684938939753e-03,1.930778145790100098e+00
-1.350817223661179067e+00,-5.021857844570042362e-01,5.788233795219925870e-01,3.027512477883917419e-01,-1.378691281863838602e-01,-2.097553895351110531e-02,1.771850228309631348e+00
-1.404453294985303691e+00,-3.340766076288774755e-01,1.663261097553448531e+00,1.596932808377959923e-01,3.673625206318153341e-02,5.607455322301610479e-02,2.713476657867431641e+00
-8.697346362212579063e-01,-8.595316971651965066e-01,1.027092514598652917e+00,-1.129350647346235529e-03,5.715858594627918829e-03,2.458393423110270034e-03,1.891777992248535156e+00
-8.704474072027149623e-01,-8.726703161155883182e-01,1.034396321464344570e+00,-2.796175485103940091e-05,6.723062074208594266e-03,-3.837685786340920297e-03,1.906003355979919434e+00
-8.651647136824656137e-01,-8.688076443579000330e-01,1.061383189908331470e+00,6.295320049936983450e-03,-5.430823555941669857e-03,4.992955563142083622e-03,1.928445100784301758e+00
-8.620454212256020154e-01,-8.720418614322219542e-01,1.052120067963544514e+00,1.609963231575565860e-03,-6.329358621344681642e-03,4.688956047915682039e-03,1.919233798980712891e+00
-8.539246284839374646e-01,-8.323439165246284688e-01,9.280404657042031769e-01,6.535126081439493646e-03,5.620183197077743137e-02,-2.998573027710514302e-02,1.774742484092712402e+00
-8.640212729160471339e-01,-8.594767709136200695e-01,1.025489697807611567e+00,9.454746180335123554e-03,-8.977656023085246045e-03,8.816757395162974978e-03,1.887439727783203125e+00
-8.449243777933252986e-01,-8.751247058413893498e-01,1.045543288039709307e+00,3.504366111680346039e-03,1.316105917437745618e-02,2.637722807040978647e-03,1.905898809432983398e+00
-1.062722111086314314e+00,-7.357536715920728332e-01,9.749199733903726184e-01,2.385686705706781350e-03,-2.760520631638373884e-02,-1.387003081033843788e-01,1.911194801330566406e+00
-8.525162367961256482e-01,-8.458987831904979382e-01,1.058978005432981817e+00,-2.095236396950641948e-03,5.827743175491394666e-03,8.092804732485669658e-03,1.908275723457336426e+00
-8.648623302346657438e-01,-8.651236747420557593e-01,1.071827046777636738e+00,1.496568510043814679e-03,2.177581130711515010e-03,3.975304683510315004e-03,1.936837673187255859e+00
-6.752673987414596901e-01,-9.330024524711609812e-01,1.050465165494770314e+00,-2.805984985496422918e-02,1.148349636877401235e-02,-3.525830550304718657e-03,1.868731379508972168e+00
-8.721143446053606363e-01,-8.642503668905621161e-01,1.030967424210615047e+00,1.836238346909136853e-03,9.085873353713651637e-03,-3.975734063899986730e-03,1.899242281913757324e+00
-8.557374977457347098e-01,-8.689418688525473167e-01,1.037993936707628295e+00,9.624587735411388239e-04,-5.642488171984877919e-03,-1.016489124270708718e-03,1.900394678115844727e+00
-8.786945464190969446e-01,-8.544925242965709655e-01,1.023329434887896960e+00,-6.984117936418344531e-04,-4.463313148614661378e-03,2.332877977331017025e-03,1.890059709548950195e+00
-8.528229760724460595e-01,-8.420265969498137437e-01,9.321420949887604390e-01,-7.532121081894375958e-03,2.576943525916456507e-02,4.607932431747851360e-03,1.780216813087463379e+00
-8.301230305430727929e-01,-8.667170464970130883e-01,1.039069830878441403e+00,9.241157524778180823e-03,2.506898118514121199e-02,1.010358012758989094e-02,1.888404130935668945e+00
-7.886708731940826889e-01,-9.046712393587443835e-01,1.035130798030950317e+00,-2.012554862391133497e-03,-2.003758920129862509e-02,-9.123189039852560786e-03,1.884870409965515137e+00
-8.210586832853328243e-01,-8.604295170719392649e-01,1.051709628212031733e+00,-2.503483172453171458e-03,-1.089529660350179417e-02,1.402400215489244678e-02,1.893015742301940918e+00
-8.635897358573172422e-01,-8.297674705258554217e-01,1.033609099048568458e+00,6.920072338213987401e-03,-6.928722710964165150e-03,-2.308910751702349107e-02,1.881017446517944336e+00
-8.639029286675563579e-01,-8.126955358234599913e-01,5.693814217823749413e-01,3.070709004601624229e-02,-2.149785128133638312e-02,-9.932756819557769790e-02,1.420332551002502441e+00
-8.717978816635389983e-01,-8.628922858010397157e-01,1.036370110971713832e+00,-9.812782980354766479e-04,8.902297037498110507e-03,4.519213170960144159e-04,1.903794169425964355e+00
-7.885237100433093449e-01,-8.684623943533041901e-01,1.022332457143711792e+00,-7.428287592007124798e-05,-1.942205787959468133e-02,2.070087143376901032e-03,1.852428793907165527e+00
-4.304522084028403750e-01,-1.168585446018022944e+00,7.603234482044729514e-01,-1.662140548498919623e-01,1.088622111271567716e-01,-1.527392780301181641e-01,1.740735650062561035e+00
-8.439176879909623397e-01,-9.808289566146826122e-01,1.133079514965742662e+00,-1.325648509044215773e-01,-1.421634700268357698e-01,4.792495298353177148e-03,2.076380491256713867e+00
-8.513212258868362303e-01,-8.549611207020803016e-01,1.008533160987304722e+00,-7.388530847805274693e-04,-3.125177020260444180e-03,-1.235290591574814470e-04,1.861685276031494141e+00
-7.650283999377832655e-01,-8.998689589367315778e-01,1.014841412301125567e+00,1.233412347705086821e-02,-4.658027416101324231e-02,1.012392030949647859e-02,1.852940917015075684e+00
-1.299330824770486004e+00,-5.805927375185879757e-01,6.209282004894560725e-01,2.693373879590021946e-01,1.170748214758925154e-02,1.775438129954571564e-01,1.770994186401367188e+00
-8.758569692203892476e-01,-8.583236743812563407e-01,1.024619787492070389e+00,-4.025802456215154396e-03,-5.180962673681573961e-03,1.971171674533610686e-03,1.891808271408081055e+00
-8.351191096742457409e-01,-8.373514282818652621e-01,8.879464272236556877e-01,1.009600551747155336e-02,-4.504754229793431902e-02,5.769701086721879674e-02,1.728926420211791992e+00
-8.486937627061942324e-01,-8.663733090121817915e-01,9.688896205145678397e-01,1.337044899143128782e-03,1.285859648173067436e-02,4.010884479479326185e-03,1.826637744903564453e+00
-8.558631401511255232e-01,-8.593018115048850492e-01,1.027303165428153253e+00,-2.125091183737113157e-03,-7.113589813584337077e-03,-1.750131908555250821e-03,1.884934306144714355e+00
-8.606847598027921320e-01,-8.647406881462230688e-01,1.046193057704402518e+00,-2.127753333348766148e-03,1.548965042551315790e-03,6.135760749517631639e-03,1.908944010734558105e+00
-8.171439394566084591e-01,-8.302979166735643402e-01,7.923030387378304784e-01,1.255125904991371937e-02,-4.633577810811224246e-02,1.481667543551739297e-01,1.638425111770629883e+00
-8.263196704274906601e-01,-8.143564672020967565e-01,8.040429247204874397e-01,7.884561357337975182e-03,4.637612145784480999e-02,-2.730584026138526549e-02,1.627143621444702148e+00
-8.274977579088365065e-01,-8.340680650859492173e-01,8.605555942865701358e-01,1.187336137233338008e-02,8.948567824749941238e-03,4.362996521155924901e-02,1.693231344223022461e+00
-8.482860982595195054e-01,-8.306074066572838310e-01,9.653873620523174548e-01,4.399760856996627265e-03,-5.318033178568834854e-03,2.127993159298056935e-02,1.805314898490905762e+00
-8.602647576519407702e-01,-8.543276897994485086e-01,1.041345119420560072e+00,1.559134215353731590e-03,-3.053906358830018979e-03,5.318305284348097536e-04,1.898657798767089844e+00
-8.595367145297129197e-01,-8.649027266513266143e-01,1.046888938709449324e+00,-3.097716866322849320e-03,4.122423218608302527e-03,6.998299525162308098e-03,1.909173727035522461e+00
-8.073742506609962177e-01,-8.473887013407369606e-01,1.062190307163460634e+00,2.810258471626690679e-02,-3.108418241277658908e-02,-3.259702748638853426e-02,1.892125248908996582e+00
-8.118599210238165442e-01,-8.229435889089953271e-01,7.861370120490114299e-01,6.811617281994449338e-03,-4.295699031119950412e-02,3.646601226396167794e-02,1.606578111648559570e+00
-7.305556757287192671e-01,-8.403446706356610951e-01,1.047872348498189998e+00,-6.748818587892421728e-02,4.465030887203000343e-02,-3.976718752177518107e-02,1.842417120933532715e+00
-7.456113854797568052e-01,-7.924110358854771219e-01,1.010916638946120605e+00,-1.542595658089215664e-02,1.496717371658369371e-02,-1.443930217160349465e-02,1.780954003334045410e+00
-8.728796119485366933e-01,-8.619703273419060396e-01,1.051472566346137727e+00,-4.487331273134620609e-03,-2.097132169028318935e-03,-6.049156436651930736e-03,1.918968558311462402e+00
-8.645289689300573732e-01,-8.634231064076773876e-01,1.072471217288824885e+00,-1.904343789245853749e-03,3.258512806927991740e-03,-8.627186438118279082e-04,1.936459064483642578e+00
-7.884305484932818686e-01,-8.217959289754054319e-01,1.037536850393676380e+00,-9.182170272682262102e-03,1.336439807914974361e-02,-1.747569676552815365e-02,1.843339204788208008e+00
-8.654317444657602110e-01,-8.598733840442106535e-01,1.035916517995974395e+00,-6.875269353100577248e-03,-3.335599479318205208e-03,-5.693918435259267934e-03,1.898646950721740723e+00
-9.333718225666148838e-01,-8.245075762687006371e-01,7.810451502337130147e-01,-5.312987655863433689e-01,9.184182575579738494e-02,1.003532952181527826e-01,1.914886593818664551e+00
-8.619343717491938506e-01,-8.642783204310727774e-01,1.069067788733261581e+00,-3.217934418290866773e-03,-6.567435835535965008e-04,1.445555957672793775e-03,1.932185173034667969e+00
-8.455888455481368471e-01,-8.413997333386001864e-01,8.067570041986138474e-01,2.408820068035515474e-02,-1.289395751569024362e-01,7.041872241085229966e-02,1.670280218124389648e+00
-8.627467296784863127e-01,-8.568302348239914545e-01,1.065851299422351017e+00,-6.069006480626359945e-03,-1.774623385156599885e-03,-8.168568475841629303e-03,1.925729751586914062e+00
-8.467499269267817485e-01,-8.496411820946807580e-01,1.058917643440552725e+00,2.577838343631446479e-03,-1.018367047593982805e-02,5.428989203475904045e-03,1.907224774360656738e+00
-8.703084839135937223e-01,-8.655703503634193385e-01,1.068342561489654008e+00,-3.595750279412307515e-03,-6.445227431959095650e-04,-3.491741363858285110e-03,1.936306118965148926e+00
-8.522184385222499881e-01,-8.547539231953239502e-01,9.935163034555543060e-01,-7.521749087565882813e-03,1.268346765268936124e-02,-1.147728876726430806e-02,1.847287297248840332e+00
-8.881658658613514890e-01,-8.303970594063175836e-01,1.043376322849193683e+00,5.313923425559668144e-03,4.281891187061781338e-03,-1.636451438392252933e-02,1.903563141822814941e+00
-8.625355249597502771e-01,-8.641241359332078042e-01,1.029373579864530486e+00,1.047677939317527389e-02,-8.433277929467899656e-03,8.121789921013648078e-03,1.892899513244628906e+00
-8.649841043755659431e-01,-8.581294416627276433e-01,1.007534984894947971e+00,-1.176702175788942560e-02,9.412546748619042558e-03,1.856635648404656933e-03,1.869286179542541504e+00
-8.663939745648033819e-01,-8.598791676473012124e-01,1.031458436283756663e+00,-6.561579364499615062e-03,1.257400696235112282e-02,6.902993326913892287e-03,1.894800424575805664e+00
-8.586249418150087021e-01,-8.650595547093377080e-01,1.038015665793453834e+00,-3.915082054356204717e-03,6.484496715050107850e-03,6.938507219666214480e-04,1.899911761283874512e+00
-8.317412900821626875e-01,-8.641537950465500995e-01,9.844390606429029855e-01,3.770117452201424656e-03,6.077144864335595753e-03,2.035557788287873857e-02,1.832982540130615234e+00
-8.832794991827011000e-01,-3.978296469232273647e-01,1.168594133483675135e+00,-3.809942476092842978e-01,-2.258111143900084702e-02,2.114474670531083997e-02,1.971828103065490723e+00
-8.573614672193008435e-01,-8.777213598104133263e-01,1.036296361371806141e+00,-1.294150319143990042e-02,6.482789273324296442e-03,2.532587622657423224e-02,1.904589653015136719e+00
-8.632572121253867525e-01,-8.646719272473377682e-01,1.060414004725669157e+00,3.197327361874294227e-03,-6.943487262078263528e-03,1.544007269783300535e-03,1.924426317214965820e+00
-4.729907938783147747e-01,-1.103111490957950691e+00,7.008252787627291536e-01,-2.142325750087109570e-01,-4.530004997693706098e-02,-1.257342931290688914e-01,1.644935369491577148e+00
-8.561960833220048084e-01,-8.720465032121671456e-01,1.032383659127872333e+00,-1.725880354612988662e-03,4.483495156422465794e-03,-6.105057856628441464e-03,1.896602392196655273e+00
-8.588609355924482491e-01,-8.615708914863877688e-01,1.027643035843715413e+00,4.237091944395267838e-03,3.756426440515034815e-03,-6.042309689428095390e-03,1.887914896011352539e+00
-1.083855273458944168e+00,-1.049304040028302243e+00,5.346396507991124647e-01,-3.851239511046534725e-01,-2.883666828055224049e-02,1.809898876144744873e-01,1.763668537139892578e+00
-8.675157904587728064e-01,-8.498394923208075769e-01,1.050696604322065131e+00,-5.610343704389477142e-04,1.086321650110927579e-02,-2.146012322135418954e-02,1.909890294075012207e+00
-8.411080409473343789e-01,-8.689735707430699119e-01,9.876020119099351291e-01,5.228659606098727715e-03,8.425774224520199331e-04,5.303372306573224046e-03,1.842846512794494629e+00
-8.585891157631783122e-01,-8.601215152458363544e-01,1.041995008793213273e+00,-2.735362915036965766e-03,-2.342667687506528804e-03,5.705501081894949998e-03,1.901386737823486328e+00
-7.651864925410303275e-01,-8.623749367649666819e-01,9.875822187759686344e-01,-1.889307385777171458e-02,1.400062764539826594e-02,5.511455186646789343e-03,1.803813338279724121e+00
-8.003214856103108010e-01,-8.770011745087024080e-01,1.040384057895290759e+00,-6.212786104810254749e-03,1.889196268210154017e-02,-7.620864823393224026e-03,1.880580306053161621e+00
-8.571146256439188260e-01,-8.620855069909886259e-01,1.050339294084147390e+00,-1.620845512865982637e-03,2.848685777920211427e-03,3.548049413369526277e-04,1.909952759742736816e+00
-8.645380136391765946e-01,-8.654025897313765148e-01,1.033413215268780272e+00,5.030304765755880779e-03,-1.626003623750707852e-02,4.351639755739851153e-04,1.898612737655639648e+00
-6.648450706285211620e-01,-9.271959858688920697e-01,1.036371239349816564e+00,-4.980331990379038148e-02,1.452562019072561363e-02,-2.801299345670314744e-02,1.849245429039001465e+00
-8.696989707071013376e-01,-8.556399086408463805e-01,1.015209391330481825e+00,8.104404317188847184e-03,1.485766478582261621e-03,-4.268411607696405083e-03,1.877987027168273926e+00
-8.118667770921510485e-01,-8.710947331803239324e-01,1.039248675469069960e+00,9.665073282175430311e-03,2.899998185472607570e-02,-8.813027187024544476e-03,1.882235527038574219e+00
-8.527097887534570431e-01,-7.411443727974367235e-01,7.353539399995596693e-01,-6.384031213679348948e-02,9.716735053363548258e-02,-2.645978094665581426e-01,1.614870786666870117e+00
-8.486381215700773417e-01,-8.695931281184579031e-01,9.905413543728283088e-01,1.265765627214109719e-03,-1.540125882785294128e-03,5.151934489021464322e-03,1.849770784378051758e+00
-8.648425712876561811e-01,-8.596079269322609573e-01,1.024350304552753776e+00,1.083630254898516020e-02,-1.834179805704253116e-03,6.691325816527899685e-03,1.886712670326232910e+00
-8.005510092132430700e-01,-8.612135365005019194e-01,1.035070962914446113e+00,-3.304433431641114194e-03,1.793975378852015815e-02,-1.001228018778669085e-02,1.867040514945983887e+00
-8.482555900425341466e-01,-8.351292160424861333e-01,9.237314984002598095e-01,1.510632910457771275e-02,-7.849203274039914802e-03,6.777306229668872764e-03,1.765745759010314941e+00
-8.633991147696596924e-01,-8.545720447100050299e-01,1.012510823354441092e+00,6.649829885597468952e-03,-1.779294472614645350e-02,-3.989263059815121443e-03,1.871813893318176270e+00
-8.656555575446194251e-01,-8.557848893981535587e-01,1.064165574713785256e+00,4.534895360994390355e-03,3.567827229579394969e-03,3.776890243077799837e-03,1.924941897392272949e+00
-8.382377535744091057e-01,-8.690910454851206168e-01,1.040850665289461352e+00,-2.569529954378915390e-03,-1.863513885492001920e-02,3.948790481974825701e-04,1.894983768463134766e+00
-8.661384435903263235e-01,-8.622938894156833012e-01,1.053512576764430220e+00,1.124926990289552018e-03,-1.277276398493244194e-03,4.401446630776918267e-04,1.917734026908874512e+00
-8.598226861821784972e-01,-8.489753943720728113e-01,9.785462566756766289e-01,-8.011926749963073358e-03,-7.921395142365467851e-03,-7.830755009004259151e-03,1.833123445510864258e+00
-8.581293385737902568e-01,-8.417967342856683688e-01,9.481689239002337732e-01,-4.662593844768364235e-03,-8.894263997054121032e-03,-3.776132749022709494e-03,1.798283576965332031e+00
-8.548082968549950422e-01,-8.791982840776731978e-01,1.078437675762340842e+00,-3.777369818361680977e-03,-5.729142329788695920e-03,-7.734937632689241165e-03,1.945638060569763184e+00
-8.519000519184454223e-01,-8.631477066138144583e-01,1.057140274164792171e+00,-2.093017781316934296e-03,-6.403123142583806021e-03,-1.023403119097241430e-02,1.914806485176086426e+00
-8.512252099678757622e-01,-8.561778010334329947e-01,9.642375464927632756e-01,1.187431993057494299e-02,-1.391277428673943356e-02,3.120926878019273862e-02,1.819023489952087402e+00
-7.151006949404750124e-01,-7.947521271025080880e-01,1.008806515808742699e+00,-1.577170471529193777e-02,-2.555840029667903312e-03,-2.367731488802848547e-03,1.765303015708923340e+00
-7.606446435171865250e-01,-7.505443775135973716e-01,5.749285994056883009e-01,6.142951176009023122e-03,8.246803148347893464e-02,4.666058588356348721e-03,1.338263750076293945e+00
-8.490188641736999831e-01,-8.585209240492462923e-01,8.735223667742255671e-01,1.587523583495685509e-02,1.078370685859943445e-01,4.977942440349480274e-02,1.739736437797546387e+00
-8.199872999318281730e-01,-8.082255509839190166e-01,7.799910216844159194e-01,-6.626951282201963035e-03,7.668919622106561140e-02,3.028774706920121101e-02,1.600555539131164551e+00
-8.384840366966448411e-01,-8.537634587262969976e-01,1.053703702530493613e+00,-1.797174718380722220e-03,7.435435725366501894e-03,-6.304565701863156825e-03,1.899951100349426270e+00
-7.898098856221917874e-01,-7.228073230518373693e-01,1.007995024312079879e+00,-1.863100335782433628e-02,1.391810486888979230e-02,-7.778830432363957928e-05,1.765717029571533203e+00
-7.973762011534120120e-01,-7.675316592507295255e-01,6.314787342450792762e-01,1.093451127060540099e-03,3.980514275079363035e-02,-9.811235284677158330e-03,1.415951728820800781e+00
-8.642966509824341337e-01,-8.728683063300678446e-01,1.035958776644383406e+00,-4.045281011294287951e-03,6.620447084607668752e-03,1.074917700656890900e-02,1.904694080352783203e+00
-7.563001339208093032e-01,-7.759143053239756505e-01,6.111412808378131611e-01,4.285283183395664948e-03,-5.762550313803587246e-03,4.470497087609009990e-02,1.379584074020385742e+00
-8.633970995607601617e-01,-8.639154634716721404e-01,1.055791956628294281e+00,-4.655096983593282403e-03,-3.746122910796133559e-03,-3.415986702629223229e-03,1.919485330581665039e+00
-8.543238228712528581e-01,-8.362518838799213317e-01,8.270056737776476652e-01,5.281221601451008794e-03,9.832261424829299989e-02,-5.275126204574370065e-02,1.683521389961242676e+00
-8.332983306884402808e-01,-8.772859075886122460e-01,9.911531792742303004e-01,-4.475038244042066045e-04,-2.680147384295311630e-03,-9.812727251829141129e-03,1.846922397613525391e+00
-8.564709851857820189e-01,-8.672894117820086901e-01,8.751063659088016422e-01,-9.518420439031281474e-03,4.962399048498716131e-02,3.103742402623875171e-02,1.740045785903930664e+00
-8.422060354781556457e-01,-8.215756646240344185e-01,9.418406875564071523e-01,-6.026210705409357909e-02,-5.334489708226941053e-03,1.379596951498122392e-01,1.792908668518066406e+00
-8.686350173389363327e-01,-8.681803632720382913e-01,1.059209229330913438e+00,-9.173505915106237515e-03,-2.229028571565364568e-03,-2.195462189738045609e-03,1.927690029144287109e+00
-3.532588191564723368e-01,-1.062206407811756348e+00,1.497686234666266492e+00,1.935652852699609461e-01,-5.766641572820979667e-02,2.684905161471750831e-02,2.316326618194580078e+00
-8.606361577804136909e-01,-8.507385444777905148e-01,1.068872038256073909e+00,-6.063427151743211885e-04,-5.763874964990395311e-03,3.780718319610996275e-03,1.924615740776062012e+00
-8.636956458458221464e-01,-8.625871752534939318e-01,1.060795432018031947e+00,-3.557713461132440934e-03,-2.952984904705824656e-03,-7.575343547802758891e-03,1.923998475074768066e+00
-8.623622539911999230e-01,-8.703602539142550887e-01,1.048809659434291275e+00,-5.327240079936073833e-03,-5.205244009608858777e-04,3.691957184086326529e-03,1.915216565132141113e+00
-8.286570691295898072e-01,-8.348647230106747141e-01,8.780900358207528456e-01,-9.650011768606987089e-03,-7.486173172170480609e-03,-1.471718980363252022e-02,1.710180163383483887e+00
-6.184348683754943565e-02,-1.088519381995819435e+00,1.100162029460090007e+00,-1.646432194816545985e-02,-7.036953854812534603e-02,-1.933955442029500899e-02,1.901082396507263184e+00
-6.748146279559041893e-01,-9.392598732569662490e-01,1.061581711947913176e+00,-3.804352743198359532e-02,-2.996246067254256656e-02,-1.854877685384198963e-02,1.884742021560668945e+00
-9.342645786528224194e-01,-7.402924395995975626e-01,1.055782614626041171e+00,-1.060393992962228860e-02,-1.411959491381413814e-02,-3.028849155680153268e-02,1.901469707489013672e+00
-9.236778860931773583e-01,-7.082985445741692976e-01,1.056739372688160428e+00,6.808921815693808402e-03,1.383763856648454610e-02,1.731390974201707858e-02,1.882421970367431641e+00
-8.564348637540901699e-01,-8.529339273863798532e-01,9.811000049131224365e-01,1.376167091020070662e-02,-1.143684892301011918e-02,1.186763742889302385e-02,1.836163520812988281e+00
-6.824405945866144352e-01,-9.345013481034787350e-01,1.044146822444005807e+00,-1.927866953230780028e-02,3.536422960488459777e-02,-1.868788363591066676e-02,1.867018580436706543e+00
-8.555603263935872560e-01,-8.563997517490485878e-01,9.820342059172710858e-01,1.250282422235868621e-02,-1.141415220389570447e-02,1.176472852557373765e-02,1.838361263275146484e+00
-7.643751667759393076e-01,-9.095452672913001413e-01,1.044313496143009834e+00,3.196022155015704885e-03,2.030484526797743383e-02,-9.770546211935383918e-03,1.885881900787353516e+00
-7.406946853431846112e-01,-8.666916422593862190e-01,1.061572221243307412e+00,-2.890599876934198467e-02,-4.576926222879149075e-02,2.262489098483587077e-02,1.871215701103210449e+00
-8.629885882169584521e-01,-8.613172467042877756e-01,1.042179476213649592e+00,2.357497114488621773e-03,1.002677366739146425e-02,1.252956585871090956e-03,1.904417753219604492e+00
-8.614146685586050456e-01,-8.676553610853392495e-01,1.046005198130202096e+00,4.549633435110002691e-03,2.505411773963698175e-03,-6.215368437752683689e-03,1.910599350929260254e+00
-8.573077510741542451e-01,-8.668708263071867037e-01,1.022440079727067186e+00,1.196247928350613072e-03,-1.850175008269333565e-02,-2.316741920145460112e-02,1.885248303413391113e+00
-6.626970617550420606e-01,-9.294005536292808678e-01,1.037882660945788071e+00,-3.445464326030627921e-03,4.411861155317854666e-02,-1.191190132238164473e-02,1.850122570991516113e+00
-6.912569600605162901e-01,-8.493108186042843677e-01,7.376720599893942243e-01,-8.772103298885963740e-02,1.068280000776202776e-01,-5.112623510343117239e-02,1.535522818565368652e+00
-5.688563231720197289e-01,-9.393811622489797175e-01,1.036728514988131566e+00,-1.967191610453111403e-02,4.282485512170892267e-02,-2.104082175805994590e-02,1.821562886238098145e+00
-5.513036851283470430e-01,-9.595867372292182784e-01,1.040404385876475324e+00,-1.537056580275137155e-03,3.606301458927401588e-02,-3.287313534406810403e-04,1.831394553184509277e+00
-8.526282018590343181e-01,-1.063599827660188346e+00,1.487968062856062090e+00,5.792441950432202225e-01,-2.030204435176032052e-01,-1.920051316302331113e-01,2.693978548049926758e+00
-7.556011567695701814e-01,-7.672076758349286596e-01,1.001821518677621814e+00,-3.016408727636070777e-02,4.613598420763975749e-03,-6.487643946202445791e-03,1.764082312583923340e+00
-5.629411779476550803e-01,-9.626268897022745019e-01,1.057265106506944496e+00,1.280844903377406641e-02,4.163838001343043299e-02,1.598883074787305417e-02,1.854413866996765137e+00
-5.092974112293673361e-01,-9.599136484934458480e-01,1.020420748315945980e+00,-1.729394438967823619e-02,1.412408368853295890e-02,4.879561081598162396e-03,1.798325777053833008e+00
-7.938838321392668318e-01,-7.425516794805880894e-01,1.013838552951802363e+00,-6.673112127148524142e-02,7.801519163539230584e-05,-7.025795716897518389e-03,1.786395311355590820e+00
-8.587878745173168626e-01,-8.688573418282398153e-01,1.017151577097274329e+00,9.318154682441622677e-03,9.478222300802955150e-03,6.178433285954692752e-03,1.881165742874145508e+00
-7.401976103158667275e-01,-7.701418744760654134e-01,1.004643646307559424e+00,-1.668726905202350119e-02,9.645953352260766642e-04,2.854198541699960560e-03,1.760249495506286621e+00
-8.291060086667130236e-01,-8.907269009822936789e-01,7.591126291345324795e-01,-6.678620680306263102e-02,-1.751732319299936225e-01,8.132174627051239058e-02,1.658125758171081543e+00
-8.160580104454796535e-01,-8.201446960265779129e-01,8.167722957142218299e-01,1.137166656603009161e-02,-9.192624802959950200e-03,7.556592349558867959e-03,1.635125994682312012e+00
-6.490427108346455976e-01,-6.733900534976428043e-01,1.011081258892408963e+00,-2.518059532902061637e-01,2.542927468003906497e-02,-2.405033361405402997e-02,1.729427099227905273e+00
-8.239348239832849918e-01,-8.698856781180587250e-01,9.054043471145962751e-01,2.261806023658465351e-02,4.815822506907783268e-02,-5.718341058968730989e-02,1.757979631423950195e+00
-8.140674979254057808e-01,-5.890611415365587522e-01,1.044955354521420299e+00,-2.272857165085460096e-01,-5.997711029045540466e-03,-4.120672160972650017e-02,1.802354097366333008e+00
-7.615936392096597229e-01,-7.525975825823176812e-01,1.008745905291381417e+00,-2.545142027204106219e-02,-3.664985661969343000e-03,-1.927927550199606431e-03,1.766423463821411133e+00
-8.633619514798682726e-01,-8.604320066445204640e-01,1.030218420647433186e+00,-9.877783996343043882e-03,6.669188836531335027e-03,7.235698147667433446e-03,1.892271161079406738e+00
-7.972118627475532904e-01,-7.302162221433763367e-01,1.005914109508875498e+00,-2.292201722626629329e-02,2.731556976290692301e-02,-9.758865729237677436e-03,1.771736621856689453e+00
-8.051819070205399331e-01,-7.886314574407664590e-01,7.145077165820570286e-01,-7.738080783227084362e-03,-1.057273562676328861e-02,-5.386313811577431339e-03,1.511681437492370605e+00
-7.546450990136296388e-01,-7.721085639646876331e-01,1.009726903201460857e+00,-2.941605977299902031e-02,-4.695959795843406351e-03,1.956915840427026626e-03,1.773921966552734375e+00
-8.585078663285276024e-01,-8.674504845894881466e-01,1.032193691501744670e+00,-9.627707139386463414e-03,2.785590006040154602e-03,1.563934758872859848e-02,1.895461797714233398e+00
-8.337995279135811399e-01,-8.386798933194491434e-01,8.535727477589143408e-01,3.611801789168422178e-02,4.323593786554503354e-02,-1.615790905102367989e-02,1.692864060401916504e+00
-8.223872670438331367e-01,-8.050820482862750538e-01,7.766934926268909134e-01,-6.695105745294363357e-03,2.355540228785811888e-02,1.185512766896299267e-02,1.591196656227111816e+00
-8.589344253908182125e-01,-8.673996654308285814e-01,1.059273023547339543e+00,-4.352527151322217042e-03,2.798693633955721353e-03,-3.717814154633933103e-03,1.922485709190368652e+00
-8.548356335702822495e-01,-8.677496921564175070e-01,1.008707594518316819e+00,-2.135635426672622891e-03,4.905752779833429805e-03,1.827858317186048520e-02,1.870324611663818359e+00
-8.638307578538885201e-01,-8.550751775551573841e-01,1.024734552249684016e+00,2.412356997962232432e-03,-1.373144683345262507e-03,-8.035343645328506257e-03,1.884260296821594238e+00
-2.487572201710731568e-01,-1.070696211119563257e+00,1.119264658801506496e+00,1.808477344022350330e-01,-1.697304026549501521e-01,-5.437875617640570980e-02,1.965937972068786621e+00
-8.519088434978313584e-01,-8.500640159310258737e-01,9.679970535128714637e-01,-1.161986964558443455e-02,-1.126250945683153828e-02,-1.118821959679025882e-02,1.819303274154663086e+00
-4.926033987267530723e-01,-9.894192372229471122e-01,1.168692673024526396e+00,1.369461681175149492e-01,1.620549638723861596e-02,1.461611189734192059e-02,1.972252607345581055e+00
-6.309977638095700669e-01,-9.519444572069144517e-01,4.969000288245958297e-01,-1.583821140495975943e-01,2.085121678326340988e-01,-2.486047888938649475e-01,1.458853960037231445e+00
-8.610709339714514021e-01,-8.646034936468643961e-01,1.033604157693663650e+00,-8.612351007079519991e-03,-7.584551739421988188e-03,-5.969185615143059002e-03,1.896576166152954102e+00
-8.676430519123955465e-01,-8.161119243263704748e-01,7.860668891617028642e-01,-1.223983001057394986e-02,-1.086181511155244334e-01,1.736091515811478136e-01,1.666870713233947754e+00
-4.598575165801062625e-01,-8.765102388850505299e-01,1.116441845504494657e+00,3.502393540925961557e-01,-1.724000681427894643e-01,-7.335491090881716969e-02,1.946381092071533203e+00
-4.427852420695909674e-01,-7.928498363715937858e-01,1.090935117368633023e+00,3.931505900489528083e-01,-4.275129371909949794e-02,-2.920552057902114571e-02,1.866410613059997559e+00
-5.495825865842081104e-01,-9.224414010344484938e-01,1.129634120434267919e+00,2.568247395973975999e-01,4.022291585987939483e-02,2.554453956782947940e-03,1.946189403533935547e+00
-5.895991211448201597e-01,-8.554183264447311474e-01,1.006408759753530502e+00,-9.130881948909619350e-02,-3.042119084388728370e-02,4.183846679982308053e-02,1.753622055053710938e+00
-8.638820984239645728e-01,-8.686730622559060144e-01,1.028174936559023811e+00,-1.709868479442185356e-04,5.002545388216489940e-03,9.242162212774728339e-03,1.894544482231140137e+00
-4.209194911674341566e-01,-9.550014463341920390e-01,1.023261819694145869e+00,-1.510405789251120234e-01,-1.003227583283578146e-02,5.753611565422221685e-03,1.791941761970520020e+00
-4.966698118519697336e-01,-9.149624888744167794e-01,9.980142888798224643e-01,-5.798089563752192171e-02,4.939165269561527098e-04,1.355925801324246553e-02,1.744964838027954102e+00
-5.839791754454459749e-01,-9.137394286222169093e-01,1.026412142481202494e+00,-2.140932506272578972e-02,-3.495333414072455264e-02,1.169525460990778615e-02,1.799609899520874023e+00
-8.634786506256683092e-01,-8.485279271802553813e-01,1.025222634933998345e+00,2.580468276728323240e-03,-1.383914092996853468e-03,-2.303908789652058496e-03,1.881281495094299316e+00
-6.920391739314313284e-01,-8.542165151877996188e-01,1.036184183400972181e+00,-2.327155169355988804e-02,-5.868815207017841901e-02,1.815828958053355979e-02,1.818318724632263184e+00
-5.883733084292182003e-01,-7.981856783225454999e-01,9.817116249835384778e-01,-1.108412389458040687e-01,5.764454283400495364e-03,-7.197897650239303566e-04,1.695750474929809570e+00
-6.568970791458202951e-01,-9.150654622989914388e-01,1.058632279351488181e+00,-1.597033390061655678e-02,-1.352976420847511012e-02,2.096461936244418262e-02,1.858822226524353027e+00
-8.526889227447549402e-01,-8.606160111546424796e-01,9.854375725679453968e-01,-1.079533764545342889e-02,2.155917112528259183e-02,4.794792166897923064e-02,1.844446778297424316e+00
-1.242970975198590455e+00,-9.038751229983241764e-01,6.531091894374649875e-01,-2.058322245001660833e-01,1.159295007392998900e-01,5.451260591159813595e-02,1.800968527793884277e+00
-8.621669985797026925e-01,-8.648074175878063263e-01,1.062034264293520325e+00,-4.181848319925481235e-03,-9.447245743006315493e-04,1.802052100678544228e-03,1.925539731979370117e+00
-8.031454729912473889e-01,-8.432386021013635879e-01,1.051357439269694272e+00,-7.818855908727002924e-03,-1.173070006929088568e-02,-1.001688804392040187e-02,1.875110268592834473e+00
-8.287491731412383045e-01,-8.282863503446064035e-01,1.052861033747685360e+00,1.094651901884607752e-02,1.105950920420532488e-02,2.624687990090952480e-03,1.881577372550964355e+00
-8.638848057706832728e-01,-8.515528378951271460e-01,1.065026716439742671e+00,-1.538478539949832916e-03,1.007716063028626929e-02,-5.900966925754565565e-03,1.922883391380310059e+00
-8.128166254847286609e-01,-8.430518711912385887e-01,1.044263201515807982e+00,-1.151123905367649677e-02,8.142334323286712708e-03,-1.280436094188681624e-03,1.872541069984436035e+00
-8.941355304744346144e-01,-7.804970641339066262e-01,1.051470263699529228e+00,4.193440665760008422e-03,4.600437940579351140e-03,-2.544310589213179263e-02,1.891892790794372559e+00
-8.282635292122699777e-01,-8.501142765094890086e-01,1.057105560068476890e+00,-6.713589907186096918e-03,1.035748551006309727e-02,-1.238759116788075085e-02,1.896630764007568359e+00
-8.159536256302415413e-01,-7.863035286774439081e-01,1.030406086325884152e+00,-1.017642008351299886e-02,1.661661900311447657e-02,-1.255942295861203414e-02,1.832154631614685059e+00
-8.297347843597668859e-01,-8.444651275532151224e-01,8.959694744489301588e-01,9.928393509940151504e-03,-6.078699767020794009e-03,1.041942941438621373e-02,1.733327627182006836e+00
-8.416395613044019841e-01,-7.307518073408211245e-01,5.305261234685337834e-01,-3.534720889169700592e-02,-2.803689207194366359e-02,-9.386019928288034941e-02,1.332484126091003418e+00
-8.449834535348044184e-01,-8.405352010312867606e-01,1.045494205684481592e+00,-9.651536855248209548e-03,3.957889333208320336e-03,2.254102206365867118e-03,1.888347983360290527e+00
-9.404714132000439042e-01,-4.796924020066650196e-01,3.459982410051037904e-01,1.399098077880343016e-01,7.337495322357513727e-02,-1.217855091186429844e-01,1.180641531944274902e+00
-8.571082794201069222e-01,-8.524566923122642859e-01,9.831155635606634302e-01,-1.204457349087478986e-02,-1.778598819248899607e-02,-1.463811319302139868e-02,1.838453888893127441e+00
-8.504630608655049384e-01,-8.667332634436100136e-01,9.980998316250442315e-01,-9.758048639153337964e-03,5.217262988686530503e-03,3.115723061782908147e-03,1.856858253479003906e+00
-7.657782107103106028e-01,-8.288719089604684731e-01,1.047043143314704716e+00,-2.856260868287766735e-02,2.134145227501464681e-02,-1.679430736788792289e-02,1.846439719200134277e+00
-3.787826682673849366e-01,-1.519609390855363174e+00,1.418945535229563237e+00,5.900492799260759896e-02,2.123182114277836208e-01,1.933048988551039002e-02,2.594419240951538086e+00
-9.604986915966293726e-01,-8.154261333809409429e-01,1.021780314633555786e+00,1.132493464777733633e-01,-4.043317294823612490e-02,-1.075884660163182842e-02,1.925261020660400391e+00
-9.650109116420391153e-01,-4.126039171060754129e-01,9.572759294960508925e-01,2.454146134223815501e-01,6.446564204921780006e-02,8.557848523040488542e-02,1.775831937789916992e+00
-8.511708023310659010e-01,-8.634920726686311498e-01,1.021093120847763824e+00,6.850753692175565353e-04,-7.246181606425723849e-03,-1.992475738680412039e-03,1.878500342369079590e+00
-6.250514280547248003e-01,-9.408314639840980043e-01,1.041497515327859391e+00,-9.393126550508121633e-03,2.284437737823958453e-02,7.928282381343292051e-03,1.845368266105651855e+00
-9.777442214888363292e-01,-6.214416989869754326e-01,1.070024470219396395e+00,-3.223561447111951092e-04,-5.043286973962999437e-02,9.371320565191597340e-02,1.903854012489318848e+00
-1.059812471486722529e+00,-7.403140884889324314e-01,1.182917790336182939e+00,1.771575779700966871e-02,3.450137163633881787e-02,-8.001522998492001382e-02,2.106914758682250977e+00
-1.006954729303845442e+00,-8.476780653224765816e-01,9.352838608695868139e-01,4.840906912953262670e-02,-4.786001320005076748e-02,-1.006446441548042026e-01,1.879520297050476074e+00
-8.674860606227868809e-01,-8.577630139601868375e-01,1.017937917281293236e+00,-9.529452100129721243e-03,-7.251501156124093295e-03,5.166228973180527623e-03,1.880716919898986816e+00
-8.550211312008277886e-01,-8.538718502061467541e-01,9.984119256601884373e-01,-6.724429098470124065e-03,-1.127378896121831141e-02,1.161770269313408196e-02,1.853107452392578125e+00
-8.556164608371863434e-01,-8.526347227315018706e-01,9.516542618117032060e-01,-1.573323627288734927e-02,1.795969439184006908e-02,-1.187045848822197540e-02,1.806372165679931641e+00
-8.443310003147553866e-01,-8.351802641076868650e-01,8.883397630404650247e-01,-1.109457592092505038e-02,3.213722739249753879e-02,3.759166438424973999e-02,1.730342030525207520e+00
-8.190655648568664349e-01,-8.347624733164017430e-01,8.360465979525848468e-01,-3.196342158382382836e-02,-2.068639978513184610e-02,2.239415110346188592e-02,1.664775133132934570e+00
-8.734386202092933038e-01,-8.309346507052993713e-01,8.758432849308330770e-01,-1.345428691311848987e-02,-6.465590774755408665e-02,-2.066180797795027016e-02,1.732572436332702637e+00
-8.317996615520114601e-01,-8.318454392930262342e-01,8.490435438293315595e-01,1.226697255880766224e-01,-8.029501248549794634e-02,-9.880917351297596393e-03,1.700026273727416992e+00
-8.239375623143184724e-01,-8.237333016313775902e-01,8.408175951457506070e-01,-1.651401918245962858e-02,-1.058005800320791466e-02,-1.058614228961964748e-02,1.665100574493408203e+00
-8.674525443760239263e-01,-8.499229178735192569e-01,1.049503677976104887e+00,-1.771678453495626740e-03,-2.341382363340134207e-02,2.393200649772519052e-03,1.908689618110656738e+00
-8.373106465791293473e-01,-8.187693489961762605e-01,8.350425411463151537e-01,-8.480839613178628097e-03,8.678295533444803020e-03,1.861422616381562924e-03,1.663295984268188477e+00
-8.245845445533072082e-01,-8.136770169194927904e-01,8.374759060088659002e-01,-1.167771285902353268e-02,-1.033132229301890644e-02,-1.483841292311396248e-02,1.657052993774414062e+00
-6.274809840373223313e-01,-8.906540333146474309e-01,9.894537334110429239e-01,8.853479759931033588e-02,-6.572621103695097666e-02,-3.765958455830566848e-02,1.774824261665344238e+00
-8.301935997029448178e-01,-8.483068745023701895e-01,9.007231250817253621e-01,1.474281837506311379e-02,1.041900146223934988e-02,-1.276642755581152387e-02,1.740465521812438965e+00
-8.543958515219591821e-01,-8.750438785271180686e-01,1.032727762299635144e+00,-1.885439454719548295e-03,-5.583672067229501941e-03,2.423256563126833266e-05,1.897559285163879395e+00
-8.487927507332108101e-01,-8.664839183547911050e-01,9.944195239528226260e-01,-6.336036778065188418e-03,-6.662499500396574549e-03,-6.411304251394501184e-03,1.852222919464111328e+00
-8.781560626130724412e-01,-8.282483232116906180e-01,9.817567768906907411e-01,-2.781788110661040543e-03,-3.972557364266747449e-04,1.843120247385716948e-02,1.835752010345458984e+00
-8.533173877937241247e-01,-8.381432323486521785e-01,9.352439932005789380e-01,-1.103041326647993293e-02,2.785972277022433913e-02,-3.420443724630677085e-03,1.781788587570190430e+00
-8.581707297380422039e-01,-8.544108129719378830e-01,1.020656410448491647e+00,6.120026596274912023e-03,7.734052202285232776e-03,-1.099923560097987481e-02,1.877124428749084473e+00
-8.928307680470474184e-01,-7.255055381936404979e-01,9.770860601719009164e-01,1.172242986699916639e-02,-9.399856130434428936e-04,-9.092869507412244118e-03,1.792307257652282715e+00
-8.600301928319029621e-01,-8.514100911043486208e-01,1.064292058581130629e+00,-4.524582428513112230e-03,-6.044040461275056869e-03,9.647075161877642982e-03,1.920143961906433105e+00
-8.701061763338772126e-01,-8.336830646289177249e-01,1.000237096469057674e+00,6.327471936470820471e-03,4.512735283858667484e-02,4.052086736795255245e-02,1.855408906936645508e+00
-8.695700583054591926e-01,-8.564299221903307613e-01,1.017073554816509073e+00,-1.174569615516160744e-02,1.268368820555760244e-02,3.400561140629347612e-02,1.881268620491027832e+00
-8.300347029912755747e-01,-8.580514196611136457e-01,9.141868747495218717e-01,-5.054884631971698003e-03,1.985663975717147194e-03,-5.406710894445395515e-02,1.760914325714111328e+00
-8.769635036681948659e-01,-8.090014682328408036e-01,1.045136231422185924e+00,4.862827692138318135e-03,-1.648673685575107947e-02,-2.757133248487984856e-02,1.889873862266540527e+00
-8.367320533029949381e-01,-8.651257110483623336e-01,9.583124262187436848e-01,-3.531210658252767302e-03,2.671665132742239660e-03,1.499618278181113866e-02,1.809611082077026367e+00
-4.897979083227273489e-01,-9.628461312891106738e-01,1.088443011894546952e+00,-1.220600142362993079e-01,3.798465295936775954e-02,-3.188536115342951310e-02,1.874373912811279297e+00
-8.556016011622609163e-01,-8.631562808654523744e-01,1.000099706414420364e+00,4.461522060784558694e-03,7.260723696827904583e-03,-1.864247851098609424e-02,1.859829068183898926e+00
-8.685753782962088998e-01,-5.366655345167455904e-01,6.636814201243059763e-01,2.598734802372435482e-01,-2.771269233700778337e-02,1.238951928097804661e-01,1.483361244201660156e+00
-9.051170953916041206e-01,-7.892143908067081881e-01,1.020863185667903572e+00,1.374364197118753579e-02,1.075775226778370904e-02,-2.638509043423242686e-03,1.870973467826843262e+00
-8.654056968893609758e-01,-8.642373252062681699e-01,1.028258033282567263e+00,5.540747143513422707e-02,-5.417210016363332992e-03,-2.973135673751517438e-02,1.896233439445495605e+00
-8.534661268227752284e-01,-8.456042297134848118e-01,9.546808302025684423e-01,-1.381694476023458996e-02,2.788788691179649656e-02,-5.923072793996040503e-03,1.805063128471374512e+00
-8.418397324738305931e-01,-8.609978959394967157e-01,9.586705975497553656e-01,-4.009141313445454408e-03,3.219236402076402440e-03,1.455591098289420182e-02,1.810362935066223145e+00
-8.101663901766659182e-01,-9.490443548718309197e-01,9.796263944172889371e-01,1.312904882863534517e-01,1.775489702319501401e-02,-7.126384270413110844e-02,1.881249785423278809e+00
-7.116651879112761980e-01,-8.187772659873120418e-01,1.009817787952412171e+00,3.829837058294407320e-02,-5.347845418047277727e-03,-3.422915381502629473e-02,1.779710412025451660e+00
-8.180864468471100714e-01,-8.370351246332828898e-01,8.372773721685449200e-01,3.889615564756445081e-03,-1.087658822759383871e-03,1.255219900147307339e-02,1.665075659751892090e+00
-7.117737549453084789e-01,-7.777096598973479713e-01,9.965059640987707912e-01,3.647964218781964141e-02,-1.262848694437029374e-03,-4.847580493642632618e-03,1.743350744247436523e+00
-7.323804690504457371e-01,-7.509404315282950382e-01,5.152076271099109706e-01,1.857804556670378205e-03,-9.117963659074752544e-05,-1.356315342031928469e-03,1.256977200508117676e+00
-7.887755168714944976e-01,-7.688757401637528188e-01,1.022945962735491321e+00,2.179452192164657229e-02,-1.030207244341660618e-02,-4.022971526875431490e-03,1.802351236343383789e+00
-8.569709749360230333e-01,-8.424083100372302679e-01,9.518908891528010674e-01,-9.965959632742113841e-03,2.620924425123828325e-02,-7.004413933100640290e-03,1.802320003509521484e+00
-8.240741491045198153e-01,-1.005964018828452211e+00,9.481955653313962618e-01,3.177729991838139194e-03,-1.439712807195733246e-01,8.343690829812880697e-03,1.886479258537292480e+00
-7.918309789150979050e-01,-8.043972635674732086e-01,7.184031729763056262e-01,1.193364485167187818e-03,-4.209459056942239583e-03,7.453066361852233451e-03,1.516630172729492188e+00
-7.915966948217030286e-01,-7.889290781891656890e-01,1.023855638446168337e+00,1.504283525206105872e-02,-1.578063510905256678e-03,-7.966679757525562192e-03,1.814361572265625000e+00
-8.625438904808128138e-01,-8.518677093288118396e-01,1.036439628381131905e+00,-2.251732839726002921e-03,6.421713073216527359e-03,1.058039562980346744e-02,1.893793344497680664e+00
-8.112430482646021401e-01,-8.208924187662026695e-01,1.043927196494476739e+00,2.482394356681574474e-02,4.019365661724901874e-03,-8.051581710759253899e-03,1.860575914382934570e+00
-8.153445069197708950e-01,-8.404391991044098953e-01,8.364619803014641253e-01,-9.749461301507760663e-03,-5.504398400079709569e-03,-1.165732792935154395e-02,1.664731144905090332e+00
-1.259800684431795936e+00,-7.179402975085598104e-01,1.007457558343381132e+00,-3.303949878121920092e-01,1.021007242624345432e-02,1.133389457382724397e-01,2.138192653656005859e+00
-8.739281033897738915e-01,-8.505557273992531142e-01,9.888713676195131086e-01,-5.764113923021932720e-03,-5.165383558745491321e-02,-1.834344285079578946e-02,1.853683829307556152e+00
-7.388566653324865063e-01,-8.054305453557579764e-01,1.013701348035816352e+00,1.069582480490948763e-02,-1.268926995055250778e-02,-1.679805056715123410e-02,1.787243366241455078e+00
-4.759773459821937114e-01,-9.439418146394972231e-01,1.049022986832485849e+00,1.300721387115391092e-01,-1.126565249725974480e-02,-3.157566379412628244e-02,1.819997429847717285e+00
-3.011460112397781330e-01,-1.273018682347224262e+00,1.388349995696666950e+00,4.130416051183073423e-01,-1.849986096146933323e-01,1.423764138415741509e-01,2.473096132278442383e+00
-4.713658568457441689e-01,-1.038457806868045008e+00,1.149587640726453586e+00,1.467270356313708779e-01,-9.435195483286484830e-02,-9.632746492367201541e-02,1.996858358383178711e+00
-6.765127633945814400e-01,-9.278186922819980920e-01,1.045048773219265925e+00,-2.619615947012180531e-03,5.496206951369133481e-02,9.023283972805518430e-03,1.862496852874755859e+00
-6.897038480398824944e-01,-8.590121625531197402e-01,1.908125687051634989e-01,-1.627326257196515247e-01,-1.253905849134837325e-01,-1.865448391038466713e-01,1.088147163391113281e+00
-2.556133087143512839e-01,-1.136846628616042354e+00,1.249696983148727014e+00,3.336757529364957620e-01,6.248618280203432213e-02,-4.065150585879159437e-03,2.171368837356567383e+00
-9.187627582834151374e-01,-7.758584082926992531e-01,9.684474597865537771e-01,-3.324085415107215502e-02,-5.782426488635403899e-02,9.625165439289785907e-02,1.831237912178039551e+00
-8.538336358720881591e-01,-8.625723060391353725e-01,1.032589622046565125e+00,1.551982566708842324e-03,9.497381263349013655e-03,7.552832638244523847e-03,1.890926480293273926e+00
-3.264654725992854889e-01,-1.095331424251465346e+00,1.231019093291934263e+00,3.081146979553847642e-01,1.001390515214491267e-01,1.360909755834784907e-01,2.141228437423706055e+00
-1.043510609008546419e+00,-3.135416230395686177e-01,6.375951662576744283e-01,1.447674666802934440e-01,3.181722530011762886e-03,1.030969449025727486e-01,1.492181777954101562e+00
-8.718695587033131744e-01,-5.127913429674115786e-01,7.599642147433810502e-01,3.067782185890668978e-01,1.103595390326587433e-01,2.202027384223088358e-01,1.634076714515686035e+00
-7.639011097497245828e-01,-7.870947003589903179e-01,6.578524158360595786e-01,-3.328949117311936958e-03,-9.054393627483749195e-04,-6.496726134266765651e-03,1.433547616004943848e+00
-8.716220426765423079e-01,-8.676769566798141486e-01,1.006963085324496632e+00,-3.468721057198506045e-03,2.097789523162219699e-02,-1.799136674768486103e-03,1.876979589462280273e+00
-8.706932430931803024e-01,-8.696692577125241241e-01,1.035904921148929070e+00,-5.996842074435003792e-04,8.876495492859560327e-03,-1.933869990127953537e-03,1.906151652336120605e+00
-8.524314168308986250e-01,-8.742692055304142063e-01,1.016570582911297427e+00,-2.089320748548969642e-04,-1.606046172327491766e-03,-3.805755526258761904e-03,1.880029678344726562e+00
-8.637039650160275306e-01,-8.667787182639309362e-01,1.045893893943796726e+00,1.378677510617359620e-03,-2.767947488854613242e-03,2.967905756037548821e-03,1.911151528358459473e+00
-8.367668601349234070e-01,-8.716116652248625529e-01,9.758303079300398863e-01,-1.406175789250144583e-03,-2.378645762750352874e-03,-6.818868645004557208e-03,1.830312728881835938e+00
-8.268710935072149937e-01,-8.277897945560941384e-01,8.348575032545606511e-01,-4.557024641024805083e-03,-3.675192329399073338e-02,-7.758079769156248431e-03,1.663479566574096680e+00
-8.712712088717096126e-01,-8.638233283540599494e-01,1.054387637360661767e+00,4.568275261493859665e-03,9.147388183485392898e-03,7.029001289476742055e-03,1.922065854072570801e+00
-8.448061151221426535e-01,-8.536359491271566791e-01,1.014156076301294451e+00,-3.248646595099705190e-03,1.876612008725183278e-03,3.469209500353246257e-03,1.863413810729980469e+00
-8.665745212442620415e-01,-8.570724399339327837e-01,1.030844118635772633e+00,1.661031571310031497e-03,1.110789140773880664e-03,4.954652549456519707e-03,1.892708063125610352e+00
-7.888452176688683926e-01,-8.899531592006439951e-01,1.030369258490292594e+00,4.567541961867757801e-03,-1.616971117124655494e-02,-4.583287317520988793e-03,1.872060656547546387e+00
-8.596341414536979864e-01,-8.209137337389492695e-01,9.729503003191029009e-01,-4.168609014228591599e-03,-8.443434444764526953e-03,-2.502926512800401210e-02,1.814125657081604004e+00
-8.477762264556371052e-01,-8.690179346703219565e-01,9.896736613354468748e-01,5.512326805569685295e-03,-3.356986448185799842e-03,5.644630357004291887e-03,1.848222017288208008e+00
-1.010427883183354858e+00,-6.267203941127887923e-01,6.605395604050910974e-01,9.060675877959305236e-02,-6.710047046554418193e-02,3.864299929723797461e-02,1.529972910881042480e+00
-8.511293327868681979e-01,-8.596787234452825111e-01,9.735844890469687041e-01,-2.376717795600369419e-03,-1.154411574049830219e-02,1.735802294401661084e-03,1.829119920730590820e+00
-8.602416432153757730e-01,-8.714153044379263635e-01,1.046648556431382104e+00,-3.454536670063994546e-03,7.372103587604857643e-03,-1.204521372194293331e-02,1.912667274475097656e+00
-7.983152758761610235e-01,-8.817718489533173942e-01,1.005532075962749516e+00,-6.722300391748685378e-02,3.225475361613712455e-02,-2.527460629938283604e-02,1.852017164230346680e+00
-8.563363395382379561e-01,-8.574222607894551595e-01,1.018593307940903969e+00,-5.375383030305916701e-03,-1.310008551710338705e-02,-1.983171854681725979e-02,1.875947713851928711e+00
-8.760068901035507061e-01,-8.750222792716723097e-01,9.533697266267908699e-01,-2.401140845182772252e-02,-2.727942814824482060e-02,-8.904291892916836593e-02,1.836454868316650391e+00
-8.494410719155698342e-01,-8.440943471912629725e-01,9.544945614211426399e-01,3.854330071882044583e-03,6.946505102210139178e-03,-2.436437789751633859e-02,1.801815032958984375e+00
-8.679121018480627781e-01,-8.574984292707427125e-01,1.041656265305036966e+00,1.110834321127116540e-04,-2.954901408634363989e-04,-4.389515808903738129e-04,1.904383063316345215e+00
-7.457692390595763721e-01,-8.912340847763530194e-01,1.045206020201589592e+00,7.680430310120670706e-03,-2.845049378405128948e-02,-6.017882259869994019e-03,1.868686795234680176e+00
-8.042736819439130214e-01,-7.682405682248251155e-01,1.027855393341049250e+00,1.577474969695576157e-02,2.144433069887582977e-02,-1.267451106935465642e-03,1.814967989921569824e+00
-8.679157094293297181e-01,-7.902877069676538246e-01,1.027011558942362512e+00,-7.937847085622165653e-04,-4.606294824525358073e-03,2.446232325613858713e-02,1.857831239700317383e+00
-7.554516927927639180e-01,-7.475095627281944655e-01,5.478163501300274962e-01,-8.480986234181704664e-03,5.920213258881520078e-03,6.408372468074030777e-03,1.299486041069030762e+00
-8.690985548456156007e-01,-8.503257406657095396e-01,1.048277531836782961e+00,3.200969367117735965e-04,-7.909439338593413169e-04,-1.379760277125695496e-02,1.908209204673767090e+00
-8.597027220760702360e-01,-8.403560243749951253e-01,1.021367584449141663e+00,-2.109358947826898544e-03,-4.912832933795509456e-03,-1.937590790440247863e-03,1.871497869491577148e+00
-8.622972111627134062e-01,-8.064822002407980861e-01,1.039119229435413905e+00,-5.614216431199153638e-03,-1.818510701489997258e-02,1.428857675276433252e-02,1.874585628509521484e+00
-8.319463750921475276e-01,-8.089018128155548437e-01,1.044953897687490585e+00,1.306124914277222333e-02,-5.082865442912594400e-03,-2.745441742943253299e-03,1.865648746490478516e+00
-8.585538045435959775e-01,-8.552314772559653777e-01,9.867370139475566404e-01,-1.425784943010681600e-02,1.041638523857804470e-02,1.008510032842875256e-02,1.843968272209167480e+00
-4.955724346503310729e-01,-7.206514708181356310e-01,9.313639201100587517e-01,4.407611270955139049e-01,-1.879259835957037411e-02,-7.988516073450744812e-03,1.729752421379089355e+00
-8.557597850643728910e-01,-8.629631183166801556e-01,1.028628955449571336e+00,1.393828515477462315e-03,-1.002556097341835220e-02,1.753799832274541282e-02,1.888326406478881836e+00
-8.565155637045935855e-01,-8.609170078980873386e-01,1.002463177634396629e+00,6.662764223886110879e-03,-6.066064004614333573e-03,1.403852101276412134e-02,1.861407637596130371e+00
-8.717512173453189073e-01,-8.443963538444927419e-01,1.045433153587615349e+00,3.146829024180389754e-03,3.053781960129105764e-03,1.478309816363524744e-02,1.903841733932495117e+00
-7.568699521348560832e-01,-7.610182952081889773e-01,5.721594131036944475e-01,-2.216932480604284685e-03,5.691671580399017619e-03,1.206565604197882939e-02,1.331314444541931152e+00
-7.992252669452879488e-01,-9.637368332942269911e-01,8.111346755402986108e-01,5.045096801204738968e-02,-2.032430259923045934e-02,-1.382104874118260662e-01,1.717971920967102051e+00
-8.549102028828718947e-01,-8.677781809450946238e-01,1.004500979174750563e+00,3.851350968796779690e-03,-3.048956490708386487e-03,1.668401368359589618e-02,1.866121649742126465e+00
-6.105484948812711643e-01,-7.760081909117889643e-01,9.991542378282687320e-01,4.072544653497336964e-01,6.575402128418136871e-02,-1.160895599694155844e-01,1.853599309921264648e+00
-6.517809901386808491e-01,-6.970496327567192729e-01,-7.153482416983070191e-02,3.825070609057108773e-02,1.183784005829296576e-01,-2.090448147018681563e-02,6.424503922462463379e-01
-8.616435896189709176e-01,-8.531607405823258272e-01,1.018084747815748869e+00,-5.951020994792047356e-04,3.335169174775342443e-03,-4.152614577687271935e-03,1.875524282455444336e+00
-8.600908218686966755e-01,-8.565954142996416998e-01,1.063179488518267490e+00,-7.921525846632914282e-05,7.669004159852872357e-03,3.629868043608827123e-03,1.921581149101257324e+00
-9.892040156055709188e-01,-9.345253070139425411e-01,1.007887589630963365e+00,-4.538209295667351428e-01,-7.522639373524941941e-02,1.828485719012839794e-01,2.148791313171386719e+00
-8.562644442715710014e-01,-8.643555363144923565e-01,1.028027909098464532e+00,1.382142887529561395e-03,4.472224870470686321e-03,2.975363162070889227e-03,1.888375282287597656e+00
-8.474970097571415950e-01,-8.704868391864993837e-01,9.803297255690401890e-01,3.011329658438800425e-04,3.125843849328509543e-03,-7.253725236712603441e-03,1.839480400085449219e+00
-8.682651375903113200e-01,-7.824397032234313709e-01,1.010879130299911610e+00,7.152684507263647835e-04,-7.135252249067241571e-03,-1.648940970392616390e-02,1.837999105453491211e+00
-8.581403309117970890e-01,-8.683266293629977595e-01,1.024951096561209640e+00,-1.287175006975392047e-03,7.708791115925790662e-04,6.524509436639376082e-03,1.888240814208984375e+00
-7.924372359515489128e-01,-5.785187624331863399e-01,4.301655359373601772e-02,2.426612256611701893e-02,1.340174727226731421e-01,6.013034756296436328e-02,7.946828007698059082e-01
-7.597393520934994093e-01,-7.749606740944900984e-01,6.042256469964765175e-01,1.146020706366335414e-02,-1.425342342718112368e-03,4.809921660121875228e-04,1.371785044670104980e+00
-7.626150597473464465e-01,-7.731001981878962148e-01,5.622770158010267361e-01,9.232774486634259814e-03,3.273926295478050801e-03,7.301450813959671493e-02,1.336271643638610840e+00
-6.233016105517901195e-01,-7.814991204964236715e-01,2.990209120497198114e-01,1.438779684491857669e-01,1.026195616968686164e-01,6.022123279492989402e-03,1.056133627891540527e+00
-8.577501905466813348e-01,-8.731174431884992648e-01,1.023901244433589541e+00,8.765154183697269029e-04,-2.166670418271421719e-03,-3.509197458661388741e-03,1.889396071434020996e+00
-8.417520133552951478e-01,-8.669286235098841997e-01,9.733631499030028777e-01,6.797122494335879582e-03,1.980462640416754024e-03,-8.061819735915074989e-03,1.827927947044372559e+00
-8.269914515503622443e-01,-8.399364135149199884e-01,8.438172380751109980e-01,1.456767140188665018e-03,-1.322985060583001075e-02,-1.229718958221646084e-02,1.677612304687500000e+00
-8.539478265792357359e-01,-8.734107482719678517e-01,1.015209177759658132e+00,-6.701179933452011466e-04,1.866505442388943260e-03,-4.188099916209251511e-03,1.878981232643127441e+00
-8.744602092838688057e-01,-7.868659745894529545e-01,1.057648374284388071e+00,4.535444364002811507e-02,1.298933729850021770e-02,-2.280150389930810095e-02,1.892012596130371094e+00
-9.609927981286277010e-01,-7.683426414041738539e-01,1.167689447802145564e+00,5.560677161663442059e-01,-8.696539341777549670e-02,1.323805074366720628e-03,2.260229825973510742e+00
-8.462612787780634527e-01,-8.713139387179363871e-01,9.765706289529321182e-01,2.450200369643982558e-03,1.778166428659724114e-03,-8.275044423736610533e-03,1.835549950599670410e+00
-8.550599013249930991e-01,-8.726856439051193792e-01,1.024688973741479270e+00,2.327762475032619290e-03,6.346552888941011175e-03,9.983235930585806356e-03,1.888738870620727539e+00
-8.716131137093636738e-01,-6.959672816446570431e-01,1.057527452732957896e+00,1.314952143658948969e-01,1.255133122174910019e-03,-3.990819271646741523e-02,1.862859368324279785e+00
-8.481870128623275606e-01,-8.629179854883135548e-01,9.877702520851905366e-01,1.084135607207580530e-02,7.934142467479858574e-03,-1.185704350433198877e-02,1.843628168106079102e+00
-7.383766062824931309e-01,-9.035815831535960463e-01,9.980373214879414423e-01,-1.338745410398517292e-02,-1.029120902787047064e-02,2.789601671327169696e-03,1.824875116348266602e+00
-9.037603569972810780e-01,-8.401748326065029415e-01,1.058204244559881602e+00,-6.033528240935057303e-03,-7.056300875092792226e-03,-2.897248903735195544e-02,1.931676030158996582e+00
-8.532884214053569893e-01,-8.547876746486728905e-01,1.048195781823421990e+00,3.056415709189036749e-03,6.855450736694411115e-03,5.732969538578236782e-03,1.902304649353027344e+00
-8.512548524447810516e-01,-8.494891943174306403e-01,1.057736425481149878e+00,1.380801050538491654e-03,3.140968102712728138e-03,7.487954211760280109e-03,1.908162355422973633e+00
-6.237746176100258388e-01,-6.770749941879460332e-01,9.576868662042301583e-01,3.935520800973851263e-01,1.069170929472966318e-02,-1.120090586333999730e-02,1.747433185577392578e+00
-7.354843520591415329e-01,-7.664974498203591668e-01,9.938989796614221550e-01,-2.240719737290607083e-02,-2.912374130712085812e-03,-8.318434233784439275e-04,1.745535969734191895e+00
-8.140031135985487110e-01,-6.976469391661845876e-01,1.018834807529662045e+00,-7.499331105591908186e-02,-4.741656796041777977e-03,-4.518146983129991273e-03,1.782294154167175293e+00
-7.421441498568417394e-01,-7.835668245682473332e-01,1.056664789273008109e+00,-1.351242284071514921e-01,-1.645195242095634502e-02,2.792404188172984553e-02,1.835719943046569824e+00
-8.621557258549930047e-01,-8.725881062694075263e-01,1.058269290634984650e+00,-3.082609329497213845e-03,7.787322141802602814e-03,2.441858001501272073e-03,1.925721645355224609e+00
-8.014769002970976164e-01,-6.889779196293122077e-01,1.010182182531001782e+00,-3.966297717995496269e-02,-2.881491638900946818e-03,1.182198319191899881e-03,1.759461164474487305e+00
-7.894437180434771273e-01,-7.737710793959458044e-01,7.054452563684043831e-01,-1.546385796595908975e-03,5.601995414452051909e-03,5.413475961082164431e-03,1.487178206443786621e+00
-7.973170860718601372e-01,-6.759849077591524313e-01,9.895255005554788319e-01,-2.914025013305693995e-02,-6.640735945134346695e-03,5.504157339222806068e-03,1.730172514915466309e+00
-8.520987559132158218e-01,-8.633776861213872111e-01,1.046441141302975941e+00,-1.577229596745851660e-04,3.345461088990056737e-03,-1.466765833907737000e-03,1.904214978218078613e+00
-7.921941600380000281e-01,-7.845499272890439357e-01,6.758050620907238848e-01,8.351548026501311867e-03,-3.993590382991171750e-02,-1.173214599299712835e-03,1.465897798538208008e+00
-7.603966985914227816e-01,-7.578518199343907691e-01,9.992121460115912512e-01,-3.494141540552338221e-02,-2.855085471248598131e-04,-1.567366276165877651e-03,1.759381175041198730e+00
-8.657025633297679157e-01,-8.607832245304409824e-01,1.031185939349817282e+00,-1.117225801947690361e-02,6.052148224140674153e-03,7.159635637657674190e-03,1.894602060317993164e+00
-6.980738091436229364e-01,-8.006217342916822632e-01,9.996061823594755147e-01,-8.195428865894209547e-02,2.052122229174057743e-03,-5.215614701013085615e-03,1.756977677345275879e+00
-1.349043308867451163e+00,-3.389310026671573661e-01,1.008678139454768807e+00,4.043017124553605762e-02,-1.579561498951356224e-01,-4.880802554227658963e-02,2.069906949996948242e+00
-8.543698684602855087e-01,-8.541168954948413772e-01,9.848343050028207646e-01,-1.166668908372214819e-02,1.133599421653312851e-02,1.031021615406669222e-02,1.839380264282226562e+00
-7.825201716239871264e-01,-7.934676168303443911e-01,1.023834629946615893e+00,-2.012380235206106399e-02,1.321775712607283805e-02,-1.427264329938368603e-02,1.812501788139343262e+00
-8.151762089925618238e-01,-8.385288850664019966e-01,1.048996662608244090e+00,1.438816997117364467e-03,-3.872570397690041581e-03,1.649336515834104108e-02,1.876189351081848145e+00
-1.062050659207743664e+00,-6.896265464552170377e-01,1.680400258866324936e+00,5.049690390621436320e-01,-2.842121342626902081e-03,-7.342235435218351369e-02,2.723886966705322266e+00
-8.626786691021177678e-01,-8.463589642779658639e-01,9.786303286388022826e-01,-8.131017513613588224e-03,-7.732292710206597509e-03,-8.005191799061225216e-03,1.833359122276306152e+00
-8.086652427877421001e-01,-7.391795555190069367e-01,1.031191079378929620e+00,-6.513874050636607460e-02,-1.804310768827741343e-02,1.350092267375038908e-02,1.810057640075683594e+00
-7.002171395392154940e-01,-7.894920518768054896e-01,9.960502099718619995e-01,-3.479327601745547949e-02,-5.515059094712512246e-03,7.014162018492820123e-03,1.743730902671813965e+00
-8.510587897081627329e-01,-8.221108935782690530e-01,1.059953514794877760e+00,2.361147893727308100e-01,1.133689472958696876e-01,1.738875855917070348e-02,1.950436234474182129e+00
-7.603073344535571376e-01,-7.642255397354569268e-01,6.006952649983487991e-01,7.768338631367438865e-03,-1.236907171822332167e-03,1.958617767067899766e-04,1.363034009933471680e+00
-8.435020359041326410e-01,-8.250304653941727961e-01,8.745521323031051342e-01,-1.276424449437337134e-02,7.505246826413420475e-03,8.020653014531557365e-03,1.709142208099365234e+00
-7.661876128266167374e-01,-7.655509457680638175e-01,1.010168067517982493e+00,-3.704055463567305917e-02,1.396415287599781993e-02,-9.086082856706997543e-03,1.777430057525634766e+00
-7.767139284477826422e-01,-7.531787776890903618e-01,1.005061032045687197e+00,-1.708704528947898454e-02,5.083787076869874383e-03,-7.819258064815976308e-03,1.770445823669433594e+00
-7.759459641078455538e-01,-7.663647631814185512e-01,1.009123448728953321e+00,-3.304214791910389803e-02,5.192965499340512422e-03,-5.479205207616911523e-03,1.781265735626220703e+00
-7.502324909166093736e-01,-7.710299280455460424e-01,9.966010933892728296e-01,-9.890965730216857293e-03,7.040517661986390660e-04,2.400318253823035750e-03,1.757413506507873535e+00
-6.858060469307210028e-01,-8.070627744630762823e-01,9.989609794917271302e-01,-2.899843032996832909e-02,-5.636633387447506638e-03,-4.089056054885557671e-03,1.749314308166503906e+00
-7.172889154857677863e-01,-8.503540909645092016e-01,1.035317611577897035e+00,-1.507890370704868116e-02,-6.484218050833303638e-03,-2.302576483140745395e-02,1.823443412780761719e+00
-8.095180427761522468e-01,-8.773015308337241969e-01,1.048941328619951596e+00,2.979910633072499048e-03,1.772178223235996303e-02,1.287161300118318773e-02,1.893648505210876465e+00
-8.478419402150467743e-01,-8.220137029583687305e-01,8.814733261397171837e-01,1.045768570910163286e-02,1.282667204968136743e-02,-4.719693342696274635e-03,1.716805696487426758e+00
-8.714407987623192797e-01,-8.505239277386125174e-01,1.014888737613116820e+00,2.993216663390404608e-03,4.356343102771493940e-03,-2.202457258113767451e-03,1.875984787940979004e+00
-7.504384342845294986e-01,-7.599934339233905822e-01,9.967054006610425176e-01,-8.127716368448664047e-03,-8.237401509441289653e-05,-6.880308657925874281e-03,1.752038002014160156e+00
-8.020674204849543854e-01,-8.026842024559935895e-01,7.447578720928684781e-01,1.300472875605094940e-02,7.120011609050859100e-03,-2.063311903364906282e-03,1.547351002693176270e+00
-8.529903057188583659e-01,-8.260981520795650512e-01,1.046826243958675517e+00,1.576058730196091759e-02,-1.975491173919956961e-02,-1.414667338233089114e-02,1.887181043624877930e+00
-9.439875526042045273e-01,-5.318443485223609546e-01,1.029213835684568590e+00,4.779431352884497275e-02,-1.720605290137738538e-02,1.972339300977192858e-02,1.805284500122070312e+00
-8.137958779914176155e-01,-8.472182799012938359e-01,1.054341952437623187e+00,-2.817871888091221227e-03,-4.117057506140485781e-03,-7.385119355424785842e-03,1.885134458541870117e+00
-1.001673801009538955e+00,-3.954295873512957415e-01,9.119517385049720204e-01,-1.493671298271140868e-01,1.414195004814526417e-02,-2.756012372700709923e-02,1.714403867721557617e+00
-8.557384067963754726e-01,-8.673153125539810882e-01,1.024762129437152502e+00,4.709837362884172068e-03,4.792029971378754943e-03,-5.931685536664995338e-03,1.886379480361938477e+00
-5.392649881107243193e-01,-1.153690215375331896e+00,1.130751573647487129e+00,-5.588099444904723878e-01,-1.585092106400565470e-01,-4.285309873266690897e-03,2.281405210494995117e+00
-1.069735188466752085e+00,-3.682070795266620400e-01,1.291431584755801998e+00,-2.219789903289412780e-01,-8.465162149033628181e-02,2.044834893020905375e-01,2.169236660003662109e+00
-8.583962521516798061e-01,-8.557405672540131514e-01,1.063392806208975694e+00,-2.176639023861316746e-03,6.158304524697955085e-03,-6.280544423971570409e-03,1.920526742935180664e+00
-8.575624834625107384e-01,-8.573576533995597160e-01,9.913748721347128701e-01,1.319739361320813702e-02,1.145493953464642341e-02,-1.199851188021479852e-02,1.849199533462524414e+00
-8.466391639762432808e-01,-8.677864197527342949e-01,9.780167175558234227e-01,-4.355068670972920587e-03,-2.381558489629221915e-03,-6.827204631231400395e-03,1.835379123687744141e+00
-8.503911097114542628e-01,-8.692439278610849529e-01,9.908437743450260182e-01,6.697564205744204260e-03,7.757860856658958283e-03,-1.243791019857756232e-02,1.850943803787231445e+00
-9.923680211526985095e-01,-6.734156687786286843e-01,1.252284852128750625e+00,-5.641870324685031024e-01,-8.743002902970140044e-02,2.087916982774080943e-01,2.352210521697998047e+00
-8.601447340334401614e-01,-8.541445767355185792e-01,1.063146808621915351e+00,-2.135744536234664929e-03,1.135487970279570576e-03,-1.579610399831448287e-03,1.920305013656616211e+00
-8.589675569574134473e-01,-8.623365311989364956e-01,1.024506675284747370e+00,8.971279041878246069e-03,6.926516706614271185e-03,-6.990563587455994425e-03,1.885302066802978516e+00
-9.143464237918373927e-01,-7.541529793689719652e-01,1.077741295488721773e+00,-9.162199956374128540e-03,9.016086134219140555e-03,4.413285732317354104e-02,1.918670058250427246e+00
-8.360835909454630288e-01,-8.496157228729970257e-01,1.062942160573843831e+00,5.709001482911846802e-03,-4.487502826154413094e-03,4.234871440980085967e-04,1.905869483947753906e+00
-1.098798563351845781e+00,-5.865208343786846301e-01,1.094650650554646054e+00,1.413354880526799806e-01,-6.664834582525362705e-02,5.061774208237570377e-02,2.007718086242675781e+00
-1.160811216908401278e+00,-4.694105667873309518e-01,1.258601542455851652e+00,-1.209937026808892944e-02,-2.354816205246653901e-02,-3.665935769233930053e-02,2.159848213195800781e+00
-8.433805419405906445e-01,-8.486505022033484780e-01,1.062479631707475614e+00,3.764183875916325955e-03,-6.127044237511967452e-03,2.052339910739109808e-03,1.908544540405273438e+00
-8.608700746235846690e-01,-8.679815929899710181e-01,1.030665702813397866e+00,-9.236326337738930137e-03,8.125569763795149544e-03,6.226839397742731617e-03,1.895251989364624023e+00
-8.670909675020046503e-01,-8.634299296505837384e-01,1.059478015860150446e+00,-5.989494529362212639e-03,3.945177673361490930e-03,5.437087103303645322e-03,1.924804210662841797e+00
-8.560942602213739150e-01,-8.590179724006916651e-01,1.025730593170724569e+00,-2.638178692972303375e-03,7.964316165202810563e-03,5.941721866708795513e-03,1.883372545242309570e+00
-9.122005202700289583e-01,-1.143376004623618103e+00,8.972410556256387171e-01,-3.863564019294187246e-01,-5.475974395027903389e-03,-1.079842161792849420e-01,2.056381464004516602e+00
-8.286715015063701451e-01,-8.234504270187321673e-01,1.049267129033858215e+00,3.141907739759979175e-03,1.333568630701873793e-02,1.971026256656310122e-02,1.875794410705566406e+00
-8.082891392760216398e-01,-8.482467590573211647e-01,1.052424933743518087e+00,1.987297588958130551e-02,-9.708001621554293234e-03,1.199157971780055211e-02,1.881515860557556152e+00
-7.415861546737306798e-01,-8.935852813845343023e-01,1.065222624760072900e+00,-2.387433411494571667e-02,-3.158243471667177699e-02,-2.066676244407001078e-03,1.888653039932250977e+00
-7.302772223290278086e-01,-9.863290416208794209e-01,1.158620720021374728e+00,-1.620434525947612725e-01,2.796711806664168307e-04,4.931113058324254270e-03,2.048414230346679688e+00
-6.759544842855429447e-01,-8.967386921536649735e-01,1.029055500986788330e+00,-2.729622775738778095e-01,-3.729791513583929907e-02,6.525891005617662222e-02,1.890163660049438477e+00
-6.357257926151362870e-01,-8.552900262803068143e-01,1.042270604620943564e+00,-4.191560103783854574e-01,3.095014358269387172e-02,-8.186916608763233905e-02,1.944830298423767090e+00
-8.651478543217582251e-01,-8.670190031564568578e-01,1.056224903800020432e+00,-6.027507575721566431e-03,5.375518549230802901e-04,-1.617351865744674896e-03,1.922339677810668945e+00
-6.700817170490478425e-01,-1.035286629333907360e+00,8.670980615906673794e-01,-1.799653713173473002e-01,-3.136062315381244608e-02,1.538516645249087822e-01,1.796887874603271484e+00
-8.652339607000142374e-01,-8.630738770484072120e-01,1.021159274351045809e+00,1.130210008643913952e-02,-1.905338887065918514e-04,4.995743158948454631e-04,1.885416030883789062e+00
-8.650521447981928125e-01,-8.601387681211274394e-01,1.045335969776252538e+00,-3.262810034226567863e-03,4.123048826077101723e-04,7.137992116597251940e-03,1.907984733581542969e+00
-5.756361851412097330e-01,-8.748390431999640837e-01,7.356131101774107117e-01,-3.042258140466014282e-01,-1.165806910369478720e-02,8.240067951621815601e-02,1.581032514572143555e+00
-5.958620912270664594e-01,-9.179504802649253170e-01,1.031439659666417041e+00,-2.064012967580127617e-02,2.542784900332567544e-02,-2.995819493265550193e-02,1.811600685119628906e+00
-8.480430273161112531e-01,-8.751084468070582378e-01,1.056264136299650103e+00,3.804970525849253431e-03,-1.593582775969058785e-02,6.608715127367546880e-04,1.918193340301513672e+00
-7.761776686850361262e-01,-7.803437016413588001e-01,6.225298624770676525e-01,-1.888038566561565110e-03,1.349159592089908084e-03,-5.559832726592139202e-02,1.404107093811035156e+00
-7.878417811518645397e-01,-7.309295863102412971e-01,1.010757717679913625e+00,1.504121331509293211e-02,1.645715169968798436e-02,5.957609106122910584e-04,1.771250724792480469e+00
-8.669698635273036524e-01,-8.598288175130275324e-01,1.047593599470202808e+00,6.494015540078631674e-03,3.875534459490913991e-03,5.871740140896391201e-03,1.911074876785278320e+00
-1.058905139019801434e+00,-6.836172237618380887e-01,1.179859453336243869e+00,1.152026019162771669e-01,-2.617483766270005049e-02,-2.817657073022519082e-02,2.087337732315063477e+00
-8.508161516310520645e-01,-8.330454753749181318e-01,9.038021004861713781e-01,9.735392590364412568e-03,1.296173153632148613e-02,-4.612252843481833703e-03,1.746044754981994629e+00
-8.554529511676219888e-01,-8.640203510561041966e-01,1.053725165963143473e+00,7.207130063158451953e-04,3.055311418217797857e-03,-8.098550414934457820e-03,1.913535356521606445e+00
-8.605174882230751665e-01,-8.595414406316433942e-01,1.044646970600608737e+00,5.431104173697651714e-03,-6.832898024262187321e-03,3.032981079406998470e-03,1.904743909835815430e+00
-8.603784980241373503e-01,-8.647188035094970360e-01,1.040731594528206072e+00,7.443183343129282717e-03,-4.346673920002729063e-03,-5.168595419667839329e-03,1.903363585472106934e+00
-8.150598912162843046e-01,-8.391772626783565725e-01,1.049508262957908222e+00,1.265118362601212049e-02,-2.415880098833843477e-03,-1.202148080988094158e-03,1.876876831054687500e+00
-8.343243623738889614e-01,-8.481545598498427818e-01,1.061091844697346520e+00,-1.135865798852418902e-03,-6.375578206297571708e-03,-3.300919914329934930e-03,1.902410626411437988e+00
-8.532619199432945889e-01,-8.268429624990649707e-01,8.851502509213478032e-01,5.291007393950313692e-03,1.304025721585034929e-02,-4.561868941860652144e-03,1.725544691085815430e+00
-8.482934133701864887e-01,-8.325274710837656800e-01,1.056529170559462161e+00,2.300015467843605308e-03,-1.282496650727295642e-02,-5.466756476433695146e-03,1.897146582603454590e+00
-8.042892469332374450e-01,-8.324581140820213054e-01,1.046867915775396174e+00,4.074365598494767565e-03,1.121840858915138135e-02,-1.087865705496051001e-02,1.865610837936401367e+00
-8.472302686789000559e-01,-8.484006641031688334e-01,1.061768354039523743e+00,1.144849135601535076e-04,-1.318589991579342292e-02,-3.895128695705524745e-03,1.909732580184936523e+00
-8.345062828363871699e-01,-8.225168762648938925e-01,1.053594947948389482e+00,6.995343028103204880e-03,5.090387282961753024e-03,2.450324589645364471e-03,1.882199645042419434e+00
-8.035243466325986406e-01,-8.217744614210349408e-01,1.043975648194463757e+00,2.744344818946920384e-03,-1.422023836211921965e-02,2.706697098601433971e-03,1.856867671012878418e+00
-8.592294027326350392e-01,-8.692978697414933675e-01,1.038801285753665704e+00,1.856845078303972661e-03,-2.986175951797611847e-03,-2.471665931468266294e-03,1.903099417686462402e+00
-7.667808872049102220e-01,-7.582955953289438611e-01,1.007703347424749207e+00,3.097526356579529544e-02,1.258524359576304597e-02,1.265223687038815291e-02,1.771339297294616699e+00
-8.620738386209496618e-01,-8.631529413941672058e-01,1.072590607707829324e+00,1.523839467175526052e-03,1.658448604355471784e-03,2.360281918119855847e-03,1.935212492942810059e+00
-8.581229210502352434e-01,-8.463760429957645215e-01,9.756594490803653930e-01,-7.951134974823951054e-03,-1.410866328397014993e-02,-1.415947974311579892e-02,1.828316926956176758e+00
-4.783690808013348339e-01,-9.206389679112574331e-01,1.022691199629942371e+00,2.012734643509143384e-01,-9.669951143901797360e-04,4.204806731574344675e-02,1.799860596656799316e+00
-8.008380342926176843e-01,-9.668675073993597824e-01,1.243625840325508936e+00,1.798278298746747439e-01,-1.702988079588609385e-02,-8.902611905321497834e-03,2.155217170715332031e+00
-7.997960749300043748e-01,-9.549592257140661067e-01,1.159624781137464034e+00,1.809146591448522745e-01,4.591863669421485800e-02,-1.940577599869520997e-02,2.067143201828002930e+00
-8.661729193879664779e-01,-8.588173586071273791e-01,1.053871600142076925e+00,-1.042352664374815267e-02,6.975179814400713938e-04,-1.107050674092064117e-03,1.916463732719421387e+00
-7.139352683775290753e-01,-8.612431271102072294e-01,1.042377059892583224e+00,2.360138244273190730e-02,-2.411023541660694408e-02,-3.889157046059944344e-03,1.835350513458251953e+00
-8.670385423277732206e-01,-8.668075441500712186e-01,1.049762718191126210e+00,-2.270152763872105434e-03,7.181738404757826225e-03,2.136932462903705192e-03,1.916733741760253906e+00
-8.607597088403980967e-01,-8.654763192502438196e-01,1.068545637163663242e+00,-1.630401981244514317e-03,1.340943875614049460e-04,2.304660330832080523e-03,1.931674122810363770e+00
-6.763902254586048324e-01,-8.519007459553671335e-01,1.015482128405149176e+00,1.890890365233204723e-02,2.858086918514572000e-02,2.514073954955658302e-02,1.787623286247253418e+00
-8.721469737472170580e-01,-7.185632182843054716e-01,1.031566342451303964e+00,2.754889649141530408e-02,1.409237076726431448e-02,2.850457136172185671e-02,1.833205699920654297e+00
-5.764208494986655662e-01,-1.343835725818194549e+00,8.936464802908208327e-01,2.689377359794701272e-01,2.121100503500886192e-01,5.877435249608613244e-02,2.059245824813842773e+00
-8.751034522676418570e-01,-8.631114036301557046e-01,1.050571780934361543e+00,-7.291219812594403916e-03,1.241919934204599495e-03,4.631368904178822382e-03,1.919766783714294434e+00
-6.301899939837785070e-01,-8.682368228598278392e-01,1.046120457491735767e+00,9.361798895137034282e-02,-7.873478606349579648e-03,-1.130673508452265759e-04,1.814442753791809082e+00
-8.654891377568887378e-01,-8.636472076619141625e-01,1.054779964085163613e+00,-3.755489826028233103e-03,3.023257998704067910e-03,-1.671147382360729664e-04,1.919366955757141113e+00
-7.127924550757939182e-01,-7.302118582347507658e-01,1.088058069322425991e+00,2.032199837837206369e-01,-9.007651890871802569e-02,-8.868972966358634746e-02,1.856493949890136719e+00
-8.691163108225724576e-01,-8.099463272002832559e-01,1.045714400504129671e+00,-7.192644911067569901e-04,1.094698014281296830e-02,-1.361111870620022000e-02,1.886185050010681152e+00
-8.610548343736280641e-01,-8.041579882397997814e-01,1.039004084897773961e+00,-7.071649459571002945e-03,1.326014181922024505e-02,-1.457199659091323526e-02,1.872610092163085938e+00
-7.790568427397479567e-01,-7.629231423407822898e-01,1.028823853100172991e+00,-4.185756471040729537e-02,3.656290505882161396e-02,-3.438408806230829756e-02,1.803424119949340820e+00
-8.605565913133177425e-01,-8.533268074595307118e-01,1.052442715570362397e+00,-6.389609941326585398e-05,8.174543054787467358e-03,-5.936853607407259655e-03,1.909474849700927734e+00
-8.480755500764802779e-01,-8.085201834622925965e-01,1.036362730996889692e+00,-1.003479132003704151e-02,1.668787247769927887e-02,-1.406398751983197956e-02,1.865439295768737793e+00
-8.486447291574309437e-01,-8.444560513906259613e-01,1.053008821865255351e+00,-8.586586635440760992e-03,1.950439255436792543e-02,-1.552965253721022565e-02,1.900111675262451172e+00
-8.671052538195332948e-01,-8.402618340317803414e-01,9.711832359023677697e-01,7.466185490779944645e-03,8.512152163038759836e-03,2.016996508755807623e-04,1.825120210647583008e+00
-9.353075030842543658e-01,-3.753219175421089737e-01,3.150151728154448882e-01,-7.959569225187979047e-02,-4.663148383241492306e-02,1.794619043320440019e-02,1.096915721893310547e+00
-8.246000760037757171e-01,-8.487456785062060804e-01,9.558756430598833731e-01,-5.782293437855530460e-03,-1.767916511239992286e-02,-1.013721781677703881e-02,1.793045878410339355e+00
-8.427478993858619205e-01,-8.444347514191373749e-01,9.423655804460364660e-01,-9.160498488395689767e-03,5.989708511285779177e-03,-2.488074706705417985e-02,1.786577939987182617e+00
-7.829023535400706502e-01,-7.281237383335759095e-01,8.928553657169799873e-01,-2.159154130653700432e-01,-2.151692041179054382e-01,4.494686906186946135e-02,1.733257412910461426e+00
-7.944006604828866003e-01,-8.413362398598890346e-01,1.046356999226647266e+00,-3.027472030796710123e-02,-2.190117198377044064e-03,-1.041078751870552765e-02,1.865496754646301270e+00
-8.868633706249845483e-01,-8.574909362436952120e-01,1.026700268844393582e+00,-8.185183909339494718e-03,3.605708506407192225e-03,7.038824014732786337e-04,1.899111390113830566e+00
-8.590615176631030137e-01,-8.697230889208118487e-01,1.016196200727894405e+00,-1.323008098174868925e-02,1.327309320874312144e-02,1.228036698715288810e-02,1.881011486053466797e+00
-6.563145225620112821e-01,-6.939244018625065902e-01,1.033588317587418981e+00,2.552761949504613881e-01,3.300956559358786402e-02,1.574048119938024903e-02,1.766423821449279785e+00
-8.702762963352353998e-01,-8.486553046442421033e-01,9.809134148306513090e-01,-4.805829754847158915e-03,1.384236140186988380e-02,5.535366241418458906e-03,1.840674400329589844e+00
-7.827602757543605794e-01,-5.839123394244832843e-01,7.030820064465124197e-01,-2.755841506344285374e-01,-5.299660780688050105e-02,-5.189466567920746759e-02,1.481943368911743164e+00
-8.573949374793020661e-01,-8.374314251687758892e-01,8.241457274524557342e-01,-3.414821585220910102e-03,-2.114369839929232039e-02,1.251843996076024701e-01,1.686059832572937012e+00
-9.654071172679734580e-01,-6.609068477706656619e-01,1.052317123569497692e+00,-1.623077866286005717e-03,-3.443695206703687242e-03,5.104546132655616436e-02,1.886105656623840332e+00
-8.657685045750499464e-01,-8.589049870764285943e-01,1.027912799248753561e+00,4.804123514353940937e-03,-5.365432535233245585e-03,-1.226442801528059099e-03,1.890301227569580078e+00
-5.852196405883760555e-01,-9.454842665769057630e-01,1.054408963178781411e+00,3.194950947707532463e-02,-4.846983159635893934e-02,-2.078440296078377242e-02,1.849399685859680176e+00
-8.608306946944849214e-01,-8.637603688171119343e-01,1.041437300008661859e+00,4.348702723713873848e-03,-4.051705198373614474e-03,-3.716756223754069839e-04,1.903762459754943848e+00
-8.728758163679868343e-01,-8.285600798737142725e-01,1.037393822650789277e+00,2.963596345838037226e-03,-2.809854659832216619e-04,-2.513717954710871852e-02,1.889010667800903320e+00
-8.997638782701410376e-01,-7.190223394220665032e-01,1.048533230388111859e+00,3.597911387635313249e-03,-7.445432786698699332e-03,-2.777708602988586406e-03,1.864569425582885742e+00
-8.580100952732576669e-01,-8.680252764831557499e-01,1.026846645924441193e+00,3.276760447598549026e-03,-1.115753788039420104e-03,-1.019447938867083792e-02,1.889976263046264648e+00
-8.624154663130150222e-01,-8.615135554801305329e-01,1.041289066899411031e+00,-5.364623458501126827e-04,-3.992096271030086060e-03,3.002637341056364848e-03,1.903273582458496094e+00
-8.609878792996489283e-01,-8.647494998501773500e-01,1.072003637656674391e+00,1.335870285870419203e-03,9.138226962535538414e-04,3.853634493470423691e-03,1.934888601303100586e+00
-8.646520773086442402e-01,-8.646646080898551245e-01,1.072013003265504416e+00,2.081460622347443854e-04,-2.293999853953634493e-03,2.479209838412493525e-03,1.936680197715759277e+00
-8.580194209321739818e-01,-8.641090537678215444e-01,1.039627327215605135e+00,-1.990186824682520315e-03,8.223263674995583486e-03,-5.195364649805458632e-03,1.900776624679565430e+00
-8.550092051010926841e-01,-8.547964072101543742e-01,1.011628745339918645e+00,5.099111571260187513e-03,-1.383524218515696548e-02,4.570367250609227473e-03,1.866723060607910156e+00
-8.644442486086019173e-01,-8.650374211437548144e-01,1.058507830793931515e+00,2.356144481042652880e-03,2.056551843215668075e-03,1.106751522735955869e-03,1.923257350921630859e+00
-8.654283003448859368e-01,-8.640331598272920077e-01,1.064099494847607019e+00,5.579272007392179454e-03,-1.733337653316599112e-03,-4.108992017299175660e-03,1.928870320320129395e+00
-8.642878859943610159e-01,-8.529622139546098047e-01,1.053977862541480626e+00,1.604566215053590582e-03,-1.153461831952740449e-02,5.982707357813568140e-03,1.912762522697448730e+00
-8.602932810802660368e-01,-8.548382783802964680e-01,1.070118600381458007e+00,-5.611735030304165718e-04,-1.173446620465928153e-02,2.666429301358151649e-03,1.927803039550781250e+00
-7.467831106799659446e-01,-7.649622732013026116e-01,9.989970194576747176e-01,-2.256139348751826090e-02,6.460876544470755753e-03,-5.551121855228953635e-03,1.755437374114990234e+00
-8.572937324790878000e-01,-8.630385337009048863e-01,1.073655679210740788e+00,2.597337178453849264e-03,-2.018424125169105549e-03,-6.264287869722948935e-04,1.933836936950683594e+00
-8.645116086223815222e-01,-8.622482950710628202e-01,1.063593427438342509e+00,4.088799971017477095e-03,4.348941494687819619e-03,1.603989396805008665e-03,1.927004098892211914e+00
-8.632480744475742318e-01,-8.617672541921141960e-01,1.074562490716335805e+00,-8.665875853188115827e-04,6.012981975661719514e-07,-2.723837720400898010e-03,1.937076926231384277e+00
-8.634365262147862818e-01,-8.670519679117916212e-01,1.057150360582324033e+00,5.369041805410319779e-03,5.889677389662941083e-03,-7.594772191398429725e-03,1.922491669654846191e+00
-8.441748618050755049e-01,-8.272542408872273212e-01,1.055756920286328171e+00,-9.990935785250526762e-04,-2.468383186982823531e-03,8.378521686591458920e-03,1.891589522361755371e+00
-8.544686689271960844e-01,-8.658077751106100228e-01,1.039401649647384129e+00,4.353327671709354522e-03,-2.445603422798073995e-02,-2.254639054062613709e-02,1.900453686714172363e+00
-8.447882023583531685e-01,-8.648480212391680411e-01,1.065987374020461065e+00,5.340693929091980957e-03,1.088565110209667453e-02,6.871431457565073397e-03,1.921035766601562500e+00
-7.258449445186494486e-01,-8.623067403728454927e-01,1.039050860776955076e+00,-2.822138649503075358e-02,-3.778423398493543917e-02,8.966310629885619263e-03,1.838813066482543945e+00
-8.501423022662762952e-01,-8.374528469306433687e-01,1.063420246063771391e+00,6.046006776726466601e-03,1.967638317202716203e-03,-3.804209485763787504e-03,1.907292604446411133e+00
-9.959085680474050184e-01,-4.545543939551511814e-01,1.031578649277829829e+00,-1.106591584364443603e-01,-6.298981037418167027e-03,-1.367634600030093531e-02,1.828550457954406738e+00
-6.787978527880281776e-01,-7.177290072258830644e-01,9.827346060550954387e-01,-1.385018255259665432e-01,-5.048128843008897748e-03,9.065584921190757151e-03,1.698458790779113770e+00
-8.680514159476897529e-01,-8.600641547845233603e-01,1.034365197230536104e+00,-2.944532606204740624e-03,-4.111123911061317915e-03,-1.555655477535448656e-03,1.898457646369934082e+00
-8.661369187891416743e-01,-8.634066148133990870e-01,1.059128230137673210e+00,-2.277544091834095286e-03,3.983121846265522126e-03,5.746440456584960173e-03,1.923943638801574707e+00
-8.629097809672598984e-01,-8.620978149994825701e-01,1.057500095128672157e+00,-1.276389702567290051e-04,2.361349824543820808e-03,5.121175994361334104e-03,1.920028924942016602e+00
-8.649751464630763831e-01,-8.659242186453053325e-01,1.072348628651841329e+00,-1.104632734766684702e-03,2.062197680823683876e-03,2.625505753530919719e-03,1.937808036804199219e+00
-1.112634231175296362e+00,-3.964847105301754215e-01,1.081609340579444245e+00,-1.351166047590201535e-01,4.690739710236301041e-02,-3.259390227017416181e-02,1.954667687416076660e+00
-7.604133265176448164e-01,-7.513981936222766667e-01,9.998890183844701962e-01,7.353671528482360296e-03,8.232676169278856093e-03,6.670766209034737718e-04,1.755916595458984375e+00
-8.560320442553128739e-01,-8.584489869798139772e-01,1.064198742696173650e+00,1.233309847414500258e-03,7.376924272317867889e-03,6.072451822934302711e-03,1.921512842178344727e+00
-9.811501695749927920e-01,-4.972339051580236813e-01,1.058385059450335008e+00,-8.105086127358721027e-02,4.285465561086014910e-03,-6.022203114664677337e-03,1.851158142089843750e+00
-8.774392588145818461e-01,-8.552004654586375931e-01,1.024483543790895679e+00,-3.581487881755580395e-03,3.147385603699455817e-03,1.153940811495126088e-03,1.890920519828796387e+00
-1.014728784703461395e+00,-2.091683482414432582e-01,1.097883377780866976e+00,-2.806407623217205827e-01,2.126369139197689315e-02,7.224839059455911159e-04,1.909936308860778809e+00
-9.065016988943795928e-01,-2.775829819630949435e-01,1.091051514088771324e+00,-3.292360131511523069e-01,-3.285312409924043275e-02,7.771552604977707834e-02,1.864404797554016113e+00
-8.739190717935002573e-01,-8.556119958340586695e-01,1.036864582500358178e+00,-1.323102626357191419e-03,3.741029266197451984e-03,5.328803334950895157e-03,1.901731014251708984e+00
-9.464885653731736070e-01,-4.214736942862011282e-01,1.103418904936952494e+00,-3.730183188199600597e-01,-1.171105058804479959e-01,1.064516805995235765e-01,1.973346829414367676e+00
-7.726834319085980063e-01,-8.720845706155008203e-01,1.227129067642492410e+00,2.355133362971910671e-01,-4.344938399965394410e-02,-4.803182153039620844e-02,2.094492435455322266e+00
-8.680437776629061908e-01,-8.606688366787069722e-01,1.045307959995084079e+00,2.534327051486982493e-03,-1.058065113791750375e-02,-7.520319956065011149e-03,1.909812331199645996e+00
-8.717893851640670100e-01,-8.555191389550534931e-01,1.022563080587122863e+00,-1.013356412954171271e-03,2.983049087896785974e-03,1.164771792044614999e-03,1.886278986930847168e+00
-6.484079405065682478e-01,-7.459370777575422551e-01,-3.293681695997680015e-02,4.984539069025236552e-02,1.288034420863701512e-01,1.021562140685015191e-02,7.112529277801513672e-01
-4.379616503897678093e-01,-7.929846519898895441e-01,1.140489717582199969e+00,3.956226019795998639e-01,9.009631600858615530e-02,1.113827140579912306e-01,1.925891637802124023e+00
-3.581648164157514858e-01,-1.044524889566548653e+00,1.597744451864378412e+00,2.671693384069125932e-01,8.298954024260299378e-02,1.412496352858488152e-02,2.423742532730102539e+00
-8.399642207841027108e-01,-8.416229413262072967e-01,1.058803726024350800e+00,-1.043290185490885775e-03,-4.145908487048718429e-03,-1.904330251107225376e-03,1.899615168571472168e+00
-5.939515764268114006e-01,-7.583517931713242843e-01,1.173658708239433413e+00,4.243687320576863264e-01,1.967838144951761792e-01,5.460482956594282095e-02,2.026684999465942383e+00
-7.274260779311420011e-01,-8.873621162694598219e-01,1.229857817631462735e+00,2.458948208222035137e-01,-1.055240880801403512e-02,-3.777711601370905420e-02,2.087004661560058594e+00
-8.149023335692489045e-01,-8.226577198149906955e-01,1.046985212669861998e+00,-8.323883828824488879e-03,7.875530200478408557e-03,-1.735869623929402195e-02,1.866125106811523438e+00
-8.764898585736241587e-01,-8.533635338081826394e-01,1.017732401666292974e+00,-8.093401981813273327e-04,5.281720361490099304e-03,-1.697508629867107606e-03,1.882790684700012207e+00
-8.511660592671751457e-01,-8.671602593241183321e-01,1.059412226620715547e+00,4.145680791691984108e-04,-1.157573602066183649e-02,-1.096136470864165699e-02,1.918824195861816406e+00
-8.246742158343982609e-01,-8.318558734628397344e-01,1.053078756560215545e+00,-4.913033031419280182e-03,5.347257705459348281e-03,-5.919508512808166131e-04,1.881396412849426270e+00
-8.134170380662714139e-01,-8.275297508898038501e-01,1.047364161090214685e+00,1.776194554168054364e-03,-4.761716284157861342e-03,-8.653876517037225116e-03,1.867958426475524902e+00
-8.584611121536109835e-01,-8.618768461436664419e-01,1.052565259342342019e+00,-1.230181711195571731e-03,6.464738309855187770e-03,-4.229935080725120804e-03,1.912784576416015625e+00
-7.962202769474716613e-01,-8.030218999918485867e-01,1.032926233567249774e+00,-1.702380857207145192e-03,1.208919587883027814e-02,-1.051856210794662079e-02,1.832769393920898438e+00
-8.170644191681202262e-01,-8.278244468091353614e-01,1.047772906544061300e+00,-1.172391285139432783e-02,1.497440734185333418e-02,-6.612599021884410337e-03,1.870565652847290039e+00
-8.664088916155713305e-01,-8.691813749163901370e-01,1.061056401411200278e+00,-7.695824617004794026e-03,-1.813204357344445818e-03,-3.367234722822728954e-03,1.928910493850708008e+00
-8.657096693031371970e-01,-8.470206993267765938e-01,9.951029511606639399e-01,1.188695819003205388e-02,8.927779323091047242e-03,-2.626156495877900524e-03,1.851723551750183105e+00
-8.554888977306367437e-01,-8.688525578178825093e-01,1.055547041779118622e+00,-2.441826368450588421e-03,-8.100872874375560084e-03,-2.288114026038753131e-03,1.917812824249267578e+00
-8.463581733088204606e-01,-8.464135841570559204e-01,1.062482368702347024e+00,3.170873263488862941e-03,-7.213578604123800468e-03,-1.386699426885950291e-02,1.909068107604980469e+00
-8.617885108635295888e-01,-8.564237138779342562e-01,1.068525798526950510e+00,-2.996762965270700105e-04,-1.391502068610685032e-03,-8.404720348640714678e-04,1.927639603614807129e+00
-8.639309288670771192e-01,-8.652138275464754669e-01,1.065320577242277800e+00,-3.311991766768723842e-03,4.296836073986713515e-03,-5.008322684432319795e-03,1.929935693740844727e+00
-8.073988869486788955e-01,-8.583160648132279746e-01,1.035854205489906033e+00,1.190841630006736658e-02,-2.149440988427572460e-02,-8.901705319906928413e-03,1.869779944419860840e+00
-8.262417875294832958e-01,-8.456480442061621305e-01,1.053154325353166554e+00,2.173917565480933383e-03,-1.265982244241980505e-02,-9.601642634390259584e-03,1.889378190040588379e+00
-7.509637755751271682e-01,-7.599226970394744596e-01,9.989373470114961684e-01,2.068609163305291238e-02,6.669651544430777769e-03,8.026883759058994761e-03,1.754856705665588379e+00
-7.629436406485184952e-01,-7.347866009354389050e-01,9.921752959014318307e-01,2.383529729926181853e-02,5.852241701773795539e-03,-3.152903507031729215e-05,1.741729974746704102e+00
-7.667561576705467230e-01,-7.705984285048194105e-01,1.007721032907678893e+00,2.215913314492691782e-03,7.311381041522890638e-03,9.338593583809241469e-03,1.776524305343627930e+00
-7.629538404781341931e-01,-7.654162267300650413e-01,1.007961721610155736e+00,3.047272680073161502e-02,1.112254883221599176e-03,-1.918448870663752581e-03,1.772938013076782227e+00
-8.620061829107168450e-01,-8.590756132051449168e-01,1.069381840540002848e+00,-1.298444444733280528e-03,-1.842562695743261893e-03,-3.183706633516090404e-03,1.929936289787292480e+00
-8.671738323032509577e-01,-8.601711933900475504e-01,1.046118700598871465e+00,-4.706955030491079793e-03,-4.066288441732627407e-03,8.658667697838520793e-04,1.909831762313842773e+00
-8.598927578497408408e-01,-8.534609625834463920e-01,1.070195931245472964e+00,-9.187900700076977222e-04,6.431141652175596975e-03,-3.273601500290095490e-03,1.926922082901000977e+00
-5.833354583659993153e-01,-8.820476952060962716e-01,2.512355461748957408e-01,1.931308958534817821e-01,1.593514796798357197e-02,-1.228140118853677937e-01,1.092220067977905273e+00
-9.804247356764455024e-01,-8.306332718586426633e-01,3.633739806877903655e-01,1.283232921536118232e-01,-1.173536213030924730e-01,-1.564502777582169046e-01,1.338315844535827637e+00
-8.577907717069129800e-01,-8.467884050155617404e-01,9.757531796615255271e-01,-5.107850111908361634e-03,8.533908753273738296e-03,8.823057016481221371e-03,1.828212618827819824e+00
-7.642903414295507680e-01,-7.611891895377018713e-01,4.326660015760351863e-01,4.961865188116912351e-02,-2.150264193917847746e-02,-6.192532225643255367e-02,1.203860282897949219e+00
-8.407493983253897518e-01,-8.616527453310284246e-01,1.049048093360218870e+00,-2.823522515358772877e-04,-8.419972428083599345e-03,1.069118096371716835e-02,1.900481581687927246e+00
-7.611150086877751519e-01,-7.391046867413246790e-01,4.635010654786945183e-01,2.617249854344778828e-03,8.724375996983080653e-03,-7.200151283773383037e-02,1.220252513885498047e+00
-7.320731516740857092e-01,-8.023670154607122074e-01,1.015994712484149520e+00,7.328647123753156967e-02,1.515063253615621039e-02,1.566177828226724897e-02,1.789161324501037598e+00
-8.482264131162825516e-01,-8.908675580583315101e-01,1.054582787630654828e+00,7.555549920908552486e-03,-1.873348434959064973e-02,7.486016776626409734e-03,1.924845814704895020e+00
-8.733198772754386940e-01,-8.576649107325541310e-01,1.037389636025934259e+00,-2.018314182031073160e-03,3.742120517445735820e-03,5.330357736928892885e-03,1.902966976165771484e+00
-8.486745041597345551e-01,-8.107240096274546115e-01,4.911643110755751218e-01,-1.459223745604425367e-02,1.191646341927388025e-01,8.356399402002649690e-02,1.345343470573425293e+00
-8.483400506594933610e-01,-8.670540215788622440e-01,1.047684354159856834e+00,3.535745227782363361e-04,-1.612823757648662593e-02,-1.054213541901244389e-02,1.905742645263671875e+00
-8.525021762808951964e-01,-8.562592330818474817e-01,1.065535143670065077e+00,4.404178795658498201e-03,-6.213548623597030945e-03,-6.268044048523656840e-03,1.919994592666625977e+00
-7.719428404671433430e-01,-7.539872796605403549e-01,1.002338362070216427e+00,2.753924449308700097e-03,-4.576053282513450199e-03,8.346385585717783087e-04,1.765396714210510254e+00
-8.653798038278796012e-01,-8.460230557195934642e-01,1.059953378734052487e+00,4.464838248560133900e-03,-2.052381593563426185e-02,-2.632293500560071303e-02,1.916615962982177734e+00
-7.958467416500552005e-01,-8.981498887215111360e-01,1.066265310073362116e+00,3.422794071513812070e-03,-1.726130051149827455e-02,1.903085442263888552e-02,1.915839910507202148e+00
-5.151334284777279171e-01,-9.397894975988647648e-01,1.022941011490124286e+00,-9.272258986707571093e-02,-3.954528228576611321e-02,-5.964571025023492068e-03,1.797150254249572754e+00
-8.667024364740633091e-01,-8.572051389735541038e-01,1.032844106932273576e+00,-9.301291907187612300e-04,1.439854589195976474e-03,3.996661238481849163e-03,1.894830703735351562e+00
-1.026901055736782364e+00,-2.366449875027548111e-01,8.425333112791866252e-01,1.530162472454377753e-01,2.541092865123687969e-02,3.557848213591331861e-03,1.647475242614746094e+00
-7.949672547865567207e-01,-8.785726775265398913e-01,1.056709139617570958e+00,3.729311382835414322e-03,-1.714491716497984486e-02,9.283770225558388156e-03,1.895174860954284668e+00
-8.601868073728784481e-01,-8.523117568602393002e-01,1.011793945810434137e+00,-1.607186157086756178e-03,-2.054608245609000280e-02,5.165042420156890947e-03,1.868418097496032715e+00
-4.607977686862026467e-01,-8.931710194019796267e-01,9.592106708359526834e-01,-2.911178556057125166e-01,-7.270470708507892343e-02,6.610671222367303645e-02,1.760841131210327148e+00
-4.831808754389825267e-01,-1.172868553005183445e+00,1.236046313550346776e+00,-5.703556319254071694e-01,1.902725912009029241e-01,1.542282774145515845e-01,2.402712583541870117e+00
-8.664798478979540697e-01,-8.532894401558740460e-01,1.007925284674148880e+00,4.617955357741464900e-03,-1.964385494447708908e-02,7.724811981571074251e-03,1.868219733238220215e+00
-3.633519239961670588e-01,-9.744166444306983088e-01,1.062728239984759515e+00,-1.433422641684060361e-01,-3.255770543551707308e-02,1.266912478377744782e-03,1.828485131263732910e+00
-5.639197453068534038e-01,-1.318254601411857241e+00,1.442998359478754322e+00,3.051506327118219675e-01,-1.851116654722099464e-01,-6.646696229238201192e-02,2.550692558288574219e+00
-5.613054643143103872e-01,-1.079802002525623639e+00,1.215228430626447809e+00,-2.288703962083954990e-01,7.889871794946172467e-02,-3.504677039734793460e-03,2.126474857330322266e+00
-8.672583431746639926e-01,-8.537134973954070283e-01,9.952940231521940628e-01,2.629873299056110841e-04,-2.079876420481728203e-02,2.032926179221676566e-03,1.856170058250427246e+00
-5.270073613512018529e-01,-1.088893878586146613e+00,1.367096478922904090e+00,-5.371006089542401662e-01,3.404110295133384867e-02,-1.075883736681192554e-01,2.423066377639770508e+00
-3.391672279480544283e-01,-1.121378492778533520e+00,1.117572966044001248e+00,-1.009091419729575972e-01,7.994845982517814753e-02,3.611721015536017293e-02,1.981681466102600098e+00
-8.651103344211554802e-01,-8.620843387462795437e-01,1.048769370444412985e+00,3.788034878311882878e-03,3.126257387764638448e-03,-6.418919770585591357e-03,1.912419795989990234e+00
-4.962934853272173430e-01,-9.579136271741126585e-01,1.015815468283373990e+00,5.398027601179561548e-03,-1.329922423624167911e-02,-5.117358926422699641e-03,1.788374423980712891e+00
-8.497509623780880039e-01,-8.775971368070971668e-01,1.052009342689425475e+00,3.357448635779817971e-03,-1.548176234951360690e-02,3.808968637956594051e-03,1.916043043136596680e+00
-8.539019486126511183e-01,-8.578983770167356582e-01,1.016883391004342663e+00,-1.817121158917807833e-03,2.740719337054604247e-03,-2.347784417908395285e-03,1.872799873352050781e+00
-8.753912605317850648e-01,-7.841873149368556728e-01,1.017243503665796744e+00,2.420985355201391367e-03,-9.576324490743630185e-04,7.625141631723457609e-03,1.848773479461669922e+00
-8.411532934630319147e-01,-8.640465303328936919e-01,9.791703390889539005e-01,2.394323749745819966e-03,-2.285776276668218324e-02,-8.003340459483853156e-03,1.832362413406372070e+00
-8.575571973985320895e-01,-8.641046019386939836e-01,1.026753382301182072e+00,-5.071832066888382062e-03,-1.376463276062559610e-03,-7.330616828134967587e-03,1.887657403945922852e+00
-8.726168110333140104e-01,-8.580015084627619082e-01,1.024467174197990715e+00,2.064295592274993651e-03,3.605198710564386840e-03,2.121884954038193161e-03,1.889835953712463379e+00
-8.346163811372535601e-01,-8.371828142056720878e-01,1.051847072799270366e+00,-1.815870500598915430e-02,7.114377790473623044e-03,-1.630122815577106365e-02,1.888261318206787109e+00
-8.607206241042066885e-01,-8.680025007026862527e-01,1.047016137187244844e+00,-3.788130809532861114e-03,-6.387131965346530896e-04,-4.994292049804927545e-03,1.911419272422790527e+00
-8.227245263459810332e-01,-8.214412237418382556e-01,7.665533461803060167e-01,1.635803987005783264e-02,-7.522464546067199331e-02,1.928330798868795742e-02,1.594572305679321289e+00
-8.631614783850850570e-01,-8.604249368508163354e-01,1.043475577462050996e+00,1.764616506385788654e-03,-5.028058047739611923e-03,3.541117818591085417e-03,1.905302524566650391e+00
-7.828018098352009790e-01,-7.601556120173607045e-01,5.717112480167308997e-01,6.861050500089325467e-03,1.057239866123324684e-01,4.912111758087562424e-02,1.358475804328918457e+00
-8.567934994534851523e-01,-8.697276949653194311e-01,1.003921826088321811e+00,-6.171265836456309162e-03,-4.281807338024397856e-03,-2.188334473256077842e-02,1.867645978927612305e+00
-8.663023342223363787e-01,-8.602605373747808093e-01,1.056531566495271024e+00,1.944623095257023765e-03,1.444672448855796425e-03,2.612804240022192914e-03,1.919830083847045898e+00
-8.528895918750567517e-01,-8.617843135973715096e-01,1.058143679140811866e+00,5.628669842745557140e-04,-1.111599266528401353e-02,-2.994712506398251959e-03,1.915600180625915527e+00
-8.633437130192950226e-01,-8.625766862560776405e-01,1.071283887278737135e+00,3.336935484146535003e-03,-6.927310883092444981e-04,-1.545054893104803786e-03,1.934255003929138184e+00
-7.921206433134592162e-01,-8.027106063708958628e-01,1.694422079351116661e+00,-5.985293739782945321e-01,2.244047951494985288e-02,-4.351473360936358725e-02,2.700230121612548828e+00
-8.565222164218933010e-01,-8.713164938432477191e-01,1.028378433731132802e+00,-2.776511486901057403e-03,6.054594512144951396e-03,3.323439258007660456e-03,1.892385125160217285e+00
-8.600171836517062074e-01,-8.766427779108330043e-01,1.026573522890024348e+00,-4.205411988450424854e-03,-3.209536945535891150e-03,5.594738479256933759e-03,1.895005106925964355e+00
-8.580747933743887446e-01,-8.427249032685982799e-01,1.059284669424284564e+00,3.637202198987277580e-03,1.319950612874340456e-02,1.979133693631295737e-03,1.909881114959716797e+00
-7.224126246607056601e-01,-8.149697886319050566e-01,1.030455758222720952e+00,-6.953758959942078766e-02,1.641135544632166612e-02,-1.697948402340607524e-02,1.805418014526367188e+00
-8.446872387885384637e-01,-8.334926357609780956e-01,1.060412114905173953e+00,4.582430549283290260e-04,4.334701879083029293e-03,-6.397377316605171865e-03,1.899574160575866699e+00
-8.648540974832559236e-01,-8.614023932757118862e-01,1.056935655451969769e+00,-5.776678449479329992e-03,6.954825049080072888e-03,5.291882946879414643e-03,1.920151948928833008e+00
-8.266384437730546209e-01,-8.388209113386770888e-01,1.052425849044532624e+00,4.627466877245965324e-03,1.072071873949997575e-02,8.509393138245210930e-03,1.885351181030273438e+00
-8.392452531148411055e-01,-8.576758577828652585e-01,1.056354995976050093e+00,-5.239171024400980300e-03,-1.382591808047113667e-03,1.394434811648036752e-02,1.905058622360229492e+00
-8.488995230052184260e-01,-8.276928095121819373e-01,1.057851135970536482e+00,1.445212893096896756e-03,1.288049654881166448e-02,1.198001465966620077e-02,1.896482706069946289e+00
-8.642716330180166828e-01,-8.548367060244228544e-01,1.053353291084945687e+00,-1.859533690083039071e-04,-4.789507795128500507e-03,2.518833015402913264e-04,1.912943005561828613e+00
-8.446162796568270625e-01,-8.403592048134108650e-01,1.010301049674299900e+00,4.870208124101229295e-03,-4.687584943577922242e-03,2.320414789760287793e-03,1.852833867073059082e+00
-8.304445855428889134e-01,-8.414094177033825117e-01,8.769443286548117555e-01,-1.354817441459825814e-02,-1.316687669835864619e-02,1.858393728202213657e-02,1.713512539863586426e+00
-7.985463044085295836e-01,-8.154097553184258551e-01,1.026606140249759713e+00,4.345659489842344791e-02,-3.128094485298141183e-03,1.452572827700664149e-03,1.835196256637573242e+00
-8.461231628856407117e-01,-8.046205410479204678e-01,8.331190931008884970e-01,-5.765667050709130832e-03,1.094843294259900505e-02,-1.846475827760291717e-03,1.659021854400634766e+00
-7.293759898802211206e-01,-8.504997516967354176e-01,1.034801619288916008e+00,1.519884905822430250e-02,-1.747260738205180450e-02,1.833267964343675976e-02,1.828467845916748047e+00
-8.678192119269049210e-01,-8.657000439415173387e-01,1.064893054401297778e+00,-7.928294229489561695e-03,6.138840628319318891e-03,2.922231882798756366e-03,1.931738257408142090e+00
-7.585178188872562233e-01,-9.359457961352243283e-01,9.762923830205285647e-01,4.199476097478999082e-02,-4.835827466601443081e-02,1.283336588063102406e-02,1.833480715751647949e+00
-8.533852354715780741e-01,-8.561979104169178401e-01,9.980439109602254888e-01,-9.495122914580267359e-03,-1.022512478781394986e-02,9.163183686820990798e-03,1.853062629699707031e+00
-7.921271805615477390e-01,-8.585963149156830010e-01,1.050363196809031674e+00,5.162291248275466433e-03,-1.112414074899617002e-02,1.517193222830908947e-02,1.876912236213684082e+00
-8.625640329974533227e-01,-8.522082612059809215e-01,1.001317932978379455e+00,-1.911155513160038653e-03,-1.022262372406292780e-02,2.500749734452059527e-03,1.858818054199218750e+00
-8.358379117489296295e-01,-8.773505787719342308e-01,1.052912299930133244e+00,5.769666055752751925e-04,-1.645262352260300556e-02,7.429289420779978080e-03,1.910101175308227539e+00
-1.113440599060868452e+00,-6.253709107182098270e-01,1.677605330226420666e+00,4.861097112865738756e-01,-2.664205367124177978e-02,1.309329726238002249e-02,2.716150999069213867e+00
-8.621968841449754173e-01,-8.667739882474335689e-01,1.042674101226487071e+00,6.467664334970958662e-03,3.405081843791039117e-03,-8.074489343556376722e-03,1.907256960868835449e+00
-8.378521247847017239e-01,-8.667050589761833290e-01,1.049866603986154390e+00,6.388579037278660326e-04,-1.386350637822509300e-02,1.796402206535001236e-03,1.902463674545288086e+00
-8.573423894715760385e-01,-8.579251493782201754e-01,1.023057076979550839e+00,-5.605333904520734024e-03,-1.975700252902099809e-03,-4.445400338679431247e-03,1.880734801292419434e+00
-7.882338362934232512e-01,-7.706250271138992414e-01,1.018126646627978804e+00,1.117808405985842163e-02,1.007426247632862634e-02,-3.938019554943921613e-03,1.797822594642639160e+00
-7.572416142851396970e-01,-8.960746451414527414e-01,1.009835183316159624e+00,1.843647294199186604e-01,9.024661860973530458e-02,1.893106469608103401e-02,1.874738216400146484e+00
-8.607636645664673569e-01,-8.650321270189793577e-01,1.029855488054901347e+00,6.728242835917699373e-03,1.145960763590173591e-02,-1.395326501680123170e-02,1.893051266670227051e+00
-6.830399635174836392e-01,-8.002685453039606323e-01,9.986741172510404940e-01,3.319582874428043950e-02,-6.078545844638010877e-03,3.129220284686594442e-03,1.744275212287902832e+00
-9.164108856269055359e-01,-6.879135086083703055e-01,1.039179912695861407e+00,-2.903278485534523806e-02,1.163978236020624460e-02,7.123254099367086478e-02,1.856840491294860840e+00
-8.411354806859613342e-01,-8.510009479749940375e-01,1.054711658152595932e+00,-3.375790960564723723e-03,-9.608930977449206545e-03,4.862803544450179996e-03,1.900899529457092285e+00
-8.385938134615174011e-01,-8.904479639839941729e-01,1.049658369748183162e+00,-9.362103687448723472e-04,1.851307292545378153e-02,-8.227146831011600964e-03,1.915028095245361328e+00
-8.728630683670790535e-01,-8.505001644309794218e-01,9.847260019703496514e-01,-2.037491389691487628e-03,-8.859001347185275349e-03,-2.744684791407402423e-05,1.846576333045959473e+00
-7.288437636806553988e-01,-7.595316842554434844e-01,9.995741086228957517e-01,6.430748682346973388e-02,1.487914985787370387e-02,1.658071291484691789e-02,1.747943639755249023e+00
-7.872862509102680484e-01,-7.015128108390379369e-01,9.957322245498305691e-01,3.775054756193089306e-02,3.301510796303418725e-03,8.374960399588118540e-03,1.743013143539428711e+00
-7.482171613320753867e-01,-8.359776210154973297e-01,1.047509168664960244e+00,5.340818083334072236e-02,1.252957693772666602e-02,1.748834375134421595e-02,1.843874812126159668e+00
-8.422295484048780700e-01,-8.632371042899822378e-01,1.059443085050911115e+00,-2.932264327002649966e-04,-9.398997691225820586e-03,4.178478530902283300e-03,1.912346005439758301e+00
-7.978001218959650531e-01,-7.248580015730875514e-01,1.007860154183671364e+00,7.464176365000613211e-02,8.405064648582915091e-03,7.172451816982702670e-03,1.775134205818176270e+00
-7.573564928665027507e-01,-9.486284364086434717e-01,1.077992094657453048e+00,1.171114235770566100e-02,-5.317562641424422760e-03,4.761037001544348064e-03,1.938221931457519531e+00
-6.715550197143708155e-01,-1.093749004046307149e+00,1.189700943883613027e+00,-5.010242285885116442e-02,-1.106805746110333111e-01,-3.053672961937625805e-03,2.114862203598022461e+00
-7.885600224692095317e-01,-8.004766573838995036e-01,7.221182271611616965e-01,-8.945506385038465291e-03,6.167171616060126461e-03,8.158744403426950592e-03,1.516854286193847656e+00
-5.770182076668717297e-01,-8.539910558075004543e-01,9.956586541911358612e-01,-1.088998032181166392e-01,3.019889972831910291e-04,-1.181898811289028295e-02,1.738278508186340332e+00
-7.893728208607425634e-01,-8.908728251650862573e-01,1.042019580741031071e+00,-5.677813610893644135e-03,1.217088863100885751e-02,-1.646166973873928671e-03,1.884339690208435059e+00
-6.757616240164886490e-01,-8.043863408438464146e-01,1.014515711648390495e+00,3.210769332125182340e-02,1.043679934140351317e-02,2.142049640578599749e-03,1.759098172187805176e+00
-7.723455862314856368e-01,-7.355394349363487683e-01,1.003115785004009775e+00,1.434764026657435639e-02,3.488233067988392565e-03,3.606971951706661877e-03,1.757544636726379395e+00
-8.231259102427211927e-01,-8.537408400038435374e-01,1.052374951724709629e+00,4.277779607965989184e-04,-8.811365945413126080e-03,-2.498085034772663630e-03,1.891060829162597656e+00
-7.108766552366238001e-01,-1.072092724224798621e+00,1.152178293299290779e+00,1.223985452483496300e-01,8.686619450227497929e-02,-1.699425687178894584e-02,2.083953857421875000e+00
-8.285904673680801746e-01,-8.556890812528906709e-01,1.057896128493624799e+00,3.906252574029394145e-03,8.763695399733173810e-03,-6.764155217338742483e-03,1.900289654731750488e+00
-8.544214682678219486e-01,-8.643452506851911910e-01,1.069095149950759271e+00,8.229037302358696484e-04,-7.682887156451179492e-03,-9.192664459316145578e-03,1.928609848022460938e+00
-8.708200596503938851e-01,-8.593517995136589205e-01,1.031894938910444592e+00,8.836009746723836114e-03,6.290562855553081048e-03,-8.727882725151809434e-03,1.897160172462463379e+00
-8.692153931282208257e-01,-8.596712893822001655e-01,1.021315288687364875e+00,9.402695455843429820e-03,5.983279124744828384e-03,6.524745200052817391e-03,1.885909438133239746e+00
-7.813178874944867180e-01,-8.614594743565675561e-01,1.046914754415282589e+00,-8.790315382085139503e-03,-1.104986858634720258e-02,-1.355668407092576466e-02,1.869899511337280273e+00
-8.529352213405891892e-01,-8.605434243863521182e-01,9.860183173392247369e-01,9.684862798024339997e-03,-2.211109776684857739e-02,3.099723932327063877e-02,1.844025373458862305e+00
-6.553031389010965935e-01,-9.498132938653365276e-01,1.045248845010785965e+00,-3.339375960371143698e-05,2.445968805353088485e-02,-2.777948601119225713e-03,1.865813732147216797e+00
-8.576363803406845676e-01,-8.619538347026092229e-01,1.066055970104542450e+00,-2.171857210780133059e-03,4.971377884381263448e-03,-5.558149889508260527e-03,1.925901651382446289e+00
-7.268125864099189704e-01,-8.650306343896468908e-01,1.032350716532819179e+00,2.890289813867250382e-02,-3.551503067787921408e-02,-2.152458461131422779e-02,1.834281325340270996e+00
-8.424778943359220174e-01,-8.755429093367047555e-01,1.059867554534220213e+00,1.230288906946793879e-03,2.330757217151365954e-02,1.355423387875100139e-02,1.919660925865173340e+00
-8.551102814322503187e-01,-8.511594357493308394e-01,1.047971216104848891e+00,3.118788425404746961e-03,-1.155637932854045730e-02,-8.500930927283642524e-03,1.901279211044311523e+00
-8.037139810270303997e-01,-8.169248419572686659e-01,1.039896447853525085e+00,4.678172768549572480e-03,-4.238906518244469658e-03,2.516783108616101657e-03,1.850288629531860352e+00
-8.350638517987835074e-01,-8.179167483241955861e-01,1.051380039725296589e+00,1.179180865255517567e-03,1.408658984125130478e-02,2.485197627717038692e-03,1.878093600273132324e+00
-8.488791307037361067e-01,-8.474572078237653239e-01,1.061105918946867899e+00,-1.456147401858626320e-03,-3.234787030216958528e-03,-9.204222138258701114e-03,1.909350872039794922e+00
-7.908256380967754184e-01,-8.954826388639705037e-01,1.043722330471347437e+00,4.191383668078173426e-03,-1.416620512252761768e-02,-4.926598350861757965e-03,1.889244556427001953e+00
-8.590500291091072160e-01,-8.717568809497970861e-01,1.032962139187398209e+00,4.033222653276523524e-03,-1.923310987125723516e-03,-4.248055572159255451e-03,1.898427486419677734e+00
-7.684375115815299528e-01,-8.796231308755994016e-01,9.806308788567630330e-01,-9.075881347766573404e-03,5.244328701606851967e-03,1.406630026278178451e-02,1.807483553886413574e+00
-9.781750768669311702e-01,-8.899064858773719777e-01,1.689265483145248714e+00,5.765205679949821915e-01,1.196261293087493884e-02,4.462502035459868510e-02,2.809112071990966797e+00
-7.923698975522118770e-01,-8.630899518373983392e-01,1.052790366675425693e+00,5.257506040563094014e-03,-1.110817761696098784e-02,1.723084641115137094e-02,1.881874442100524902e+00
-8.356269314300466267e-01,-8.472958949795534878e-01,9.033869551636886097e-01,1.050894532603933659e-02,7.201041383009868652e-03,-1.011362015468102518e-02,1.745105028152465820e+00
-8.646750748795133390e-01,-8.581438643387993004e-01,1.032082128638183605e+00,-8.092732851762041591e-04,2.610897970435665030e-03,-3.871312984335250479e-03,1.893517851829528809e+00
-1.240921697487597397e+00,-4.942462187147058095e-01,1.652338166421792431e+00,3.092573996337636966e-01,2.612565239945811163e-02,2.083368365667645147e-02,2.656768798828125000e+00
-7.912201499570651331e-01,-5.712325520552641311e-01,1.018431605743257862e+00,-1.923088224908813815e-01,2.563306613216269694e-02,-2.896951302152419097e-02,1.743723034858703613e+00
-7.253704077901499403e-01,-8.043839346514954913e-01,1.003955662584413044e+00,1.646024512176963092e-02,2.267018754266621802e-03,-1.448503006740946633e-03,1.770391583442687988e+00
-7.355274139241464448e-01,-7.634372062849947849e-01,9.938746503825235390e-01,1.897951046465941663e-02,3.111571388689154689e-03,-3.244635165980330662e-03,1.743851780891418457e+00
-7.475397178086397032e-01,-9.171190855393259733e-01,1.053887650011204213e+00,1.044039816151590000e-01,-4.096204828352239397e-02,1.708972956587329756e-02,1.902102231979370117e+00
-1.014083701498843304e+00,-4.039994595196155225e-01,1.102827484147530956e+00,-9.335422644017682403e-03,-2.599877785040806757e-02,1.215929983498985761e-01,1.899648785591125488e+00
-4.788424666406564389e-01,-9.608616665359127618e-01,1.008420531648218210e+00,8.821982950331623205e-03,-1.712262163061935684e-03,-3.345930790391221654e-03,1.778049230575561523e+00
-8.705807893513642925e-01,-8.471999047007195971e-01,9.974439296099091301e-01,-9.214696496027890288e-03,-5.487274115717272020e-03,-5.399747258289612668e-03,1.856561183929443359e+00
-7.677386435828770228e-01,-8.070256335694524497e-01,1.029005082459168552e+00,1.280236439183264283e-02,3.136772117755980333e-04,-1.951756156634698591e-02,1.817155718803405762e+00
-1.012839400880066743e+00,-5.853618914585827504e-01,1.030740985452154090e+00,-1.627112842684022287e-01,-3.519209744967557313e-02,1.264832599357698640e-04,1.889050960540771484e+00
-8.083652070251745592e-01,-8.611715447630872156e-01,1.047571283573195178e+00,-8.747121336988518750e-03,1.960564356283123200e-02,-1.407251750345226912e-02,1.883419990539550781e+00
-1.131157181368889653e+00,-8.049354578616980671e-01,9.537421874341818206e-01,4.539020942078567100e-01,2.671708961854343256e-01,2.001423420475688941e-01,2.173816919326782227e+00
-8.565888303331280484e-01,-9.658383326985375827e-01,1.678507856214550120e+00,5.781202036501025265e-01,1.054621715287290366e-02,3.301477956721751011e-02,2.778827428817749023e+00
-1.010188741010263236e+00,-6.187878446184691406e-01,1.211822303733450568e+00,-1.973727215420322534e-01,-2.112106547562693504e-02,2.918985356851345678e-02,2.083648920059204102e+00
-7.942501889962945150e-01,-7.045727751614393464e-01,1.074147062763564087e-01,1.131182629190110450e-02,2.157279031720600593e-01,-1.466976365329127896e-01,9.719787240028381348e-01
-8.005018530995551274e-01,-7.901333304450421924e-01,5.153960474461389829e-01,-1.906943274281371059e-02,3.294889822914557308e-03,-2.081603717530068343e-01,1.359840631484985352e+00
-6.217122655010554055e-01,-1.120592126878881212e+00,1.668351602964989855e+00,5.187788757003755080e-01,-1.064278412978117844e-01,-7.456203840435027264e-02,2.737479448318481445e+00
-7.542213324303961297e-01,-7.375062375150402971e-01,5.439385396608997780e-01,-2.122024137727357863e-03,6.045491376400475084e-03,7.162125307315208092e-03,1.289990901947021484e+00
-7.812061082474085483e-01,-8.789816036488585782e-01,1.054085559683886952e+00,-2.904503220780595748e-03,-1.717076613769828730e-02,-1.603946637503796818e-02,1.886526942253112793e+00
-7.891736373089031087e-01,-8.018634360551557538e-01,6.648332396718109605e-01,2.693663439071707164e-03,-3.058338764012038732e-02,-2.696783558847502121e-02,1.462107300758361816e+00
-7.262629412270338314e-01,-7.371719584387328439e-01,2.567355123583769938e-01,7.109777819284507361e-02,4.797545872735133055e-02,1.716407431040852666e-02,1.000041007995605469e+00
-8.309400435116260919e-01,-8.335119205870208381e-01,1.053550828894847635e+00,8.133231265949979584e-04,-1.251318316645372644e-02,-7.223792345499222695e-03,1.885944724082946777e+00
-8.570358673167645103e-01,-8.741214376536073916e-01,1.031338366355821101e+00,9.316029194848975256e-04,-4.807456724539858547e-03,4.011334464178666938e-03,1.897006392478942871e+00
-7.884670787291911953e-01,-7.694043684676603601e-01,4.059380654056544691e-01,2.077432142921037117e-01,7.390707310333423721e-03,-1.870855623176247984e-01,1.280170679092407227e+00
-6.263198627262951401e-01,-9.267472352878745046e-01,1.039972645578377541e+00,6.435033976542482714e-02,-1.703454718864819140e-02,7.786383295055213788e-03,1.838712215423583984e+00
-7.659202693125208850e-01,-9.329418065127589310e-01,1.066803002653961663e+00,1.003380438877797369e-02,-3.035050795377423546e-02,5.538893422248805827e-03,1.922506809234619141e+00
-4.912439869733951636e-01,-9.406021440154154201e-01,1.019315988646302129e+00,4.644338533537288594e-02,2.345913054301644596e-02,1.055724949745124631e-02,1.780717015266418457e+00
-5.769717737593225149e-01,-9.193704985189621315e-01,1.047418090959077119e+00,2.615330561427833822e-02,4.920128179852949896e-02,-2.863560148614489875e-03,1.822472810745239258e+00
-5.317932380382816016e-01,-9.420868749571629230e-01,1.014836428793911782e+00,3.965503662326769901e-02,-1.704092976296799067e-02,1.558224443526940416e-03,1.789014458656311035e+00
-5.029822917957267325e-01,-9.924122451693915270e-01,1.199180484053872675e+00,2.513016228314591816e-01,6.300859328434327278e-02,1.352503896896691815e-01,2.055780887603759766e+00
-8.555255021622348854e-01,-8.688001248876136007e-01,1.028877521048123356e+00,4.207905610336620285e-03,-5.212608155744938299e-03,2.458631077940127627e-03,1.891115665435791016e+00
-6.208364564185901990e-01,-8.634245236521395084e-01,1.001261159352605956e+00,9.695889851127133252e-02,5.829274406039543742e-04,1.947351741179817464e-02,1.764339208602905273e+00
-5.845991477974887829e-01,-8.367160141596670098e-01,9.936697064378454680e-01,6.929156297311127310e-02,-7.645131593432209945e-03,5.736095602831777635e-03,1.722521901130676270e+00
-8.538407857162338965e-01,-8.499498184775442500e-01,9.632543761405207849e-01,-7.508761578394669046e-03,-2.540772983335412571e-02,-1.818453503423818687e-02,1.816005945205688477e+00
-9.340509807672788822e-01,-8.794952026590422411e-01,8.376702660199688566e-01,1.550270069319736876e-02,1.128611772352238890e-01,8.747023907994258551e-02,1.762725710868835449e+00
-6.856394411611578255e-01,-9.129454217921367798e-01,1.056575342609454626e+00,-8.537954692646721605e-03,-1.355688733487152471e-02,-1.163280045752878786e-02,1.866593718528747559e+00
-6.207465447106337297e-01,-9.649082865448410651e-01,1.051863091688455709e+00,-3.967814816556151751e-03,-2.907380463699392459e-02,2.946017711186480360e-03,1.869312047958374023e+00
-9.777653366279208669e-01,-3.816037122750807753e-01,4.390245114910301671e-01,-4.788247269547128010e-02,1.014532250405369151e-01,9.025949329316421132e-02,1.257085204124450684e+00
-8.130281479512242448e-01,-8.249057732775836316e-01,1.045278422263290707e+00,-8.140026739102482201e-03,-4.463933547960951577e-03,-1.954901914538393487e-02,1.864650607109069824e+00
-9.085897245781570097e-01,-6.909678843036101137e-01,1.028365897359647896e+00,-1.061497201481915141e-02,1.361196985716920001e-02,-2.159605668852206464e-02,1.838457345962524414e+00
-8.214949285725521300e-01,-7.843769277610943558e-01,1.038206759290644543e+00,-8.572405594616996222e-03,1.584689070773995581e-02,-1.731661492527508325e-02,1.841931939125061035e+00
-8.435632605282636920e-01,-8.295179924224406198e-01,1.057617624009790314e+00,-5.232814387652537369e-03,1.253218034447036236e-02,-1.352072432277326604e-02,1.894488096237182617e+00
-7.724131960452212953e-01,-7.815437351177764169e-01,1.013351373160933155e+00,2.771132522884365516e-03,-2.621928211520848512e-03,1.934118225298897672e-03,1.790362596511840820e+00
-8.855298486346602216e-01,-8.415171631060429647e-01,1.039457350654511947e+00,-4.037588599782997514e-03,-8.916955767986371392e-03,2.287935204762101687e-02,1.903850555419921875e+00
-7.667134308832310730e-01,-7.543285193817294010e-01,1.006681701146428631e+00,-1.949616519832745101e-02,1.393027403903367677e-02,-1.004522410978760105e-02,1.767808079719543457e+00
-8.526081247968473331e-01,-8.632341522765814013e-01,1.008239691376501712e+00,6.915669098102743099e-03,-3.725968752855293806e-03,-2.409865118128924275e-02,1.866699814796447754e+00
-7.307903068311546457e-01,-8.583782851832905125e-01,1.045809794160795114e+00,1.636994010095428609e-02,-1.551324057892348833e-02,1.695907733119737110e-02,1.844355702400207520e+00
-6.739850622175319605e-01,-7.940633936141152649e-01,9.897191295661973420e-01,3.557544500543862592e-02,-2.803405481288899926e-03,-3.498385031915229263e-03,1.727993726730346680e+00
-8.284265751807287081e-01,-7.623153677180867227e-01,1.046004088660275944e+00,5.318875180848504913e-02,-1.447092155802563382e-02,-3.232124214863351351e-03,1.844745755195617676e+00
-8.568267338973269975e-01,-8.550501041779934308e-01,1.018281259238114522e+00,4.240264113381596962e-04,-1.820894997124103973e-03,4.393465939714594377e-03,1.874238610267639160e+00
-8.106452086124469325e-01,-7.894066575944086450e-01,1.039040908503104488e+00,5.458414081039197202e-02,-2.738294248032569801e-04,1.635965126881849937e-03,1.841589450836181641e+00
-8.220543211512819637e-01,-8.578612054096951267e-01,1.061502311705941892e+00,3.281007803008401374e-03,8.131024701512071240e-03,-1.628277171082549019e-02,1.901982665061950684e+00
-8.174508764257339966e-01,-7.533293319355697237e-01,1.039766783972719155e+00,3.870967169269358410e-02,-1.141194441697180456e-02,-6.066252031951586618e-03,1.827369093894958496e+00
-9.150992145010409251e-01,-8.099009792088024406e-01,8.309525873748935254e-01,7.195348200861977073e-02,-5.786655341455679280e-02,9.629648943850441234e-02,1.711571931838989258e+00
-7.385153958392364215e-01,-6.877425415157671917e-01,9.881251482972397415e-01,1.977534070697215263e-01,4.024223673657633532e-03,2.644057880627570176e-02,1.736566781997680664e+00
-8.484380592168339064e-01,-8.556394647125065145e-01,1.059837666795776068e+00,1.091562770045826795e-04,1.031459942597902010e-02,-4.174326734531078227e-03,1.911983728408813477e+00
-8.649372018147581942e-01,-8.668144980811821609e-01,1.075804749596408039e+00,8.147816948044857462e-04,2.465682336954991109e-03,-2.280853156631695682e-03,1.941690564155578613e+00
-9.668691097147077418e-01,-3.779157912345311177e-01,1.649808381676587166e+00,3.145935904464003396e-01,1.012016449087724534e-01,-2.833901522385429694e-01,2.494259119033813477e+00
-7.719687572893185745e-01,-7.399970374927667960e-01,9.999256792338553357e-01,1.374417270995298770e-02,2.739162343522066109e-03,-2.560415991554645162e-03,1.756300210952758789e+00
-8.626720253521140691e-01,-8.638184804351942692e-01,1.075860579140153872e+00,-2.997677235776092792e-04,-1.391914342472434047e-03,1.063046985649021951e-07,1.939107656478881836e+00
-8.616822192960487126e-01,-8.660581729560181685e-01,1.070035044536364000e+00,9.261846535766881392e-04,8.808217463283112740e-04,-2.144619546778205564e-03,1.933913826942443848e+00
-1.008335885839400481e+00,-6.321587317350830793e-01,1.637576782770572281e+00,5.128602181297803320e-01,-1.059729237548052150e-01,-6.542825580246990069e-02,2.642468690872192383e+00
-4.258359537412084173e-01,-1.059546385329986462e+00,1.045766300654626280e+00,-6.618896210749236619e-02,1.307373587921690714e-02,-2.230233706146791603e-02,1.874811887741088867e+00
-5.855986331285483182e-01,-9.200492219717673059e-01,1.031494433915608244e+00,2.386014463796539906e-02,2.548496153738970694e-03,-1.128572327097525189e-02,1.808257341384887695e+00
-6.625255957464871726e-01,-8.420013560869282765e-01,1.002349930744262929e+00,2.778357804878317516e-02,6.000568056606007603e-03,-2.352948508051475127e-03,1.762176871299743652e+00
-6.655468535686517306e-01,-9.184227814296943571e-01,1.043374756327946296e+00,1.975003849609176243e-02,-2.614093140320356695e-02,2.292810308716796211e-02,1.849676132202148438e+00
-8.995600990880640024e-01,-6.631001731041856750e-01,7.831270928974582990e-01,1.544389893602543806e-01,-7.321090939534578845e-02,-7.450836941700546279e-02,1.610512256622314453e+00
-8.740382416414447242e-01,-8.532500423682956026e-01,1.017834817871559494e+00,-1.134657582435606759e-03,-3.739224039710564457e-03,-2.293322873026261942e-03,1.881581425666809082e+00
-8.548826469254137139e-01,-8.566306573480311215e-01,1.068826603184189761e+00,-2.136517447305531911e-04,4.869312420601408509e-03,-7.323224108231750525e-04,1.924602746963500977e+00
-8.659725522034247280e-01,-8.625072823217092566e-01,1.071234890410733609e+00,2.233318567222087637e-03,1.650179305867705828e-03,-1.954645271149205437e-04,1.935483098030090332e+00
-9.414714602216355255e-01,-6.298675049793122094e-01,1.038130131711094917e+00,3.455616823669868665e-02,-4.083486122635555243e-03,6.345279615548687219e-03,1.844673633575439453e+00
-9.253668878734760961e-01,-7.057484528031100490e-01,1.072580767322723228e+00,6.391886799125823942e-03,1.734949978447655750e-02,-3.104076234110772492e-02,1.898725152015686035e+00
-6.352460151549470524e-01,-1.443310402999904429e+00,1.069831598513793169e+00,8.005205681003881024e-02,-8.409579614671847114e-02,-6.957116154701553645e-02,2.234509229660034180e+00
-9.674504223912023804e-01,-5.283085119066806001e-01,1.049030275796990264e+00,2.910799473637900106e-03,-8.513479320786795576e-03,5.528094980524386054e-02,1.839274168014526367e+00
-1.090994576362056989e+00,-4.575767351358752122e-01,1.051586990685555723e+00,2.756530931187650343e-02,3.338075188315032388e-02,-3.062993846735915376e-02,1.908706784248352051e+00
-1.092473906500492475e+00,-6.121467255045303091e-01,1.212043892314404125e+00,-8.099930238863489729e-02,3.055784910105246305e-02,4.915925356929692902e-02,2.112895727157592773e+00
-9.542625365913057767e-01,-4.667261515013058082e-01,1.025125635146104663e+00,4.603926540820855312e-02,1.920529424639074237e-02,-4.475390021904773058e-02,1.790005445480346680e+00
-7.211376623582547163e-01,-7.931485796633326313e-01,1.006141079627746349e+00,-1.679551606507009853e-02,1.274674559918685093e-04,-1.031103618624114489e-02,1.764716863632202148e+00
-8.012572062831931907e-01,-8.080410592607000231e-01,1.037314062613050369e+00,3.925195766375480684e-03,-1.257983262023102539e-02,-1.266711354227620899e-02,1.842244625091552734e+00
-8.637157957807370945e-01,-8.515085004832395610e-01,1.000234121826157230e+00,4.557098658145953413e-03,1.405856223713341201e-02,-6.153360110631981954e-03,1.858083248138427734e+00
-7.378320348139396634e-01,-8.260794725403735050e-01,1.028975262774771693e+00,1.491624563167900062e-02,1.220180338780151030e-02,-1.647592585331125389e-02,1.813074827194213867e+00
-8.081942633500154294e-01,-7.823893445197350749e-01,7.284097575715149375e-01,-3.774702635336995692e-03,9.898996704568008287e-03,6.635368138232896479e-03,1.524019241333007812e+00
-7.946678167070513332e-01,-7.236916331289358073e-01,1.010281893974866563e+00,-1.735751116733854835e-02,-1.134520233216638509e-02,9.292084978613496379e-04,1.770893931388854980e+00
-7.520075151400112956e-01,-7.541257190787626907e-01,1.002978961210647446e+00,4.316311886199876435e-02,-2.165882338134686100e-03,5.465683774575223666e-04,1.757641434669494629e+00
-8.474471189570651486e-01,-8.276645025658301291e-01,1.068560662125297211e+00,1.982719757799797713e-02,-2.236877740371676776e-02,-1.304865391394116093e-02,1.907030344009399414e+00
-6.880739924288197251e-01,-7.871372288609976842e-01,9.927052857209555103e-01,4.093732380952011529e-02,-1.073223529284179738e-02,-6.311552449888439657e-03,1.734020948410034180e+00
-7.711647508876199320e-01,-7.514402189100773954e-01,1.000293741057939334e+00,-5.713315423431580657e-03,4.617886471314998180e-03,7.960077543009121473e-04,1.761725544929504395e+00
-8.003390502035367948e-01,-7.488104692392052453e-01,1.013973738142429859e+00,-1.130359068534171271e-02,1.103896079155870270e-02,1.779367793325197216e-03,1.789317011833190918e+00
-4.418044484564778163e-01,-1.098564869471501115e+00,1.075326374068587887e+00,-1.362221304933274035e-01,-1.302813638456312186e-02,5.501542057580986744e-03,1.945682644844055176e+00
-4.993674310032553132e-01,-9.907685230182412539e-01,1.024519635967895637e+00,3.221756013482145187e-02,1.308792083498896280e-02,-1.851335151397940498e-02,1.821318864822387695e+00
-9.305835046579296055e-01,-6.441695572072133613e-01,1.050687564820795172e+00,-5.599194431781389118e-04,-4.950430576612780548e-03,-3.441264426082540906e-02,1.855702400207519531e+00
-5.698434102579710281e-01,-9.533107985214511748e-01,1.058594231455190826e+00,-2.246899116707434200e-03,-1.952820656808276073e-02,3.750065871265521877e-03,1.850543260574340820e+00
-5.617369467269844874e-01,-9.197897816642781610e-01,1.061299335604097172e+00,-5.110446199280834628e-02,-1.004336505968274167e-02,3.436931406887732549e-03,1.830779671669006348e+00
-4.782509339540225168e-01,-9.535281200223012510e-01,1.040594882135526200e+00,-9.350223081253733470e-02,4.604837099774646524e-03,8.518789697840506436e-03,1.811398148536682129e+00
-7.683549294067447688e-01,-8.036586124130675746e-01,1.027853247986718399e+00,-1.341060297508737953e-02,-1.780676834069536011e-04,-2.195805189319412903e-02,1.814664959907531738e+00
-7.357795074133846036e-01,-7.578576875884710518e-01,9.911725993228610587e-01,-2.022901085363829066e-02,3.014852763797938248e-04,-1.356406478144874493e-03,1.738451123237609863e+00
-7.734268814565949945e-01,-7.975852335556317119e-01,6.955265906119251218e-01,2.840183235728272544e-04,4.149805750587474452e-03,-9.867073422548848852e-03,1.481296539306640625e+00
-8.312202102489150146e-01,-8.431934972065318057e-01,1.022841160396603666e+00,-2.934832690405582770e-02,-1.667131156010398865e-02,4.284961126938020316e-03,1.861010193824768066e+00
-3.696866129572355941e-01,-9.729742295665931850e-01,1.012569360734173252e+00,-4.307970696956792134e-02,-2.167313875209683424e-02,-1.066512491707877035e-02,1.765163898468017578e+00
-6.912290026002333443e-01,-8.735031302964275657e-01,1.032770480617501985e+00,-8.353228163591161493e-02,1.365592286053268940e-02,2.405670828173346598e-02,1.828350901603698730e+00
-8.430258756729265279e-01,-8.141199470235108704e-01,8.114536012029227585e-01,9.207891200439181911e-03,1.361059620506624435e-02,-3.158043308976681007e-02,1.641376137733459473e+00
-6.702098497913853148e-01,-8.436214117085469866e-01,1.008451576869795030e+00,2.384690905183425164e-02,-9.751900549280783162e-03,1.252684768746256672e-02,1.772438168525695801e+00
-8.678584791071904947e-01,-7.488131331672698288e-01,1.056330680274536915e+00,-9.251919637748887149e-02,-1.285560152000474882e-02,-1.605205927188967097e-02,1.874715447425842285e+00
-8.702768579833660700e-01,-7.345721035651238129e-01,1.045331268807245806e+00,-2.670527498804402960e-02,-1.567730453054119386e-02,3.937899756894677056e-02,1.853521585464477539e+00
-7.643926771561719846e-01,-8.947653672575289763e-01,1.052896124633093233e+00,-1.120604624757534293e-02,-2.813640009264578232e-02,-3.773046885646601581e-03,1.886598706245422363e+00
-8.776876814177714259e-01,-6.809548579706807825e-01,1.060446281170520200e+00,-5.625888933581691537e-02,-2.023169138611318613e-02,-7.096857021724655747e-03,1.850580096244812012e+00
-6.734001880911610893e-01,-8.499205422742275307e-01,1.031145791518122135e+00,2.389180136155174411e-02,-8.734806470194197286e-03,1.541232513505223171e-03,1.799853324890136719e+00
-6.732886115121070603e-01,-1.081544567940299295e+00,1.125379943680334005e+00,-8.023543439601246718e-02,-5.885903582845978393e-02,7.098309766566592884e-03,2.041091918945312500e+00
-8.729380047858562586e-01,-8.446683622866804075e-01,9.835711220323872794e-01,-5.682493648007149942e-03,-6.647528724902226557e-03,-3.162288120532306002e-03,1.842607378959655762e+00
-2.193011494807415307e-01,-1.004742914721990399e+00,1.119686307202556907e+00,2.697051678715625678e-01,-6.044710765788118001e-02,-3.988412835452682936e-02,1.922357678413391113e+00
-9.955849359917042785e-01,-5.004335968655646560e-01,1.304861480478585634e+00,2.540505796407523942e-01,4.950600301804866654e-02,1.385985351682952893e-01,2.157953977584838867e+00
-7.990184114461595932e-01,-8.794307514621609867e-01,1.040400522090870972e+00,7.088683887304350791e-03,-2.019527440711618368e-02,-1.022942582634326844e-02,1.881363391876220703e+00
-6.783846615656712320e-01,-9.082755024161223156e-01,1.031837178197261951e+00,-2.314983653777925865e-02,1.519328083473364330e-02,-5.029149147958239530e-03,1.836640715599060059e+00
-7.683034017072047916e-01,-9.292413417584769464e-01,1.112578495053556660e+00,-3.209389615733821560e-02,-2.443839714858594622e-02,1.150498510577396480e-02,1.967638611793518066e+00
-6.441653457580229780e-01,-9.838261314956104897e-01,1.071575413211423466e+00,-2.286007007317874401e-02,-2.505071190434302042e-02,3.154200585422626407e-02,1.910063028335571289e+00
-5.480796445522306826e-01,-9.173235428658066404e-01,1.010716651636231589e+00,2.237508997271770578e-02,-1.834688068931677671e-02,9.113787739399102639e-03,1.773280501365661621e+00
-5.676909180339857475e-01,-9.153150476862551566e-01,1.026603633186811804e+00,-2.291958093625605028e-02,4.096898205856013692e-02,-2.760540935192419294e-03,1.795401692390441895e+00
-8.594079809441320661e-01,-8.548696273328741935e-01,9.834737430833377925e-01,1.571572435257989273e-02,-1.015289246962199771e-02,1.081617916786038053e-02,1.840997338294982910e+00
-8.604686930347092977e-01,-8.628520031225879183e-01,1.066389015514879413e+00,1.814527114151865284e-03,1.014464795900918816e-03,-1.761129486408310281e-03,1.928056240081787109e+00
-8.686016564573948440e-01,-8.567590136228629971e-01,1.029907386244734546e+00,4.192583403140379313e-03,-3.010582638054076950e-03,4.736352789423961193e-03,1.892654418945312500e+00
-6.651613877282585019e-01,-8.469788263068247502e-01,1.005042226876909028e+00,-2.118966128142985711e-02,-4.297950798148503920e-03,-1.781173183761549208e-03,1.768536567687988281e+00
-8.574617544581309980e-01,-8.624216675792006903e-01,1.026494529211290585e+00,2.922174022648588339e-03,-2.539374766995102038e-03,6.821530146678974650e-03,1.886490106582641602e+00
-4.966662637092770782e-01,-9.708815888966115804e-01,1.021510404896843305e+00,7.727500168487166487e-04,-1.416759955053637984e-02,1.015645367306289033e-03,1.802856087684631348e+00
-6.817545848088637506e-01,-9.141996924259305768e-01,1.046144817396479576e+00,-1.657568670456973162e-02,2.268171939488697678e-02,2.225839944740669665e-02,1.856114983558654785e+00
-8.282011769272037416e-01,-8.501216567573813832e-01,1.078165319363574737e+00,-4.768440201699052083e-02,-1.346859516281435042e-02,-2.324993082237131192e-03,1.919344663619995117e+00
-8.587286102943452182e-01,-8.622127137509332240e-01,1.034218634663867764e+00,4.687451731033531049e-03,5.065006116393285136e-03,1.124154848822119315e-02,1.894829392433166504e+00
-8.620371585201362929e-01,-8.675884070145601923e-01,1.057842075496135292e+00,3.438779821733344878e-03,-1.691765847162996243e-03,-1.816926451104248748e-03,1.922674894332885742e+00
-8.501040521555974783e-01,-8.622492288562774165e-01,9.912335148863544720e-01,6.927909026439942573e-03,9.309803466058639773e-03,-1.528051140021251947e-02,1.847738981246948242e+00
-7.995292003950148496e-01,-7.139463528224804234e-01,1.004944862125297211e+00,-1.393447579853034600e-02,4.207932343008502843e-03,1.592432314420404388e-03,1.763423442840576172e+00
-8.636983598637357762e-01,-7.573572209684001910e-01,9.613465027478111935e-01,-1.494977529268537095e-02,2.499961427313919255e-03,-1.226574280747779778e-02,1.774587392807006836e+00
-7.572059895170129007e-01,-7.151781050766636838e-01,1.043372693255314676e+00,-2.033932373851910780e-01,-3.981919713603677274e-02,2.714136377556043006e-02,1.816383361816406250e+00
-8.115674354352251374e-01,-7.962058835120747746e-01,1.048828093528561212e+00,-1.262741010236779204e-01,-1.859314568696493822e-02,-2.507683856065474892e-02,1.866410493850708008e+00
-5.841542754370345758e-01,-9.140720701094647849e-01,1.031554010801180032e+00,-2.334973207679861065e-02,-1.252582569880466949e-03,-9.797756658427097046e-03,1.803978443145751953e+00
-6.274926014950071851e-01,-9.150276266184548257e-01,1.030860703229140585e+00,-2.329268584445504456e-02,3.917320776895385007e-03,1.438850266196533417e-02,1.819874048233032227e+00
-7.692120561001054568e-01,-7.512650395696346406e-01,9.963461250107814582e-01,-9.282978295516539080e-03,2.069055138430216274e-03,2.599140184045836081e-04,1.756730675697326660e+00
-8.056886053877874154e-01,-8.260899478221180869e-01,7.827138137374995974e-01,1.166478217879508145e-02,-2.555910735578430584e-02,3.666750575006196000e-02,1.600701570510864258e+00
-7.135286976573117501e-01,-8.790320935125854884e-01,8.738813234769533533e-01,-1.849563218287397434e-02,-3.354450557629539906e-03,-1.802679279221576850e-02,1.676907420158386230e+00
-6.959671748064936159e-01,-8.700889051980245092e-01,1.034685323592525519e+00,-2.283729320746430078e-02,-1.542270056015684031e-02,-1.091173993526381621e-02,1.824679732322692871e+00
-8.334287127773090109e-01,-8.120042246501603111e-01,7.693290434388138088e-01,2.268659178755557879e-02,-8.946586091802369300e-02,9.774487595320079797e-03,1.600248813629150391e+00
-8.225824412786234552e-01,-8.658942139733566412e-01,1.035184406137569235e+00,3.750576639024808803e-04,1.648168717171264244e-02,-6.318843632389613968e-03,1.880045771598815918e+00
-8.002081412753858647e-01,-7.221916061291664413e-01,1.000425727473003734e+00,-1.603134810282970044e-02,4.152335168385766972e-04,-2.280381679209731154e-03,1.763144016265869141e+00
-1.325282337343560268e+00,-3.412885874167875810e-01,1.309384599592450904e+00,1.370824967210550749e-01,9.567603030015765786e-02,1.714289027133519550e-01,2.342907905578613281e+00
-8.090307169855451841e-01,-8.272832214824520358e-01,7.890826912322355113e-01,1.344456945030914931e-02,-3.245767961632253090e-02,4.701297422268512632e-02,1.610528707504272461e+00
-6.779503838524805204e-01,-8.892080908852295629e-01,1.272199841665199394e+00,2.676494243380292959e-01,-4.522787753534160404e-02,-1.681828948089077180e-02,2.116977453231811523e+00
-7.980053720458165634e-01,-7.236178906492597429e-01,1.012514990266180970e+00,1.167952520017943342e-02,-5.250394118877735154e-03,4.423134661475089553e-03,1.774651527404785156e+00
-1.408934807941174538e+00,-6.555510906693905460e-01,1.272524513941576396e+00,1.479178809467305289e-01,2.206186318390054510e-02,1.730106772019238681e-01,2.427867412567138672e+00
-8.525406983042278508e-01,-7.574405453923632736e-01,5.564703474932887195e-01,-1.483087755726771734e-02,4.925557006685212652e-02,1.011982364590183342e-01,1.378049492835998535e+00
-7.987767533844033485e-01,-8.187081147232277978e-01,7.393399996809371100e-01,1.581178395401604264e-02,-2.271857139359111447e-02,5.439811563149699047e-02,1.551783800125122070e+00
-9.292432222499825700e-01,-8.534454697201343532e-01,1.040771550814753255e+00,1.314107518892492811e-02,1.217963256498335624e-02,1.325062372537055486e-02,1.933615922927856445e+00
-7.643759075878795439e-01,-7.842525817215476591e-01,6.422077618005254118e-01,-6.185571802739306402e-03,4.319560167076651885e-02,-5.743156811255755410e-03,1.418676257133483887e+00
-7.261728632404200745e-01,-7.943225008033647505e-01,1.008000045022806157e+00,1.884432180069375504e-02,-2.014189646661747760e-05,-1.270608768780467392e-02,1.769670248031616211e+00
-8.223834828860255852e-01,-8.631761327170973663e-01,1.064693818713899898e+00,1.904460640380755548e-03,7.656498877093475403e-03,-1.416274704179658860e-02,1.908007383346557617e+00
-7.671624373092358340e-01,-8.234041569282286588e-01,1.027583007140857818e+00,8.681868578740058184e-03,2.698229914792778759e-03,-4.754689888491674642e-03,1.823603510856628418e+00
-7.906606678022680690e-01,-7.851767764553193585e-01,6.754783078193109525e-01,1.291611607964933232e-02,-4.092913383924039195e-02,-1.110452936258546873e-03,1.465292811393737793e+00
-7.729079099225069083e-01,-7.673208586233970507e-01,5.685662044815652516e-01,1.189681105600684519e-02,-4.135252779170841414e-02,4.597306927810245608e-02,1.343124866485595703e+00
-8.502704948817008113e-01,-8.168996115714244333e-01,1.057268094752297438e+00,-1.419086273454838766e-02,-9.360789186673258017e-03,-4.778645984498921390e-03,1.891321301460266113e+00
-8.371820990921843286e-01,-6.967666542359026716e-01,5.582498365262876794e-01,-6.303780277186642189e-02,-8.969071975364228955e-02,1.554443302833247720e-01,1.370966792106628418e+00
-7.830829020312611854e-01,-8.241617131180000166e-01,1.035265269554533241e+00,5.077574851260786316e-03,-1.513950796235188044e-02,-1.371298379187697696e-02,1.839592933654785156e+00
-7.341283778486031864e-01,-8.459788913549958211e-01,1.037505406950856024e+00,1.751651415406449072e-02,9.708050432489713499e-03,-1.985816103733043306e-02,1.830776095390319824e+00
-5.717936921947726070e-01,-9.661829114363916782e-01,1.033131484934133315e+00,7.015693701038152805e-03,2.820158310666651472e-02,5.068621009233037662e-03,1.834912419319152832e+00
-8.324584813622698531e-01,-8.968314241571109235e-01,5.858323657475471569e-01,-2.004693779877078641e-02,2.488435324525975750e-03,-9.453097096468096594e-02,1.461172461509704590e+00
-8.635225406206762377e-01,-8.533100025860389515e-01,1.002721591077768926e+00,1.228427397437252371e-02,-6.349680905232974425e-03,4.810308869338385251e-03,1.861331582069396973e+00
-7.423980120859232645e-01,-8.713239752765505886e-01,1.039493698941247102e+00,-1.102315321729597196e-02,1.748090307281449998e-02,-1.428499535616279022e-02,1.850239276885986328e+00
-8.562814535992575582e-01,-8.572854432474548148e-01,9.812289563462097686e-01,-1.474520208279447679e-02,-1.337555660348326014e-02,-1.247607772586098625e-02,1.838463068008422852e+00
-1.092059677106032023e+00,-2.883884928317962393e-01,1.199676049990291649e+00,3.710953782530516248e-02,-7.609128786684786483e-02,2.206159594590958728e-01,2.055152893066406250e+00
-8.725048358889690991e-01,-8.462958352511996685e-01,9.812179901947601923e-01,-1.051899261730002925e-03,-7.662455320828060606e-03,9.474551758585581180e-04,1.840807795524597168e+00
-1.041907010062915084e+00,-3.903938449825595791e-01,1.047356513683180834e+00,1.219722435796145449e-01,7.379846560834109857e-03,9.622578961554573498e-03,1.863701105117797852e+00
-4.557386506072949595e-01,-9.632584445978843446e-01,1.116144252194862130e+00,-1.564794408429434902e-01,8.112303387775840480e-03,2.975199453176674558e-04,1.897316217422485352e+00
-4.668243829418650681e-01,-1.023544225287416065e+00,5.653860668946723012e-01,1.259695739202713882e-01,-1.355960446771902472e-01,1.217998785665861949e-01,1.448211669921875000e+00
-9.653779155096131603e-01,-4.616585715244601040e-01,1.044817887889236241e+00,1.003225339106736114e-01,-1.452115069393743706e-02,-1.630885140852118831e-02,1.820348978042602539e+00
-5.119331827585450467e-01,-9.489282254160704699e-01,1.029213076917732783e+00,-1.016335981305416768e-02,1.055843766093819344e-02,-6.108770548345692115e-03,1.800090551376342773e+00
-9.771912159749328586e-01,-5.259127192688828334e-01,1.070952212365406275e+00,3.342690489841233098e-02,-6.550320412260418612e-03,-1.492190440171709681e-02,1.865049481391906738e+00
-5.714618400628213024e-01,-9.300839170564300096e-01,1.021618749345337696e+00,-2.139132981264673435e-03,2.803707943654706533e-02,-1.541774975653484835e-02,1.800253987312316895e+00
-7.482934296967389542e-01,-8.724113222788526523e-01,9.942018903752560810e-01,-3.576322303315428164e-02,-2.958503867203170212e-02,1.228627159517626036e-02,1.809664487838745117e+00
-8.032501587976721424e-01,-7.695708361224016247e-01,1.029465020535438091e+00,-1.502666556871668467e-02,-2.298734385247028916e-02,-1.181731413319532346e-03,1.816733717918395996e+00
-1.003930524255089551e+00,-4.667356691987217254e-01,1.060445305550892003e+00,2.054589703367579873e-02,6.788398394578942395e-04,-1.288007074330900850e-02,1.855537414550781250e+00
-7.210770134744293181e-01,-7.922258665809970291e-01,9.983601000317521290e-01,-1.669838451814501315e-02,1.659923307083255089e-03,9.808105427047573641e-03,1.756415486335754395e+00
-6.297340885163977831e-01,-9.132302475058675650e-01,1.044254611272936950e+00,-2.441680873280698688e-02,1.137520568108227673e-02,3.580589471516305508e-03,1.832864642143249512e+00
-8.654919603639629200e-01,-8.619990798043235536e-01,1.048603984078571250e+00,3.733184668916863808e-03,-2.738752076450173562e-03,5.715612825062465520e-03,1.912394285202026367e+00
-7.365601929218360544e-01,-7.406411602312892306e-01,9.920010676502939440e-01,-5.579517939880793836e-02,-4.668734757536287402e-04,7.274110023566967252e-03,1.733347535133361816e+00
-8.454280705339102253e-01,-9.017541187065152286e-01,1.028905541933670564e+00,-4.535776890014225210e-02,5.966410480976414021e-02,-7.221986581863142074e-02,1.911641001701354980e+00
-4.291970474532415536e-01,-9.990887150673588568e-01,1.037234729032223468e+00,-6.672926216557943484e-03,6.075583608688601978e-02,-2.323518876698174931e-02,1.823110818862915039e+00
-2.846704947851987355e-01,-1.062973258802884402e+00,1.054775808158917583e+00,-2.475023964189257963e-01,1.045788372057907256e-01,-1.070123627559913110e-01,1.921797037124633789e+00
-9.714640873450000047e-01,-4.212427043968156037e-01,8.431534940023124314e-01,2.808653969290542673e-01,1.989961748706142730e-02,1.169535602446420131e-01,1.695882558822631836e+00
-1.003523258142481556e+00,-6.559089856143214270e-01,1.089944238317136271e+00,-1.724958623102499089e-01,2.998173339536832488e-02,7.969143793618037319e-02,1.971480607986450195e+00
-1.081383415627188649e+00,-5.076743304795146017e-01,1.071495368373408530e+00,-8.962515474042271474e-03,-4.258316418690739208e-02,-3.312927640732641482e-02,1.933358907699584961e+00
-7.655980852669547199e-01,-7.749982120351806003e-01,1.008895027085671137e+00,-3.946717572123678054e-03,-8.983070189414441714e-03,8.283693794753113973e-03,1.779350757598876953e+00
-1.127343232796393702e+00,-5.722639199413043221e-02,1.075844840570303385e+00,-3.255132761354900817e-02,-1.693644037202542488e-02,2.811814965398437560e-03,1.909340739250183105e+00
-9.326963859645539534e-01,-4.695483967611206455e-01,1.002470486887682366e+00,-2.696439333042834896e-01,-6.515486987499949367e-02,-4.197311349038265055e-02,1.816384434700012207e+00
-7.965315836066153565e-01,-8.072854745941026033e-01,1.034854559329505541e+00,-1.967450076630665283e-03,-1.010202076254980257e-02,1.142536323504898636e-02,1.836979746818542480e+00
-1.387894129125406550e+00,-3.554575134151687354e-01,1.105547879384647381e+00,-2.564141021775224183e-01,-3.034694192665642401e-02,-3.468122358650790882e-02,2.216409921646118164e+00
-8.498019674718457761e-01,-6.513945640619600574e-01,1.015536684286448832e+00,2.464323344642343344e-02,-7.770569976729807017e-03,4.578546289779962357e-03,1.775055646896362305e+00
-1.119237536762311080e+00,-6.970820601682070627e-01,1.193466547056055704e+00,-1.788483971663978184e-02,-4.443307059574197471e-02,-4.978190536228968566e-02,2.136542081832885742e+00
-9.601950594243786608e-01,-5.675548221237410873e-01,1.032972552543181433e+00,3.825615874687585127e-02,1.618754730223833857e-02,7.128487930667208594e-02,1.834313750267028809e+00
-1.046727601557333465e+00,-2.191051486977380613e-01,9.069661520076925942e-01,-2.218403111070537184e-02,-3.255492031066117148e-02,-9.945296565186206861e-02,1.708591818809509277e+00
-9.635467879805325042e-01,-7.516624760631090973e-01,1.092249767023295792e+00,1.515039059167168009e-02,7.408884391025211743e-05,-1.149801409945002545e-02,1.958746671676635742e+00
-1.261091019934780455e+00,-7.754535736350265385e-01,9.745005581441861242e-01,3.097769511839875700e-01,3.375218203989986676e-02,1.944015808172518400e-01,2.133707046508789062e+00
-8.144392738254451203e-01,-8.343592480244294007e-01,1.049454756369943009e+00,-9.408165499364651643e-03,5.673089956065390351e-04,-4.786997624788347228e-03,1.874022841453552246e+00
-7.829126071828897970e-01,-7.878184840031933200e-01,1.018835592329071282e+00,-1.900992338181438368e-02,-1.000966559328703154e-02,5.611228685208244533e-03,1.804615974426269531e+00
-9.735175723570884676e-01,-6.989656148558683890e-01,1.068829156175316264e+00,5.866678615416353465e-03,-1.409464554730571750e-02,-3.408533782702900111e-02,1.920940756797790527e+00
-5.641581432698495879e-01,-6.958755649509773544e-01,4.224015716421608557e-01,-3.878669042995174232e-01,1.016530978159271986e-01,1.471418370383603506e-02,1.266320824623107910e+00
-6.509820684077898267e-01,-8.910320066660858407e-01,1.108411294802647662e+00,-4.003384514912273207e-01,1.777555805080231477e-01,7.337024249971831058e-02,2.041368246078491211e+00
-5.157497716812979860e-01,-8.486668348229802206e-01,9.951494260764115474e-01,-3.244543387383255206e-01,-3.966092531977839092e-02,4.751462899182142680e-02,1.795538306236267090e+00
-8.797132704625764132e-01,-7.697071992143821317e-01,1.021388338388759642e+00,4.010059515513415829e-02,1.178478470187676805e-02,-2.390758533281394944e-03,1.849976778030395508e+00
-7.779679470569570432e-01,-7.842480466633154901e-01,6.277710490898268381e-01,1.107560728233115792e-03,-8.020455916350250139e-03,-5.605570384012334428e-02,1.412300705909729004e+00
-7.293253089552289570e-01,-7.802966598477224514e-01,4.365273992837179762e-01,2.450415096621252203e-02,9.627028948633595262e-02,-3.512249988304429194e-02,1.206043839454650879e+00
-8.486678062680099721e-01,-8.659543400372028410e-01,1.054709560515958433e+00,4.477792102842746225e-04,1.088774464108878577e-02,-1.210567905884837349e-02,1.912287354469299316e+00
-8.394463098551150360e-01,-1.236847335912516721e+00,7.776235282587435904e-01,4.480352893001804948e-01,2.554475573600590299e-01,1.686439405787729107e-01,2.073344469070434570e+00
-5.212313805990984594e-01,-9.751793060186635387e-01,1.026856047206878841e+00,-1.775204026951653774e-02,-1.367409482173517592e-02,-9.665076899037967212e-03,1.818565607070922852e+00
-7.868779425589500498e-01,-7.936297573370363345e-01,1.023692540352656444e+00,1.214672632346243224e-02,-8.530856209000832122e-03,-5.040811952169891620e-03,1.814159035682678223e+00
-9.996316977433311601e-01,-4.847757048193531149e-01,1.065994807379342824e+00,-3.775476125770427238e-02,3.539743022019278124e-02,6.220383608752855925e-02,1.867627501487731934e+00
-2.516005241152972083e-01,-1.125756805325337728e+00,6.395844497043616794e-01,4.597694479228103814e-02,5.890771070899238071e-02,-1.160424928429916736e-01,1.547431588172912598e+00
-5.678669646082290523e-01,-9.370227300359568190e-01,3.256413231669892383e-01,2.482993946848960007e-02,7.642362586592592322e-02,1.758253408616881897e-01,1.173282504081726074e+00
-5.182071405155271870e-01,-1.262865555237553394e+00,6.136777026803890145e-01,-3.535527995701431836e-01,1.256978382186997589e-01,-2.010287721656629084e-02,1.761294364929199219e+00
-8.368230746940248377e-01,-8.162560333194154305e-01,8.066014568513284466e-01,8.152360554385463740e-03,1.007561211106996341e-02,-2.602954278300292218e-02,1.634014487266540527e+00
-8.669403370818823396e-01,-8.548585415038524316e-01,1.004269112080973692e+00,1.370291301155860710e-03,2.070430163262850995e-02,-2.057512104655948894e-03,1.865547537803649902e+00
-8.857823600858308888e-01,-9.484439419527882498e-01,7.469115365048726307e-01,1.018227275739412713e-01,-2.123541000585070226e-01,-1.154830837526916038e-01,1.725780487060546875e+00
-8.490178501576896020e-01,-8.346389814336555579e-01,8.886364795277010842e-01,-2.328656429770157785e-02,-5.122195343724686434e-02,-2.588019480637389347e-02,1.733831286430358887e+00
-7.831293439390859534e-01,-7.824280483096173189e-01,6.385220948152160458e-01,-6.921897364065322800e-03,-3.228660468221383056e-02,-6.358005061372219713e-02,1.426707625389099121e+00
-1.120434057860915544e+00,-5.700647069467239536e-01,1.080601685015874613e+00,-2.451466501526712236e-02,-1.926560313695805521e-02,1.235091892022149723e-01,1.996186852455139160e+00
-7.937141480071713273e-01,-7.168087200534338788e-01,1.001626325526701500e+00,-1.117630840745958282e-02,-3.194325935010238534e-03,9.071221069480274804e-04,1.758265733718872070e+00
-8.200842683682623147e-01,-8.354813114423325082e-01,8.302176318558069923e-01,-1.066051199551533955e-02,-7.612036033397238943e-03,-3.350860638223081278e-02,1.659224629402160645e+00
-7.970393360817189521e-01,-8.581667815902489505e-01,1.034281039323571516e+00,-7.007675313352031490e-03,-1.895875558909742090e-02,1.164573606570028404e-02,1.863074660301208496e+00
-6.831423356530658131e-01,-8.993216374662860169e-01,1.051851456254389916e+00,-1.667887837573707455e-02,2.273456011116241696e-02,5.945667811677587088e-03,1.853239893913269043e+00
-7.993294667663665143e-01,-8.026701559679194631e-01,7.393429686616783680e-01,-1.105149331229735021e-02,-3.883156793696223436e-02,8.706039082210743907e-03,1.542005777359008789e+00
-8.455032346207775884e-01,-8.428740792043883934e-01,8.910629930137514698e-01,4.622592811985006163e-03,-3.669208322173546366e-02,-2.400489172080652600e-02,1.736932754516601562e+00
-1.098522222527890557e+00,-4.810627875918213614e-01,1.289993206493792677e+00,2.139828169952603387e-01,7.620286727189184289e-03,-4.158665793805505460e-03,2.179229736328125000e+00
-9.970892321621183108e-01,-4.520463797585363430e-01,1.490489194706124731e+00,2.645084173450875653e-01,-4.828157250283703766e-02,-9.202825089360311406e-02,2.317666053771972656e+00
-1.053482809650159391e+00,-4.801307300619193086e-01,1.535853853145356718e+00,4.058649890104712998e-01,2.344297991309331197e-02,-5.671167699489017278e-02,2.460542917251586914e+00
-7.484985461625923708e-01,-8.545782237995994679e-01,1.040370267832791962e+00,-8.847419580237150458e-03,8.404592891999981483e-03,1.868792663528867637e-02,1.844603419303894043e+00
-7.500165061400698718e-01,-8.608163712564037562e-01,1.051814880599551305e+00,-8.855145182755005603e-03,8.350705352632185538e-03,1.559413378381062538e-02,1.860024094581604004e+00
-7.703270525945009606e-01,-8.595509882374936517e-01,1.042114513607435233e+00,-6.198213059190153806e-03,2.036549955366693393e-02,1.292771687601496598e-02,1.859160900115966797e+00
-1.142231567792437508e+00,-4.768101110201817261e-01,1.288098179411132360e+00,1.733713265062535036e-01,3.905111311755832953e-02,1.018128980198384770e-01,2.204073667526245117e+00
-8.644865655545505012e-01,-8.649200867560280503e-01,1.068870871494491892e+00,-7.930930269499025190e-04,-2.014457180086094571e-04,-2.668808969115835702e-03,1.933580279350280762e+00
-1.054801992523634269e+00,-4.374392049259922532e-01,1.149850550169237984e+00,1.477899349814828511e-01,-1.306047573032290523e-03,-6.192002854010943830e-03,1.986505746841430664e+00
-8.050878771610873175e-01,-7.961829624166207875e-01,1.029133869467252493e+00,2.614915733269235903e-02,-1.234423210747625198e-02,4.805280170462430944e-03,1.830489754676818848e+00
-1.487763259832477258e+00,-1.770200369405443563e-01,1.340050239745800953e+00,2.188663485665357233e-01,2.504201717092399138e-01,8.835171270615622963e-02,2.522557497024536133e+00
-6.611988791264313825e-01,-1.085417510244919281e+00,1.205947094643112116e+00,4.638680339010960163e-02,9.156311904076669742e-03,1.695499805468971000e-02,2.113254070281982422e+00
-3.551054107906792545e-01,-1.402043820639759630e+00,1.062234638678441367e+00,1.684598732642600405e-01,2.720405935784270812e-01,1.138695242333248037e-01,2.221453189849853516e+00
-9.807684960732874213e-01,-5.750930343036091408e-01,1.064342510705483580e+00,-4.715166655334534357e-02,-2.321425533158626153e-02,9.845666497466618039e-02,1.885409235954284668e+00
-7.819745038533064685e-01,-1.067565670357832897e+00,1.098742863533201719e+00,1.138398752114200135e-01,-1.080823409419497810e-01,3.205646635967091679e-02,2.057372808456420898e+00
-6.875959544426635262e-01,-8.696184325837513773e-01,9.940051129224536375e-01,5.895947840870104789e-02,-4.314583495875013580e-02,-4.002493902043631480e-02,1.785447478294372559e+00
-8.487225933344038076e-01,-8.452001396708184178e-01,1.053480400321038735e+00,6.365149900127352279e-04,6.607582534762240431e-03,-7.824090909466585933e-03,1.900527358055114746e+00
-8.101850455088508429e-01,-8.428840437350096915e-01,8.667954898832206379e-01,8.705443099661978532e-03,-2.079999580308715054e-03,-9.121667919758097778e-03,1.693711400032043457e+00
-8.186560498148937048e-01,-9.005341944710879565e-01,1.145598046359916911e+00,9.020746185689797192e-02,5.342214019846275308e-02,9.001426518889762973e-02,2.020670413970947266e+00
-4.428200240122077136e-01,-1.015649926755048060e+00,1.009018505481052541e+00,5.832713525776565128e-02,1.114245186113367730e-01,-1.260312522094598001e-03,1.820736885070800781e+00
-7.800542748809781157e-01,-8.972798691811717520e-01,1.057654594269573423e+00,4.424344035638436514e-04,1.678130455236805443e-02,-6.803619993150824066e-03,1.899296283721923828e+00
-8.286554823819264337e-01,-7.995771117179967247e-01,7.156409782340700243e-01,1.413609853206595351e-02,-1.931433617668331174e-02,8.689797576095311185e-03,1.530600070953369141e+00
-8.636916736280003670e-01,-8.532689208895435362e-01,1.010860884885002475e+00,-5.244847274004685658e-03,1.508729657213814766e-02,-3.678357147101013816e-03,1.869578599929809570e+00
-8.638932322933595698e-01,-8.669830483694643819e-01,1.059814703718791939e+00,5.647396920688387348e-03,3.033648422742866221e-03,5.514650716236725592e-03,1.925310373306274414e+00
-6.502046223000585989e-01,-1.040548068885825295e+00,9.653842106220704711e-01,1.749086435727046848e-02,-4.925250546466682609e-03,1.245016884004705032e-01,1.854891419410705566e+00
-8.598492911962766216e-01,-8.544850637060762422e-01,1.035397135801768398e+00,1.341100603649563730e-03,7.150720540238165134e-03,-9.485113354522199669e-03,1.892683267593383789e+00
-8.630500304035141346e-01,-8.572335294321843380e-01,1.056983099400028658e+00,-9.412891429079764611e-04,5.277945632521013897e-03,-1.029142635695942665e-02,1.917236804962158203e+00
-8.602745216544287477e-01,-8.706105298913298096e-01,1.040681477000794830e+00,3.341862728627760688e-03,-3.329931982617752740e-03,-2.609967162936543961e-03,1.906167864799499512e+00
-8.480958331085299839e-01,-8.631773760850639521e-01,1.044877307987632120e+00,1.116920326023565111e-03,1.430612966438914689e-02,4.332234080229910300e-03,1.900736093521118164e+00
-8.666824709286576889e-01,-8.566013963794011365e-01,1.020652654695370476e+00,4.048624187375038895e-03,1.580404009482382077e-02,-2.346840859669813885e-05,1.882526874542236328e+00
-7.712214568731843300e-01,-7.699626223182625129e-01,5.915685949776079422e-01,3.581172347556061709e-03,-2.058867024809038493e-02,6.593458338621228931e-02,1.367419123649597168e+00
-7.631498092346602480e-01,-9.063999010510486176e-01,1.020982685054874439e+00,-9.041261740215576770e-02,-1.502486477860949521e-02,2.518934984021262494e-02,1.867171764373779297e+00
-8.418179549724751354e-01,-8.936320031365052596e-01,7.593194398188263250e-01,-1.440750847929566855e-02,-1.055576445025089294e-01,1.006239248253158053e-01,1.647334933280944824e+00
-7.671555695982539280e-01,-8.895374240250454312e-01,1.051583120287155060e+00,-1.212481576754611363e-03,2.707055940223452098e-02,-3.573553711043837670e-03,1.883509874343872070e+00
-8.664446036193244050e-01,-8.533986708374110552e-01,1.001127574242017593e+00,7.275298118649495965e-04,1.929987763022438310e-02,1.643504981840542304e-03,1.861386299133300781e+00
-8.516225172154658907e-01,-7.877124005610669499e-01,5.623913277246512799e-01,-6.036008994474471867e-02,5.735185958004827139e-02,5.971742444505932779e-02,1.394505739212036133e+00
-8.471433579455776020e-01,-8.457012597976301116e-01,9.493644893856210132e-01,1.038799802180502031e-02,2.087314328990801104e-02,7.251018287304145452e-03,1.796285152435302734e+00
-8.670522664620565756e-01,-8.624578646596638976e-01,1.057865554500352578e+00,-2.603228035709089731e-03,-1.638461295284180698e-03,1.540618106224908102e-03,1.922634005546569824e+00
-7.948539336331508220e-01,-7.830718140727535026e-01,6.796680970316475445e-01,-7.251558060275930043e-03,-1.283040613036912428e-02,7.999405731773033892e-03,1.468953609466552734e+00
-8.600347684148413885e-01,-8.610020180214712493e-01,1.062333286390207521e+00,-1.067081110236888734e-03,2.805016318547435384e-05,3.622009282013084145e-03,1.922863006591796875e+00
-8.296874488627463684e-01,-8.562655008570554394e-01,1.065632444461664496e+00,-1.515380860693364869e-03,-9.479327464391722191e-03,4.622019805322228822e-03,1.908836960792541504e+00
-8.619306659344427857e-01,-8.627806765494084873e-01,1.072593290998307358e+00,-8.819832873910839416e-04,-8.971114071226766594e-05,2.678010396102440977e-03,1.934955239295959473e+00
-8.580308228243722635e-01,-8.541723011192366988e-01,1.068038560825845584e+00,1.709531656137399649e-03,-4.646570653514764913e-03,-5.149264790352847156e-03,1.924182772636413574e+00
-8.462463987050693470e-01,-8.219814326604374388e-01,1.050544509982710650e+00,-3.317329825410802145e-03,-1.353864636767786525e-02,1.406778842776786401e-02,1.885087728500366211e+00
-7.788825429114558663e-01,-9.102038883378312795e-01,1.097066809837770496e+00,-3.972246474450742693e-02,-1.799151259822677831e-02,1.180442688765324065e-02,1.946511268615722656e+00
-8.525939923238388118e-01,-8.542606009366613407e-01,9.836045020979369280e-01,7.350371602873896279e-03,9.039722023260679876e-03,-6.356107186920227289e-03,1.837176203727722168e+00
-8.650044695702585607e-01,-8.632644304187578888e-01,1.072754848250505377e+00,1.303451620254463774e-07,-1.474960676020718340e-03,-5.183855254390092558e-04,1.936891794204711914e+00
-8.560685228650757317e-01,-8.528162427441936533e-01,1.062041596810786581e+00,-1.014113973525949822e-03,-3.741428232276302994e-03,-1.011514512186260407e-02,1.916577935218811035e+00
-8.587502949189489421e-01,-8.630254456836153887e-01,1.074432767488895379e+00,-2.272542593408511356e-03,2.071424716684279292e-03,1.863783242767927655e-04,1.935331583023071289e+00
-1.015135695073705158e+00,-4.482432922178057333e-01,1.034922349646550721e+00,-7.605458194420817997e-02,-1.148290119699899893e-02,1.791497827329315701e-02,1.838655471801757812e+00
-1.030692028911286418e+00,-4.107761897209180613e-01,1.076042302664808048e+00,-1.301865811647648641e-01,2.368280134795257980e-02,1.854512052396261809e-02,1.889493942260742188e+00
-1.011625404927454674e+00,-4.692926451182745096e-01,1.069477502259723156e+00,-9.838495992814279278e-02,3.217364490934700866e-02,-1.332047774654160528e-02,1.878600597381591797e+00
-1.051525723114027144e+00,-4.114658958614070272e-01,1.082369237591387590e+00,-9.769435647145673085e-02,8.721006297406887426e-04,1.017712369319183213e-01,1.912346959114074707e+00
-6.645463847533025215e-01,-8.772560686551527098e-01,1.104238328058892549e+00,-1.588703881461701606e-01,-1.156109371800652201e-02,1.490343586457052501e-03,1.904260873794555664e+00
-8.632402160432061100e-01,-8.591736007393919738e-01,1.060792732835083241e+00,-1.216226022713096100e-03,4.151241968587991889e-03,-2.405197074945121592e-04,1.922017574310302734e+00
-8.426764523429988163e-01,-8.335468176413323160e-01,1.055661276152986439e+00,1.025713316991419370e-03,2.386837380557412999e-03,-7.828672828744562620e-03,1.893843293190002441e+00
-8.455790427859973812e-01,-8.598441218142236497e-01,1.037822291626381288e+00,2.409433501269683526e-04,5.714026820774789801e-03,-7.114470787898193212e-03,1.890640377998352051e+00
-8.201747954381588546e-01,-8.628878198767391261e-01,1.049617554970661448e+00,2.480813801277309810e-03,1.127845640222259818e-02,-9.141004306435251622e-03,1.891682624816894531e+00
-8.504353651478753218e-01,-8.605040460546172776e-01,1.067961518242410923e+00,6.370261846074173071e-04,6.612803822188903329e-03,-5.643308319053446515e-03,1.923510193824768066e+00
-8.154973432383404441e-01,-8.329635927220988556e-01,1.045165120109807999e+00,7.591520619626017201e-03,-2.023458553633319251e-02,-1.521628278169909372e-02,1.870017290115356445e+00
-8.614813859124750284e-01,-8.656891454002604291e-01,1.046068228086884266e+00,-4.296136819164503469e-03,1.337593725904306051e-03,5.433973592203298481e-03,1.909696102142333984e+00
-8.502214824447085206e-01,-8.497555360529837065e-01,1.060153554901031470e+00,-9.423722233193539176e-04,4.847920241815403992e-03,-2.452420400294680943e-03,1.910166025161743164e+00
-8.579212310666914920e-01,-8.627552926894057617e-01,1.071038383521825565e+00,-4.227081046305664752e-03,-3.547624873500247918e-03,8.630906324466764421e-05,1.931404829025268555e+00
-8.586759311136435979e-01,-8.637930720236530746e-01,1.048613511039526713e+00,-3.391892261770309506e-03,-5.305370356771762531e-03,4.890010294140599220e-04,1.909884452819824219e+00
-8.482579414740871737e-01,-8.622259034680608281e-01,1.049422112517665040e+00,4.384831657687692993e-03,-1.147341896542397079e-02,-7.494613988691804438e-03,1.904865503311157227e+00
-8.715028433223596105e-01,-8.619143967033231490e-01,1.051561498378562165e+00,-3.911393621171666175e-03,-5.078649140205393920e-04,-4.551715287865856600e-03,1.918316483497619629e+00
-8.452052538099665835e-01,-8.981160506273074828e-01,1.070813716594364751e+00,1.069490620863739437e-02,3.747941403320574627e-02,-3.696592025240814927e-03,1.944197654724121094e+00
-8.703640067041326089e-01,-8.608230480285424813e-01,1.037770144564049479e+00,-1.069593418449769039e-02,-5.760317528693791045e-03,-7.547028682167502070e-03,1.903542757034301758e+00
-8.682081620911593633e-01,-8.611184772341876625e-01,1.040378345989716236e+00,-7.135638828169385203e-03,8.151013740925024814e-03,-3.557851054388028265e-03,1.905153870582580566e+00
-8.695079422974524297e-01,-8.557881321934720509e-01,1.024397498185866118e+00,-2.988682097176334571e-03,8.441370589470984301e-03,-3.413738726694438060e-03,1.887155890464782715e+00
-8.478514025473947724e-01,-8.800658822955772509e-01,1.052151633197870417e+00,-3.259153986053256284e-03,1.358814245484793286e-02,2.119739578786633896e-03,1.916469693183898926e+00
-8.529310873075939270e-01,-8.603189293044601893e-01,1.036773274769592357e+00,-2.186391017586317316e-04,-5.421337114100403635e-03,-8.881675128188510487e-03,1.893494963645935059e+00
-8.670561914476641041e-01,-8.621885737111054659e-01,1.032453928060768078e+00,-2.098766984794009968e-03,7.853104252606471838e-03,5.522388309642738136e-03,1.897157311439514160e+00
-8.467474857908432462e-01,-8.286657842119284911e-01,8.836341895914749944e-01,-5.912587407616426254e-03,3.577363511082430614e-02,2.185753891091994638e-02,1.722973227500915527e+00
-8.561177845062664105e-01,-8.632823070869110049e-01,1.037607783063987821e+00,3.215830682119372522e-03,-8.346265828455838934e-03,-5.481694662732938469e-03,1.897405028343200684e+00
-8.630868929960616720e-01,-8.528720216500290663e-01,1.055673088180790753e+00,-3.103820655682658532e-03,-1.130258521820576290e-02,1.379533212373309364e-02,1.913929820060729980e+00
-8.680980871288003220e-01,-8.644054131646975447e-01,1.028759291185451730e+00,-1.589257653711461543e-04,8.236935667394421762e-03,3.731628827192997547e-03,1.895078539848327637e+00
-8.937393274617682071e-01,-8.451781408089132919e-01,1.069118776411530192e+00,-7.048059735247524287e-04,-3.282789283010984372e-03,-1.194148285514321818e-02,1.939152598381042480e+00
-8.470507231330753894e-01,-8.917198119936762257e-01,1.052284180148166826e+00,-5.408248934039628676e-03,1.801197763294168364e-02,7.389013691612356625e-03,1.922377347946166992e+00
-8.742585952517086811e-01,-7.953569775974459466e-01,1.026540698053370892e+00,-9.535907195739445202e-04,-3.705036247893088962e-03,2.104954124043958985e-02,1.862970829010009766e+00
-8.688972330470056127e-01,-8.646981490612739574e-01,1.034440020106390579e+00,1.205778763380085722e-03,8.067021225026439063e-03,1.153974350276126782e-03,1.901294708251953125e+00
-8.447567947204593919e-01,-8.883427963701108210e-01,1.052675537202961475e+00,-4.629185654706640535e-03,1.490467071396422288e-02,8.364554553206017193e-03,1.919841527938842773e+00
-8.438668382075718011e-01,-8.666268049317620292e-01,1.042138817781028681e+00,5.849338200933774760e-04,1.572819348719798130e-02,-2.540087144872814600e-03,1.897688984870910645e+00
-8.651839704570651879e-01,-8.629596103623310421e-01,9.428344742741676665e-01,4.657972322673378275e-03,5.408426834956404222e-02,-2.634617639802206215e-02,1.809927225112915039e+00
-8.349592689082085961e-01,-8.627299025437769053e-01,9.811338654174106555e-01,-1.973525884180487352e-03,2.058104613251598297e-02,-3.607431281833340221e-04,1.830486893653869629e+00
-8.688075199620131084e-01,-8.629060688677522295e-01,1.047090247336157409e+00,2.537858904709225979e-03,5.824222100751615810e-03,-2.449154777353303516e-03,1.912990212440490723e+00
-8.772082900862070431e-01,-8.011107042632860109e-01,1.032483869654880371e+00,-5.727536163092772012e-03,-1.143903884017300095e-02,1.506723007018628997e-02,1.873116135597229004e+00
-8.579937546838747320e-01,-8.064425412376238222e-01,1.021903457123713554e+00,-1.577799692310770732e-02,3.083207683496419320e-03,2.312105826113435708e-02,1.855300307273864746e+00
-8.558771154302665662e-01,-8.609095351313639233e-01,1.038054224681798088e+00,6.326383886771183053e-04,7.098340861656515961e-03,-6.599620581155869574e-03,1.896527171134948730e+00
-8.499865763428534615e-01,-8.773131032611366509e-01,1.060425031412790542e+00,-1.963324981371385430e-03,1.078881063969751135e-02,4.846625092879388447e-03,1.924332499504089355e+00
-8.689598923425736476e-01,-8.608958929629346724e-01,1.040667583566793120e+00,2.800565845131370787e-03,2.554010312356504598e-03,2.734201059899114654e-03,1.905625462532043457e+00
-8.677864165006253794e-01,-8.613251059039506163e-01,1.061637101879922662e+00,2.459714367890622477e-03,-2.480153874738988623e-04,-4.723242604579549510e-03,1.926223158836364746e+00
-8.214882616011335292e-01,-8.191819744431875217e-01,1.056228258597007308e+00,-1.777755645290300668e-02,-1.452116784784084243e-02,3.991050094194945573e-03,1.876998305320739746e+00
-8.534596317853297975e-01,-8.607872793451636362e-01,1.055731416702440972e+00,1.619454706161447882e-03,9.570539333458059211e-03,1.025136144601385656e-02,1.913021683692932129e+00
-8.624505983847242652e-01,-8.595372402838679093e-01,1.051794808944702231e+00,2.671105702850102778e-03,-3.779983699162158179e-04,1.823958291237026338e-03,1.912798762321472168e+00
-8.567492665934233198e-01,-8.555645828984419499e-01,1.061061581863762093e+00,-1.801848695141756757e-04,1.943841363917223368e-03,4.923936176013620630e-03,1.917240738868713379e+00
-8.656381321035493404e-01,-8.638543295797534993e-01,1.060927478839337690e+00,1.626820789269294845e-03,-8.083987767107680272e-03,-6.925081690173881185e-03,1.925764679908752441e+00
-8.644084742586558567e-01,-8.607166907624028696e-01,1.059362231925338627e+00,3.493480342449272261e-03,-2.392000463853781369e-03,7.060413834613238088e-04,1.921941876411437988e+00
-9.757147723485244395e-01,-5.730201999672466240e-01,1.037608110746688794e+00,-4.406302949757282678e-02,-2.602705142952139658e-02,3.189040951792707773e-02,1.848184466361999512e+00
-8.257351724505241908e-01,-8.465342295347266788e-01,1.082318804256842348e+00,-2.746899230509260159e-02,-1.842504733450800111e-02,1.943165716229556389e-02,1.919688344001770020e+00
-8.727677395180835074e-01,-7.111920120079707752e-01,1.044028959197964124e+00,-2.115927376072943705e-02,-5.918966489130423128e-03,-1.892086297763905661e-02,1.842018127441406250e+00
-8.637665100654305927e-01,-8.652385774867175083e-01,1.066029063247340369e+00,2.358714238547705930e-03,-3.307316800935477911e-03,4.181966060993325476e-03,1.930558443069458008e+00
-8.415575552975902429e-01,-8.468423089409153892e-01,1.061201308495175244e+00,-1.401208215386543323e-04,9.095797266345708593e-03,2.342940207319283222e-03,1.905476212501525879e+00
-8.071852634637535218e-01,-8.032337977154541120e-01,1.042866685003577265e+00,1.149736712829956160e-02,4.689524597670956599e-03,-7.542197449491599049e-05,1.848204493522644043e+00
-8.450219443157533927e-01,-7.978523288744180375e-01,1.043169816729603072e+00,-1.200831547619232199e-02,-2.293407351826425716e-02,-2.034228115950309848e-02,1.865926027297973633e+00
-5.316690433253901116e-01,-9.064338794983598513e-01,2.235703798516751606e-01,-2.039441429162122399e-01,-1.748362308979373517e-02,8.160598181139885887e-02,1.067496061325073242e+00
-5.648544145747180778e-01,-9.214320017017750830e-01,1.027025137598920779e+00,-2.683181094788525053e-02,8.405699115326620632e-04,6.982459685574288200e-03,1.797544121742248535e+00
-7.919968954298747255e-01,-8.699527265696345157e-01,1.028572646274038327e+00,-2.072453857633379734e-02,4.834603405874021709e-03,-1.281007160740288593e-02,1.861269831657409668e+00
-9.085350169970314305e-01,-4.331303977243948777e-01,1.526045055249786842e+00,-2.940537998822366772e-01,6.315068367590338794e-02,1.194630469116326858e-02,2.295119524002075195e+00
-8.441193471102056423e-01,-6.550612969821378861e-01,1.013744510043699920e+00,-1.691411037972113951e-02,-1.109833118076023438e-02,8.259666300408966509e-04,1.771266937255859375e+00
-5.133197576019681296e-01,-9.576237131414524484e-01,1.013529729397784740e+00,1.531909032829664036e-02,-1.931756132394659917e-02,8.051762716370572739e-03,1.791390180587768555e+00
-8.603682130462561028e-01,-8.356172152050770352e-01,1.062891691810267769e+00,-1.811849928326949091e-03,4.489634687304117425e-03,4.186816485289970857e-03,1.911036729812622070e+00
-8.067563223550404672e-01,-5.916641564387964403e-01,9.844466947379522104e-01,-1.815144890925098620e-01,2.272082751610200735e-02,-9.423888260035951162e-03,1.723385334014892578e+00
-1.380715422660948599e+00,-1.692075264260109457e-01,1.163957986705832948e+00,-6.432548596346490677e-02,2.247749322801715632e-01,3.259179049860458366e-01,2.311465740203857422e+00
-1.114725359487851897e+00,-2.736996284792418410e-01,1.578211883304516450e+00,-7.141769882878542912e-03,9.674982314132248018e-02,-3.296060287105306158e-02,2.392885208129882812e+00
-7.759146817611980440e-01,-7.766784425588920682e-01,5.855710522453115852e-01,-8.106033105460767191e-03,-2.840789320667629764e-02,-9.329153549060296979e-02,1.372374534606933594e+00
-7.483993000841786536e-01,-7.425619617960996788e-01,2.247618439947691726e-01,-9.560857751199084570e-03,1.551192130765103108e-02,-1.343667712301588046e-01,9.982762336730957031e-01
-8.499569482449500502e-01,-6.907233229878046998e-01,1.015555166038387247e+00,2.384294062120276975e-02,-2.709234419353113987e-02,1.302922156133760542e-02,1.792443990707397461e+00
-8.612266192706995449e-01,-8.563197356140103134e-01,1.064962197862193927e+00,-5.152772891493848486e-04,1.754688046418253914e-03,-4.058674229736401740e-03,1.923755526542663574e+00
-7.821289815247807198e-01,-8.059078468012129681e-01,7.217611477185150726e-01,-8.416396672232626802e-03,8.705536657680413432e-03,6.036803128432715292e-03,1.516100525856018066e+00
-7.812391145478970733e-01,-8.944859604320994917e-01,1.057529141973719167e+00,5.550803927015523793e-04,-1.787995338571542192e-02,-5.540945599841103249e-03,1.898204565048217773e+00
-6.854286246710622477e-01,-1.157619065030430328e+00,1.679871458253889838e+00,4.902916502195496240e-01,2.567434136452117783e-03,-8.375668350680964477e-03,2.766923904418945312e+00
-2.341910458594710365e-01,-1.089299391129056715e+00,1.042539720482746235e+00,2.055774243027952142e-01,1.995487752248151503e-01,-3.081023748856511271e-02,1.924081087112426758e+00
-1.036852860216366912e+00,-7.016713163466828940e-01,1.791567534585486010e+00,-5.192257725871518570e-01,-6.464623557798049314e-02,1.203107420804471334e-01,2.833552837371826172e+00
-9.138997946458112809e-01,-7.057388240645283695e-01,1.035703383899883256e+00,3.297725990689958503e-02,-3.824362605088817840e-02,-3.523496902675686548e-02,1.857370972633361816e+00
-7.333859161302028751e-01,-7.813026359209782612e-01,1.070977146776116884e+00,-1.743155217615780517e-01,2.382642224799944031e-02,-5.826315892738673230e-03,1.854034543037414551e+00
-9.483080821038506469e-01,-4.091905472044398140e-01,1.164267528733147872e+00,-2.173829198790868111e-01,7.245666659758920325e-02,-3.043770828276147217e-03,1.942225694656372070e+00
-5.598101490051849982e-01,-1.135514613394091432e+00,1.237838323484645064e+00,-1.242515366701223423e-01,-4.052353537358487773e-02,-6.594497496347494735e-03,2.156214714050292969e+00
-1.134947159724297716e+00,-3.442317572625078759e-01,1.675351028465684511e+00,-5.569116155436514004e-02,-5.533157288529551299e-02,-9.070557158215518390e-02,2.518736362457275391e+00
-4.814691531676401071e-01,-9.761349032759697453e-01,1.027350315603736686e+00,1.232836545895799225e-02,3.123777888702498635e-03,-4.172669550237130542e-03,1.807796716690063477e+00
-9.244270599797427268e-01,-9.754300128784382240e-01,1.335701785697040123e+00,4.854323009639233133e-01,1.062029057383083730e-01,1.086031588444123230e-01,2.449941158294677734e+00
-8.622136804374648245e-01,-7.330694330891170951e-01,1.047371272847136936e+00,2.218229925769932623e-02,-2.340755775623050081e-02,2.012516969371293263e-02,1.849571824073791504e+00
-8.505862729983139081e-01,-6.512091189388470314e-01,1.014542427602142416e+00,2.111976044034530320e-02,1.040411157665078676e-02,-1.020572692043394351e-03,1.774333238601684570e+00
-8.455285843378292920e-01,-8.399005651561862740e-01,1.059826547241158989e+00,3.678074838104007996e-03,-3.025486096513345467e-03,5.528306809498621972e-03,1.902589321136474609e+00
-8.946025473017811258e-01,-4.294129671224197753e-01,1.148726430458270498e+00,-3.332319746488389134e-01,-3.717950062022903207e-02,5.436549996058451240e-02,1.946073889732360840e+00
-9.664392602766571638e-01,-5.077812973293768239e-01,1.672133333610160255e+00,-3.181742611412413102e-01,-4.079910789586044945e-02,-3.692970316535794384e-02,2.504998922348022461e+00
-7.743919922498779806e-01,-8.054258162341839666e-01,7.126083894987915723e-01,9.938404225270310727e-03,-7.122735198316784699e-03,7.505436487206745312e-03,1.502963066101074219e+00
-8.426226049573305454e-01,-8.494721393378203977e-01,9.265310801582777867e-01,6.143731449794282047e-03,5.308003889293505528e-02,-6.176562884075158938e-02,1.778223872184753418e+00
-8.560213941458938436e-01,-8.732306417687895062e-01,1.022657822820418394e+00,-1.674670423582248768e-03,-2.682590752483092326e-04,-5.226087550385136692e-03,1.887366652488708496e+00
-7.261082061351727956e-01,-1.216007593484192295e+00,1.525687947822413904e+00,5.312122287270092391e-01,5.680463651327409547e-02,-3.912686799441209701e-03,2.696298599243164062e+00
-9.514219905402916400e-01,-5.173277126760507105e-01,1.014115460710879546e+00,3.708234261659191372e-02,5.184852990071933069e-04,-1.213317483222160938e-02,1.789724707603454590e+00
-8.414016343718647706e-01,-8.478498322993017755e-01,9.517735299176188768e-01,2.520059580531708050e-03,3.251689109070395739e-02,-9.798559672717147701e-03,1.797376036643981934e+00
-8.577644188497520750e-01,-8.735435859843241335e-01,1.029425690786500480e+00,2.605106195867680518e-04,-1.531440669905465317e-03,-4.216455584875807537e-03,1.895144939422607422e+00
-4.965757582530072600e-01,-9.557300609640676514e-01,1.016817590576064134e+00,1.734819131712705921e-03,-1.519825392642447197e-02,-6.553761494355004810e-03,1.787986040115356445e+00
-8.541014305853223965e-01,-8.774884998895328136e-01,1.020993196628794175e+00,4.069043596216081874e-04,-5.854112723807147539e-04,2.621392909925296735e-03,1.886902689933776855e+00
-7.727348184226782157e-01,-7.783723755501643637e-01,1.015013893067922002e+00,6.014133799723491922e-03,-1.469444820725523612e-02,1.175498775349556992e-03,1.790786504745483398e+00
-9.478288212382911526e-01,-5.690046007509672599e-01,1.056734342134615368e+00,-1.218421720627654442e-01,4.889215950324946915e-03,-3.266467231414173916e-02,1.857475042343139648e+00
-8.071813439473214391e-01,-8.086436721913597969e-01,5.064977335535985059e-01,8.445771149394796368e-03,-1.523096239028452455e-03,-2.307746846358743886e-01,1.373924255371093750e+00
-3.041253083871383600e-01,-1.062502494211704729e+00,1.153726978113910118e+00,2.890038619011919829e-01,2.245327088465258747e-01,1.015669392203294025e-01,2.058842658996582031e+00
-8.529331397055172070e-01,-8.723740739318956994e-01,1.018727722079785902e+00,3.432340560822528478e-03,-6.042863655364385687e-04,2.525931162188275320e-03,1.881471395492553711e+00
-8.550825175450315063e-01,-8.685868744921063644e-01,1.011030699127713817e+00,-1.489531754838182512e-03,-3.509150214968215047e-03,-1.392974960857720768e-02,1.873068928718566895e+00
-8.729473372726028746e-01,-8.476382895702399001e-01,1.040816912843795183e+00,8.856238209660797188e-04,1.587162747520125912e-03,-1.471000995554937879e-02,1.901409387588500977e+00
-8.549217762448572122e-01,-8.777243717054979966e-01,1.025479639488506400e+00,-1.298919334373781209e-03,3.969637692464077217e-03,4.193924130776407848e-03,1.891933560371398926e+00
-8.119271078317908952e-01,-6.277126080972139643e-01,1.381662543238952656e+00,-4.404506004911746819e-01,1.692775914424436701e-01,-2.406311641492744902e-02,2.260834217071533203e+00
-9.004576495821619009e-01,-6.206658602118104717e-01,1.173045099786248047e+00,3.477083941783360443e-01,4.685422760373906398e-02,9.235486053696349840e-02,2.047541379928588867e+00
-7.772802669043787915e-01,-8.300947744917851479e-01,1.050872612717391297e+00,-4.777233480973645113e-02,3.780304203542810687e-02,-3.399836310342089357e-02,1.859055399894714355e+00
-4.175899065998021631e-01,-8.731372302549982312e-01,1.092791970081171238e+00,3.130309172150984032e-01,-1.189233974025957485e-01,-6.360632572897556569e-02,1.877593636512756348e+00
-8.829781515221285515e-01,-7.834619165074983016e-01,1.238219496256158569e+00,-2.788462157967399602e-01,-2.610451007145533908e-02,1.087578192649999755e-02,2.129308462142944336e+00
-4.833836879347014892e-01,-8.679727313579483905e-01,1.073570796249977422e+00,-2.236770100754169044e-01,5.527330765632385012e-02,-1.122026180560701560e-02,1.824949622154235840e+00
-8.510980461969537281e-01,-8.632551737650134838e-01,9.970796504808638883e-01,-8.374203226708964304e-03,5.236901686433191941e-03,2.999275024666854528e-03,1.854372382164001465e+00
-5.577308345350012742e-01,-9.210059541462719546e-01,1.088295410048590206e+00,3.489515470356077120e-01,8.670330711490510656e-02,3.853605716868498815e-02,1.957457661628723145e+00
-8.628193941555257762e-01,-8.475435297488370656e-01,1.055339988347206548e+00,-5.129210453484053193e-04,5.475030675189438735e-03,-8.168640871314232152e-03,1.910643339157104492e+00
-8.621136126111061948e-01,-8.258593255076526196e-01,9.662532212976633339e-01,2.673246705676592897e-03,-4.383755140743780809e-03,-2.187709721444470665e-02,1.810930252075195312e+00
-1.025274329396161477e+00,-8.291365498588681993e-01,1.073979577189526635e+00,5.144117375934337960e-02,-1.019596968147851862e-02,-3.804406270752132280e-02,2.011513471603393555e+00
-1.031993189688935608e+00,-3.236207955590528762e-01,8.731443096130571124e-01,-1.904744709292953975e-01,-6.400238249997142193e-02,4.614903570259273891e-02,1.705670952796936035e+00
-9.231341356513693697e-01,-9.255091471885508181e-01,4.778190666992047086e-01,-4.221319572575930601e-01,-1.275040721133536559e-01,1.351640703301700830e-01,1.613743782043457031e+00
-6.930780185368716761e-01,-9.227621057582213737e-01,1.292026833612635928e+00,-2.773207818505413758e-01,2.602277932387239354e-02,1.847015526472512912e-04,2.163815021514892578e+00
-6.957314343086320463e-01,-6.231558500633322950e-01,5.961601836298523471e-01,-3.733183340455947796e-01,-3.317711646130561826e-02,1.968871210964180662e-02,1.415293693542480469e+00
-8.592965387296850333e-01,-8.540369979076563034e-01,9.803821609161580408e-01,2.526018923969519485e-03,1.394324793667990267e-02,-1.315049110756518445e-02,1.837359666824340820e+00
-8.487646270813782312e-01,-6.561945666231487895e-01,1.005022080457083744e+00,-2.541665311682889811e-02,1.397154133266515939e-03,4.961523352289813442e-03,1.765967845916748047e+00
-8.608474155833152341e-01,-8.570553446684758825e-01,1.057342038149015062e+00,2.079385466531669064e-05,9.216914452713699524e-03,-7.975137961752518101e-03,1.916412472724914551e+00
-8.660919571720536725e-01,-8.644101530265950739e-01,1.065517962013179609e+00,3.334068715443538108e-03,-5.068353548326789623e-03,-5.852302513134199392e-03,1.930824756622314453e+00
-1.096433447876778988e+00,-4.397840403338811877e-01,1.156853623866124448e+00,-1.785502745804866676e-01,-2.720237457060923139e-02,3.232879864383851609e-02,2.032207489013671875e+00
-4.435459781700558102e-01,-1.014849110870135629e+00,1.080103759987160572e+00,4.532856375553596245e-02,-1.048485963159845186e-01,-2.213667927141830735e-02,1.886524677276611328e+00
-7.918671960395572418e-01,-4.649399881164102966e-01,1.161877371973637052e+00,-4.335101758759745127e-01,1.109844070051744375e-01,-1.401319585950837332e-01,1.986183166503906250e+00
-9.899930429879300053e-01,-6.448383620976749775e-01,1.040359487761493895e+00,-1.542083992605900455e-01,4.399238351160451865e-02,2.032370250262862180e-02,1.902383565902709961e+00
-1.462098691186800803e+00,-2.748738428148265189e-01,1.596954011222214032e+00,5.362151952134371069e-02,-6.929925904276528631e-03,-3.966688085101219979e-02,2.673763751983642578e+00
-8.702014509119212482e-01,-8.515494412018497217e-01,1.064106642207877540e+00,6.938760421061109136e-03,-4.714126492897724278e-03,2.341078837422468084e-03,1.925108909606933594e+00
-7.056403691116406307e-01,-7.342499696477697846e-01,9.819453282471310995e-01,-7.084407054544361593e-02,3.775641648972169126e-03,-6.489945880778946741e-03,1.706537723541259766e+00
-1.075960789167881959e+00,-3.551417737133435448e-01,1.113820143166712295e+00,2.780648413499410901e-02,9.067516342537875959e-03,-7.758057659835190800e-02,1.938274264335632324e+00
-1.369809080869882623e+00,-3.353626837093570678e-01,1.598207291821444498e+00,1.179641422651006161e-01,4.218619320249068078e-02,-4.408181589455805599e-02,2.619515657424926758e+00
-8.548298554713383846e-01,-8.648561150848907975e-01,1.018077190383157138e+00,-5.367459257076532576e-03,-3.714296437581314676e-03,8.577588408901243300e-03,1.878033041954040527e+00
-1.505167979163758440e+00,-3.799567452402304313e-01,1.752014958870536265e+00,-2.091220868595308757e-01,1.963563101155596513e-02,8.354192738721030742e-02,2.891991138458251953e+00
-5.156192849155676328e-01,-9.824725046594220412e-01,1.033531812457137100e+00,8.555034538111742221e-03,-1.453577687401308785e-02,2.332740830605213762e-03,1.828091025352478027e+00
-8.490985565527516821e-01,-8.402026982504235963e-01,9.225147214345634783e-01,1.111287824695004513e-02,7.830536744150164152e-03,-7.210422918291038014e-03,1.767383098602294922e+00
-1.401595457112503329e+00,-2.294765088199208214e-01,1.358030557922761172e+00,-1.798931829884310718e-01,-8.991024027382248096e-02,-1.063437556867129069e-01,2.431059837341308594e+00
-8.298094149422942101e-01,-7.519857188791922997e-01,6.709602104952382406e-01,4.076722865028840903e-02,-2.624088976189621267e-02,1.763856852029711264e-01,1.497316956520080566e+00
-8.527078961452454475e-01,-7.313494295387245048e-01,1.039303961134423249e+00,-1.561383519894596686e-02,1.712062498440639763e-02,6.638429553841584084e-03,1.834820985794067383e+00
-1.423994233964518408e+00,-3.705604213595430352e-01,1.705259176280871536e+00,-2.056633361528825976e-01,-5.898364675307706667e-02,7.075475877201314878e-02,2.785289287567138672e+00
-8.959263514507406212e-01,-8.525597383380117966e-01,1.067286129630698577e+00,1.107708628716496876e-02,-2.513647245092531270e-03,1.047205010037774962e-02,1.942076802253723145e+00
-8.842779910520709441e-01,-7.670038781025456665e-01,9.977068019914476782e-01,3.535876679530446792e-02,-2.510930340390265733e-02,-1.381943467560992587e-02,1.827875018119812012e+00
-1.142374546202283625e+00,-2.075175838640274106e-01,1.128359040607175290e+00,-9.614341598601469641e-02,4.574928535708778360e-03,1.336273094023462116e-01,1.997182965278625488e+00
-8.581555372627899247e-01,-8.445104910981638957e-01,9.195600928110143624e-01,-1.901980923929794121e-02,5.616662118674198637e-03,-3.795170478534846958e-02,1.772485017776489258e+00
-7.927163848985832040e-01,-1.007130955775578318e+00,8.500998548567830770e-01,-5.800297916121417430e-01,-5.602392884649571442e-02,-1.264518717609108269e-03,2.028740167617797852e+00
-7.669711579571137916e-01,-8.200788741150664141e-01,1.026432213190189513e+00,3.005258175870509710e-02,2.526876192657572309e-02,1.953076711001279150e-02,1.822122097015380859e+00
-9.510535529746899641e-01,-5.424735364065188525e-01,1.029842318612526064e+00,-4.092029577087864800e-02,2.349714896114279278e-03,1.759470453183195268e-02,1.813146471977233887e+00
-8.394829699153106839e-01,-8.198223033934716186e-01,8.550913844118563922e-01,-7.025610189329965609e-03,7.733233372916864870e-03,5.580431192638201678e-03,1.684955000877380371e+00
-8.750019864700631089e-01,-8.557393713501461052e-01,1.026270619738546719e+00,-7.241305548210659557e-04,1.973886596971910923e-03,3.363174678926827976e-03,1.891727328300476074e+00
-3.768481474892501626e-01,-1.078054511615881950e+00,1.036294826720012718e+00,-2.938745693227330369e-01,5.160078444421446753e-02,-2.933745367613576141e-02,1.936291575431823730e+00
-8.623803616434123631e-01,-8.551207308370882831e-01,1.001111142140521215e+00,2.268110188384023923e-03,-1.164601991524459590e-02,4.678831296929883074e-03,1.860003471374511719e+00
-1.235022472842909336e+00,-1.007207311778264724e+00,6.098355961036738826e-01,-7.192157052091475988e-02,1.282527745753571091e-01,7.700966908933691568e-02,1.765720963478088379e+00
-7.751009057469633312e-01,-8.437244137971015023e-01,1.045442504666507677e+00,-7.906321860346036609e-03,1.025487951336936411e-02,-1.322291951362449848e-02,1.856083869934082031e+00
-1.094647297196522429e+00,-4.810273638692643683e-01,1.223350167428460367e+00,-1.629741645614365964e-01,-1.489989018001398359e-02,-2.149256387736585283e-02,2.099763154983520508e+00
-9.404282066635852866e-01,-2.524104672422113893e-01,1.095602843551383598e+00,-3.315499179634469051e-01,-6.129552333694983368e-02,9.049462221606706380e-02,1.893034815788269043e+00
-1.186168416217622923e+00,-4.365500933612762591e-01,1.283303007945158614e+00,-3.935090078711786510e-02,3.495137064811337096e-02,-3.137302278087897300e-02,2.195522546768188477e+00
-8.905240846196267324e-01,-7.524441324194321989e-01,1.263881846721242486e+00,-2.983429702183070797e-01,-6.362275839593646044e-03,3.598945878856889963e-02,2.152692079544067383e+00
-1.192012013118503244e+00,-1.092528616962257448e+00,5.764990170094663746e-01,-9.517645525314374910e-02,-4.704278520262549293e-03,-1.583403629426850812e-01,1.750442147254943848e+00
-7.868154838713297128e-01,-7.962749441078139645e-01,1.024906880297322909e+00,-1.500970975751312296e-02,8.263056786470525383e-03,-3.840007338551119746e-03,1.816725134849548340e+00
-8.491188660929700482e-01,-8.355213746343816972e-01,9.248524742229422557e-01,-1.270276927934288480e-02,5.944174954063327458e-03,5.256658839303460923e-03,1.767402172088623047e+00
-1.012375423551138187e+00,-4.276767430496877798e-01,1.229264801158820752e+00,-7.677298638608220926e-02,2.600225593821628867e-03,-2.625695797707881460e-02,2.018888473510742188e+00
-6.237245013361220058e-01,-1.015135633592913367e+00,1.212737439412047591e+00,1.593073324779950839e-01,8.232971278594179709e-02,3.509744967525367521e-02,2.084412097930908203e+00
-8.473630140343217931e-01,-8.551271852359838554e-01,9.622655772075998648e-01,1.436770278578707906e-02,6.057876291294296209e-03,-4.090978627972379281e-03,1.813738107681274414e+00
-8.953982348413429548e-01,-8.645925340605103981e-01,1.025398313386125970e+00,-4.925286768026115652e-04,-3.310836724853221530e-02,-1.854376590600359878e-02,1.906713843345642090e+00
-5.466448176465252828e-01,-9.315640174895740699e-01,1.028846610780921100e+00,9.530201881855525359e-02,5.790408585566413774e-02,-1.487188326248784680e-03,1.809443473815917969e+00
-1.146276241206857671e+00,-3.770687733544018094e-01,1.107992709202505033e+00,4.141527331498026654e-01,4.936391899168945940e-02,-1.502834830734902372e-01,2.128154516220092773e+00
-7.549767481870244268e-01,-7.355093668726626621e-01,9.884426894905420369e-01,-2.343003889113652247e-02,5.643435603094229536e-03,2.455326012916026184e-03,1.734275341033935547e+00
-7.629495730970571321e-01,-7.579166910695758208e-01,1.006803151381240324e+00,2.237502748229506719e-02,1.412669265477753747e-02,7.788636164106096590e-03,1.767887353897094727e+00
-5.804073545357499864e-01,-9.051230620140514604e-01,1.006208024903420650e+00,2.751278952618302701e-02,-1.333160317318225242e-02,6.003885578040267165e-03,1.772258400917053223e+00
-5.828513246963384908e-01,-9.154709477790774486e-01,1.023649630400898847e+00,2.543814907883818269e-02,-8.914020934301117305e-03,9.908500655774732033e-03,1.796749591827392578e+00
-9.209899772860095091e-01,-5.844137076978908052e-01,1.030335023896366442e+00,2.896324338098435133e-02,-6.819990438867410895e-03,-1.237809324833262850e-02,1.807567119598388672e+00
-7.240812768191742244e-01,-8.543512392045590209e-01,1.028913462671774415e+00,3.179817422283846146e-02,1.766663232453154209e-02,3.939734607099578366e-03,1.822728633880615234e+00
-5.943632701225312065e-01,-1.316322537147475380e+00,1.402606372499919374e+00,4.021431620635283477e-01,-2.434731785766701406e-01,-7.652040325059959736e-02,2.575151443481445312e+00
-6.764286289179780587e-01,-9.099822265248542763e-01,1.068720059914354925e+00,1.266942414554489693e-01,3.514906867760950182e-02,-1.414703573338530439e-02,1.886832833290100098e+00
-8.566381316734422713e-01,-8.517198877502698551e-01,1.030975845430030402e+00,-6.816797096188219589e-04,-6.477327225281436472e-03,8.007314022000007470e-03,1.885244488716125488e+00
-9.232157757123533592e-01,-9.353196475134041288e-01,1.114933794697442027e+00,9.136198573964764147e-02,-1.063668006867068555e-01,-1.277012490176621107e-02,2.058723211288452148e+00
-8.830415380792407953e-01,-7.797540600611322370e-01,5.485840654513086667e-01,-1.741067755430852210e-02,1.547235967648566413e-01,-2.742633535407926204e-02,1.409728765487670898e+00
-5.136508609549866877e-01,-8.763638096098643748e-01,1.002387081190655671e+00,1.736105602352316091e-01,7.090091814139003364e-03,7.564523723179841612e-03,1.752302050590515137e+00
-9.703658468876777965e-01,-6.175217411940173706e-01,1.047462986036359789e+00,1.695949491323509722e-02,2.355412032469044945e-02,-3.037633568774608661e-02,1.868006587028503418e+00
-1.494458484709932700e+00,-4.536526570378902612e-01,1.010226896013232123e+00,-6.759050862937121540e-02,7.352216164509432772e-02,-1.490182776395068166e-02,2.186417818069458008e+00
-8.420192168129124743e-01,-8.248473236131650399e-01,8.720036436740741248e-01,-9.405560481070412981e-03,8.525021125704811825e-03,-3.188521768770427589e-02,1.706537365913391113e+00
-8.396584955128484351e-01,-8.395224282810404004e-01,1.183910513352513405e+00,6.634205497174144872e-01,-3.208366334468075454e-03,-8.112736864136466108e-02,2.331247091293334961e+00
-7.955888704332351180e-01,-7.770435701368738624e-01,6.803719172071277521e-01,-7.233349496620928437e-03,-1.280195446118779189e-02,-3.003439937466880275e-03,1.467006444931030273e+00
-5.619070757524082804e-01,-1.378633032727910379e+00,1.274006633014193257e+00,-3.418878042344508650e-01,-1.851310436224701261e-01,3.658616034382569659e-02,2.448378324508666992e+00
-7.187897075969390537e-01,-8.789462364894401469e-01,1.080110359685161781e+00,7.170888103581106454e-02,1.146844621360498979e-02,3.053751884024652041e-03,1.888291835784912109e+00
-5.098579075341854727e-01,-1.252586150833881584e+00,1.701247899966959354e+00,4.591257036764547772e-01,4.723570728829470239e-02,4.230213035124565091e-02,2.779808759689331055e+00
-7.404742673193920321e-01,-6.340526231089367304e-01,9.776487295101874420e-01,1.433664568227440428e-01,-9.305375372907765926e-04,-2.663854363614489868e-03,1.685856580734252930e+00
-8.276830043906241441e-01,-8.439869344251618166e-01,8.950629559707439231e-01,1.119666398501186801e-02,-5.504793489882980548e-03,1.054770950831192960e-02,1.731186747550964355e+00
-9.904689919510443197e-01,-5.562026853067394416e-01,1.102932478856181620e+00,-2.458805542769188779e-01,-3.743872012499208785e-02,1.098108179480884912e-02,1.961571216583251953e+00
-8.238873406613269612e-01,-7.876824544426963559e-01,1.043903215064307277e+00,8.030695085977796951e-03,3.830281394687100327e-03,4.118553246446150437e-03,1.850031733512878418e+00
-7.332750908370816445e-01,-8.552364383610824294e-01,1.033530389394893056e+00,1.537885483533162935e-02,1.192006177961230616e-02,-9.303717017232551734e-03,1.831216454505920410e+00
-4.890242857428239165e-01,-9.912721738885408307e-01,1.034573005987025729e+00,-1.381976010762706302e-03,4.493521940900841068e-03,-1.584558556036944207e-04,1.827263355255126953e+00
-6.240516531502408037e-01,-9.542497119170411102e-01,1.049598550780822981e+00,-1.279082399972423893e-02,3.617275931085865009e-02,1.645035826687791733e-02,1.862256646156311035e+00
-7.681221171075264254e-01,-7.785109515527590673e-01,6.231924735746762201e-01,-2.826618057600061582e-04,7.843655775398729324e-02,-2.595363435811284814e-02,1.403850555419921875e+00
-7.315018845142806647e-01,-1.191589331366436744e+00,1.626514908613518218e+00,5.348912248973350936e-01,1.127855586054833659e-01,1.040254058997785308e-01,2.790299177169799805e+00
-5.043182477358572058e-01,-1.116066990288909100e+00,1.245390451260922626e+00,1.182134183507069225e-01,2.259086592170515134e-02,-1.178619928385631586e-02,2.133065938949584961e+00
-7.514846545686109103e-01,-8.761503544962099266e-01,1.091187194897747625e+00,4.794094462789428440e-02,-7.642159714109494559e-03,-1.891080550926641651e-02,1.910194277763366699e+00
-7.619854414779874130e-01,-7.750076331828323895e-01,5.847303419056273377e-01,-6.641165136907617277e-03,-5.763423294499261246e-02,-5.622135538566826185e-02,1.360488891601562500e+00
-1.242152694613178676e+00,-5.651975568271025985e-01,1.285989809056163669e+00,3.440461480740734102e-01,-1.084097868056965452e-01,-2.450370149754726168e-01,2.389314651489257812e+00
-7.736966711163604238e-01,-7.911350706707568348e-01,6.453032605580405479e-01,-1.039211540216851762e-02,-5.988324868983852661e-02,-3.268010504379752906e-02,1.432793021202087402e+00
-7.715211738136333874e-01,-7.785703481910275503e-01,5.777672966889852990e-01,7.246998822677247661e-03,5.492901263969297149e-02,4.272811037361017722e-02,1.358243942260742188e+00
-8.311334517059214555e-01,-7.519493455042636221e-01,5.027790825286306831e-01,-1.219078085088912003e-03,-2.314372303500542016e-02,-1.088008246185562071e-03,1.296758651733398438e+00
-7.396680209297450403e-01,-7.740445753152066510e-01,2.455267431578940229e-01,3.107460186329007862e-02,-1.541731356271417719e-01,-1.265133192717068089e-01,1.062016844749450684e+00
-7.947424256838815371e-01,-7.031009939058706637e-01,1.017439836880944304e+00,3.659239199347311816e-02,1.118015586988353304e-03,1.031142712388843094e-03,1.769281148910522461e+00
-3.807742343281519393e-01,-1.411792300014938828e+00,1.692527699784417639e+00,1.492282615366954945e-01,-7.469785752429431748e-03,-8.578329996345872982e-03,2.750706434249877930e+00
-6.201568498165519472e-01,-9.286975750170773924e-01,1.039241711812106894e+00,-1.376552910158206251e-03,-2.880116154975771725e-02,-1.717774762472438696e-02,1.834168076515197754e+00
-7.212191792527704592e-01,-7.506130040444523033e-01,3.459021941525850519e-01,-2.007071112117635517e-02,1.382718048746498229e-01,5.059988159925552648e-02,1.112306475639343262e+00
-1.173488120096663812e+00,-3.545665659592332486e-01,1.089385797995253702e+00,-4.044224883814766833e-04,4.027201050107458158e-02,-2.708668488097927540e-02,1.986248135566711426e+00
-5.813150369930403238e-01,-9.068961283379727289e-01,1.012505360485961514e+00,-2.489490868578272259e-02,-7.319674887543732057e-03,-2.320613691646245935e-03,1.779668688774108887e+00
-9.883980183638783057e-01,-5.796906994828294746e-01,1.081436076365155596e+00,-2.397587857212848950e-02,-5.121308362917591575e-03,2.387077186158589534e-02,1.899687170982360840e+00
-5.096359831124421813e-01,-9.714384522944119471e-01,1.021971450552980887e+00,-1.298327501290913281e-02,1.294976236508800504e-02,1.599656570479107698e-02,1.807805180549621582e+00
-6.519508470434434155e-01,-8.655037646910698212e-01,1.020203482197491240e+00,3.457286359077704069e-02,-1.636606966788372447e-02,-2.021687058801565837e-02,1.790087699890136719e+00
-6.646421511312587960e-01,-8.378714007882138715e-01,1.051474633330482522e+00,1.176374808905170655e-01,-3.657455462080609013e-03,-1.436082515914599914e-02,1.820582747459411621e+00
-8.445064918867267734e-01,-8.261077938346396143e-01,8.990512918907114237e-01,1.635678130915917475e-02,1.136436437587509847e-02,-6.323657390161293787e-03,1.734809279441833496e+00
-5.771284733350370288e-01,-9.211158850504626017e-01,1.048736347230881938e+00,2.525793008605719397e-02,-1.928983248249554680e-02,1.347170958149267184e-02,1.823352813720703125e+00
-5.242620919435714288e-01,-1.002404525469099417e+00,1.070809261415466063e+00,-7.604327183091827425e-03,-3.263343286332782978e-02,-7.288672828551604442e-03,1.881242036819458008e+00
-8.690711739181431472e-01,-7.595812158037080764e-01,3.110843569753675153e-01,-2.186997303626892278e-02,1.096987598517626256e-01,-2.854948533396539090e-01,1.248037695884704590e+00
-7.874496644873002493e-01,-8.861695785097967182e-01,1.027658207903032084e+00,7.652609940227528100e-04,-1.599055168937426816e-02,1.751633478685869208e-03,1.866635322570800781e+00
-7.675879069535417321e-01,-9.185040288238948136e-01,1.060559115827857779e+00,-8.011196487451003115e-03,2.766475591604493009e-02,1.434333572822749613e-02,1.908900141716003418e+00
-7.732091676399793778e-01,-7.599721160724012270e-01,1.009277090021402090e+00,7.302268066442667120e-03,6.188448687062526703e-03,4.441727825640239685e-03,1.775998830795288086e+00
-9.661979221441860943e-01,-5.098028407256947059e-01,1.047510783917188659e+00,-3.450368525882433943e-04,1.176693087361566775e-02,-9.712618368047491041e-03,1.828926205635070801e+00
-5.869712763485079865e-01,-1.304380079444532159e+00,1.273826687982931860e+00,3.805083980358323070e-01,1.937871460588050099e-01,2.738713055026494037e-02,2.421046733856201172e+00
-8.312501578703966887e-01,-8.056120205169240434e-01,8.281362429657421753e-01,8.948607406164574979e-03,-1.245507868407641841e-02,6.072763383592425521e-04,1.646931648254394531e+00
-1.000768287858615935e+00,-5.524264486489831594e-01,1.073606816253914964e+00,3.475341281445803315e-02,1.985977583533246778e-03,2.101585255053183433e-03,1.891470789909362793e+00
-6.758452955457046052e-01,-8.921840976482059427e-01,1.010551734368691612e+00,9.103151656974459507e-03,-3.583850046132358580e-02,-7.106657338211172341e-03,1.805498242378234863e+00
-1.110807673099394322e+00,-5.889892517013813888e-01,1.221552009501797098e+00,7.432297906190544730e-04,1.341050821981479985e-02,-1.126041873519808070e-03,2.120300292968750000e+00
-9.859730719248381847e-01,-3.727035632020938571e-01,9.919980360470452840e-01,5.021432452346023811e-02,7.570780075751412999e-03,1.756745847335602559e-02,1.756161212921142578e+00
-7.571790976805498063e-01,-7.725230878847724192e-01,1.003338692025487200e+00,3.321339364532866975e-03,-8.535848775600825495e-04,5.662029296830684878e-03,1.768276929855346680e+00
-1.092981611160617206e+00,-1.213599710414897448e+00,7.366591448181722956e-01,3.515504953784373554e-01,-1.331503132368836162e-01,-2.502289696239210978e-02,2.002161502838134766e+00
-2.338158661036516817e-01,-1.384538095189957074e+00,1.110383280056028044e+00,3.044915372822182449e-03,1.004019769088467379e-01,-6.860436734218926247e-02,2.173067331314086914e+00
-7.828970840021702848e-01,-7.682237974047372298e-01,6.264399346910571875e-01,-7.564362769675148090e-03,4.045639497155389952e-02,-8.856986324857926002e-03,1.403952836990356445e+00
-7.172607197968763337e-01,-8.278868060707008647e-01,3.859263082462712768e-01,-5.465904436973801489e-03,1.324485750806068118e-01,5.251619570902408413e-02,1.188399076461791992e+00
-8.231064257389725247e-01,-7.553497133105927519e-01,1.030597586219093031e+00,-7.659872084057375505e-03,-1.951796438939735687e-02,-6.771679635311174394e-03,1.821171402931213379e+00
-1.100611115078514279e+00,-2.671669191673893273e-01,1.267066848478531238e+00,2.128204368479963970e-01,2.265102400624491655e-03,-5.887195130297481066e-02,2.115062952041625977e+00
-8.604231618536505311e-01,-8.750499022947635375e-01,1.049801690447556890e+00,-4.025593911112480654e-03,-7.540983360720289810e-03,1.069686588912066409e-02,1.917726755142211914e+00
-8.561261127873356358e-01,-8.421844012359352982e-01,1.035530451802159968e+00,2.867237332400319853e-03,-5.863180047991829215e-03,-7.420401041951586382e-03,1.884802103042602539e+00
-8.322211498879203972e-01,-8.515263498602404502e-01,9.091474881217453952e-01,4.183845485936093719e-03,4.447871585833007915e-03,4.245023870829403578e-02,1.752675890922546387e+00
-7.565715905525676188e-01,-7.599223446661816928e-01,9.971283241102333328e-01,3.567056916195008188e-03,-7.980229317678781426e-04,-3.049975287135787711e-04,1.755389213562011719e+00
-1.393174911242811120e+00,-4.206545630059841390e-01,1.254060045403853962e+00,-2.555989748118374094e-01,1.233082196761022681e-02,-1.074421991140634552e-02,2.361345767974853516e+00
-8.589582725561883958e-01,-7.646135225338618335e-01,1.009112593821372306e+00,-3.077701881916702908e-02,1.871697251809299745e-02,-3.330565210243880553e-02,1.824710249900817871e+00
-9.763358445083317738e-01,-5.872282821087939642e-01,1.040020409637369747e+00,1.273935603765507553e-03,1.255464833540410712e-02,2.671848592899581445e-02,1.853412270545959473e+00
-7.446681606986992330e-01,-7.570592350009354154e-01,5.533333193578391374e-01,3.806507147436384055e-03,-5.161223073373540776e-02,-2.322953140418442496e-03,1.307324051856994629e+00
-9.947701614606749843e-01,-4.071725869953287114e-01,1.016225373516651986e+00,-1.922601192152494642e-01,-3.670500741866746658e-02,8.590445421523804082e-02,1.828876733779907227e+00
-8.071655200148680764e-01,-7.961342878096111519e-01,7.442431772913296051e-01,1.377570904106628288e-02,5.514168359315016824e-03,3.165414893391077581e-05,1.546136260032653809e+00
-1.094459204312005163e+00,-7.430657879128188537e-01,1.467221530756626979e+00,-4.905564953164343045e-01,-6.007685261240939406e-02,1.360181628689060007e-01,2.563941478729248047e+00
-5.015660135220982863e-01,-9.356895665193920575e-01,1.012364101187804399e+00,5.941961916022542312e-02,3.810685942837276855e-03,-7.505458165453748366e-03,1.774397134780883789e+00
-9.025568823393658180e-01,-7.750347945161485397e-01,1.059774402279844985e+00,2.322147317107777203e-03,-3.680255128060258476e-03,2.838386538985803245e-02,1.902429819107055664e+00
-8.943244906305914954e-01,-6.437197544627608625e-01,1.029778739648160801e+00,-2.142259420937175571e-02,6.881541309914549452e-03,1.763764086914173385e-02,1.812522768974304199e+00
-9.808690718910976214e-01,-4.832176308996045111e-01,1.032204783508044343e+00,1.749549499431871449e-02,-1.496928234850467866e-02,4.853966300396145815e-03,1.816583395004272461e+00
-9.397882350136117502e-01,-5.012995869804351967e-01,9.817760091430971503e-01,-6.021712234919854995e-02,2.243623824576698299e-03,5.908869541594281155e-02,1.750275731086730957e+00
-8.923508642863458018e-01,-6.492320028917603070e-01,1.148045741874172521e+00,-1.438715119363694062e-01,5.897661831840034230e-02,-6.923257785965976352e-02,1.952735900878906250e+00
-7.371878124826015677e-01,-1.181945732473759669e+00,7.631351315560723769e-01,-3.686031656740970108e-01,-2.934398190142208929e-01,1.633579971981040380e-02,1.944938421249389648e+00
-7.552652919396526388e-01,-9.069130137930356828e-01,1.054138337526688618e+00,-6.896947917255082279e-03,-4.645221100457163493e-02,2.287381831744650026e-02,1.891960978507995605e+00
-8.507458622899444212e-01,-8.501974750116494395e-01,1.061162007692787235e+00,3.455776863141260535e-03,1.685140002245067228e-02,-5.703455738700112868e-03,1.911891460418701172e+00
-8.135272292783360948e-01,-8.155390029179764300e-01,7.996903678792457448e-01,1.063652720565592090e-02,-1.093878206370546384e-02,1.061495305486549051e-02,1.614545464515686035e+00
-5.739308525534092542e-01,-9.438162848276764327e-01,1.036479223162677599e+00,3.408867510915066651e-02,4.110010426564879304e-02,2.362134671826119497e-02,1.826507806777954102e+00
-9.506413259996230325e-01,-5.622670935675228021e-01,1.040686370795486537e+00,2.737036785195007954e-02,-2.456594923496344465e-02,-4.011869026988871406e-02,1.830772161483764648e+00
-8.623437810906374734e-01,-8.077137982223342449e-01,1.043316800051410143e+00,-3.477071498051988955e-03,-1.089010287065233021e-02,-6.494843782694627136e-03,1.879079341888427734e+00
-9.111752426459086562e-01,-5.356441138006691194e-01,9.952292585094697497e-01,-2.894748009232472885e-02,-5.345974075037825644e-03,-1.546021819933654897e-03,1.749884128570556641e+00
-1.090982766462257336e+00,-6.740012793524912116e-01,1.659557699262762309e+00,-4.897445052957710709e-01,-1.156715109825202405e-02,-4.096630106985113540e-02,2.705070734024047852e+00
-9.780072680000692076e-01,-5.363542280800230877e-01,1.067450740886739302e+00,4.410678529887315097e-02,-7.517633569082873835e-03,1.377511367072098078e-02,1.866051435470581055e+00
-9.529704462185676350e-01,-6.271578029644456764e-01,1.043598903324241878e+00,2.325263036983645296e-02,-2.016257937155256641e-02,3.177330605803219132e-02,1.856826782226562500e+00
-1.354586033183554195e+00,-4.328664205992641678e-01,1.371884826379975664e+00,-3.121321495121983647e-01,-8.027675201144544859e-02,1.884470677114624959e-01,2.487632989883422852e+00
-7.933726741677759042e-01,-6.670207152850177179e-01,1.006017658700214534e+00,4.315961593959668358e-02,2.056873435203775136e-02,1.306614664040084590e-02,1.741775989532470703e+00
-9.612962671576452678e-01,-7.992893171675519159e-01,9.642112331652565871e-01,1.037008638028807245e-01,8.538187415417207438e-02,1.124649544278863850e-01,1.874555110931396484e+00
-5.418459217047577603e-01,-9.785488805079146646e-01,9.752111554372229207e-01,-6.043972900146121763e-02,1.805444367640542114e-02,1.006374445401613804e-01,1.788014411926269531e+00
-9.291574185509752226e-01,-6.824784548820399532e-01,1.032367977636337031e+00,-6.765918339887704892e-03,1.812143826370296931e-02,-2.583546903723989152e-02,1.851402282714843750e+00
-6.264167325097638184e-01,-8.506452072704780987e-01,1.009832698091754466e+00,-2.946906937713807823e-02,5.940363566017577146e-03,4.634201107370393945e-03,1.759903430938720703e+00
-8.467410196941459466e-01,-8.111059365947514976e-01,1.053186247823820976e+00,-1.224779820606199370e-03,-1.986285080390976301e-02,-6.084421645934913643e-03,1.882707834243774414e+00
-5.960202764404199938e-01,-8.780322583502884193e-01,1.016317885000784571e+00,-5.662249951344899140e-02,-1.266962080145023553e-02,6.236701679759484689e-03,1.773155450820922852e+00
-6.833763148905410700e-01,-8.921429693908075054e-01,1.037681749689987498e+00,-1.276826879588890615e-02,-1.715228129254240536e-02,-1.496256174598768925e-02,1.834929704666137695e+00
-7.159707475493648499e-01,-8.561433833347856792e-01,1.027677490109224490e+00,-1.420120892671609958e-02,-8.310127858201265746e-03,-1.272553700927035562e-02,1.818149447441101074e+00
-8.575433432421933899e-01,-7.249316765409551389e-01,1.038877199154859765e+00,-1.602270480028943761e-02,1.793600759471051381e-02,1.334819526303981235e-02,1.834333419799804688e+00
-8.534450025870541356e-01,-4.761437980302574147e-01,9.854081914548853405e-01,-2.041428566783833609e-01,4.506768415252533286e-03,1.641141282507199359e-02,1.719251990318298340e+00
-7.251254819289890685e-01,-7.533284734692377027e-01,4.756232706442149460e-01,6.277025654676048061e-03,-2.334890674683595072e-03,4.629310674479865384e-02,1.217793703079223633e+00
-7.514079528865162949e-01,-7.540368636462165819e-01,4.704953427213894868e-01,1.695795417418345316e-02,-3.377329790602146779e-03,5.937260375668226321e-03,1.223629713058471680e+00
-8.219297795806838058e-01,-8.135761727391880305e-01,6.714835832873764510e-01,-3.347283122264415461e-02,4.646763270777536786e-02,2.735419168132690454e-02,1.493305563926696777e+00
-8.847931981421330860e-01,-9.260360930240388866e-01,6.546837049059082148e-01,3.069296245593048072e-03,1.360859159076594216e-01,-1.363730940506599964e-03,1.578218817710876465e+00
-8.124446908142386459e-01,-6.731845484243561550e-01,2.592912215961084010e-01,-1.295496998671425426e-01,9.585723247959269944e-02,6.199575698810404906e-02,1.052713990211486816e+00
-6.281597107120618917e-01,-9.187425915221301143e-01,1.035349854999906061e+00,-5.806312501763026199e-03,2.919364920083392795e-02,1.834915966577381832e-02,1.827226877212524414e+00
-4.805274901049357283e-01,-9.588949819748721071e-01,1.017104956126288151e+00,4.297567406198592524e-03,1.902289916866712130e-02,5.384478545864084670e-03,1.785884976387023926e+00
-9.732312736232456851e-01,-5.183015314277203966e-01,1.030590065881511252e+00,1.004960279660036850e-02,-2.352214904018200617e-03,-4.259489386737152355e-02,1.821105599403381348e+00
-7.766927033710349093e-01,-7.876578071394507718e-01,5.256510649272635449e-01,-7.674305079428107509e-03,-1.619494437502116968e-02,-1.368913739950462088e-02,1.308443903923034668e+00
-7.306566689228477518e-01,-7.433014423384127767e-01,3.929379636513806728e-01,9.313139063624286187e-03,4.956637633344421201e-02,-6.263886814505180943e-03,1.133393526077270508e+00
-6.691661507800701347e-01,-8.620025198112761800e-01,3.023154153319904669e-01,-9.097478921730198231e-02,-9.118230464603410690e-02,-1.150790259959827283e-01,1.121517181396484375e+00
-8.379577787356794483e-01,-8.502161744878935501e-01,1.063856982965992515e+00,-4.808139995179701136e-03,-4.067912663505142239e-03,-6.042450830629047523e-04,1.908004999160766602e+00
-9.640637769795240564e-01,-4.902570836944847299e-01,1.021140549569575340e+00,5.869992094602623570e-03,-5.324176221979847606e-03,-1.794255338975977304e-02,1.796129226684570312e+00
-7.887755476350861716e-01,-7.951184375648490121e-01,1.026474083090400002e+00,1.288017697643992036e-02,9.694586147851010777e-03,5.736944638666995055e-03,1.818670868873596191e+00
-9.339603202708717244e-01,-7.667805297867993364e-01,1.073393115278382881e+00,-4.479732136144191565e-03,1.526864529355392679e-02,3.227478645631912807e-02,1.930210471153259277e+00
-8.783942088214479194e-01,-8.058708126084404011e-01,1.049651250124277846e+00,-4.282979295662889263e-03,8.613892991141743061e-03,-2.129935980160317308e-02,1.893258810043334961e+00
-9.969418868811589229e-01,-5.101275317791242880e-01,1.046382583460188087e+00,-8.618643514487765375e-03,-1.734385503969424619e-02,1.765279962068817127e-02,1.849189996719360352e+00
-8.337366648699546801e-01,-8.270114920867449593e-01,8.636072663768907809e-01,-1.137808448700945024e-02,4.161457368721966504e-02,-9.176886621213627832e-03,1.695713162422180176e+00
-9.517120787584574249e-01,-6.131904549285800421e-01,1.073159387025029332e+00,3.768043061638769869e-02,-2.428356249141324502e-02,-7.086239237194540130e-02,1.884232401847839355e+00
-9.306770115234319629e-01,-5.035077134273883148e-01,1.017720548561602767e+00,5.437348396017206709e-02,4.232158108571111924e-03,5.566159375940267842e-03,1.776357889175415039e+00
-1.365643732263973176e+00,-3.514770773635086942e-01,1.655766763381762763e+00,-1.630712547842080584e-01,1.672538737507159659e-02,-9.371313673344146972e-03,2.678454875946044922e+00
-8.807669707302405726e-01,-6.878381393413620648e-01,1.054085566806279628e+00,1.205705350658921038e-01,1.634606708819409324e-02,3.166219868932532155e-02,1.858765125274658203e+00
-1.181864931118303597e+00,-1.402864238978008271e-01,1.007414267756724602e+00,1.315635209168546094e-02,1.610084458171331251e-02,1.279134239257828098e-01,1.909949064254760742e+00
-1.284135736869949085e+00,-5.465313834352498734e-01,1.213776045878207643e+00,3.795885517712087598e-01,4.308155980681481478e-02,9.932410846269497384e-02,2.325635194778442383e+00
-9.198509995523590499e-01,-4.335616798989918586e-01,1.087186242563662697e+00,-2.936674926597825919e-01,5.149950248240749845e-02,-1.830941611043278017e-01,1.912047028541564941e+00
-7.580835377366580419e-01,-7.970752998413591639e-01,1.016603379280214936e+00,1.246220619848201899e-02,4.046062540415356137e-03,-1.467717463019862535e-02,1.794824123382568359e+00
-5.321521414745257195e-01,-1.023448108784108301e+00,1.072987138785948869e+00,2.620321350344869890e-02,4.109392831721015750e-03,-2.202174619945462038e-03,1.899622917175292969e+00
-8.684278936773626167e-01,-6.260136062930519163e-01,1.044511904189362239e+00,1.295988459846468821e-01,-6.285567031682026511e-03,1.284156745201668788e-02,1.818070530891418457e+00
-7.248631519597877881e-01,-8.568207234218985224e-01,1.042848529768320542e+00,1.367709535559610660e-02,1.384889261048644592e-02,-1.762336178161775027e-02,1.837810873985290527e+00
-9.973041106436820735e-01,-5.245961208688609823e-01,1.038361401044267884e+00,-9.942510195919627633e-03,-1.893758805627874381e-02,-4.762822774620487087e-02,1.847508907318115234e+00
-9.528514614057556065e-01,-5.384201046082530695e-01,1.042155518338946374e+00,-9.926389371787558077e-03,-1.176592379305810634e-02,1.254430649408207026e-02,1.823786139488220215e+00
-8.802710672701379302e-01,-7.739551183550373858e-01,1.053344353522822407e+00,2.301166345027430126e-03,-9.184890384252524355e-04,-3.342219061639976896e-02,1.883604764938354492e+00
-9.051722736888114795e-01,-7.426063546327766884e-01,1.056307633472788554e+00,-8.946334653330530531e-03,1.031751792144576518e-02,-4.799046285459340581e-03,1.885627150535583496e+00
-8.746119094509853253e-01,-6.429102149778209707e-01,1.111046391098625463e+00,1.284786298836818053e-01,-1.005148354196117207e-02,1.022449040351970651e-02,1.893827080726623535e+00
-9.195889337398378549e-01,-7.420623426348572638e-01,1.064977778816281084e+00,4.333777798857265523e-02,9.826303919053869240e-03,-1.957360755764365329e-02,1.903885722160339355e+00
-8.939832570136579948e-01,-6.995526061188700462e-01,1.057938254323363525e+00,2.240096652550183920e-01,3.914975906443633052e-02,2.113210897216344711e-02,1.903881907463073730e+00
-7.482789681630807044e-01,-8.914064578159104357e-01,1.046386029655366423e+00,-8.389890508461657652e-04,2.509648759447014738e-02,1.178981484405211728e-02,1.870957612991333008e+00
-6.836149702153606622e-01,-1.014333246659018473e+00,9.452193594264095555e-01,6.128310378431935795e-02,6.633414457807530751e-02,1.038004777574320740e-02,1.823719263076782227e+00
-8.582848780287659629e-01,-9.832160568828022251e-01,1.149023043262747068e+00,-1.681471773024993677e-01,1.352691136448267717e-01,-8.754413302766748950e-02,2.111486196517944336e+00
-5.490195417564116553e-01,-8.774150990702747066e-01,1.403047958729859435e+00,3.908959919277079642e-01,8.059479013132428427e-02,6.569755246364811230e-02,2.247286319732666016e+00
-8.997770659394360715e-01,-6.026379955765075458e-01,1.028846380102352853e+00,1.265158639810768926e-01,-1.815147829954366632e-02,-2.316201820082712526e-02,1.812574744224548340e+00
-1.350903195432574755e+00,-7.075352503339344956e-01,9.637613106223470449e-01,2.687905719517658110e-01,1.348158653962532871e-01,6.236488365681915058e-02,2.136668443679809570e+00
-9.529323803095713918e-01,-5.352990554288824532e-01,1.031640354821492522e+00,8.077041348872604498e-02,-3.190208720131476952e-03,3.920607634453120854e-02,1.818883299827575684e+00
-8.821606827493017056e-01,-8.258942298086198175e-01,1.071856139907876537e+00,6.288131155805637244e-03,1.882313657977159951e-02,3.553160070205074045e-02,1.927789211273193359e+00
-1.023137298655258043e+00,-4.675247491253766707e-01,1.114828523891509660e+00,-8.231360088440206613e-02,-1.944835974445432991e-02,-5.528421969899391386e-02,1.929340004920959473e+00
-7.596932348899495535e-01,-7.553319756208088931e-01,9.987576514186877752e-01,3.125026323299044673e-02,2.894680395197495341e-04,9.644959324156594403e-04,1.757109045982360840e+00
-6.145513364140563484e-01,-8.942712728639401476e-01,6.879798697863388490e-01,3.229243983289926123e-01,-7.084667514500767038e-02,9.241847853525615719e-02,1.578827619552612305e+00
-8.440421131026052404e-01,-8.131375384934043105e-01,8.708585320485404679e-01,-3.127446116510230155e-03,-4.956774835458492914e-03,-8.283360009471989194e-03,1.699749946594238281e+00
-1.167940257663628412e+00,-2.994156591171400761e-01,1.330142037260641841e+00,-2.424295598004713170e-01,1.216835075573582253e-01,1.167139496891182876e-01,2.255373001098632812e+00
-9.746085486454582059e-01,-4.749016597752134805e-01,1.043363454416892599e+00,-1.095671908775676384e-02,-6.350395372096495974e-03,2.371205245964869146e-02,1.820904016494750977e+00
-7.923690916257072336e-01,-7.303260739734820373e-01,1.006469063533796504e+00,8.474513199822929221e-02,-2.770881006657011526e-03,4.994441713135373958e-04,1.774720191955566406e+00
-8.294468966601646898e-01,-8.471951703623689101e-01,8.827673126534547610e-01,-1.630197029524442162e-02,-7.724201323723077842e-03,-1.792924690284187356e-02,1.721720695495605469e+00
-9.505348306306490302e-01,-7.466824401283578272e-01,1.097343808943491705e+00,-1.719138274824635881e-02,-7.354203986879501165e-02,-1.041513306432521879e-02,1.958401203155517578e+00
-8.699873594022106138e-01,-7.268411314518289368e-01,1.063813874135830728e+00,6.001956860351699563e-02,-5.052570440333650770e-02,-4.331577931485430105e-02,1.872793674468994141e+00
-8.530381278109314680e-01,-8.352140450002712990e-01,9.207091394490956038e-01,-1.236391368373441352e-02,-7.134182881830183724e-03,-8.245243580023580571e-03,1.765133619308471680e+00
-8.474780000557307069e-01,-8.250338235733872816e-01,1.060415658141616646e+00,2.624351168747216748e-03,-8.113773884177518866e-03,5.596091103985735039e-03,1.896853446960449219e+00
-7.995791439464102757e-01,-8.005079940084514067e-01,1.030558080201676718e+00,1.605396941931771983e-03,-7.818456080081043896e-03,-1.087213568379704655e-02,1.830750823020935059e+00
-9.348458172663006716e-01,-4.514371602177610909e-01,1.040096598225661140e+00,-1.038229859998990173e-01,2.127433315078665690e-02,-2.616091031296581201e-02,1.793077230453491211e+00
-1.078907029660878480e+00,-1.979412015576513528e-01,1.031289877852705761e+00,-1.745086308721323087e-01,-8.198197421594463630e-02,8.417931543085913071e-02,1.871577382087707520e+00
-1.237139681571922001e+00,-3.827175267110383694e-01,1.041424287626052658e+00,1.124671659099493043e-01,-2.738497112660537650e-02,-1.050398910921856478e-02,2.003886938095092773e+00
-1.177528352183982552e+00,-3.816400867916536210e-01,1.249767159381352633e+00,1.819776441323273878e-03,3.125063202526410372e-02,4.728802041621660984e-02,2.145458936691284180e+00
-1.542530966451148622e+00,-2.334548706929296669e-01,1.605927691433862492e+00,2.433452427716855104e-01,1.158900634491483450e-01,3.505070457810960938e-01,2.844540119171142578e+00
-1.429455267567632859e+00,-6.785666476651577295e-01,9.479324347066782064e-01,1.953422214136610602e-01,-5.501122067119636888e-02,5.965042658363296779e-02,2.136558294296264648e+00
-1.112884367729392920e+00,-1.977510376925092350e-01,1.679158459014049365e+00,2.318751245349013126e-02,-3.598365768978462748e-02,-1.790605362124761402e-03,2.466452360153198242e+00
-1.053916267052060762e+00,-2.125235460934084830e-01,1.189689309281220853e+00,-2.281904619979641113e-01,3.411826189829510192e-02,-1.979259703464844034e-01,2.032531261444091797e+00
-8.363966964194815557e-01,-8.101204812331740390e-01,1.064548288469857829e+00,6.011750949723970033e-02,4.112936519169962946e-02,5.386461043316811276e-02,1.894453525543212891e+00
-1.423330188156923803e+00,-1.907422195755314465e-01,1.197505927064790310e+00,-1.312875904841684371e-01,1.163230416247323096e-01,-6.972386724647784695e-02,2.294456481933593750e+00
-6.880416001718219210e-01,-1.188483645727274274e+00,1.417375557285808219e+00,-4.959533415361892517e-01,-1.114553889528651087e-01,2.984974067816946117e-02,2.552393436431884766e+00
-5.202444541860613558e-01,-9.397608516672815160e-01,1.084376477632529312e+00,-1.236509357160549549e-01,-7.639025187074961754e-02,1.411920435114869497e-02,1.867602825164794922e+00
-8.588919130893800657e-01,-7.937048368143643229e-01,1.052921734963247813e+00,-5.990391385222169560e-03,1.506068116194170248e-02,1.465540201868716086e-02,1.880448818206787109e+00
-8.433783112332879917e-01,-8.564753916278222690e-01,9.553432388090457028e-01,1.059976953535600105e-02,8.199517539860446194e-03,2.579465205777347475e-02,1.806007623672485352e+00
-8.250045068347586774e-01,-8.469020416894113001e-01,1.053526826520803095e+00,-1.935017318016932046e-03,1.169899518633731039e-02,-9.684880072967801817e-03,1.889761328697204590e+00
-7.679989218834506470e-01,-8.234565074818812613e-01,1.028538540197183604e+00,-8.502548408492049611e-03,-2.254034170574831415e-03,-5.907493572872918146e-03,1.824990630149841309e+00
-8.539266821350769421e-01,-8.614993489771299862e-01,9.915574800615680751e-01,1.295406029497967598e-02,1.095033816714511415e-02,-1.142573930953336495e-02,1.849621415138244629e+00
-8.622289015291253467e-01,-8.457206674105931521e-01,1.054026011460554635e+00,7.696485585720322159e-04,9.509227986893381557e-03,4.478901346302713478e-03,1.908141732215881348e+00
-9.746767348082763238e-01,-4.415400829421496920e-01,1.051003723029466208e+00,-1.001028603086562691e-01,1.862229820969278291e-02,-3.178707016604511576e-02,1.828054904937744141e+00
-9.998141800232863696e-01,-4.732126120720767104e-01,1.052794472392683423e+00,-5.143529496142181141e-03,-4.557730588416400962e-03,1.940492307574308989e-02,1.846855640411376953e+00
-4.649873378683809233e-01,-7.876363579816991756e-01,6.623935174575376061e-01,-3.576212634303459481e-01,-2.025087970994419728e-01,4.749130369760806714e-02,1.500770807266235352e+00
-8.708476824062844068e-01,-8.521167422866694485e-01,9.987946145578068258e-01,6.930999615999293428e-03,7.440594321383993230e-03,-4.134247409466189002e-03,1.860444664955139160e+00
-9.676412850987718972e-01,-9.092264686120635764e-01,1.259806473467803389e+00,-4.755809096063101649e-01,-9.369889127517200267e-02,1.173906169353641366e-01,2.362420797348022461e+00
-7.752475674352274915e-01,-7.745790973231129195e-01,1.013865461999627238e+00,4.541322935527798872e-03,2.167351993633612976e-03,-1.378043631679607209e-02,1.788959383964538574e+00
-1.482848255285210248e+00,-4.335064758052473710e-01,1.111749777963082275e+00,1.513866226852910168e-01,-1.006527749330795446e-02,-2.702501176363254487e-01,2.323488712310791016e+00
-8.932128782092388919e-01,-6.608986497938802440e-01,9.394179431274618519e-01,-8.783368869230299969e-02,2.873971010044010926e-02,2.045804849357129099e-02,1.735983014106750488e+00
-7.310164520986709435e-01,-7.284308065821352152e-01,1.046035116344420590e+00,-1.887655998628585408e-01,-2.294609223083409269e-02,3.790601062237282382e-02,1.807238698005676270e+00
-5.909807969826184060e-01,-9.394317191533301248e-01,1.041621526297595857e+00,-1.224536056363238201e-01,2.258458977632462131e-02,9.636908210777828804e-03,1.844582200050354004e+00
-8.497829733910403638e-01,-8.601539833844645822e-01,1.069486102657718485e+00,1.481870661687761156e-03,-1.970191805124831864e-03,-4.608423287356046456e-03,1.924496889114379883e+00
-8.908921760645929222e-01,-7.870084866246958022e-01,1.046000318717816624e+00,-1.041251619185044712e-02,-3.162391876923121865e-03,-1.337154150335150005e-02,1.887332677841186523e+00
-1.133260795168921087e+00,-4.257737815837748796e-01,1.096238189995747403e+00,-1.167769039585887930e-01,1.430690944446638517e-02,-4.210705668470154234e-02,1.985121011734008789e+00
-9.988987492500558396e-01,-5.411776437507949122e-01,1.058751465476409415e+00,-5.739158729303623849e-03,1.574561581599161772e-03,4.849549618999842576e-02,1.873169660568237305e+00
-5.964662350055556228e-01,-6.437645435907920488e-01,1.128627579458583163e+00,-4.608440892430699654e-01,-1.884189514073961180e-01,1.568549945750965513e-01,1.969067573547363281e+00
-1.056001741497008872e+00,-3.072475104563958670e-01,1.005377804582316736e+00,1.833015214845628571e-01,7.775515629803959883e-02,-2.584874762608933493e-02,1.840487003326416016e+00
-4.920088820092769488e-01,-8.043420181215271691e-01,1.129376881710164371e+00,-4.737572638868892128e-01,-3.929603220907383621e-02,9.614125640253694260e-02,1.984579563140869141e+00
-6.861300764975467592e-01,-9.157941951881122256e-01,1.059737617313900149e+00,1.473439161320720149e-02,4.633180480673888130e-02,1.747835835680472405e-02,1.873438119888305664e+00
-1.488034256925761634e+00,-4.516930898963099628e-01,1.167655762042071110e+00,-9.362933466106704294e-02,3.860306184534570417e-02,8.991844918781895235e-02,2.330132484436035156e+00
-8.494487981720811876e-01,-8.506471584554290422e-01,9.377024432900278317e-01,1.451379472135107609e-02,1.053986878819700157e-02,3.493260783538153225e-02,1.789044022560119629e+00
-4.534496154356684183e-01,-1.051539401387349582e+00,1.593150662137633011e+00,-2.945094657367697821e-01,5.585391574430086103e-02,6.981731124600036587e-02,2.460594415664672852e+00
-9.436006510890412313e-01,-6.802456332808617390e-01,1.067535405488936551e+00,-2.390775039454762219e-02,2.542741715115117134e-03,-2.719941251913331193e-02,1.894290089607238770e+00
-5.996844502513454245e-01,-7.693314504721243674e-01,1.422512785117730827e+00,-5.732344837193564802e-01,1.571732908536031537e-01,-9.732669493748705158e-02,2.355725526809692383e+00
-5.852104196673652003e-01,-1.170000311839244134e+00,1.663027557009494783e+00,-4.986987984914265648e-01,7.307570936807859796e-02,-7.052259566345074615e-02,2.736483573913574219e+00
-5.757405593895075224e-01,-6.694413087412537378e-01,8.987246861106685802e-01,-3.882407046493766001e-01,-9.263548171566970621e-03,-1.055955845904341106e-02,1.665464043617248535e+00
-1.197405780737853087e+00,-8.900609423424434841e-01,8.045640120315360466e-01,-3.766785160716842884e-01,3.616315776737893950e-02,-8.644399067124310110e-02,1.984704017639160156e+00
-1.511714082310318563e+00,-4.134371043614521457e-01,1.203578320539669955e+00,-5.595805419639360984e-02,5.627737029485208736e-02,-2.216463773921749647e-01,2.400657892227172852e+00
-8.482376588201367973e-01,-8.888556239386030677e-01,1.051680778474989530e+00,5.820101381842251662e-03,-1.758758255760271491e-02,5.384150508523924232e-03,1.920840263366699219e+00
-8.202163499472738817e-01,-8.029028935145382517e-01,1.044151747196061741e+00,-3.942414149189156503e-02,1.072626946751125375e-02,-4.922001602274408364e-04,1.857120990753173828e+00
-1.362159959560396372e+00,-1.792348142947336742e-01,1.164099647526987802e+00,-2.517868491513779450e-01,-1.133595763449008337e-01,-6.560943587243122689e-03,2.240935802459716797e+00
-7.362597477216294983e-01,-8.019358460606391681e-01,1.010949443177066476e+00,-8.481547616350150476e-03,1.429888935466673214e-02,-1.581155866737556440e-02,1.781399011611938477e+00
-6.377579582855892326e-01,-8.464931833769130387e-01,1.017530939147342606e+00,-2.677968822965309456e-02,8.590209580674905421e-03,8.947231142484213598e-03,1.769655823707580566e+00
-4.052353724308876970e-01,-1.424382612723501529e+00,1.744682013360808970e+00,-1.769470193410993819e-01,-1.053016944717785099e-02,-4.462196089848269320e-03,2.818902492523193359e+00
-7.564006292746804361e-01,-6.009403012751065587e-01,1.045833743102383639e+00,-3.894235315760823934e-01,1.759542277336554050e-01,-7.828054502999953757e-02,1.886333942413330078e+00
-5.787169892744965516e-01,-8.354573383049144208e-01,1.573207699166760287e+00,-4.453678700015904490e-01,2.418705779779157031e-02,1.157230221294346245e-01,2.426142930984497070e+00
-5.556308722172060843e-01,-1.054310604801314888e+00,1.097740596781528577e+00,5.910647913012863353e-02,-3.051008924570616787e-02,-1.378670347751628777e-02,1.954652190208435059e+00
-9.680913464446284644e-01,-4.750357301946983579e-01,1.103529686561208090e+00,-9.455664865777541062e-02,-4.908345688746759694e-02,6.836484482621699166e-02,1.887157917022705078e+00
-1.258334547161190642e+00,-1.045434624842888072e+00,5.370751606194423822e-01,1.082808198767002197e-02,-1.201410011720515161e-02,1.545806286387104156e-01,1.720188975334167480e+00
-1.164943409020777310e+00,-1.028542591065831235e+00,6.554722796548664299e-01,1.958231082127334932e-01,3.515428917290285699e-02,1.559657886275577637e-02,1.789885401725769043e+00
-1.086050403287856625e+00,-1.100536977189761956e+00,6.323800464908662100e-01,-1.883929527552899996e-01,-3.738012273118395540e-02,-2.051116287985918774e-01,1.793038487434387207e+00
-8.192187934156908158e-01,-8.463547804984854483e-01,8.742337568390086133e-01,-3.960250602237700909e-03,-5.748541367023118735e-03,-8.022253164884212209e-03,1.707281708717346191e+00
-9.493622383314780366e-01,-8.871831521908413176e-01,6.394478149940978629e-01,-1.062534935347638071e-01,1.411599472016606682e-01,8.843794764847244527e-02,1.595777034759521484e+00
-6.539951221225512867e-01,-1.077868108433890137e+00,1.731555799216321079e+00,-5.407676026576981876e-01,1.086863449462951714e-01,-4.853669859466001879e-02,2.793114185333251953e+00
-7.634348448552963351e-01,-6.880132847789276473e-01,-3.906958775432406439e-02,-5.096052257490397974e-02,1.842311528926196817e-01,6.250347586858155668e-03,7.651745676994323730e-01
-6.996419453416881096e-01,-1.335226443844358180e+00,8.850427288664246550e-01,-7.651533553806420807e-02,1.444409598036469448e-02,1.634634068120614445e-02,1.985292315483093262e+00
-7.504184356366955244e-01,-8.734932292632808792e-01,9.894887542430315097e-01,-2.559263438796693241e-02,-1.680181395190312801e-02,4.287758552438465653e-03,1.805389165878295898e+00
-7.907979632552174509e-01,-8.132183391403620121e-01,6.871794978321427161e-01,1.205791639978747581e-02,3.679423611273509309e-02,-5.991695140680534937e-02,1.494431257247924805e+00
-7.967991733236988727e-01,-7.694095528270912254e-01,6.904168880718398738e-01,9.740956293575226896e-03,-7.346485944699120835e-03,5.090915591849052083e-03,1.473890066146850586e+00
-8.300832100358387367e-01,-8.191734052770858199e-01,6.338325819275700823e-01,1.346242310795602547e-02,-9.733102991218803637e-03,-3.361157263214730601e-02,1.459936499595642090e+00
-8.032498507367862306e-01,-8.289077010475757179e-01,8.122671759637523081e-01,2.084363616462183225e-02,-3.091379349322030332e-02,-9.209822901915060145e-02,1.637565493583679199e+00
-9.771021720506987140e-01,-1.087627043083815970e+00,1.084183535257593700e+00,5.104854139715190309e-01,5.882975040790992816e-02,-9.161628754469455446e-03,2.298120737075805664e+00
-7.085326447860553767e-01,-1.313376056583751783e+00,8.726685170974675110e-01,3.511095269549313613e-01,7.376242659097699550e-02,1.419255474107698478e-01,2.066154956817626953e+00
-7.158377930160991776e-01,-7.930228735887050462e-01,9.963503058460694284e-01,1.786043623147696990e-02,-1.620055707813308635e-03,8.688334529003612430e-03,1.752396106719970703e+00
-7.621663443045283426e-01,-7.699590933442810314e-01,5.582502882794441179e-01,-5.264282744044389804e-03,4.941725110324331899e-02,-6.641032892402991272e-02,1.332100152969360352e+00
-7.633752598488359187e-01,-7.673707804738474358e-01,5.635662119492639288e-01,-5.779686092341295225e-03,4.009863197023075948e-02,-3.640751831654659432e-02,1.332288265228271484e+00
-5.361309536738292358e-01,-9.381526858272363212e-01,1.062066126320110993e+00,8.904620119219090746e-02,-2.400179522116276110e-02,-1.100271838638322217e-02,1.839631557464599609e+00
-1.153836133609000392e+00,-9.194247392278783737e-01,9.373427720134441810e-01,3.352605400191502327e-01,6.072073168182114122e-02,-2.061290019367801457e-02,2.070583581924438477e+00
-3.235398248658437614e-01,-1.393220508663768786e+00,1.673787976159339275e+00,1.766161939948163173e-01,1.562629872404260739e-02,4.058219240353661689e-02,2.714643955230712891e+00
-8.146320933397994679e-01,-8.193273750808488520e-01,8.159742408690537907e-01,1.252587186691469373e-02,-9.260529246249919744e-03,7.510930385879500959e-03,1.633233785629272461e+00
-7.284110748670088453e-01,-7.380107460438796174e-01,4.871608013352041189e-01,3.035688600360479574e-03,-6.275650661677639351e-04,8.151713825333263639e-05,1.220411896705627441e+00
-1.261416064538953608e+00,-6.305867884010730728e-01,3.312734266485422019e-01,3.369495056259117632e-02,-3.008510910621207263e-02,1.773087309166188324e-03,1.391409754753112793e+00
-7.901809526938838868e-01,-7.814996207333642086e-01,6.346457920000865283e-01,1.176201498081692713e-02,3.675281086592233765e-02,-6.685319604729453302e-02,1.426784038543701172e+00
-7.977313652959844292e-01,-8.964927438178984520e-01,6.243387898560277538e-01,7.162159336243184571e-02,8.172928424186530483e-02,-4.014240340010499092e-02,1.487529873847961426e+00
-8.018169585413656986e-01,-7.826712439359613249e-01,7.112211584567831313e-01,-2.741562310492837509e-03,-1.165662703699548407e-02,-7.268704591656393113e-03,1.503752470016479492e+00
-7.896193517737752909e-01,-8.119646884694828870e-01,5.397375253071013956e-01,-2.900283805532437656e-02,-1.166585392992479549e-02,-5.140163894554067650e-03,1.341791749000549316e+00
-3.880521149378652890e-01,-9.472209238730623371e-01,1.213682398687504493e+00,-3.579167821666694449e-01,1.041898472367057751e-02,-1.157947054905463305e-02,2.039339303970336914e+00
-8.125955570577312326e-01,-8.127425394086259525e-01,8.033028922528264726e-01,-1.190674698658416783e-02,5.466211183356915922e-03,7.561271772285728908e-03,1.616184353828430176e+00
-1.093954551143435872e+00,-4.551340156683779670e-01,1.189200007012913174e+00,1.513982079885957920e-02,1.183801226706994100e-02,6.786080851148554305e-02,2.043840408325195312e+00
-9.324247770793282486e-01,-1.278185260832803927e+00,6.525481288964747328e-01,7.760542848593732224e-02,-8.705827817291607318e-02,-6.867916701225286469e-02,1.798517823219299316e+00
-9.457865154847528988e-01,-4.511015729134633112e-01,1.013419187625772322e+00,1.109369622552669604e-01,-1.745872880021082443e-02,-2.126603682763725939e-02,1.775725960731506348e+00
-1.027737878414873851e+00,-3.948503514456037089e-01,1.062678985919647046e+00,1.228157459943780838e-02,1.281427375869361243e-02,-2.657771078294115380e-02,1.857540011405944824e+00
-1.002407549637897244e+00,-5.004591700731227943e-01,1.044242689911968114e+00,-1.144565209854063285e-02,-1.632346631026621725e-02,-2.655719434985166424e-02,1.848438501358032227e+00
-7.725344854359585955e-01,-7.934957000009996708e-01,6.392014284886378128e-01,6.077925262542668676e-03,6.418352231487560455e-02,-5.315587432236167781e-02,1.429676651954650879e+00
-7.302884959986091218e-01,-7.393619486404522378e-01,3.947966243967649946e-01,-3.466799227276586015e-03,4.299589972410127608e-02,-3.889635188520657039e-02,1.134119987487792969e+00
-7.751892415868567587e-01,-7.921713937518932713e-01,6.383141126934861465e-01,-2.879184753951646251e-03,2.441174161562281730e-02,-5.186297236754010970e-02,1.425540804862976074e+00
-7.662072631592233840e-01,-7.801590455033541316e-01,4.405802208790009500e-01,4.364964005848379763e-02,7.151074575103354147e-02,4.861331277259007405e-02,1.225363016128540039e+00
-3.552690811804845028e-01,-1.048337503911827895e+00,1.086289725747203949e+00,-3.076754820733497708e-01,-1.337978816155831474e-01,1.412985830626672101e-01,1.988750457763671875e+00
-6.326295254377278798e-01,-8.857001192852386184e-01,1.047281387247936513e+00,1.037487426682606739e-01,-5.722197530101972782e-03,1.274089803363532766e-02,1.828703880310058594e+00
-8.530077965784643723e-01,-8.457955544539678128e-01,6.064255911694357293e-01,-1.551003770607811694e-02,8.872930285161069464e-02,6.597896750847397074e-02,1.468629360198974609e+00
-8.061006339987930591e-01,-7.985811748475164507e-01,7.093800813687127782e-01,1.673707022640471068e-02,7.575645483594153906e-02,-1.033598650164653868e-02,1.517801284790039062e+00
-7.295529277956160907e-01,-7.194868095530003727e-01,3.411311380451951258e-01,3.558794937544330905e-03,1.414264004524356903e-02,-4.359669855947034128e-02,1.068657159805297852e+00
-7.242968910737793697e-01,-7.466840642470435885e-01,3.669266070029080229e-01,-5.097152459969272499e-03,5.182207313748060651e-02,-1.325338376706456170e-02,1.106508374214172363e+00
-8.615526083257916135e-01,-8.579844776200118428e-01,1.043490949713332228e+00,4.917530660083782590e-03,6.751577987981389334e-03,-3.498502955347242410e-03,1.903326630592346191e+00
-8.320712655417046300e-01,-7.640612666512217599e-01,5.972865548803861779e-01,-2.210660653068504365e-04,-6.128526558428176729e-02,-3.786324800566433224e-02,1.402158021926879883e+00
-9.586996312937261511e-01,-1.288752996647914539e+00,6.787212476162050034e-01,2.483691518122619901e-01,-9.328909902091905848e-02,1.615934568847954278e-01,1.902636647224426270e+00
-8.307506706590471746e-01,-8.155786333549165379e-01,7.913788240155399389e-01,1.339044179294185746e-02,-6.947445791756295952e-02,3.298981613784347094e-02,1.620248794555664062e+00
-7.292320175225650569e-01,-7.479497605278202510e-01,4.977253851053361489e-01,2.755557457924811410e-03,-6.969805469868010526e-04,1.683109414674625187e-02,1.236775994300842285e+00
-7.917145429642703514e-01,-6.846362728208809090e-01,1.016879257527263380e+00,-4.023203643840694288e-01,-8.839672548537215457e-02,-8.438481720442403064e-04,1.896798729896545410e+00
-7.597813154825528992e-01,-8.249144612440055813e-01,5.287802073444757278e-01,4.375686797846446707e-02,-8.422204166819093063e-02,1.646681532554869487e-02,1.332816123962402344e+00
-7.822762080703727916e-01,-7.775049381801082404e-01,6.361740987909508815e-01,1.595188687403448820e-03,3.637511365848048600e-02,-3.962265453156481321e-02,1.419134616851806641e+00
-7.506962073371364896e-01,-7.674966164620035114e-01,5.666791250891008991e-01,4.295222275694489389e-03,-2.771633112060221688e-03,-4.019526030473255518e-02,1.327711462974548340e+00
-8.406877306324110899e-01,-8.451790390229542149e-01,8.971878679720806105e-01,2.494657284124616320e-02,-2.877163993204499837e-02,1.102325196950557258e-02,1.741479873657226562e+00
-7.763627069732149666e-01,-7.647666885544102122e-01,5.822966709930008644e-01,-7.546575432529403597e-03,-2.911495061760170297e-02,-4.329637965222011414e-02,1.355976581573486328e+00
-7.396582140520890913e-01,-7.522582035439091541e-01,4.637280546131342662e-01,-1.087855778792486301e-02,-3.865423183445654276e-02,2.054960377958475401e-02,1.212255835533142090e+00
-7.612242895285121769e-01,-7.374040184537145048e-01,4.177432454233063197e-01,-1.413159547272550484e-02,-5.939821731794857340e-02,-2.685922895906529134e-02,1.172943472862243652e+00
-6.224568640941289255e-01,-1.048192359439005017e+00,1.024237770167997219e+00,-4.984609607488155181e-02,-2.457782784919250105e-02,-5.345534451770713597e-02,1.900460124015808105e+00
-8.583364099397305935e-01,-8.498086419427179905e-01,1.067779195876520593e+00,3.272286635323034751e-03,-1.074839407329871224e-02,-1.978832153938873614e-03,1.921967506408691406e+00
-6.294565283189421656e-01,-9.167579558436385057e-01,8.959026546289368120e-01,-3.122438628256030135e-02,-8.502852818303563431e-02,9.722851201165030183e-03,1.694815278053283691e+00
-8.672552080185547130e-01,-8.418315182271405295e-01,9.797349129193326789e-01,-1.250255655442953848e-03,-2.488765693174157384e-03,-7.972466855075322281e-03,1.834468722343444824e+00
-8.162693288162787830e-01,-7.991248666081568475e-01,7.425040494183947626e-01,4.593647048353129841e-03,-6.369839541911760661e-02,-3.439364157983892945e-02,1.555354833602905273e+00
-8.515787656626404578e-01,-8.290020967755632464e-01,8.780892264752961918e-01,-8.465832862037850348e-03,-8.725081544794315025e-02,-3.099341202672417986e-02,1.726020216941833496e+00
-8.470587486220664264e-01,-5.706735942170162446e-01,8.474098838182702043e-01,3.671420841287825199e-01,1.235480876721975901e-01,7.191102567940310664e-02,1.716092228889465332e+00
-8.885476501402564953e-01,-7.049657140212036710e-01,1.022996697230988739e+00,4.906604110563668464e-02,1.143306135947810267e-03,-2.838468777455701794e-02,1.829322934150695801e+00
-8.520977067992709930e-01,-8.655590744810705006e-01,9.745885961638280914e-01,4.390114158874912874e-03,-1.526049694861619094e-02,-1.528023969186681832e-02,1.833851337432861328e+00
-7.945310368589764138e-01,-8.153750923324536437e-01,7.706139615902201090e-01,-1.421595349132646294e-03,-3.700322474223605163e-02,-1.037556755972637813e-03,1.576976299285888672e+00
-8.497650986243808768e-01,-8.302474556783844273e-01,8.980994854854693621e-01,3.540046953553707600e-03,-3.668545797175656181e-02,2.903569145545485761e-03,1.739367008209228516e+00
-1.186132100913799503e+00,-8.676338568781845062e-01,8.884660442370511113e-01,3.685403273011218506e-01,-5.299888857931216862e-02,1.418241098309860025e-02,2.039886951446533203e+00
-9.129636103932393665e-01,-7.900223599519028417e-01,1.071313176663073463e+00,-6.266348994813364381e-02,-3.806585887259972267e-02,2.483398905810731486e-02,1.930413603782653809e+00
-1.062651674479811348e+00,-2.261430132091173661e-01,1.051532614852054071e+00,-4.263426194696848248e-02,-1.712664772070036229e-02,-1.932482206566836780e-01,1.875994682312011719e+00
-1.285196059848951577e+00,-6.181623872842864076e-01,2.296849231835331739e-01,-4.092898529810909403e-02,-4.556488522898486521e-02,6.762398410500038148e-02,1.324497938156127930e+00
-8.415441031427245422e-01,-8.047712260079202817e-01,7.555494228914021448e-01,-2.707631530477877611e-03,-1.315857182717748153e-01,-7.184536551067976888e-03,1.595447063446044922e+00
-8.398843845422603316e-01,-6.720265644910249359e-01,1.033200760828281384e+00,1.587708662660974879e-01,5.692280206391156505e-02,1.424666063828247502e-02,1.818836569786071777e+00
-6.615485780217096323e-01,-1.147220856554556079e+00,9.040732734334067100e-02,-5.740797554660535817e-02,4.832946082866741017e-02,1.537834221240598764e-01,1.119982838630676270e+00
-1.318605097265703741e+00,-3.712688470652753536e-01,8.047513264671215527e-01,3.882511276030738423e-01,-7.397186342494463385e-02,-4.772112112891682689e-02,1.967236638069152832e+00
-1.268445716088594466e+00,-1.134235110217078013e+00,5.902843122600205383e-01,-2.831906809919572388e-02,-5.040197878699761991e-02,-6.929016795787243388e-02,1.802181720733642578e+00
-7.234117257196199802e-01,-5.573676917682320875e-01,6.645527070328784980e-01,3.392434317802808241e-01,-4.281509722199369067e-02,-5.526209198575657289e-02,1.443423748016357422e+00
-1.026172788338956199e+00,-9.589625480067343055e-01,1.005954421781904085e+00,4.597357929998742154e-01,-5.337304688600764957e-02,-8.324779103443963324e-02,2.158908605575561523e+00
-1.089400076563100450e+00,-3.359397908349310291e-01,1.507385081397430993e+00,-2.015952781430442875e-01,-8.159653432678218299e-02,-4.150763234710042049e-02,2.345524549484252930e+00
-9.632993030627263753e-01,-2.838297215992675593e-01,6.148445591759815754e-01,1.776509798617496305e-01,-5.102523116487975297e-02,-2.897570401404700804e-02,1.408873796463012695e+00
-8.323764698846058963e-01,-8.477739222534510510e-01,9.165246969655687082e-01,-1.279307212984324982e-02,1.073518317081055204e-02,1.183679667253549096e-02,1.757008314132690430e+00
-1.054447779703688415e+00,-5.232887858818414673e-01,1.067150168943205912e+00,9.882572404653598708e-02,1.136137472280551036e-02,2.068071896882504174e-02,1.920253038406372070e+00
-9.326111678231310265e-01,-7.220825835936901527e-01,9.921432631902489252e-01,-2.670838077584599887e-02,3.409958048331702268e-02,1.276036228407582962e-02,1.830273985862731934e+00
-9.463348334736662038e-01,-1.228683732875865298e+00,5.774777208421040253e-01,2.299476288797112078e-01,-8.718318150503226449e-02,1.681891597032784680e-01,1.760189056396484375e+00
-1.032794016234737100e+00,-2.795514264425879025e-01,9.055039681114875894e-01,-4.842099217762738106e-02,-5.201642610652510573e-02,7.369145125875343691e-03,1.696961641311645508e+00
-7.670654318831257035e-01,-8.003326643557985287e-01,1.023419471781805257e+00,4.316444895125475488e-03,-8.657130743553958716e-03,1.077330232226989502e-02,1.807522177696228027e+00
-5.405868092223206078e-01,-1.025721201843219355e+00,1.096571103280900905e+00,-3.898257348814395673e-01,-1.887759197772421460e-01,2.182738647883308500e-02,2.067393064498901367e+00
-3.539892239389412221e-01,-1.062639484979133409e+00,9.908773214771753324e-01,1.821767955489005386e-01,8.299488796290667436e-02,2.137359941130148946e-02,1.839970469474792480e+00
-5.599510817209714109e-01,-7.201240592366248139e-01,7.096436199581384052e-01,3.852642671840412758e-01,-1.786106741469131454e-01,-5.848462233182204900e-02,1.546652197837829590e+00
-9.298685154327989144e-01,-6.744146386844928065e-01,1.056448038408888568e+00,5.424860792909128038e-02,6.461530492607578391e-02,7.985379504897067993e-02,1.882493495941162109e+00
-1.326207403775233384e+00,-4.616618369204346095e-01,1.653815074138736962e+00,-3.002756434636579264e-01,-7.740497201535758397e-03,1.210663862045167384e-02,2.706053256988525391e+00
-6.226695113440273710e-01,-1.260508340836870911e+00,8.675125647164536602e-01,-3.940299656192300937e-01,-8.232345112233585560e-02,9.194523958292802335e-02,2.022238731384277344e+00
-8.274373783407922289e-01,-7.625005896702939934e-01,1.032464800755424461e+00,1.262024644378517864e-02,-2.175868265998325002e-02,6.602183413206261925e-03,1.828853607177734375e+00
-9.241882649717824139e-01,-7.206211417631810390e-01,1.223720400909360073e+00,2.260887339641385607e-01,4.295938579340852909e-02,7.021446758301615187e-02,2.095562696456909180e+00
-1.363015410848996245e+00,-5.937714262880888771e-01,1.357281193484893178e+00,-2.930612676157494656e-01,9.705935707668543466e-02,-2.191277484498856398e-01,2.515779256820678711e+00
-8.693743808406297902e-01,-8.485837960609841080e-01,9.844622421386635125e-01,-7.824103816877510734e-03,-1.095736598741432408e-02,-1.172442073678994952e-02,1.843788623809814453e+00
-7.558769447088630189e-01,-8.185964147387979617e-01,1.036405244092500233e+00,1.281509407296810565e-01,8.766795723972582721e-02,8.447960737674838072e-02,1.849960923194885254e+00
-7.534613577852564692e-01,-7.593129739508680531e-01,9.980120269994683380e-01,3.800588596760829264e-03,-5.196330703269350614e-04,-6.939235630221377450e-04,1.754419445991516113e+00
-8.015194139800526640e-01,-7.371661052969404881e-01,1.012276577391144627e+00,-7.068542036234151671e-02,6.100647988751252589e-03,-4.432601412089020448e-03,1.786738157272338867e+00
-7.715857263032577240e-01,-7.815359412996423227e-01,6.499235321630056905e-01,-1.037701389291247750e-02,5.928216921741806186e-03,-4.607535132404969036e-02,1.428890943527221680e+00
-9.804837392416289044e-01,-8.124584947244376520e-01,6.751586553363837506e-01,-3.305587078021334640e-02,-4.803913243186246768e-02,-4.393635051075242548e-02,1.583409905433654785e+00
-7.353071002211881702e-01,-7.285990892119083018e-01,2.046750827554584262e-01,1.245756478334763759e-02,-1.726166930856137260e-01,4.774689299431156275e-02,9.869146347045898438e-01
-7.599040483131782597e-01,-7.495531948505408382e-01,9.927954156346394665e-01,3.698641116482019684e-03,-7.550911615898141726e-04,-1.005177765638559390e-03,1.747560143470764160e+00
-8.319140467463516098e-01,-8.436879140204754934e-01,8.784060418630024181e-01,1.058309682467203526e-03,-1.804369206223762831e-02,-2.766972892075577131e-02,1.717191696166992188e+00
-8.001059839097786064e-01,-6.727850734565961055e-01,1.086736891597615884e+00,1.230314572771504800e-01,-6.816273402865413202e-03,-1.441147619129581024e-02,1.839109778404235840e+00
-1.246626344653788854e+00,-6.162136870057854932e-01,1.276357931758577147e+00,-4.686490057864906023e-01,-5.369950273322083439e-02,1.756487832612818045e-01,2.435662746429443359e+00
-1.535633812111936614e+00,-4.529651748652920862e-01,1.384015949382610966e+00,-1.968322660722220396e-01,-9.516438862242274088e-02,2.691506515033539881e-01,2.626068592071533203e+00
-8.963498485592834575e-01,-7.730622348830086255e-01,1.057860559802490830e+00,4.271727503990351525e-03,-1.620930179699203678e-03,2.630375350103285326e-02,1.896139860153198242e+00
-8.121607340491264759e-01,-8.206615160470359660e-01,1.030277383218261011e+00,-2.367323065253588293e-02,1.284852742219908840e-02,-1.362682399415707929e-02,1.847443103790283203e+00
-8.711035788866873242e-01,-8.536135101188000451e-01,1.005186562902318226e+00,6.466068479053791590e-03,5.040571313264734232e-03,-4.868752743359431798e-03,1.867679595947265625e+00
-8.914656265834117743e-01,-8.884336445851293007e-01,1.002852489378087464e+00,-3.854913687876824341e-02,2.961457877221747650e-02,1.209027926613651625e-02,1.894791364669799805e+00
-8.552961567199757198e-01,-8.481200040711226462e-01,1.014044095636527976e+00,2.655926952192504825e-03,8.668603777566745786e-03,4.403169639586209695e-03,1.865844249725341797e+00
-9.406190914341864273e-01,-4.671337877423242801e-01,1.443704274732521942e+00,-3.283735931715336953e-01,-4.643585384969471652e-02,3.576401428839492969e-02,2.261423826217651367e+00
-7.680789078808152315e-01,-7.724382529564574051e-01,6.237371780093545759e-01,-3.186968011680854727e-03,1.066771693764934775e-02,4.264774312321200495e-02,1.396089792251586914e+00
-5.956400427114272311e-01,-7.237814490518065247e-01,1.008370038668615409e+00,-2.622116351104141208e-01,-3.414234277562346043e-02,2.697897488400893481e-02,1.733999490737915039e+00
-1.063742787821322811e+00,-6.142222954723908224e-01,5.418340847469607091e-01,-3.084856996240751270e-01,-5.362940487746207380e-02,3.535324435124698184e-02,1.534950852394104004e+00
-8.207722891589850356e-01,-7.665723715918432157e-01,1.031584468354801443e+00,-2.104389570182635741e-02,-2.608955681135736657e-02,2.638553525473737865e-02,1.827354550361633301e+00
-7.830988793191314690e-01,-7.697803571955110780e-01,1.014792664056046956e+00,1.752253391993675163e-02,9.941268351928158123e-03,-2.792911425271774745e-03,1.791615843772888184e+00
-7.351708676281095700e-01,-7.604458715664154100e-01,9.923417253220097045e-01,2.256673444531522368e-02,-1.203662366140641226e-04,1.508611747344693976e-04,1.740726709365844727e+00
-8.110516933896982916e-01,-4.996492932906881346e-01,6.259612719088418764e-01,3.254998453459623242e-01,4.754699773758790105e-02,-6.165011393234080123e-02,1.431964874267578125e+00
-7.738126863529714017e-01,-7.503868833806717209e-01,1.000927200321316324e+00,5.221323377061356033e-03,4.876559406573253291e-03,-4.830753111208798377e-04,1.763187289237976074e+00
-8.616827620188282078e-01,-7.909577842987359775e-01,1.051440101441390773e+00,-1.203294163263404423e-02,-2.929202262388427933e-03,-2.203673657443610406e-02,1.879269123077392578e+00
-5.659666083303916961e-01,-1.049545792832388580e+00,6.463458119926250856e-01,-1.112919417787320009e-01,3.133261862335545156e-01,-1.231558362192496231e-01,1.633088827133178711e+00
-1.468175661661041964e+00,-4.123669230179549672e-01,1.435988153022409231e+00,2.287184503203446573e-01,-1.560398820880050039e-02,-2.489923451319892844e-01,2.612721920013427734e+00
-7.902865804789144244e-01,-6.713522380636762765e-01,9.880150599764929709e-01,3.862315641277008771e-02,7.521404038563218354e-03,-2.030777988467973375e-03,1.723269701004028320e+00
-7.979875583244869786e-01,-7.458358402851419378e-01,1.013950947600729791e+00,9.432158706951852475e-03,1.002932424920386159e-02,1.261326482040461307e-02,1.786726355552673340e+00
-5.397800524537574862e-01,-9.835682653213515536e-01,1.039243836749286665e+00,2.734557197919358987e-02,-1.320389421559269028e-02,3.865812314345998171e-03,1.842234492301940918e+00
-6.458626707268436684e-01,-8.812457418374084472e-01,1.860065490866239513e-01,2.731798775522010711e-02,-1.588067160711073011e-01,1.418747781501833449e-01,1.039953112602233887e+00
-9.282551477899360082e-01,-6.634746677367919787e-01,1.023740910342408661e+00,-6.600307496546859104e-04,-5.445607882527583009e-03,3.990982351857717131e-02,1.835324406623840332e+00
-8.602087608711961320e-01,-8.647228900612284885e-01,1.024534379428160724e+00,9.697354296373819627e-03,7.003397903108400310e-03,-7.529837300717081607e-03,1.887163043022155762e+00
-8.474596935242887374e-01,-8.719178060897873062e-01,9.875608170590388646e-01,1.582441626736986497e-03,2.808973855137590427e-05,3.378662835237007753e-03,1.847382307052612305e+00
-1.412920731076727554e+00,-3.599936668535739237e-01,1.721959786949327942e+00,2.462138924725411349e-01,-6.708976835231489355e-02,-1.140013237109237416e-02,2.798408031463623047e+00
-9.835650402592840402e-01,-5.977451250677520145e-01,8.179305535523597737e-01,1.692945138992135723e-01,7.331964553139373730e-02,-1.469973517221859205e-01,1.692963242530822754e+00
-3.817570151392817857e-01,-9.846308417179172601e-01,1.033819242655999560e+00,4.829285889695823092e-02,-2.701230616459916745e-02,-5.349786994553846001e-03,1.797219634056091309e+00
-5.867340715993134559e-01,-1.062877203226867628e+00,1.157281151141504205e+00,2.513509004140713765e-01,-6.311539220463772970e-02,-3.767477913202143657e-03,2.073698997497558594e+00
-5.531041964133098787e-01,-9.681070027979653547e-01,1.070117739108763733e+00,9.119758492558171711e-03,-3.165450447285687169e-02,-3.005401066109369274e-03,1.866547942161560059e+00
-3.734671792263211665e-01,-1.002946311864961082e+00,1.024461557666014544e+00,-3.150618904270582887e-02,-4.262526536016480322e-02,1.701225819873501341e-02,1.799920201301574707e+00
-8.225276044498514016e-01,-7.992351448475795150e-01,7.878285122311825539e-01,1.580313069959069644e-03,1.786287844281655296e-02,7.662277863868995759e-03,1.599193930625915527e+00
-6.417539919307084784e-01,-1.174067937407829110e+00,1.178138962383132426e+00,-4.840385963633967448e-01,2.162906903166376127e-01,-1.807468468057557565e-01,2.346349477767944336e+00
-6.990628954191321354e-01,-8.611504909296392452e-01,1.034492722699037026e+00,-3.483948758517673577e-02,1.719436414330290097e-02,6.058083117883506473e-03,1.821294546127319336e+00
-5.046345129798868179e-01,-9.278065955119249031e-01,1.006704284130734983e+00,6.047909572210306839e-02,1.144405528982240551e-02,-2.049466896156439642e-03,1.764696717262268066e+00
-4.404823631217892888e-01,-1.120814978269335516e+00,1.085124799017539221e+00,4.225393880721966394e-02,5.728706600324121739e-02,4.366234800059265453e-02,1.961930394172668457e+00
-5.024439185667148866e-01,-9.835530600818209734e-01,1.051465591563331525e+00,-3.159837662396373231e-02,2.866190239896200878e-02,-1.699876622945936319e-02,1.843916416168212891e+00
-8.599416852720686011e-01,-8.613098026270573637e-01,1.062443462905805269e+00,-1.634957259777624575e-03,3.924477239178125222e-03,-3.998708529087248095e-03,1.923096179962158203e+00
-8.478651161303134565e-01,-8.201053983456193519e-01,1.055752071327564101e+00,-5.600940713592641139e-03,1.316750499801089790e-02,-1.027040765112118871e-02,1.890136480331420898e+00
-5.049775356558182660e-01,-9.955518488943432276e-01,1.073597141559874624e+00,9.208181073489113411e-02,-1.051945118828108566e-01,-4.642294506500216356e-02,1.889991879463195801e+00
-8.879106890998988977e-01,-8.811415359843537409e-01,9.351168092321009429e-01,9.671964402303438735e-02,-4.190581692274494320e-03,2.038772444524337285e-02,1.827702999114990234e+00
-4.103454924349795307e-01,-1.539084217827406897e+00,1.010401005826556897e+00,-1.266154478229191138e-01,-8.549291993149717162e-02,6.502883060700161144e-02,2.231351852416992188e+00
-4.245630129998289037e-01,-1.102514466229618684e+00,1.145793021467951478e+00,1.860223336192966259e-01,1.056627461729877787e-01,6.084609589837440546e-02,2.034373283386230469e+00
-4.314503053813181777e-01,-9.565077441034866013e-01,1.036833430301404180e+00,1.510963423005287909e-01,-4.134049975392882492e-02,-2.597809762473372516e-02,1.810557246208190918e+00
-4.487928905538121072e-01,-9.754661236786348333e-01,1.037107165052804536e+00,6.736112292983413574e-02,2.410812387880080856e-02,-6.199769703311959826e-03,1.811998605728149414e+00
-8.574731048794093091e-01,-8.590431679989649627e-01,1.029656668857073853e+00,5.851400137501882150e-04,-7.216577906449759064e-03,5.886191016504797348e-03,1.887984514236450195e+00
-9.126176754286605686e-01,-4.294881338356525968e-01,1.166142785566655293e+00,-3.789682374462500225e-01,-1.031881954605261102e-02,-6.975293971731888129e-03,1.995410919189453125e+00
-8.712085828612394778e-01,-1.228490757999255889e+00,5.133071817758765309e-01,1.637590153561743755e-01,-1.548763620979535793e-01,-2.498962931733616777e-01,1.696747779846191406e+00
-9.381536679568582837e-01,-1.247767926942505046e+00,3.922932413252337991e-01,-4.513604291455266398e-02,1.492690788234367349e-01,2.557863121512013449e-01,1.595967054367065430e+00
-8.470768823712191420e-01,-8.357928629571688139e-01,1.061933239758622971e+00,-2.344602524019248017e-04,9.258097196133316040e-03,1.731891969233878645e-03,1.903463125228881836e+00
-6.337841921863349715e-01,-1.369142821432521417e+00,9.480009238784465886e-01,5.104168380503668057e-02,1.826675588290707294e-02,-7.157705805603704896e-02,2.056735754013061523e+00
-1.072705416766008835e+00,-3.242316381806548686e-01,9.024009922013955798e-01,-1.252808417202386226e-01,-1.848410545526465130e-03,6.295530733015106128e-02,1.744112730026245117e+00
-1.218388372194962210e+00,-7.868718201330734408e-01,9.940815313395467978e-01,-3.921330676764789858e-01,-1.339931754817791712e-02,2.820534545102466612e-03,2.142050266265869141e+00
-6.352176431756357822e-01,-7.150430763656641098e-01,1.406077827157483195e+00,-4.278253663433662646e-01,-8.790958787425762200e-02,9.415587843316189365e-02,2.221506357192993164e+00
-8.093558806390960259e-01,-8.392679241068243812e-01,8.542403919097527609e-01,9.044866147186100477e-03,-4.761607191490931784e-03,1.065761634407231921e-02,1.678946971893310547e+00
-8.968622265829974127e-01,-4.621105384289001528e-01,1.142007974250793811e+00,-3.291579427344011322e-01,1.025252697156563558e-01,-2.307233898982656017e-01,1.993957757949829102e+00
-7.756383373815396443e-01,-6.159433530222757636e-01,1.155637149003790443e+00,-1.791092845048701254e-01,-1.006703491242138121e-01,2.235366222067846492e-02,1.890781760215759277e+00
-8.907744168776590143e-01,-7.160175502350929477e-01,1.107404573172152906e+00,-3.096599221224850540e-01,9.218987146719363757e-02,-2.957532656969674364e-02,1.997461557388305664e+00
-7.847644472198047616e-01,-7.836700697088416767e-01,4.946750316750921916e-01,1.112385930313332903e-03,2.405753429261707210e-01,-2.710975770576651289e-02,1.345884203910827637e+00
-7.438756441956493326e-01,-7.739575265167406570e-01,1.022313499326032993e+00,-8.342751627588280983e-02,1.460029661567243319e-03,3.448489319060936420e-03,1.787283420562744141e+00
-2.965586327717276705e-01,-1.168882358262725685e+00,1.023633282401483546e+00,-1.516444546239487101e-01,1.720690751075300891e-03,-6.498387090471015315e-02,1.933172464370727539e+00
-7.499326984253715800e-01,-7.387818650646695851e-01,9.950226119247533862e-01,-5.994565372731509856e-02,-1.444552773330861836e-02,9.851295858580844805e-03,1.742766022682189941e+00
-7.589029852653809138e-01,-7.513205235857488562e-01,9.966435442210261897e-01,-4.201114754085906282e-03,-5.659395936445626562e-04,-2.875587038290757370e-04,1.751783013343811035e+00
-7.500888826374056961e-01,-7.595039092184100449e-01,9.927619409909338444e-01,-4.342173244921435082e-03,1.668202070860347244e-03,-1.376637746372570085e-04,1.747595906257629395e+00
-7.511161493156565117e-01,-7.743751864229776460e-01,1.002470553817593757e+00,-5.955253172902594781e-03,9.559410327054469400e-04,5.138897761606233718e-03,1.765384435653686523e+00
-1.450840987747159083e+00,-8.738540738450143452e-01,7.688002229831072398e-01,-9.833280174995802370e-02,3.789221005969996281e-02,1.228460614106959975e-01,2.014349937438964844e+00
-6.923559057371635461e-01,-8.196483502361031626e-01,1.024795524806770830e+00,3.154207821812771151e-02,-3.240445579196536002e-02,-3.349350275026700269e-02,1.786866784095764160e+00
-8.563747220058548493e-01,-7.965910289523606691e-01,1.050646392303757448e+00,4.280078568337783614e-03,1.205016428531373480e-02,-1.175412770741439232e-02,1.878084063529968262e+00
-6.946389554699249347e-01,-9.260002221395907673e-01,1.291132832574493738e+00,2.452405188117584289e-01,6.437961073582608440e-02,4.268765877123248398e-02,2.157447099685668945e+00
-8.585028715448319581e-01,-8.614014198632887753e-01,1.026955115810760155e+00,4.452950106556076253e-03,-3.780930711279113354e-03,1.057859084602322079e-02,1.887024998664855957e+00
-8.598367695842185077e-01,-8.709121247187877612e-01,1.031571424873939824e+00,8.573487266639187587e-03,-6.426571755972156248e-03,1.346259582065658864e-02,1.897204160690307617e+00
-8.639292966765221848e-01,-8.571417893146192624e-01,1.037164482507166197e+00,-2.018843768762091945e-03,4.954377642768952039e-03,-1.122016554964387104e-02,1.897831201553344727e+00
-8.556111275145893424e-01,-8.698786131599263172e-01,1.009154493966226251e+00,3.374286388489875464e-03,-3.540636403344994340e-03,1.661753143225051105e-02,1.872180581092834473e+00
-8.761333094769283569e-01,-8.245503376856677669e-01,8.774129436511288738e-01,-7.493306939855877294e-04,-9.443832813079236846e-03,-6.589130311133771511e-02,1.732173919677734375e+00
-8.511554521571317311e-01,-8.552577858263995525e-01,1.009099060553996896e+00,7.912285675828268153e-04,-2.298257917084967593e-03,7.504468154570327273e-04,1.862314224243164062e+00
-8.478371774647297521e-01,-1.041250818370720754e+00,1.273846261807407787e+00,4.958375669466758562e-01,-1.578964855708235304e-01,-9.719114389639635365e-02,2.406243801116943359e+00
-7.338682924926063222e-01,-9.983511627594204851e-01,9.022833249263142452e-01,-6.027116879448631698e-02,-2.114866475679672009e-01,6.701149580776193625e-03,1.823428034782409668e+00
-5.790546822796769355e-01,-1.475958947797266774e+00,1.103299360558025022e+00,1.965712600505257479e-01,-1.447308739855911464e-01,-5.562792940414879733e-02,2.309049129486083984e+00
-5.688529203140791912e-01,-1.256412065944381817e+00,1.782055501225299432e+00,4.229935666535766803e-01,-1.105850739006040695e-01,-8.694697471598053506e-02,2.865664720535278320e+00
-5.611358209852215229e-01,-9.879615494294423650e-01,1.113207696400383195e+00,-1.851726951134997634e-01,2.132114986465575082e-02,3.401334335440098916e-02,1.951399683952331543e+00
-8.292859420404782300e-01,-8.300616926804463835e-01,1.048240926926512273e+00,1.746994319080552582e-02,-6.846103623868352896e-03,5.485927325280125677e-05,1.878196120262145996e+00
-8.689578761787974948e-01,-8.519480713793702309e-01,9.827914467353471295e-01,-8.279311188494042559e-03,-1.080427094574581796e-02,-5.563562098304546989e-03,1.843479275703430176e+00
-7.759668022328621850e-01,-8.537742927748043220e-01,1.225856466436951342e+00,-2.581127770203313632e-01,-1.536123126585937221e-02,-3.205340345370680938e-03,2.090385675430297852e+00
-8.521359440448028622e-01,-8.961814391282204584e-01,6.821340565646596410e-01,1.998755358598817283e-02,-8.116247230362869103e-02,6.514987101562982885e-02,1.567544579505920410e+00
-7.554882886064299141e-01,-8.748108891185996105e-01,9.387837528163665013e-01,6.172250337906588086e-02,-8.718071807794271211e-02,-2.542721892962732100e-02,1.767238140106201172e+00
-6.246047036778128447e-01,-8.096316067983675424e-01,1.602316361101733255e+00,-3.959557266681998366e-01,-3.415361925724714337e-02,-9.438814149056858060e-02,2.430230855941772461e+00
-8.776659192739787452e-01,-7.157300424010409889e-01,1.148797971405561169e+00,-1.782763032283920523e-01,-2.735055989849711350e-02,3.954600173122928969e-02,1.976589202880859375e+00
-4.577296750069225761e-01,-1.131781393004692049e+00,1.125377341149213395e+00,1.407605005718959856e-01,-9.557582393946599530e-02,-6.652104550936908771e-03,2.028459310531616211e+00
-7.080956143711593098e-01,-5.935167737854720738e-01,9.953638751235860394e-01,-4.583096811316080266e-01,4.054429047944950459e-02,1.451510320578010445e-02,1.831783056259155273e+00
-5.216539829763408020e-01,-9.386025708535459255e-01,1.023500193729051322e+00,5.512630347535337622e-02,1.597716913870165720e-02,1.501963588420093289e-03,1.793177843093872070e+00
-8.688939796116486036e-01,-8.508060611294800957e-01,9.900295303513326761e-01,4.936912238253461128e-03,6.918180565696741523e-03,4.481570603587343993e-03,1.850020766258239746e+00
-6.132736445012507698e-01,-5.568794099376879192e-01,9.934333098390428773e-01,-4.368030659495279466e-01,-1.192697059817827143e-01,1.110918831010410113e-01,1.773744463920593262e+00
-8.580416226547692427e-01,-8.547529737668861927e-01,9.846067601418502235e-01,-1.955594225252638325e-03,-2.081776440908858494e-02,-1.256386851018687079e-02,1.841490983963012695e+00
-6.912569205123331173e-01,-9.747034727186694170e-01,1.098309084882728159e+00,-1.311777091921971852e-02,6.111156618688142611e-02,6.699522393966738862e-03,1.949869155883789062e+00
-6.316322085250132279e-01,-8.861148158953990883e-01,1.045971198139683755e+00,-1.071356967488900774e-01,3.264865651675926805e-03,-1.531043502048923428e-02,1.827896237373352051e+00
-6.882564219372969694e-01,-9.077660215426632817e-01,1.078064573357376821e+00,-8.647381454230407619e-03,-3.796877655614829070e-03,3.016036739162817823e-02,1.886476993560791016e+00
-8.645447632490945722e-01,-8.664412260895160145e-01,1.062765058645566585e+00,2.465526526863847257e-03,7.198726404922058467e-03,9.162940079473750124e-03,1.928369045257568359e+00
-7.635112846711364920e-01,-8.396302511914502942e-01,1.080752563569573166e+00,-7.515090713367698905e-02,-1.693628291509744616e-02,-1.446173081727324290e-02,1.888363718986511230e+00
-9.784459922835957446e-01,-3.643727782256073744e-01,1.033306948887296572e+00,9.208454048533187830e-02,-3.384693568547143122e-02,-5.190119259071777902e-02,1.796059250831604004e+00
-9.574150708069251170e-01,-5.855051976028834426e-01,1.053265456829680202e+00,1.572755879700511450e-01,1.167077789870738479e-02,6.987031057829860836e-02,1.876865029335021973e+00
-7.949226616619142760e-01,-8.829741823546755075e-01,1.067435420442307326e+00,3.331233883666260415e-02,1.102273625365557223e-02,-1.630604636352106854e-02,1.909085035324096680e+00
-4.447751220534308381e-01,-8.552176906108577281e-01,6.747675377870183677e-01,2.957386974576724503e-01,-1.270578139503122650e-01,-9.633211283858704455e-02,1.489966988563537598e+00
-3.235899695994840508e-01,-1.352712892992113058e+00,1.820965481274746001e+00,1.970620757055131511e-01,-6.182937633914031145e-02,-2.826487314953845045e-02,2.827647209167480469e+00
-9.628523532627026871e-01,-4.998909150602837137e-01,1.057536281559501745e+00,8.699155373213206255e-02,-5.874906976246090963e-03,2.407892370477508499e-03,1.839501261711120605e+00
-8.455739071229919634e-01,-5.992851759819911583e-01,9.221919798598281481e-01,1.674852529168394388e-01,-1.375886371631387765e-02,-1.425041613539313953e-02,1.683925390243530273e+00
-6.761375494587317236e-01,-9.194344408679556713e-01,1.035104073639831590e+00,-1.002871601448260090e-02,-3.048926317337988245e-02,1.039090546638930974e-02,1.845886111259460449e+00
-6.822051845737808762e-01,-9.204872555980555537e-01,1.031287100332885398e+00,3.121433741898221176e-02,5.012999192927700826e-02,3.446637095353485315e-03,1.847058892250061035e+00
-9.756322368289880309e-01,-5.633804229108347883e-01,1.073878752650101465e+00,3.045430219884940823e-02,-2.828928013631773139e-02,-2.661707155277941161e-02,1.879585266113281250e+00
-2.484719519850795699e-01,-9.883477531024779106e-01,1.085845376916410698e+00,1.701264290951925440e-01,-1.747207769423205215e-01,-7.259331508916878894e-02,1.873304128646850586e+00
-9.475730397174774167e-01,-5.604113339794608573e-01,1.070459269997492857e+00,4.230170820629785416e-02,-1.144682725076573253e-02,-1.840043174471425388e-02,1.856830835342407227e+00
-7.756611801929281791e-01,-8.012707569555733711e-01,1.020537634393902771e+00,1.036483924356829817e-02,1.429651541234766956e-03,3.730401659825915203e-03,1.809241890907287598e+00
-8.455416348746216393e-01,-8.519678844404745544e-01,1.063189680486393396e+00,-5.686033500687163664e-03,4.543226068954470641e-03,-3.577150919207067094e-03,1.912004113197326660e+00
-7.981809511767320453e-01,-7.353324284244516784e-01,1.011738751291929583e+00,-1.168364776495649238e-02,-1.350225319174118421e-02,1.593728532185022945e-02,1.779810905456542969e+00
-3.534385838677124303e-01,-1.393778736892469894e+00,1.251717381725076184e+00,1.701797379858782933e-01,1.041862608709097915e-01,8.234098587917737522e-02,2.338488578796386719e+00
-7.863027608728824225e-01,-8.721480910888288474e-01,1.003683611901874384e+00,-1.179314479517904433e-02,2.113877677715403358e-02,-4.452687025932402370e-03,1.834911346435546875e+00
-2.523499919143449843e-01,-1.046287373423763656e+00,1.205931155751239547e+00,1.201950583576850556e-01,-8.374317860975061256e-02,-5.447576179320455514e-02,1.996994376182556152e+00
-8.345342437477004660e-01,-8.657350455068835160e-01,1.049595761519866999e+00,-1.321819406139258107e-02,7.762995521022868044e-03,-5.983658677009650803e-03,1.900136351585388184e+00
-6.120739812077178321e-01,-1.354346167398319700e+00,8.629154660087834383e-01,-3.114076314167731896e-01,1.305436164903641671e-01,7.241913748948379526e-02,2.044306278228759766e+00
-4.163497229871327976e-01,-9.618614084814905985e-01,4.041225659862162090e-01,1.123636241269412167e-01,2.187039588465081175e-01,1.112924623414328351e-01,1.279399871826171875e+00
-8.285609769694225468e-01,-8.870896913171097964e-01,1.059048689261480769e+00,-1.890388904129059258e-02,2.016869654880058468e-02,8.067909405722118940e-03,1.918192625045776367e+00
-8.583458240459220789e-01,-8.495742984814877996e-01,1.026034424777659826e+00,-2.177812109579507955e-04,-5.762163460359378923e-03,-7.358048065701222953e-03,1.880079507827758789e+00
-8.407748743775803613e-01,-8.503259292656352164e-01,1.051656484444116746e+00,2.977263817192713977e-02,2.565376521105569227e-02,2.497532315085598115e-02,1.898938417434692383e+00
-7.785028972358394306e-01,-8.787112016082565535e-01,6.641540074605994937e-01,-2.540344092130270709e-02,-6.405885871006404553e-02,-1.167198186140110117e-01,1.513599634170532227e+00
-9.383003489206335201e-01,-1.031344049991106848e+00,1.226189056197154459e+00,5.591818228454425999e-01,2.234205080076421823e-01,1.732860120802722226e-01,2.464335680007934570e+00
-7.425544572104173513e-01,-7.796180690389733492e-01,2.560059135193318847e-01,-9.290350286954091735e-03,-1.072236297564764657e-01,1.370728545538759946e-01,1.061425089836120605e+00
-8.501310317339398903e-01,-8.468670760639396278e-01,1.064013065335097208e+00,4.561836947765080495e-03,-8.842148907272009018e-04,3.812566430112086877e-04,1.912531256675720215e+00
-8.760066665356828208e-01,-2.961825579079063742e-01,9.286163110373928387e-01,-3.614505771674876300e-01,-1.070695394110353360e-01,8.996572048764460428e-02,1.731216073036193848e+00
-4.360889305555844531e-01,-9.304159152983653147e-01,7.703922738425120764e-01,2.052112615569185727e-01,1.403386216558832889e-01,-1.889396334443206593e-02,1.575703978538513184e+00
-1.106169104040763074e+00,-6.848280690831340944e-01,3.572936852896022586e-01,-1.474403287337698321e-01,-7.773414429964375927e-02,-5.434437785317997038e-02,1.339715719223022461e+00
-8.359342483506919663e-01,-8.366029017281576552e-01,1.059588747630025862e+00,-1.171969226495831991e-03,1.023959769632658279e-02,-5.414693671257547747e-03,1.895964622497558594e+00
-4.695018895426754657e-01,-1.370039666496967623e+00,1.280126842493221284e+00,-3.182805116941331280e-01,1.301649107401413874e-01,2.446500634256206994e-02,2.409213066101074219e+00
-5.154742634094375831e-01,-8.075065357998595372e-01,1.193024679380172870e+00,-4.348488102550017720e-01,-1.042614151819657754e-02,1.732365991223974722e-02,2.017844200134277344e+00
-8.347067649488095764e-01,-7.969346483972249429e-01,6.718239296351419254e-01,-1.344535902945118849e-02,-1.804470829343658711e-01,-5.377217561488499553e-02,1.523501515388488770e+00
-7.345928196321303005e-01,-7.538236491626930658e-01,4.502982899418614959e-01,4.819863522146658995e-03,-6.643978817332485409e-02,-1.233822072897480110e-02,1.200371742248535156e+00
-6.605139728219497908e-01,-8.095359256581542429e-01,3.456485968205986747e-01,1.525321838452289858e-01,-1.855582443630674483e-01,3.645636674276085676e-02,1.166872739791870117e+00
-8.762730655851671546e-01,-7.963613491933496658e-01,1.063443076702131673e+00,-2.798548699792068745e-02,-2.305264701771244165e-02,-1.243232337267984218e-02,1.902179241180419922e+00
-2.928574487456049869e-01,-1.323091614600157007e+00,1.763930286658383251e+00,2.478608458419172822e-01,-4.560885270193719421e-02,-7.420108856351775861e-02,2.760035276412963867e+00
-8.678702906405909578e-01,-7.837203129031884430e-01,8.914825294336825579e-01,5.368448900858917468e-03,-1.609271212025663658e-02,-4.569185916906341738e-02,1.720895290374755859e+00
-1.243161181344830890e+00,-5.541015848557567791e-01,5.219809248059522622e-01,-1.251302385866533695e-01,-7.694997404667502927e-03,-2.580794566789749167e-01,1.619014263153076172e+00
-8.188767035614272771e-01,-8.524030256772299197e-01,8.597355087273701457e-01,8.285752987862828392e-03,-7.335858419373515737e-02,1.114877071568723746e-02,1.700548171997070312e+00
-9.061436075961442072e-01,-6.129843436606228213e-01,1.024772500560970467e+00,1.729242454065970172e-02,3.038495164715567312e-02,4.020650346547750137e-02,1.804668903350830078e+00
-8.539628457066257283e-01,-8.548335676216142209e-01,1.009633847304586274e+00,3.718901290369936146e-03,-8.782450943932611567e-03,1.342430397850629883e-02,1.864250421524047852e+00
-7.577000536296473188e-01,-8.461086758427959209e-01,1.036937531557790670e+00,-1.226553649702632684e-02,-2.612387173328005810e-02,2.794135393165159478e-02,1.841749787330627441e+00
-7.573427685922377028e-01,-8.936724901018511247e-01,1.064165658670127579e+00,-2.044347805011709554e-02,-2.924912331263557902e-02,-1.725964599492430494e-03,1.894369006156921387e+00
-7.826801369727192093e-01,-7.885337117173347732e-01,1.019831424019415067e+00,-1.803968835994363210e-02,-8.861491199330502611e-03,1.133939823581094596e-02,1.805887818336486816e+00
-7.722720653630427146e-01,-7.863323296874781265e-01,1.016667923264087170e+00,-6.490112005149121718e-03,5.888887112349975445e-03,7.463334461883708651e-03,1.796122074127197266e+00
-9.499688389227211038e-01,-5.380075054735306006e-01,1.045432483341925067e+00,-1.235385824400986737e-01,-1.199821558918725065e-02,5.570459182520233130e-03,1.837286233901977539e+00
-1.383348425642199953e+00,-4.747660449490784251e-01,1.683262863624572114e+00,-3.709786198718246775e-01,2.116279329520336788e-03,-1.839448574192581801e-02,2.803080797195434570e+00
-8.300681477811783227e-01,-8.242386377540169562e-01,8.505312928917017068e-01,1.392637884398250855e-02,4.972765407941043270e-02,8.164105820793654891e-03,1.680134415626525879e+00
-8.269971932751458699e-01,-8.135675151558525720e-01,8.210844711420397513e-01,9.263017111480861127e-03,2.061991459473817151e-02,-2.001225257108119396e-02,1.642240762710571289e+00
-9.613118901365130808e-01,-9.866124130212319265e-01,1.058196761297122368e+00,-5.486743587237673525e-01,4.239865412770989217e-02,3.111360695215250900e-03,2.244705438613891602e+00
-8.633245795256286881e-01,-8.597528949923979313e-01,1.049833376093017412e+00,2.609311049271383423e-03,2.287501158460923580e-03,-6.661518617635486111e-03,1.911418914794921875e+00
-1.138132435858924207e+00,-1.132445269164078949e+00,7.800801626130218214e-01,-3.541485950832155560e-01,1.064651283243910583e-02,1.724462639689889609e-01,2.033341884613037109e+00
-8.875528323654396923e-01,-8.744660862284978631e-01,1.026206224095333130e+00,-1.184373232842267235e-03,-1.252030722694442814e-03,-5.901534986120694076e-02,1.909988880157470703e+00
-8.663516189993366590e-01,-7.507410318141601868e-01,1.042596819963408361e+00,-9.326451429698937381e-03,-1.288341677728223333e-02,1.476397532636593811e-02,1.854229807853698730e+00
-8.637245230381778160e-01,-8.018259510816835300e-01,1.099387675643393125e+00,-1.244352585379292636e-01,5.089464376927085865e-02,-4.026602423692220156e-02,1.948130965232849121e+00
-8.024551213384912840e-01,-8.396053780100005692e-01,8.315660354156833023e-01,-2.705571074310445315e-03,-2.041911181034797382e-03,-1.136584715439509577e-02,1.653037071228027344e+00
-1.430165252911961726e+00,-3.190773169407428167e-01,1.776306285545236952e+00,2.417407095463684208e-01,-7.122610932888151503e-02,-9.336848979383308156e-02,2.858319759368896484e+00
-8.631610595420927678e-01,-7.411080427852257957e-01,1.027734414346473057e+00,-4.199419797685144395e-02,1.383870575080264030e-02,2.160320496646464528e-02,1.834900021553039551e+00
-8.716053831899180926e-01,-8.562394165517364097e-01,1.029652197016364346e+00,-8.561147907909914421e-04,-1.878656595903125488e-03,-9.767110202047157505e-03,1.893700242042541504e+00
-1.241080312043757461e+00,-1.102784996423700203e+00,4.587248873855989117e-01,-4.127122541131595518e-02,-1.334413804318753394e-01,1.245653530731327396e-01,1.666873574256896973e+00
-7.988030808555401929e-01,-7.921107250047714210e-01,6.501373991998187218e-01,-1.233483078881792046e-02,7.084484963557562132e-02,5.626424472381294506e-02,1.454230666160583496e+00
-8.227604767392584506e-01,-8.367521075794717156e-01,8.513132345325269412e-01,1.688023955559506475e-02,9.472499098419306235e-03,5.115362250218966067e-02,1.683780193328857422e+00
-1.263609585194960472e+00,-6.010044025680350011e-01,3.338079167943123204e-01,-1.370911638418699507e-01,1.826237666036726812e-02,5.924287763723690495e-03,1.410609483718872070e+00
-7.887131476018378606e-01,-8.156620260359768171e-01,7.000860972281115480e-01,-5.566296871898984092e-04,1.682398461326831823e-02,4.656212640052726642e-02,1.504900336265563965e+00
-8.898813480373155560e-01,-8.393016858640977018e-01,7.202195106987225870e-01,-3.951982811628268477e-02,-3.209842896262271508e-03,2.135816044383161694e-01,1.629451513290405273e+00
-5.324807739467910528e-01,-1.368212151567216761e+00,4.642139747405042982e-01,1.591092368374533161e-01,1.759475653021839309e-02,1.402983507954791154e-01,1.631178498268127441e+00
-1.265522850368168584e+00,-5.046949461799146164e-01,3.909337064098289405e-01,-2.029112268506371719e-01,8.004360544923153076e-02,1.295614319397687952e-01,1.501841306686401367e+00
-8.302914990788657912e-01,-8.450331395354940822e-01,8.877126650334061786e-01,5.207885439464370048e-03,-1.547524275555547555e-03,-1.585881611528522014e-02,1.725666522979736328e+00
-7.996005613909449306e-01,-8.183614324357655345e-01,7.596695333177589937e-01,-8.146269735655596589e-03,1.728662443613986077e-02,5.291829237876894548e-02,1.571758627891540527e+00
-7.763250079044479168e-01,-1.352801137670420317e+00,8.232321011726702054e-01,-1.270646818756561991e-01,-1.901224559744508769e-01,-9.805019143683514626e-02,1.999682903289794922e+00
-8.243054898895737503e-01,-8.018762585935861331e-01,4.910085616198638370e-01,-1.679327495450424479e-01,-3.041084962432661354e-01,-4.343928676976645253e-02,1.438319802284240723e+00
-8.034089362411500623e-01,-8.654782964389683420e-01,1.031260750444522811e+00,-5.834762316029273345e-03,1.567195377531830497e-02,-1.057849585158692103e-02,1.866793274879455566e+00
-8.610491436160252476e-01,-6.340488400633853550e-01,2.939234246254500693e-01,-6.771045347657853042e-02,1.413212856919388583e-01,1.741226131384779885e-01,1.134873032569885254e+00
-7.523216626160503795e-01,-9.767973396446791856e-01,7.592926414554832526e-01,3.557672392509733106e-01,-1.027955124597816211e-01,1.616494706992838409e-03,1.756731986999511719e+00
-8.158471536570833793e-01,-8.151761443193434875e-01,8.053150342161286002e-01,-1.486331848430511200e-02,4.582593898584965374e-03,6.897530083481189650e-03,1.621094703674316406e+00
-8.401566585096599260e-01,-8.007939136167183669e-01,1.047743054165247711e+00,2.467559171319935480e-03,1.338159442864093711e-02,-1.064542864902209146e-02,1.868768930435180664e+00
-8.169356696163091458e-01,-7.909971068919253723e-01,1.024061877458125602e+00,4.023531006687931788e-02,2.774117733922113176e-03,-2.609202972664283020e-03,1.829505920410156250e+00
-8.458624147828320838e-01,-8.249664306984871853e-01,8.242753992977449595e-01,6.701478509531509946e-04,-1.336339680876558189e-01,9.000857971540555599e-03,1.675922513008117676e+00
-8.621671059115519897e-01,-7.488556452426340382e-01,1.040468192700319650e+00,1.006717394152514301e-02,1.168247512596650578e-02,1.464746547684458826e-02,1.848953008651733398e+00
-7.764990633232979889e-01,-7.585715101013251749e-01,6.122189129894902715e-01,9.735322607227236621e-03,-6.159573592765113514e-02,-3.926985029972993729e-03,1.384079217910766602e+00
-8.362153168420829452e-01,-8.192788223167675188e-01,1.052820603269224442e+00,-8.084925503741681799e-03,-4.703363783795002327e-03,-1.753333780956179010e-05,1.880694627761840820e+00
-8.636808299045158899e-01,-8.631762595970268181e-01,1.063121767488961700e+00,1.496192492565494650e-02,2.825104352009053313e-02,2.404973978760803141e-02,1.927796006202697754e+00
-8.207135070627786799e-01,-7.954633145132360417e-01,7.738665552316414953e-01,3.786247346830891227e-03,-4.414537458504217554e-02,-1.600140918658116270e-03,1.583968639373779297e+00
-9.239491349887756222e-01,-8.731641106779436390e-01,1.053642681278561088e+00,-1.244393379376201869e-02,3.698073195123600942e-03,-1.458516635215709656e-03,1.952825784683227539e+00
-1.116607414477746030e+00,-7.692145887821341121e-01,1.284432296456633260e+00,4.913782419421595660e-01,-1.024132735371263841e-01,-1.450845463483767528e-01,2.422919988632202148e+00
-8.572169489885809179e-01,-1.013602656381048295e+00,9.158454647610434485e-01,3.985572248036403642e-03,-1.106873823672026441e-01,-5.350522803400333677e-02,1.868389606475830078e+00
-8.490280273137825739e-01,-8.670446869235353127e-01,9.981961836686539247e-01,2.615996114460391458e-03,-1.261247826542371501e-03,-8.394412109814831241e-03,1.856361865997314453e+00
-6.617019639696329891e-01,-8.855768018644801787e-01,1.156011522806787539e+00,-2.165661658618573404e-01,3.448264856576917919e-02,-6.003819991970473641e-02,1.978945732116699219e+00
-8.270947030023632074e-01,-8.207283245017600315e-01,7.947570759357096559e-01,1.328038624848636509e-02,-6.240035791426247480e-02,1.687331982367220456e-02,1.622708559036254883e+00
-7.874440659617896188e-01,-7.908597594609132475e-01,6.627756642322475411e-01,-5.309806811363980590e-04,-5.064548239615971476e-02,3.919598239941517008e-03,1.454594135284423828e+00
-8.054431200335319119e-01,-7.839692248297533972e-01,7.137709427673684104e-01,-2.604899567020826055e-03,1.509246624782328156e-02,-2.079826855691052287e-02,1.509254932403564453e+00
-9.200436241530469683e-01,-6.293801823571876231e-01,1.038221677494226558e+00,-5.082437378737741929e-02,7.819641959977689794e-03,-2.405099332459745623e-02,1.832964897155761719e+00
-8.971054472734283358e-01,-8.027013725002313249e-01,1.088568998037595215e+00,1.464918531794834333e-02,-1.393559389629547840e-02,1.169330734394671487e-03,1.940512776374816895e+00
-6.229052188152757186e-01,-1.062464661578705893e+00,1.211809471149235762e+00,-9.616391198428837772e-03,-9.705273764812267709e-03,-2.575385997776713509e-02,2.090073347091674805e+00
-7.893882029009064993e-01,-7.633098269201501473e-01,4.951911360474330337e-01,-4.275553246656269707e-02,-4.442633572954938354e-02,3.089296962933870891e-02,1.277338147163391113e+00
-7.357809606130234492e-01,-1.176821177618456948e+00,1.394250601661557454e+00,5.266631731202880973e-01,-1.896567438221763990e-01,-3.195055464130899109e-02,2.571784257888793945e+00
-1.079526131045798643e+00,-1.151884032406283120e+00,6.380383723264129170e-01,2.607223662737189751e-01,-3.052895328576380948e-02,6.322018077587501783e-02,1.816110610961914062e+00
-4.652168341633489690e-01,-8.808578283128148945e-01,1.082190477671740370e+00,2.834715324522555924e-01,3.639862262291046306e-03,7.587636895934872505e-02,1.862464070320129395e+00
-7.342227280826645330e-01,-7.534891718792167126e-01,4.522925290576025326e-01,-9.047520305686536715e-03,-7.520530408659220623e-02,3.411134234185569242e-02,1.204887270927429199e+00
-7.361508136521646151e-01,-9.072267539942967529e-01,1.049989029178750144e+00,-1.869477934392308784e-03,-5.359099591769077298e-02,1.215464258902533047e-02,1.879946231842041016e+00
-8.520248753190464708e-01,-8.863430054509834344e-01,1.066710636483798602e+00,2.571217972355532670e-03,2.486987588085547152e-02,1.227398216812526817e-02,1.936723589897155762e+00
-7.951782547096519771e-01,-7.902009116131689659e-01,6.672339265349105375e-01,3.134979399896871237e-03,-6.483826593931633908e-02,1.980616676883597063e-02,1.464654803276062012e+00
-5.033246186598241412e-01,-1.268106532079412929e+00,1.619688698349296407e+00,3.405121059212621315e-01,3.736953112588535606e-03,-2.095118103214745064e-02,2.657992362976074219e+00
-8.346432953058341431e-01,-7.870481126798201110e-01,6.711812474279345020e-01,2.496594180424655234e-03,-1.606271810877575590e-01,-6.470359316161838209e-03,1.508525967597961426e+00
-9.325916056148506605e-01,-5.417560633647325874e-01,1.113091823666712443e+00,-2.733282047105345391e-01,-1.194381476783859010e-02,-7.946796556674113818e-03,1.939791083335876465e+00
-8.227613488020522059e-01,-6.112252748293727223e-01,1.083013744700146441e+00,-4.212473120613306476e-01,-2.371302557700009916e-02,-1.125126442302907537e-01,1.961019635200500488e+00
-8.646630886037520725e-01,-7.292709976103161074e-01,1.093813975122471582e+00,-3.117813790116274464e-01,2.856045225284662564e-02,1.437705427653075338e-02,1.970657587051391602e+00
-9.799941004761274499e-01,-1.302323091570858793e+00,6.523010100040749215e-01,8.015475170867879945e-03,-7.967411594871896818e-02,-5.232846509608655300e-02,1.822600007057189941e+00
-1.043751548951876051e+00,-6.620767759260191010e-01,1.297632710140463441e+00,-1.859851315351540579e-01,1.866958761259456673e-02,-1.098016307410462286e-02,2.199837923049926758e+00
-5.800114380095986455e-01,-1.175146428330345216e+00,5.603962173837230276e-01,-2.694124727667567276e-01,1.604378524322508381e-01,1.427942003607520494e-01,1.639985561370849609e+00
-8.576380698312247031e-01,-8.606565825958243376e-01,1.102051425017679609e+00,-4.007848243555279383e-02,-6.063089828616616966e-03,1.788096643489560031e-02,1.962701082229614258e+00
-9.136480746627095861e-01,-7.535697400893696107e-01,1.090305834862344447e+00,-1.328530191905779589e-01,1.674858226017850518e-02,-2.649245871683939685e-02,1.943338274955749512e+00
-7.992589120485175114e-01,-7.884592641706031912e-01,7.002585294652260428e-01,-4.178517117731390257e-03,-1.462814009760558115e-02,4.997724198337954397e-04,1.494379520416259766e+00
-7.645597927825895646e-01,-7.620697464048251657e-01,5.831928127865091405e-01,-4.910155051477526483e-03,-5.570138482857665829e-02,-2.758106261151344052e-02,1.350832939147949219e+00
-9.303433010921927648e-01,-5.238378694696891325e-01,1.605421994701863753e+00,-3.885850244947021137e-01,-7.938225757827942208e-02,-1.029243548964179078e-01,2.463377714157104492e+00
-8.538707596255442622e-01,-6.481127768725954974e-01,1.381706165574186240e+00,-5.612385535067708764e-01,5.709597287748065936e-02,4.766397779293851666e-02,2.354084491729736328e+00
-1.063740832268818437e+00,-1.322097708979075303e+00,6.063940601537223252e-01,-7.086202754457308906e-02,2.212101753768944828e-02,-3.886157948885032160e-02,1.818970203399658203e+00
-6.877157464089838079e-01,-6.108877857835820491e-01,1.181032322701260018e+00,4.174471470694009478e-01,-8.991786292427533800e-02,-1.346107962193770768e-01,1.988957524299621582e+00
-6.617750675736693289e-01,-6.319925768320532322e-01,1.069194174523776963e+00,-4.579039517471161225e-01,8.689100840183912322e-02,-1.753050453299423439e-01,1.920797467231750488e+00
-4.158594598826312883e-01,-9.597264420359065129e-01,1.015591876158909557e+00,1.381635993175962807e-01,1.397143651074313729e-02,3.552921838012766502e-03,1.783607125282287598e+00
-4.465238698382900662e-01,-1.112839875827819736e+00,1.312360000887776712e+00,2.272378001400248981e-01,7.042467162257413926e-02,-9.302989657128528031e-03,2.208997964859008789e+00
-8.718151527511995846e-01,-8.638063432944141917e-01,1.037780199560345507e+00,6.934185020414272097e-04,-2.455164006174108122e-04,1.115637798438162860e-02,1.905701994895935059e+00
-7.958197633220152056e-01,-6.944114317495216904e-01,1.002581967089068549e+00,3.040233686505783642e-02,-3.498531313574854921e-03,5.561145333918027754e-03,1.750731825828552246e+00
-9.151882420052028788e-01,-8.579743048912508163e-01,1.764008987133357520e+00,5.794292246995453866e-01,-4.544156974589450698e-02,5.276462573182605365e-02,2.837224960327148438e+00
-8.594983004748205646e-01,-8.565234705106187230e-01,1.016939832196088744e+00,-6.295016608458522782e-03,-1.122944285848927366e-02,-1.500935000088093711e-02,1.875265240669250488e+00
-8.362039394716208607e-01,-8.598280810871706814e-01,1.050916854002355461e+00,1.061517458554336532e-02,1.348504267958158809e-02,-7.550468990149338672e-03,1.899320721626281738e+00
-8.603258230656709582e-01,-8.603759260435132061e-01,1.038917249555284084e+00,-3.371520278519353660e-03,1.704454746926125763e-03,-5.085968598983177900e-03,1.899299860000610352e+00
-7.866437236839242120e-01,-8.855208004471187833e-01,1.202389413757130487e+00,1.937852245230017312e-01,2.116533042083508509e-02,1.071022606606821491e-02,2.068101882934570312e+00
-1.003180933882020565e+00,-7.782724844972419564e-01,1.604404715900829226e+00,4.912265458472229729e-01,-5.087310064779398261e-02,-1.831154457969139393e-01,2.663810729980468750e+00
-8.596452868418618110e-01,-8.547621860965680662e-01,1.046298301549524856e+00,1.768269211013258780e-03,-3.008511153037888956e-03,-2.715663507242961714e-03,1.903522133827209473e+00
-7.365673437716403482e-01,-9.307541570328048408e-01,1.877824146572789399e+00,5.907079878685367325e-01,1.432699630519281356e-02,2.322538138708685196e-02,2.903355598449707031e+00
-9.654559573187125876e-01,-6.699117834252354964e-01,1.049758116771648986e+00,1.150306651964533300e-02,-2.033838050792292212e-02,4.267848665855044493e-02,1.886783361434936523e+00
-8.609635583413887128e-01,-8.642809550071548497e-01,1.068421622950626038e+00,-3.730427417795224333e-04,3.783001917577243165e-04,-1.518971991728404946e-03,1.931048035621643066e+00
-8.504639832756797357e-01,-8.559475019662583506e-01,9.643893407476706869e-01,-7.725512817144678662e-03,4.930446794424872027e-03,2.572426986823905457e-02,1.818216562271118164e+00
-8.323468922984427198e-01,-8.478865239391696340e-01,9.173476010100829470e-01,2.645190779616583485e-03,-3.138645349244498228e-02,-4.275363939744106223e-02,1.759920954704284668e+00
-9.085682129586253319e-01,-5.760052955711505440e-01,1.012923809945245557e+00,2.694774306131928615e-02,-4.334246601797258659e-03,7.875839881558233460e-03,1.779363274574279785e+00
-8.449100990523319421e-01,-8.571070368728086475e-01,1.059749673784551538e+00,6.146813493528260246e-04,-7.084714295352726419e-03,-9.553592895248194661e-03,1.910898804664611816e+00
-1.087804543188024997e+00,-4.030210300597848461e-01,1.122606981475213539e+00,1.061366226293136185e-02,-4.278319124284649111e-02,1.257055536330761725e-01,1.973430752754211426e+00
-5.207532565534824798e-01,-1.359535472153630353e+00,9.277254346125727302e-01,-3.519018941171729864e-01,6.969582375720941025e-02,-1.112828739106852122e-01,2.107091188430786133e+00
-6.158539272409082610e-01,-9.884551340385763218e-01,1.091815551073467283e+00,4.576763593425062226e-02,2.831355980067378278e-02,8.420899419475712331e-04,1.923522114753723145e+00
-8.586190413092883444e-01,-8.688584049695567968e-01,1.020371060654132078e+00,-8.835408712946166837e-03,6.302003464195694502e-03,-6.585216427485653286e-03,1.884258985519409180e+00
-9.796039824821219932e-01,-5.143985813566889220e-01,1.057652934068352035e+00,9.107084488050379290e-03,1.250994739566572804e-02,-1.480122606922784981e-02,1.849449753761291504e+00
-8.701814409731535305e-01,-8.412981826978142008e-01,9.782203723414302221e-01,-8.491353576518603785e-03,1.210474653710680477e-02,7.223137412572082534e-03,1.834352254867553711e+00
-8.596242267968631223e-01,-5.995243605215121452e-01,1.005217625329235087e+00,5.400174206554970990e-02,2.870419651437354936e-03,-9.917934432713495022e-03,1.751944780349731445e+00
-8.806150787094731980e-01,-8.639575781448317615e-01,7.309411954292950320e-01,1.192803503637058886e-02,6.654418653748415957e-02,-2.411034502057566864e-01,1.660918593406677246e+00
-8.701574246695452652e-01,-8.419614108540952602e-01,7.779238285053655666e-01,-2.899944709321090885e-02,5.288202495888911191e-03,-5.532145323558303879e-02,1.637768507003784180e+00
-9.087624429063800857e-01,-7.888483468588484149e-01,9.529676582938677587e-01,-1.759036152630413449e-02,-2.202621100805840504e-02,-2.954029405190192192e-02,1.806148409843444824e+00
-8.066729094789872878e-01,-8.115530904429409942e-01,6.140102319352651605e-01,-8.542629089491696540e-03,-8.858912508438250566e-02,-1.351843595863212177e-01,1.450477480888366699e+00
-8.472911711728767781e-01,-8.654487111829421986e-01,1.042958195782674125e+00,1.413224379687511066e-03,-1.943016149455974867e-02,-5.830995358010212896e-03,1.899719834327697754e+00
-9.004704590331394920e-01,-7.697537386562390838e-01,1.066153470564607186e+00,-1.762051002256929955e-02,-6.642456644881957438e-03,-2.190763982418800909e-02,1.905289888381958008e+00
-8.655982485313583608e-01,-8.286874884472810177e-01,8.908741295687196970e-01,-1.818716971849486039e-02,-3.942234998454866718e-02,3.229706313162790127e-03,1.739945650100708008e+00
-7.811408079183005393e-01,-1.270963914204399803e+00,1.021230401312235969e+00,4.386986278465080380e-01,-1.659339694200422377e-01,-6.770469198333856076e-02,2.246115684509277344e+00
-8.503901196738034018e-01,-8.606792464114770835e-01,1.043867566196431618e+00,1.756476933730292391e-03,7.961785491313802879e-03,5.672083114527773189e-03,1.899501085281372070e+00
-8.961651726312998001e-01,-9.496414311530426700e-01,8.066199798346820327e-01,3.773029972258075404e-02,-5.829120682743725405e-03,8.329956555747569658e-02,1.737407445907592773e+00
-1.007088143162371052e+00,-1.030601369797300437e+00,6.707313186517129822e-01,-3.342435260775479811e-01,-5.182422979792318529e-02,-8.978885538456941873e-02,1.795127153396606445e+00
-1.319543111450604655e+00,-1.019406738696810200e+00,5.377980062511098502e-01,-1.415776155338577813e-01,-6.609234436914411537e-02,-2.309869310749150251e-01,1.793221831321716309e+00
-1.047517586786886001e+00,-8.441128069043377646e-01,5.588049457541557352e-01,8.477611084201074065e-02,-3.087751595717823649e-01,-6.999236567889095817e-02,1.617774963378906250e+00
-8.821227412235896903e-01,-8.289376357647330051e-01,9.410576721433185909e-01,1.357119465657191139e-02,2.560114340800827715e-03,-1.664168921721904115e-01,1.820303678512573242e+00
-7.543333108649662444e-01,-1.008770189223786584e+00,1.092835577031852301e+00,-1.485219453839703441e-02,3.772158333518471629e-02,4.606462875186345673e-02,1.989486217498779297e+00
-9.294307304964852801e-01,-8.378350549075226361e-01,7.691951699387760133e-01,-1.064452133704922587e-01,-7.143490856804950162e-02,-8.785295595962537563e-02,1.676480770111083984e+00
-7.192954329020243565e-01,-8.668923212483122809e-01,1.023040302213651831e+00,1.597686060814889827e-02,-2.508415936375792479e-02,-1.513008390764333452e-02,1.821543931961059570e+00
-6.850736488723406792e-01,-1.121174216333707285e+00,8.947159600821803505e-01,-1.922932611129037350e-01,1.300756389806689561e-01,-2.317852971347050539e-01,1.922947883605957031e+00
-1.362382313529994504e-01,-1.473364013035342923e+00,1.302049418920652624e+00,-1.474348723018950869e-01,-1.573813395214286592e-01,-7.897525064593274857e-02,2.436796426773071289e+00
-9.339248796386355744e-01,-5.078068693843537096e-01,1.004424979920175653e+00,-3.653642021139082846e-02,2.961035752533797420e-04,-3.334843375598788712e-02,1.766395330429077148e+00
-6.345059541146369497e-01,-1.198668332636878109e+00,1.377682426510271618e+00,4.132105936758115883e-01,1.542469405664120274e-01,4.867689508634382572e-02,2.468419790267944336e+00
-6.750160845244496111e-01,-1.040732450526844710e+00,1.682108641847935404e+00,5.008697401821210482e-01,1.429276463268742414e-01,1.339363985977453098e-01,2.723882913589477539e+00
-9.414637746603577995e-01,-6.928256092023363788e-01,1.042688802710741713e+00,-2.149328767972497403e-02,-1.738561130280183139e-03,3.743465976303760046e-02,1.873751640319824219e+00
-2.682997633078618716e-01,-1.479464406089504136e+00,1.624132946713920722e+00,-4.722450286718340301e-02,-1.978967537014379025e-02,2.092375186727237282e-02,2.710986375808715820e+00
-7.701998873430359049e-01,-1.051624748696421197e+00,8.741714843517582878e-01,-6.777180967305393433e-02,4.391493471323409947e-02,8.553019943121502322e-02,1.813128471374511719e+00
-8.902142396182599615e-01,-7.114820891131716785e-01,1.035508665177914400e+00,-1.402801325706545463e-02,-3.317049657595215473e-02,4.773607753648120844e-02,1.845777034759521484e+00
-8.163795520932026761e-01,-8.328276066458544236e-01,1.053094108347491176e+00,2.738602781547566645e-02,-1.589417850624498876e-02,-1.998719893412103515e-02,1.878871440887451172e+00
-3.844090185378713498e-01,-1.159397894058272538e+00,1.631737982659358988e+00,2.700814018137518424e-01,-3.697493290718751463e-02,2.089625243570564228e-02,2.540116310119628906e+00
-8.560366407448720683e-01,-5.994093542788525575e-01,1.004094162368902143e+00,4.656028274515706944e-02,-1.572378964188852384e-03,6.799474690165017814e-03,1.747922658920288086e+00
-8.950106276089789814e-01,-7.774978565582483236e-01,1.056672125004297413e+00,-6.550853310118289266e-03,-1.112882939926414065e-02,-2.445917918166386554e-02,1.896265387535095215e+00
-8.072664564599447701e-01,-7.389607407609619649e-01,1.031235042076733777e+00,6.827419404826072513e-02,-9.102530322538691238e-03,-3.086372925352737565e-02,1.810045242309570312e+00
-8.123939671720113997e-01,-8.029171872890615846e-01,1.037702328803912666e+00,4.059375199604842686e-03,1.764523676496333390e-03,-1.398158124046551889e-02,1.845551013946533203e+00
-6.542945363267402836e-01,-9.915567839175503106e-01,1.864400040588424901e+00,5.018337580502724160e-01,-1.077937815788983233e-02,-1.963179362395636035e-02,2.839726209640502930e+00
-8.612587013971325645e-01,-8.647648162495994439e-01,1.061428577897015169e+00,-2.569555600991061447e-03,7.696647376572744378e-04,-3.576223223101323775e-03,1.924458265304565430e+00
-2.599746666394887051e-01,-1.412879977028430378e+00,1.833995592662356344e+00,1.588219201327282781e-01,-7.512576808696676441e-03,-3.066576673747849896e-02,2.864736557006835938e+00
-8.718295029496102577e-01,-8.413873915821674654e-01,1.052694961916589067e+00,-7.347192321561188920e-03,-2.059927323466080335e-03,1.364539105614867576e-02,1.909677386283874512e+00
-8.130468722721071462e-01,-8.329157364334266456e-01,1.046727695452606799e+00,8.190595927900360881e-03,1.467370836354769253e-03,4.868135898655658565e-03,1.869862675666809082e+00
-5.729183934937058797e-01,-9.269264904232836777e-01,1.179108138554671559e+00,-2.499806492692214499e-01,-1.197732366075325294e-01,8.110217950133224996e-02,2.016281366348266602e+00
-8.544716898957055440e-01,-8.554052729245527065e-01,1.067174165958302279e+00,6.766946778576558939e-04,-5.635481223082626501e-03,-4.109223360671528623e-03,1.922151088714599609e+00
-6.452469113101898524e-01,-8.548475151915914116e-01,1.006614716607733051e+00,-5.287160348280531275e-02,1.620482847246983507e-02,1.550708626582108889e-02,1.768814802169799805e+00
-3.473048943056502580e-01,-9.003392600785296018e-01,1.186782026138835544e+00,-4.234020543857400787e-01,-1.365641610861672572e-01,7.883345619862830445e-02,2.029796600341796875e+00
-5.240943413305725329e-01,-7.179562422318706005e-01,1.105337221516940138e+00,-4.554119234345982425e-01,-7.011129497989973536e-02,4.868168972574864889e-02,1.911170005798339844e+00
-4.765011724813418836e-01,-9.731209555932380795e-01,1.048505497758274174e+00,-1.063388536819083185e-01,-1.764364462510208467e-02,-2.544971479979227843e-03,1.834257960319519043e+00
-1.059796762986179086e+00,-6.588384088218653956e-01,1.525678977535262826e+00,-5.227426706813925739e-01,-1.388089461546408374e-02,1.036214016348910305e-01,2.580960035324096680e+00
-8.422697231486164782e-01,-8.224902665342467278e-01,8.692483823298378098e-01,4.934899478887474784e-04,-9.296327206188110051e-03,8.146740514521727495e-04,1.701791524887084961e+00
-2.460746031810724377e-01,-1.499887002851362006e+00,1.777902405917611839e+00,-1.533832449575326939e-01,-1.406239758374593042e-03,5.847582192729227149e-03,2.876960754394531250e+00
-2.801304146509175919e-01,-1.512591956559917294e+00,1.891516628610047768e+00,-1.000557669483177065e-01,-6.387807124473435239e-02,-4.685595980123079957e-02,2.993383407592773438e+00
-9.324656092323586609e-01,-6.698153744666968112e-01,1.040260654090737313e+00,-8.367264299017622420e-03,-8.011849774669316249e-03,6.129382317485326109e-02,1.858539819717407227e+00
-8.452349214947749712e-01,-8.501996616291110920e-01,1.054795460889866643e+00,4.122298535822635328e-03,-8.339678902558905760e-03,-2.822510912647353820e-03,1.902592182159423828e+00
-2.775536858153392905e-01,-1.343178227724139084e+00,1.691336919370559633e+00,-2.284507721107533473e-01,4.993361583324679859e-02,-5.019445112388247997e-03,2.697092771530151367e+00
-5.478796314330602879e-01,-9.631901478989378651e-01,1.044873019512081669e+00,-1.437886052324631111e-02,-4.128642069890774147e-02,1.440920566278379965e-02,1.837712645530700684e+00
-8.458107080951953183e-01,-8.593307249184154450e-01,1.061415995913351340e+00,4.243787421607227162e-03,-7.379967868874812674e-03,-3.985439547278764316e-03,1.914091825485229492e+00
-8.289595476623657921e-01,-8.458898377888127706e-01,1.056148857913023820e+00,3.895492435012230630e-03,-1.057980400216875123e-02,-1.381766429779635562e-02,1.893882274627685547e+00
-4.981553037237802517e-01,-1.094853384465913182e+00,1.734620131067561077e+00,-5.252146753614816976e-01,1.945398602486246575e-01,-1.330344313891344277e-01,2.769081115722656250e+00
-8.437877916424790792e-01,-8.555969605618781726e-01,1.066889223026102451e+00,6.269019768351635595e-03,3.482906940541205271e-03,2.736700826258817339e-03,1.916654944419860840e+00
-7.823855146200793254e-01,-8.785255256948598657e-01,1.127230337388830383e+00,-1.960714708939957640e-01,-5.715405810330721065e-02,-1.829681858333086220e-02,1.991382002830505371e+00
-1.013909857011792148e+00,-7.236471847989772721e-01,1.671696603189823715e+00,-5.248718678133534876e-01,1.624806340175066754e-02,1.292617131010991363e-02,2.710160017013549805e+00
-5.851026389757605362e-01,-1.212206686164555736e+00,1.512532205599747215e+00,-4.818803432880975346e-01,-2.046487650017352333e-01,2.045153472216004464e-01,2.656410217285156250e+00
-8.686807025270917304e-01,-8.510967491514481731e-01,9.807802053175456169e-01,-6.118411467785576582e-03,-2.359399211824515091e-02,4.615273392171206890e-04,1.841216206550598145e+00
-9.469250674375601085e-01,-6.094473843234765598e-01,1.174410450328516875e+00,-1.056360123485647617e-01,1.608635601423460916e-03,1.911809009632751966e-02,1.983086824417114258e+00
-4.043447155780404145e-01,-1.005446534343578779e+00,9.494022203475713795e-01,-2.080012917557644003e-01,1.147396520343707538e-01,-2.724105260144632154e-02,1.783033728599548340e+00
-5.637553153235561609e-01,-9.410321125237716133e-01,1.031788805639840545e+00,-8.345971778434235766e-02,-4.990991576342430902e-02,-2.079115794940607567e-02,1.822011828422546387e+00
-7.615600468849028637e-01,-7.411433717278548272e-01,5.005292113442338930e-01,1.256967775008761140e-02,-1.292176235628894089e-02,7.353038489929007715e-02,1.258854031562805176e+00
-8.537233775058519214e-01,-7.302186130094845407e-01,1.031906672684641313e+00,-1.522322561405183017e-02,1.086412174379522075e-02,8.994197335557320427e-03,1.827364683151245117e+00
-7.272420738051473821e-01,-8.445034223276967067e-01,1.030947497547969549e+00,-1.767771549861423333e-02,9.580559867238623573e-03,2.239885147265390647e-02,1.820402860641479492e+00
-1.047990973630138711e+00,-8.661179919250957537e-01,1.064104272123845618e+00,-5.854412771631471030e-02,-5.828151332724518241e-02,1.367788544709654663e-01,2.046091079711914062e+00
-6.325327654640263697e-01,-8.451971699781449798e-01,1.013116077670030313e+00,-2.695024885980844623e-02,-1.759942350802350076e-03,9.545366070127488459e-03,1.762333273887634277e+00
-8.525580781406882913e-01,-8.442481487198723045e-01,9.483973651806016925e-01,9.309262615265174318e-03,-2.638612145093477412e-02,-6.201245397388572764e-03,1.797500371932983398e+00
-1.425504031807947491e+00,-3.791754885834124900e-01,1.624270511673649997e+00,-1.327847263963052027e-01,5.326188966683246401e-02,-1.096262460612075773e-01,2.702280759811401367e+00
-6.341654805635181802e-01,-1.080070088355584046e+00,1.240741932516074009e+00,3.025429787199259563e-02,-1.770516679049877889e-02,-2.778288794704948314e-02,2.134511709213256836e+00
-9.540880488742269350e-01,-5.565185041499227658e-01,1.037927927315997811e+00,5.735638565666886096e-03,-6.544233359607304866e-03,-5.602611484611953740e-02,1.828624725341796875e+00
-1.406592801902125878e+00,-3.264211703230952555e-01,1.818076881101116760e+00,-1.121344840463849996e-01,1.902006745506959820e-02,4.134008466158494571e-02,2.850614547729492188e+00
-9.899793689151539233e-01,-4.674993116033231422e-01,1.017605711467138185e+00,2.275114982226229821e-02,4.679230075776645960e-04,1.121043841182428613e-02,1.804547190666198730e+00
-9.776613710973113269e-01,-4.736777368097805363e-01,1.050941801410093301e+00,-6.995481437249019552e-03,5.327984953337155764e-04,3.572203675330713757e-02,1.830525398254394531e+00
-1.168288538148318123e+00,-7.201651014498337000e-01,1.439091240860566057e+00,-4.827098489233940248e-01,9.093822256823486105e-02,-1.703986761533154703e-01,2.577161073684692383e+00
-8.066802656349553180e-01,-8.125540388002068237e-01,7.808759721267588549e-01,6.441326402022355332e-03,4.452557744040229470e-02,6.528816425318423322e-02,1.596419095993041992e+00
-6.975901682087100042e-01,-9.492132120199259226e-01,1.073796963796247450e+00,1.783393475943267220e-02,-4.008805185694328671e-02,9.942044882932090863e-03,1.911261439323425293e+00
-8.724055957280970608e-01,-5.961817688992188113e-01,1.022469956640711830e+00,-6.251756585375693731e-02,-1.093195449672592495e-02,5.889924276612210942e-03,1.776409626007080078e+00
-7.645984285691005411e-01,-8.242467641068365047e-01,5.402938189543080583e-01,5.003153593998846405e-02,1.982343962119963166e-02,3.594773774668908600e-02,1.340410947799682617e+00
-9.301607237153906027e-01,-5.955668304630915566e-01,1.031826354883072394e+00,-1.316594979985221889e-02,3.370130687572346975e-03,-3.307362755803685411e-02,1.818986892700195312e+00
-8.429651348381090870e-01,-9.053151894900535179e-01,6.440771270292529049e-01,2.392874819608685824e-02,1.322781591970930148e-01,1.026959600995477895e-01,1.547174572944641113e+00
-8.497429156685122331e-01,-4.424342284075779008e-01,9.054369899570826608e-01,3.685017699246248002e-01,6.528281277106729417e-03,5.119208077619524788e-02,1.716690778732299805e+00
-1.385667924644473636e+00,-4.242175097917135207e-01,1.833412589286522731e+00,2.036182899931886503e-01,3.221238417943320109e-02,-8.049245167094691567e-02,2.887700080871582031e+00
-8.314080702803127165e-01,-8.551038398963211051e-01,9.418588355483390462e-01,6.326045962370471266e-03,-5.689107222461275981e-02,-2.411503616097646421e-02,1.788471460342407227e+00
-9.658623665793275581e-01,-5.671525659223491944e-01,1.069591413875897512e+00,-5.216295222853493604e-03,-5.443670425161050742e-03,2.506344779915564355e-02,1.868834257125854492e+00
-5.171340969376483354e-01,-9.923400685475772809e-01,1.049369734919402886e+00,2.522077845003820734e-02,5.040689701514972088e-02,6.416001178369389740e-03,1.853057265281677246e+00
-3.080231025032249548e-01,-1.340173041978273138e+00,1.267971086594863239e+00,-1.460115049198469281e-02,-1.970669316044848240e-01,4.365983054591547619e-02,2.301872730255126953e+00
-6.275917300315643210e-01,-8.728194169479674969e-01,1.021678679097717701e+00,-1.102217028814600347e-01,2.615795455006372935e-04,-1.665860469488076364e-03,1.794751048088073730e+00
-2.267897761924470845e-01,-1.243249087198955882e+00,1.134717631531152460e+00,2.572709381008028012e-02,5.108857294944810917e-02,8.770588477117038928e-02,2.074536561965942383e+00
-1.516652958865191581e+00,-3.465526632877766189e-01,1.448591198886483467e+00,-7.746570647407664302e-03,1.153581158870619836e-02,-2.476066108790584974e-01,2.622342586517333984e+00
-9.175526728181457869e-01,-6.939903786128851504e-01,1.029015130149302903e+00,-2.766117321928295361e-02,3.326130560651925985e-03,-2.825663951172239369e-02,1.846253275871276855e+00
-9.226539021763476844e-01,-7.465069122468876994e-01,1.095171042030164799e+00,-3.120302233553213025e-02,1.125901294106069692e-02,2.188686552253719334e-03,1.936627745628356934e+00
-6.001065134107418375e-01,-1.122637186118430330e+00,1.701151523053684000e+00,-5.146996214722644458e-01,3.102232445118455889e-02,-8.442632815093291387e-02,2.755053997039794922e+00
-7.540687854991532380e-01,-7.623145473560696272e-01,1.001320904127908751e+00,-2.824169913135356202e-02,-2.826189331971778410e-03,-7.073191455609779662e-04,1.760214090347290039e+00
-4.416949669679296475e-01,-1.015303333440768396e+00,1.040411610007599741e+00,-2.451208994208960851e-02,1.132423480881203544e-02,4.170358129007053181e-03,1.837948441505432129e+00
-7.731990632650526107e-01,-7.766647726791700013e-01,1.022779268850354306e+00,-3.048538598640997827e-02,4.528637279743745817e-03,-9.304230498747782796e-03,1.798578262329101562e+00
-8.503990289673212244e-01,-6.592853745601406912e-01,1.025841321395607464e+00,-2.541536695300716103e-02,1.486982658651337871e-02,-1.237785076814720527e-03,1.789087176322937012e+00
-7.781785970477615999e-01,-8.228577993134066348e-01,1.034719799156026854e+00,-9.636033722359903242e-03,1.697199059014083133e-02,-1.799807761178828097e-02,1.836221694946289062e+00
-8.931822044140538264e-01,-8.346591701134309371e-01,1.711068033776215191e+00,-5.287175743937736483e-01,4.283618653856552383e-02,-3.380828791577816100e-02,2.735086202621459961e+00
-9.575755476951839373e-01,-6.747488030895989475e-01,1.043991406593362203e+00,-2.572733819286876847e-02,3.090866224707390988e-02,-3.478003120572904089e-02,1.878468871116638184e+00
-1.137826763523624329e+00,-6.246810303834635647e-01,1.419354371453802388e+00,-5.171059670467701430e-01,1.333170028607660595e-01,-2.557894257026011586e-01,2.557750463485717773e+00
-8.582800978074196507e-01,-8.280841938343498354e-01,9.796607033939197517e-01,-8.824255554816742494e-03,2.641621502974256935e-02,-4.839921136195411352e-03,1.823687791824340820e+00
-7.471103136987919946e-01,-7.861099722592681527e-01,1.014158060796288785e+00,-1.427746606061320624e-02,1.996401665081906987e-02,-1.849152004366634572e-02,1.781883597373962402e+00
-1.289630441180984910e+00,-5.723850411860905707e-01,1.815802105570026415e+00,-4.477448031031826536e-01,-8.643514686380094833e-03,-4.845754192556561007e-02,2.922240495681762695e+00
-5.292030610076867703e-01,-1.115959215270278415e+00,1.208310312104287521e+00,1.206178092540475671e-01,8.980541796763456819e-02,1.713019160819618386e-02,2.109846830368041992e+00
-5.835073626924790480e-01,-1.304346448829744265e+00,1.464238934090297262e+00,-4.389587396633851668e-01,-1.375224413133769308e-01,9.590970377707612460e-02,2.617509603500366211e+00
-1.640287472217883125e-01,-1.249554461826849483e+00,1.080604127088580224e+00,-8.231676872451006155e-02,1.797922798485919460e-01,6.795401888713006357e-03,2.048414230346679688e+00
-5.143852479938351152e-01,-1.075883087177187392e+00,1.187917861656726526e+00,-3.513168678873425099e-01,-2.196996840659674844e-04,-1.133917482102651808e-01,2.139579057693481445e+00
-4.617229111225481519e-01,-8.931708073612057985e-01,1.023541622208598012e+00,-2.088367022211386204e-01,-8.133669283617596391e-02,2.706174213272068488e-02,1.784896254539489746e+00
-2.668326592841285816e-01,-1.281112609315069539e+00,1.414225840499841791e+00,8.633979386223046559e-02,-1.057399858754402289e-01,-7.625340920384131305e-02,2.373422861099243164e+00
-6.095785059130844896e-01,-9.607134317252165046e-01,1.111758263122670565e+00,-3.331663873171381712e-02,3.281724598097697509e-02,-1.084518901266245082e-02,1.922922611236572266e+00
-2.260964040439424338e-01,-1.396443802119058830e+00,1.272308038081603865e+00,1.983836674459281690e-01,-3.267500601878074729e-02,-8.371319322213313652e-02,2.347525835037231445e+00
-5.426976206736161545e-01,-1.012647366978818075e+00,1.179225758522487233e+00,-4.282154239941126095e-01,-1.772526974197750071e-01,9.920457049656357384e-02,2.160781383514404297e+00
-7.605961899490694123e-01,-1.048849192002861308e+00,1.004394905656828429e+00,-2.898510958506696558e-02,-1.328321684696176230e-01,-3.725028515914535071e-02,1.940789461135864258e+00
-5.304652964690601546e-01,-9.554181357892479465e-01,1.032445535476433918e+00,-7.147494856176882239e-02,2.098428538009659144e-02,2.548602768545360844e-02,1.818250298500061035e+00
-8.618820633146343502e-01,-8.596831779829346987e-01,1.063484325797030117e+00,-1.002072204265838304e-03,-4.729991945269088061e-03,-4.931622872852391148e-03,1.924305081367492676e+00
-8.526481700239559869e-01,-8.544819214709296062e-01,9.529919239885407123e-01,-1.682866414639515654e-02,8.257292287083191698e-03,-2.301463625753415870e-02,1.807289123535156250e+00
-1.593845068581215829e-01,-1.097161005013552959e+00,1.039023057628792879e+00,-1.116963622884384055e-01,1.564738488034223274e-01,6.845810238863313246e-02,1.887957572937011719e+00
-6.592989093959066293e-01,-9.376993841541848562e-01,1.056345553084022226e+00,-2.243595457692717371e-02,2.413082893252291652e-02,4.397688158329673448e-03,1.871334791183471680e+00
-6.225314798926357973e-01,-8.590240091517602483e-01,1.011950223060701815e+00,1.167977520457628843e-01,-1.257375957995728565e-02,1.432324788707987039e-02,1.776518106460571289e+00
-1.038584300236063296e+00,-1.034402734694182868e+00,9.946941969377398607e-01,3.519452085019111887e-01,4.482344130191986270e-02,-3.266682774542211537e-02,2.122866392135620117e+00
-6.032867864123127033e-01,-9.352028830140105553e-01,1.115375067518379559e+00,-1.213111062109896165e-01,8.145953210876728801e-02,-2.345319839430728970e-02,1.923570871353149414e+00
-8.671064395959754423e-01,-8.291948001063383922e-01,1.030705583213862742e+00,-2.019734293472578296e-03,-4.354724022053568962e-03,-1.883256301388179510e-02,1.879444479942321777e+00
-8.081516325114049826e-01,-7.813453858594525681e-01,1.102991845198270315e+00,-1.502709577793565621e-01,4.608176296792554361e-02,-3.794533556379817152e-02,1.918434619903564453e+00
-8.402373894552612743e-01,-8.524502189109998129e-01,9.513890649439082914e-01,-1.056297226066853917e-02,3.461113090528649718e-03,6.442917698856059656e-05,1.797867059707641602e+00
-8.748875804179738758e-01,-8.955520572620631059e-01,1.025611018301816113e+00,-1.802086079769177340e-02,9.978508923312437440e-03,-1.228695508473736861e-02,1.911366224288940430e+00
-8.644792619916743526e-01,-8.697813827470098902e-01,1.064253472039589310e+00,-3.992747216630021696e-03,-4.273298330459459303e-03,-2.014318674403278633e-03,1.931419014930725098e+00
-1.125052517868182722e+00,-1.022084329302136441e+00,6.379391794181770159e-01,1.921556800987057889e-01,-3.126601997129025562e-02,8.750470375653392197e-02,1.753250002861022949e+00
-5.776236109683990927e-01,-1.206000436013102473e+00,4.380181154026759893e-01,1.434282692926965030e-01,-1.386720986695909041e-01,-5.120070866877304838e-02,1.480493426322937012e+00
-6.576376043583931352e-01,-8.756956422957306030e-01,1.041071021549068831e+00,-3.813494152867688558e-02,-2.638172289963068226e-02,2.320198872716851615e-02,1.819792032241821289e+00
-7.950017567627517545e-01,-9.083138407093803712e-01,1.048248283170373885e+00,-1.028431005131468824e-02,-2.720447629160883951e-02,6.252390916961891865e-03,1.903136253356933594e+00
-8.619378742069074839e-01,-8.484591641005527762e-01,9.910020910516723625e-01,-2.906758876281677600e-03,2.346485494067142991e-02,-1.890789572913802912e-03,1.846694588661193848e+00
-8.541234474051130343e-01,-1.063212810523339824e+00,1.328052783101169254e+00,-5.569938240296373744e-01,-2.289417628295441487e-01,1.284703090222871769e-01,2.529696464538574219e+00
-6.665389504030629908e-01,-1.182658172289858589e+00,8.149978262077601787e-01,-5.116400275633685713e-01,-2.770865030579026111e-01,-7.284745054426369684e-04,2.059523820877075195e+00
-8.773752455103331904e-01,-8.515503666600870991e-01,1.021789305877149889e+00,1.351019393921578044e-03,-4.276935350374823711e-03,2.755950644488061076e-03,1.886406779289245605e+00
-7.197978433989827840e-01,-7.863731863309824099e-01,1.004037211655433248e+00,-8.032054786120373935e-03,-4.536566175006118661e-03,2.219222793251349017e-03,1.758145213127136230e+00
-7.681577211595644883e-01,-9.901875263749875256e-01,9.090487871244379292e-01,-6.109601268678797048e-01,-3.130013697113667170e-01,2.653392647902149126e-01,2.204461336135864258e+00
-8.143569985446433845e-01,-8.240453812318169202e-01,1.047197764253093855e+00,7.406400607480520797e-04,-4.633277797875774012e-03,-5.633140256777663391e-03,1.866461038589477539e+00
-8.520224431870411230e-01,-8.495919334297682424e-01,9.582009219304896686e-01,1.227043478396819091e-02,-1.961445492106360378e-02,2.795381726124605490e-02,1.810100793838500977e+00
-6.920237044051007480e-01,-1.428777923257496418e+00,6.588266666295099494e-01,-1.501338438091822103e-01,1.137061443417053258e-01,-1.700967043923330008e-02,1.862826824188232422e+00
-8.352596992366665418e-01,-8.909705087773276411e-01,1.063903066068672354e+00,1.824741960432725704e-03,2.336410458481048835e-02,-1.339566662808107898e-02,1.928189039230346680e+00
-8.728689450899331792e-01,-8.563934307691775105e-01,1.034241138409995431e+00,2.014073417031303059e-03,9.235655236972589721e-03,5.492054564706424537e-03,1.899020314216613770e+00
-6.755743387607042738e-01,-1.481807168618399562e+00,9.614804488046504449e-01,-1.136926033297568778e-01,-1.799664005399909394e-01,-4.166177303069913684e-02,2.188825130462646484e+00
-3.791800086209083931e-01,-1.040714452092298181e+00,7.181722478442100766e-01,-8.433969373695658633e-02,5.781593280326441375e-02,8.949020811401782460e-02,1.556643605232238770e+00
-8.780434453024623664e-01,-8.585844938156635964e-01,1.029786433576822535e+00,-1.541295700795747856e-03,3.539904856706290294e-04,1.063908569437605920e-03,1.898178100585937500e+00
-1.085185169875441336e+00,-1.231291575440726982e+00,6.979984757264809936e-01,-1.675597975726240696e-01,-7.350974587561452667e-02,6.703307119025168903e-02,1.890911340713500977e+00
-8.103151110681536817e-01,-9.101635227464928146e-01,9.488549429186330375e-01,-3.454582670510503162e-02,6.238534195411283081e-03,3.348254468541631869e-03,1.812189221382141113e+00
-7.080514683156231559e-01,-1.326664473193913896e+00,1.100480829162328700e+00,-2.804640439652996142e-01,-1.550543797629658771e-01,2.332341337630110603e-02,2.254327058792114258e+00
-8.529083764399641998e-01,-8.450252978447635455e-01,9.475680825704335675e-01,-1.938089311243049867e-02,1.574422205813956477e-02,-3.167341598155807431e-02,1.797905564308166504e+00
-8.609303277803879162e-01,-1.240039805785936755e+00,6.263543662158084224e-01,1.424243993527875007e-01,1.265684944956880498e-01,9.594029681295352177e-03,1.740336894989013672e+00
-8.565575416004610476e-01,-8.373869245781101478e-01,9.172069059066125796e-01,-2.972425757981761452e-03,-5.263068115428497923e-02,-6.570827426683344477e-03,1.766654968261718750e+00
-8.166831546730992653e-01,-8.240585707740768484e-01,1.048008164165958211e+00,-1.327007529630153159e-03,-4.779476863955245403e-03,-5.891912479676213697e-03,1.868437528610229492e+00
-8.218550149811639782e-01,-8.331387746571978781e-01,9.637276235485887632e-01,-3.550422167211510910e-02,5.420459921830936105e-04,-2.033937890555632608e-02,1.792652845382690430e+00
-2.776822181075807583e-01,-1.067999022269539466e+00,1.104534725452951172e+00,-2.244983656174654452e-01,-2.098602483058368551e-01,2.998355362308701560e-02,1.978265166282653809e+00
-8.018079919467487882e-01,-8.181754355879443663e-01,1.040011368655920698e+00,-4.423704657001832803e-03,1.509642226385875426e-02,-9.464444435837662969e-05,1.850257992744445801e+00
-9.555096898442975162e-01,-7.961700763331716058e-01,8.540545175298781544e-01,1.623913171037275893e-01,-1.121179424017533649e-01,1.038388102565681974e-02,1.768819928169250488e+00
-8.612106575069548020e-01,-8.703716086652895090e-01,1.070763077326771784e+00,-2.089466264891238351e-02,-2.200806056004273731e-02,1.534866319011031315e-02,1.937466025352478027e+00
-6.042958506508474548e-01,-8.663278493649040346e-01,1.013626150954185290e+00,-5.801609891116884382e-02,-8.844433465489747945e-03,-7.145049494937999110e-04,1.766525864601135254e+00
-3.021755009575855522e-01,-1.530618592631074026e+00,1.448283631031886953e+00,-7.179877779434847007e-02,-8.459082760035369075e-02,3.059816981794864083e-02,2.600626707077026367e+00
-4.354482055681824226e-01,-1.282176767829378949e+00,1.285843133806293448e+00,-3.462169764178004150e-01,-1.109065572157726387e-01,-1.678062901199325191e-02,2.352573871612548828e+00
-5.709119701073670505e-01,-1.018930652689382654e+00,1.035641801997360334e+00,-9.700392600523364064e-03,3.481960704356741598e-02,-6.054479987634162758e-02,1.875211596488952637e+00
-8.242235479910429152e-01,-8.154251312631723980e-01,8.254898083414052845e-01,-6.414881807918337148e-03,-1.393217204442137938e-02,-2.096366328515393215e-02,1.645946860313415527e+00
-5.462747111255434884e-01,-9.294360800375950360e-01,8.575903595650746780e-01,-1.075185997781888218e-02,3.105423707527994476e-03,1.314655535349870631e-03,1.629704713821411133e+00
-8.673803698547700725e-01,-8.507930959204437205e-01,9.756249823956524292e-01,-1.437288056438001428e-02,-2.678090486103792620e-02,-7.417879986932989812e-03,1.835567951202392578e+00
-8.750912033119486733e-01,-9.590552007313871696e-01,7.784349534835819373e-01,-2.162978460891370330e-02,-1.582263991183319729e-01,3.304901464798253117e-03,1.719470381736755371e+00
-9.741476548681595737e-01,-4.721812688596722096e-01,1.036276109857791949e+00,-1.111291622201229790e-02,4.213189317987331775e-03,-3.448678616329465402e-02,1.813449859619140625e+00
-1.366715165954941247e+00,-4.463765877135560944e-01,1.778581931195723165e+00,-2.288495807792124692e-01,-3.645809142318718471e-02,-8.737911223033971442e-02,2.833582162857055664e+00
-9.812555256006780802e-01,-4.912451311732739523e-01,1.031388756942048568e+00,8.788251556928259114e-03,1.046773424676475167e-03,-1.680938378857997975e-02,1.818162083625793457e+00
-8.781523937334172469e-01,-7.391865914888813283e-01,1.036172069073495683e+00,7.649663290354204994e-04,-3.449623552030922895e-03,-2.546583515887872531e-02,1.849299073219299316e+00
-7.876951981904309896e-01,-7.729225996998699832e-01,4.794909395408903929e-01,2.626330919536341781e-04,1.144828954078391803e-01,-1.865105583911454423e-01,1.315650820732116699e+00
-8.585350067971871946e-01,-8.549715092879482947e-01,1.049855164785882033e+00,6.470989488034997739e-04,6.996671443126965123e-03,4.092561713099164555e-03,1.906662940979003906e+00
-8.430970844140446285e-01,-8.419548105511097669e-01,1.057659864006816663e+00,-1.363030329347907337e-03,2.862329596956551727e-03,1.100025641098072767e-03,1.900195002555847168e+00
-8.630309877753743475e-01,-8.650314851710345643e-01,1.062026326681363875e+00,-1.057265991641227840e-03,-3.855008900256614093e-03,-5.379062830982726849e-04,1.926071047782897949e+00
-8.613808538238555412e-01,-8.509093922764633389e-01,1.052077753753346778e+00,-2.019454405458896012e-03,-3.065443118042493476e-03,1.540236070805538378e-02,1.908441543579101562e+00
-4.950934410881125403e-01,-1.046017722295045749e+00,1.130396974342064764e+00,8.257012443067902885e-02,6.968138577818482060e-02,3.086950029421483069e-02,1.969552636146545410e+00
-8.666986983607953832e-01,-8.319712942977888215e-01,9.018574453164298621e-01,2.132532406355898413e-02,7.227853419769419974e-02,2.441135431655219040e-02,1.756816506385803223e+00
-8.516808897408010282e-01,-8.536883188124488875e-01,9.649844342351532323e-01,9.322189542499931952e-03,-2.514850520412861487e-02,2.005043655331459687e-02,1.818595051765441895e+00
-8.633662033529355684e-01,-8.613295616004895683e-01,1.063780833223307187e+00,8.061141944097323722e-04,1.977696190780085447e-03,-1.996671277329077881e-03,1.926136136054992676e+00
-5.875923800770777028e-01,-9.556355177633171216e-01,1.058239529779456678e+00,1.063076083917190440e-01,2.403523840792242544e-02,-1.229298519064204358e-03,1.866975426673889160e+00
-8.714184555893904616e-01,-8.549534055924763454e-01,1.029106447523192802e+00,1.088084433281040183e-03,-5.478785990775400863e-03,1.363040164357201892e-02,1.892518043518066406e+00
-8.476145327321110701e-01,-8.500680039910694097e-01,1.064087955565410804e+00,6.026651345052056429e-03,-7.983239260425647674e-04,-2.427216255665959159e-03,1.912963986396789551e+00
-5.775366735936162677e-01,-9.198846867046375220e-01,1.033252043999045799e+00,2.971448129502217775e-02,-6.161083745613363076e-03,-1.874988983142564583e-02,1.807514905929565430e+00
-5.949099698969815275e-01,-8.579372339693516203e-01,1.002267134211658250e+00,6.644714744648017035e-02,-5.914918282474163763e-03,-1.007632478547970320e-02,1.747545242309570312e+00
-8.191969605354794126e-01,-8.450417016947243676e-01,1.037398079240157589e+00,6.757878275308117078e-02,-2.098501022619226122e-02,-3.110839466160631936e-02,1.874438881874084473e+00
-3.974403293130007175e-01,-9.992638157139949184e-01,9.564953115970511455e-01,2.416260971761099163e-01,-7.634904433158083703e-02,-4.986051186680860725e-02,1.791719436645507812e+00
-4.038624890348357921e-01,-9.905523302915500983e-01,1.079752085635179215e+00,3.241286072560465858e-01,8.120521708848817133e-02,8.469930367965591844e-02,1.942220807075500488e+00
-8.485380487593628951e-01,-8.739820557983771776e-01,1.077197597890269032e+00,-5.327325131711484543e-03,-1.148699749275432485e-03,6.162771102179998017e-03,1.938635230064392090e+00
-8.100486663331736281e-01,-6.995440569251983876e-01,1.991375232623651126e-01,6.053851826775613620e-02,1.967926760710901057e-01,2.461230067586392123e-01,1.108176350593566895e+00
-8.953998480696724327e-01,-8.964154696413811907e-01,6.979470558141191994e-01,-1.353088269200052908e-02,1.270092368655696691e-01,-3.861733623856948745e-03,1.609149336814880371e+00
-7.169423637748137956e-01,-7.213890365097191948e-01,3.118555659020801896e-01,-7.238279986336335764e-03,2.461438224359258076e-02,-6.523814868528636512e-02,1.038153409957885742e+00
-6.703790548762291746e-01,-7.911410608141096201e-01,4.877744895669600123e-01,3.735405387037748354e-02,1.385623311757173126e-01,4.061007921419514111e-02,1.249998450279235840e+00
-8.124373997416712845e-01,-8.272794967187736548e-01,7.708087028198260526e-01,-7.216325750540139583e-03,5.864912129474680186e-02,7.784638465395381235e-02,1.599700808525085449e+00
-8.114193183801128306e-01,-7.842372221786324538e-01,7.204478578012636358e-01,6.981547565282162499e-03,7.001619779654917608e-02,4.243573985177816980e-04,1.523341774940490723e+00
-7.865255584835197933e-01,-7.833249873054426438e-01,6.487509732162648479e-01,-2.000457358576990773e-03,3.437377304717702253e-02,5.888170225467536517e-02,1.438538551330566406e+00
-8.175353309229479448e-01,-6.999425813115109918e-01,1.012501666067088246e+00,3.409928881323508881e-02,2.604926592195806051e-02,2.245117565912920984e-02,1.776147723197937012e+00
-8.643788427588025014e-01,-8.631569591003389608e-01,1.030943415034867749e+00,1.009346848964049956e-02,8.224658559341268757e-03,-9.893564559095230707e-03,1.894923329353332520e+00
-4.060034413718385249e-01,-1.043891338458164952e+00,1.235231711306765900e+00,-1.106483757279406038e-01,-1.600742041260363666e-02,-1.422134562824862829e-02,2.045869588851928711e+00
-3.977729843626347517e-01,-1.045354847120335773e+00,1.073287546417865723e+00,-9.278670682110927437e-02,-1.078704857932055033e-01,9.418405002379934277e-03,1.896579980850219727e+00
-2.816199445259532919e-01,-1.036948031278081883e+00,1.579704763270958434e+00,-2.793845084947688684e-01,8.441301885993952869e-02,8.805711038395688806e-02,2.391603469848632812e+00
-8.589388976856684454e-01,-8.636489200207233541e-01,1.074008759194314599e+00,2.125076832176053809e-03,2.542555819476555786e-03,3.595972601547915552e-04,1.935315608978271484e+00
-8.612001208757488202e-01,-8.516122663292619022e-01,1.052240089608893703e+00,2.888639044563514040e-03,-2.619834176761685288e-03,-8.415030783507727874e-03,1.908731937408447266e+00
-8.635365859019381585e-01,-8.469639449098808059e-01,1.062779674089459947e+00,7.681625118683791395e-04,3.994757584056929378e-03,4.470247057328098107e-03,1.918112158775329590e+00
-6.618332323760346692e-02,-1.163198360877268023e+00,1.259999972425918546e+00,1.467065885627182910e-02,1.147103357111194377e-01,2.053441429290007655e-03,2.111203670501708984e+00
-5.392971560546866439e-01,-1.025675663765488022e+00,1.281906117211475182e+00,2.635226350737006062e-01,-1.568658423232276999e-01,-2.679766969693863493e-02,2.173349380493164062e+00
-8.727275241529509620e-01,-8.559048053916256116e-01,8.826253081547497104e-01,-1.339536572312021584e-02,-6.625339953142594940e-02,-2.841965355271711471e-03,1.750927686691284180e+00
-8.494346281895153172e-01,-8.386683460710835369e-01,9.078560281427574541e-01,-4.008322862491901502e-04,4.220398117670536020e-02,1.087638631889705811e-02,1.753558039665222168e+00
-8.428932391926622358e-01,-8.931780524118948517e-01,1.066575639433641864e+00,-9.430389660710363983e-03,-2.338175965889219277e-02,-8.940688798424232349e-04,1.935594677925109863e+00
-8.745244632173008181e-01,-8.539348035355722732e-01,1.006558603716060096e+00,8.768130803182529881e-03,-2.014790014049703051e-02,-9.749451104795374759e-03,1.871336460113525391e+00
-8.148963655127241523e-01,-9.084064383664982589e-01,4.172536405323659103e-01,-5.376194934696563316e-02,9.045605730783976006e-02,-1.550299624860040221e-02,1.294640898704528809e+00
-5.725897081365898256e-01,-9.299343123196189831e-01,1.044760912455910074e+00,6.639940098176104477e-02,-3.819943095378632025e-02,-2.301282428543569014e-02,1.827747941017150879e+00
-8.487818397896719214e-01,-8.699516712702247689e-01,1.048891737835149440e+00,-7.302889731751558561e-04,-1.110579911077008881e-02,-5.074746172699104788e-04,1.908444166183471680e+00
-8.608102974920183170e-01,-8.587874043688780157e-01,1.072021325824333404e+00,-1.548116498210806800e-03,-3.785001535993580434e-04,-2.274176542543262201e-03,1.931826949119567871e+00
-8.387517490215614657e-01,-8.611620583247934224e-01,8.708846438170549931e-01,-9.225406739179941445e-03,-7.928913295375833448e-02,1.982779463774138502e-03,1.726499319076538086e+00
-6.895081349934685244e-01,-8.073497719011963891e-01,1.010554878906840370e+00,-4.825282904121988570e-02,-3.267512557939533310e-03,-2.375008413723278360e-03,1.763936758041381836e+00
-6.893076738064312092e-01,-7.817449299152475772e-01,9.960536726893596260e-01,-3.718677379634582891e-02,4.920878265061268998e-03,5.184802978106545050e-03,1.734669923782348633e+00
-8.584024457760983662e-01,-8.635471132317257270e-01,1.074207627572033141e+00,-2.329900401067935573e-03,-2.299452100558586638e-03,-1.517922086720909045e-04,1.935195803642272949e+00
-6.576507302510908870e-01,-7.164213354875813566e-01,1.017814600871672637e+00,-2.352591023413442284e-01,4.225536020117044711e-02,-2.060440063175454639e-02,1.755499005317687988e+00
-5.150519933811904538e-01,-9.522445126900876966e-01,1.129990087414782352e+00,8.149858006285531919e-02,7.475600746765043159e-02,1.570352028909809128e-02,1.911526083946228027e+00
-8.030980506632582339e-01,-7.996223870937552158e-01,1.070725388858697169e+00,1.039462170001715230e-01,-3.150836403243088835e-02,-3.968596708178531718e-02,1.882772207260131836e+00
-8.392912727912621440e-01,-8.321448966559709115e-01,1.056008201434283533e+00,4.116686526582366730e-03,-1.064294047305320255e-02,-9.149685115490172396e-03,1.891906023025512695e+00
-8.246790489614627129e-01,-7.720210114497773057e-01,1.045187800298198688e+00,-2.238415292036035481e-02,-2.873642452934559513e-02,2.478284813549528481e-02,1.845679998397827148e+00
-7.045431147970769858e-01,-8.074586581811249442e-01,1.009596351129342429e+00,-6.802202743964876064e-02,-1.313622227942038258e-03,-9.128619417928024796e-03,1.771839022636413574e+00
-8.572725385718529267e-01,-8.683994259083868128e-01,1.026079991748360953e+00,6.879973100053250572e-03,6.393584694855315546e-03,-5.184050268205545389e-03,1.889031887054443359e+00
-8.612359949904379031e-01,-8.586960464522694902e-01,1.072742929573361925e+00,1.571421719641407592e-03,7.594498386681375812e-04,-2.015532603068230771e-03,1.932715773582458496e+00
-8.443990102335587888e-01,-8.018546740602860989e-01,1.049220638929661664e+00,-1.089579785193929042e-02,-8.206903297828631316e-03,-1.178233143639462188e-02,1.872970223426818848e+00
-8.606961280639224832e-01,-8.641516060945434452e-01,1.046487526711348481e+00,4.300041850088360922e-03,-3.848469309723360002e-03,9.140659357831816892e-03,1.909005522727966309e+00
-8.495433297193355493e-01,-8.160965375112949616e-01,1.053058200075861262e+00,1.632953569545379791e-02,-1.321831039622712277e-02,3.443047307842353466e-03,1.886461019515991211e+00
-5.880434567059049655e-01,-8.478612147159673151e-01,1.005186070547945176e+00,-1.125477986086402815e-01,-1.339965250616779145e-02,2.033611973377625823e-02,1.749175548553466797e+00
-4.508895474704979756e-01,-1.047299899792224931e+00,1.116143060643802309e+00,-1.654532454532756935e-01,-3.034507512056108108e-02,-1.101136877208852907e-02,1.957330226898193359e+00
-7.554071464956961801e-01,-9.123824866981504744e-01,1.056081061734265303e+00,-6.256326215355673820e-03,-4.498585656314878917e-02,-2.357740062077384388e-02,1.896930694580078125e+00
-5.433826079364191264e-01,-6.456387768004463457e-01,8.663359680800535312e-01,4.940379226460955286e-01,-3.431210890359590038e-02,9.329765681443424885e-02,1.704048395156860352e+00
-1.897923119351531407e-01,-1.222596361888012240e+00,1.109575048915140583e+00,1.253441822696899077e-01,5.551423603234548892e-02,-7.894407812065258601e-02,2.042573690414428711e+00
-6.251010628191933094e-01,-9.866115621608236852e-01,1.070924186602340233e+00,-6.058978013274952251e-02,-3.905629149391204313e-02,-2.212956284626101805e-02,1.907191991806030273e+00
-8.343115087225869697e-01,-8.642267886783810971e-01,1.040054966702073980e+00,2.705543279449855541e-03,-1.444850458130212366e-02,5.736825694125660680e-03,1.889699339866638184e+00
-7.305005430491091634e-01,-7.538976961783365738e-01,9.884107530549102183e-01,2.253362863620628556e-02,1.963231668752387412e-03,-7.114403405122654437e-04,1.731172323226928711e+00
-7.185962720127574421e-01,-1.002777073079659242e+00,1.023080021536808548e+00,-9.718208893361258982e-02,-2.741906043403552137e-02,2.644785523541930833e-02,1.908358693122863770e+00
-3.097652120468523673e-01,-9.844687703550584201e-01,6.071232072952615910e-01,-7.224018837547407923e-02,5.971157985765578741e-02,-7.426697341109311790e-02,1.399084091186523438e+00
-6.730786760088690590e-01,-9.764271926908406618e-01,8.874163911818071515e-01,-1.916961235201286584e-01,1.004911533511806399e-01,3.530661470735826923e-02,1.773362994194030762e+00
-2.563030047467973471e-01,-1.162606477226364454e+00,1.070669112591426053e+00,-1.430489958679790480e-02,-2.851662591265178778e-02,2.212271432351759284e-02,1.946638703346252441e+00
-2.718333059218501768e-01,-1.025219307561864746e+00,7.187525809741129867e-01,1.110306334524850842e-02,-1.168188134066806133e-01,-8.388849174758861160e-02,1.535436749458312988e+00
-7.311684465909141784e-01,-1.117193154963057600e+00,1.166063667454675157e+00,1.762784811135919422e-02,-7.005295778817607899e-02,-3.906181006516838000e-02,2.121583223342895508e+00
-8.594418927996455571e-01,-8.632790095663835928e-01,1.071700824857561241e+00,1.982824347903961500e-03,-3.748322878519173319e-03,-3.944426776886505873e-04,1.933078169822692871e+00
-8.569466106412138018e-01,-8.549506819823310400e-01,1.068973494296845850e+00,-1.519337079486259533e-03,-2.492115976205462428e-03,1.529914739465631796e-03,1.924931406974792480e+00
-5.209583617080886242e-01,-9.655779271391321528e-01,1.028102275091903106e+00,6.734637644527951758e-03,6.709474815875358933e-02,1.591793350510955357e-02,1.816705703735351562e+00
-6.860043975473946176e-01,-9.211710050338618450e-01,1.036366958250803494e+00,-7.316691815991104714e-03,4.368882720360239141e-02,3.241934545591876066e-03,1.852789521217346191e+00
-8.365060977667281295e-01,-8.475430612254831741e-01,9.311599568091886159e-01,5.205678830050400850e-03,1.341547941827817697e-02,2.178969839550481957e-02,1.773787021636962891e+00
-8.193538127784417702e-01,-8.364915029969306470e-01,8.568176653279904187e-01,1.045647884132818069e-02,-4.159087240849769496e-03,1.147312383126512444e-02,1.685035586357116699e+00
-7.145820726089170405e-01,-8.933219090997154277e-01,1.020558503037105158e+00,1.403545742490590331e-02,6.753863517694709724e-03,1.478058500247710072e-02,1.831442832946777344e+00
-5.840401674971383850e-01,-9.672436103697644727e-01,1.027180597597368461e+00,-9.903432846963072800e-03,6.680528120836271011e-02,4.942393190276856557e-03,1.836861133575439453e+00
-8.635318066983193042e-01,-8.562248469609032853e-01,1.067984264383254445e+00,-2.260911912197644241e-03,-4.599409092601149454e-03,-5.123587951051272217e-03,1.927913784980773926e+00
-8.600003562967154513e-01,-8.675332810953353402e-01,1.046573848261466821e+00,-3.202202292496697782e-03,7.599841284990617452e-03,-3.450842369051688812e-04,1.910405278205871582e+00
-1.428253527839253412e+00,-3.960275642843204547e-01,1.661520038712640979e+00,2.274521606433019538e-01,-5.600433301274274078e-02,-3.412847471333422394e-02,2.755168676376342773e+00
-8.608485379928439984e-01,-8.547304445248656846e-01,9.839437440019385139e-01,1.508361124936456396e-02,-9.760397110420662714e-03,1.077668493134237293e-02,1.842098355293273926e+00
-8.887823033224558911e-01,-7.533710244531626188e-01,1.116934386437379079e+00,-8.571438386728814918e-02,5.165166195045702360e-03,3.155406686847457738e-03,1.947251796722412109e+00
-9.233544983436703379e-01,-6.235732808148111150e-01,1.031801840666947578e+00,1.092512231385812382e-01,2.297738829301944688e-02,3.382562985235937954e-03,1.834069728851318359e+00
-1.003632429020039574e+00,-2.760194767987975695e-01,9.230666568066276945e-01,2.070043524940616830e-01,-5.324273188179905192e-02,-3.671183873771763362e-02,1.726498961448669434e+00
-9.662867590874731905e-01,-4.734783991744576093e-01,1.051703593687952409e+00,9.138974730936630375e-02,1.187307062931131606e-02,3.802341395039897376e-02,1.830431461334228516e+00
-9.990661075548489256e-01,-5.530577134461441835e-01,1.067006110593094581e+00,2.928234386748312240e-02,-3.093041712574124639e-03,5.090236371643357821e-02,1.885859608650207520e+00
-1.069177393029538292e+00,-1.405430071370131762e-01,1.118941087489222053e+00,9.883171717516136406e-03,-5.938306808183714362e-03,-1.206723747789553852e-01,1.913725852966308594e+00
-5.566559649640019369e-01,-9.044306296783960475e-01,1.011439103611761592e+00,-5.916314689769170548e-02,-4.300644282834541199e-02,1.440448333392559642e-02,1.772536277770996094e+00
-8.655646723388438213e-01,-8.549760250942813888e-01,1.025575415870064511e+00,-2.009378062123149105e-03,-4.430241611124142304e-03,1.063738385017263741e-02,1.885976910591125488e+00
-6.736661863294963748e-01,-7.926952841366889935e-01,1.035662214915630486e+00,9.975490008514954765e-02,-6.567558017982522145e-02,-3.120005549335942360e-02,1.784697294235229492e+00
-1.008674390634632712e+00,-5.069007436603343297e-01,1.069994893677118197e+00,-3.996062237998324052e-02,-8.285773899323365527e-03,2.359226675640998389e-02,1.880501985549926758e+00
-8.797311656655141254e-01,-3.961751062787025046e-01,1.140420267092730366e+00,5.192013737716547617e-01,8.058553489489876653e-02,-3.512179506036870735e-02,2.042026996612548828e+00
-1.125869928124002550e+00,-4.148465652643266166e-01,1.317298888992181727e+00,2.063847306823303196e-01,-2.452107330691088299e-02,-7.191116118910952093e-02,2.209656000137329102e+00
-9.448462703036037968e-01,-8.249710228846564020e-01,1.792829409231189386e+00,5.855973865966390690e-01,-4.830504575500395997e-02,6.066822135801669749e-03,2.866520881652832031e+00
-8.415312731410689029e-01,-8.601395502880422317e-01,1.063130187873491783e+00,-4.698539414441597201e-04,9.224906834079806689e-03,1.247465521767799138e-02,1.914222240447998047e+00
-7.923336769239701649e-01,-7.764756734876063771e-01,1.020786345513574167e+00,-8.080465928433484823e-03,-7.883623808199274191e-03,-4.869474326357727673e-03,1.805368900299072266e+00
-7.308933826137729017e-01,-9.238654932000992526e-01,1.075808027833868197e+00,-1.117998086247830661e-02,-5.348480949666940126e-02,1.885159323712435817e-02,1.913132071495056152e+00
-1.122482362943465262e+00,-2.009531872715416279e-01,1.129314549149206037e+00,2.575170474372424911e-02,-4.875479533682987830e-03,8.413654317874019739e-02,1.966724753379821777e+00
-1.012207062237908017e+00,-3.588954983706131863e-01,1.024870322569665371e+00,-2.217143850211424072e-02,-5.368000213126836867e-03,-1.202877027174510454e-03,1.802004337310791016e+00
-5.858531195300762384e-01,-9.883227905041953587e-01,1.175237665634022877e+00,1.503925477168662483e-01,-1.984013152742748753e-02,-9.098764199967999261e-03,2.010345935821533203e+00
-1.047999821057422842e+00,-4.649298855919383744e-01,1.157347555465989553e+00,1.304688556183983793e-02,-7.087000222531783349e-03,-7.686779897825923857e-02,1.983946323394775391e+00
-1.066993816566380593e+00,-6.174435096378483312e-01,1.258093859997269304e+00,-1.345393275888894791e-01,2.259357116520628594e-02,-3.753169784825979849e-02,2.150103330612182617e+00
-6.780662793320451076e-01,-9.151177852652414568e-01,1.053177350616420149e+00,9.625093555652951965e-03,1.334592265825598062e-02,-1.225016414690587550e-02,1.861465573310852051e+00
-9.060922464018756894e-01,-5.678014003721849612e-01,1.048979061257017120e+00,-7.763144202658905750e-03,-1.800512951113367524e-02,-5.374433057358807969e-02,1.812506675720214844e+00
-1.085331989809171116e+00,-4.770918968898603119e-01,7.381483979087328784e-01,2.466472549920191784e-02,3.857019439881870931e-02,1.036217903212882235e-01,1.620007157325744629e+00
-1.010989118338766257e+00,-1.117602664201450047e+00,1.098308562410608813e+00,3.890078747521681368e-01,-9.222647638181638574e-02,-1.637595703523314844e-03,2.272639274597167969e+00
-7.447478784121565054e-01,-1.011703962987308358e+00,4.691375081773838662e-01,-1.081774698278892693e-01,5.826715158750817719e-02,1.888000186296113492e-01,1.421642065048217773e+00
-7.980946119843418396e-01,-7.586084842742674139e-01,1.016062691889031644e+00,9.986641405145629813e-03,1.145826182839061388e-02,-3.532156778979531758e-03,1.794943571090698242e+00
-8.425172096505373354e-01,-1.187560160855535285e+00,9.566792260899861233e-01,3.031719113231942653e-01,-5.345077557537804974e-02,-4.599743239005279864e-03,2.064300537109375000e+00
-8.469829453996174928e-01,-8.332075441601413113e-01,1.059357337322646364e+00,7.988133917163316774e-04,5.118384414208791526e-03,7.513304145246385395e-03,1.899555802345275879e+00
-8.696435242761043627e-01,-8.578637412789194006e-01,1.031039556230674004e+00,-2.547582931142317823e-03,-3.416851082450083048e-03,2.911776757985666455e-03,1.894841790199279785e+00
-8.710193984186436200e-01,-8.564164212723514025e-01,1.027514702770229826e+00,-2.003052733844051456e-03,1.852100360026744715e-03,5.660726240978570037e-03,1.891306161880493164e+00
-8.514128528365881854e-01,-6.609353158818992435e-01,1.021381821781570665e+00,-2.671881661558515864e-02,-3.087826964664847247e-03,-8.803645707207133700e-03,1.785866498947143555e+00
-8.463331644587867020e-01,-5.886708148102184346e-01,9.925516404808674142e-01,-2.640413471237529688e-02,-1.020994632236672112e-02,4.897915108272416634e-02,1.727332353591918945e+00
-8.914076590838705405e-01,-6.764723513214879747e-01,1.074696768832336780e+00,-1.002743961299023268e-01,1.960359090592166814e-02,1.869376025784341006e-02,1.876577973365783691e+00
-7.708830563403223923e-01,-7.653847796770948397e-01,1.006748663287062584e+00,-4.397417146281987210e-03,-7.833256321541580067e-03,8.593579572580835671e-03,1.775019526481628418e+00
-9.571759535537736063e-01,-5.464367570328405588e-01,1.027250936756789246e+00,3.970105616954992811e-02,1.743022001942299767e-02,6.452898621116839872e-02,1.819260001182556152e+00
-6.203921136872583286e-01,-9.186380484387470791e-01,1.032591952885138831e+00,-2.008610877281656951e-02,1.710606346389148200e-02,1.496859587974765614e-02,1.821280598640441895e+00
-6.971302281021433123e-01,-8.172351691306972699e-01,1.027169119157427035e+00,-3.948988489710286709e-02,-6.321745343458919650e-04,-1.824944714457646042e-03,1.788692235946655273e+00
-8.437865782656065461e-01,-8.605142504261357184e-01,9.692764884531481773e-01,-6.802004124391029978e-03,-8.643221967886169366e-02,4.388569226601334722e-02,1.829244136810302734e+00
-8.228174712963453041e-01,-6.907642748085116580e-01,1.014458921525214663e+00,-3.060730300345069002e-02,-3.065809065405313352e-02,3.002951943366093807e-02,1.777284383773803711e+00
-5.625515908829568090e-01,-9.187954365562135406e-01,1.155036779436736660e+00,-4.149053494090574890e-01,-1.428658863445806393e-01,2.304611079570510063e-02,2.065953731536865234e+00
-6.536477268756393233e-01,-8.481304424188419455e-01,1.001370097997916098e+00,-1.961992638057903637e-02,-5.299344939860927903e-03,-2.301110432446543119e-02,1.761138081550598145e+00
-7.203855936821007555e-01,-8.180212072834973647e-01,1.013707671760300189e+00,-5.883513160432858602e-02,-4.776137583175595232e-03,-2.214241528853140573e-02,1.788252115249633789e+00
-5.015590585210867314e-01,-9.484278624839322935e-01,1.050009682124167343e+00,-4.078387756078380444e-02,-2.732298140296659725e-02,-4.874074699927647900e-03,1.818709969520568848e+00
-7.832326887461263931e-01,-7.413251141879768635e-01,1.008050774370628400e+00,-1.515878377743079368e-02,-1.248674886867083209e-02,1.873739179963784113e-02,1.771325707435607910e+00
-7.268480572943267770e-01,-8.525221707205595800e-01,1.029895595540051279e+00,-1.577712358442435667e-02,1.082410078062910445e-02,1.503784985370453138e-02,1.823320031166076660e+00
-7.382536650127615729e-01,-8.140237151130564897e-01,1.020907287179854350e+00,-2.327240181217762882e-02,1.068863778774811757e-02,1.461086400209524704e-02,1.798968553543090820e+00
-2.751100392065905509e-01,-1.170815371290404583e+00,1.686061308059901842e+00,-1.807915287424012307e-01,2.371176041404366233e-02,2.576899188054068007e-02,2.550852537155151367e+00
-4.196018257223664838e-01,-1.288421706675549228e+00,1.785461886350883320e+00,-3.143543551753200660e-01,-3.052369090097165408e-02,3.490161808685354750e-02,2.799261093139648438e+00
-8.214057080851230319e-01,-7.516091635567722085e-01,1.028322230549447491e+00,-3.069951502554052816e-02,1.007150454983635028e-02,8.722561839666104211e-03,1.816760897636413574e+00
-5.552658088524771163e-01,-9.638315215894444066e-01,1.053539817078152918e+00,-1.389444682977161380e-02,4.915945472757228540e-02,-1.287796754220217263e-02,1.849543452262878418e+00
-5.898859787379431285e-01,-8.733050152309084213e-01,1.007748799699685893e+00,-5.935481518670271406e-02,1.690040176338795204e-03,3.283575950215695573e-03,1.759594678878784180e+00
-1.979784631556748553e-01,-1.191832942158383091e+00,1.758455468242273501e+00,-4.336965734271015544e-04,-2.795690759145427404e-02,3.573934260015920739e-02,2.601147413253784180e+00
-1.348804967505816244e+00,-5.054762774429977235e-01,1.346213388862543825e+00,3.422608406883613785e-01,-8.686295707112796916e-02,-1.097039543956764007e-01,2.472187042236328125e+00
-7.988438155556458753e-01,-8.024848702869047390e-01,1.032399721866705145e+00,1.002739430413345911e-03,1.196395699396543034e-02,1.052543826765586950e-02,1.833275318145751953e+00
-8.564735263295327750e-01,-7.273074933777664564e-01,1.048315117695728826e+00,1.611713615253617879e-02,1.206660437888419299e-02,-1.362036822764704606e-02,1.844083070755004883e+00
-1.084025960939168698e+00,-7.532444487545926215e-01,1.405433797845950350e+00,4.705353783081224761e-01,-1.193699722288133480e-01,-2.023003289554609618e-01,2.512587070465087891e+00
-8.595056504757717653e-01,-8.631322012266402499e-01,1.071651959999407433e+00,-6.617649242052113349e-03,4.219661281956387476e-03,-2.059741379195727251e-03,1.933024525642395020e+00
-8.617551652245928340e-01,-8.648059724179030239e-01,1.059439551955860370e+00,-3.074760454451714708e-03,-2.031223289564467425e-03,5.545239029859533667e-03,1.922756552696228027e+00
-8.443711047535388259e-01,-8.419264914078553597e-01,1.060717849530995016e+00,-3.301152412139743246e-04,-3.307504986630045414e-04,-1.115676768146103707e-03,1.903869032859802246e+00
-5.982523141946245460e-01,-9.128321824563756515e-01,1.041238329453587630e+00,2.617006113735830322e-02,1.322923105051761888e-02,-1.209198173184943470e-03,1.818027734756469727e+00
-8.535544902144019952e-01,-8.623580379944383312e-01,1.057536816411569713e+00,-2.231896400288983957e-03,-7.968254795779490182e-03,7.033806522247005276e-03,1.915600657463073730e+00
-7.412673820998054441e-02,-1.182444681465730119e+00,1.326069314906932028e+00,6.090897621175517251e-02,1.897003468613083776e-01,2.002970166388070433e-02,2.204783916473388672e+00
-4.230084843031223230e-01,-1.485674847932223708e+00,1.347786918031629533e+00,1.585134190619770789e-01,-1.035452110432471540e-01,-5.675360801097237111e-03,2.500876188278198242e+00
-4.881645987010310717e-01,-1.105807138245267662e+00,1.175200347606164319e+00,1.057527330234948465e-01,7.066167943743284496e-02,3.776971504345196309e-03,2.055286645889282227e+00
-6.262795934016185395e-01,-9.093782636754254023e-01,1.043198770234870842e+00,2.093582793462493014e-02,3.805093430212089928e-02,2.443083895875786116e-02,1.829584360122680664e+00
-8.622338160956071196e-01,-8.660057407781144301e-01,1.056019409515347673e+00,3.807192085464376936e-03,-1.568122848937453457e-03,-2.520412156123911628e-03,1.920160174369812012e+00
-8.686547401718073269e-01,-8.656415721622878756e-01,1.063648797218502473e+00,6.041493565611742549e-03,6.103625706772333043e-03,-5.620501333943212462e-03,1.930880546569824219e+00
-7.600843891897529625e-01,-8.419227623279317285e-01,1.042478152927467816e+00,8.178339540016482667e-03,2.821982059479278063e-02,2.247428658009730656e-02,1.845955848693847656e+00
-4.516260122634439544e-01,-7.113138475576475939e-01,1.212494387905596271e+00,4.630512167736650642e-01,-2.441037689468454064e-01,-1.387085997093000234e-01,2.036815166473388672e+00
-8.040617382470588437e-01,-7.578450293479490618e-01,1.061920295354559229e+00,6.758906026900231290e-02,2.865775620350378625e-02,4.823622773585849871e-02,1.849576711654663086e+00
-5.748001020476596334e-01,-7.536790681319602836e-01,1.029468285536531358e+00,3.053649423092795190e-01,1.645561768717493335e-03,-8.203962921255560092e-03,1.781178832054138184e+00
-8.555519679650960274e-01,-8.261372408000412504e-01,1.032766144617794701e+00,4.090153532969222766e-02,5.472500676919541188e-03,1.803796066019361377e-02,1.875406861305236816e+00
-8.082811593597717392e-01,-7.471383591033292637e-01,1.018201814011523654e+00,3.149040909708585717e-02,8.627030257969006341e-03,8.623068678207964841e-03,1.797643899917602539e+00
-8.596298264361320607e-01,-8.271925557354879999e-01,1.040957557381687160e+00,-1.841936416360469633e-02,-4.527078657756508466e-03,7.378885084399742361e-03,1.884907841682434082e+00
-8.600566410015139107e-01,-8.629903132233963658e-01,1.008134056278037427e+00,1.210897900980674978e-02,1.708284851624695955e-02,-2.041076409631167876e-02,1.870345115661621094e+00
-8.156107638935722326e-01,-8.401756944234514135e-01,8.360283320114079153e-01,6.647979761574712189e-03,1.741438532582304313e-02,-4.583409953711407164e-02,1.666262984275817871e+00
-1.457035327906220701e+00,-5.370792712720524609e-01,6.868988023131299414e-01,-2.129254107071159863e-01,1.446234029447590053e-01,-1.646697185409173037e-01,1.936635017395019531e+00
-1.069175930876150371e+00,-7.491097409876834590e-01,1.188930663409181854e+00,-3.949828801651884130e-02,-3.499881139069552921e-02,-2.491641475769125133e-02,2.118716955184936523e+00
-9.210646374251335589e-01,-6.982712648861401084e-01,1.066229698464781439e+00,-1.117950079182930545e-02,-6.058928530380575279e-03,-2.264000604097335737e-02,1.886330366134643555e+00
-9.140957752996521357e-01,-5.606681353084609354e-01,1.009519223246952091e+00,8.361087294311381202e-02,1.632788634886683105e-02,-2.117188071715709816e-02,1.780017971992492676e+00
-7.933151040795878295e-01,-7.922023640566312475e-01,1.037408441172837037e+00,-5.182607387469675975e-02,-2.766583345698772969e-02,3.174028722405060343e-02,1.833818197250366211e+00
-8.645765956503468352e-01,-8.394144206849281087e-01,1.049851565996227087e+00,5.900237021629128003e-06,-1.577273273884107971e-02,-1.848402904810911296e-02,1.902437448501586914e+00
-8.389398386141891928e-01,-7.597085454987462239e-01,9.116859137066124497e-01,4.619688660276406733e-02,4.950972747611938340e-02,9.102154072159136800e-02,1.723622560501098633e+00
-8.693392866663948171e-01,-8.700441702486513273e-01,1.062886111851329973e+00,-9.992946066281298972e-03,-3.166226871538667040e-03,-3.100267368224280361e-03,1.932670712471008301e+00
-8.061081984877984663e-01,-7.561215243182144441e-01,1.010309704857566215e+00,4.158183413342571993e-02,-2.074464512044442779e-02,-2.990909222834951808e-02,1.794502139091491699e+00
-8.659321146973590899e-01,-8.291225123481394954e-01,1.058929397552952567e+00,8.036651753879355334e-03,-3.200341675045449696e-02,-2.637839701596849089e-03,1.907585024833679199e+00
-8.606587079961495190e-01,-8.716944079799234801e-01,1.039725267359126626e+00,-1.024534250753031568e-02,-6.941468696855461473e-03,-4.800352524405527600e-03,1.906064510345458984e+00
-8.243862867789362170e-01,-9.738258038675020600e-01,1.079994824539481035e+00,1.087092863332125292e-01,-2.309983877832544330e-02,-1.418998843905827992e-02,1.992798924446105957e+00
-8.136660292818882478e-01,-8.024675866888175690e-01,6.461876264295723926e-01,-2.424240610413085778e-02,2.762167259782230717e-03,-4.385612699915213825e-02,1.456882357597351074e+00
-8.545607829403017996e-01,-8.593184157660995748e-01,1.022092427215134824e+00,1.196297746141040773e-04,-1.066989710892693975e-02,2.416621994761211211e-03,1.879132151603698730e+00
-1.058833965375967967e+00,-4.544660658298377842e-01,1.157069333556178359e+00,1.454810280282612944e-01,-1.494685981923739131e-02,-1.394786490267009571e-03,2.000109434127807617e+00
-7.596433047782329417e-01,-7.549373892977616629e-01,1.001173599729362929e+00,1.840937563441847127e-02,-7.946628748328566499e-03,-1.063858223669653623e-02,1.758908152580261230e+00
-8.021285739771717438e-01,-8.168307029240994277e-01,1.046234883491186318e+00,4.324846088036184838e-02,-3.341487271589702306e-03,7.442841815373715114e-03,1.857323169708251953e+00
-4.038801003360574238e-01,-1.114184535145153809e+00,1.249655636782224910e+00,2.974116445204468828e-01,-1.118249616508538574e-01,-8.987461069563097704e-02,2.177230834960937500e+00
-8.647062460919062721e-01,-7.019364840033506248e-01,8.034336283890841646e-01,1.647534571185067798e-02,-6.114550910577156925e-03,6.086598759523060426e-02,1.596778750419616699e+00
-7.175561924621317589e-01,-7.990453413812937944e-01,1.009723757509260578e+00,1.672911039422321847e-02,-5.301459082469273283e-03,3.942155325871880833e-03,1.769706606864929199e+00
-8.007976216932519709e-01,-7.110914134376884466e-01,1.030054539726795504e+00,3.688485864566266176e-02,-6.059509576286242066e-03,-4.069249462538440318e-03,1.788873791694641113e+00
-9.381637271421325863e-01,-7.653126453994177902e-01,9.188246512295643598e-01,-1.415098002871015559e-01,-2.992565959241861098e-02,7.661748765911927106e-02,1.799353599548339844e+00
-8.528750933336898266e-01,-8.714014271720951221e-01,1.003035225117414830e+00,-7.325344446552192919e-03,-6.957490409767281940e-03,-1.904860362773527424e-02,1.865616321563720703e+00
-9.133591946270942508e-01,-5.862733932347883314e-01,1.040225833051238391e+00,2.066609580256866668e-02,-1.955544971769699613e-05,3.067459397838735724e-03,1.812677383422851562e+00
-8.567393072482916150e-01,-8.541889889735175823e-01,9.950394596695151250e-01,-7.756484032327035268e-03,9.737130729763805032e-03,-6.436090993125071977e-03,1.850664138793945312e+00
-8.568130621383736045e-01,-8.563891819080107215e-01,9.989267759885307463e-01,-9.321099038062444914e-03,-6.140516874689731612e-03,9.732969862632768338e-03,1.855705261230468750e+00
-5.622093055305874554e-01,-9.379589876587920427e-01,1.026495432617485770e+00,1.348411900447858414e-01,1.945133646345799730e-02,2.717123984213378612e-02,1.822092771530151367e+00
-8.609479768424311841e-01,-8.387427058071098562e-01,9.484629671105153648e-01,-9.987996302484680386e-03,-2.113547306515935545e-02,3.861020233593403898e-03,1.798879265785217285e+00
-7.870081144111935600e-01,-7.830384359061092203e-01,6.432325205214354247e-01,-9.401204775888528584e-03,-3.409102829582499189e-02,-6.996253473551883317e-02,1.434699416160583496e+00
-1.349915358474029992e+00,-6.626968960639572082e-01,1.061242177503831652e+00,3.298508304358593324e-01,-9.940779245470052206e-02,-2.254747873142804240e-02,2.233054637908935547e+00
-8.192201617910186418e-01,-8.504064472475183489e-01,1.059101319444500255e+00,-4.668349570022953775e-03,7.216063183589656489e-03,-1.358355116682495242e-02,1.894311785697937012e+00
-4.713939157334380292e-01,-8.774210409506241204e-01,9.896885024232067174e-01,1.355877073782872366e-01,8.435341858857973302e-03,9.664682248981695464e-03,1.717121005058288574e+00
-8.951358340632380450e-01,-5.066011338121811924e-01,9.807515812748459627e-01,1.568003471845932917e-01,-4.253943691598194993e-02,-3.782452869959256753e-02,1.739122033119201660e+00
-1.043502305766133453e+00,-5.604438832553848560e-01,1.254475584550205136e+00,4.971912049749939722e-01,8.172835240772341470e-02,1.149826173133832591e-01,2.281510353088378906e+00
-8.533396227727858552e-01,-8.673413710892691197e-01,1.009066649681481520e+00,-8.013537204892638710e-03,-5.308439640659778566e-03,-6.067273174780202227e-03,1.869550108909606934e+00
-8.493747882155018303e-01,-8.726087556930435252e-01,1.009530783064412462e+00,-8.647834753930170107e-03,-6.518573051679609105e-03,-4.480234650892926836e-03,1.870740890502929688e+00
-7.116097165684471815e-01,-8.045839593801205059e-01,1.005342239594561038e+00,7.412715832697457097e-02,-3.257648171855286219e-03,-4.982071235883207307e-03,1.769969344139099121e+00
-8.484739449704984393e-01,-8.301055362027495166e-01,8.828072240428361805e-01,-1.697321136107570252e-02,-1.065832620015585465e-02,-5.722240188155437376e-03,1.722548723220825195e+00
-7.868244266442547818e-01,-8.207005526729428402e-01,1.035361306025478489e+00,7.933964551719342034e-03,-1.425162776466342394e-02,-1.546339442284678373e-02,1.839769721031188965e+00
-7.991889595746242136e-01,-7.800376636373171912e-01,1.025220307931098640e+00,-3.867058482642694731e-04,-1.016499480125164674e-02,2.621181244537185411e-03,1.815000653266906738e+00
-8.604040358522819787e-01,-8.680253999345457494e-01,1.032453993585928709e+00,-8.446112296530149804e-03,-1.264979115931182639e-02,7.436329638678718622e-03,1.896906852722167969e+00
-8.539895840768771951e-01,-8.662881401433114581e-01,9.974440248236171591e-01,1.455264243127711707e-03,5.758436854893765611e-04,2.030830923244956315e-02,1.857948422431945801e+00
-6.399037368810442938e-01,-9.967349939288110416e-01,1.214761000509198219e+00,4.342353741293378810e-01,8.934880004841037893e-02,1.529492506617664560e-01,2.211045742034912109e+00
-8.510519837068607485e-01,-8.354824669150758831e-01,9.815456865952760790e-01,-2.798446134184933570e-03,-5.266879920856185927e-03,1.531784925500128194e-02,1.825084805488586426e+00
-8.299276254759478944e-01,-8.526014911473247526e-01,9.239469154377575322e-01,-1.084150403936056002e-02,-9.530678643612698620e-03,-9.359309610440041949e-03,1.765572190284729004e+00
-8.395413174915227206e-01,-8.708749668425703749e-01,1.047569759256364419e+00,1.959491664640028614e-03,3.573250062671155108e-02,2.283159692124234978e-03,1.903984665870666504e+00
-2.860546407897019972e-01,-9.494856126051406386e-01,1.078612881925277600e+00,-3.482084124731266717e-01,-6.052495601910323764e-02,3.483293798391435409e-02,1.893725991249084473e+00
-3.446568603763374705e-01,-1.539094023427552749e+00,1.248526972252636646e+00,-1.115623810011035916e-01,2.658367132860777193e-01,4.722636745241341055e-02,2.474653482437133789e+00
-7.688074927411823190e-01,-9.372418907404606037e-01,1.068780580965460247e+00,-1.043052619094684760e-02,2.691205625485356204e-02,7.013762246577685995e-03,1.928019642829895020e+00
-5.942030836160691054e-01,-9.463763271284606482e-01,9.104790984309518720e-01,1.234951771896971272e-02,-7.717821880329242545e-02,-2.748808657348538256e-02,1.714233636856079102e+00
-4.055026381333082797e-01,-1.389902171992524638e+00,1.683632254626735714e+00,-2.557808518977868761e-01,2.446511176036665278e-02,-2.156500389794000286e-02,2.754910707473754883e+00
-3.909027118067397999e-01,-1.373853553929558657e+00,1.712147259041447711e+00,2.274421377410343614e-01,1.064843210892943287e-01,4.587444544240479316e-02,2.766175270080566406e+00
-4.901775476000538312e-01,-9.776060810998981054e-01,1.046375667607700732e+00,8.676281388130157451e-03,7.370022236072024287e-03,6.416966954999783757e-03,1.829769015312194824e+00
-9.137289169647601073e-01,-9.607831356355811536e-01,9.350234795160752288e-01,8.578407489610793968e-02,1.480642017960138446e-01,1.376614155099449566e-01,1.910965442657470703e+00
-8.431214283296355472e-01,-8.345875718243574992e-01,8.840339492853304115e-01,1.252373175850051389e-02,1.264995207652090149e-02,6.363599673617085888e-03,1.723215341567993164e+00
-8.596201342486481378e-01,-7.881399312898246245e-01,1.044924526463486769e+00,-6.648967229558394414e-03,-2.015959885687269512e-02,-1.746463262065495875e-02,1.870435595512390137e+00
-8.349424273784799011e-01,-8.493878754838593004e-01,9.252006095878149150e-01,3.110910177911104402e-03,1.055970610003067155e-02,-4.025319629487986162e-02,1.768887400627136230e+00
-8.630787581545780185e-01,-8.659536718325134830e-01,1.050301113309302314e+00,4.016372891802269009e-03,-5.977170868549593757e-03,2.896020996093806848e-03,1.914866089820861816e+00
-7.885230950738251199e-01,-7.179097039255313284e-01,1.668710041786265474e-01,-1.686451842225078490e-01,2.042240404383598162e-01,1.457709435731400494e-01,1.060421586036682129e+00
-8.532275331505219107e-01,-8.591349646748200897e-01,1.062467322777981282e+00,4.261446929348217095e-04,-6.904331076279888318e-04,6.990673523908684864e-03,1.918694138526916504e+00
-8.600648273007421851e-01,-8.495996324397749877e-01,1.062810322700282084e+00,8.132907355594613634e-04,-1.266347348590492715e-02,-5.628661242109287560e-03,1.917814731597900391e+00
-8.639872900589778970e-01,-8.657832416118144137e-01,1.060396772471351667e+00,5.100089722751089370e-03,-4.303264479566608867e-03,-9.824154727508108750e-04,1.925318121910095215e+00
-8.611531408726482706e-01,-8.634213181186263242e-01,1.044371499424493921e+00,2.333375188493139012e-03,-7.189220728138275007e-03,3.129066593637834862e-03,1.906712412834167480e+00
-8.539140670338016825e-01,-8.603456219519322046e-01,1.071099460333045039e+00,1.154866547430728405e-03,3.512374094788682510e-03,4.846094709611807258e-03,1.928266286849975586e+00
-7.699820047331298323e-01,-7.737353866501488486e-01,5.694844777388220480e-01,7.886351816259651662e-03,2.980540522305369366e-02,-1.728053974442184809e-02,1.342743277549743652e+00
-8.032414198021281537e-01,-8.067538530751153791e-01,7.338239926202014818e-01,1.145642218330479405e-02,5.680271660217741519e-02,7.812226903509311010e-03,1.542153596878051758e+00
-1.490956381454223489e+00,-5.010756311723888468e-01,1.182747776117617500e+00,-9.723991719666366662e-02,6.717499065421085602e-02,1.593859023718530166e-01,2.366437196731567383e+00
-8.246812799274815253e-01,-8.431232734198857992e-01,8.617898824394711887e-01,2.936375630253161041e-03,3.595507416641238827e-03,-1.059207742287305437e-02,1.695885658264160156e+00
-7.940142042545833556e-01,-8.118046430599797914e-01,7.282358432109621305e-01,8.666609198346520229e-03,2.879970816236754674e-02,-6.184715058371335200e-02,1.535848975181579590e+00
-9.696694106202677910e-01,-6.617394148788022790e-01,1.092740595440756524e+00,-9.057149126198127051e-03,1.552098207824433376e-02,-2.085925836135473985e-02,1.927576780319213867e+00
-8.986800127966300122e-01,-7.818888541470129239e-01,1.064612512516411869e+00,-4.341669306496216685e-03,1.690383979318748481e-02,1.930520435830725134e-02,1.908112764358520508e+00
-8.637741209126857944e-01,-8.408398705860153921e-01,1.041314090733990394e+00,-1.929955573368113747e-03,3.405018580594583368e-03,1.447620438451566877e-02,1.893903374671936035e+00
-8.592672415383570961e-01,-8.518509289689595310e-01,1.029237399207439507e+00,6.866050892551083668e-04,7.035312723390457074e-03,-4.102851782817673772e-03,1.884860634803771973e+00
-8.384713459090331611e-01,-8.509427152948130235e-01,9.172602324851322209e-01,1.156000644848704205e-02,-2.463271091607134242e-02,3.178823693553153168e-02,1.763490319252014160e+00
-8.419139009874613278e-01,-8.143557414775960401e-01,1.047072035109879451e+00,8.199214563131232425e-03,4.121647570188306277e-03,8.073174915857652539e-03,1.875478267669677734e+00
-8.368632484992891696e-01,-7.858022740690965291e-01,1.033611954765037311e+00,1.239226095599827229e-02,2.581195033970285976e-02,-6.119941871420214036e-03,1.846171259880065918e+00
-8.243140783370260793e-01,-7.675688727794975907e-01,1.043227191554496169e+00,2.805137101073576153e-02,9.167050091777657894e-03,2.608607459935924008e-02,1.841089487075805664e+00
-8.802030306292645268e-01,-7.813788131071118803e-01,1.088084587367069922e+00,2.481931162786530642e-01,4.225418682876434101e-02,-5.779756899059028397e-02,1.972203135490417480e+00
-1.488066405358873023e+00,-3.361292183791732557e-01,1.722813590580334342e+00,1.057838427660732911e-01,-3.220473831900750455e-02,6.132633939534611056e-02,2.825941085815429688e+00
-1.382952063923808872e+00,-4.211381844088287751e-01,1.668061893698801201e+00,-2.480936851738338722e-01,8.163921668232002049e-03,-5.052350139323824596e-02,2.737110376358032227e+00
-9.547467175244539472e-01,-5.477282474735210016e-01,1.039732567227942273e+00,1.123967393212412375e-01,1.097481493436770414e-02,4.657628060400424708e-03,1.835796117782592773e+00
-8.462675245857849138e-01,-6.246455234295152925e-01,1.004929724671902225e+00,5.753712781801821607e-02,1.829649748246632568e-02,1.985349027687197468e-02,1.754394412040710449e+00
-9.372923780660625814e-01,-4.991343413792436734e-01,1.004600516449626113e+00,5.582350023288974727e-02,-9.144438555747714734e-03,5.231468843976954698e-03,1.766849279403686523e+00
-8.242083203573808969e-01,-7.488445529381811960e-01,1.038645968882468740e+00,-5.760763277732304510e-02,2.329575416884915179e-02,-1.420188170187600650e-02,1.829672932624816895e+00
-9.709031544319315365e-01,-5.107427417244365664e-01,1.048615311011804607e+00,-5.432537939639205810e-02,8.070653650834336626e-03,-3.916404377181541274e-02,1.836995005607604980e+00
-8.937118994071415745e-01,-7.693478886154486718e-01,1.060372690583889721e+00,-7.149704464688471511e-03,-4.585010211708963335e-03,2.737651884641752187e-02,1.895616054534912109e+00
-9.100955895401222628e-01,-7.688523628161818557e-01,1.064713817083500880e+00,1.756805742561454772e-03,-1.262897340930960351e-02,3.716844397925673366e-02,1.909325957298278809e+00
-8.646943069434789297e-01,-7.653367568138683685e-01,1.017103451103823497e+00,-3.312691908128425483e-02,2.806852630075883440e-02,-2.212203822540545484e-02,1.836079478263854980e+00
-8.604026575210378391e-01,-8.309741698672203913e-01,9.860832313439407137e-01,-6.198101421312923916e-03,-1.660213566281144111e-04,1.313412217289095657e-02,1.832121610641479492e+00
-7.965203236082958327e-01,-7.988363212822409132e-01,1.032540126395269375e+00,-2.808678162130694503e-02,-1.419951931336000967e-03,-7.968255558977769062e-03,1.830919623374938965e+00
-8.529397501764144351e-01,-8.725994951304609781e-01,1.019277036466002873e+00,2.712166431577611551e-03,2.302119338596331569e-03,-3.956962344933977714e-03,1.882146239280700684e+00
-8.595734821371301404e-01,-8.557410778638625537e-01,1.018350647895746253e+00,-3.186649214401252343e-04,5.017977302160246331e-03,-5.700299107002672165e-03,1.876057028770446777e+00
-8.560238271658321407e-01,-8.688055297794603504e-01,1.025378049678071335e+00,-4.046707442265268001e-04,5.915429452874071837e-04,4.362469178334433921e-03,1.887840747833251953e+00
-6.437840992256462780e-01,-7.910077340517902567e-01,1.048362191380789898e+00,1.146406079841928716e-01,-1.539970085075910260e-02,-2.171615342540916815e-02,1.782052636146545410e+00
-8.790619551249636565e-01,-7.063636820198567756e-01,1.043361601875090194e+00,2.590956253963472636e-02,1.665775938509257356e-02,-1.239532044439401251e-02,1.843053221702575684e+00
-7.528086269500924299e-01,-6.071475203753576855e-01,1.549266003628805066e+00,4.143697809227150364e-01,4.083826457742243538e-02,-4.335634459027539606e-02,2.347592830657958984e+00
-9.529230163663551245e-01,-5.229565089211083428e-01,1.037907478023918584e+00,3.706121014557248183e-02,-4.454522506768970359e-03,-4.423046764155641464e-03,1.815633654594421387e+00
-9.183807535805398325e-01,-6.718804885896545454e-01,1.045086080978865795e+00,2.723584484655740962e-02,-2.712458735014579292e-02,3.438998053287076195e-02,1.854710221290588379e+00
-1.129458007772298433e+00,-6.683972755457640025e-02,1.146261059332701393e+00,4.329314181926699479e-02,4.230058838657926173e-02,1.400798752513954804e-01,1.989897489547729492e+00
-8.125773902481714384e-01,-7.862701736153829835e-01,1.026343077010251514e+00,5.378146177212243806e-02,-2.541129636922341908e-02,-2.183428936056439063e-02,1.829204320907592773e+00
-8.476307295093301608e-01,-7.707903772518583940e-01,1.037057254272423457e+00,1.151194053904758610e-02,-1.134087987503477717e-02,-9.576822870953648204e-03,1.847753167152404785e+00
-8.585612283417688451e-01,-7.227149395754342009e-01,1.042855612212110428e+00,2.295342475929206764e-03,-2.133277000381943525e-02,-4.054503744633033285e-03,1.837653398513793945e+00
-6.693921137944791599e-01,-9.526862779562436101e-01,1.062559632193487147e+00,6.183788165765179146e-02,2.958494173168390445e-02,-1.707735157190087144e-02,1.893551349639892578e+00
-8.440311127952265791e-01,-8.091077357079929921e-01,1.051288517426161473e+00,2.142472105570959393e-02,-6.294863928486390571e-03,9.595857867847066083e-03,1.878573179244995117e+00
-8.573325753362192048e-01,-8.426589448748980082e-01,1.058257423652783968e+00,-7.569348502531092308e-03,-5.782076212688410863e-03,6.204241133543621570e-03,1.908397078514099121e+00
-6.662789977911667272e-01,-8.954456400275379035e-01,1.043238922506772415e+00,1.467056053835869185e-02,-2.378476258331463367e-02,4.233499261401299854e-03,1.835518956184387207e+00
-7.655318210936834511e-01,-6.353932171457051803e-01,1.239376597209243203e+00,4.038785084527429792e-01,1.672199359672754126e-01,1.576541748988372627e-01,2.103207826614379883e+00
-6.959416851114453850e-01,-9.026761467924183657e-01,1.034924360645471886e+00,1.352530345561879510e-02,4.004997129607237166e-02,2.066020305060617054e-02,1.844751358032226562e+00
-6.703269414964434514e-01,-9.808828415090670161e-01,1.109792662351625880e+00,2.751310288658368464e-01,-9.416168314945831674e-02,-5.191778774530525498e-02,2.019869804382324219e+00
-8.617478367726059130e-01,-8.600388503983440458e-01,1.035019988211839381e+00,-4.630559304552798149e-03,5.776268092380834954e-03,1.153325459797246641e-02,1.896062493324279785e+00
-1.350594816328247516e+00,-7.174886922971206449e-01,8.306961134915746836e-01,2.814921292978445067e-01,1.467150306585752462e-01,-1.654254482650897168e-02,2.020142316818237305e+00
-8.543643979622909113e-01,-8.488868655671069074e-01,1.059172815770248022e+00,1.895969036117934117e-02,3.992448783095765320e-03,-7.401093235158207224e-03,1.911141991615295410e+00
-9.026644152033231894e-01,-7.948511878391487651e-01,9.850741279450441201e-01,3.201549520765229612e-02,-8.848168395000261671e-03,3.017587183094920175e-02,1.837851762771606445e+00
-8.354469256895983298e-01,-8.352947140054248765e-01,9.048961360176204227e-01,-3.365402817536615639e-03,-2.363532752274667345e-02,-3.049423155598050481e-02,1.741559267044067383e+00
-6.501910191490339885e-01,-8.065437273873947710e-01,1.048425131106323738e+00,2.184460896229694638e-01,-9.511773600424186514e-02,-3.213982640372765875e-02,1.829951763153076172e+00
-8.831688842003239115e-01,-8.691440099688426679e-01,1.024669856998474682e+00,-6.315434804826625462e-03,1.222764528884237763e-02,-7.214568049637617997e-02,1.905117154121398926e+00
-8.566649113095182733e-01,-7.962588754266093360e-01,1.040120515000998003e+00,1.567457646327266585e-02,-9.232356327812606643e-04,3.131358681930845444e-03,1.867521286010742188e+00
-7.883781571684724820e-01,-8.018388483719743887e-01,7.025342103322301801e-01,-2.856444469234172435e-03,-1.183224242889264165e-02,1.267410423267311369e-02,1.497997283935546875e+00
-8.609766697557950099e-01,-8.479150683547731493e-01,9.969342681575572573e-01,-3.180368054760593886e-03,1.548058743214726987e-02,-8.900364162816417485e-03,1.851681232452392578e+00
-8.652838628424545098e-01,-8.538023514328715313e-01,9.827330668883058618e-01,-1.320285083638146964e-02,-3.534082831096390515e-02,-1.536801104851688929e-02,1.843653678894042969e+00
-8.456150148067155259e-01,-8.387643930244492729e-01,9.095799592769595598e-01,-9.699285831057877227e-03,-2.023344505540284818e-02,-9.601647004381297021e-03,1.752289652824401855e+00
-8.472054185249999758e-01,-8.473066033250795659e-01,1.040070947086330078e+00,-3.016955827722491226e-03,1.137166744146808330e-04,2.811316375727505434e-03,1.887340426445007324e+00
-1.210808844362862402e+00,-1.011403408002209625e+00,4.796073847200756912e-01,7.533613224532161035e-02,-1.073382852557061701e-01,-1.804032358356862376e-01,1.646031141281127930e+00
-8.610569793276402484e-01,-8.663960947560396253e-01,1.044218295076056569e+00,6.945375355046173177e-03,5.301977761855760155e-03,4.306196847013939871e-03,1.908025026321411133e+00
-8.668455200543841999e-01,-8.564229533299327901e-01,1.060911760011433946e+00,1.394309545181773033e-03,-7.307940338732957231e-03,5.356711248489304765e-03,1.922632813453674316e+00
-8.683093923797275959e-01,-8.729615496114032647e-01,1.047137957505484884e+00,-9.346820431790941368e-04,-7.269883385270727201e-04,-1.011807986099844819e-02,1.917858839035034180e+00
-8.659743403180441002e-01,-8.607971756567268651e-01,1.059992011220888486e+00,-4.105539710921386927e-03,-7.093160254628268170e-04,5.571487028590842334e-04,1.923396825790405273e+00
-8.704549074254415153e-01,-8.610634757059731914e-01,1.054659551667103123e+00,-2.310593753078875844e-03,1.421958850318201560e-03,6.985824547287965668e-03,1.920479774475097656e+00
-8.703059530967249824e-01,-8.624303405080303575e-01,1.039726618910238320e+00,-7.448287477103403276e-03,-1.557409283083657087e-02,-1.954064127276887528e-03,1.906344532966613770e+00
-8.665432921298779068e-01,-8.566314608520880780e-01,1.010264752653552200e+00,-9.096857605642430164e-03,6.882013573287219972e-03,-1.455596064894462173e-02,1.872145891189575195e+00
-8.570775060853592642e-01,-8.621031058799923930e-01,1.040146472574850378e+00,-1.259356413447875649e-03,6.467284882298594655e-03,6.220264377409258881e-03,1.899806618690490723e+00
-8.294895159714207322e-01,-8.463539839123324082e-01,1.053929585506024669e+00,1.834295665160293491e-03,1.108799176309440901e-02,9.154490755539413521e-03,1.892074346542358398e+00
-8.136993800208192074e-01,-8.593254503920915166e-01,1.047315735659769098e+00,6.030663120483685871e-03,1.669317140536089386e-02,1.210664601844648781e-02,1.884609937667846680e+00
-8.260833664647120322e-01,-7.888000587218447768e-01,6.792852100366723045e-01,1.023466828455608154e-03,-1.777328669824594642e-02,-2.635064029807299146e-02,1.488097190856933594e+00
-8.592068943109784085e-01,-8.353030614176732982e-01,9.528535710936050229e-01,3.157923482809294607e-02,2.845364464754626677e-03,-1.307767680308835438e-02,1.801207542419433594e+00
-1.041892126799914609e+00,-1.185249277677066004e+00,5.292644070429295411e-01,3.926027270331860532e-03,1.148829480612892917e-01,8.374981377778342728e-02,1.665834069252014160e+00
-1.360664167413693448e+00,-9.499933640581783578e-01,6.255591681167289586e-01,1.040789093977958768e-01,4.124697985237011505e-02,-4.924367672385476964e-03,1.826396346092224121e+00
-8.516200263385836911e-01,-7.740622416168730924e-01,4.872765673005732268e-01,-2.880249374449266736e-02,1.067139900257468438e-01,-9.732392381443741303e-02,1.326606869697570801e+00
-8.058363888712127832e-01,-8.184496860070802349e-01,7.467747195278631178e-01,6.532624550078785369e-03,7.248457113489413864e-03,-7.979933698464171388e-02,1.565162420272827148e+00
-1.284997539024695712e+00,-6.655322842103796877e-01,7.791957545170729027e-01,-7.841277932162120379e-02,-5.734118949489382111e-02,5.842539764478137804e-02,1.845124721527099609e+00
-8.109231672886033637e-01,-8.103260174623128087e-01,7.566482303931800768e-01,-1.057359419156840563e-02,-1.201504764842223696e-02,4.873912960828177821e-02,1.569789648056030273e+00
-7.407507938867468056e-01,-7.525983397761920601e-01,5.186699450489082874e-01,-3.868400539186544942e-03,-2.814224357539543264e-03,-2.066509689743718098e-03,1.265418291091918945e+00
-1.001363720444206074e+00,-9.112660221883358558e-01,8.964487495648914006e-01,6.309205712898847962e-02,2.006317017986028114e-02,-7.784602990695661806e-02,1.862834095954895020e+00
-8.581706202605354772e-01,-8.569121221934374866e-01,1.017703888041165960e+00,-6.740629950771379747e-03,-1.537729057807202433e-02,-1.185920037705946901e-02,1.875583529472351074e+00
-8.789660242322792083e-01,-7.084325332282657151e-01,1.049417297395263349e+00,1.931582558995122156e-02,6.540120411992671710e-03,-1.826020611942862776e-02,1.849631786346435547e+00
-8.256595906805792584e-01,-8.220422297571641224e-01,1.046169523559648207e+00,9.279024954149289392e-03,4.356472533356046083e-03,-7.114226375812104063e-03,1.870147943496704102e+00
-8.580478851395602069e-01,-7.253881325358477739e-01,1.017657917455720318e+00,6.293045741732355980e-02,1.407424056603424033e-02,-1.710569087607605870e-02,1.816698431968688965e+00
-1.014274522276569446e+00,-3.399061347073532025e-01,1.041993445931556295e+00,1.541252672511171651e-01,-1.572293281085945967e-03,7.834366270104232977e-02,1.840112209320068359e+00
-8.015583375114514464e-01,-8.080106405984480711e-01,1.033727291557267502e+00,2.509850222823403754e-02,-5.270595982389463495e-03,1.206895021369424129e-02,1.839175581932067871e+00
-8.600414586712245013e-01,-8.603454308081130986e-01,1.062775905141351007e+00,-1.346615873305487829e-03,1.638998945913605545e-04,-2.044564709407753911e-03,1.922974109649658203e+00
-7.946075490008893683e-01,-8.759539646788464529e-01,1.058100612112942374e+00,-7.459537152393272289e-04,-1.526173566734612651e-02,1.207519327141646191e-02,1.894991755485534668e+00
-7.417310849237247483e-01,-8.733510812894514919e-01,1.037001193772839613e+00,9.303457019987347934e-03,2.117441504219496132e-02,2.548852273438561786e-02,1.849022150039672852e+00
-8.621073192060928481e-01,-8.614548792929265231e-01,1.036745870991582885e+00,-6.631428301736452639e-03,-3.105495086270036037e-03,5.171612769564353992e-03,1.898590564727783203e+00
-8.493911534520206530e-01,-8.601496407538902211e-01,1.007721668782891822e+00,4.719986297268723326e-03,8.092720416441623668e-03,6.426450136068511711e-04,1.862586379051208496e+00
-7.645494509353958357e-01,-9.562515873984510639e-01,1.068398335101226726e+00,4.713177508875023534e-03,-4.924780754803066707e-02,-4.017881168477805548e-02,1.939075350761413574e+00
-9.234522808850479381e-01,-7.137286338911720263e-01,1.122697005215214316e+00,-2.764830027866103102e-01,1.411489855754973106e-02,-5.299498146441727897e-02,2.009959459304809570e+00
-7.656533685107057563e-01,-8.943096264657577343e-01,1.076600475534808865e+00,-7.666179076145981930e-02,4.924853297279121328e-02,-3.865391289659939750e-02,1.917513728141784668e+00
-8.430373570977119924e-01,-8.315305601494069609e-01,8.912339962801829607e-01,7.931167719823934217e-03,-5.884671393098862661e-03,1.420352130321449321e-03,1.728633046150207520e+00
-1.285680599042852812e+00,-8.009729902762334763e-01,9.450112683606997077e-01,-3.587270261165472207e-01,4.765859279799861126e-02,5.275008878930711326e-02,2.128593683242797852e+00
-8.202816557477492498e-01,-8.243368521879724797e-01,8.290873745434810260e-01,1.289231871419477954e-02,9.786458090931518874e-03,-8.177899814998893652e-03,1.651699066162109375e+00
-8.602217152202766837e-01,-8.618188309837538919e-01,1.023505254851316826e+00,8.920135301080224163e-03,-8.098216009967009951e-03,-2.282370477784765022e-03,1.884645700454711914e+00
-9.046114207022243336e-01,-8.214630182934117286e-01,1.052677019285610305e+00,4.803176681392028885e-04,2.516048321247281276e-03,1.916499641100706877e-02,1.917359590530395508e+00
-8.579345862979809167e-01,-8.563371255071120514e-01,1.001005626942091720e+00,1.070018602261912748e-02,-1.302956742036535942e-02,-7.626126321961631399e-03,1.858418345451354980e+00
-8.032180578468647303e-01,-5.994027673200017503e-01,1.186608097461006928e+00,-4.144220915295217522e-01,-1.620836981016430534e-01,2.785993305922388474e-01,2.102925300598144531e+00
-8.657324309715276334e-01,-8.510202740408639999e-01,1.006984694033669747e+00,-5.993322439745973722e-03,-2.085955984487919759e-02,3.159299041898426096e-03,1.865791320800781250e+00
-8.682024381665782720e-01,-8.614548036654492424e-01,1.056092672434923330e+00,-2.755098519466028014e-03,-1.193580900553888264e-03,-2.121107177142451880e-06,1.920937180519104004e+00
-8.578490253999879744e-01,-8.604820665651440326e-01,1.049505558307987307e+00,1.353078339451160720e-03,1.844045905876429961e-03,-1.487973256984396510e-03,1.908678293228149414e+00
-8.650517372864620080e-01,-8.554429454001517552e-01,1.001438855997831334e+00,-3.894310080029405631e-03,-1.886186041722349993e-02,-9.259061603213795608e-03,1.862072706222534180e+00
-8.500256081324343294e-01,-8.620536680420944897e-01,1.054973858569509426e+00,1.383042454202690992e-03,-4.569519270973265712e-03,1.173956736280654285e-02,1.911167979240417480e+00
-8.694495652422353782e-01,-8.612262108444013187e-01,1.034756247940855189e+00,-7.135519112721472670e-03,-1.853714768149765033e-02,-9.818388596656004927e-03,1.900495052337646484e+00
-8.593019513362054607e-01,-8.659949717281375525e-01,1.037904732979956224e+00,1.523059989869120700e-03,3.679008741334556781e-03,-2.536844545601177857e-03,1.900579571723937988e+00
-7.431229604184228510e-01,-6.318615391647883772e-01,3.223537544041068514e-01,-2.188750200915420274e-01,-5.743737203965787463e-03,-6.382106046166056978e-02,1.088627815246582031e+00
-1.394290054532629775e+00,-2.457669531568104637e-01,1.216792585322835407e+00,-1.776306831758204530e-01,-1.499150042358205204e-01,1.922966176960143880e-01,2.326152324676513672e+00
-5.674754452002672700e-01,-7.903555584214213559e-01,1.308430238790557754e-01,-7.534869337086344543e-02,6.492744550847157070e-02,1.396819215636500855e-02,8.504292368888854980e-01
-8.515187811809480367e-01,-8.444477881845574574e-01,9.885791675769313169e-01,-3.669926271070197542e-03,8.852902304562652175e-03,5.406875749192107013e-03,1.836671590805053711e+00
-1.169108309441859950e+00,-7.679713816448531516e-02,8.720622004848496145e-01,-5.041562465561643530e-02,5.346341592103185172e-03,4.440665102628862243e-02,1.773007154464721680e+00
-8.648651632777815124e-01,-8.352583590005100422e-01,9.795513829832842578e-01,-5.000962259106280124e-03,2.871852874505834759e-03,2.023667267895567362e-02,1.830155730247497559e+00
-1.165554423930712957e+00,-2.065733017009402095e-01,1.374446030917512829e+00,-1.967454455959590388e-03,-5.320639941746104634e-02,2.103962501775573091e-01,2.253161907196044922e+00
-8.397702795690650257e-01,-8.669405134043879357e-01,1.036306230735159151e+00,-1.358241352699057292e-03,-2.725940878446768412e-02,9.601965592576478621e-04,1.890400052070617676e+00
-7.992089453435340385e-01,-7.693710271032822012e-01,6.828902982497381258e-01,1.057239436891471186e-02,8.623585929733784336e-03,-3.177900309768186358e-03,1.467608451843261719e+00
-8.671792691907002082e-01,-8.442279803898137258e-01,9.727058104834989116e-01,2.114206282161087882e-03,8.019240279075287581e-03,-2.881147629909099409e-04,1.828573942184448242e+00
-7.152390260074525941e-01,-9.414394964507906138e-01,9.853987821322984786e-01,-6.424791636980261948e-03,-1.963066432164906408e-02,3.554845716165176694e-02,1.825675725936889648e+00
-8.485968791790359234e-01,-8.464281725883406882e-01,9.370276852653478539e-01,1.341903996685678453e-02,7.466314266568158976e-03,2.647932869572884595e-02,1.785328626632690430e+00
-8.448084470251476796e-01,-8.400357804161876496e-01,1.049306306113748422e+00,-8.598847683026209984e-03,1.448818048014318717e-02,-4.673630526361553968e-03,1.891975283622741699e+00
-7.797631748087471282e-01,-9.145500257714159753e-01,1.095073852547310933e+00,-7.188196472548272209e-02,-2.440234621740495699e-02,-2.844861050180577319e-02,1.950794816017150879e+00
-8.388452733810318751e-01,-8.590735855398851095e-01,1.008976296445092569e+00,-5.871605505912205585e-03,2.156416163625499410e-03,4.586866548278070721e-03,1.858066916465759277e+00
-8.891306739726556607e-01,-6.472375743901097600e-01,1.059100971266109248e+00,9.842029769168159081e-02,1.202133072332087780e-03,2.667147511393678193e-03,1.847143888473510742e+00
-7.054049967958857525e-01,-8.946168191202749087e-01,1.033035979630810841e+00,8.180537177705388477e-03,4.657070183150684162e-02,2.489317603206231758e-02,1.842682242393493652e+00
-5.519775191468545561e-01,-9.345083144141810294e-01,1.024285060198304675e+00,-6.383419328394281111e-02,-3.400407793868474166e-02,-2.023317718891973552e-02,1.803004145622253418e+00
-5.029079525055438760e-01,-9.347426559906305554e-01,1.040192410188674588e+00,-3.825117446039832253e-02,2.753045341796096432e-02,4.496258364251675202e-03,1.800202250480651855e+00
-8.164576844733227867e-01,-8.396738024431589231e-01,7.951573192539065360e-01,-2.259134183154005299e-03,-1.593409137971391054e-02,-9.579869722718761804e-02,1.632043719291687012e+00
-4.394250313257312968e-01,-1.030109987121631487e+00,1.170505861571514705e+00,-6.307837904008671559e-02,-4.750747864611436916e-02,-2.618688124660671981e-02,1.978007316589355469e+00
-3.132972198373027428e-01,-1.486657525364340371e+00,1.624966313286243524e+00,-7.089933312477511573e-02,-2.241915859915565579e-01,-1.552051965367454850e-02,2.752182722091674805e+00
-4.974853605359871311e-01,-9.764120966254948852e-01,1.015999537137420639e+00,-1.386018822652842174e-02,-1.595533009177356118e-02,3.777426826273641049e-03,1.801732063293457031e+00
-6.285416545656244969e-01,-9.266477517758643367e-01,1.042014984433903058e+00,2.505202411108199342e-03,-2.666081888244479017e-02,-6.962787624622220062e-03,1.838457703590393066e+00
-3.742365470849711162e-01,-1.353766137689753180e+00,1.307915649401086400e+00,-4.045540693178040215e-02,-1.352552645130859488e-01,1.214970963490233716e-02,2.344582319259643555e+00
-9.044377877388320996e-01,-8.537990916309350364e-01,1.012557320419531282e+00,2.135597702114590962e-02,-1.075983361116400992e-02,-4.793385565071091314e-02,1.894457459449768066e+00
-7.122796818490257920e-01,-8.140773349663865677e-01,8.141884431602697259e-01,2.309380542829638505e-01,-1.733850379385570295e-01,2.023704080424638604e-03,1.657122492790222168e+00
-8.221778946235164254e-01,-7.670610029979884059e-01,1.041685032203731875e+00,4.669771158585130783e-02,2.634739322986922802e-02,2.581506440316672785e-02,1.839814186096191406e+00
-1.153953547764684062e+00,-4.203516926122751185e-01,1.007549923013028259e+00,4.664548006358135157e-01,-7.055781192499080423e-02,2.034629802759585840e-02,2.072077035903930664e+00
-8.479701896425652086e-01,-8.518734984997959891e-01,1.018047095935313395e+00,4.159381872250161177e-03,-2.223157142761528898e-02,-1.318784119059523627e-02,1.868522405624389648e+00
-8.793401108644460784e-01,-8.093917281230388339e-01,1.013536896823394873e+00,-1.025411205123456793e-02,1.717270937161567701e-02,-2.967502531711149402e-02,1.859923243522644043e+00
-8.033265312596005181e-01,-8.070055484421961856e-01,7.477030800851731662e-01,-1.425574702089979669e-02,3.234148127165800950e-03,-3.465360396268377108e-02,1.554238200187683105e+00
-8.238564965665968742e-01,-5.479614539116672844e-01,9.311062036899748762e-01,4.733738794894559732e-01,-1.542710637426220228e-02,3.582359102887933133e-02,1.829928755760192871e+00
-8.764142643627679252e-01,-6.633585423720699259e-01,1.020969274072758948e+00,2.986083086774021095e-02,2.213432723546463615e-02,1.200151919367755358e-02,1.801606416702270508e+00
-8.827958814564446088e-01,-6.907076739224280448e-01,1.024938677649348984e+00,-3.396036066083946842e-02,-3.333945751104806787e-02,4.031415977708293491e-02,1.822516322135925293e+00
-8.267698566057483101e-01,-8.277308793360524941e-01,1.054518602402243266e+00,-6.042257970064206576e-03,-1.664829015805513110e-02,-2.329427965626494797e-03,1.882023453712463379e+00
-8.704317623367020529e-01,-8.292455535070132333e-01,1.048365438600950661e+00,1.059593177159476839e-02,2.337829320839782295e-03,-1.074260206513338346e-02,1.898723363876342773e+00
-8.690382480553747735e-01,-6.854638951510348965e-01,1.074166084679253785e+00,-1.151892574846948847e-01,-4.937798446570661887e-02,5.796633518910852129e-02,1.873558282852172852e+00
-8.589231429048019839e-01,-8.527104266359918361e-01,1.028943900674857082e+00,3.070179078070085256e-03,-1.212475606072296007e-02,-1.639000147155290606e-03,1.884894967079162598e+00
-1.176870984510370644e+00,-7.504510465292664190e-01,1.155505107184121139e+00,-4.481071971994661229e-01,1.439370838458831903e-01,-2.065336523523882417e-01,2.328038454055786133e+00
-1.066244140428557641e+00,-8.202293506640311316e-01,1.116177196326663790e+00,9.210100013915185901e-02,-3.881729507429261539e-02,-2.105874561276985246e-02,2.077950239181518555e+00
-8.615189430088825429e-01,-8.640364376770682808e-01,1.041962028197057855e+00,1.999996539457782256e-05,-4.893041859670592408e-03,-8.888545716768923161e-03,1.904821991920471191e+00
-7.978107892398252909e-01,-7.982556747643745343e-01,6.397844667459392509e-01,-1.440359461199604285e-02,6.913599419792812797e-03,1.352453262100399289e-01,1.457037925720214844e+00
-9.158799260872143577e-01,-7.007715395418301352e-01,1.098015203371355497e+00,9.634453090153485832e-02,-4.626182439701630525e-03,-7.108074373704247051e-02,1.926631212234497070e+00
-9.564994283693640797e-01,-7.173794172699496929e-01,1.071607708434767048e+00,1.305364155862024506e-02,6.900916520498373563e-03,3.114036977921334076e-02,1.920676708221435547e+00
-8.560748002819288383e-01,-8.661859416621745522e-01,1.016421414279203406e+00,-8.182263891225876468e-03,-9.359703877050347745e-03,-1.203336320666291643e-03,1.877696871757507324e+00
-7.729049302312548386e-01,-8.687484248406401877e-01,1.038049363952877613e+00,2.024154055357374124e-02,2.318035286852872939e-02,-1.193531544796534727e-02,1.861606359481811523e+00
-7.207953862788645250e-01,-7.495576325275618013e-01,1.002589067929356537e+00,1.155005575739415369e-01,-3.436789323041045726e-03,-3.808390595511155184e-03,1.749442696571350098e+00
-5.696156266382441657e-01,-1.060154202689759018e+00,1.152130584598557439e+00,4.172730652681167496e-01,1.984434538120362912e-01,2.824199402063641909e-02,2.166218757629394531e+00
-3.750423408962479943e-01,-1.304562728206026589e+00,1.206001731123833354e+00,7.888237957149460411e-02,2.040480333983895889e-01,1.061409589477980836e-01,2.238457679748535156e+00
-8.427315068705294454e-01,-8.262882662418515878e-01,8.573446569559688424e-01,-1.109326388828024701e-02,3.042807996904245155e-03,1.211389511252604009e-02,1.692161917686462402e+00
-7.712161435082400818e-01,-7.800152821147500193e-01,1.011002490458692060e+00,3.470503182084705169e-03,2.959620057313283505e-03,-1.685169084504670222e-03,1.786654353141784668e+00
-5.089674338245951946e-01,-7.225116895779314374e-01,1.020964040652758031e+00,-4.606771616548578918e-01,1.962069168846503342e-01,-6.832187785538230973e-02,1.865252017974853516e+00
-8.665790848672522140e-01,-8.594504773049066459e-01,1.042586632893652165e+00,6.310706276939474085e-03,-5.182519949735672066e-03,-4.395075504856226292e-03,1.905679106712341309e+00
-7.623600336609674955e-01,-9.058498648600202818e-01,1.053979658362391714e+00,-5.158388517570169744e-03,3.058540772913991360e-02,1.309397343815071803e-03,1.892933368682861328e+00
-7.969747068856780636e-01,-8.363464311179816812e-01,1.022083949688028959e+00,3.180468238387431507e-02,-5.808549702868996169e-03,7.755789914384177662e-03,1.839962005615234375e+00
-8.491532443129439223e-01,-8.511032532874965861e-01,1.066425188886615416e+00,-9.571822111149609060e-04,1.349888969952931124e-02,5.933702165877890317e-03,1.916725039482116699e+00
-8.088012592279161250e-01,-7.410547897833705822e-01,1.036898643686621435e+00,6.466247854732540268e-02,6.161405254560397941e-03,2.648647812363871118e-03,1.816269993782043457e+00
-7.049541235378543602e-01,-8.512756047347785904e-01,1.069888794600658333e+00,1.524833787727699896e-01,9.043125351275478618e-02,3.705114082172484419e-02,1.878717780113220215e+00
-8.436400860224703147e-01,-8.502054815763750995e-01,1.058578651622166689e+00,6.216587784492379892e-03,1.994142625519624429e-02,1.707474234563024704e-02,1.906082749366760254e+00
-7.198800916740165645e-01,-7.940452340326752401e-01,1.004918917525866373e+00,1.272179223119254340e-02,-3.343080358591815539e-03,-4.721628214095694581e-03,1.763218045234680176e+00
-9.450197054936175789e-01,-5.505147148236436694e-01,1.058852346322537441e+00,4.517709700826727515e-02,-2.845031421525551218e-02,-6.854654183004862088e-03,1.841002941131591797e+00
-8.228601913943629498e-01,-7.679627287855704809e-01,1.028896633063046018e+00,1.212887759202039943e-02,6.669698244626727675e-03,-2.723570665961164063e-03,1.825091004371643066e+00
-8.424290021902517411e-01,-8.526599376141805742e-01,1.060879302604319285e+00,3.398007870532251083e-03,4.574236282180177415e-03,3.071729661807526789e-03,1.908477306365966797e+00
-7.787556199402579926e-01,-7.657218186939283022e-01,1.011827618270406015e+00,1.821280257209370547e-03,-9.977751138537682446e-05,-2.098092875174314715e-03,1.784108519554138184e+00
-7.689242038353356623e-01,-7.592571628566516795e-01,1.008639469348334261e+00,1.614740010443398155e-02,8.907248404874942155e-03,9.961960977060681233e-03,1.773121595382690430e+00
-8.128894853994943492e-01,-7.944915371618871403e-01,1.035605080444579329e+00,-7.197853868694995862e-03,4.775774749020771613e-03,-9.905191715976029154e-03,1.839505434036254883e+00
-8.554804429456380754e-01,-8.546982339621154168e-01,1.012155747035683229e+00,4.766760213191787235e-03,-8.494647040202684199e-03,1.472194862682127056e-02,1.867495536804199219e+00
-8.537027216397657936e-01,-8.378817793890437349e-01,1.040870463701875748e+00,-7.548622635570443121e-03,4.465121375929387293e-03,-5.172854014517687567e-03,1.886794924736022949e+00
-8.937914967886291251e-01,-8.419437498119002328e-01,1.072041058561219229e+00,-1.464776543861487194e-02,-1.248020065491868731e-03,1.039429263499983859e-02,1.940678834915161133e+00
-1.112115709605760783e+00,-8.315531529852975279e-01,4.983631783372844959e-01,-2.909948689888372519e-01,-3.154791001249407922e-01,1.595989219684979254e-01,1.688060522079467773e+00
-8.062173854384485638e-01,-7.569342916719218328e-01,5.102455707294563103e-01,1.398318639214940311e-02,-1.457120358008373029e-01,5.171492163781115509e-02,1.320200800895690918e+00
-1.150494178093522502e+00,-3.748871984699648774e-01,1.200538780095791402e+00,-1.502214732458649615e-01,3.327727885903587063e-02,6.406524831262461195e-02,2.094941377639770508e+00
-8.523570461584677460e-01,-8.086446407304648254e-01,7.475207897979456728e-01,-4.059318942841461282e-03,-2.198570780786933410e-02,1.788949507348065737e-01,1.609066486358642578e+00
-3.988800946205331988e-01,-8.833638863213582049e-01,6.020000548959838493e-01,2.742038829919447585e-01,-7.242529467297707801e-02,-4.631651568290993948e-02,1.403257250785827637e+00
-3.166783871925430427e-01,-1.005326017200817601e+00,7.107197287599457125e-01,-5.011089918910126978e-02,-2.068441852380434043e-01,-3.640719560952510297e-03,1.540527343750000000e+00
-8.578479726286367679e-01,-8.650118595724082260e-01,1.000406402469540046e+00,5.322753496915425637e-04,-5.950233931542221050e-03,1.636134912532902913e-02,1.862091064453125000e+00
-8.766135160897101652e-01,-8.170284052076743908e-01,1.079808094888606185e+00,-1.386052255118108145e-01,-3.464747257319811952e-02,-1.666039682765737412e-02,1.943355441093444824e+00
-7.648195170981663127e-01,-8.900308664776414025e-01,1.050187570839620665e+00,3.545553566856738856e-04,-3.052758000384881223e-02,-1.829811143544620225e-02,1.881751537322998047e+00
-7.597020625297352669e-01,-8.971097363289491922e-01,1.050736383305310939e+00,1.533137505616379188e-02,-2.311432444502725669e-02,2.710500318303986269e-03,1.883525013923645020e+00
-7.897775546784037148e-01,-8.984689707456632313e-01,1.049360347934557680e+00,5.124388482696040810e-03,1.443128763497497115e-02,9.160458098058262694e-03,1.896073818206787109e+00
-7.542070504687506949e-01,-9.053499174302840347e-01,1.006344468343769671e+00,6.287565919233085651e-03,6.054814516602065322e-02,4.450512870855195119e-02,1.845410466194152832e+00
-8.034355596646699516e-01,-8.624671015064295787e-01,1.063807976978646597e+00,3.546479716945156319e-02,-4.979243098673053619e-03,9.580273297096621871e-03,1.898534297943115234e+00
-8.581585338115829131e-01,-8.501243006803822500e-01,9.419580538783207668e-01,-1.741273220088962459e-02,7.203420896690145188e-03,-2.711263540294754897e-03,1.796415567398071289e+00
-6.966847552071734340e-01,-9.468641371231731885e-01,1.062517398798372259e+00,1.761465177015978864e-02,4.954190919563305345e-02,8.815897010664264233e-03,1.898953676223754883e+00
-6.295730371813996751e-01,-1.134404691069383908e+00,8.813689366544699144e-01,5.981417437330620590e-01,-1.697007826343019943e-01,-1.182629047977907799e-01,2.121849775314331055e+00
-7.479565753984588339e-01,-7.587451401827207675e-01,1.203056355188165671e+00,4.474862022422774754e-01,-2.598554468893237712e-01,-1.319471902985236422e-01,2.164059400558471680e+00
-6.815143985368011803e-01,-8.988910086147086087e-01,1.018615882411754381e+00,3.369063971039142763e-02,-3.220544204448362591e-02,1.933318684302611987e-02,1.820687294006347656e+00
-5.028838602619560838e-01,-8.778236072006423418e-01,2.275737451011923262e-01,1.004009319045772175e-01,-5.999866877974627255e-02,-2.617234499182271440e-03,9.945284724235534668e-01
-8.573599191954741627e-01,-8.539625308333449460e-01,1.048116621587083630e+00,7.595638107895462789e-04,6.670053405105922338e-03,4.157946369579160716e-03,1.903829216957092285e+00
-8.630837009204714860e-01,-8.628268976729224216e-01,1.059799206134099947e+00,-3.142576247153837550e-03,7.944287565608134510e-03,3.916488051115954439e-03,1.922823429107666016e+00
-8.642833060353695140e-01,-8.699937685120218145e-01,1.062820540702479333e+00,-2.385456919724463030e-03,-1.745144065819500146e-03,-2.551263375259674206e-07,1.929972171783447266e+00
-8.643873173614435856e-01,-8.657291915364171420e-01,1.046589336619334842e+00,-8.501667932255941793e-03,-6.889233636328023942e-03,6.512690496549502703e-03,1.911775231361389160e+00
-8.624220909688234959e-01,-8.513368280848370162e-01,1.018187462709388091e+00,-5.253789999989250288e-03,2.758391354786967828e-03,4.075051827983746343e-03,1.875132918357849121e+00
-8.308150442514103950e-01,-8.431726922939615232e-01,1.052111666623621433e+00,2.039155352359362655e-02,4.702839911055536025e-03,1.262458126300462606e-02,1.889610052108764648e+00
-7.592591464507825183e-01,-7.688599140991750902e-01,5.620676879482857657e-01,-2.031849000179551754e-03,1.861306028217550243e-02,-7.663515855802788268e-02,1.333174109458923340e+00
-8.601190656944590618e-01,-8.646712352960017611e-01,1.072023834051560875e+00,-2.133146486247034651e-03,-4.044890195045923627e-03,1.637720900522233721e-04,1.934439182281494141e+00
-7.943012369354043312e-01,-7.707133859948465116e-01,1.019684329018231361e+00,1.005843576705743939e-02,-9.346796863258427512e-03,3.656586785743053385e-03,1.802475452423095703e+00
-8.184269566888968672e-01,-7.893882711437961719e-01,1.035994276549445647e+00,6.989256445941531212e-03,1.515995846325433015e-02,1.528058379973028930e-02,1.840491175651550293e+00
-9.115111225490472036e-01,-5.879997966796728370e-01,1.017875537969356481e+00,2.929230857069978211e-02,1.488635332771231709e-02,-1.244331314052714473e-02,1.790730953216552734e+00
-6.778344396170957742e-01,-5.753027361100307990e-01,1.187408862222173678e+00,5.209515581119907868e-01,-5.992324343581122842e-02,-8.170839962885331417e-03,2.030650854110717773e+00
-8.863044217071492925e-01,-6.162808804276210806e-01,1.020462708731565415e+00,6.814332335823763964e-02,1.315557501032782288e-02,-2.576933691017552642e-03,1.791164755821228027e+00
-9.462171568926912579e-01,-6.748775821768886463e-01,1.053034167132441690e+00,1.380983458321860709e-02,2.792943076149880313e-02,1.083890681178508071e-02,1.879207253456115723e+00
-7.999281638077195833e-01,-7.273448718451838158e-01,1.003753246953276390e+00,1.403632293028113029e-02,1.052411079241855540e-03,6.896355665313839457e-04,1.768675684928894043e+00
-9.132495375905365087e-01,-5.780592894120659686e-01,1.158727791028821841e+00,1.276249828256598440e-01,-7.020359646170341514e-03,7.882006049354904620e-02,1.943858504295349121e+00
-1.043167954316139179e+00,-9.872507175316669326e-01,9.565711962897087695e-01,3.928016940552711556e-01,-5.062937188483760537e-02,-1.245579346532493248e-01,2.099375486373901367e+00
-7.566199415323719979e-01,-7.768998791881195354e-01,6.113647910065151958e-01,-9.886443358981891489e-04,-6.713439300637651791e-03,-4.266546443099950014e-02,1.380266427993774414e+00
-8.547478393889125226e-01,-8.367417934093601684e-01,9.286469009144635578e-01,-7.234010378426158384e-03,2.021422660502601026e-02,-1.403666619017992926e-03,1.774851560592651367e+00
-8.116753713561820627e-01,-8.011461058102720134e-01,7.068018036119882996e-01,2.063854520172011056e-02,8.152550643566663230e-03,-2.649148308600677432e-02,1.514423370361328125e+00
-8.559535284215546991e-01,-8.225361165701956523e-01,8.482652497567493288e-01,-7.848993128658136517e-03,5.357959495671493072e-02,1.646788262920006671e-02,1.690603017807006836e+00
-4.464307341803916973e-01,-1.247297163238259454e+00,1.182190895858399315e+00,4.811359102787282072e-01,-1.058736282571332427e-01,-3.661316961210027421e-02,2.308728694915771484e+00
-8.194935171628711101e-01,-8.098183245180429202e-01,7.730562704503110005e-01,-9.619989155425414523e-03,-7.385840143397036373e-02,-1.652539397321796735e-02,1.593223810195922852e+00
-8.182131301770827481e-01,-7.950885081548729749e-01,7.587150224525598396e-01,-7.868598918839385739e-03,-7.440928287453610346e-02,4.556347705007056728e-03,1.570869088172912598e+00
-7.170289447842242980e-01,-9.025746233253818529e-01,9.633952442799280647e-01,-1.067739041103635787e-02,-2.801982012194240146e-02,1.348078573935589455e-02,1.781373262405395508e+00
-5.339617673990295632e-01,-9.400775022812860593e-01,1.043639166108992766e+00,1.024216648273876540e-01,-2.792697969429494553e-02,-4.746349955953608341e-03,1.824368715286254883e+00
-8.675174983383000527e-01,-8.465699658755407864e-01,9.741630382897252804e-01,-5.149563671742524683e-03,8.857673957419322577e-03,2.740104972946533820e-03,1.831388711929321289e+00
-8.661314481589814651e-01,-8.499507120978523345e-01,1.066706912502484172e+00,1.325375007868772638e-03,1.702498164362598737e-02,-5.181166084359542859e-03,1.925047159194946289e+00
-6.288117846805354461e-01,-1.082641043587146301e+00,1.091415416774367708e+00,6.551443356370069415e-02,6.909203568816491003e-02,2.710432522820999807e-02,1.993798732757568359e+00
-8.179494440949117706e-01,-8.429658697618329644e-01,6.310114991964965725e-01,-2.289016697368837297e-02,2.926545635540371212e-02,-6.154289052129793131e-02,1.466923713684082031e+00
-6.938814209535054678e-01,-8.955110074056763514e-01,1.048980030788021045e+00,1.262072528378160342e-02,2.597961402250888174e-02,-8.387062901464478401e-03,1.852659344673156738e+00
-6.279675164142988208e-01,-1.006078112465732977e+00,1.088789977097654349e+00,4.061305590316147685e-01,3.493038508268029728e-04,1.446981722591901276e-01,2.072917461395263672e+00
-2.197995837324553947e-01,-1.094510464474168998e+00,1.197357485130411403e+00,2.995914045907273060e-01,5.161734384640383894e-02,2.768186397913473956e-02,2.071862220764160156e+00
-6.785773068989999768e-01,-9.105393404588912887e-01,1.012877544916403361e+00,-1.652889279447492541e-03,-2.871387317769855466e-02,5.704077431107570754e-03,1.819274187088012695e+00
-6.744956278003849670e-01,-8.534321684980232803e-01,1.030739189020643654e+00,2.210395766786619684e-02,-2.682616740010973153e-02,-3.337909695375917279e-02,1.803313612937927246e+00
-3.452508042157514945e-01,-1.529904958202609411e+00,1.778222622288720078e+00,-1.237584156154017123e-01,5.775974404710940840e-02,-2.887092706985692689e-02,2.913174152374267578e+00
-6.583261363608990946e-01,-9.905413282212987003e-01,1.084895611265911830e+00,-1.792103117225363196e-01,5.673742840841262264e-02,-5.593147545316555502e-02,1.960536956787109375e+00
-6.437897389821446437e-01,-6.845384056567312969e-01,1.021141519522603014e+00,2.419071530694696381e-01,2.914997792617405117e-02,2.997459416413293318e-02,1.738476991653442383e+00
-9.322168506216179651e-01,-6.581956282925017776e-01,1.036106120435511091e+00,-4.484253113985544638e-03,1.272447281489061735e-02,-4.846761693214305527e-02,1.848679065704345703e+00
-8.014494686200637208e-01,-8.220416213714628606e-01,1.062500963331249437e+00,4.374434270004689401e-02,6.323101199386317595e-03,1.441931071937499476e-02,1.876060366630554199e+00
-8.381173077777878122e-01,-7.660086286951217627e-01,1.035187862306309992e+00,3.027226984423945361e-02,3.024780065068946588e-02,2.132554474350323998e-02,1.840176224708557129e+00
-1.140369280370529204e+00,-5.953372957452742753e-01,1.253393938254180551e+00,1.822368467369538669e-01,-5.649549769918801867e-02,8.581226160389353319e-02,2.203130006790161133e+00
-9.020122258893408240e-01,-7.014836547842115966e-01,1.260240046846478501e+00,2.773612084621085438e-01,1.723901440971278842e-02,1.294442113782631222e-02,2.124649524688720703e+00
-8.560170927002491714e-01,-7.471035108228710753e-01,1.034669745434355193e+00,1.291322707229893875e-02,2.346085658453020764e-02,2.390370239052234946e-02,1.839701890945434570e+00
-1.289726952713616592e+00,-2.815000418546965699e-01,1.273795952075044147e+00,9.003831392434856473e-02,8.281339066657374126e-02,-1.486222561087772176e-01,2.261574506759643555e+00
-9.682169348638788309e-01,-8.893397382569070420e-01,1.120827525816358028e+00,1.324671731004306852e-01,-5.869538927965276334e-03,-2.783532594587007775e-02,2.064127206802368164e+00
-8.708084479678134260e-01,-7.219792801496548451e-01,1.032027557301965270e+00,5.727338437702115398e-02,2.008466944064025636e-02,-1.366981786361913878e-02,1.836123347282409668e+00
-1.112256598365251481e+00,-3.073366072477757838e-01,1.223620863830261474e+00,1.572395096858254793e-01,-2.405905957468570944e-02,-2.392524916270107327e-01,2.114629983901977539e+00
-7.648451488940665177e-01,-8.020468154265337768e-01,1.026641856036327960e+00,2.326007295906056330e-02,1.480683556095209290e-02,1.248718101798133341e-02,1.811133503913879395e+00
-6.242111284145492878e-01,-8.440169306201398269e-01,9.939038815680234507e-01,-2.796132362026046425e-02,1.157635162287918434e-02,1.039732687560473642e-02,1.739354372024536133e+00
-8.026411437680307515e-01,-6.942837818668071703e-01,9.966589270406216450e-01,-7.755391712739220789e-02,-8.694031767899623731e-03,-1.686022844705700264e-03,1.752864480018615723e+00
-6.870225276387454949e-01,-1.106670186285391377e+00,1.646932593674988787e+00,-5.301783722607660287e-01,-2.725096732708313235e-02,5.495048444124222414e-02,2.730831861495971680e+00
-7.892243646654388822e-01,-6.914628408830615358e-01,9.933428770368306626e-01,-3.688708974840892996e-02,5.144751825077667137e-03,-9.237859856408535408e-03,1.737024545669555664e+00
-8.698981178475733156e-01,-8.510553149067504597e-01,9.939996817383691674e-01,-5.828382544639078636e-03,-7.553326800955649858e-03,2.638018183012287403e-03,1.854627490043640137e+00
-7.931254457178145145e-01,-8.743571666310751000e-01,1.030290487655210585e+00,-3.486453061224992125e-03,-1.563336974120025508e-02,6.454700339699434228e-03,1.865598559379577637e+00
-8.635081733570383333e-01,-8.461505301113052546e-01,9.665079871435238168e-01,5.345307473715362606e-03,-8.625652504358696446e-03,3.875973804843609299e-03,1.821496486663818359e+00
-1.006902795143544083e+00,-4.211892946040381447e-01,1.066635170740395377e+00,-7.704810414443435951e-02,-8.754145689842634040e-03,5.237970323563704428e-02,1.858599185943603516e+00
-2.173860607158578651e-01,-1.002468062658459891e+00,5.904002270765257299e-01,-2.701140900926626842e-01,1.551184882596038372e-01,-7.352852225786214377e-03,1.481311321258544922e+00
-9.653650762419835329e-01,-7.321373961795702989e-01,1.084385146382513598e+00,1.627609494051346405e-03,1.466294845380872874e-02,3.713626337371146724e-02,1.944891452789306641e+00
-9.321755531449259502e-01,-9.631978287484045387e-01,1.009353740467547444e+00,-8.304223663013926560e-02,-4.278223260843843322e-03,-8.192312039695918979e-02,1.967639803886413574e+00
-8.727454674797178180e-01,-6.683078492188814224e-01,1.036738959023807638e+00,1.204377872677681316e-01,-1.172145754810684747e-02,2.371562948469627726e-03,1.827976942062377930e+00
-7.872063648949033654e-01,-7.252758491903832372e-01,1.004755319442623973e+00,7.992708215225375126e-03,7.570183642880860819e-03,1.087903515580296862e-03,1.761917114257812500e+00
-8.447449238243888159e-01,-6.918144632577249986e-01,1.020481534709783089e+00,2.223813720526403304e-02,3.025830435533748836e-02,1.722075146341278673e-02,1.795084238052368164e+00
-6.728850827424733838e-01,-8.010003559341620782e-01,1.010273583265301145e+00,3.531871104289676516e-02,-1.384079092821782417e-02,-2.592611742684461981e-03,1.751973748207092285e+00
-5.814905870775386454e-01,-8.663791402564460231e-01,1.002937930844646663e+00,9.769042527109442209e-02,-5.272790876010576867e-03,-2.460588238085963456e-02,1.753137350082397461e+00
-7.022050343013247486e-01,-8.262646038951428906e-01,1.029515221233470168e+00,3.061882543871896969e-02,2.843555091414109309e-02,1.343598226481323293e-02,1.798572301864624023e+00
-7.763410867932960535e-01,-6.393721824445572910e-01,9.800897015696996561e-01,1.677967416541397416e-01,-1.304757332487045847e-03,3.304365006014219758e-02,1.717841982841491699e+00
-9.406714422848855284e-01,-5.427528989499024181e-01,1.024069768179936002e+00,-5.383334922147139240e-02,2.157209459302496246e-02,9.842735823273561762e-04,1.801897168159484863e+00
-7.203728514991588616e-01,-8.158805683774644768e-01,1.032582479269013698e+00,6.729223697296765616e-02,3.258910154726735609e-03,4.089265389739027423e-03,1.806394696235656738e+00
-8.764602402631023192e-01,-7.968622700228744637e-01,1.033145806413309664e+00,7.182147821447964174e-03,-9.144430609718479097e-03,-1.596407735454646176e-02,1.871389985084533691e+00
-1.087196225298344032e+00,-4.684801881372896437e-01,1.131021568119714660e+00,9.965527199350548981e-02,-5.738268047705647606e-02,-1.005904094349562156e-01,2.000220060348510742e+00
-8.897136785918994262e-01,-8.330385849244891228e-01,1.033166893532099229e+00,7.108209723355150833e-02,-6.848786732417051770e-02,-3.669208065200182250e-02,1.903935670852661133e+00
-9.170286526246801406e-01,-5.939617201029899762e-01,1.032817161545916962e+00,2.377613386082121083e-02,-1.766395355521577573e-02,-2.879397680949490404e-02,1.811479926109313965e+00
-9.067255539377775397e-01,-6.754344729023585847e-01,1.014974767403417744e+00,-3.508159265823315026e-02,2.246020263232453677e-03,-4.311450381781811031e-02,1.819681167602539062e+00
-8.700723972433173081e-01,-7.835482381646013961e-01,1.056195028442794115e+00,1.275132896920660661e-02,-2.130114991414439052e-03,2.096192600492056621e-02,1.884978413581848145e+00
-8.522001503135370193e-01,-8.456275190964648303e-01,9.630504186421846580e-01,-1.487928893779530588e-02,1.627915485152473321e-02,-9.842424389059236875e-03,1.812456011772155762e+00
-8.431348701379685062e-01,-8.306638596153890219e-01,8.825002951600671164e-01,6.845747512010886930e-03,1.270647421057977296e-02,1.768524814684293081e-02,1.719888091087341309e+00
-7.939067334958807010e-01,-9.082720164168480714e-01,1.037469276913081551e+00,-4.351120264301728603e-04,1.797482423836877993e-02,1.046108559564461193e-02,1.891497135162353516e+00
-8.363687075782761937e-01,-8.225170407825203034e-01,8.559172312032723440e-01,-9.029151341797048147e-03,-4.107552211617857690e-02,9.212724421592367180e-03,1.687051653861999512e+00
-8.174621898940388487e-01,-8.064786903701746112e-01,7.520963221271963484e-01,-3.183005589198353771e-03,-6.929292628240252272e-02,-1.187708497225946694e-02,1.568838238716125488e+00
-8.610806707547046246e-01,-8.664420454635045621e-01,1.072236222364222780e+00,3.481699274505643902e-03,4.055283739242908879e-03,2.822109380559785670e-03,1.936031460762023926e+00
-1.391196431883860773e+00,-2.692900260903059451e-01,1.349356514542606744e+00,2.393168336415997521e-01,-4.236007813212309264e-02,-1.514234830206372395e-01,2.437344551086425781e+00
-4.537579551341395789e-01,-9.956346695379109102e-01,1.029863862519060813e+00,2.820789052854259099e-02,-2.777708077807626921e-03,8.729549624445281583e-04,1.816897511482238770e+00
-7.801162817231295232e-01,-7.575878839093466155e-01,1.007832271190608919e+00,1.209530716559687608e-02,3.001372557815233655e-03,8.039028726148408910e-03,1.776977181434631348e+00
-7.013954151179302432e-01,-7.980134101397529101e-01,1.006235708571095788e+00,3.447967906674033467e-02,2.796970090884181789e-02,2.610976390332875666e-02,1.760194778442382812e+00
-7.711599994894905441e-01,-6.673396090234576805e-01,9.976911285989209510e-01,1.982680668627761211e-01,-1.920963008016731734e-03,5.115456110696876141e-03,1.753279924392700195e+00
-8.013724055930964152e-01,-7.788292598913616471e-01,1.022227799517591240e+00,9.318242301464175689e-03,4.064010683830741877e-03,7.658498062576074225e-04,1.812519788742065430e+00
-6.540751697606870252e-01,-9.540868879159878357e-01,1.041593065848914534e+00,1.737400496392232235e-02,1.314493445654261843e-02,-1.983435891571585716e-02,1.864570260047912598e+00
-4.029319949474315932e-01,-1.045524162150749170e+00,1.118364245353218323e+00,7.435430718066361744e-02,2.070596089843886739e-03,-1.106227483683936558e-02,1.929198145866394043e+00
-7.382398064840204333e-01,-8.013929474140794040e-01,1.011405189851867448e+00,7.427368168238879242e-02,-9.075306444433033776e-03,4.719069478516336145e-03,1.786786317825317383e+00
-8.638844415349715700e-01,-8.643634612651460714e-01,1.059197293052861255e+00,-4.773602527369011361e-03,-3.822197162642150016e-03,1.000445623363136697e-03,1.923351287841796875e+00
-6.953670682324019081e-01,-1.030874971237617066e+00,1.194022438752385007e+00,1.748217923345021796e-01,1.087975052547685006e-02,-2.517969759686232087e-02,2.100049734115600586e+00
-9.119894896002569418e-01,-7.624187602193198687e-01,1.056061188730043066e+00,-3.873687531971324420e-03,4.816957163651857873e-03,-2.400999186504959929e-02,1.898177027702331543e+00
-8.538189332149671573e-01,-8.285641623712090009e-01,8.998952362473653377e-01,8.731058976951212511e-04,-4.089679947772432989e-02,-7.628593814325839318e-04,1.742665529251098633e+00
-9.017123630769781073e-01,-8.217905397885759688e-01,1.010893219636366247e+00,-1.043353552913199242e-02,7.402442410877115714e-03,-2.866482981009975048e-02,1.874711871147155762e+00
-9.359884974986956152e-01,-5.648123463636602892e-01,1.029990788096841081e+00,3.820910092830152177e-02,1.773395089539418074e-02,2.749013938773709614e-02,1.811273574829101562e+00
-9.447635397683468161e-01,-5.610855637930122208e-01,1.030960818299014869e+00,1.034068990572672847e-01,2.191365874027997873e-02,-4.854210874990082247e-02,1.825716853141784668e+00
-8.742077520927343803e-01,-8.393686545523080245e-01,1.003484778085222295e+00,-3.581367236150616654e-03,-1.369258277103157367e-02,-4.885739073604151300e-02,1.862602472305297852e+00
-8.252016258285124195e-01,-8.457786855891166189e-01,1.052831147642478982e+00,-3.476770440347327299e-03,1.222374664370401431e-02,-9.312767706437503554e-03,1.888602614402770996e+00
-8.461100866758817229e-01,-8.329183158643305163e-01,1.061132771459130320e+00,7.316630025246170354e-04,1.144325409227341973e-03,-7.555115131253978440e-03,1.900727868080139160e+00
-8.592519954088744250e-01,-8.620047792760567873e-01,1.059275583878890092e+00,1.660781352297879734e-03,-3.712613903786681478e-04,3.054286944501959956e-03,1.919914960861206055e+00
-8.641515013206736429e-01,-8.636169605552156403e-01,1.061611563492307120e+00,4.439423351138164185e-03,-8.730017543422799236e-04,3.249452901142904117e-03,1.925520062446594238e+00
-8.604872011168385182e-01,-8.616652971410700967e-01,1.035121201992264206e+00,5.671424730782370811e-03,5.244503982565226416e-03,1.468105525753836925e-02,1.896415472030639648e+00
-8.609826418261339320e-01,-8.681743357422477825e-01,1.047735923535634273e+00,5.718077637522570554e-03,-1.193856524480851541e-02,-3.260043511266129488e-03,1.912470340728759766e+00
-8.896240967568025404e-01,-6.643757421789148188e-01,1.055268637889988703e+00,-1.013380946494111673e-01,1.456917263121067577e-02,-2.298010559827724786e-02,1.851564168930053711e+00
-8.749334900958705141e-01,-7.380034842857364774e-01,1.046243170369440589e+00,-2.363784484064012162e-02,9.209289831360181061e-03,-4.096590947967403140e-02,1.858377814292907715e+00
-8.425626901300966587e-01,-8.578080050760968911e-01,1.020544368278303082e+00,5.527712096121017342e-04,-5.470369743875326020e-03,-4.437454408027168874e-03,1.870816349983215332e+00
-8.707834740978566135e-01,-6.555008525628343019e-01,1.031090051007276243e+00,3.644723831990822477e-02,1.274046925418339431e-03,-1.809824615818724381e-03,1.805001139640808105e+00
-8.475607375355050932e-01,-8.481882169569046059e-01,9.675225397738016486e-01,-5.533944342294664677e-03,1.292169092877396008e-02,9.446839829608663294e-03,1.815634131431579590e+00
-8.560123152980317895e-01,-8.507094380092762309e-01,1.006981092201897132e+00,2.936308971834680759e-02,2.721819444460027437e-02,-1.170591406025260801e-02,1.861750125885009766e+00
-7.515400260389096809e-01,-9.108819323958213809e-01,1.058840637804527418e+00,5.823225725701537681e-02,-2.342476590479496829e-02,-1.022935832885734329e-02,1.898280978202819824e+00
-9.446346005213293040e-01,-4.627802352327450852e-01,1.026537997737828833e+00,1.321781392389047294e-01,-2.238960100644761531e-03,-4.881771868879621751e-02,1.796514630317687988e+00
-1.038122695007602125e+00,-5.553885039671185853e-01,1.141244476995806112e+00,4.258636090744944980e-01,1.224049989355710938e-01,1.368488519865242725e-01,2.139118909835815430e+00
-9.337074041873738572e-01,-6.716281484716032368e-01,1.029240994020617528e+00,6.021114319901096912e-02,-2.899462571723507992e-02,2.741469597616748299e-02,1.850150465965270996e+00
-8.628137982201541378e-01,-8.581836431122781272e-01,1.057884880229785995e+00,1.535843687456231541e-03,-3.135859971048905303e-03,1.452638594370366529e-03,1.918398976325988770e+00
-8.647884414135158515e-01,-8.649634090556925781e-01,1.072658432779627802e+00,1.532957459667266429e-03,-3.129986768809014681e-03,-3.984067651312810966e-03,1.937556028366088867e+00
-8.654838441842045427e-01,-8.635622350437826000e-01,1.068038445681966042e+00,2.801905239791051532e-03,2.342895424374398690e-03,-3.579351761791493315e-03,1.932582497596740723e+00
-8.488454346417942942e-01,-8.499199499266421043e-01,1.065510626751767997e+00,4.571336674580765008e-03,-3.146356738837406512e-03,-6.952439046732402164e-03,1.914955496788024902e+00
-8.719678775889383449e-01,-8.564335177221006346e-01,1.073859973973996240e+00,3.054445499837759540e-03,1.328368943682838206e-02,-5.607946629232512387e-03,1.938275456428527832e+00
-8.471145706638969486e-01,-8.348238829536285266e-01,1.059556451347798411e+00,-3.353225349985538423e-03,-1.794486091757646271e-03,-8.258082739433460565e-03,1.900620698928833008e+00
-8.395748274705833181e-01,-8.068704845208151122e-01,1.054228655063104814e+00,-2.845550772110760906e-02,2.901352121846596799e-02,-2.054082107918626249e-02,1.879320621490478516e+00
-8.649561019658008609e-01,-8.606041252995304536e-01,1.053728558629583034e+00,4.109008797272528310e-03,-2.964499265407517792e-03,-3.270874894088470798e-03,1.916540861129760742e+00
-9.055766975950253483e-01,-8.295132865026578761e-01,1.074144290061016749e+00,-1.342437519734609444e-03,-4.267990907557263000e-03,-1.958609219309595181e-02,1.943117976188659668e+00
-6.338357463955689441e-01,-8.308279960816158383e-01,3.742926984580132732e-01,-2.637523373168721985e-01,7.281992681061329187e-02,1.479466709043912032e-01,1.242574453353881836e+00
-6.964416954534644599e-01,-9.535144258927519267e-01,1.017540886670120770e+00,-2.557492396307327054e-01,4.417355715286856721e-02,-9.185153080584829155e-02,1.916201472282409668e+00
-5.872768814398033888e-01,-1.256414226990147931e+00,5.499331756178197361e-01,4.074592727786750523e-01,1.411791353504323332e-01,2.409073980218524869e-01,1.798308730125427246e+00
-8.650778210333671669e-01,-8.525309961460865171e-01,9.708632378044668165e-01,9.281534560067543696e-03,6.580106178230382772e-04,-1.401341976957918949e-02,1.829931855201721191e+00
-1.324586105034207595e+00,-5.771975793082275707e-01,1.197075239504329813e+00,-3.467273115107371018e-01,4.439237686204117357e-03,-1.961781375752865431e-01,2.347100496292114258e+00
-8.264603590243484454e-01,-8.604799316699116574e-01,8.866656793503684408e-01,8.514985201385221955e-03,5.206665386845676230e-03,-6.582796279811314877e-02,1.734225153923034668e+00
-7.719353094826739703e-01,-7.667225160025318287e-01,1.007970979857808480e+00,-3.797156694122262588e-03,7.615165364158385866e-03,-9.126219156030488527e-03,1.777436971664428711e+00
-7.832680714501164543e-01,-8.242694055533333897e-01,1.036618782411784290e+00,-4.741831668675203920e-03,1.448334888438035373e-02,-1.524768381944233316e-02,1.841108679771423340e+00
-7.788022760639750075e-01,-8.019037040901383362e-01,1.022353355525386087e+00,-9.990270684531643922e-03,-3.311097215286869537e-04,4.200567326435953458e-03,1.812914013862609863e+00
-8.032264433519380464e-01,-7.997956715357085189e-01,1.034152632697410201e+00,-3.492253343672754601e-03,1.014978097454525413e-02,-1.232423502677349597e-02,1.835884332656860352e+00
-8.197098366764046240e-01,-8.604461716326238241e-01,1.042791846831704117e+00,-1.847527442173051149e-02,-1.381159535748676358e-02,1.622721468117266710e-02,1.883833765983581543e+00
-7.733850893420052275e-01,-7.955375089633556218e-01,1.020937262845980076e+00,-7.635215573335220329e-03,-3.600945244403047207e-03,-8.527449375955323610e-03,1.805620074272155762e+00
-8.139541916083122830e-01,-7.301596499366883597e-01,1.018763290255805698e+00,-1.912486328496163998e-02,1.099576987439898970e-02,1.095416118134807763e-02,1.792797565460205078e+00
-8.051607654481016674e-01,-8.371854511287751821e-01,8.327172914871512344e-01,-2.063009133829100342e-03,2.854413098160866785e-04,1.127745288730342375e-02,1.654242157936096191e+00
-9.137567701507748330e-01,-5.696626411800085332e-01,1.165721686675215807e+00,2.771868714300517178e-01,-3.642286037916313973e-02,-2.054323677692279915e-01,2.021924734115600586e+00
-8.620280405573126359e-01,-5.074930366638434887e-01,6.067173598179672611e-01,3.317296822152113189e-01,-1.291370009433366328e-01,-3.193540207112432333e-02,1.464721441268920898e+00
-7.742854627956294866e-01,-7.769219470618919932e-01,6.100080645815444402e-01,2.316986448002661923e-03,-5.906620248575471417e-03,-3.452969392304812944e-04,1.385657310485839844e+00
-8.002656810061197223e-01,-8.148542739582881334e-01,7.686703213097860754e-01,4.007592049526195570e-03,9.009494781230474245e-03,6.309886756946736508e-02,1.580157518386840820e+00
-8.099295087329514420e-01,-7.597068648602599561e-01,1.188617239444371698e+00,2.864473072963334976e-01,4.146090741093485035e-03,2.127554002611184035e-04,2.035324811935424805e+00
-6.560233052912051166e-01,-7.248100051366530572e-01,3.426872328173626858e-01,2.024516031271365035e-01,1.160957995162860412e-01,1.274221321092534609e-01,1.132676601409912109e+00
-7.829861197027568886e-01,-1.026393640526982898e+00,3.185754634390993711e-01,2.831696273013736276e-01,-8.732947512571125059e-02,9.136329828937740649e-02,1.352512359619140625e+00
-7.918829289542156369e-01,-7.884678952090000692e-01,6.489973133069307787e-01,-1.391259929519564516e-02,2.190678792531811081e-02,-1.814900345210640822e-02,1.440220594406127930e+00
-7.435710096672740743e-01,-7.037154211407100624e-01,-2.758059832092651931e-03,4.677556681182928888e-03,-1.672042937884809372e-02,1.004389349357796557e-01,7.429906129837036133e-01
-1.057196230082575461e+00,-1.966201194322499957e-01,1.156135812905218607e+00,-2.316744084602413156e-01,5.346256628896464691e-02,-1.655872469786032752e-01,1.996632337570190430e+00
-8.343458554273915917e-01,-9.046311722103744790e-01,1.058575006375868544e+00,6.686301921373045097e-03,-1.820644057234597005e-02,-1.343341982240024018e-02,1.929456830024719238e+00
-7.996307154015988017e-01,-8.246423023140593278e-01,7.703045879911021299e-01,1.254876117088530273e-02,1.047015154685041263e-02,5.413909505110557630e-02,1.585617661476135254e+00
-7.933041144447233739e-01,-8.019299846864443859e-01,7.414059597495679110e-01,7.381916238536232952e-03,5.931922950570886824e-03,-7.888100968844285717e-04,1.539129137992858887e+00
-6.325052491890332806e-01,-7.723163517431894665e-01,2.774965053567201023e-01,2.721820077419433992e-01,-1.659704452462776314e-02,7.470564591446392233e-02,1.102132916450500488e+00
-7.285108242956598312e-01,-1.381410042342732236e+00,9.061711902204461211e-01,2.762629155192116159e-01,-1.609093578700057092e-01,-1.019106686216051799e-01,2.122154951095581055e+00
-3.330613465981758781e-01,-9.425801296396486562e-01,6.047025901093560085e-01,1.801342207846043098e-01,-9.626218928378965645e-02,5.753961366879818337e-03,1.395615458488464355e+00
-8.809886464856050425e-01,-8.612131709692030235e-01,9.993907517585893796e-01,1.680311559779714206e-02,-2.947974297610840566e-02,-2.706486689775199767e-02,1.872080087661743164e+00
-8.479359263318814177e-01,-8.212397016178376585e-01,8.507263508482147962e-01,3.899003229728291355e-03,1.459725795107464676e-02,2.056342345959708343e-02,1.686052083969116211e+00
-7.662903019420463924e-01,-7.813181753603958279e-01,6.229845149678912009e-01,-7.010760558987194635e-03,1.034274768267640608e-02,-6.111458924874910853e-02,1.401021599769592285e+00
-7.940275758706278886e-01,-8.259483924006869593e-01,2.054495157516604831e-01,1.143988121375528466e-01,1.382013647271245760e-01,-8.661223383689548028e-02,1.072819948196411133e+00
-1.090455094656529234e+00,-7.322069966407336317e-01,5.154234442252130233e-01,3.787450852931785183e-01,1.045027683414184311e-01,1.403000257927123628e-01,1.629123330116271973e+00
-9.376924731195924734e-01,-5.511076345169553248e-01,3.651703786396901519e-01,-1.435844476649791035e-01,-7.025640697102307486e-02,-5.162452942994599780e-02,1.194941401481628418e+00
-8.004641555960323451e-01,-7.633509347605180739e-01,5.799235837566393270e-01,1.375180533304899873e-02,9.323395061524773764e-02,8.776129958419619237e-02,1.380350828170776367e+00
-1.070029301182865655e+00,-4.533580275562469342e-01,1.147104210981045203e+00,-2.159101260728460772e-02,-2.924139377760281576e-04,-1.289655879223960445e-02,1.982578992843627930e+00
-7.128485027174409350e-01,-7.249462200176719495e-01,3.582751773628629621e-01,5.872966353957492953e-03,4.351991879614038744e-02,8.452030407079345886e-02,1.089782953262329102e+00
-9.892147450683960175e-01,-6.722502253355130408e-01,8.511049626041182758e-01,9.437919375442824221e-02,-9.731628239159346994e-02,1.873708647970765140e-01,1.750538229942321777e+00
-9.354460613367745481e-01,-4.873671987354435409e-01,1.725484750843899295e+00,4.077902170713715302e-01,-1.956096874581504386e-01,-1.203232574824170814e-01,2.597329616546630859e+00
-4.997159323704598588e-01,-8.947708869496098227e-01,2.866164435433207203e-01,-2.179795028667449175e-01,-1.058802366976649978e-01,1.761821658295640858e-01,1.163756489753723145e+00
-8.805670643994872870e-01,-8.360769631888651521e-01,1.021178039545483252e+00,-8.339764832815770718e-03,-4.167073485499413893e-02,6.503550836420347869e-02,1.884704709053039551e+00
-9.251812677830831833e-01,-7.688789571847928217e-01,1.105447285367705756e+00,-4.129638295190068975e-02,-9.187310619081697979e-03,5.031943938546740852e-03,1.958554625511169434e+00
-7.580774218270155407e-01,-8.821889356397731863e-01,1.045792034380649271e+00,-1.071706822185765611e-03,2.979062472605148448e-02,1.745324188927827730e-02,1.869975805282592773e+00
-7.899966982470446597e-01,-8.756718340000173573e-01,1.029274154817054088e+00,-4.702677165800716631e-03,-2.066219754620550117e-02,1.115461644598474654e-02,1.864047527313232422e+00
-5.192856815808226667e-01,-9.442521847951120817e-01,1.018867451830028692e+00,-3.952675538424890722e-02,1.211965201791641647e-02,-4.510938952841579870e-03,1.790353059768676758e+00
-8.617448356632630979e-01,-8.559706924432314290e-01,1.057396841217741024e+00,1.166623626114362058e-03,-9.007149252677324261e-03,2.668003918106930279e-03,1.916331291198730469e+00
-8.085261448151334074e-01,-8.857730067259415030e-01,1.044228938449951682e+00,-2.055926206911763005e-02,-1.992850935673997140e-02,4.854948399983864162e-03,1.893229603767395020e+00
-8.296664721981384938e-01,-8.118386920249538452e-01,7.967122088273146385e-01,1.363975639393127069e-02,6.596709301349115706e-02,-4.688720384037955990e-02,1.623773097991943359e+00
-3.018388997966200415e-01,-1.100097629019568313e+00,1.227086910655886154e+00,1.850765511650000195e-01,1.988926469557256438e-01,6.621013161114136514e-02,2.104731798171997070e+00
-8.635117241314282932e-01,-8.558049047422345845e-01,1.003366506236845757e+00,-4.728280000602938342e-03,2.572995250847270529e-02,-5.084830000509426087e-03,1.863608479499816895e+00
-8.288471098355487676e-01,-8.189206965393511783e-01,7.961884276236441682e-01,1.315891327767472994e-02,7.025243027253383343e-02,-2.536557967298324126e-02,1.625411987304687500e+00
-6.337860323023079001e-01,-9.133035529785761275e-01,9.865869497058477045e-01,9.712475914907217622e-02,3.482334797374259799e-02,1.774444901130117075e-02,1.785929322242736816e+00
-8.429445369374737318e-01,-8.145895676919723272e-01,1.041619157905563808e+00,-1.249078434928124932e-02,-2.503576871412309043e-03,1.331163579440537877e-02,1.870819568634033203e+00
-9.366124117182725861e-01,-6.757568689397963624e-01,1.029793474060598291e+00,-4.579332260031060420e-01,-8.269863216767277259e-02,-4.464603405334415659e-02,2.019270896911621094e+00
-8.425172442920059179e-01,-6.528643769421234033e-01,9.985577615583134392e-01,-2.409739148941516043e-02,1.353200849045597259e-02,4.169129449045690973e-03,1.754623532295227051e+00
-6.176232008637980719e-01,-8.890330325786351962e-01,5.797813818806324404e-01,-1.258905474190566698e-01,-2.522743770445829981e-01,1.176016657293658535e-01,1.453406810760498047e+00
-8.027740793677411446e-01,-7.460923865931241572e-01,1.079500013115206603e+00,-1.383817487079037345e-01,4.247651292419719199e-02,-3.067758330232755667e-02,1.872207999229431152e+00
-8.001190830440142454e-01,-5.448677651104198993e-01,8.402600787743379485e-01,-2.989793738223060493e-01,-9.366879113549067548e-02,7.946012785193110051e-02,1.628102421760559082e+00
-8.704717295478374695e-01,-7.174715518817332827e-01,1.033917347834595990e+00,-1.157941607119668398e-01,-3.524616008404427014e-02,4.387488902104170335e-02,1.846202015876770020e+00
-8.759067422566431116e-01,-5.326542004372261108e-01,1.025777757227734677e+00,-1.780542631294945166e-01,6.576341110888941910e-02,-1.071230109142379955e-01,1.795544147491455078e+00
-7.697956300763642012e-01,-8.090951523687814895e-01,1.194502897709120770e+00,-3.240503187370162297e-01,5.662222331085142030e-02,-1.029719276521655208e-01,2.072115659713745117e+00
-8.175973797544263677e-01,-8.205576239263842053e-01,1.047223224666639529e+00,-1.234662455469936332e-02,-1.091408131712568765e-02,-4.729941858441697594e-03,1.866538763046264648e+00
-8.506421891416106051e-01,-8.486448431091303535e-01,9.426519201864207442e-01,-1.288616383252831621e-02,-2.246146241329500040e-02,1.167967496237007873e-02,1.792971491813659668e+00
-8.528206891343571572e-01,-8.522324402543963728e-01,9.941219577832587362e-01,4.861748278607269137e-03,9.835885803123476517e-03,3.147034803154424853e-02,1.847550630569458008e+00
-9.530310966531474470e-01,-6.313881963053568080e-01,1.173103828497065626e+00,-8.247161812662909264e-02,1.461818036942690024e-02,-9.787970792399899866e-02,1.997457027435302734e+00
-1.015039804728098627e+00,-6.435023516474069893e-01,8.236815285430079125e-01,4.787957603760404357e-01,-4.339028219471874337e-02,-1.289370595936611685e-01,1.891835331916809082e+00
-8.711113247335093845e-01,-8.614843849192495018e-01,1.039996070246796744e+00,7.904364669825306861e-03,-1.807077858521107666e-02,-1.047628312737522716e-01,1.915233373641967773e+00
-8.396292973679115867e-01,-8.546502857607782833e-01,9.268267301883741371e-01,-8.217361521619658341e-03,-3.746410742699870285e-03,-4.436187400210727522e-02,1.775746345520019531e+00
-8.800135083688080950e-01,-8.091369197828222060e-01,6.848443776558534868e-01,5.954897213771460918e-02,-2.161205081458112409e-01,-5.550833421382810745e-02,1.582054972648620605e+00
-8.278202008086112951e-01,-9.412464367484193462e-01,9.738240994433418063e-01,1.232086100691570096e-01,-9.003189870066552469e-02,-1.184373870038494120e-01,1.890788674354553223e+00
-8.392149108811615132e-01,-8.987350114948704505e-01,7.315610138194352796e-01,3.846686144702328169e-01,-1.394040729738875717e-01,4.929367969634126240e-02,1.753246188163757324e+00
-8.475338327475105960e-01,-8.777641556232473885e-01,9.147547893237455430e-01,-4.907631422744218944e-03,1.403713691149887088e-01,4.872223982573190004e-02,1.796150326728820801e+00
-6.008363130067282398e-01,-8.289938292680869569e-01,6.119333753194093894e-01,-3.188133777329759111e-01,2.779095932523477086e-01,-2.152912595892514380e-02,1.528916716575622559e+00
-8.491733544975907932e-01,-8.339506705803544362e-01,8.963451702120432962e-01,-1.349342457794820357e-02,-6.395638495423199357e-03,1.833675427753537687e-02,1.738439798355102539e+00
-8.371758839095888582e-01,-8.636967360799228111e-01,1.034443569064945168e+00,5.131083498668220257e-03,1.666646348296697139e-02,3.528030783931973297e-03,1.885271668434143066e+00
-7.829237789221930033e-01,-1.080352035548148404e+00,3.695908016356790338e-01,2.592558658068401800e-01,9.617015000805773095e-02,2.395240683282014171e-02,1.410904645919799805e+00
-5.844946251237703727e-01,-8.684598641179355205e-01,2.131425850538768429e-01,-2.032890031519470758e-02,3.881293619068387074e-02,8.536468633505568671e-02,9.853847622871398926e-01
-1.004029772741969584e+00,-4.941474245887299555e-01,1.053649756368730372e+00,-4.871368527415786964e-02,1.131302334770774081e-03,-3.253600504814380817e-02,1.858803153038024902e+00
-7.860655833139559290e-01,-9.752114164801483076e-01,7.702720908089433216e-01,-5.069397941304484290e-01,1.287465012806633946e-01,-1.242118948781690962e-01,1.902449607849121094e+00
-2.430748131646648935e-01,-1.158323038691840390e+00,6.224587925595812532e-01,-1.400824337918243068e-01,8.208949245035401798e-02,2.683109041481415713e-01,1.635256409645080566e+00
-8.654361875455662823e-01,-8.461954848736066293e-01,1.057930515006390459e+00,-1.599994576522543012e-03,4.647879800837862764e-03,-1.311531084024858407e-02,1.913972616195678711e+00
-8.616738148815556997e-01,-8.737673079989040081e-01,1.034732015736142596e+00,-6.077075798240107185e-03,6.075599719729751595e-03,-1.014351985933790133e-02,1.902620792388916016e+00
-7.986709392564427246e-01,-8.236907397287623889e-01,7.400436492441204717e-01,2.100353906246001101e-03,1.678987541355929369e-02,-8.683987069437403006e-02,1.558925747871398926e+00
-8.959320022445447229e-01,-7.923541156216976633e-01,9.954277410026235451e-01,8.123528722908730793e-02,1.548392405008084359e-02,-4.028054669468203626e-03,1.847331166267395020e+00
-8.636975737464558378e-01,-8.553423773695036925e-01,1.022059122871169734e+00,-1.707956302842663114e-03,2.219692372166025968e-03,-6.944939751086315338e-03,1.881637692451477051e+00
-8.501124054327682256e-01,-8.670831688677201887e-01,9.957582958084860714e-01,-7.074540239875958111e-04,2.493114630739042860e-03,1.710050981984957350e-02,1.854656338691711426e+00
-8.518832620051648430e-01,-8.736591004959858298e-01,1.016360057733711963e+00,-1.678646696435326076e-03,-1.558675638773572699e-03,-3.034110309887799034e-03,1.879237413406372070e+00
-8.577660292521974705e-01,-8.557172032252796656e-01,1.019483158669409528e+00,-8.714489856680473874e-06,-2.549460329940303298e-03,-9.157734812123272117e-03,1.876297831535339355e+00
-8.592340586184150641e-01,-8.674604335441992164e-01,1.031302567661871894e+00,-4.293371416979062209e-03,1.470080324760302546e-03,6.000695734112033650e-03,1.894708037376403809e+00
-8.068575608784198661e-01,-8.281933267933883069e-01,7.475148056294262933e-01,1.223087051851844739e-03,-2.309657173461879612e-02,7.741241302841182954e-03,1.565719366073608398e+00
-8.380417678158608163e-01,-8.674574634221365876e-01,9.735963406749026383e-01,5.622702990587888881e-03,-1.938864628606684062e-03,-7.808625828853282477e-03,1.826602697372436523e+00
-8.534816749787077494e-01,-8.716306179291564149e-01,1.016207007577679455e+00,-1.469998032679508109e-03,-1.784024571676452210e-03,-2.750444258744816264e-03,1.878839254379272461e+00
-9.113593369082961804e-01,-6.081710031531297744e-01,1.036818739957031887e+00,-1.585105686842903580e-02,1.580411618346911490e-02,-3.533223961266908353e-02,1.817114233970642090e+00
-8.845707096369602729e-01,-7.852882807252307140e-01,1.014879327124244890e+00,-1.340313952543829498e-03,1.164330385482632672e-03,-7.515633170530537470e-03,1.851854324340820312e+00
-9.077201060233757168e-01,-9.169635260447509539e-01,1.093368606400659360e+00,-1.038095148407771062e-01,-4.520318273957913552e-02,4.776899555786878748e-02,2.016988754272460938e+00
-8.539061110680149502e-01,-8.129614164891550976e-01,1.137621328401586362e+00,-1.731922191792634458e-01,1.061543697633195588e-01,-5.928742380784962629e-02,2.005156755447387695e+00
-9.665938499471162793e-01,-7.331531442844365642e-01,1.082472844197473805e+00,-6.450108238184917506e-03,-8.088361110395448500e-03,2.626378674650722139e-02,1.943508148193359375e+00
-8.803257948598482985e-01,-7.861910524078231655e-01,1.059772682319320980e+00,-8.722890221927764864e-03,1.133751215617669582e-02,1.750481983820198137e-02,1.895190238952636719e+00
-7.958399578693248211e-01,-7.305123069001872027e-01,1.007883509226559227e+00,6.695335604688057440e-02,1.204692641950901207e-02,4.922427433559835655e-03,1.775896787643432617e+00
-6.444007576251251646e-01,-8.436005738571275003e-01,1.015268305734069010e+00,2.389091015189974757e-02,7.022345503269980527e-03,7.537161067539464160e-03,1.768281221389770508e+00
-4.954565935358669626e-01,-7.759188975505275643e-01,9.957399075953605738e-01,4.133867521465074968e-01,6.339392905673245371e-02,1.861855382300543803e-03,1.801466941833496094e+00
-8.385547161636831559e-01,-8.560062616528649748e-01,1.013332698552407374e+00,3.118712884547444018e-03,-9.500415122466800491e-03,6.703834353080448220e-03,1.860791444778442383e+00
-7.709907614744677673e-01,-1.007652636094185539e+00,8.334537670101349605e-01,5.321145399106103069e-01,-8.650037529746766596e-02,4.261660441643686653e-02,1.971622467041015625e+00
-8.856380442347212556e-01,-8.063339514251824935e-01,1.007173681074214455e+00,5.737920746555891932e-02,-5.525889340373217433e-03,4.457447691049488264e-02,1.858721852302551270e+00
-8.204413882744664432e-01,-8.376057008587528552e-01,1.042020383277914686e+00,1.028715226743298974e-02,1.753805303683515088e-02,1.152844788589816975e-02,1.871540904045104980e+00
-8.974347017273521798e-01,-8.830418774347120747e-01,9.958063010410469484e-01,-2.528329414864801880e-02,-3.828978140960756765e-03,-5.108152885250834968e-02,1.888679265975952148e+00
-8.618604739565864925e-01,-8.785963551997616472e-01,1.035207304655108462e+00,-1.251070770579405800e-02,-3.861334699888272458e-03,-1.084216217348630759e-02,1.905718326568603516e+00
-9.960455479131545831e-01,-6.134583800631117079e-01,1.065932640298927314e+00,6.250773788499069950e-02,-1.712017450222513143e-02,2.535411795262163415e-03,1.903118729591369629e+00
-5.792460630811343547e-01,-8.525842528605221959e-01,1.247291342399548197e+00,-3.741156819051709714e-01,3.329360261487722683e-01,-3.465327839977508373e-01,2.241182088851928711e+00
-8.375288346313665144e-01,-8.461572504284445850e-01,7.888136231486857497e-01,-1.505403076967015141e-01,2.479688511245469254e-02,-1.216061626135915980e-01,1.665320634841918945e+00
-4.370529262914977786e-01,-1.156059778405557736e+00,1.202540159638093797e+00,-1.116295371171730777e-01,1.200418799859462177e-01,-4.348560227838747447e-03,2.113003969192504883e+00
-8.137705070378626893e-01,-7.770998579480874469e-01,7.156701976214228100e-01,-1.117803338951922285e-02,-1.310625604336668019e-02,-1.008095659467879296e-01,1.521783828735351562e+00
-9.863043488891100052e-01,-5.209979010347808304e-01,1.052707520459396973e+00,-2.493926766323336167e-02,7.637365058731938709e-03,-3.984754607026529116e-02,1.852597713470458984e+00
-7.634501634795534120e-01,-9.570222886184738265e-01,1.107081019762481633e+00,8.138433345696634985e-03,6.669878623810679072e-03,-2.941100545997464566e-03,1.974537372589111328e+00
-8.648755112623909280e-01,-8.661345700713594109e-01,1.057230064313799955e+00,3.774154613154345490e-03,5.286694068480157294e-04,1.582285550297888969e-03,1.922748684883117676e+00
-8.563752419308603425e-01,-8.453061555382545000e-01,1.097779836164859635e+00,-2.193282742066340330e-01,1.053427405149769680e-01,2.069324078173660070e-02,1.994017124176025391e+00
-8.076401319600587936e-01,-8.474579173078382599e-01,1.030679142388101655e+00,-1.685347666138858544e-02,-1.961187994233610718e-02,1.006959319446421725e-02,1.859169483184814453e+00
-6.527596664784467428e-01,-8.734081684981427340e-01,1.060546914382419770e+00,-2.945448769253817822e-01,-1.138846915550953409e-03,4.091373567352408341e-02,1.904583811759948730e+00
-4.142496437483521587e-01,-1.163117976579105761e+00,1.333405523626827627e+00,-1.346572732717985776e-01,-5.349226741870482388e-02,-1.140232634096490991e-02,2.233212471008300781e+00
-7.479382501313208698e-01,-8.627093213071683753e-01,1.038730282222209755e+00,-8.289851195438541209e-03,-5.615485238031285575e-03,1.214474416663522544e-02,1.846932053565979004e+00
-8.195150973147460327e-01,-8.482302012560846149e-01,1.061256268723604013e+00,-1.849489904094861470e-02,-2.098428169450069006e-02,2.794299352676490877e-02,1.896528840065002441e+00
-9.579142796972078822e-01,-5.203151530068155228e-01,1.024585253369588722e+00,-1.348538926985526701e-02,1.058436138686439168e-02,2.078940154841132232e-02,1.804559707641601562e+00
-8.697982870474254558e-01,-8.576177233647486187e-01,1.029806588491107178e+00,-1.946412984503961439e-03,-3.705063242178533063e-03,-5.375837154496074417e-03,1.893580794334411621e+00
-8.338607981363902466e-01,-8.747321228185480635e-01,1.043536099792740313e+00,4.610732650667188730e-03,3.760556304562970992e-02,7.654833715532338018e-03,1.899342894554138184e+00
-8.649031894213090599e-01,-8.601248964425196597e-01,1.046567511689749708e+00,-2.674341755372197302e-03,-9.533922409711545519e-04,-7.689611468574835025e-03,1.909138798713684082e+00
-8.770289814763227998e-01,-8.565977929751515951e-01,1.032042143810085966e+00,-4.929929778893352155e-03,-4.060063406076361812e-03,-5.326093487683974427e-03,1.898992538452148438e+00
-8.606243283683429057e-01,-8.312371124736580574e-01,1.038549566954518388e+00,1.247350381020374960e-01,-1.551612806185859866e-02,1.095968097763916869e-03,1.897186279296875000e+00
-8.386181130101288961e-01,-8.501317262435927891e-01,9.264649669240876406e-01,5.374179340159069077e-03,-3.321123603419036570e-03,-2.697591130877247112e-02,1.771517992019653320e+00
-8.580308093988018303e-01,-8.550465071890083202e-01,9.975685663362316991e-01,9.463525124203283484e-03,-9.616257455395479589e-03,-1.134773754081983173e-02,1.854360461235046387e+00
-8.658829502932465783e-01,-8.452722865987429834e-01,9.692765281447519587e-01,1.373063297209646365e-02,3.024988632674839237e-02,7.172162121887370144e-03,1.825890541076660156e+00
-8.342082659720718718e-01,-8.499928130030768303e-01,9.248362692001719232e-01,7.127563250282591481e-03,-4.546052902603613458e-03,-2.787547863187402747e-02,1.767709851264953613e+00
-8.821763878353221511e-01,-7.850212748977989374e-01,1.043153436559353997e+00,-3.040075385050738932e-02,4.585504827755863323e-04,-2.613389903321823929e-02,1.879920363426208496e+00
-8.655778231819775126e-01,-8.545728466166465642e-01,1.061504397257367671e+00,5.124808760773206379e-03,-7.085266024748033270e-03,-1.170018199067879988e-02,1.921769857406616211e+00
-4.836741192315211491e-01,-1.083528274818461368e+00,1.151598826468079428e+00,-8.103806262212505385e-02,-1.931679861352114946e-01,6.654606018713557156e-03,2.036330938339233398e+00
-9.089652624055553076e-01,-8.747412218631031022e-01,1.082641707258999109e+00,-1.048995749132493882e-01,-4.566702332726835234e-02,6.563995122824496653e-02,1.987889051437377930e+00
-8.663382368134501244e-01,-8.605734020223445579e-01,1.027076469492457012e+00,9.549977138297791046e-03,-1.054633478757508076e-02,-1.057828686234228537e-02,1.890788316726684570e+00
-8.445856642737005204e-01,-9.846661784176189425e-01,9.496879671382729704e-01,6.419723319363639276e-03,-1.497983022223107197e-01,1.953098450867460367e-02,1.886523246765136719e+00
-8.667339606003046093e-01,-8.628933536239418167e-01,9.326225251730217991e-01,-5.816705935355493719e-03,-1.413930596920992197e-02,9.452234000449791576e-03,1.797708868980407715e+00
-8.423065135135570092e-01,-8.438081422646925844e-01,9.009161649887997836e-01,1.450364489517733287e-02,-5.277364160176139379e-02,5.363973745465517445e-02,1.749017715454101562e+00
-8.432335981285737914e-01,-8.546134271401862881e-01,9.436994207949422897e-01,1.270626212374239249e-02,-4.500303502750906126e-02,-1.177288793326318299e-02,1.794594645500183105e+00
-8.599929940603384670e-01,-8.429319401650550159e-01,9.277544083063045122e-01,-5.914580305999939808e-03,-4.275755974121992625e-02,-6.121072393249019257e-03,1.780879855155944824e+00
-8.226150893769050843e-01,-8.978782864838119604e-01,1.071950182102154425e+00,1.639545229031958914e-02,-2.976085828873842321e-02,7.703903230358134053e-04,1.934191942214965820e+00
-7.684395053538912723e-01,-8.904412814918805097e-01,1.030306537859422500e+00,1.042922002859254377e-01,-3.351130733955334784e-03,-2.994746117210813924e-03,1.871500253677368164e+00
-6.360635997239696415e-01,-9.300582477513830160e-01,1.040372166873903215e+00,3.771714409525602635e-02,2.451683769509799271e-02,-1.066231623242140311e-02,1.842863202095031738e+00
-8.537094002527321202e-01,-8.634720539702287478e-01,1.015617499384686706e+00,-8.625787734508548812e-03,-1.214797658116707757e-02,7.405006943864007353e-03,1.874448776245117188e+00
-8.523391370511997911e-01,-8.431315128867454822e-01,9.434831782098673791e-01,-1.101524755339316868e-02,1.377262062957148453e-02,-1.970969358276824721e-02,1.791821956634521484e+00
-8.351318255397205403e-01,-8.201295245619999452e-01,8.420223155227315459e-01,-1.484239336480267304e-02,-3.502604365878900228e-02,7.008280172071358442e-03,1.671047210693359375e+00
-5.921744311707531905e-01,-9.607999886661706679e-01,1.038414501123210432e+00,-1.805160626995560083e-02,2.928771989528903066e-02,7.926894669098417598e-03,1.843779087066650391e+00
-6.519020680802225520e-01,-9.025028617284789334e-01,1.010670142015942963e+00,-1.771589664447054515e-03,1.984848650145208324e-02,1.208562357882300362e-02,1.801449060440063477e+00
-7.712455841429015635e-01,-9.045098759248130227e-01,1.056978502558121980e+00,-3.669615466957805092e-03,2.328860101346072811e-02,9.824946494585823017e-03,1.898882985115051270e+00
-5.957905447959881418e-01,-9.557912476799174106e-01,1.010334922484061426e+00,1.512357221712749659e-02,5.682863845908368156e-02,-2.748158986235297446e-02,1.816613912582397461e+00
-3.140034653810563348e-01,-1.161230951699893765e+00,9.791143927302394800e-01,6.897813457148333979e-03,2.338846667455442840e-01,-1.330987639093521302e-01,1.924294114112854004e+00
-6.902322972253165378e-01,-8.522179466325527919e-01,1.021107729680193144e+00,-2.332481068336799551e-02,-3.025100921362203557e-02,3.702070220506198384e-02,1.800173759460449219e+00
-7.704239447577049260e-01,-9.089675516903471530e-01,1.066794095150156219e+00,-4.307818344784245142e-03,1.823509147369946392e-03,1.112328314529969879e-02,1.910375952720642090e+00
-1.083652552924535273e-01,-1.093777724670815799e+00,1.119184320791844822e+00,2.960664921510731962e-02,-7.832047028905211872e-02,-1.161055467619507165e-03,1.925771117210388184e+00
-8.553087565734791564e-01,-8.618103464547793857e-01,1.068682421151026407e+00,1.816163609439718071e-03,5.288788719680838357e-03,1.265448488840654117e-03,1.927275776863098145e+00
-6.520117097501201275e-01,-1.128192747166432586e+00,2.017381143196650406e-01,-3.256719065673841507e-01,9.692368546191039436e-02,2.386899852954821044e-01,1.370935678482055664e+00
-6.559515874966360682e-01,-9.317384592381240394e-01,1.070693358720847810e+00,-3.622745149336731307e-02,-4.159909231834447302e-02,1.751425757319278673e-02,1.882444143295288086e+00
-9.047591321579973034e-01,-4.159254685207032787e-01,4.979354211860775870e-01,2.176258776717236165e-01,6.170971483696609250e-02,-2.585668559525014162e-02,1.294735193252563477e+00
-9.827627553290207985e-01,-8.788750480273291865e-01,1.122356526976972191e+00,1.414299942244064967e-01,3.214645767321307104e-03,-4.383233165093177591e-02,2.071092844009399414e+00
-8.270362858099541414e-01,-8.310755688760593785e-01,8.567953057405208739e-01,-1.734465840099863295e-03,-4.368877955075148485e-03,-2.750214241642675791e-02,1.686547398567199707e+00
-1.110051943199781066e+00,-6.658863234728858993e-01,4.401611740690881680e-01,3.517729852124685808e-01,-6.016283005125982325e-02,-4.164489606579131059e-02,1.516306996345520020e+00
-4.331981983609637377e-01,-9.802418036137184876e-01,1.070417586852618452e+00,7.420933096684267927e-02,-8.856692501852808652e-02,-7.571678900772118442e-03,1.850104331970214844e+00
-7.904919282179645457e-01,-8.347149576793652104e-01,1.040894170087803383e+00,-1.409758173239083860e-02,-1.091176647541711002e-02,-1.315509303031620406e-02,1.854290366172790527e+00
-7.948716634595357489e-01,-8.319407994427683306e-01,1.065163277116872198e+00,-9.366241543208825293e-02,-4.456216879369175043e-02,3.015611480177421075e-02,1.888136029243469238e+00
-7.744468763777011544e-01,-8.698965549171282508e-01,9.966772118028059957e-01,-1.500944460207147063e-03,1.012887799030053569e-02,2.404686849091426139e-03,1.820817470550537109e+00
-7.997923085265543630e-01,-8.466235341112458013e-01,1.085342950872485224e+00,-9.117678585202007580e-02,2.912649037606762289e-02,-3.350116651158301095e-02,1.917045354843139648e+00
-8.562474125847208128e-01,-8.793912772875969175e-01,1.039250836078013940e+00,-5.546937449579045047e-03,7.183032592306225206e-02,2.437868335578498302e-03,1.911258101463317871e+00
-8.603733188847122459e-01,-8.791082558252470980e-01,6.227796372492131471e-01,1.870753192878522875e-02,4.292264528618344732e-02,7.775780065253008223e-03,1.494870781898498535e+00
-7.081512150614972523e-01,-8.875855714509082173e-01,8.978492979944241448e-01,-8.985228780387088943e-02,-5.870162408693196249e-02,6.180522346435177172e-02,1.716281890869140625e+00
-8.638432936662849837e-01,-8.634747531723140357e-01,1.071131508418730283e+00,-3.066309323150620113e-03,-4.555815370657341143e-03,-6.178770708322309973e-04,1.934814214706420898e+00
-6.730579525995875612e-01,-9.086704564845086152e-01,1.067578628191575119e+00,-1.100956263674313373e-01,-5.382852343762697250e-02,-1.364431418063604719e-02,1.881770133972167969e+00
-6.139235803002160985e-01,-9.096517223398248309e-01,1.035748067214748325e+00,-1.817888654549131011e-02,3.816874383098497331e-02,-2.408881750466653274e-02,1.817643761634826660e+00
-8.071559773067751298e-01,-7.048716928826034289e-01,1.020586183673585223e+00,-7.102805618743825156e-02,5.777393435773645926e-03,-6.244020034547041742e-03,1.783117055892944336e+00
-8.722088400275151976e-01,-7.944451748525624968e-01,1.149702522486573342e+00,-5.820764717291274648e-01,7.807109785661137114e-02,-1.385450457492289345e-01,2.242599010467529297e+00
-5.219263737069541609e-01,-9.581500859797869030e-01,1.035586124852720058e+00,1.073612610958776942e-01,1.469469159007461348e-02,-3.354275721761994927e-02,1.825968980789184570e+00
-5.474941318226869136e-01,-9.364646795699289594e-01,1.026386136636131097e+00,-3.183416160520732147e-02,-2.280263200680081315e-02,1.222862561402855014e-02,1.801565766334533691e+00
-9.478709668524994969e-01,-7.835154118588361083e-01,1.582500941834469321e+00,-5.412506997581767454e-01,-7.515252371070048863e-03,8.196466349185037303e-02,2.629276514053344727e+00
-3.698537035910676174e-01,-1.105003614005823032e+00,1.024193777575293840e+00,-1.644269020539065596e-01,-1.246090585339714729e-01,-4.315403551600543314e-02,1.908382892608642578e+00
-6.115187111314922541e-01,-1.062848558369517304e+00,1.124878408777407079e+00,-1.862670999326617588e-02,1.414739476302600274e-01,6.136868060854813040e-02,2.018624544143676758e+00
-8.622245327904883849e-01,-4.106075733079586620e-01,7.282083662050592432e-01,2.496085036556719150e-01,-7.566742438050604036e-03,8.113346777829984202e-02,1.490637779235839844e+00
-8.514879245042300537e-01,-8.477458302749808494e-01,1.025354025552754234e+00,6.020442452965344901e-03,8.425009145450319120e-03,2.541668943844653441e-03,1.875064611434936523e+00
-8.460336281141971337e-01,-9.307097878847492289e-01,1.018565938343638066e+00,5.052361874696379429e-01,2.149325823412678860e-01,5.648645688925968411e-02,2.134418010711669922e+00
-1.165561206608618505e+00,-5.964210249903415528e-01,8.662157174128735093e-01,1.030028247798536745e-01,6.050668424234468407e-02,3.818946214791362620e-02,1.828348755836486816e+00
-8.950365719139107279e-01,-7.707806670949470806e-01,1.060056338111161844e+00,3.271513065272126791e-02,-2.014683691041539715e-02,1.779125597663387334e-02,1.897438764572143555e+00
-8.350074378363525618e-01,-6.531538838018164927e-01,1.007339463517962663e+00,5.590322903740455734e-02,-1.059533252865485584e-03,3.845203831601023883e-03,1.761164069175720215e+00
-7.283621253952083929e-01,-1.038614135709026165e+00,1.121607641764679641e+00,5.069353031079174704e-02,-4.461377971320702567e-03,-2.016840169453155626e-02,2.025238513946533203e+00
-8.152723691423801045e-01,-7.803730483589214062e-01,1.043129710139018007e+00,5.773683716797195498e-02,-3.451494640842343864e-02,-3.788093234184174152e-02,1.846049427986145020e+00
-7.613851812106070538e-01,-1.096011685308253547e+00,1.171819894592786460e+00,8.590592637231816986e-02,2.396369418117386477e-02,-4.310244912431282494e-02,2.127344369888305664e+00
-3.293788041481300888e-01,-1.055309738568384947e+00,6.966977403640097766e-01,1.925084090854228269e-01,5.165515323115371649e-02,8.837784838722637093e-02,1.570759296417236328e+00
-7.581078824308470354e-01,-7.519414307892686722e-01,5.473427460420151602e-01,5.430092435592534994e-04,-1.658373973884679159e-03,-8.160745420655632354e-03,1.302458524703979492e+00
-8.616990926780392357e-01,-8.676057817292701646e-01,1.032722431481537306e+00,8.174193089944282661e-03,8.293839422085454161e-03,-9.019295982617675901e-04,1.897489666938781738e+00
-8.389113611407756910e-01,-8.498495511047375883e-01,9.351994442761348836e-01,6.000577880325429735e-03,2.971544998786442016e-02,1.672776186138846821e-02,1.780615329742431641e+00
-7.775835520764114994e-01,-9.124334006683658682e-01,1.082410565320050644e+00,2.361331482816628885e-02,-2.212963460997904863e-02,2.669749402327168189e-02,1.932320594787597656e+00
-9.370746906770539564e-01,-7.291147396617970733e-01,9.665758362132272907e-01,-1.683812435612753663e-02,1.405545862507416414e-02,4.050376504821141116e-02,1.810418367385864258e+00
-7.627073116851990076e-01,-9.620708735734476713e-01,1.115363497642311463e+00,2.182958658377992869e-02,1.325514817016164998e-02,-1.223683039449157371e-02,1.985880255699157715e+00
-7.511125126148223696e-01,-7.687988159279983691e-01,5.665360607729329478e-01,1.581052781843010277e-02,-2.840374817535603127e-03,-1.128696886863702065e-01,1.341196417808532715e+00
-1.032581607960685766e+00,-2.384106784038791393e-01,8.804937655618885195e-01,-2.064646195245411209e-01,-1.763786020189352099e-02,-6.287350624892396045e-02,1.706438183784484863e+00
-7.806205310857939894e-01,-7.795686783487203453e-01,6.194260182080989496e-01,1.241160736161798367e-02,2.949077630112961410e-02,-2.272091805366098158e-02,1.401170492172241211e+00
-8.313603654689778466e-01,-8.516626282275869819e-01,9.135020062967369459e-01,1.156451504531640605e-02,3.753823757618281187e-02,-3.705401063580539278e-02,1.757591843605041504e+00
-7.912467258720844443e-01,-6.963042011998274994e-01,1.043620619233555313e+00,1.187300279608936165e-01,-1.958192337657447754e-02,-4.835115843366266652e-02,1.803330183029174805e+00
-6.617563181795208527e-01,-8.813519802133046310e-01,1.078444406872530736e+00,1.102765975279731275e-01,-3.012703640998801516e-02,-5.763076880532577023e-02,1.872920393943786621e+00
-8.639160287367833035e-01,-6.164418049557532919e-01,1.009900175072582451e+00,4.944528675004782742e-02,-2.010240569644735492e-02,-5.406785109098252023e-03,1.765600204467773438e+00
-6.288180141704737824e-01,-8.665744877279444314e-01,1.004384028556694064e+00,3.766458714417270787e-02,2.451344908504161230e-02,2.223083859433838336e-02,1.766273617744445801e+00
-7.954699088647262384e-01,-6.588437671176492483e-01,9.990495035158815096e-01,3.964486513734829382e-02,-1.495341582140349498e-02,-2.191789581008693130e-02,1.732228517532348633e+00
-7.607866132718028584e-01,-6.970509054017728356e-01,9.931863825081110875e-01,1.113588396751622744e-01,1.379980338923387020e-02,1.817043927351775709e-02,1.734202146530151367e+00
-4.708007735180652631e-01,-9.671040188743358357e-01,1.131529938457289441e+00,-1.376048864281347317e-01,7.754711889117815726e-02,3.397573018311805283e-03,1.919349670410156250e+00
-7.314841235799222074e-01,-9.740077684256360779e-01,1.085756319167170858e+00,-1.769934143758834788e-02,-5.881848285751820060e-02,-1.492083308522626321e-02,1.952918529510498047e+00
-8.363297227671252498e-01,-8.635933638365190790e-01,9.811248271575541136e-01,2.776206320529715863e-03,-2.916556100568191631e-03,-2.052058214760650243e-02,1.831596732139587402e+00
-7.740230025379238876e-01,-9.501474607492568225e-01,1.104509730405748735e+00,3.283014795260961322e-02,-2.767599489396839127e-02,-3.308621299888070411e-02,1.974734425544738770e+00
-8.223251924133353485e-01,-8.796952223117516789e-01,8.934519553090483068e-01,1.901046752027913192e-02,-5.559095270916130510e-02,-3.067539999402210324e-02,1.748941063880920410e+00
-8.344630352442701238e-01,-8.731721235399941827e-01,1.008633947145247456e+00,1.353633197733699993e-03,6.613584825979792851e-03,-1.238626522979064878e-02,1.862913489341735840e+00
-8.505948841401560490e-01,-8.675736056755826153e-01,1.046489784261847467e+00,1.430893668270576385e-03,-1.254655381849377818e-02,-2.951578016548352806e-03,1.905763149261474609e+00
-9.657942615189047952e-01,-6.417819514737822528e-01,1.044344275259299959e+00,1.185349664441313899e-02,3.456611372058329690e-02,1.403803672169516570e-01,1.886122226715087891e+00
-8.772037969259532941e-01,-8.551370460576644961e-01,1.030418155517998535e+00,-2.728446918891228230e-04,-9.515628642183606573e-03,6.451451026850178955e-04,1.896756887435913086e+00
-8.007116588677928304e-01,-8.768717572899549229e-01,1.036301017888901388e+00,-5.688268380707876479e-03,1.235569573518143990e-02,-1.055246710017746815e-02,1.876489281654357910e+00
-8.674431057942153522e-01,-8.553466071667941151e-01,1.015332203167850222e+00,4.982622055183157442e-03,-1.215276325068847391e-02,-3.979731763124754601e-03,1.876906871795654297e+00
-4.805622087258939468e-01,-1.079501938958532969e+00,1.185706018300259901e+00,-1.173937498375430127e-01,7.432038759964530727e-02,3.208127799645589182e-03,2.047222137451171875e+00
-8.300104430563022273e-01,-8.526725112839590448e-01,9.103949609646966312e-01,-3.639332509878554639e-03,-3.153609755810294051e-03,3.612375235996219403e-02,1.752983212471008301e+00
-8.371773387182088744e-01,-8.282230217231709712e-01,8.664732941000345967e-01,-2.001370867144057139e-02,5.053667656776791167e-02,-1.554996041694777474e-02,1.702010393142700195e+00
-8.222318122646229410e-01,-8.120068688743188323e-01,7.786276640971947494e-01,-2.036774316678380877e-03,8.986035968626127080e-02,2.178900405897064158e-02,1.603791832923889160e+00
-9.114818647572457966e-01,-6.444633860003545767e-01,1.041306785711933580e+00,-2.730764069613276362e-02,-2.485428099011924557e-03,3.475517403971357250e-02,1.835519313812255859e+00
-8.888079483995501295e-01,-6.895588902654674612e-01,1.031735238074505068e+00,1.178419141152634367e-02,-1.618109156412132071e-02,-5.216493099078600704e-02,1.831634640693664551e+00
-1.072322517139996156e+00,-5.799963426474176176e-01,1.027861253873078695e+00,-8.603353349895383195e-02,3.746625396919962998e-03,2.489532880796586217e-02,1.908739924430847168e+00
-8.442355993249557322e-01,-8.689247333634735337e-01,9.854597209513109579e-01,-2.834660501590694024e-03,-2.421682533582057099e-03,1.554500145333441961e-02,1.842372059822082520e+00
-9.097985167804860662e-01,-9.268351110300141471e-01,4.829988413793721014e-01,-6.787771792197708209e-02,-1.105819419053746394e-01,7.676082571528711207e-02,1.425512909889221191e+00
-8.130471219822171802e-01,-7.211482358067887732e-01,1.589648127852820725e-01,-4.192468633503576569e-02,2.054892204889160745e-01,1.623521532414031188e-01,1.036798357963562012e+00
-8.928629970704726748e-01,-9.250031382345036413e-01,7.773380795549291733e-01,-2.028048473115157124e-02,3.990614086213965794e-02,7.890211182241804733e-02,1.693804383277893066e+00
-8.017268445516523290e-01,-7.862627984681785920e-01,6.694469124830326745e-01,-1.816623627566838275e-02,1.263696702358361179e-01,-9.580898435593274143e-03,1.480207562446594238e+00
-7.683868588980536929e-01,-7.193702026469783739e-01,-2.825795887791182626e-02,-7.462956082252272805e-02,-2.368389585361571903e-01,-2.360723223481766414e-02,8.370026946067810059e-01
-7.716317356422970342e-01,-1.035266506331705028e+00,5.652414806092952437e-01,3.346219432152769957e-01,-1.835822680386502495e-02,-1.855074031250044109e-01,1.627680897712707520e+00
-7.832799852700924603e-01,-7.703780437503345846e-01,6.241038419740361221e-01,-4.378196461726582855e-04,-5.848355735413868217e-02,-5.464817075020249847e-03,1.404666781425476074e+00
-8.315707440058658362e-01,-8.430788294847398889e-01,9.509971186133685528e-01,2.172849853133409972e-03,-1.546461598019382641e-02,5.574207954843816287e-03,1.788580298423767090e+00
-8.296507523873331014e-01,-8.646510878440071268e-01,9.391897028110447465e-01,8.769977290612636367e-03,-6.255068560540635522e-03,-2.408549680339374874e-02,1.787182092666625977e+00
-8.091264948256285949e-01,-8.117532722926367184e-01,7.575517148146662105e-01,-6.642438284019592208e-03,1.033639156839367794e-02,-4.187775473342885552e-02,1.569814324378967285e+00
-7.481541106126265994e-01,-7.383554165029520000e-01,4.291402952037745022e-01,-2.584947780168781340e-03,-3.002509782495795670e-02,-2.252274263453558564e-02,1.174235343933105469e+00
-7.398448677091320480e-01,-7.453461634962981197e-01,4.887774917477356595e-01,1.932729059343070432e-02,5.311924727033823235e-02,4.547828492719998422e-02,1.237777233123779297e+00
-9.791535193527580727e-01,-5.005324053692626896e-01,4.077244840301684770e-01,1.555350124226194952e-01,1.723484411736753708e-01,8.266814079325689180e-02,1.292635679244995117e+00
-7.577182047539678944e-01,-5.259586393245518909e-01,6.631865398188562244e-01,-4.367909992712552536e-01,-6.351247663396247800e-02,1.602855188187878310e-01,1.550777077674865723e+00
-1.073636903009033361e+00,-9.107267096651336935e-01,7.907359644936129417e-01,-4.618387178545101390e-01,1.195103053072305438e-01,1.610608369917557181e-01,1.989787817001342773e+00
-8.567958820250232144e-01,-8.470692863244361215e-01,9.628041677350578365e-01,-9.053410328381118755e-03,2.308924067857364565e-02,8.257852844189058489e-03,1.815320968627929688e+00
-8.515317524195820109e-01,-8.701510746670306773e-01,9.939156227929659693e-01,-7.080220324313145699e-03,7.572560648529216322e-03,-6.443692368103179011e-03,1.854947566986083984e+00
-8.408204045314465747e-01,-8.540643306625903541e-01,9.219707404570420817e-01,-5.474356159937881182e-03,5.654748744019508569e-03,3.573518352467383585e-02,1.770584940910339355e+00
-6.724808514512450319e-01,-9.029984530364659756e-01,6.810101705789511906e-01,1.598526153312780362e-01,2.912094894695226727e-02,-1.085165150036759979e-01,1.520398020744323730e+00
-8.461864319485625785e-01,-8.311625814834558978e-01,1.058275799987640875e+00,3.699282592260118904e-03,-6.392951470260290793e-03,-6.982632413310077904e-03,1.897076606750488281e+00
-8.594820240714395876e-01,-8.730608898450755717e-01,1.034506825013964626e+00,-2.729314432070111505e-03,-6.517017416582817670e-03,9.518701007472605072e-03,1.900925517082214355e+00
-1.022964357963918491e+00,-2.327967188957322242e-01,9.686674086608624279e-01,-2.525501186767091233e-01,4.240056851632294926e-02,-1.498485343092698097e-01,1.811447143554687500e+00
-8.578768281000755946e-01,-8.536169738996985945e-01,1.044406258005338373e+00,5.420959916236645082e-04,-5.000717363698860968e-03,-9.419337662355404530e-04,1.900177359580993652e+00
-8.634695347037933955e-01,-8.578104447361359908e-01,1.047709265421998603e+00,-1.746875987988375303e-03,-5.857073896316634595e-03,-5.103924794645438995e-03,1.908405423164367676e+00
-8.577583230177114881e-01,-8.672065523731924408e-01,1.033614020358443408e+00,-6.246424057319379698e-03,-1.217115804037837562e-03,2.419379009672660390e-03,1.896150827407836914e+00
-8.671722689284874219e-01,-8.503276390525041917e-01,9.752907659603391455e-01,-4.238304225363643575e-03,-8.301092760226218281e-03,-1.239287962566641525e-02,1.834295392036437988e+00
-8.123839001399475457e-01,-8.630623168865106942e-01,9.839375085340742455e-01,9.177413254409664059e-03,-1.463293462442774020e-03,-9.524600303858279937e-03,1.822335004806518555e+00
-8.648931679722349219e-01,-8.393723636060632654e-01,9.386422742393096819e-01,-9.379624892314829265e-03,3.978723999764841729e-02,2.542622912016320735e-02,1.792851448059082031e+00
-6.948205524583225268e-01,-8.036960102915239323e-01,9.977801650409345857e-01,-2.831292704676732080e-02,1.177960360809719026e-02,-1.489488279901747536e-02,1.750577211380004883e+00
-8.659449088407651374e-01,-8.622029815186530444e-01,1.040085495266017235e+00,2.909760726726134082e-03,2.921279792675723387e-03,6.845410312406811915e-03,1.904212474822998047e+00
-8.596152381305532941e-01,-8.530180666062041617e-01,9.884245104222724176e-01,-5.692507677489691380e-03,1.711726768509679378e-02,1.275543817139123542e-02,1.845146894454956055e+00
-8.725416726965956604e-01,-8.580595455519711701e-01,1.026054167627659774e+00,-1.214308518947672475e-03,-3.677358490633322093e-03,1.277160781427559870e-03,1.891409516334533691e+00
-8.473140458488334081e-01,-8.707448327266178456e-01,1.048607736852680494e+00,1.428564633261809533e-03,1.159091628874422270e-02,1.824605018386601842e-04,1.907852411270141602e+00
-8.602708025573174710e-01,-8.586112492672375307e-01,9.845101928754969034e-01,-1.384695633915617070e-02,2.539776404591103168e-02,1.796209604479994532e-02,1.844894647598266602e+00
-8.637400642542781837e-01,-8.554530718326550653e-01,1.008307561465480173e+00,-3.404486482263532031e-03,1.326649824685427644e-02,1.423891408772072010e-03,1.868070125579833984e+00
-8.692203992878517749e-01,-8.595646953847753124e-01,1.046392468454097280e+00,-2.819661619464911440e-03,1.090365957747372466e-02,-7.583354209268008787e-03,1.910948038101196289e+00
-8.699976213351980903e-01,-8.586654192558795806e-01,1.040718202004482951e+00,-2.185122622247418368e-03,-2.248095766100080811e-03,2.572515192980508788e-03,1.905087947845458984e+00
-7.831693257810263820e-01,-7.846349805949606182e-01,6.548636725373340184e-01,-3.213472859179046254e-03,-8.680104969535154535e-03,6.352713513457508565e-02,1.443056702613830566e+00
-6.589562567470998999e-01,-9.311671193378727729e-01,9.006729900671890388e-01,1.461795908462845163e-02,8.130930045804980744e-02,-3.117366732157949433e-02,1.718860149383544922e+00
-5.417927555480003265e-01,-1.010711069438708698e+00,6.609805236292439767e-01,1.232152103997933984e-01,-1.181456587496087646e-01,-5.542147406163727003e-02,1.525511741638183594e+00
-8.291878977191727840e-01,-8.278216030201893672e-01,8.524685738743356112e-01,1.297737602546822876e-02,-5.067226025072857354e-02,-8.292585010880483901e-03,1.683474779129028320e+00
-7.791035705640769748e-01,-8.010203704520609813e-01,6.987253462847470287e-01,7.853958072865189002e-03,6.479031721582233531e-04,-6.294183838972111471e-03,1.489010810852050781e+00
-8.255215848392822853e-01,-8.205337729934686353e-01,8.150758306931416008e-01,7.173012743426654750e-03,-3.922893701307278436e-02,2.196515145062508112e-02,1.640006184577941895e+00
-8.452037689446981750e-01,-8.471237070437159788e-01,9.315653794447307234e-01,1.214257002031224678e-02,-3.225188644213776434e-02,-8.211072122591192221e-03,1.778788566589355469e+00
-7.861049445578662809e-01,-7.663806851175121171e-01,6.297073568209459182e-01,3.908235062473260643e-04,-7.256042426290279512e-02,1.021737274374511645e-02,1.411770701408386230e+00
-8.291847671270755615e-01,-8.459570973091148360e-01,8.757132812001691136e-01,-2.095354292521322929e-03,1.236688041764233241e-03,-9.973322902843908752e-03,1.713438034057617188e+00
-8.516643243532681096e-01,-8.335041996398533382e-01,8.915405596836192270e-01,1.464480470751799816e-02,-3.101687559386975129e-02,3.205228725552756314e-02,1.736101388931274414e+00
-8.421562151963840614e-01,-8.512256140411318395e-01,9.445434018632394846e-01,8.598283819623473226e-03,5.349734392276021648e-03,2.289040248627400784e-02,1.791776061058044434e+00
-8.688543303316564881e-01,-8.099017877544307797e-01,9.184655646490038627e-01,-4.629848558570815245e-03,-8.247824058445816717e-03,4.912247256740038398e-02,1.760718107223510742e+00
-1.439611520986540771e+00,-2.759244515330172565e-01,1.126898947916086247e+00,1.591344812802876763e-01,4.801816879803416649e-02,-6.303741518328329074e-02,2.247073173522949219e+00
-7.796308037976699135e-01,-7.603700408084177464e-01,1.008571432018998237e+00,2.514189980699118102e-02,2.987328696472215869e-03,7.921209130631910039e-03,1.779243469238281250e+00
-8.437614970934206315e-01,-8.293086950579748873e-01,1.054923937997137573e+00,4.754848214158893631e-03,1.189301485088540764e-02,1.317315629580632572e-02,1.891768097877502441e+00
-3.949248921128302170e-01,-1.066767037794501105e+00,6.705043994720861766e-01,-1.616941065836732805e-01,-3.678556512250372862e-02,7.937142978607186761e-02,1.550388932228088379e+00
-8.388209154940643453e-01,-8.832610792097344010e-01,1.051366626080484590e+00,1.692016895768097030e-03,3.099411336618870111e-02,-1.404107605531070176e-02,1.913704752922058105e+00
-6.377399176501703515e-01,-8.493924950088477255e-01,9.984621095516974520e-01,-1.567720861387545683e-01,-1.441747083543877019e-02,-3.192489160318361108e-02,1.773604750633239746e+00
-5.429259769070945429e-01,-9.736870232240902867e-01,5.805029685393878758e-01,-3.419641383582604915e-02,3.099292608391475690e-01,-1.699269890331468399e-02,1.491348385810852051e+00
-8.536355431169726504e-01,-8.585624529154535223e-01,1.021221807671262916e+00,-5.109814231431272866e-04,-7.866000175054784632e-03,-4.093938174315686976e-03,1.877388715744018555e+00
-7.813242108924729479e-01,-7.985691709961898477e-01,7.009128767492273093e-01,-1.714851468183585526e-03,-2.498295934030268783e-02,1.364986779087773439e-02,1.491752505302429199e+00
-8.516808533596430530e-01,-8.633483956004408544e-01,1.058252664631427642e+00,7.364107360408397732e-04,-8.765590287880549447e-03,-5.351707447076497169e-03,1.915876984596252441e+00
-7.328402003681702137e-01,-8.195468699655544809e-01,1.021200783194261552e+00,-2.252667824850216466e-02,-8.755805794967652655e-03,-1.346397292502799978e-02,1.799600243568420410e+00
-8.014547926063337879e-01,-8.688606387745178017e-01,1.047650259062488765e+00,1.038637865020644591e-02,1.131927895719719857e-02,9.603779162385712304e-03,1.883974075317382812e+00
-8.719447988197818189e-01,-8.595576498471046989e-01,1.028781402574735271e+00,-1.150648589539151646e-02,-7.607213533827134229e-03,1.328399550208861878e-02,1.894853353500366211e+00
-7.868150222969101382e-01,-8.696849855462764900e-01,1.050674715740681053e+00,1.043983961490882635e-02,-1.332005702053399611e-02,1.173676385043599842e-02,1.880633234977722168e+00
-8.491377157459522040e-01,-8.788737160771177281e-01,1.048453029565768801e+00,-5.401629744466085372e-04,-1.145704889766081119e-03,-1.231832391423648247e-02,1.912752389907836914e+00
-6.639583727247877487e-01,-9.261247394426849189e-01,1.024845228776935402e+00,7.594200020331450668e-03,4.743398918431592642e-02,1.872423731510748646e-02,1.836167454719543457e+00
-7.561959132540546635e-01,-9.100119737798058051e-01,1.054002766355523812e+00,8.461984561817591233e-03,-4.513123359646278171e-02,-1.885733119197121818e-02,1.893755078315734863e+00
-8.431013019929513019e-01,-8.761522489915469780e-01,1.040766069522453208e+00,3.921273589138451858e-03,-2.257688601313206228e-02,-8.140802095045049022e-03,1.901075005531311035e+00
-8.691769500269928006e-01,-8.571439574204978706e-01,1.025838528319851894e+00,-3.386964623766104861e-03,-1.292992281543917446e-02,1.197111311988861013e-03,1.889170765876770020e+00
-8.231894086806073041e-01,-8.355772655668619597e-01,8.679045510680183373e-01,1.485582242500852190e-01,1.045483006424427139e-02,-1.779341974898636936e-01,1.744253277778625488e+00
-8.214153587967264469e-01,-8.086111191534866016e-01,7.827505197687532057e-01,5.617786839244243158e-03,-4.415673245893294435e-02,-3.797791242532452035e-03,1.599674820899963379e+00
-6.258924510175936096e-01,-9.558381624193404980e-01,9.474367208546228269e-01,4.826011149199988665e-02,6.649703750505475339e-03,3.906395678650573244e-02,1.764947533607482910e+00
-8.616402147771831110e-01,-8.942949922996578094e-01,9.623471455346910286e-01,-1.687970412268940956e-01,-2.829774777021832818e-02,1.620628338126639534e-01,1.885266780853271484e+00
-1.798839553455451601e-01,-1.091600498353601401e+00,9.729170627300640639e-01,1.200453875458638714e-01,-5.554705976659664313e-02,4.931181789202852134e-02,1.808587551116943359e+00
-7.814267017121888648e-01,-8.769486209064658588e-01,1.053485679774857742e+00,-2.789065613605665270e-03,-1.495956112991022116e-02,-1.101240826841981373e-02,1.884770750999450684e+00
-8.580672808545436459e-01,-8.053997152364061884e-01,1.035297574536089726e+00,-7.544745030453535797e-03,-1.820436616018946546e-02,1.533256418850782385e-02,1.868088722229003906e+00
-8.875757699660875577e-01,-8.509527669622131141e-01,1.155069262520747930e+00,-2.209991599556464792e-01,2.547740903016393332e-02,-1.401958972358951366e-02,2.061065435409545898e+00
-7.381513178102930839e-01,-7.746997439699128130e-01,1.021391697308842383e+00,-1.646946296499988138e-01,-6.963345650665407095e-03,2.465940097179972895e-02,1.801382422447204590e+00
-8.402061181438799098e-01,-8.160086977270020192e-01,1.021159695337818585e+00,-3.036274748614103958e-02,-6.063513122357535104e-03,7.252264607974338861e-03,1.850205898284912109e+00
-9.426136448369170084e-01,-8.234626837469631866e-01,1.112459776319303595e+00,-1.553320338684865687e-01,-5.405312309283096667e-02,5.096645893174456959e-02,2.020297527313232422e+00
-6.817220645431645298e-01,-9.130940905201425650e-01,1.364253546715556986e+00,5.591652745862013552e-01,9.917920943221061880e-02,1.502192745654642482e-02,2.383508920669555664e+00
-7.438729058604994782e-01,-8.187438399556299373e-01,1.024912792064489597e+00,1.846329816556480444e-02,1.151497885958096407e-02,-8.420587153428643265e-03,1.807836413383483887e+00
-6.799597779058695890e-01,-8.439479239445112357e-01,1.020656346954003979e+00,2.262263407166052384e-02,-2.624330541955209942e-02,-2.601726158689218055e-02,1.789832472801208496e+00
-6.219174565612139993e-01,-7.979326002247827399e-01,1.030998869369342152e+00,1.758813710055082136e-01,-2.516286639869364308e-02,-2.279057745365753451e-02,1.774911999702453613e+00
-5.145188153260240593e-01,-9.439306306469870123e-01,1.042693601467584941e+00,5.147829148109804576e-02,1.669217829761192318e-02,1.286850071092908096e-02,1.813083887100219727e+00
-5.397241392026350670e-01,-9.465868065373300722e-01,9.871539239289586209e-01,-5.748760026180117083e-02,-3.810187892814113214e-02,-3.368531494815219310e-03,1.769866466522216797e+00
-8.799506068264254521e-01,-7.321533569575799927e-01,1.035599352643129523e+00,2.491092154971244824e-02,2.149081373949041085e-02,-3.313051778589558988e-02,1.847864389419555664e+00
-8.671851951199587294e-01,-6.408028054206599267e-01,1.031150730211191302e+00,4.355191260589237612e-02,-2.095881928056349958e-02,-3.268105397501327308e-02,1.798719167709350586e+00
-8.213197186840740516e-01,-8.018636700952340712e-01,1.039937699211312294e+00,-1.813988080160152880e-02,2.457695383360320590e-02,-2.530399740161486805e-02,1.852880239486694336e+00
-8.508552618932172518e-01,-6.010969313914760193e-01,1.009129846835966404e+00,1.143352793739193934e-01,6.318189385895144929e-03,1.762950682903871580e-02,1.760013341903686523e+00
-8.163532627491181248e-01,-9.153710329664215273e-01,6.258194590755039588e-01,-6.413364268821630278e-03,-4.537336858907198983e-02,6.463637099172302170e-02,1.500433444976806641e+00
-1.286382641173352548e+00,-4.420242513113679661e-01,7.517420742783818000e-01,3.790574583055885127e-01,1.149397774165236696e-01,4.742851845525389992e-02,1.903528690338134766e+00
-8.504718184934733083e-01,-8.525420885204627597e-01,9.721138235924260407e-01,-6.078641888060060464e-03,2.314698516054182476e-02,3.320514627363491122e-02,1.824999094009399414e+00
-9.222247343513237938e-01,-6.783423367135658077e-01,1.091446822873828104e+00,5.359701346648104714e-01,2.092770723571468483e-01,1.032918261294737683e-01,2.156024694442749023e+00
-8.399507261729265428e-01,-8.570313890176571858e-01,1.012558238917336428e+00,-3.360471143037147956e-03,-1.014887955922524551e-02,-4.842868278290477640e-03,1.861219048500061035e+00
-8.559233672894642764e-01,-8.694581717364905371e-01,1.015829845701404111e+00,-8.348837772247324693e-03,3.663068981063425603e-03,-8.891053877516071416e-03,1.878686666488647461e+00
-8.119585239483019246e-01,-8.093437063106738716e-01,7.445427391469880973e-01,1.719103246605857950e-03,6.952813287086438698e-02,6.421247370201239174e-03,1.559893608093261719e+00
-6.028877339837546145e-01,-1.201010458411072790e+00,3.353952446476217153e-01,1.077991964178991735e-01,5.979763407685440013e-03,-6.614751693105325181e-02,1.359201908111572266e+00
-8.589513657186452766e-01,-8.746193930476323652e-01,1.021183668298484060e+00,4.815234464780919965e-04,-5.409710897663753959e-03,1.920285652634379225e-02,1.888334155082702637e+00
-8.470428607885027716e-01,-8.462559026974287857e-01,1.032696598766928986e+00,-1.770982915641535274e-02,-2.888370903807722934e-02,-9.101891231697837106e-03,1.880328178405761719e+00
-8.081577702316160572e-01,-7.988012769928345413e-01,1.033429681279370183e+00,-2.116826994544433391e-02,2.598065277105758575e-03,-5.309753443047925126e-03,1.837321519851684570e+00
-8.633488256253871729e-01,-8.475313840542014754e-01,1.054745997570873728e+00,1.503109407467605532e-03,3.966962517984551177e-03,8.547271860411138553e-03,1.910306692123413086e+00
-7.367722531034656130e-01,-8.859763859218069415e-01,1.055005919687619809e+00,-1.096627401230236207e-02,2.446576961004281320e-02,-2.745594616322896697e-02,1.872028231620788574e+00
-7.492718871608829989e-01,-8.603588422577166384e-01,1.050713850578416153e+00,-1.245264145069776771e-02,2.519650244280048634e-02,-2.527588058567627888e-02,1.859174609184265137e+00
-1.067327304380349950e+00,-2.728669418531587398e-01,1.082130796607806644e+00,-1.879922297068898351e-01,-4.269518838004526806e-02,-1.544372161728140881e-02,1.912037014961242676e+00
-8.054660458355327179e-01,-7.902007927175639379e-01,1.029389773493000426e+00,-7.630048797517694631e-03,3.276591008359964335e-03,-7.513873371186352394e-03,1.827373981475830078e+00
-8.252812193326503065e-01,-7.289066332684039917e-01,1.022352138383020304e+00,-2.153998305897645085e-02,-1.774620063316263707e-02,-8.256844785776954951e-03,1.802085876464843750e+00
-8.567592566173820590e-01,-7.448424798652573120e-01,1.046244041338635133e+00,-1.161922424061150039e-02,-2.288474847105214510e-02,2.547570550024882627e-02,1.850646376609802246e+00
-6.429717752585610846e-01,-8.431323254354717855e-01,1.010614632727695250e+00,2.427625997450195625e-02,-9.105033052445065875e-03,-7.605230970132841398e-03,1.762834429740905762e+00
-6.903488496368738181e-01,-8.621588585561766882e-01,1.066364801783821203e+00,1.358321778895938137e-01,-5.833052989959449514e-02,-3.723742602308531546e-02,1.867378115653991699e+00
-7.447865200461644131e-01,-7.970353305155868373e-01,1.014785785770830007e+00,9.872704859503787095e-03,-1.292269881692119544e-02,-8.359787978859816587e-03,1.786550641059875488e+00
-4.469727780670373352e-01,-1.151488228231206890e+00,1.281404717213522781e+00,1.139699441820628129e-01,2.773607142330439517e-03,1.156573120359119143e-04,2.177220821380615234e+00
-6.647635733988161988e-01,-7.789468673466889426e-01,9.877193477097983010e-01,1.163080019779723917e-01,1.771713969096177371e-02,1.742500068316366058e-02,1.724777936935424805e+00
-6.091487372645189025e-01,-6.781355193638435308e-01,9.759122514754881017e-01,4.410876999460336956e-01,-1.451281405647428073e-02,6.072248889736055893e-02,1.794963598251342773e+00
-8.560110150688134967e-01,-8.646585950997314196e-01,1.061303685901466842e+00,-1.791974980801407319e-03,-3.923664311154105404e-03,-5.489581088094554542e-03,1.921691179275512695e+00
-8.486372733841087701e-01,-8.525131448981293492e-01,1.049662190514734084e+00,3.512406196059529757e-04,3.539139922173968871e-03,8.965001930167975849e-03,1.900313735008239746e+00
-8.671669992895897350e-01,-8.593215447377628990e-01,1.045566102786207319e+00,-4.018507270285169401e-03,3.988475012777861241e-03,2.118083120626923532e-04,1.908847689628601074e+00
-8.656076753431884985e-01,-8.642483081546011858e-01,1.063459997494924592e+00,-4.682762251023302007e-03,3.333041208037797621e-03,-1.107966216405558346e-03,1.928415060043334961e+00
-7.859319291779138794e-01,-8.747041862913557120e-01,1.035152373480075827e+00,1.747293246896819072e-02,-1.798560538651049895e-02,-1.431461923122200573e-02,1.867723584175109863e+00
-8.611766516389788295e-01,-8.398286265477042933e-01,1.014266957110844691e+00,3.327604274285155418e-03,-4.337469786274137859e-03,1.080347793996534755e-04,1.864885330200195312e+00
-8.707712292020040046e-01,-7.910605813773502470e-01,1.028977396318355941e+00,2.580167934666366750e-02,-3.615525812815498924e-02,-3.004404113193233361e-02,1.863490104675292969e+00
-9.215699705515204565e-01,-8.140514300384219526e-01,1.076298438981069028e+00,5.348393376007473665e-02,-6.687634158550709307e-02,-2.996791053381733447e-02,1.952670931816101074e+00
-8.520778060032907497e-01,-8.695835929971023059e-01,9.975237037480682023e-01,-6.333003996564244564e-03,-7.254282234133903155e-03,1.171414010522540093e-02,1.858601808547973633e+00
-8.651952478381281786e-01,-8.609100271063732102e-01,1.054449172955412850e+00,4.323981561961199975e-03,-7.186365380895376985e-03,7.150715573096445496e-03,1.917600393295288086e+00
-8.533796753860701800e-01,-8.633386682825249236e-01,1.003814659086746941e+00,-6.515473418298190281e-03,7.844516021896787497e-03,1.295602733088566973e-02,1.862412810325622559e+00
-7.265159315197009526e-01,-8.717789716737179839e-01,1.036295159549775580e+00,-1.895673721250718674e-02,3.093870543778180424e-02,-1.785453260135134654e-02,1.841081619262695312e+00
-8.065120042413249646e-01,-7.379637391409168412e-01,1.013963248802491224e+00,-6.518424838557798640e-02,-1.709276041686001724e-02,7.905760707263958728e-03,1.791047096252441406e+00
-7.808437645035269936e-01,-7.657805538249161659e-01,1.013138621444167775e+00,-2.347172038867186353e-02,1.171362577339081674e-02,2.147530696221276736e-03,1.787079930305480957e+00
-7.881863078565706227e-01,-7.971088864701895149e-01,1.028228648951149626e+00,-1.126162902250969593e-02,1.002066744149757681e-02,-6.221804864827845671e-03,1.821111679077148438e+00
-8.480857121635334561e-01,-8.569138526824132684e-01,1.069778940239110687e+00,-3.366605490682935634e-03,-1.801648500789456873e-03,3.120562510332342259e-03,1.922312855720520020e+00
-7.868164312435859120e-01,-7.951332390989225285e-01,1.030059135215102284e+00,-2.200039821715735547e-02,1.963309287862995481e-02,-1.219082586714396663e-02,1.821886658668518066e+00
-8.137140073338395840e-01,-8.340768914991679717e-01,1.049283044137863330e+00,-8.060918179715874377e-03,-2.266344676521776531e-03,4.551771916429255861e-03,1.873334288597106934e+00
-8.352851718878526732e-01,-8.315658234695763040e-01,1.054646921613048516e+00,-3.569870195502170603e-03,6.791362801580126500e-03,-8.880203692324539419e-03,1.888184547424316406e+00
-7.876121240946551971e-01,-7.951997670938651952e-01,1.030361375647449229e+00,-1.174411329706865660e-02,1.977145393435476156e-02,-1.520294205559936419e-02,1.822404742240905762e+00
-8.175699354863594781e-01,-8.341697559112077887e-01,1.050144426280453347e+00,-4.158876195637596120e-03,1.512518343899765458e-02,-1.211437186595807833e-02,1.876383423805236816e+00
-8.534710931279870794e-01,-8.588826538661592513e-01,1.061054241042925783e+00,-1.612146784308866019e-04,7.467672976070461287e-03,-6.113362321088360333e-04,1.917280793190002441e+00
-8.126708021843707108e-01,-7.976851644691440590e-01,1.036691569852969952e+00,-1.396559968519972030e-02,4.577673948934383313e-03,-6.161699284822469945e-03,1.842122077941894531e+00
-7.636587418366583835e-01,-8.202888544491654388e-01,1.033546253709176854e+00,-2.163916083503912222e-02,3.079111157341405183e-02,-2.086866150269372014e-02,1.827699184417724609e+00
-5.920881627316192386e-01,-8.657112893962511935e-01,1.008129957489089623e+00,-5.732267999320313917e-02,-2.784756036717124343e-03,-1.325087439621705325e-03,1.755935788154602051e+00
-1.439245175220953410e-01,-1.234138807879099131e+00,1.298015031717205225e+00,5.797807264860939044e-03,-1.984127343187055970e-01,7.555275195402470778e-02,2.230494976043701172e+00
-6.117037660097177643e-01,-8.423214394854803277e-01,9.904134022752957289e-01,-4.333829035948868480e-01,-4.505369368138682773e-02,7.135585911242536827e-02,1.890573263168334961e+00
-1.713275542621913450e-01,-1.271909511945995774e+00,1.328756825925289320e+00,-3.190318862497644181e-01,-9.820650810870264202e-02,-1.844163812723624216e-02,2.334051609039306641e+00
-6.713228133622235472e-01,-9.450933852906843180e-01,1.068387615639683430e+00,-2.875695646227422603e-02,-2.916681776248973915e-02,-1.887082629293646008e-02,1.893125891685485840e+00
-7.289322579884794928e-01,-5.754708418869004527e-01,1.171390534618991230e+00,-4.417958609624133004e-01,-6.865058574663196467e-02,1.502012872990508563e-01,2.002628564834594727e+00
-5.839299965925283109e-01,-9.229301670569087790e-01,1.123071711563013997e+00,-1.325068257166407693e-01,2.267373370250834463e-02,1.839549706642351840e-03,1.913550734519958496e+00
-8.291634842136654804e-01,-7.678306206770016962e-01,1.044965006999281742e+00,-4.871704861161707534e-02,-3.015578024460648099e-02,2.454915070025527266e-02,1.847384572029113770e+00
-6.900317527941227658e-01,-7.771921198721225554e-01,1.051673408687757716e+00,-1.226919072682547268e-01,1.826636207169447107e-02,-1.586911638258675303e-02,1.799960494041442871e+00
-7.811385632140166457e-01,-8.196256440661222609e-01,1.052296858103134003e+00,-3.622333957331766441e-02,-2.406970875848606778e-02,2.590597354680081177e-02,1.855051994323730469e+00
-8.422410152822059626e-01,-7.669714838419885439e-01,1.267399775373194482e+00,-2.903443754490641626e-01,1.183541323127960607e-02,-5.889228451573593620e-02,2.135692596435546875e+00
-8.633119997346576646e-01,-8.629554383444026922e-01,1.064561477050304683e+00,5.684266197333085087e-03,5.243619816541791358e-03,-8.440128963118933431e-03,1.927797198295593262e+00
-7.824197295432873123e-01,-8.899657245858005883e-01,1.242200440605741640e+00,-2.768098121653937982e-01,-1.968952852652199048e-02,-1.801955587451590244e-03,2.135283708572387695e+00
-5.763853801456928494e-01,-8.596248553524179492e-01,6.361095175170252691e-01,-3.256581832470480942e-01,-1.388407037453103787e-01,-7.061426077520803479e-02,1.511536955833435059e+00
-8.087933739410508860e-01,-8.250202984822906371e-01,7.731219010082035492e-01,9.144025804409159144e-03,5.818899014027131833e-02,-4.562292203028782411e-02,1.595318794250488281e+00
-7.460543004128127320e-01,-8.811919717722396239e-01,7.252606286321972018e-01,-4.454113849393465108e-01,1.289308312307955659e-02,-7.308848551003885308e-02,1.730190277099609375e+00
-5.616070365923688801e-01,-1.011648308135076224e+00,7.268836006191468080e-01,1.640080439447038352e-01,1.676333918930944522e-01,2.319889995231718405e-01,1.664053678512573242e+00
-8.605174784024617329e-01,-8.602773430512192787e-01,1.067642659647812797e+00,-1.356152701958226472e-04,1.222074945745503039e-03,5.850179631637130243e-03,1.928067922592163086e+00
-7.740082704128470326e-01,-8.892224316932928474e-01,1.019375951687974347e+00,-9.358413635924792140e-02,1.679091851921354073e-01,-4.705993768597826338e-02,1.885105490684509277e+00
-8.291730316938744627e-01,-8.417196207730991420e-01,9.409772378211709309e-01,-6.533303853497620522e-03,1.779983941017465945e-02,-5.545483833143622157e-04,1.776760578155517578e+00
-8.535277511716399257e-01,-8.485009526413856973e-01,9.322495773787924378e-01,1.996477807644694499e-02,2.961313261575663613e-03,2.054861344277059479e-02,1.783966898918151855e+00
-1.283843826084511530e+00,-4.840385205800699087e-01,7.203104871458909653e-01,-4.241202701336542757e-01,1.523178118320539509e-01,-5.390876251565507316e-02,1.916075229644775391e+00
-8.258097909712759366e-01,-8.420205701115275332e-01,8.664888391906506726e-01,1.978861500180092384e-03,1.915229457092165397e-02,3.402370641942155383e-02,1.701809644699096680e+00
-8.966464520085638545e-01,-6.950132244961828576e-01,1.025110835033619106e+00,-8.663990193741439444e-03,-1.671949041004958461e-02,-9.184313694142605747e-03,1.829653978347778320e+00
-8.071751063904224477e-01,-8.402978758293522255e-01,7.981652426435246195e-01,-1.380853788591375822e-02,-4.562570232639304169e-02,-6.951021912735538821e-02,1.628711223602294922e+00
-8.005246043806447664e-01,-8.272592577732736929e-01,7.759417415295020160e-01,9.794625466201283687e-03,-8.285587993641029339e-03,-7.357505964378960317e-02,1.595255732536315918e+00
-8.941084228407851775e-01,-7.986921764770638088e-01,1.091916002533795504e+00,-2.369309516361823784e-02,-1.502129780791770786e-02,-3.665352794727229965e-03,1.940695643424987793e+00
-7.752545586516939036e-01,-8.582175222705148432e-01,1.031031547360933054e+00,-3.906587245059355701e-02,3.630746329054355265e-02,-3.096497302276749256e-02,1.852246403694152832e+00
-9.312591361038331517e-01,-9.159749405633240693e-01,9.006835264836694499e-01,1.000229412425738540e-01,-1.708486847517886320e-01,-1.237113246331939115e-01,1.868620514869689941e+00
-8.413776924272537983e-01,-8.358461347661884089e-01,8.860921447906708881e-01,-1.439413055490070502e-02,8.817919188761194627e-02,-1.077119959303441017e-02,1.731739997863769531e+00
-7.564811524018560940e-01,-7.700630294161053824e-01,1.010574661157215948e+00,4.759929458102978711e-02,-6.960061323893131091e-03,-1.767009935330783946e-02,1.776105165481567383e+00
-8.319202748966983973e-01,-8.449719432443845157e-01,8.738818772662615419e-01,1.262487697684715193e-02,-1.266297610786084119e-02,-1.219132833391166348e-02,1.712775468826293945e+00
-8.729595966387301287e-01,-8.426586791551642364e-01,1.047757645317214159e+00,-2.505167581715722017e-03,-1.009706988515272040e-02,1.704087232239423835e-02,1.906061172485351562e+00
-8.431614282605185418e-01,-8.324545022438161190e-01,1.041534212629776190e+00,1.632435168379206547e-02,1.018819606879643909e-02,1.942253458493319734e-02,1.879961609840393066e+00
-8.760653776910181101e-01,-5.456584922599998499e-01,2.873298979452602042e-01,1.408377312706224072e-01,3.913258392959757803e-02,1.817761748866745242e-01,1.114222168922424316e+00
-7.878513592465627990e-01,-8.213270857887207121e-01,7.397620528601080991e-01,-5.299359473954411322e-03,-1.714870306842437538e-04,7.739564910814616949e-02,1.550456643104553223e+00
-8.517752291036327916e-01,-8.892855055054230684e-01,9.302339433582951234e-01,-9.136864361320782071e-03,7.049473230960565107e-02,-1.999091040208846037e-02,1.805592775344848633e+00
-8.194915085376212049e-01,-6.594505833513790716e-01,3.762797819445683478e-01,-1.649824707797216405e-01,1.997534137950502386e-01,-6.090029957108969438e-02,1.215153574943542480e+00
-8.344090218091162470e-01,-8.242231765047859371e-01,8.585592848087402196e-01,1.160684562086856247e-02,4.804733543519525141e-02,1.139503245129429992e-02,1.690183520317077637e+00
-8.471018963459198137e-01,-8.678258416565115541e-01,1.047475942665053728e+00,5.627293644019060962e-04,1.655854269807228649e-02,-9.738380412700203478e-03,1.905315160751342773e+00
-8.459554671224880362e-01,-8.962378108028814516e-01,1.066130225399495535e+00,2.857704486309691708e-03,1.859523856753860643e-02,-6.084024078739583806e-03,1.938018798828125000e+00
-8.728261610178800201e-01,-8.575960853278439266e-01,1.023616129850098311e+00,2.180397869835679330e-03,-3.808274246407642068e-03,-2.503866453133870695e-03,1.888893604278564453e+00
-8.741566147330701586e-01,-8.582431252041006209e-01,1.019815079961855053e+00,2.116809344658388892e-04,-4.567979468300256002e-03,-9.872501843982085714e-04,1.886082649230957031e+00
-8.678671042764801724e-01,-8.558718647728730256e-01,1.025593411558499257e+00,-7.137557741366434057e-04,6.188471897867192997e-03,2.217015526834518579e-04,1.887522339820861816e+00
-8.476921638878519571e-01,-8.188318197553241529e-01,8.791624898296195312e-01,4.698103080999072381e-03,4.775037634460383568e-02,2.726714663454643962e-03,1.714628577232360840e+00
-8.661623456404894394e-01,-8.492181829608153043e-01,9.976991386345315238e-01,1.636357712501453412e-03,2.050942712126250025e-02,2.573845399396997632e-03,1.855795025825500488e+00
-8.510946704257218443e-01,-8.526628949664960544e-01,9.806503602009435383e-01,-6.349267780773384766e-03,7.348122914632750080e-03,1.329780703179462382e-03,1.832608342170715332e+00
-8.265396922564900439e-01,-8.193896188235344491e-01,8.080609552350550562e-01,1.283678734923632964e-02,5.810157186267491530e-02,-3.192390859742093301e-02,1.635225415229797363e+00
-8.455640430311699429e-01,-8.511014512423118461e-01,1.068335053726223283e+00,1.539201360711182518e-03,-1.247964377890321526e-03,6.815278350058801525e-03,1.916713237762451172e+00
-8.673639297878575904e-01,-8.618567634947177369e-01,1.068419844020540799e+00,2.691948326055650358e-03,8.728599364284968590e-03,1.004092066799445668e-02,1.933179020881652832e+00
-8.425903663359015638e-01,-8.547132469533935684e-01,1.021374310449653100e+00,-3.948219629683758902e-04,-3.914392776861923794e-03,-1.343402663349721124e-02,1.870212793350219727e+00
-8.676106944055692605e-01,-6.590492643426646424e-01,9.973206523783542110e-01,-6.475793899925229302e-02,2.141936448703696608e-02,-4.619050627808301418e-03,1.773847579956054688e+00
-8.573611328010809496e-01,-8.554411228453078220e-01,1.069166914229740639e+00,-2.150277032876220327e-03,2.611913213747108983e-03,1.750669737569208019e-03,1.925580024719238281e+00
-8.600201705932952745e-01,-8.651700428405245669e-01,1.039675138930553411e+00,5.341360301140374647e-03,7.459977631843207543e-03,7.370480681099808931e-04,1.902342319488525391e+00
-8.671254066420350792e-01,-6.534095056058324413e-01,1.015616770961176307e+00,-8.355790684213441899e-02,5.860804277343411965e-03,-5.790110045683126774e-03,1.791415691375732422e+00
-8.605591146042135264e-01,-8.584174664351795769e-01,1.067762574000321596e+00,1.493219053676553873e-04,6.498499931690002521e-03,-1.004002704036842213e-02,1.927363038063049316e+00
-8.608182138603270861e-01,-8.723346061641465976e-01,1.024002098337586819e+00,3.740342018285002868e-04,3.209258741468826431e-03,-1.266495843445045177e-02,1.890740394592285156e+00
-8.758956813763021376e-01,-8.288031690098404125e-01,1.043883736226106418e+00,-7.607795554213874108e-03,3.495285882835436151e-03,2.109950707063026204e-02,1.897079110145568848e+00
-7.691752777462170787e-01,-9.521711783694691844e-01,8.195575836279509474e-01,3.469562906374318301e-01,1.800196176847628227e-01,-1.132244292556378387e-02,1.818524956703186035e+00
-9.696293942648942510e-01,-8.825393529431514450e-01,8.842701806723101132e-01,5.505385905056330714e-02,8.353093325411085901e-02,2.028115481683659127e-01,1.853778481483459473e+00
-7.719406907916944727e-01,-5.331498025917909001e-01,7.740359963340284200e-01,4.197099069773551072e-01,2.288132979854515525e-01,2.563248079413779079e-01,1.720622777938842773e+00
-8.588922237466662946e-01,-8.696675291223594506e-01,1.039258727648259883e+00,-2.312482461340761419e-03,1.310462543770170470e-02,3.216051481662357721e-03,1.903709173202514648e+00
-6.888465132618895037e-01,-7.674674882490823968e-01,5.685083943661385364e-01,1.917409898619063524e-01,2.342371060830841789e-01,1.374335891912074337e-01,1.420399904251098633e+00
-9.759421842378226408e-01,-8.930069164601441845e-01,8.110915450390507875e-01,4.085530608167327604e-01,2.284000351156263986e-01,8.630393884284230654e-02,1.931774139404296875e+00
-9.445638995146660166e-01,-5.404982762310777122e-01,1.061970495300875061e+00,1.046548591242953269e-01,-3.155455667846490675e-02,-6.734457284287492795e-02,1.851520657539367676e+00
-8.332285169350194254e-01,-7.824479888641504566e-01,1.032583858642781793e+00,4.285829114198670686e-02,8.610469207848195621e-04,1.007448454734745022e-02,1.842526674270629883e+00
-8.439698215350890376e-01,-7.531317365719358836e-01,1.044039411551111574e+00,8.556909892337977511e-03,-1.892319530699469385e-02,-3.104920623681679814e-02,1.845403313636779785e+00
-8.009426716902312560e-01,-7.393850744480058301e-01,1.013176977352875596e+00,7.506279269370377816e-03,-1.479101241540116927e-02,-1.089662620964756100e-02,1.784468650817871094e+00
-8.005430691972256207e-01,-8.102083733229777929e-01,1.036614752990561383e+00,1.097333973715961149e-02,1.629799228574153880e-03,-2.594585573976976138e-03,1.842115163803100586e+00
-7.521265006550347243e-01,-9.164850623642085692e-01,1.103898991334876900e+00,4.492675764438550101e-02,4.112167517821862378e-02,2.001688480468797465e-02,1.946593999862670898e+00
-7.819008566016236728e-01,-7.856175055312758504e-01,1.022518510507463674e+00,7.140662880225945308e-02,-8.839021017945267145e-05,-8.051002404569716081e-03,1.810563683509826660e+00
-6.277239543054042858e-01,-7.747825463117957723e-01,9.906619524353448281e-01,1.261595786195219837e-01,-1.456855692338866227e-02,-7.539488082311568591e-03,1.710950851440429688e+00
-7.415256089603324829e-01,-6.364272516083081532e-01,9.806879456953925267e-01,1.452804078663744447e-01,-1.311084604533833053e-03,-5.051779719149839670e-03,1.690995097160339355e+00
-7.717685277516213027e-01,-8.971381151239598006e-01,1.054704344073310818e+00,4.822403674018638925e-03,2.044245170105620651e-02,-2.832111450429389103e-03,1.892631053924560547e+00
-6.857552156009546485e-01,-7.994052361691303954e-01,9.962577573125157571e-01,3.727815527798233192e-02,7.373820977108765974e-03,-4.723053656057555998e-03,1.742883801460266113e+00
-6.143403161654237277e-01,-8.724141315553820553e-01,1.009206318209087128e+00,5.486861162033705719e-02,7.664761233376365078e-03,-3.267287644618472979e-03,1.769389867782592773e+00
-9.136938916867771709e-01,-6.346760798671063908e-01,1.166790328399712751e+00,1.476529496858902668e-01,-3.228746067007442350e-02,-6.103925033912495357e-02,1.976229310035705566e+00
-8.744573305737489699e-01,-5.423028059739444240e-01,1.054701734817475867e+00,1.760636889010139539e-01,-1.084794174191757235e-02,-1.382674051316527472e-02,1.812491178512573242e+00
-9.779971317009527043e-01,-5.709239369042393708e-01,1.050919897319945173e+00,3.260859981327101503e-02,-9.182525682567228842e-03,-4.847184150493273613e-02,1.861930847167968750e+00
-1.364120022367088181e+00,-2.884404775705850521e-01,1.368980951528967704e+00,-5.509522402036289880e-03,-8.312491272232333875e-03,1.639291660599881406e-01,2.401645898818969727e+00
-9.023725983558775754e-01,-4.826074663577778479e-01,1.582010098091264805e+00,3.065339770205622871e-01,-1.058868077336202890e-01,-1.237588326599345194e-03,2.370871782302856445e+00
-8.845645745661592230e-01,-7.044756607032126583e-01,1.044922016514327590e+00,-1.211755352628715761e-02,-1.545481356001772444e-02,-1.130231856662606768e-02,1.846459269523620605e+00
-9.822405185663228844e-01,-3.268677980639774772e-01,9.971243477395985710e-01,-3.637227961069094406e-01,1.317297194549717776e-01,-1.337552659664491550e-01,1.884884476661682129e+00
-9.547935149252727571e-01,-5.648222049164132175e-01,1.038958158596118286e+00,-3.230009300757295115e-02,2.777369073861362531e-02,-2.288814462403913549e-02,1.832111597061157227e+00
-8.513117838409607341e-01,-6.762278417925819962e-01,1.020341273401532023e+00,-1.963608149214062654e-02,-3.106315206015807309e-02,2.339820771979026284e-02,1.792132019996643066e+00
-7.849180723781685742e-01,-7.851643599811168883e-01,1.025092786635309228e+00,-1.851962630085013731e-02,-1.359204998369084767e-02,1.616355430369702598e-02,1.810787677764892578e+00
-9.446148291046205792e-01,-6.603009124288219400e-01,1.040735945189256162e+00,5.179939108206222526e-02,-1.153995128212805931e-03,-2.111458406930949785e-02,1.862090349197387695e+00
-9.650296098908227593e-01,-4.406593627447822903e-01,1.009381273861940764e+00,-1.712560967156348535e-02,1.147845323577013910e-02,-2.110654610064595371e-02,1.772160172462463379e+00
-1.179681600305510392e+00,-4.025372771395540616e-01,1.199812003320810172e+00,-3.182978421759045246e-02,3.158362992298674454e-02,-7.817495739032391533e-02,2.107391595840454102e+00
-9.618917979138594809e-01,-4.505990876632345321e-01,1.111969340646965509e+00,-1.922627213303798599e-01,-5.967981839763585733e-02,1.742556635382589911e-02,1.903801679611206055e+00
-7.058004265629795881e-01,-8.912147699026169434e-01,1.048210689405595586e+00,3.148144465914736595e-02,-1.776357323561646162e-02,1.328657023051934769e-02,1.854885935783386230e+00
-9.348335235712558200e-01,-6.025040894652340384e-01,1.042591019923787776e+00,6.345332370981478232e-02,-1.027218726825316827e-02,1.685695453399786714e-02,1.837591409683227539e+00
-1.119770719401638193e+00,-3.144491153350608137e-01,1.504579823103271430e+00,2.623503089208029104e-01,1.027091257947134254e-02,2.477909640432521821e-01,2.411081314086914062e+00
-9.978532800211887821e-01,-2.302408670167654936e-01,9.611259987926623616e-01,3.318939944551982935e-01,8.725616366707987515e-02,1.739969542797959456e-01,1.834998250007629395e+00
-9.836466116423332462e-01,-5.518711156916932259e-01,1.083342897448406505e+00,5.681796815518728311e-02,-2.914826873044395333e-02,2.314661526830400634e-02,1.892152547836303711e+00
-9.788062839662081682e-01,-6.330039022855311615e-01,1.085923882576814714e+00,6.255883443502627261e-02,-1.114718785481475655e-02,-8.161832793774433104e-02,1.923746228218078613e+00
-1.125250830911678435e+00,-3.000116929496887686e-01,1.027861049320085485e+00,4.823744856380008522e-02,-6.611835012726188787e-02,5.415422485692876486e-02,1.889172196388244629e+00
-9.758826545489284188e-01,-5.751921462591675915e-01,1.035687304605290127e+00,2.582838624382629081e-02,-1.062267086490856043e-02,2.082176709561360181e-02,1.845153093338012695e+00
-1.332431754130760870e+00,-4.795204863120697825e-01,1.719655644862259969e+00,4.053780403051794878e-01,1.287858725231126600e-01,1.154183376698632996e-01,2.832357883453369141e+00
-1.070677654607569140e+00,-5.523987493549060712e-01,1.057417340296591401e+00,5.144429736184399915e-02,-1.632334658721832504e-02,9.915842738390386046e-02,1.932017207145690918e+00
-9.852618070720009502e-01,-5.632945150136724477e-01,1.057122282165690486e+00,5.415014264720059006e-02,8.353527122786022149e-03,-2.289058522202374463e-02,1.870333671569824219e+00
-5.310098865646586397e-01,-1.220258121553218666e+00,1.543039281304524835e+00,3.986829067252924408e-01,1.457497510035777599e-01,6.072695748589890252e-02,2.599598884582519531e+00
-8.716830055669536614e-01,-8.605467048567202459e-01,1.045767978839498236e+00,1.408790922131626742e-03,3.908647091780124636e-03,-5.948707434589201558e-03,1.911948442459106445e+00
-8.657622409045193645e-01,-8.610244508410520581e-01,1.043808996857336302e+00,4.003279880251450935e-03,3.904373836830294774e-03,-5.942211686637045159e-03,1.907259106636047363e+00
-8.126739230950394965e-01,-8.612038957073355760e-01,1.044840795590568527e+00,-5.556972250806089739e-03,1.849693042145645477e-02,-1.278093156675307387e-02,1.882676362991333008e+00
-8.645710547862691664e-01,-8.662206163509460488e-01,1.066867662990937493e+00,2.897375731423118463e-03,2.966496323837639320e-03,-5.449429772987896339e-03,1.932300448417663574e+00
-8.692308859684927391e-01,-8.653565593631179498e-01,1.068232571292162092e+00,1.102995444469899965e-03,3.815756647979276581e-03,-5.633314497696555352e-03,1.935566067695617676e+00
-8.458956283014635869e-01,-8.703979032048728692e-01,1.061455942107069061e+00,-6.661867893295828937e-03,-4.892909009036114495e-04,-3.825363154251828785e-03,1.919766306877136230e+00
-8.366140589982514753e-01,-7.376476522826114213e-01,9.972317382164959110e-01,-9.417046836850523350e-02,2.124821556336846384e-02,-5.842649876808556075e-02,1.797079682350158691e+00
-6.876886941523696617e-01,-9.477103736781644638e-01,8.500983811387903266e-01,4.137651620190966294e-03,-9.044385352329654959e-02,4.713988498208923628e-02,1.692192792892456055e+00
-7.007734039120450120e-01,-9.586670680419840940e-01,1.039722784900525721e+00,3.178234190302690193e-02,3.021076032384183152e-02,4.298583792302942269e-02,1.885738849639892578e+00
-3.166094252986237367e-01,-1.069869732557966024e+00,1.589755962636952402e+00,1.878962259825514569e-01,-5.887178155775231979e-03,-4.355743991921013497e-02,2.397776126861572266e+00
-8.633356922260621014e-01,-8.641002990719788279e-01,1.071504804554816781e+00,-3.945756001726494731e-03,-4.435991141839051161e-03,-6.176390592704828278e-03,1.935279846191406250e+00
-7.091222594076340702e-01,-8.947903187462282748e-01,1.042576064035759531e+00,1.031353659857453531e-02,-1.962382600962988069e-02,-2.162059958176026919e-02,1.852304220199584961e+00
-8.202321368694802661e-01,-8.760743735183806891e-01,1.067542341972478992e+00,-1.221610370723361441e-02,1.299594354839068988e-02,-1.386885675751152285e-02,1.916705489158630371e+00
-8.497610377440405482e-01,-8.649806550535769079e-01,1.034018527830576462e+00,8.016893845913332416e-04,-1.022649974838928458e-02,-5.818272286377200800e-03,1.891545534133911133e+00
-8.678766153430660379e-01,-8.601027747345513230e-01,1.046822765284018741e+00,-3.167909744894517599e-03,1.016235975881116943e-02,5.148622105520756029e-05,1.910913228988647461e+00
-7.463521998488125142e-01,-1.011061426164661770e+00,1.072822746900528701e+00,7.902895774129391204e-02,1.995498583706248608e-01,8.233968783299075445e-02,2.004883527755737305e+00
-4.942592056962900049e-01,-1.064117997772743518e+00,1.164516852722848661e+00,-6.649069026918878744e-02,-7.224064811667602060e-02,-3.972157490237064083e-03,2.012588262557983398e+00
-8.589805903647055318e-01,-8.479112671903885623e-01,9.554484794470479159e-01,-6.855742039544592166e-03,-9.523591720682261785e-03,1.036074414671964844e-02,1.809123039245605469e+00
-8.527741741210098647e-01,-8.471557513530421080e-01,9.448108571759901153e-01,-1.489191142837279457e-02,-9.566416875222668106e-03,1.479485408923994147e-02,1.795227169990539551e+00
-8.502812184644319426e-01,-8.535965523428690194e-01,9.901009199266781469e-01,-6.601081541362471307e-03,1.813882809379406894e-02,-7.848551168975453907e-03,1.842395544052124023e+00
-7.834245462058723186e-01,-8.665560437799254556e-01,9.785883735751845780e-01,5.276980770705110707e-02,2.219735862330529663e-02,-4.347052361072105062e-03,1.807752132415771484e+00
-1.163957318713108480e+00,-1.195328668535848404e+00,5.277428945410571615e-01,-2.934763115939213740e-02,1.925530003361633838e-02,8.698791025600312657e-03,1.708750367164611816e+00
-7.518943972290399458e-01,-7.498644940264596048e-01,5.536677402747000043e-01,9.066515308906326551e-03,8.672941439314569081e-03,-3.456352071508663349e-03,1.304743051528930664e+00
-8.108448114224768855e-01,-8.112224951619164681e-01,7.714829503699414115e-01,7.318027546135461026e-03,-3.056995761702997749e-02,-1.455336114220695531e-02,1.583653569221496582e+00
-7.675614089469762202e-01,-7.824469868767518488e-01,6.271762469539584606e-01,6.987388606489229256e-03,1.062751052956247000e-02,2.993829287240132309e-02,1.403371095657348633e+00
-7.710477570554270521e-01,-9.725782187751094154e-01,1.223119809976734418e+00,1.417655859212774705e-01,-6.061137361624870101e-03,-1.823371903083477463e-02,2.116743803024291992e+00
-6.545141794258922951e-01,-8.445740051434390550e-01,1.018782011109714780e+00,2.374214775891955384e-02,1.184717406533886651e-02,1.250973749202246958e-02,1.776696562767028809e+00
-4.716234796150389763e-01,-1.273442832630845789e+00,3.640530697230662804e-01,7.499815123287680366e-03,-7.691359702120988129e-02,-2.458966406238189684e-01,1.486822962760925293e+00
-8.289748856997823934e-01,-8.232169808349992790e-01,8.186919466118340871e-01,1.159903933700699545e-02,-1.440344993163910660e-02,-1.048230756932275881e-01,1.655095696449279785e+00
-8.619620896369731833e-01,-8.503459979122551804e-01,1.050886403483417997e+00,-5.561132162695798338e-04,-6.196595260778313061e-03,1.051691778186924185e-02,1.907184362411499023e+00
-6.339507707908060841e-01,-7.283531340568657475e-01,7.823078264504629287e-01,2.979086893277137493e-01,1.266868627405276226e-01,1.898169709058187271e-01,1.603398680686950684e+00
-4.599013654837952880e-01,-9.914908016400177937e-01,1.025178124867734297e+00,3.105305270461729550e-01,-9.328060793392975447e-02,7.648722397086032965e-02,1.900116682052612305e+00
-1.048266894747023725e+00,-5.599692021422528754e-01,1.123465349564569893e+00,3.772538228623398618e-03,2.002830394346653137e-02,5.588505905091126214e-02,1.976112127304077148e+00
-8.701590940933146001e-01,-7.759676232442607180e-01,1.047754954348004475e+00,2.972649203718976535e-02,-1.778637941603756004e-02,8.294275104427014170e-03,1.873611927032470703e+00
-8.792106864673425726e-01,-8.692444692280680840e-01,9.988999481043676631e-01,-2.584694032875978643e-04,-2.763966566684214769e-05,1.623989485293054688e-02,1.873358607292175293e+00
-9.114427327134143608e-01,-6.131064597458317778e-01,1.036305412944970472e+00,1.835755387537564218e-02,-2.470918491352728716e-02,-2.989530771030018963e-02,1.818561911582946777e+00
-8.903674320172412227e-01,-7.638537707396841903e-01,1.009308949826480006e+00,-4.332896965568691985e-03,-1.365634903196407367e-02,3.629514552346886636e-02,1.840926051139831543e+00
-8.791017935633447244e-01,-8.451373820452486862e-01,1.060301428751010189e+00,4.915059073229284883e-03,2.479269086550871595e-02,2.797920189790082529e-02,1.923754811286926270e+00
-9.545506660199553073e-01,-6.989363307373068768e-01,1.075880695946816790e+00,2.415548914333215738e-02,-3.158048728313958293e-03,-4.823554969093476336e-02,1.917744278907775879e+00
-7.563138651685192837e-01,-8.286172884703857378e-01,1.031638367162003078e+00,1.560073106900856932e-02,-2.855961539515875988e-02,-1.753796186171985641e-02,1.826301097869873047e+00
-8.567565903020915030e-01,-8.579632399980935409e-01,1.024115573989780037e+00,-5.555561142841545542e-03,2.100683987424824088e-03,8.996514014923876314e-04,1.881504535675048828e+00
-9.205891956484547611e-01,-9.029335849006037140e-01,9.540905716282961357e-01,-6.478343164595937176e-02,3.090868644534945989e-02,-3.427233613850672045e-02,1.870993852615356445e+00
-8.922685778961115810e-01,-7.955434815053397113e-01,1.035387272475737364e+00,-3.226339559795430439e-03,-1.488418913922988362e-02,1.646454524633982064e-02,1.881560325622558594e+00
-8.629869352874536270e-01,-8.170208692271747619e-01,9.829371983985955019e-01,3.497268793994695590e-02,-4.068887308187309898e-02,-2.702711979942054241e-02,1.826342344284057617e+00
-6.630859779851858704e-01,-8.607213481370921127e-01,9.588314934632364839e-01,-1.213116573131964859e-01,-6.805326047208180851e-02,3.056046863003718250e-02,1.746731042861938477e+00
-8.500670046664514645e-01,-8.711291477151781315e-01,1.000493704352249935e+00,4.210216038907660212e-03,-6.749532937175667727e-03,8.103934429507905074e-03,1.861285090446472168e+00
-8.627600499719781935e-01,-8.635769844507444892e-01,1.064741606443211808e+00,2.743185706199712404e-03,4.296009016419071770e-03,-3.901660899552271584e-03,1.927942276000976562e+00
-5.969697108048314105e-01,-8.581112243583447485e-01,1.003699906221255489e+00,6.315344486540007407e-02,1.477496110014268329e-03,1.470460421968193369e-02,1.749559879302978516e+00
-8.574180576745129567e-01,-7.831129703698849198e-01,1.046189574681076317e+00,1.366503343127141272e-02,2.634447349127498009e-03,-2.115344827069689376e-02,1.868078947067260742e+00
-8.957140751166762227e-01,-7.314341262368636576e-01,1.063392993284965282e+00,9.711292896816343251e-03,1.575226037432739951e-02,4.224100171623261513e-02,1.884045243263244629e+00
-8.679215127812910380e-01,-8.576789782497344916e-01,1.035574970538589490e+00,-4.274401870490799065e-04,-2.266977451365900700e-03,7.379573548759097573e-03,1.898443222045898438e+00
-9.577105150806649592e-01,-4.464659454183116383e-01,1.017184713914652816e+00,-8.771169457895411359e-02,-1.646011113111355700e-02,1.891658415324258199e-02,1.782384395599365234e+00
-8.011543557729103870e-01,-6.776795889587479138e-01,9.974542972534139462e-01,3.552139103333627757e-02,1.519822770976041355e-02,-4.940160768028467510e-04,1.741446375846862793e+00
-1.030014162521662779e+00,-5.797704703642678759e-01,1.101700133255145486e+00,2.892954076797823321e-02,6.151444865196342086e-05,5.217671097489987031e-02,1.948797702789306641e+00
-8.197903029722384272e-01,-7.940237256488748008e-01,1.047143294393124480e+00,3.987204393834729160e-02,8.149520260308643071e-03,-7.385454288237302579e-03,1.855568051338195801e+00
-8.806356282998460960e-01,-7.392828065917746994e-01,1.060726800899264521e+00,2.072486242022594793e-02,1.395725473239072499e-02,3.746132293465521262e-02,1.876308798789978027e+00
-7.924751960763297687e-01,-8.780137809379253699e-01,1.062636229313684622e+00,2.209031619359612744e-02,-8.049362410917335758e-03,2.695612371124906856e-02,1.900336027145385742e+00
-8.409626952339338546e-01,-7.607806851064632392e-01,7.645602243206615078e-01,3.321718028010912233e-02,-1.143275829553341977e-01,-1.532499032250256021e-01,1.602615952491760254e+00
-8.103554486376656207e-01,-7.858062225705129134e-01,7.189624224533119889e-01,1.296484829635300925e-04,-5.626490366141600336e-02,5.197033341049506899e-02,1.522981405258178711e+00
-7.933977222905068682e-01,-7.972658341139898797e-01,7.145812475359218929e-01,-7.765005234717163411e-03,8.200893252452039206e-03,2.884780472285388732e-03,1.510051727294921875e+00
-8.094161552253530401e-01,-8.127707833513212465e-01,7.610858303572154426e-01,1.067821202900725956e-02,1.202225502964546222e-02,5.046523595105754240e-02,1.574856162071228027e+00
-9.370656652981740331e-01,-8.943314024016013608e-01,8.129364982668947359e-01,7.072373909929627160e-03,-8.352892417128750246e-02,-9.263125943105356142e-02,1.742518782615661621e+00
-1.128716408665472848e+00,-3.123740577692161180e-01,1.079677308211203890e+00,3.503664238131378589e-02,3.924882861862662164e-02,5.854334134465485201e-02,1.938865184783935547e+00
-9.832954741237577290e-01,-4.920760910454351489e-01,1.070259787837954724e+00,1.274984819633678650e-02,9.029539238923323455e-03,5.729639663870987609e-03,1.857544183731079102e+00
-5.574091166889529880e-01,-9.590235648875123919e-01,1.043693398218944468e+00,-1.186678411281910303e-02,3.788781308608172443e-02,-4.584503156728447250e-03,1.836475253105163574e+00
-8.597692713170378420e-01,-8.613748329121110325e-01,1.005835124539951053e+00,-8.936532860279105400e-03,-1.287141224568574653e-02,-4.410127623142370834e-03,1.866620659828186035e+00
-6.832366295940934808e-01,-9.467531663551702614e-01,1.054281295507345284e+00,3.681310513783940530e-02,-2.253220746418268389e-02,1.121451866795034752e-02,1.884738802909851074e+00
-5.786250354957862552e-01,-9.862020729776800332e-01,1.059073315103858270e+00,2.341652978977579874e-02,3.409341792133212951e-02,2.035208475332082878e-03,1.876381516456604004e+00
-6.524476399516458969e-01,-9.453512947368220010e-01,1.054920603316908734e+00,1.671891526933197078e-02,-2.190411546386183614e-02,8.540450949179592341e-03,1.871761202812194824e+00
-6.071523257940301121e-01,-1.086206120943754350e+00,7.438375822541787308e-01,5.252469230230084885e-02,-1.284636182728732812e-01,-1.103274207147406094e-01,1.672173619270324707e+00
-7.741487713925244707e-01,-8.473855354523076588e-01,1.041748790455897522e+00,9.566198070888508320e-03,9.098398518421136477e-03,1.125543556590454138e-02,1.853844881057739258e+00
-7.606223404264559340e-01,-8.121595079333485678e-01,1.049263607605857462e+00,1.782685849400457989e-01,-1.077486501960967999e-02,5.971839074169192629e-02,1.864941239356994629e+00
-8.911942007589894743e-01,-6.874696754335029025e-01,1.079436539884978785e+00,1.060113971489196616e-01,-3.280258700878367628e-02,-1.120727835958835843e-02,1.886993288993835449e+00
-8.128552794502064138e-01,-8.152680554083625575e-01,1.039756256746200203e+00,1.906056936107418734e-02,-1.127605575983585059e-02,4.081116470187026550e-03,1.854229331016540527e+00
-7.682189192652577603e-01,-1.131400319618626638e+00,2.904866209184061576e-01,-3.751703836027054373e-01,1.527391809092909503e-01,-1.150491853810431397e-02,1.459418892860412598e+00
-1.070436986883604558e+00,-7.986719787953302507e-01,2.946956205323715272e-01,-2.299383521351221482e-01,2.303236447652428839e-02,-1.923673326387420612e-01,1.355606913566589355e+00
-7.811468424437802982e-01,-1.101130193500063692e+00,1.194782142871854358e+00,-9.836964014513027710e-02,2.272242295769608122e-01,1.181522618094335390e-02,2.196198940277099609e+00
-7.564339444440836280e-01,-7.637666640258614636e-01,5.614529026785393118e-01,-2.059942634581696155e-03,3.076615005316752152e-02,3.695718128592180574e-02,1.324195265769958496e+00
-8.506462569170204491e-01,-8.356077746998840095e-01,9.135137517085376579e-01,9.027192238770298527e-03,3.950895598996595481e-02,-1.356653335011144025e-03,1.758092522621154785e+00
-9.430115528674469783e-01,-8.931721629042509436e-01,6.929861357296602797e-01,-4.193780283360822869e-01,-7.844881935302172593e-02,-5.773378651104584675e-02,1.775818467140197754e+00
-5.920661695956850323e-01,-8.988887897361693691e-01,1.029885407148956489e+00,-1.076498236768366062e-01,5.640157765941893747e-02,-3.397436257793633868e-02,1.808394312858581543e+00
-7.283087721010217397e-01,-9.349008251146434523e-01,7.472914564429089523e-01,-1.640584368463921699e-04,4.748311300710125749e-02,2.406796662285732441e-02,1.591673731803894043e+00
-7.542414205386674952e-01,-8.532896205758077057e-01,1.038400619596809626e+00,-9.454189737751073769e-03,-2.418806498448812167e-02,3.198123562703497624e-02,1.845542073249816895e+00
-7.300582864099233182e-01,-9.329371695186011726e-01,1.198829298101797614e+00,-1.929559055112452792e-01,-1.103078056014266187e-02,6.811817305694876923e-02,2.068593502044677734e+00
-7.228365456779026754e-01,-7.995645434377925964e-01,1.012257085859825878e+00,-1.523953019785011763e-02,5.433153290151361732e-03,5.765425802261396442e-03,1.774951338768005371e+00
-4.195210298431661378e-01,-9.644075105032478001e-01,1.067036835696714814e+00,-3.035225468420639783e-01,-5.736762342237169271e-02,7.477730603343668569e-02,1.902573704719543457e+00
-5.745454657221924499e-01,-9.134266479037536079e-01,1.027117732266777717e+00,-2.437242875437828013e-02,4.077171017076813148e-03,-1.105903940147359016e-02,1.795866847038269043e+00
-6.128371674237338418e-01,-8.622820156848395312e-01,1.008752243440714125e+00,-5.537691255066069795e-02,-7.401797097532073454e-03,-2.329120488655431285e-03,1.762286186218261719e+00
-7.104885606733417625e-01,-7.866394988917085884e-01,1.013358408439296365e+00,-9.843252215191317100e-02,1.626132765346899323e-02,-1.225418052101266871e-02,1.771730899810791016e+00
-8.411812015801132247e-01,-8.546053728165029506e-01,9.522793308374326582e-01,-9.398018727242721942e-03,-5.768716339948160021e-03,2.428501370300050269e-02,1.800802826881408691e+00
-8.324359077256793249e-01,-8.440492667250205638e-01,8.833088095003029938e-01,-1.204480989449662094e-02,4.990818596590907569e-02,1.782270587584658048e-02,1.724152207374572754e+00
-8.144782567453480171e-01,-8.297976805842829373e-01,8.222589494666028287e-01,-1.604429917101674735e-02,-4.600927296496982663e-03,6.048514931728444372e-02,1.648037672042846680e+00
-8.590042230960157621e-01,-8.377182319184182102e-01,1.016162774957238835e+00,-8.264402754864155895e-04,-9.148893918718297574e-03,4.327746362069790319e-03,1.864698052406311035e+00
-8.500455917775766590e-01,-8.504229240763606645e-01,1.062023647688704830e+00,1.589259682452771796e-03,-1.919227444165675506e-02,6.188398158640429254e-03,1.912578821182250977e+00
-8.317862076095886570e-01,-8.475639272200951035e-01,8.933031563851283607e-01,-1.003848203132501685e-02,1.780950870972288283e-02,-1.041538908572346538e-02,1.733487725257873535e+00
-8.909878524008848499e-01,-6.874064306450491380e-01,1.032664221135578986e+00,1.960698041266666775e-02,-1.683945429365880583e-02,-4.213774995821953362e-02,1.832373738288879395e+00
-9.696794211282502296e-01,-6.352091483796840077e-01,5.751570768005240808e-01,3.455657412230511705e-01,2.896221443262159689e-01,2.094746836222748931e-01,1.650217294692993164e+00
-9.060074973826340861e-01,-8.155977931820996840e-01,8.767414055941795681e-01,1.219931229955537738e-01,1.474097553223517043e-01,1.443708101998323334e-01,1.788170695304870605e+00
-8.258761993531411605e-01,-9.789353228146190355e-01,4.311212795444020474e-01,1.296459442177005927e-01,-8.629393818163530461e-02,2.764072160371357917e-03,1.366986393928527832e+00
-8.359575245424080148e-01,-8.332581459788828138e-01,9.045454500882981197e-01,-2.550059416647691962e-03,-4.821093049878693443e-03,5.801242742317567341e-02,1.742080688476562500e+00
-8.332115582265833265e-01,-8.388224317712905664e-01,8.915232968022455129e-01,-1.369982736256106226e-02,-7.812461012056574200e-03,1.412078593641584966e-02,1.727936148643493652e+00
-1.146803496172696057e+00,-9.135804716394836655e-02,1.154594770351664579e+00,-2.724473064218823834e-02,2.943919411160574734e-02,7.846527792048982666e-03,1.996599674224853516e+00
-8.216658880350077299e-01,-8.257790725676906751e-01,7.263169433436666989e-01,-4.103545892900537471e-03,1.421208132372210053e-01,-6.012327536236500292e-02,1.572935104370117188e+00
-8.510279272862939504e-01,-8.529712731503276135e-01,9.467491046871538973e-01,1.728950991241925625e-02,-8.793531745997540047e-03,-2.515368440752388871e-02,1.799590706825256348e+00
-7.027396404229659943e-01,-9.059337037958018479e-01,1.065007024768336974e+00,-1.021519051093452007e-01,3.946536831838943354e-02,1.240485378172791371e-02,1.887286663055419922e+00
-7.763036032259290620e-01,-7.902707268384153716e-01,6.393974939741563501e-01,1.149626277378705368e-02,6.488680418042441778e-02,-5.549463119489819046e-02,1.430539846420288086e+00
-9.087898532800079421e-01,-8.244808524606718203e-01,1.056199109145218529e+00,-8.668367641085524683e-03,-8.084079123254626215e-03,-3.429337530877986373e-02,1.925246238708496094e+00
-7.446261394727459182e-01,-8.436326624384259398e-01,1.041478884763337387e+00,2.371776577227581728e-01,-4.892190076524090964e-02,2.684054331384845907e-02,1.885447025299072266e+00
-6.209841017088051363e-01,-9.124197150122108635e-01,1.035746297055065712e+00,1.846807541594710014e-02,-4.074683673224030467e-02,-2.777587179748623736e-02,1.822317004203796387e+00
-5.618095943693389716e-01,-1.060809649382380648e+00,1.220536852878274958e+00,2.567972766352328851e-01,4.188573687514944577e-02,3.145912874017817856e-02,2.126315593719482422e+00
-5.870154870823315330e-01,-8.645043631573643417e-01,1.025715193785470269e+00,9.886695531665511127e-02,2.698249714864787638e-02,1.513475412125658923e-03,1.776775240898132324e+00
-6.877534421921663865e-01,-8.630176097983854877e-01,1.027386992139057709e+00,3.591628601128515896e-02,1.623564438664020990e-02,-1.251525326808901675e-02,1.810568332672119141e+00
-7.134440454502488649e-01,-8.951307245933315393e-01,1.038267932723941245e+00,1.126100953457041635e-02,-3.135461477271635905e-02,-2.095890650907119429e-02,1.850517511367797852e+00
-6.595028801377940120e-01,-8.982196554185903903e-01,1.044070777949232642e+00,7.532089429710674133e-02,-6.347857520707912704e-02,-1.900570584593279030e-02,1.842827320098876953e+00
-7.136832425248952338e-01,-1.004939512521656697e+00,1.215558706389163302e+00,1.404428773725511503e-01,1.506179138874881064e-02,-6.325677330587166185e-03,2.104443311691284180e+00
-7.463838169040772907e-01,-8.705723313188100665e-01,1.048170472656239749e+00,4.796917184523630945e-02,8.700912454879267816e-03,-2.370971442506642282e-02,1.862129807472229004e+00
-8.771709703959245097e-01,-6.780768404927909332e-01,1.029317822709160613e+00,-4.037115759825875283e-02,1.752152470051483377e-02,1.377326945581315749e-02,1.816905856132507324e+00
-9.372719878433850571e-01,-5.743487624649030732e-01,1.019907483104716128e+00,-3.808036594796491980e-02,1.700862025023017546e-02,8.224559166345960654e-03,1.804821372032165527e+00
-9.485487358375880307e-01,-6.296468596126301165e-01,1.191597474247637178e+00,-2.738982151276401766e-01,4.190281283545053970e-02,-3.516120340275359635e-02,2.057538509368896484e+00
-8.351797739886368532e-01,-7.518839158233084907e-01,1.035620364753813361e+00,-1.537545545314627192e-02,2.496421007208124432e-02,-3.405116536723760967e-02,1.832227826118469238e+00
-8.669261909702581370e-01,-8.503541615415477484e-01,9.987224671991408176e-01,1.519616805482045321e-02,-2.963311526744833238e-03,1.931372501146610271e-02,1.857912898063659668e+00
-7.710843720440933025e-01,-8.318716895048018367e-01,1.035078260075835255e+00,-6.860916030768139662e-03,7.613061786120902709e-03,-8.476241498911961034e-03,1.837455034255981445e+00
-8.918767766244564132e-01,-6.234941908109723485e-01,1.015838203807515994e+00,-1.198840066104558955e-01,1.842210335348279729e-02,-2.567677220137050062e-03,1.800989389419555664e+00
-8.577865092301844019e-01,-7.478130369782675091e-01,1.041838488500153703e+00,-1.351049397153135725e-02,2.912787338692894926e-02,-3.268172926571888404e-02,1.848799109458923340e+00
-8.089046170349400988e-01,-9.339850583500340919e-01,1.177548494127552914e+00,-1.670176434033992241e-01,7.314266129453865506e-02,-9.639260715773043456e-03,2.076082944869995117e+00
-6.215345504537792554e-01,-8.867695319010886479e-01,1.024893261651246501e+00,4.435618603155944834e-02,4.268863248965425183e-02,2.786451486170942946e-02,1.797627091407775879e+00
-8.244542152967540005e-01,-8.544792874359180557e-01,8.568010725757608803e-01,-1.358163272493445074e-02,-1.022453472115519152e-02,1.452747783774952645e-02,1.696909189224243164e+00
-8.629998187669121190e-01,-4.777557764510245719e-01,2.329899838160278680e-01,1.068836246002020235e-01,3.673903343125966420e-02,1.937723665645115501e-01,1.038435339927673340e+00
-9.299488557309109060e-01,-6.738000236120508246e-01,1.059292596621718152e+00,8.138327949010488570e-04,2.593329758564126130e-03,-5.390635518148121502e-02,1.876670360565185547e+00
-9.077651852375906438e-01,-7.892305267931062351e-01,1.030401042064124972e+00,9.916275757170401467e-03,3.767818170460303460e-03,-1.467517534193854382e-02,1.881962418556213379e+00
-9.535417585092846871e-01,-5.569110891447606182e-01,1.041132687386707945e+00,-2.523222346052816922e-02,-1.846454395057766642e-03,9.165439680584693688e-03,1.829498648643493652e+00
-8.479506554179581101e-01,-6.861559065930455947e-01,1.026211896056052009e+00,-2.044026400667805707e-02,2.501838883422434837e-02,-2.223270263048163220e-02,1.800013065338134766e+00
-8.015834228024016905e-01,-6.714739285567057347e-01,1.049817086959188517e+00,-1.095997459265967700e-01,4.792906609839251569e-02,-5.102036734817471525e-02,1.804013490676879883e+00
-9.941461290822172225e-01,-5.348572303934451266e-01,1.054487010965817761e+00,-2.169705362442767294e-01,-3.262744933260525865e-02,-1.346195810413772231e-02,1.900498747825622559e+00
-9.941767697187207098e-01,-5.112565444243837298e-01,1.071538882864368825e+00,-6.681428911886123923e-02,-5.672279823750039224e-02,1.852221872159676500e-02,1.878001928329467773e+00
-1.021426918359845670e+00,-3.882947505847650360e-01,1.157674243347603271e+00,-1.283827092698419832e-02,-4.667610273559665013e-02,-3.306493522757969483e-02,1.944219470024108887e+00
-9.070365511655716917e-01,-6.630074647198889171e-01,1.190970428826668259e+00,-2.981878023679054857e-01,7.991147964194932063e-02,-9.510992911390261928e-02,2.064522266387939453e+00
-8.437180404026706215e-01,-5.177697419279431168e-01,3.688015665230817142e-01,2.008641349016704880e-01,-8.545500417660735482e-02,-1.188501482447239799e-01,1.168995380401611328e+00
-8.251071369073785799e-01,-8.232803449869281476e-01,8.478956967116475507e-01,-9.463398186044294155e-03,5.361108141311506613e-03,-4.432919615343777764e-02,1.673958063125610352e+00
-8.402375732876584680e-01,-8.450900821674287577e-01,9.947626922094374713e-01,1.286765011087785161e-02,1.277340939613977495e-02,2.073798241958289823e-02,1.838050723075866699e+00
-8.531631697827634087e-01,-8.565194828036197805e-01,9.683353139193124903e-01,-1.415788488454808661e-02,-1.388563174896559164e-02,-2.610997923655816039e-02,1.824063181877136230e+00
-8.182074344440559699e-01,-8.218653214032600740e-01,7.970647300893687337e-01,6.271445177755011723e-03,3.540557781224681205e-02,-5.774344333796140039e-02,1.621390581130981445e+00
-7.635886151719357695e-01,-9.825797008785970288e-01,2.403875532828508854e-01,-3.937517855617936324e-01,-5.694691295711534068e-02,-2.152592857299074069e-01,1.374644279479980469e+00
-1.348978809715977611e+00,-5.369707948023172417e-01,4.008813820526273553e-01,1.628595523148877039e-02,5.426505158664526700e-03,8.633879101845620685e-02,1.524373412132263184e+00
-8.031191470570820945e-01,-7.457437821053235494e-01,1.015968422460769904e+00,8.538952073414280558e-03,9.663457405285831234e-03,1.380350217390552241e-02,1.791388034820556641e+00
-8.103172959636402162e-01,-8.232269807203687062e-01,7.438203467696249405e-01,3.487573761011395282e-03,-1.105515726430994668e-02,-8.776300515533418112e-02,1.568146705627441406e+00
-8.065644074643407713e-01,-8.319850025237470748e-01,7.722179606394021789e-01,-1.414985372693789573e-02,-6.894394547279511509e-03,-1.786067452572900546e-02,1.592178940773010254e+00
-9.549774083438763439e-01,-8.748180894976762545e-01,7.076356526849734152e-01,-3.053382392905736320e-01,5.937312441764029669e-02,-2.540845889860196549e-01,1.766742944717407227e+00
-9.450459836120816970e-01,-4.138259107552574867e-01,5.488667664561562853e-01,-1.778044620919285446e-01,8.064506593335284135e-02,-1.053369930985298547e-01,1.366753578186035156e+00
-1.360660366916206954e+00,-3.425119298961174508e-01,1.187462258137037763e+00,-2.943172547408710038e-01,1.506092662084192735e-01,-1.603171031206237773e-01,2.310889482498168945e+00
-1.110272275876152959e+00,-5.971241640022401098e-01,1.062793618607944524e+00,-1.345499676821540758e-01,-3.844386187301680052e-02,9.329990764845456919e-02,1.988791346549987793e+00
-1.069661807360261951e+00,-1.860308559844279230e-01,8.265521807331023263e-01,3.254467565243585915e-03,-6.522407280691291942e-02,1.008678602913956959e-02,1.647415399551391602e+00
-1.467946832902052634e+00,-3.425283631893044634e-01,1.066134946531601457e+00,-3.908390738768623418e-01,-1.823588480477341123e-01,-1.900078249029273428e-02,2.322788715362548828e+00
-9.861048506684821913e-01,-6.362379967862250574e-01,1.236389430197575967e+00,-5.711905234854834923e-01,2.914155600395694490e-02,2.041590941531763459e-01,2.321783065795898438e+00
-8.691675984135055488e-01,-6.211124282038487099e-01,1.006866943851408847e+00,-5.011877388745161060e-02,-2.489974351709847017e-02,2.395937114405635726e-02,1.768274545669555664e+00
-7.726456974131732380e-01,-7.752310348649134042e-01,1.018680056445095516e+00,-2.787030305283215784e-02,-7.396345221381381459e-04,2.974472254525372273e-03,1.793277502059936523e+00
-7.330841696347745184e-01,-7.504828872966294862e-01,1.162879220558948656e+00,-2.003417958876047844e-01,2.183825111983749012e-02,5.266439193647487298e-03,1.936463713645935059e+00
-9.354912411329178168e-01,-5.667904964063399387e-01,1.019475881821961805e+00,-3.971599714259312769e-02,-1.557706842566003794e-02,3.369962281853826347e-02,1.801639795303344727e+00
-8.982489672101667821e-01,-7.243308022556683712e-01,9.580175102163297485e-01,1.302937091276846170e-02,-9.976671845673221878e-03,2.959591313312627536e-02,1.776673793792724609e+00
-1.054537605463810923e+00,-6.422317055582835721e-01,6.315570656202480482e-01,-1.468011590767224206e-01,3.082591410487278347e-02,-1.230891963060919692e-01,1.559063792228698730e+00
-8.196237764155234196e-01,-8.362024099815599243e-01,8.441825054451179700e-01,8.961678109615992330e-03,-8.101042709508007172e-03,-2.588440216488271592e-02,1.672888994216918945e+00
-8.277024023485735071e-01,-8.450695976908301210e-01,8.964379568054177128e-01,3.768003023163254972e-03,-1.038484511289558543e-03,-4.442517503673561879e-02,1.734609961509704590e+00
-8.277588272029835492e-01,-7.747651634559529210e-01,3.967462755926863816e-01,-3.651347449666277056e-02,2.483525391142853492e-02,3.608864739176759900e-02,1.202949404716491699e+00
-8.692399687163853139e-01,-8.635710702053529531e-01,1.028576151031864949e+00,9.789361183765998842e-04,-9.651255255989926382e-03,3.376423584426658468e-03,1.895071506500244141e+00
-8.663938641408815977e-01,-8.617566555861934097e-01,1.034209422361338282e+00,6.197749771667519607e-03,-1.437649798894048876e-02,8.395115134849907151e-03,1.898538231849670410e+00
-6.752720565758136839e-01,-9.220067146856135709e-01,1.056185372485251683e+00,-9.877931915645144292e-03,-3.012090518761595045e-02,5.633694001769695356e-03,1.867924809455871582e+00
-8.552888746105875573e-01,-8.575481754083145169e-01,1.014984911040762938e+00,-1.249132381830809395e-03,5.208855920303919959e-03,1.940497377580511790e-03,1.871430516242980957e+00
-8.684770288979057895e-01,-8.580270363980055937e-01,1.026292502489398739e+00,-1.547574047411221128e-03,-5.163300254848702045e-03,-2.329305385039422485e-03,1.889593601226806641e+00
-8.676543449933680208e-01,-8.560927676578589107e-01,1.025296707267435936e+00,-2.502102464557801054e-04,-2.757389898388293726e-03,1.926302155495606533e-04,1.887202978134155273e+00
-7.554423787864350537e-01,-8.841586181207509165e-01,9.886327273046986441e-01,-1.804143156573908766e-02,5.949333148164456624e-03,-1.152797868111744839e-02,1.812274217605590820e+00
-8.697712367009533541e-01,-8.555566697498701023e-01,1.030286649830842949e+00,1.964841364121677845e-03,-1.035792189192541977e-02,-5.009687667310043675e-03,1.893098592758178711e+00
-8.695794685525933820e-01,-8.565634411941643878e-01,1.027135101368043646e+00,5.084245437836596229e-03,-1.096206014461290068e-02,2.662951982374326624e-03,1.890361666679382324e+00
-5.422468907037309993e-01,-1.111608461182223007e+00,1.201943341930030273e+00,-1.282191970051192453e-01,5.006330370657603029e-02,-7.009733977226112727e-04,2.101496696472167969e+00
-8.619121377712499754e-01,-8.595866406885790401e-01,1.030432274170068885e+00,3.456593642262446777e-03,-7.202373924108375521e-03,3.019877279382480063e-03,1.891240596771240234e+00
-8.326382222257394661e-01,-9.895529580100697054e-01,1.049742702791801152e+00,8.575400518096228109e-02,-1.600563466144511865e-02,-3.877181007550385000e-02,1.972483992576599121e+00
-5.487263190089063380e-01,-9.441831614808710027e-01,1.160249431015843768e+00,-9.253510557985539231e-02,4.286993351053919321e-02,-4.978559366404757686e-02,1.947164058685302734e+00
-8.369985353521685045e-01,-8.692169718470051931e-01,1.161760205363181919e+00,-1.950127931216780186e-01,8.203129799756976592e-02,-6.286928100526635588e-02,2.051001310348510742e+00
-7.463984488481003599e-01,-8.575356353049952141e-01,1.040320570467541783e+00,-1.135930709929279005e-02,3.295168240013002237e-02,-2.158822199284027299e-02,1.846166253089904785e+00
-7.159606678201069219e-01,-8.924955393619208310e-01,1.039638417047353824e+00,-1.097498852289383910e-02,2.981485139955613803e-02,-2.058290431113060648e-02,1.851355195045471191e+00
-7.607198131034393906e-01,-9.106379952186498539e-01,1.054975491307166724e+00,-9.071560734689627925e-03,2.787326414996308191e-02,1.527490412093076427e-02,1.895971536636352539e+00
-6.675610227521606710e-01,-9.553481206521948765e-01,1.041531555849307678e+00,-1.089887277819391251e-02,-1.600749931104413458e-03,-3.921396686194688480e-03,1.869781732559204102e+00
-7.092007600075124207e-01,-8.909135308080800009e-01,1.028510338488612730e+00,1.114745608251026601e-02,-2.935769463582907010e-02,-1.121458685120883467e-02,1.836235165596008301e+00
-7.614460846053491272e-01,-9.134984021971027657e-01,1.061289819415885516e+00,5.829415773998149544e-03,2.735574228122312351e-02,-1.453746084946905444e-02,1.904105663299560547e+00
-8.337851186397962078e-01,-8.753359034897900681e-01,1.042531488615846325e+00,-9.673859629521467871e-03,1.741685528757675253e-02,-5.341422552933212421e-03,1.897769570350646973e+00
-8.330029070919123813e-01,-8.859426249657891272e-01,1.044843634469683202e+00,1.603284490568137287e-03,2.746756015275273605e-02,2.711459001555042818e-03,1.905470013618469238e+00
-8.464613765256296940e-01,-8.816068444661854242e-01,1.050230012103320343e+00,-5.702910204837688748e-03,2.208561934822827685e-02,6.839204966875032064e-03,1.914950370788574219e+00
-7.045719501793202832e-01,-8.107783285316613187e-01,1.014832880911227475e+00,8.422645773800599422e-02,-9.374276297249828013e-03,-7.643031088590165369e-03,1.781001329421997070e+00
-6.482962996848558035e-01,-8.441521106454836776e-01,1.015675906383519012e+00,2.669401098638618172e-02,-1.100670309770721000e-02,-9.899496316302736423e-03,1.770835041999816895e+00
-9.366667170029415734e-01,-6.634403093430487619e-01,1.044502209457215836e+00,-7.237623387906796935e-02,3.577908216575934747e-02,-1.137818101345482030e-01,1.875305175781250000e+00
-8.256772536543465213e-01,-8.525755847341285332e-01,9.694253420729233017e-01,-2.098707343255249921e-02,-2.103575957420498327e-02,3.755521886914305052e-02,1.810602664947509766e+00
-8.570708416202343916e-01,-8.712085756412519810e-01,1.018856659610200444e+00,1.152529329863393077e-02,-6.077968794298775190e-04,1.098860496215151375e-02,1.883238434791564941e+00
-8.523486902570464041e-01,-8.457509300742919178e-01,1.003120011037920589e+00,4.374686458118412941e-05,-8.857341810852740333e-03,1.847550083835537704e-02,1.852518558502197266e+00
-8.699585468194295235e-01,-7.917206330980711693e-01,1.013740069323108228e+00,-2.762866722675486053e-02,-3.015629968396975683e-02,1.578338978172143248e-02,1.847384810447692871e+00
-8.362486654757493865e-01,-8.389078798026777806e-01,8.754875302507585388e-01,1.182124748964199189e-02,4.938413611010813997e-02,-7.061558087941816921e-03,1.715367317199707031e+00
-8.557646424155110898e-01,-8.501246528278132431e-01,9.587337776760715968e-01,1.384679762518793017e-02,-1.129693389347536693e-02,-2.306645799700367955e-02,1.812389850616455078e+00
-7.252302781888102512e-01,-9.527893940782591331e-01,1.045485942258528755e+00,-1.931323579688051517e-01,-2.699342585161246255e-02,5.725166318072512361e-02,1.927195191383361816e+00
-8.250797353369491161e-01,-7.812126350274631870e-01,1.036345898704172264e+00,-7.524805186186404697e-03,-1.768115751542270048e-02,1.530885079545094528e-02,1.840376377105712891e+00
-8.644153397404477079e-01,-8.663319727809589699e-01,1.073705079828717102e+00,1.978162225913380930e-07,-8.603927044503334324e-04,-1.349330853243478406e-03,1.939081430435180664e+00
-8.666002682352993425e-01,-8.667774584122495130e-01,1.074650030235141385e+00,-1.240023987268376029e-03,-8.549505295459117237e-04,-1.349007064199483994e-03,1.941342115402221680e+00
-8.646548253465237144e-01,-8.639772259241937924e-01,1.074970636875390184e+00,8.267050507383499978e-04,3.589922240875853058e-07,1.705395372610145821e-03,1.939289569854736328e+00
-8.564873365954515094e-01,-8.589576264041162146e-01,1.068664602802388286e+00,1.003316722969295948e-03,-3.332536108967914211e-03,-2.587687263377117831e-03,1.926402926445007324e+00
-8.607897259112752275e-01,-8.630215230315195774e-01,1.060349621504002471e+00,-2.304308316448265299e-03,3.464475339842043458e-04,3.803130917390096667e-03,1.922271728515625000e+00
-8.617496100568697859e-01,-8.610042599880565195e-01,1.060207005890002163e+00,-2.967624538197372389e-03,4.506728164358406001e-03,-9.855916179928739056e-05,1.921606779098510742e+00
-8.616888527342403403e-01,-9.459716197796111947e-01,9.255554211864993608e-01,1.848381002313493476e-02,-4.895112373534706712e-02,-9.468569823269099017e-02,1.840404629707336426e+00
-4.039991291819308716e-01,-1.012724016915074632e+00,4.275833514249111067e-01,2.401393166352723194e-02,-1.982259718980293184e-01,9.095542497752007183e-02,1.308705329895019531e+00
-5.235399172526569167e-01,-1.028268294871093724e+00,7.967361672973922726e-01,5.816065940768426479e-02,-1.558578037768882929e-01,6.538537274305278313e-02,1.661357641220092773e+00
-4.506925844500515588e-01,-9.297978874978232167e-01,4.555732458253559658e-01,9.032050092103420524e-02,-1.780250356325283612e-01,-7.246480461153610719e-02,1.272934436798095703e+00
-8.424174085894708952e-01,-8.223679883603361995e-01,8.586268947486292991e-01,-1.316905943891388169e-03,9.064916620608534301e-03,2.281765016884295880e-03,1.691187739372253418e+00
-1.014482249300848515e+00,-1.226358731941469049e+00,5.739710902834547213e-01,7.133785237084006026e-02,3.705804949898689610e-02,-1.605101674939217460e-01,1.732428669929504395e+00
-8.015714284401592726e-01,-8.196878239135945154e-01,7.333167508118436650e-01,-2.450721474912774794e-03,-2.944415289843715228e-02,-6.295367761807388329e-02,1.548717141151428223e+00
-1.232445273370939454e+00,-7.061421514972832103e-01,5.017385646470975402e-01,1.961826180400906283e-01,-2.214766548689012515e-01,-2.175869228953366818e-01,1.666233181953430176e+00
-8.759994189611689519e-01,-7.388106808131456038e-01,7.218094452741723455e-01,-1.828719161943566398e-05,1.247200172264834594e-01,-2.691805743992234934e-01,1.617606997489929199e+00
-1.059523049015139051e+00,-8.027198694238626420e-01,9.639970570043450149e-01,-5.412193865248204200e-02,5.160277026441311560e-02,-6.275247905744216204e-02,1.915600419044494629e+00
-7.944320069235339954e-01,-8.019847661874618394e-01,6.960360881806532118e-01,1.187484423283040672e-02,5.128674339256842837e-03,-3.494975936039003417e-02,1.495652318000793457e+00
-9.631717586560746280e-01,-6.776175353315808669e-01,1.068222581205489741e+00,2.410959267503301907e-03,1.442890224361751024e-02,-5.496408808279558411e-02,1.907284975051879883e+00
-1.016005744854203474e+00,-4.007557326307996659e-01,4.068929468048976261e-01,3.970683885007316588e-02,-1.381695198718717876e-01,1.898757891399567230e-02,1.261276602745056152e+00
-1.054936496099081689e+00,-8.252859959301894754e-01,7.113508396089280872e-01,-1.364073699215086755e-01,-8.264491528493655981e-02,-2.488946835208714070e-01,1.740413308143615723e+00
-9.260156841574845865e-01,-3.906825988489873169e-01,4.126778633353532788e-01,-1.758830833062865195e-01,2.399457697804872891e-02,-1.212566229597970315e-02,1.207065820693969727e+00
-8.450897451157071139e-01,-9.549004478294448317e-01,5.018315162146694819e-01,3.783075333103492199e-01,-1.380880416365945773e-01,2.456405563639370640e-02,1.569243907928466797e+00
-9.783004109521558078e-01,-7.534881248394252884e-01,6.936055578923236986e-01,-7.324957130122879134e-02,1.260139742972534727e-01,-1.398218390409682321e-01,1.610071659088134766e+00
-9.654965111453364113e-01,-5.513177052288131819e-01,9.649193430763609580e-01,-1.469845199995558835e-02,-2.223747062186175183e-02,-4.965743488308720088e-02,1.762963771820068359e+00
-8.736620938868208119e-01,-8.583881256296262974e-01,1.031523337951908426e+00,5.401079389345766384e-04,4.864780254963676012e-03,-5.061993476110692412e-03,1.897633790969848633e+00
-8.659082323203588505e-01,-8.626608394674762925e-01,1.031465501239902771e+00,1.903728095430962325e-03,-7.547959149345291260e-03,4.950445516626420829e-03,1.895819425582885742e+00
-8.673037819998435927e-01,-8.568796776581319996e-01,1.028689110786662031e+00,4.311989912746005092e-03,3.987640884797230036e-03,-5.244267579891164974e-03,1.890851616859436035e+00
-8.685894202694790511e-01,-8.684682294831863603e-01,1.042864204813891194e+00,1.935585248189480552e-03,-6.863777526544169970e-03,-8.737186633048836743e-04,1.911433577537536621e+00
-8.696228739892521986e-01,-8.503920908662860878e-01,9.903362615227648824e-01,6.676303452673620561e-03,7.613940148868508263e-03,6.459260355672733975e-03,1.850535631179809570e+00
-8.543263721637447405e-01,-8.395923261489831591e-01,9.448342147126544965e-01,1.003880051103064885e-02,-2.021635959223529178e-02,-5.031691449461789430e-03,1.792286634445190430e+00
-8.161972032675696154e-01,-8.344561607356421051e-01,1.041009906332743151e+00,-1.172058398648216128e-02,1.981009227102425649e-02,-1.486956179421798988e-02,1.867007017135620117e+00
-8.367610505632342432e-01,-6.666163300310847806e-01,1.016457673889494151e+00,8.229121588934429354e-02,1.741481571981734781e-03,3.522363740257739018e-02,1.781039118766784668e+00
-1.290728222949144133e+00,-3.262370641833888252e-01,1.261663644779807303e+00,-1.100453977551632267e-01,-3.385924121777903611e-02,2.020087633472154019e-04,2.241195440292358398e+00
-9.637908574641229631e-01,-2.414759535232366694e-01,1.025736500389722083e+00,2.980523338484543650e-01,1.898211938428798207e-02,1.710548142874782629e-01,1.843436598777770996e+00
-8.741274264789892223e-01,-7.249530347601841340e-01,1.193589834429541918e+00,2.622701425494105565e-01,-4.022040520516513562e-02,-6.296663247205323832e-02,2.052403926849365234e+00
-9.197033926239176482e-01,-7.367451144751412384e-01,1.220278402794453765e+00,2.098788082911213493e-01,-1.474500165777177258e-03,-5.407310566590869949e-02,2.088634490966796875e+00
-1.139548480977816247e+00,-5.539880145958435698e-01,1.141227290927104843e+00,4.737572240103236076e-01,-9.849721015985431205e-02,-2.320935909163020575e-03,2.216245889663696289e+00
-9.229527034013867981e-01,-8.904889589195205124e-01,1.111503837677458639e+00,1.757882737829215836e-01,-5.389278632655196410e-02,-4.888811599874690571e-03,2.043406724929809570e+00
-7.743978331069029108e-01,-8.040721774835063451e-01,1.023133083038729962e+00,1.720689587968690518e-03,-2.520165190000362224e-03,-1.477749961519645230e-02,1.812738656997680664e+00
-9.471363014421085857e-01,-4.931439494719780381e-01,1.033877852162443656e+00,-5.126561689746669120e-02,1.392101631459474569e-02,-3.240515179302667914e-02,1.800771236419677734e+00
-7.997951718443223612e-01,-7.761563330856385834e-01,1.019333781831806895e+00,-1.274289386002293474e-02,-5.010078925421258128e-03,-3.104286960899567833e-05,1.807581067085266113e+00
-7.556382719991416863e-01,-7.522129608330619943e-01,9.969145446200684546e-01,-2.254167822345321676e-02,4.662070649571820741e-03,-6.256164578727070429e-03,1.751330137252807617e+00
-8.566707397950912295e-01,-8.554716490433267317e-01,1.067075982545806045e+00,5.982233710759691549e-04,4.965461854923968431e-03,-6.364301613378322252e-03,1.923198580741882324e+00
-7.749503272253366326e-01,-7.664094280945309423e-01,1.008008292933371353e+00,-4.509541939428180803e-03,6.918024536491094653e-03,-7.482864853898692735e-03,1.778808236122131348e+00
-7.333301287519585765e-01,-7.950736817251393695e-01,1.012656900766284673e+00,-9.613468276495272871e-03,2.212778285466253381e-02,-1.893065989030379842e-02,1.778456568717956543e+00
-8.390481127579255682e-01,-7.187794747964104669e-01,4.926277209430903747e-01,2.132402645974257882e-01,-3.903555803752259412e-02,-2.997076162615574524e-01,1.427629470825195312e+00
-9.523553953482011281e-01,-8.534153045049900355e-01,4.873439469853321215e-01,-1.896616711672395941e-02,1.256945270896111522e-01,-4.224313250147514881e-02,1.412058472633361816e+00
-6.219459008814197665e-01,-1.320254202692001666e+00,5.144695824471960943e-01,2.935575994875345290e-02,-2.378442334889454279e-01,-1.027053396760319870e-01,1.666308164596557617e+00
-9.282472035283674261e-01,-7.516118576382132543e-01,4.181259193692221654e-01,4.718370344452022663e-02,-2.835144713002625896e-02,-3.505776832175412916e-01,1.408512711524963379e+00
-8.322403022383270121e-01,-8.438180552652650990e-01,8.612238623379500080e-01,-3.830123776896471473e-04,9.413524572318570510e-03,-3.780453356190967978e-02,1.700622081756591797e+00
-9.317246762956145067e-01,-7.567986376516129265e-01,1.024672412700837754e+00,1.020854016053588699e-02,5.260053520885523727e-03,4.613538197911869546e-03,1.875186204910278320e+00
-8.727881899058551607e-01,-8.318370945375167524e-01,9.838704755601099805e-01,-6.595513374421400898e-03,-2.275378691197992281e-03,3.440695076450106527e-02,1.837531924247741699e+00
-8.422530656631050938e-01,-8.279849849306565313e-01,8.658677006227193385e-01,1.276389708136899765e-03,-9.830507023416973703e-03,8.500008338995371573e-03,1.701182007789611816e+00
-7.758667217695810470e-01,-1.036872469133201857e+00,1.029564519883280571e+00,2.642276262828202951e-02,1.300032678009654385e-01,-2.207207709588812974e-02,1.962954998016357422e+00
-7.265079313560403040e-01,-8.305217317732727089e-01,6.146001607025582958e-01,3.001523474344014453e-02,2.369422863225124354e-01,3.134413234594822517e-02,1.457037568092346191e+00
-7.989519876447804814e-01,-7.911692661594389442e-01,7.000202623040616690e-01,3.240764422915445538e-04,-1.512835424189911022e-02,9.124352071035993564e-03,1.495409250259399414e+00
-7.987482673566208558e-01,-8.746909479590221359e-01,8.147098464958670849e-01,8.309676605163919538e-02,5.570870224764774836e-02,9.473685064653175614e-02,1.669878840446472168e+00
-8.302761865234782324e-01,-8.731603906409948213e-01,8.357627342132720738e-01,1.037820951033580630e-01,3.198028993888754612e-02,1.376258198954189438e-01,1.714985251426696777e+00
-7.646804766450856494e-01,-9.065313937456596083e-01,1.012142559324261226e+00,1.462558225327342115e-02,-3.528138657524245575e-02,-1.284511077334139426e-02,1.853142380714416504e+00
-8.346440007707459641e-01,-8.437528816101805829e-01,7.793144895954036144e-01,-4.476033657840276098e-03,-1.139924321569616567e-01,6.994857579929208979e-02,1.635043621063232422e+00
-1.397959256280242535e+00,-3.643144798376219962e-01,7.885997792660495165e-01,-6.287509278789052414e-02,3.768866588843910320e-02,2.240372226582317272e-01,1.938049435615539551e+00
-9.478107262546225931e-01,-7.226960475973887021e-01,6.854309715639907985e-01,-1.910462969092306673e-01,-1.037552884974565215e-01,1.811405358932277262e-02,1.579007387161254883e+00
-7.914637047309791562e-01,-7.953448786271435367e-01,6.528848453460900370e-01,5.188794063040670819e-03,-7.426854015415301768e-02,4.122931869548543404e-02,1.453785181045532227e+00
-8.797536436286658157e-01,-8.500295791645905430e-01,1.046016808041259072e+00,-1.390574343084615512e-03,5.949832208182748335e-03,1.239813317400680938e-02,1.911231756210327148e+00
-1.162523206144777443e+00,-6.790188181867994333e-01,1.659413078418100485e-01,-1.623855835931418690e-01,-1.407118537404016163e-02,1.796077945569183459e-02,1.198726415634155273e+00
-8.446899322039902458e-01,-8.416471316916620538e-01,5.457891751651975376e-01,-4.441111200060007813e-02,3.452494487375246807e-02,1.452491396473453433e-01,1.414918899536132812e+00
-9.432687783930707726e-01,-3.298833939100294654e-01,6.155317234993279429e-01,-2.808027291460749586e-01,-1.487201160961751922e-01,2.408615625745041400e-01,1.525418519973754883e+00
-8.394559337054404713e-01,-8.428322014648076399e-01,9.132057895839984507e-01,7.336231194143714909e-04,-1.865440005667077378e-03,3.280435246904892660e-02,1.755275607109069824e+00
-7.232989833056154838e-01,-7.557514359843174878e-01,1.482626232513793774e+00,5.217317417471667440e-01,-1.542452961672859391e-01,-2.340501113478858641e-01,2.447666645050048828e+00
-9.132479225218073093e-01,-4.439450618391803660e-01,1.045929850092646163e+00,3.216417776704110776e-01,-3.789744737476603842e-02,-5.847834591657697333e-03,1.858479619026184082e+00
-7.854178624062059244e-01,-6.617429303027172471e-01,1.129389343774329202e+00,3.534735260009252422e-01,-1.174914352362606829e-01,-1.658032360644894621e-01,1.985871076583862305e+00
-4.618342124351240141e-01,-7.327056060750856137e-01,1.017084465499037194e+00,4.553940866890268113e-01,-1.209753575249821744e-01,-2.924669353865409771e-02,1.824771523475646973e+00
-7.600706130214661682e-01,-8.571231835574882885e-01,1.047663844285948498e+00,1.094047797171143407e-02,2.848953155860814782e-02,2.276318326973277711e-02,1.859332323074340820e+00
-5.567851109072261551e-01,-9.405755367947288281e-01,1.252643738452867472e+00,2.101549316319752114e-01,-3.440097804019759398e-02,1.604681283736400163e-02,2.062180280685424805e+00
-8.108732464829985220e-01,-8.667223249396145413e-01,1.045035354777900105e+00,2.349335408907416312e-03,-1.193204022866716299e-02,-1.301638669529943046e-02,1.884706497192382812e+00
-8.007985271003991157e-01,-8.345839258922351789e-01,1.058367063579801037e+00,3.668289005002107334e-02,9.906398364234297524e-03,6.539154504987885856e-03,1.877474427223205566e+00
-8.511721878174004496e-01,-8.879974780575832227e-01,1.082889036039713870e+00,3.580913283041980977e-02,9.557001950227973427e-03,-2.270688369604725171e-03,1.953793168067932129e+00
-7.430275779058074237e-01,-8.558968655174522544e-01,1.035434426778929495e+00,1.249897467406485378e-02,-3.086436284826970036e-02,-2.410051264206665086e-02,1.838877201080322266e+00
-7.943486340818857183e-01,-8.210200439597379329e-01,1.040591956977553911e+00,7.132352267359169315e-03,-1.761096480537176559e-02,-2.155259909026949541e-02,1.849090456962585449e+00
-8.269617702896232547e-01,-8.641730224585921771e-01,1.043836941713023769e+00,-2.328305416976561104e-04,1.641825658904418409e-02,9.706832406031644161e-04,1.889893889427185059e+00
-8.567473437265423764e-01,-8.633807217461735295e-01,1.054174786027785249e+00,-7.973237586844044269e-04,-9.811243800299381326e-03,-6.811916066875201882e-03,1.914359688758850098e+00
-7.959617049618280538e-01,-7.887587378221376788e-01,1.029015810016063792e+00,1.398687564236470587e-02,-7.607342475778613132e-03,-1.267288250981051141e-02,1.821727752685546875e+00
-7.677469172171973444e-01,-9.078463488843753204e-01,1.058117075906306770e+00,2.873274360490536174e-03,2.384440314178130210e-02,3.970392996641887613e-03,1.900259852409362793e+00
-8.646236142770793442e-01,-8.419139484164218645e-01,9.660526448482933404e-01,3.770087602272881831e-03,9.785924580371805834e-03,-1.524991940596971858e-02,1.819710135459899902e+00
-6.299069772077920959e-01,-1.114453015891437637e+00,1.181910386473592478e+00,-1.064833147058190238e-01,7.376362257137404621e-02,-1.158188302114919119e-02,2.108582019805908203e+00
-8.136764904462131520e-01,-8.297815177899077188e-01,9.743397958053563457e-01,-4.934990546843813497e-02,-1.501584847739405489e-02,-2.151550930464148775e-02,1.798729896545410156e+00
-7.907181594891881105e-01,-7.095893577855313383e-01,1.012184366375120659e+00,8.770795546058027248e-02,-2.133182313428703524e-03,8.234873874498227497e-03,1.770329713821411133e+00
-8.186111959174938724e-01,-7.019505232724700949e-01,1.017923036482779819e+00,2.541684137021755011e-02,-2.117374055636673733e-02,-1.637292811643684814e-02,1.782218694686889648e+00
-8.489488258371612472e-01,-6.933513583023670490e-01,1.025738070903513766e+00,1.717340498743222255e-02,-2.364222420368344846e-02,-1.302292459335185372e-02,1.802785515785217285e+00
-8.657727536269876900e-01,-6.871125575560109722e-01,1.027925854403156869e+00,2.613819373871565169e-02,-9.397588636933282280e-03,1.687743839180773711e-02,1.811864852905273438e+00
-7.943415976862800987e-01,-8.252054203095466889e-01,7.653886667768972085e-01,6.622808475503696307e-04,2.295447934781411937e-03,-5.612472997140038888e-02,1.578390717506408691e+00
-8.057691634433804539e-01,-8.241456301673896201e-01,7.428037861227272387e-01,3.120843927571823485e-03,2.048356641568830488e-02,-5.790145084514284474e-02,1.561479687690734863e+00
-7.926486255765120559e-01,-8.170598739710549507e-01,7.377427620104071160e-01,1.830345534642245121e-03,-2.367051489747302312e-02,-7.571023648098292036e-02,1.548851013183593750e+00
-8.215129515276500261e-01,-8.381548063502120005e-01,8.476298265327566472e-01,-1.762961676338512668e-02,6.199285048465558515e-03,-4.100514720497753368e-02,1.679340362548828125e+00
-8.195040610525671232e-01,-8.069738617741529785e-01,7.572321821421290622e-01,1.375879962055875753e-02,-1.632484239254190089e-02,-2.457187990968508207e-02,1.571520328521728516e+00
-1.266478591678428245e+00,-5.516870240496020150e-01,4.031100504261136974e-01,3.561137468538669859e-01,-5.938091521043854272e-03,-1.082478392234864639e-01,1.587688565254211426e+00
-8.055872370903691682e-01,-7.789705614289909041e-01,4.595621017983567702e-01,3.676542852508693504e-03,-9.236766901264278906e-02,-1.274932063689119821e-01,1.281419754028320312e+00
-8.983036595486743048e-01,-7.032386400010065541e-01,1.035384014661320906e+00,-1.110240407857368723e-02,1.802793273040031660e-02,-1.679829013617236896e-02,1.844503998756408691e+00
-9.176880119229878785e-01,-5.942014443735299523e-01,1.047793584689642898e+00,-2.841407513128258941e-02,-9.953443370728296338e-03,-2.018528713945442338e-02,1.826443552970886230e+00
-8.737967372642611030e-01,-5.369501905495678296e-01,1.002016187193553343e+00,-1.165124525531388566e-01,-1.418991491171347173e-02,-6.157943318553698100e-03,1.744053244590759277e+00
-1.032327214532832826e+00,-3.652149892300792788e-01,1.058083697727371320e+00,-1.274497796549901689e-02,-4.759701507001394723e-03,-1.484952262626140773e-02,1.849739074707031250e+00
-1.470822192783835192e+00,-3.460377244875924574e-01,1.397356193363499921e+00,-2.809394950547333680e-01,-7.161152367060000939e-03,2.134534754167210502e-01,2.576650381088256836e+00
-6.335817176247244831e-01,-8.597792471586912511e-01,1.036672085842808455e+00,2.099606981093720195e-02,4.477753332044731582e-02,-5.617060072716230715e-03,1.796149373054504395e+00
-3.203229195290541176e-01,-1.185244800598230119e+00,1.694403697847922441e+00,2.767415178570894474e-01,-1.040920747889988035e-01,-2.472514881353657682e-04,2.609991788864135742e+00
-3.594922131837340329e-01,-9.595371521681066440e-01,1.631453148358390060e+00,4.255715749254065372e-01,1.817247485174798005e-01,2.397945410609508832e-02,2.482479572296142578e+00
-4.408840773366489163e-01,-1.308317062410347731e+00,1.687127227146999253e+00,3.727960510002130690e-01,3.752150263211433828e-02,-2.983349441804500693e-02,2.747836112976074219e+00
-5.307073680897690382e-01,-9.464238445605613892e-01,1.142965298772619542e+00,2.964087267048327590e-01,-2.048657890635835477e-01,-6.242508247550512118e-02,2.017659187316894531e+00
-8.413725040853456960e-01,-8.591679675470457189e-01,5.527150138840010163e-01,-5.015920229094248534e-02,8.269678360590092259e-02,1.487954616276580648e-02,1.413270473480224609e+00
-8.601879250781118147e-01,-8.606676929994672154e-01,1.043975212758090576e+00,-2.013713549363411407e-03,4.637888889920021955e-03,3.949167932842351605e-04,1.904423356056213379e+00
-8.475918655643437383e-01,-8.580637216205658779e-01,1.026041754909811754e+00,9.165634103177833442e-04,-9.900286712990154225e-03,-6.630903291803533217e-03,1.879005432128906250e+00
-8.278640445491652899e-01,-8.486158432104861093e-01,9.665890436156296950e-01,4.594284623700705685e-04,1.730343776191172953e-02,-7.415680246986361066e-03,1.805213093757629395e+00
-8.068200420378789373e-01,-8.240270060697801879e-01,8.332593320360237588e-01,-4.080529298353695322e-03,7.008386707212127531e-02,1.876755497772834153e-02,1.653547406196594238e+00
-3.776334586433049423e-01,-9.727043653795076628e-01,1.015463856437918588e+00,8.240720158009072482e-02,1.606616889785783542e-02,3.158968524190114337e-03,1.773414373397827148e+00
-8.277576595662603509e-01,-8.269258428317997067e-01,8.558364100879798375e-01,-4.052288950165840349e-03,1.236968000291256524e-02,-1.305410289222562123e-02,1.683481097221374512e+00
-3.935268905143843310e-01,-1.134724888568662493e+00,1.260441201755585050e+00,-8.130114087846843085e-02,8.795738444440663606e-02,3.462785769884876245e-03,2.134005069732666016e+00
-5.149783097585541869e-01,-1.262378862368922938e+00,8.331277805665806557e-01,4.412805527755768176e-01,3.824831987753921775e-02,1.443891250819057948e-01,2.008654356002807617e+00
-6.750330984051904348e-01,-9.118941258547356155e-01,1.030276177752491362e+00,2.315782695889804371e-02,-1.795645433209473382e-02,-6.431469096033997149e-03,1.835975050926208496e+00
-6.774346393885609663e-01,-9.331971889244368157e-01,1.034166758963453336e+00,5.156574215237182818e-03,-3.253975915002559061e-02,-1.326110785208401560e-02,1.853790998458862305e+00
-4.954311554816753227e-01,-9.346053561921133790e-01,1.014917339537916519e+00,6.098970431627276367e-02,1.256161005768918109e-03,8.704274599268063684e-03,1.774464368820190430e+00
-8.615416408212509536e-01,-8.416419660031108085e-01,9.608117749965172649e-01,-7.892772376085084238e-03,1.347090268292587892e-02,7.972453417830375338e-03,1.812739849090576172e+00
-8.141240249788032068e-01,-8.403642302509846118e-01,8.314137905458189870e-01,4.840299324822585660e-03,9.566396501947852654e-03,6.827804011290139648e-03,1.658959627151489258e+00
-8.468751364431290618e-01,-8.688249172961448608e-01,9.983536227410718666e-01,-3.338559532979119664e-03,5.061763259542251779e-03,-1.830854955840281392e-02,1.856601476669311523e+00
-9.423975887863251799e-01,-6.060554685679717668e-01,1.052270583413162042e+00,-2.576254152678463666e-02,-1.690096062397089538e-02,8.087504076981787138e-02,1.855641841888427734e+00
-1.051109334860965916e+00,-6.622116306871694835e-01,9.397113798312228816e-01,-2.789697920259204614e-02,-5.261957859245078306e-02,2.403332478470691577e-02,1.831053495407104492e+00
-8.261270701596556965e-01,-8.357587610359957786e-01,8.409100110085263591e-01,4.384579962046835852e-04,-1.434699133008405549e-02,1.672773002579387713e-02,1.672309517860412598e+00
-8.297268941376289009e-01,-8.280894851459169592e-01,1.033000393212067713e+00,-1.981489076441353761e-02,-1.441854877743904868e-02,9.544682381847840319e-03,1.862466216087341309e+00
-8.311707170701521097e-01,-8.481088519730574093e-01,9.140710693419817900e-01,4.528558762735544231e-03,3.246749378324023422e-05,-3.228198611880690738e-02,1.754680871963500977e+00
-8.846687253067165857e-01,-8.594624082611111993e-01,1.013769601450084989e+00,4.729827802315811043e-04,-1.252701479087107474e-02,-7.924903131849313220e-02,1.891074657440185547e+00
-8.475140146487892823e-01,-8.400158133550208461e-01,1.063894105038962978e+00,-4.249513851944075951e-03,-1.455887798704271451e-03,-4.410040320149560995e-03,1.907701253890991211e+00
-8.638324035400654077e-01,-8.649572414320825242e-01,1.065486520318032149e+00,-9.762666975552413730e-04,5.249272757525512943e-03,1.563307514151351810e-03,1.929905652999877930e+00
-8.731875529842550998e-01,-8.655422862314028354e-01,1.061276774370316645e+00,-4.069849439321315820e-03,-1.644278118402873329e-03,-2.258538523552672391e-04,1.930668115615844727e+00
-8.684093240478643061e-01,-8.742011751897987848e-01,1.070458035564001209e+00,-7.516010725021645203e-03,6.394874102239701125e-03,3.953802136019405125e-03,1.941857099533081055e+00
-8.457356478887168016e-01,-8.274723953197608006e-01,1.054939845700515910e+00,1.411460408219461287e-03,8.813794193798579410e-03,1.310154113591475468e-02,1.891809225082397461e+00
-8.570073725015776578e-01,-8.517340727048587912e-01,1.062640749802186146e+00,-2.842604054513033288e-03,9.703080691848704406e-03,-5.717015472530373107e-03,1.917122483253479004e+00
-8.569487124447461301e-01,-8.618033249563215037e-01,1.069590681040979652e+00,-1.351045341983578112e-03,3.338148982308640662e-03,2.383321144684266073e-04,1.928981423377990723e+00
-8.330787929590746099e-01,-8.480209093867738801e-01,1.058754889346032568e+00,2.210534176108587458e-03,8.181549164639586452e-03,-2.430812030661112615e-03,1.899410247802734375e+00
-8.522764997850844626e-01,-8.560047593717140524e-01,1.056381984650770711e+00,4.269051037953421057e-03,3.310210728838694754e-03,-3.895928160545358582e-03,1.910560131072998047e+00
-8.714539394262658112e-01,-6.060042033434474007e-01,1.009383324382536973e+00,-5.459156347469304449e-02,1.500206327364462383e-03,-1.247448465769515451e-02,1.765830993652343750e+00
-6.393543736479847528e-01,-9.721310307681182428e-01,1.067526998608105737e+00,5.554058596159421046e-03,-2.846581571260489371e-02,1.239935976890263643e-02,1.896095752716064453e+00
-9.355847640935252008e-01,-5.019961900182248193e-01,1.030067454627297874e+00,-6.004172349063523206e-02,-9.222379429447794333e-03,2.383779051975665891e-02,1.792282938957214355e+00
-9.189288434110645110e-01,-5.969788427771607342e-01,1.062943222774233698e+00,-2.857731984057812133e-02,1.936275081178430446e-02,1.224033357209365841e-03,1.843090891838073730e+00
-8.723879289420116701e-01,-5.978741445653914521e-01,1.040244210668962666e+00,-5.562513632837681049e-02,1.544630856795044076e-02,-1.322096800013520049e-02,1.794156670570373535e+00
-8.135939510114065243e-01,-5.273844354435687221e-01,1.030076138631913718e+00,-2.488739603912984710e-01,1.921401618441633333e-02,7.133254349069882705e-03,1.772127032279968262e+00
-8.677609156888417274e-01,-6.043539706878641171e-01,1.013079154488291111e+00,-4.606800395159420941e-02,1.937102513106179731e-03,1.086921003453428410e-02,1.765856385231018066e+00
-8.264102721200938806e-01,-6.978525320655415420e-01,1.029607415662511016e+00,-5.774056036611244919e-02,9.685363009966365191e-03,-2.662561232088984670e-04,1.798056364059448242e+00
-5.997128983301445171e-01,-8.785620018674616949e-01,1.113346961252258627e+00,-3.880215023429439691e-01,-4.660499523704576125e-02,1.280134190255446669e-01,1.999343991279602051e+00
-3.916638290968115776e-01,-9.380618499329960169e-01,5.589132946448440720e-01,-9.382026433609463867e-02,-3.509408336584808608e-02,4.069218298556751684e-02,1.325371742248535156e+00
-4.457505732230029882e-01,-9.564549525141111674e-01,9.767702744959299022e-01,-2.535876598243801405e-01,1.154812972795660336e-01,5.021640336542564087e-02,1.803154230117797852e+00
-5.421029308383152889e-01,-1.018682699849383644e+00,1.057174038965032148e+00,-5.514598678200276216e-02,-1.514787351144557953e-02,1.452111353967468557e-02,1.886118292808532715e+00
-5.964163629708374437e-01,-9.725467046441252927e-01,1.013178593085153789e+00,7.059271628226757717e-04,2.992596291215251364e-02,5.492348591331962931e-02,1.830143570899963379e+00
-7.192876734409814343e-01,-8.923100468149233189e-01,9.364829020411920002e-01,1.728481070413871159e-03,-2.880395670549002612e-02,1.718640367069034685e-03,1.749429941177368164e+00
-6.802003893409330759e-01,-9.308798680533453274e-01,1.056035754213552780e+00,-2.320812578805431757e-03,4.639608851826960284e-02,-1.131436296531647574e-02,1.876020550727844238e+00
-7.835038345122782300e-01,-8.408546659577248450e-01,6.268270625724847722e-01,-4.047442910256688481e-02,-1.469818878490232808e-02,-4.081344096786339130e-03,1.441810846328735352e+00
-4.692485739814905576e-01,-9.895177213086990831e-01,1.020014005006489199e+00,2.615243319723743395e-02,-2.621142062480789903e-02,-8.565756433016248617e-03,1.807687282562255859e+00
-4.819507709271234064e-01,-1.082363668631396880e+00,1.045066509453663306e+00,1.161738027449330385e-01,6.945636242142593994e-03,1.853134361916272330e-02,1.910701990127563477e+00
-4.220298460839379540e-01,-1.153619154136153124e+00,1.060936346891144577e+00,-1.087973806423592031e-02,-2.782640373459797228e-02,-4.556628449509658729e-02,1.956589102745056152e+00
-5.229186510230214857e-01,-9.220021453377751364e-01,1.003270351855204634e+00,7.683930436827836330e-02,-1.604818410402213819e-02,1.770793137033108838e-02,1.765509366989135742e+00
-4.548176106166971766e-01,-1.196140715561795131e+00,1.249715125816529548e+00,2.971161616581826509e-02,3.424735666277727020e-02,-3.391806253561141949e-03,2.173661231994628906e+00
-6.019421041643538972e-01,-8.911658013999617101e-01,1.060478770864022868e+00,-1.507079299341825829e-01,1.159263403506030111e-02,-1.870995179314279434e-03,1.843002319335937500e+00
-4.822278022927548591e-01,-1.030866697155027101e+00,1.083969761106052809e+00,2.108942336510944749e-04,-1.094288779800474398e-02,2.267254649990372358e-05,1.900951266288757324e+00
-7.968799187210743318e-01,-7.734107479352587688e-01,8.187733741448421920e-01,-9.274806915882465030e-02,2.600971871248020095e-02,-1.542095515126779698e-02,1.612922191619873047e+00
-4.759509368412264685e-01,-8.810406177542687844e-01,6.570407240084451539e-01,2.560353575947547644e-01,1.669038536039755827e-01,-3.167485895661709128e-02,1.479856014251708984e+00
-8.237765352984806055e-01,-8.757073981527326856e-01,6.612116398795342409e-01,6.483175716686337756e-03,-5.679642268976510533e-02,-1.255505656366392719e-01,1.530390739440917969e+00
-8.098433138269696130e-01,-8.285977154811274836e-01,7.932268683341376914e-01,-1.057100851177025791e-02,-4.002287940129875543e-02,-7.005473903916344114e-02,1.618676662445068359e+00
-8.093702719036681703e-01,-8.176521686350679552e-01,7.684116353831527135e-01,5.031282984805943159e-03,5.100262046025276844e-03,-3.543742686832464239e-02,1.583178043365478516e+00
-5.831443192183727309e-01,-8.907811708624570057e-01,9.192410637165480125e-01,1.213498443088851658e-01,-2.172273266602215910e-02,-2.076318648376386522e-02,1.691412925720214844e+00
-8.141893977928444937e-01,-8.288167818382440322e-01,8.233515002550797490e-01,4.659715159075325866e-03,-7.865978457137023580e-03,-2.731084922740968299e-02,1.645659565925598145e+00
-8.030748009816178756e-01,-8.033340272581547259e-01,7.205032220216942562e-01,1.157714329877180225e-02,6.519206986363475231e-02,1.082548543729559484e-02,1.528132438659667969e+00
-8.599350229635078779e-01,-5.470550039315018598e-01,1.010974978862486440e+00,1.079896813450929305e-01,2.645045287140589574e-04,4.861547680204391861e-03,1.745819091796875000e+00
-9.498952268954671263e-01,-4.904622586358889924e-01,1.135204416955371887e+00,1.199337912327758243e-01,-2.445724170271785722e-02,-2.170191467978974456e-02,1.909742236137390137e+00
-9.153426674566224053e-01,-5.336953463810606424e-01,1.036505876103930524e+00,1.682755262067771040e-01,-1.049724130357767432e-02,-2.732493499883642540e-02,1.816031455993652344e+00
-7.883795159259507912e-01,-7.749736703486427292e-01,1.247557899763267475e+00,3.501442501894089232e-01,6.331725176882574413e-02,1.179857630398873231e-01,2.130614757537841797e+00
-7.517728450862737333e-01,-7.604631988379813023e-01,1.058348439283185005e+00,1.627352427726478645e-01,-6.830177874059867316e-02,-2.536512124923529996e-02,1.840575695037841797e+00
-1.013642156594629196e+00,-6.947627889985763527e-01,1.335797000760002406e+00,3.590568797654735134e-01,-8.183838664447580860e-03,3.201307150096950604e-02,2.293992519378662109e+00
-8.614094719420153368e-01,-6.506360220586557830e-01,1.011808800200569403e+00,1.132253274932113613e-01,3.109753224049362219e-02,-1.191918447986176945e-02,1.788947939872741699e+00
-9.608577434445354504e-01,-5.526264800034988989e-01,1.363573041859196477e+00,4.492486251032795641e-01,-2.981083707638855149e-02,1.114971421407671970e-01,2.294811487197875977e+00
-9.685876059438848218e-01,-3.538134113142248904e-01,1.109099135137775693e+00,3.163661919759688246e-01,-1.311831139170688276e-01,-1.462710270416389680e-01,1.957931756973266602e+00
-9.790497051635662640e-01,-3.390567374485873309e-01,1.211924999329363040e+00,4.119908410732198156e-01,4.380385852791780429e-03,1.139381532044087125e-01,2.087095022201538086e+00
-8.993665186642639808e-01,-8.284586597705608790e-01,1.051557366526099102e+00,4.958752863622190553e-03,-8.376349030534092563e-03,-2.647849956848677064e-02,1.917076826095581055e+00
-8.880506195280212234e-01,-7.952873224428785859e-01,1.033572629531264830e+00,-5.528505276648501381e-03,-6.079966841455089867e-04,1.894028709631545224e-02,1.877272963523864746e+00
-8.698404489100165504e-01,-8.468341292975013479e-01,1.053597971558301927e+00,-1.347791022736506998e-03,1.300047319199322191e-02,-3.135385338950994090e-03,1.912180781364440918e+00
-9.105770287425221099e-01,-6.296504152312762947e-01,1.212981999940552891e+00,-2.942290624545756961e-01,-5.799267307406655303e-02,8.066224865879667583e-02,2.069101095199584961e+00
-5.588667070239355938e-01,-1.012175708897062654e+00,1.314064845604866028e+00,3.033494501815248157e-01,6.751769907522173209e-02,2.020528087247895621e-02,2.203030109405517578e+00
-8.428649190842542049e-01,-8.263287681666170448e-01,9.604886452964465082e-01,8.807771460135036673e-03,1.064081170002378895e-02,-3.029215195055643545e-02,1.796068549156188965e+00
-8.749895013657102982e-01,-8.343268559904933879e-01,1.039278805241951931e+00,-1.263933045495810965e-03,-1.836472216904537101e-03,-1.725997803559841531e-02,1.894504189491271973e+00
-8.717236670827132050e-01,-8.712481197139740896e-01,1.037398255085167031e+00,-6.355681595218360888e-03,-4.202592924992723696e-03,-5.128202631177015275e-03,1.908950448036193848e+00
-8.981794282648704053e-01,-7.919618923922771003e-01,1.036720217127691468e+00,8.640262726095190166e-03,5.964975353147018320e-04,1.732037453023119525e-02,1.884336352348327637e+00
-8.764453579978266351e-01,-8.383226281008061553e-01,1.042041916784545830e+00,-7.740679463284702577e-04,3.353841218666267152e-03,-1.491226338326843287e-02,1.899897694587707520e+00
-8.436167490081358800e-01,-8.506075332785357768e-01,9.229373122490924786e-01,9.563042905193093121e-03,3.040063243720377180e-03,-3.501488226857569358e-02,1.771183729171752930e+00
-8.198343910091951958e-01,-8.359905863364539558e-01,1.053224373838153261e+00,4.493919833117328462e-03,-1.077100923076417655e-04,-1.311118674470651037e-02,1.881342053413391113e+00
-8.092237773603123685e-01,-8.223937882154322976e-01,1.050206054349245077e+00,-2.067948278165470180e-02,-1.408829550918243648e-03,-2.036367765814538211e-02,1.866728305816650391e+00
-8.188765697693791701e-01,-8.059228349783006395e-01,1.042182081393535409e+00,6.333860488656234584e-03,-1.333805577705479836e-04,4.457311084182910901e-03,1.854664206504821777e+00
-8.578479847022857374e-01,-8.580059929901223681e-01,1.069171372800123532e+00,-9.217214927612294101e-04,6.248118398159881355e-03,-4.880918605453938436e-03,1.927147984504699707e+00
-8.008374543775248489e-01,-7.995159131640785510e-01,1.030069655842325460e+00,-1.034744915951211998e-03,9.610661313264630759e-03,-1.232804551339950448e-02,1.830447793006896973e+00
-8.208553274980532333e-01,-8.469090460277876042e-01,1.049359103031764606e+00,-2.171302953631035898e-02,2.724618377727766605e-02,-2.543853592303157649e-02,1.884858012199401855e+00
-7.650102046453232107e-01,-8.260178189560025697e-01,1.031790809037192336e+00,-2.910614087992054871e-02,2.760036500829026948e-02,-1.712178565929069196e-02,1.829628586769104004e+00
-8.450974879732168210e-01,-7.954080890359755962e-01,1.045477607589572422e+00,1.219704866912633447e-02,1.364954142777011041e-02,9.245145299726302557e-03,1.866564631462097168e+00
-5.136299539680501125e-01,-1.008259184221248272e+00,1.042273552651916457e+00,-2.005651272335466986e-02,5.491353260094140876e-02,1.530112239775626576e-02,1.856352567672729492e+00
-4.663035414998163986e-01,-1.004666685135615189e+00,1.023719788924693619e+00,-2.457705605030125612e-02,-2.712666428744329311e-02,1.587986942902537210e-02,1.821250677108764648e+00
-6.535312623863849257e-01,-8.839894576977248564e-01,1.022300002121499407e+00,-1.047423974605575341e-02,-1.041479274586222352e-02,-2.075018148165241882e-02,1.802685976028442383e+00
-5.356848486029606171e-01,-9.430711942911766954e-01,1.021638451880295895e+00,-3.648016625978608291e-02,-1.296805463382963083e-02,-7.618665281829021217e-03,1.797309875488281250e+00
-3.570933767857318308e-01,-9.532028564491171752e-01,1.006388653785131426e+00,-1.501914653496735086e-01,-5.591727072773060303e-02,1.162947139886276807e-02,1.762008190155029297e+00
-6.882930234756723387e-01,-8.915018523522892924e-01,1.028781055686849077e+00,-1.862353553509918727e-02,3.985914592478423391e-02,-1.319231545456143496e-02,1.828904271125793457e+00
-4.650600406375822171e-01,-9.724260334255817595e-01,1.023886690040412661e+00,-1.820064707838458043e-02,3.479804193614849384e-02,-1.022983575666927374e-02,1.798545002937316895e+00
-5.705869646082051272e-01,-9.224868595608506361e-01,1.037812069324463460e+00,-2.162399035189070673e-02,5.959567233112295775e-03,-1.032687765906127250e-02,1.810692071914672852e+00
-5.963479241839799716e-01,-8.813418905452449215e-01,1.033154705910648952e+00,-5.350364653989014146e-02,3.377344455509024602e-03,-1.363126059390799491e-02,1.791669130325317383e+00
-1.170149650143958858e-01,-1.111061472166190889e+00,1.195467392895765535e+00,-7.259593382910980996e-02,-1.102312489879899299e-01,6.232774968434143942e-02,2.019733667373657227e+00
-8.495626869948702531e-01,-8.683856648336006900e-01,9.999664340976357479e-01,-2.040771794300178400e-03,-1.368738899360410349e-03,1.793270227497679656e-02,1.859276413917541504e+00
-9.129370250492266914e-01,-7.706017267167534213e-01,1.064080177171299102e+00,-2.001835758378254278e-03,1.013003081908482074e-02,3.681735329307368743e-02,1.910979747772216797e+00
-9.233303445940320708e-01,-6.882680945753437696e-01,1.048850601175831176e+00,1.217195739084231051e-02,-2.804993594481556760e-02,-3.953074704130132844e-02,1.867795348167419434e+00
-8.634845630195542299e-01,-8.377715340383503628e-01,9.888125233579565521e-01,2.594047081018569824e-03,-1.561279347976593339e-03,1.190498913285250975e-02,1.839698433876037598e+00
-9.632100980450342131e-01,-6.007742673776704789e-01,1.044558789601986337e+00,2.294472533529402086e-02,8.597022222833618915e-03,2.860964313503542439e-02,1.854471564292907715e+00
-9.513607554311320769e-01,-7.305186364951701261e-01,9.999974559405968577e-01,1.321116338808943304e-04,8.134491989869151044e-04,-1.361280424482957420e-02,1.850995898246765137e+00
-7.928410512722893211e-01,-8.900100430349808800e-01,1.038874106824561050e+00,-5.343361479404744666e-03,-3.621437503528320001e-02,2.118699170289917947e-03,1.883252978324890137e+00
-8.633402124374154329e-01,-8.542254355057032900e-01,1.013146647494006070e+00,-5.596419161145221345e-03,1.594442430636326333e-02,-4.998022828804771743e-03,1.872194886207580566e+00
-8.669550750488733692e-01,-8.609047254387210968e-01,1.043100226089510363e+00,-6.015707790268443912e-03,5.504401429748521403e-03,-5.181680920572589652e-03,1.907110691070556641e+00
-8.612866596240483785e-01,-8.659303809098262139e-01,1.040618242588681186e+00,-9.649171843696111028e-03,1.063686110995878259e-02,8.076205480151570776e-03,1.904444813728332520e+00
-8.576989121189755316e-01,-8.702310458777368085e-01,1.032271120368657202e+00,-1.874315676821666950e-03,2.179555891720349158e-03,-3.807232732561798352e-03,1.896285176277160645e+00
-8.774728528574964326e-01,-7.965763763450454116e-01,1.032568828205832956e+00,8.451168433881791828e-03,1.437772659558482664e-02,1.248860723699660516e-02,1.871253609657287598e+00
-8.705005621055994514e-01,-8.483097618667471140e-01,1.051226663143552731e+00,-1.288234112427870046e-03,-1.477175640420736033e-03,-1.507542650003533720e-02,1.910909891128540039e+00
-8.706374174236156671e-01,-7.352039253429833998e-01,8.364331426900930566e-01,-1.437733389259628070e-03,3.498505495351281885e-02,-1.144161897694362801e-01,1.656559348106384277e+00
-8.594516892348915693e-01,-8.613696050274607385e-01,1.030077218529466876e+00,-3.950442473054730994e-03,-8.167149220946465834e-04,-4.147244472644784873e-03,1.890515208244323730e+00
-8.575255997520067064e-01,-8.698808652865495095e-01,1.028420575518594227e+00,-2.262730147591777465e-03,5.917054975478544879e-03,6.879455905071393080e-04,1.892186284065246582e+00
-8.612651567022197030e-01,-8.134019844280702127e-01,1.046413629619421526e+00,4.804453685143770039e-03,1.217202082676963580e-02,1.609608715300913512e-02,1.884545683860778809e+00
-8.614930376329487105e-01,-8.547684622103325358e-01,1.048745331846516304e+00,1.766293258853244555e-03,2.051154463932868596e-03,6.998697136783769979e-03,1.906929254531860352e+00
-8.624729495064963336e-01,-8.612683791002733180e-01,1.026889103556937854e+00,-8.003450436994526129e-03,-7.654293361904256944e-03,-3.953024471321608772e-03,1.888869881629943848e+00
-2.956600306210178664e-01,-1.474081844311603939e+00,8.915962534684038765e-01,1.764423267988518007e-01,-1.433234359578019756e-01,2.249153360598626309e-03,2.086235761642456055e+00
-8.708154238190368712e-01,-8.414340359543218684e-01,1.043664847076044344e+00,-9.451490459667441155e-03,-2.276209731512175878e-04,-2.025873024009651555e-03,1.900033831596374512e+00
-1.018910378900119706e+00,-7.422778466397801367e-01,1.058762503771920160e+00,-6.248233930074449660e-02,-4.856085386966796369e-02,1.677447060257669653e-02,1.959114313125610352e+00
-8.897057838122534035e-01,-7.794237589047819936e-01,1.020131537036025549e+00,-2.987933664629480700e-03,5.300875159848275273e-03,-1.634734603457100796e-02,1.857399463653564453e+00
-8.681324814436821580e-01,-7.832895861161894846e-01,1.012315566649636400e+00,-7.309801443801103825e-03,1.957156236753822970e-03,-1.986693766545678461e-02,1.839863181114196777e+00
-1.116688109841501797e+00,-7.408831821094472581e-01,1.148834028178017164e+00,3.071471137578705296e-02,1.874141042289659970e-02,-4.673026093463437947e-02,2.105435848236083984e+00
-1.018430603091279307e+00,-5.292533620779337200e-01,1.105718639001980197e+00,-3.295798949787728110e-02,5.579000396302468898e-03,6.719406952344574024e-02,1.931091904640197754e+00
-8.568036915184129576e-01,-8.504069168400660850e-01,1.069529788838346374e+00,3.575923666873187263e-03,3.596257509350925426e-03,1.769099744185072178e-03,1.923165559768676758e+00
-8.324467503496286724e-01,-8.393357685500478782e-01,1.055979214868595584e+00,2.739198092045730393e-03,-8.148580360943537965e-03,-4.844526421519671638e-03,1.891957044601440430e+00
-8.563825719595740127e-01,-8.567121458689961333e-01,1.067572890943743413e+00,2.526157146502608420e-06,-7.697181760924278219e-04,-5.242821128323736993e-03,1.924142122268676758e+00
-8.657620835974918494e-01,-8.628032228896697076e-01,1.068200599626941694e+00,-1.004122904850522939e-03,-1.136930967173679658e-03,2.655699006574439207e-04,1.932486772537231445e+00
-8.580729903271954173e-01,-7.515378257232320225e-01,1.048730236182230380e+00,9.824028184331125291e-03,-2.267435593662645715e-02,-2.881825232435300185e-02,1.856994867324829102e+00
-8.329464554630199302e-01,-8.419897125628030832e-01,1.056709889099480826e+00,2.929535145919332211e-03,-1.052198220511708915e-02,-9.240818385870904275e-03,1.894356250762939453e+00
-8.573833195545929042e-01,-8.579894561812420051e-01,1.064296732391789790e+00,1.385836480618078421e-03,-6.330682110015598864e-03,-5.053298122952441102e-03,1.922035932540893555e+00
-8.645857370166979416e-01,-8.672813540468862215e-01,1.035316156508697905e+00,-4.922881868987716465e-03,6.569248558754980406e-03,8.375621644437824045e-03,1.901359677314758301e+00
-6.251083351957590351e-01,-9.287690643660939660e-01,1.293959442013648431e+00,2.046056164169721414e-01,-5.727087316588559684e-02,4.201553262643845273e-03,2.119730949401855469e+00
-6.852078059788948572e-01,-9.027395054915011707e-01,1.011420449676843525e+00,-2.427165488384546571e-02,-3.632927959043696226e-02,2.533243316157146943e-02,1.817302942276000977e+00
-7.437638673976140202e-01,-9.623393404908089366e-01,1.101682088806189341e+00,-1.005962825409533259e-02,1.194320262211689791e-02,-1.662893290476704462e-03,1.964065909385681152e+00
-6.942485299525876785e-01,-9.486694690747053960e-01,1.106536040691729506e+00,-1.915695306836743064e-02,-1.097177593375512315e-02,1.292161962433657253e-02,1.941050052642822266e+00
-3.819908190802159265e-01,-1.125725831676254396e+00,1.062027267484203064e+00,1.384119861132324936e-01,8.875769661326013416e-03,1.180908307848551990e-02,1.941758275032043457e+00
-8.600482944208388547e-01,-8.625360637274100961e-01,1.027492740534103000e+00,8.323833162077080156e-03,3.851848213740336618e-02,-7.207213148760611109e-03,1.890060305595397949e+00
-8.588940956658543957e-01,-8.429937301683914086e-01,1.022161848734921774e+00,-9.688629839652465429e-04,-4.222925236735167696e-03,-2.149981502287833749e-03,1.873175144195556641e+00
-7.874489714173636967e-01,-7.573547390225442433e-01,1.018966351429741568e+00,1.475939737842575823e-02,-9.533027179595521955e-03,-1.101302640624185480e-02,1.791917800903320312e+00
-7.985607603621471817e-01,-7.427289300119340743e-01,1.018204956881478607e+00,7.838333695050374306e-03,-9.975313514910717771e-03,-7.542760127162863489e-03,1.789685726165771484e+00
-8.105137100301921249e-01,-7.204059373225975005e-01,1.012447976533694671e+00,5.642428363379530659e-02,-1.662942474680976015e-02,9.163610528691124718e-03,1.782604336738586426e+00
-8.615396400959531853e-01,-5.905569931384839766e-01,9.990370991714829785e-01,5.582424497303121319e-02,3.715209649052682393e-03,1.417255616099520957e-02,1.743842482566833496e+00
-7.781899404811121190e-01,-7.730118921066321258e-01,1.024696111661811848e+00,3.912924312742637606e-02,-3.166215695713350819e-02,-4.391901313225787112e-02,1.804016828536987305e+00
-8.771224712647005539e-01,-6.003878023961384258e-01,1.038101903835425777e+00,4.693811698529187781e-02,8.824187860218307006e-03,7.865626203498270880e-03,1.794905662536621094e+00
-6.606954193158426358e-01,-9.003291950405447608e-01,1.063440799063382292e+00,2.536862997407638987e-01,5.203603611384913924e-02,2.159765507504967860e-02,1.909404158592224121e+00
-8.648261368831251517e-01,-6.433962904213010869e-01,1.065550981517249030e+00,6.083833533048782494e-02,1.520302944407668153e-02,-4.407912270342177752e-02,1.834549069404602051e+00
-8.589865331551569394e-01,-7.362239986860534824e-01,1.021277223471857232e+00,2.160260368513660517e-02,-3.621327799710646889e-02,-2.485749499003392371e-02,1.823958396911621094e+00
-8.609212480623946728e-01,-8.664483657010544349e-01,1.049853856373296868e+00,3.676112972105750106e-03,5.880696222828296106e-03,-2.006377645356366164e-03,1.913585543632507324e+00
-8.606221180453780262e-01,-8.711235333375112466e-01,1.051427698974500391e+00,1.593825262959908291e-03,5.952736180516709358e-03,-2.766879148256912689e-03,1.917357802391052246e+00
-8.600917083894956683e-01,-8.660659009655390372e-01,1.044333684538099938e+00,3.438074963974386156e-03,-1.035387514972191652e-03,4.695630330496251142e-03,1.907446980476379395e+00
-4.975211904482462200e-01,-9.236066219475812522e-01,1.004518723707573447e+00,-5.692938196161969472e-02,4.818774786433549853e-03,-1.063303076049531247e-02,1.757214188575744629e+00
-8.768909919087022331e-01,-8.079314631523369927e-01,1.049119301536391324e+00,-6.498044659615173808e-03,6.569954373479934724e-03,-2.298769204449306602e-02,1.892959475517272949e+00
-8.550332953092649735e-01,-8.538652958218062583e-01,9.966200886737364151e-01,7.430977420507822208e-03,8.855765143309672974e-03,7.205743979662147976e-03,1.851220011711120605e+00
-8.480276073333999909e-01,-8.715998206891203415e-01,9.789262689871911505e-01,1.900216155840024406e-03,2.436362668198468421e-03,-8.830215996948484469e-03,1.838924646377563477e+00
-8.026470327542887251e-01,-8.765491281249618849e-01,1.052443477067711131e+00,-6.391207910233389841e-03,1.406580135432928050e-02,-1.006997450889782555e-02,1.893393158912658691e+00
-8.494371570418867146e-01,-8.680321233347999543e-01,1.049760376194260658e+00,1.338666320505472280e-03,-1.716624331270451623e-02,-1.854659195769086527e-03,1.908798694610595703e+00
-8.533126371933987819e-01,-8.311595057709448842e-01,9.120527069157544631e-01,-7.137045241636005323e-03,-3.818635680702904545e-02,-2.978724393009932192e-02,1.756441354751586914e+00
-8.508579803574430889e-01,-8.656385671725077557e-01,1.072799629333786253e+00,1.222371898180533512e-03,-4.974451827430226292e-03,1.688851100065139011e-03,1.931112885475158691e+00
-8.688718652726008518e-01,-7.852253616363910060e-01,9.582815950134477845e-01,1.684978921754868020e-01,-8.930761093631865710e-02,-1.848840925907403732e-02,1.817355036735534668e+00
-8.624521496903200246e-01,-8.555802348120425949e-01,9.734457193693448751e-01,-2.050210408791102931e-02,-9.523593010553900104e-03,5.269640576136782294e-03,1.832912564277648926e+00
-8.233963469989720174e-01,-8.142024012223962881e-01,7.788222718507571418e-01,-5.675001336003312677e-03,-4.121843852173198014e-02,-4.679746409788078376e-02,1.601318717002868652e+00
-3.664210328171885189e-01,-9.326536963917352319e-01,6.455835893978116857e-01,2.166250829361538177e-01,-1.294241819603501320e-01,-5.193276805480356167e-03,1.452210307121276855e+00
-7.570589479853981896e-01,-9.376508012845791162e-01,9.885078027298115355e-01,3.140259890598316728e-02,-7.593849114305591640e-03,-9.940553743834677422e-03,1.843442320823669434e+00
-8.544885002361016779e-01,-8.670569087166659639e-01,9.615082834966790504e-01,-6.313249363394266879e-03,-2.301352376730991453e-02,-1.685081776451402905e-02,1.823015809059143066e+00
-8.272269466954134121e-01,-8.324809766644746256e-01,8.830852837903195862e-01,-4.001692479122861447e-03,-5.716349732939774581e-02,-1.619255148949822745e-03,1.715820670127868652e+00
-7.643684452210793845e-01,-8.871821571618935254e-01,9.766195360289966487e-01,2.053541612595828278e-02,-4.279319964302761951e-03,1.607817152284013798e-02,1.806110501289367676e+00
-8.544291788136111343e-01,-8.732533881512246632e-01,9.454331015071781863e-01,-9.483271323056794572e-03,-1.153218249806204666e-02,-3.840263810033447966e-02,1.810754656791687012e+00
-7.082266638217267207e-01,-7.845215020746165724e-01,4.961424353262509079e-01,2.011923225093061873e-01,-2.660795897761181750e-01,-1.485287953661427185e-01,1.395788431167602539e+00
-8.511187930020193138e-01,-8.384395141877529767e-01,1.059702077184571989e+00,-2.703138365457957194e-03,9.486996018406840649e-04,3.366840754453827821e-03,1.904528260231018066e+00
-8.648543763289194830e-01,-8.570605341962366230e-01,1.026453839657676115e+00,-3.058518172600546356e-03,1.882014616503832616e-02,1.294703044910106710e-02,1.887845516204833984e+00
-8.596685583217306137e-01,-8.608557773562245385e-01,1.044555309431832502e+00,-5.456054800779607666e-03,-1.119020078101050190e-02,-1.418317920993902338e-02,1.905098199844360352e+00
-8.549950690692303956e-01,-8.611332612717303991e-01,1.052745508687986664e+00,1.086513747133319510e-03,-9.893488499550406878e-03,-6.910155316506004855e-03,1.910932302474975586e+00
-8.533731938216119195e-01,-8.617370027674788879e-01,1.032111070444522438e+00,4.951934686314610028e-03,-1.677162953969684595e-02,8.480483675410500563e-03,1.889979839324951172e+00
-8.622081838946921151e-01,-8.506407851420954014e-01,9.943469568036933381e-01,-5.041993045468319036e-03,-6.556702389465983091e-03,1.929650971933793979e-02,1.851155757904052734e+00
-8.585430957738270363e-01,-8.512251254204746820e-01,9.717094217760229302e-01,-1.257132491972277714e-02,1.978758011707496683e-02,1.590470333658141472e-02,1.827263474464416504e+00
-8.548700867778660228e-01,-8.532295760196777490e-01,9.878268732761503745e-01,-1.019775947760818285e-02,-1.053133619874659956e-02,1.742935186400833628e-02,1.842299580574035645e+00
-8.366932637178170484e-01,-8.186696938502709964e-01,1.050534250829633809e+00,-1.744084862133974800e-03,1.431744726217936033e-02,-2.279830101149369313e-03,1.878450870513916016e+00
-7.252656290313423959e-01,-9.760530611116843280e-01,1.209443291353497596e+00,-1.529048223597771483e-01,-1.487732569550353351e-02,-9.229564859121066819e-03,2.088600635528564453e+00
-8.606959123403884471e-01,-8.472491817757247246e-01,1.005657774060478182e+00,4.229903641589077140e-03,-1.544919957949455883e-04,2.084773126616797437e-02,1.860031723976135254e+00
-7.950874354178648629e-01,-8.447011064716151152e-01,1.052967471177524983e+00,1.621909357714125879e-02,1.522750837109160954e-02,2.581793698103814275e-02,1.874284386634826660e+00
-8.596722252454317426e-01,-8.560702868646624664e-01,1.067666554760828612e+00,2.099670444947077975e-03,4.687008163677203187e-03,8.152725045545603302e-03,1.925612688064575195e+00
-8.291263738985201748e-01,-8.314843970514590454e-01,1.052982838817871025e+00,3.656486940359074487e-03,6.138818208697547837e-03,7.291196184684234707e-04,1.883330464363098145e+00
-8.058398721245190188e-01,-8.178783893323098297e-01,1.040500798317913533e+00,-5.203891364478957851e-03,-4.683584884893241332e-03,-2.113708461873237739e-03,1.852432608604431152e+00
-8.330419163023911056e-01,-8.553728067494261733e-01,9.627429905304003555e-01,2.701262050836894329e-04,-1.759805567764780032e-02,5.440976383035104214e-04,1.807311177253723145e+00
-9.230560685410413857e-01,-8.504070370094195530e-01,1.113606142012120159e+00,5.786309024741048690e-02,-3.081361616734380401e-02,-1.282087493178023785e-01,2.016808032989501953e+00
-8.614078405246433645e-01,-8.629811244399404613e-01,1.041730871019544535e+00,1.745149477851478748e-03,8.119999759714778206e-03,5.490679924049618986e-03,1.904003977775573730e+00
-8.464316657137092026e-01,-8.729964603370933274e-01,1.053814970181221611e+00,-1.509505751631447148e-04,2.331675121879819845e-02,1.619025396856700258e-02,1.914298892021179199e+00
-5.701379508939808938e-01,-9.296972252383394197e-01,9.465128846505197480e-01,4.213006601194421025e-02,-1.588224480070138736e-02,1.264903263437900695e-02,1.726673126220703125e+00
-8.799362002416055706e-01,-1.002679504804788735e+00,1.004794786345829083e+00,9.559348551921682466e-03,1.061642408589693748e-01,5.474495156147849567e-02,1.960023641586303711e+00
-4.778832173419274576e-01,-1.239559132923821805e+00,8.408214610923350207e-01,-1.060763030612146274e-01,5.960692143768701184e-02,-1.085245888418307075e-01,1.844805121421813965e+00
-8.611626986784424176e-01,-8.541625373579551095e-01,1.048805576144458795e+00,-2.801067921280499771e-03,7.942248439116523151e-04,4.548165588451898167e-03,1.906500816345214844e+00
-8.563316192743659627e-01,-8.591216245627562031e-01,1.049959112717137044e+00,3.703322710562109146e-04,1.584026794945388476e-03,6.337761662246278564e-03,1.907720923423767090e+00
-8.731362693746198556e-01,-8.597756349666706432e-01,1.042473584737703574e+00,-2.660559845117242087e-03,2.626945489534088501e-03,-3.385411134524029132e-03,1.908984541893005371e+00
-8.570597666055509434e-01,-8.602473051850922925e-01,1.048147019150289072e+00,1.662645401000403377e-03,4.951190565502214778e-03,1.358273123199687550e-03,1.906825423240661621e+00
-8.638906731108297876e-01,-8.576263304438407342e-01,1.034433930517162592e+00,-4.328171982833546767e-03,-7.316084913651382457e-03,7.041365479687994137e-03,1.895296573638916016e+00
-8.527089990180507506e-01,-8.425213712295956947e-01,1.023305493678835054e+00,1.514282467628144148e-03,7.616948728608591117e-03,5.222114617966388704e-04,1.870990037918090820e+00
-8.063853583870486119e-01,-7.943807994046570009e-01,6.983986872034975146e-01,3.761165878588773256e-03,-5.083322271500481659e-02,2.478489416537981924e-02,1.502029418945312500e+00
-8.002927657667724404e-01,-8.052411721854950688e-01,6.975548564032423293e-01,7.510735887197953278e-03,-4.457298889661853725e-02,1.884028742149602888e-03,1.502372860908508301e+00
-7.409837049886829341e-01,-7.280021234966542742e-01,4.353293376919808999e-01,2.696496195302327745e-03,-1.446932019492322766e-02,3.470784266148781161e-02,1.171697139739990234e+00
-8.026916740350505952e-01,-8.006224823562261284e-01,7.055239843644303122e-01,8.049447541294094122e-03,-3.484938870168387964e-02,7.847547624124645918e-03,1.508515954017639160e+00
-5.524040094960044334e-01,-9.451279968372993112e-01,1.028711012694369042e+00,-6.253908683638195742e-02,-3.367643666603116481e-02,-2.832536149918193913e-02,1.814563632011413574e+00
-9.090952564657883705e-01,-6.653914723524375630e-01,1.072938682381330722e+00,4.747301274850637687e-02,2.996091867171787534e-02,-1.755595886881484036e-04,1.874639987945556641e+00
-8.642867821841380138e-01,-6.196994323689279938e-01,1.019542692196887090e+00,7.042143304687034644e-02,-6.823021414276245764e-04,-7.673107533248789934e-03,1.778463125228881836e+00
-9.187305723228623711e-01,-5.722163089352685361e-01,1.041661924472697009e+00,2.094339936104523334e-02,1.966756172593066634e-03,9.287427475838265500e-03,1.812592983245849609e+00
-8.981105713124408751e-01,-5.483974386519331334e-01,1.006517663175850785e+00,2.728775248886505800e-02,1.028535135505588560e-02,5.948096389040945925e-02,1.759829401969909668e+00
-1.005197126974609834e+00,-2.944857539416084746e-01,1.015838292244356733e+00,2.081394113030890503e-01,-8.325793483116056271e-02,-1.495987613935605143e-01,1.836089015007019043e+00
-9.118785906954125497e-01,-7.044705502342404335e-01,1.067737136868235126e+00,-5.708123929868613375e-04,-8.198096273490261890e-03,-2.900819050878956917e-02,1.885214924812316895e+00
-8.601065266010685662e-01,-6.257978519306042209e-01,1.013057747292953170e+00,6.089851330102766247e-02,2.783206946797807130e-03,7.091242182188895252e-03,1.770888566970825195e+00
-7.651881289043462875e-01,-7.946910397047132202e-01,1.020599093426050707e+00,-3.890264965467428449e-02,7.235432132897384912e-03,-2.467007839926337390e-02,1.802530288696289062e+00
-8.655246358498528414e-01,-6.335134673267872607e-01,1.032266723892107718e+00,-4.503718394889759391e-02,2.481027011437595547e-02,-3.601209494598301558e-02,1.796372652053833008e+00
-7.735171306088541865e-01,-7.422805898172802896e-01,1.000811584346690264e+00,-3.078797691962036065e-02,2.667435427093718670e-02,-1.526013054046278412e-02,1.760531425476074219e+00
-6.370765659741223219e-01,-1.030125733890146833e+00,1.623876653035356776e+00,-5.789151288242774251e-01,-2.081622779981095669e-02,1.017892782487886949e-01,2.681953430175781250e+00
-8.397252890700427352e-01,-6.541948201709139044e-01,1.017530148977395354e+00,-1.175458068602982520e-01,-2.327593921903150533e-04,-4.153889232295771179e-03,1.783464312553405762e+00
-6.854576007884065625e-01,-7.683481755337723262e-01,1.004135316094106445e+00,-1.189650367804972741e-01,-2.193993004564439436e-02,2.047801595589544138e-02,1.745510458946228027e+00
-7.742470519379572869e-01,-7.686026645271538671e-01,1.016700605925733081e+00,-3.103755093832669815e-02,-5.040007877508797390e-03,6.249359614807185534e-03,1.788994073867797852e+00
-7.887570621467235865e-01,-6.797321145299499712e-01,9.948755597723815125e-01,-4.538826386999004342e-02,-2.315351744940777681e-03,-6.144043769440147088e-03,1.733516931533813477e+00
-8.608467837868263306e-01,-8.111086737590109674e-01,8.420930831578061770e-01,-1.537399705072285162e-02,6.633802407119983313e-02,1.022795116220368570e-03,1.682763099670410156e+00
-8.322379496988767666e-01,-8.618843604720379803e-01,8.252016363150198597e-01,1.617078389329273599e-02,7.668612640413244785e-04,3.429175658075916261e-02,1.673749089241027832e+00
-5.699517817982497903e-01,-9.817455480182835093e-01,1.059060226409764605e+00,-1.585426423810959093e-02,3.523523807858452983e-02,-8.473614850060338499e-04,1.870441675186157227e+00
-4.625765232650149716e-01,-7.889839497475501506e-01,5.872963778536280932e-01,-3.516197758247051608e-01,-1.496493222853007565e-01,2.295170724184295453e-03,1.410521626472473145e+00
-9.106062359954478769e-01,-9.546590730334812980e-01,1.075147395004020678e+00,-6.663966709478112704e-02,-3.232470052953967388e-02,3.215015488880014483e-02,2.013006210327148438e+00
-8.502472563005188944e-01,-8.674107994751096840e-01,1.038987998790239953e+00,-2.046135945233470629e-02,-7.943980847019809985e-03,2.722994890609395022e-02,1.898841738700866699e+00
-1.120646750652776635e+00,-4.618708729568515858e-01,8.750228670139423848e-01,-7.680866199438532438e-02,7.981877719091398649e-02,1.818231722384508198e-01,1.799437284469604492e+00
-9.641488648083276214e-01,-7.164115858051012253e-01,5.136459218402218418e-01,-5.520990998517162629e-02,-5.560598844720491402e-02,4.573193339117770373e-01,1.589021682739257812e+00
-7.189319188567158125e-01,-1.059511454218535320e+00,4.521777173190220100e-01,-3.585360843643675688e-01,-3.894145542429033879e-02,-1.839415501841764056e-01,1.542091250419616699e+00
-7.010108714844249800e-01,-9.218740897517954114e-01,9.802604885150356662e-01,-3.577981461706856992e-02,-2.059021997525863068e-02,-3.022108190881265567e-03,1.803309440612792969e+00
-7.842850666522891423e-01,-5.471981781867467642e-01,6.950116259313943168e-01,-2.759525306669004530e-01,-5.338004665745530591e-02,-3.721641676968023837e-02,1.461150169372558594e+00
-8.813718999560139489e-01,-7.551432467395517989e-01,9.751444062867309359e-01,-2.670302115958203548e-02,8.119328862840079208e-03,6.232614293955753004e-03,1.797413229942321777e+00
-1.204601122954009229e+00,-5.950800702716870783e-01,4.833674945604289341e-01,-3.527164132054438350e-01,1.539299888149043005e-01,-7.995105178860680353e-04,1.623641967773437500e+00
-8.487410639977143179e-01,-8.595443112262350915e-01,9.892288449752832946e-01,5.169851019721471465e-03,-8.002583903611222918e-03,9.058316446356132895e-03,1.843535900115966797e+00
-1.040014195077518355e+00,-7.395121126900041642e-01,1.124671707261657438e+00,-6.058460774345457434e-02,-5.406636701469712952e-02,5.711321423769361721e-02,2.038440704345703125e+00
-5.455936560312348860e-01,-1.040256014089907755e+00,5.560584511007163888e-01,-1.329490337040678261e-01,3.236246838940197157e-01,-1.694075662709213226e-01,1.567353129386901855e+00
-3.857366198639830546e-01,-1.007014910892526816e+00,1.005260103349582046e+00,2.966968227766770827e-01,-1.284590375936574616e-02,4.474245188805170415e-02,1.858935832977294922e+00
-7.927720277042734631e-01,-8.686241815749449202e-01,1.048571097488663284e+00,2.974110070109221154e-02,4.920189726235327243e-03,-1.477857456160144335e-02,1.881315827369689941e+00
-8.376349271373788596e-01,-8.829968356166340016e-01,1.042654131022735298e+00,1.362278265177292204e-02,-1.255606098919999532e-02,1.319525066822727945e-02,1.903783082962036133e+00
-8.731885184034202663e-01,-8.828525102004896041e-01,9.585942795240087744e-01,1.140564113417821684e-01,1.026634227936259330e-01,2.013739133468563092e-02,1.856094360351562500e+00
-8.643584773212966699e-01,-8.544297010474463105e-01,1.005325341657739013e+00,-1.296184837769196602e-03,-1.680575382112166338e-02,-3.940545985276774389e-03,1.864980220794677734e+00
-4.491321483317925467e-01,-1.226947089014397640e+00,1.107813202172275746e+00,4.172046004919653939e-01,6.598465580599775782e-02,-9.046070124158614445e-02,2.190862894058227539e+00
-5.907516336491066555e-01,-9.571029437548395080e-01,7.001786901587176981e-01,1.254036204834892421e-01,-8.317331446820976082e-02,-1.325580556509949048e-01,1.547350883483886719e+00
-4.380952978810713772e-01,-1.402612373717210037e+00,7.872481274423872577e-01,9.744524129702961113e-02,-6.931188509496760686e-02,-4.065515015375906899e-02,1.913499951362609863e+00
-7.643390833633703085e-01,-9.191869036000166471e-01,1.106471343700164311e+00,2.153342701950096416e-02,1.996785729222820896e-02,2.615894932681502721e-02,1.954031825065612793e+00
-8.578535699421645511e-01,-8.745465661906589583e-01,1.019707967267665660e+00,6.429892989066228210e-04,-1.444665104809376164e-03,-4.352786083144941434e-03,1.885980486869812012e+00
-8.508983112408641247e-01,-8.665722393333655793e-01,9.949435102865911151e-01,1.812534397558258643e-03,1.168447894299836037e-04,1.534362146361385737e-02,1.853921651840209961e+00
-8.239282884375781491e-01,-8.503632568433913130e-01,8.899589970950165796e-01,-2.985124995288203006e-03,-5.360311337368991232e-04,4.170638039096046662e-02,1.728774428367614746e+00
-8.595164764324458861e-01,-8.401978483410621479e-01,1.039536019514166520e+00,2.815542185304787878e-03,-9.325047887859431311e-03,-2.328284604995518436e-03,1.889546871185302734e+00
-8.520165796171902395e-01,-8.696144443319857587e-01,9.913600989701392141e-01,-4.913947826554731016e-03,3.266468429218445744e-03,-7.516718577113497106e-03,1.852312207221984863e+00
-8.736169262054105378e-01,-8.448802995288902107e-01,1.040950825698492066e+00,-3.523292740493769084e-04,-6.367219057156070375e-04,1.196575380605406289e-02,1.900475859642028809e+00
-8.573359742743779099e-01,-8.725927645198826577e-01,1.024739853006092494e+00,3.501824476170186350e-03,1.390884665442767947e-03,1.010671187809797540e-02,1.889842748641967773e+00
-8.694186911399814921e-01,-6.748963535238414746e-01,8.037823775094266043e-01,-1.365523451514519086e-02,1.048312979895251558e-03,3.235734774624503263e-02,1.586086153984069824e+00
-8.587117814139442196e-01,-8.711044828975953447e-01,1.033287260712261180e+00,-5.329202063994063418e-04,1.781873512256413510e-03,5.899263752647592764e-03,1.898255944252014160e+00
-8.574590662176995171e-01,-8.695087071485521069e-01,1.032265915321940675e+00,-1.910899905887616414e-03,-3.830493891041954115e-03,1.132017721810319420e-02,1.895894408226013184e+00
-3.671579213519101659e-01,-9.485785354235984901e-01,7.804513198169622523e-01,-2.080258153060132731e-01,5.165762937426121582e-02,8.172497433352316626e-03,1.568544149398803711e+00
-6.861957391884808688e-01,-9.017080079693069461e-01,1.017242937349566390e+00,-1.117655783235702374e-02,-4.148894734706413262e-02,1.276178845547920604e-02,1.822440147399902344e+00
-8.189105570375417864e-01,-8.479102862454158673e-01,1.058955794473257939e+00,-1.847003765747895140e-02,-1.258230754086712803e-02,2.794594653610013926e-02,1.893547415733337402e+00
-5.625169020380512697e-01,-9.415800915508654167e-01,1.039784707230163807e+00,-3.433751090566913161e-02,-5.246620644467261257e-02,1.143455051481428661e-02,1.824998736381530762e+00
-5.830948498332915175e-01,-9.499267716700321440e-01,9.949977971356849249e-01,-1.575499692994760531e-02,-8.386767297457282944e-02,-5.382575241022963860e-04,1.796018838882446289e+00
-6.699454678398670815e-01,-9.360049845266936730e-01,1.076527969656047246e+00,-3.586510225632024568e-03,-6.745897307786670981e-03,-1.766374209699681994e-02,1.893867492675781250e+00
-5.009103794831213374e-01,-9.398143087027616138e-01,1.017302016360049466e+00,5.624056090761216792e-02,-3.932854313035308996e-03,-6.240121155464376131e-03,1.781462073326110840e+00
-6.106611204683399796e-01,-8.724149037746915525e-01,1.014789408439560781e+00,6.040642184496126249e-02,9.185470221190882717e-03,-8.095423513600418734e-04,1.774055838584899902e+00
-6.039237989276562413e-01,-8.659835613287694134e-01,1.001615298307366730e+00,4.430484117106124609e-02,-1.214662534018614605e-02,3.445110810861159393e-03,1.753152966499328613e+00
-4.669571309800884529e-01,-9.546848890502394047e-01,1.009307662038869013e+00,1.326802623929069780e-01,-1.602219705544477568e-02,-3.162128626777671158e-03,1.786298871040344238e+00
-3.361309024672849421e-01,-8.631843794806830505e-01,1.102298275452532117e+00,4.088021796212250036e-01,-3.777672657135976533e-04,-1.331220833318636464e-02,1.899179458618164062e+00
-8.545703499825105798e-01,-8.637659599001009658e-01,1.005156967834114790e+00,-1.022928545686031289e-03,-1.218846768004355850e-03,9.691416834995032759e-03,1.864419698715209961e+00
-8.495374840758245227e-01,-8.660210569289046312e-01,9.956887129725127128e-01,-1.646216547683813491e-03,-7.517692792416221263e-04,1.932057916242439430e-02,1.853827714920043945e+00
-8.697845699786311835e-01,-7.843145784630369821e-01,1.002559622377935389e+00,9.340078153816956923e-04,-2.133575393196955865e-03,-1.117464474552402019e-02,1.831212639808654785e+00
-8.589610990120556400e-01,-8.512309078192541456e-01,1.021409494147094588e+00,-1.777413377925820669e-03,-2.405177773070688290e-03,-6.822213677548000059e-03,1.876561760902404785e+00
-8.600861248439590767e-01,-8.700940307820194120e-01,1.025652526203592929e+00,1.481307677239062368e-04,5.987056633625446531e-03,1.061458494874884841e-02,1.890880346298217773e+00
-8.719296264663651819e-01,-8.709688376377285879e-01,1.035170870829716927e+00,-9.918178357213619945e-04,-1.886847786872492818e-03,7.827935343891256892e-03,1.906672120094299316e+00
-8.549368263353932518e-01,-8.660127500243482990e-01,9.967082951527472812e-01,-4.204966391461597923e-04,2.254157019660332946e-03,1.859602859445139145e-02,1.857491374015808105e+00
-8.329333410618050548e-01,-8.234709384694359757e-01,8.593063000417469066e-01,6.299085548141901067e-03,7.082191017995621320e-03,-6.180523564408088588e-02,1.690999984741210938e+00
-8.562962312162485379e-01,-8.769485890505386294e-01,1.033737285603109735e+00,-7.220707764157070774e-03,5.379932948650386140e-03,-8.751049837758517400e-03,1.900568246841430664e+00
-9.381219124286348521e-01,-8.533251524650542486e-01,1.081891041457416103e+00,2.576261683475056241e-02,-1.056540813673651153e-03,-1.088514000035490335e-02,1.979571223258972168e+00
-8.668624518481589103e-01,-8.732741176171925357e-01,1.038385844147988957e+00,-4.648566392369149567e-04,-4.116013448322840295e-04,-9.395325556066976697e-03,1.908531904220581055e+00
-8.547603901644407198e-01,-8.718332862296749308e-01,1.026059243276126853e+00,-2.256658246939672523e-04,-1.533125717203366774e-03,-9.151412100332049354e-03,1.889482378959655762e+00
-8.442345550506040741e-01,-8.712782679146098275e-01,9.825075093306612217e-01,-2.490896808655459690e-03,4.555372114778742307e-03,5.831349459535216731e-03,1.840462684631347656e+00
-8.258881904358096326e-01,-8.478194301010040235e-01,8.995412806630316283e-01,-4.095927022128106713e-03,3.547381197756702131e-03,-3.347440224929640329e-02,1.737491965293884277e+00
-9.261130574749100175e-01,-8.241698356173748907e-01,1.205469219182722096e+00,-1.913613104169785140e-01,-3.119834615441816408e-02,5.691898410962024230e-02,2.111689329147338867e+00
-1.086961620422324692e+00,-4.886221692685171480e-01,1.088201415850919895e+00,-1.573042993622054408e-01,3.225065647675507546e-02,-2.006359589012559341e-01,1.996491193771362305e+00
-8.412116226679863251e-01,-8.489139283935460689e-01,1.011790510300539569e+00,3.683605044517748815e-03,-5.919183323191782968e-03,1.749774102555672723e-04,1.856904506683349609e+00
-8.601264799919817738e-01,-8.592271007966970631e-01,1.033187387247699540e+00,-1.868135451591347151e-03,1.302621762632157759e-02,8.748397185903117323e-03,1.893062233924865723e+00
-8.678174963863569680e-01,-8.689678682167708557e-01,1.037482051667858451e+00,-1.792060445869690655e-02,5.333003225834715734e-03,1.552878706630905206e-03,1.906152009963989258e+00
-8.385651132224022364e-01,-7.991603967968171629e-01,1.045378851744161564e+00,2.437104726207359271e-03,1.221889270272163465e-02,-1.185577485823524624e-02,1.864791870117187500e+00
-8.448175949515333016e-01,-8.560840057982714857e-01,1.064858494609615125e+00,1.484858647945254883e-03,4.726236271901807905e-05,-2.658025391554046622e-04,1.915335893630981445e+00
-8.599818569843501459e-01,-8.607935753757844921e-01,1.063755845999803107e+00,-3.579094529716388812e-04,-1.101761807957213948e-04,1.314080513225451309e-04,1.924143791198730469e+00
-8.161508487777471288e-01,-8.114063736678064354e-01,1.040901619771533504e+00,9.839134482874741308e-03,9.389827931930796318e-03,-4.482385433969009354e-03,1.854850649833679199e+00
-8.660665747984362950e-01,-8.601381205377089945e-01,1.042122233665937703e+00,-7.402594296505832228e-03,7.658879684520739951e-03,-1.814541064850396998e-03,1.905323386192321777e+00
-8.974456212017242196e-01,-7.300122695600483880e-01,9.558115343585207313e-01,-5.607976805802205970e-03,2.995699842317379319e-02,-2.988421927971812025e-02,1.777010083198547363e+00
-8.957684921287890623e-01,-6.752200731040751691e-01,1.020848528018027723e+00,-2.071826243953298063e-02,1.559860931357372194e-02,-2.663087357134794400e-02,1.817553520202636719e+00
-9.877929526953068695e-01,-9.215468581932578784e-01,1.164534466469075102e+00,-1.753048809423972954e-01,-3.965282951323043092e-02,4.041205792165234595e-02,2.143858671188354492e+00
-9.744868104026410682e-01,-4.967005239343667555e-01,1.060217493951947088e+00,8.614122366710535300e-03,-6.637686658890181411e-03,-2.197740284576412198e-02,1.843353271484375000e+00
-8.579287951851599647e-01,-8.145699439846824097e-01,1.041519445586090553e+00,-5.528338903561738280e-03,1.082319547545386972e-02,-1.236384864213581000e-02,1.878384232521057129e+00
-7.123950536332601668e-01,-8.203801478735540664e-01,1.033081329272346638e+00,-7.108771628923639396e-02,-9.318432046199270295e-04,-2.078109178884107906e-03,1.806103587150573730e+00
-6.235782104893398126e-01,-9.582527681979141621e-01,1.050645573887556639e+00,7.036567757167614279e-04,-2.653497220377987534e-02,-6.332824253461836507e-03,1.864828824996948242e+00
-9.751010148170554670e-01,-5.307954519801565407e-01,1.034695524890704821e+00,3.425546770427517762e-02,-6.958839043398669724e-03,1.410930857707768521e-02,1.829751014709472656e+00
-9.605502802813171703e-01,-5.476461495216409237e-01,1.047537539588033306e+00,-1.340228549146129516e-02,1.118929503406644946e-02,-1.886171076591027645e-02,1.837318897247314453e+00
-9.784565868006229739e-01,-5.313252173116363997e-01,1.035002885968099529e+00,-4.911684890296407618e-02,-1.263390561276456908e-02,-8.177831307812234024e-03,1.833461642265319824e+00
-9.433637114236556043e-01,-5.492486735199146874e-01,1.074359093420137246e+00,-7.621938090946936417e-02,-3.989198322972157054e-03,1.923579891865569505e-02,1.857391476631164551e+00
-9.324690276436440328e-01,-4.951360587433564775e-01,1.028070070825114479e+00,-6.438445839023314299e-02,6.632299506393735458e-03,-1.445521175073549540e-02,1.786269903182983398e+00
-1.287366806696702559e+00,-2.917239608530931561e-01,1.192302084900668246e+00,-3.389882456645744169e-01,5.326407192603861002e-02,1.922370640659812890e-01,2.266123056411743164e+00
-1.063166415021766120e+00,-1.956353923837599595e-01,1.117682358137484400e+00,-1.700201934960778594e-01,-3.215432917780307754e-03,-3.607953371178980462e-02,1.925464749336242676e+00
-1.043564693097663421e+00,-5.643065785158053460e-01,1.105670542177873861e+00,-4.005477678459213320e-01,9.447575457577522817e-02,-2.173589541938943936e-01,2.113927364349365234e+00
-8.603860342794902305e-01,-8.628353077010209038e-01,1.002467518348045594e+00,-1.966031705161480451e-03,2.373659855631261514e-02,-1.846749239933573317e-02,1.864810228347778320e+00
-8.935915589837376549e-01,-3.223031310064201072e-01,1.095141654790427577e+00,-3.930697053127832907e-01,-7.089922987483689154e-02,6.052323510409347157e-02,1.906533718109130859e+00
-8.875491236911146054e-01,-8.116447123633889760e-01,1.078351380932421888e+00,-4.099781596805797401e-02,-2.340755782704033450e-02,-3.055526249690784096e-02,1.931526064872741699e+00
-7.840434140799384943e-01,-4.930097776585374292e-01,5.996874375542227131e-01,-3.372437409812777398e-01,8.918043372529030344e-02,-1.370028153566212603e-01,1.420587301254272461e+00
-8.348220927980820605e-01,-8.206322405467776360e-01,7.531975290647037191e-01,-7.415340287009112956e-03,-7.920815725471823388e-02,-1.471812281526062582e-01,1.607310652732849121e+00
-8.948508358732459866e-01,-8.028701815993720681e-01,7.839935317776001167e-01,-1.266858187029408223e-01,1.232313085291821403e-01,-2.063862006206144961e-01,1.701190471649169922e+00
-9.093281795294398950e-01,-5.947016868789776201e-01,1.016379507753290667e+00,-2.213567862191695088e-02,-3.268801849336001181e-02,4.964435388081565870e-02,1.792632222175598145e+00
-8.096674176027309766e-01,-8.290757761872528109e-01,7.552835283640881858e-01,3.197352319326010606e-03,1.575946433506927868e-02,1.066297422359383483e-02,1.575099349021911621e+00
-8.442536599337423509e-01,-8.364737645069653116e-01,8.880616452965526264e-01,-1.366096269086901349e-02,2.964628214930992503e-02,3.626750655537254453e-02,1.730503439903259277e+00
-7.395686613955750888e-01,-8.223604288033203868e-01,4.877936605081297783e-01,1.116188428209465185e-02,2.846408562517927301e-02,1.338502031974334872e-01,1.292841911315917969e+00
-5.587482893054864785e-01,-9.260341442860078320e-01,1.022407037556093412e+00,-3.831500363867802739e-02,2.590224755956511971e-02,-1.176920962117167062e-02,1.795137763023376465e+00
-6.595355528394812872e-01,-1.114611427378945807e+00,8.117320448553602130e-01,-2.507901583562869297e-01,-1.812523199888774195e-01,1.204385656810325229e-02,1.824538350105285645e+00
-7.393659325837662610e-01,-7.487022588902695341e-01,4.433536706740551780e-01,9.751926864522313717e-04,-1.687075082600215589e-02,2.503442755834103806e-02,1.188567161560058594e+00
-9.511192133888348721e-01,-8.102825742111942064e-01,1.056513608446016939e+00,1.048845674149538332e-01,1.153938760912460726e-01,2.316779864335075934e-01,2.000412464141845703e+00
-8.677040007599302607e-01,-4.628797416130175368e-01,2.371495705304291768e-01,2.822152324150745822e-02,-9.996032109514255137e-02,3.414461031893182424e-02,9.864966869354248047e-01
-7.786493095774751350e-01,-9.658943381810927153e-01,3.917972987802013085e-01,2.874288028822908920e-03,1.036267213378941343e-02,-1.745492344626167064e-02,1.274922490119934082e+00
-1.117414640018608685e+00,-6.065862196249363070e-01,4.791674006491396520e-01,4.290835108809025744e-01,1.190258769650435755e-01,1.525501977072598325e-01,1.630673050880432129e+00
-8.898901230975700960e-01,-7.946261558760042698e-01,9.160516571879577796e-01,-2.618113954470446120e-02,-9.846584399644325858e-02,1.067559413889109105e-01,1.778705477714538574e+00
-8.865082460552892174e-01,-7.331961323943707587e-01,8.571511120481221102e-01,-1.099422434655782516e-01,-4.429670951021766334e-02,1.422014988317706619e-01,1.702745079994201660e+00
-3.997738572268145218e-01,-1.008244674356470139e+00,1.513791504803572607e+00,-3.848660956911363895e-01,-1.022887306546193392e-01,-1.170251564078431950e-01,2.390221118927001953e+00
-8.628014799340254504e-01,-8.640873222356174610e-01,1.047308299227296624e+00,6.283549206652574645e-03,1.496704898514850460e-02,-4.304522349847727906e-03,1.910974383354187012e+00
-6.534478393881206770e-01,-7.641446590292184649e-01,1.006399495557456003e+00,-2.013552551450113748e-01,5.579347100113513092e-02,-3.613236644899452121e-02,1.756694078445434570e+00
-8.070210247777575008e-01,-7.322515690888246054e-01,1.018568453161665666e+00,2.377342321763157088e-02,1.224174861739832539e-02,-1.098340482958979659e-02,1.790077090263366699e+00
-7.305076529655916140e-01,-6.729036643566421727e-01,1.575084276117535209e+00,-4.260553206037227536e-01,6.065287472898964888e-02,1.972081071977480754e-02,2.396462678909301758e+00
-7.556729157567453337e-01,-8.440704585528472359e-01,1.049476453405106868e+00,-5.760972879004510466e-02,5.011490031023136532e-02,-3.659043212679245066e-02,1.856732845306396484e+00
-8.146807127344142252e-01,-7.965005189490881321e-01,1.035779488227615674e+00,5.849339388858587965e-03,5.948092564219784918e-03,1.044658558179791322e-02,1.841583013534545898e+00
-5.844046676976366594e-01,-8.664849988726676111e-01,1.017917994527452130e+00,5.230246897731987560e-02,1.742030196492008742e-02,1.432855269787136274e-02,1.763157367706298828e+00
-5.841953842278910791e-01,-7.515180030963326541e-01,1.088048750247966767e+00,-4.466040080477001739e-01,-1.866064942284358374e-01,5.362422557956218055e-02,1.953371405601501465e+00
-9.000852191403684310e-01,-8.984077846269676870e-01,7.739248404873557696e-01,-4.902571737524999418e-02,-5.732644850864306724e-02,1.004596019914142657e-01,1.687261223793029785e+00
-8.328396251624848867e-01,-8.557965111663615732e-01,8.944143038091931786e-01,1.654508123072873441e-02,-1.908249975275613797e-02,1.274213548399062701e-02,1.739536166191101074e+00
-9.604509407123319464e-01,-7.384989434760681482e-01,7.458854603933036120e-01,-1.942862555621436282e-01,-1.141339553999672247e-02,-6.622775948867584347e-03,1.641915202140808105e+00
-9.158463600000410487e-01,-2.806781818377702131e-01,9.105301959462481776e-01,-3.746624421927702286e-01,-6.977928185178697285e-02,1.081560848996170610e-01,1.746381998062133789e+00
-1.041245550342134951e+00,-5.955617228692196008e-01,1.030869682692350908e+00,-6.232895030264115066e-01,-1.232446152070648809e-01,-5.981495132834424577e-02,2.188734292984008789e+00
-8.746604647489295559e-01,-8.578626833116287376e-01,1.030482703377126441e+00,-1.834185675362912896e-04,-6.581094127237276277e-03,-2.300492547966750435e-03,1.896838545799255371e+00
-8.712831167921455400e-01,-8.660710983667005980e-01,1.041556899276388615e+00,-2.624680237236952200e-03,-1.338772576459580643e-02,-2.506459195327918714e-03,1.910390377044677734e+00
-7.845264369840406760e-01,-8.639929038094061875e-01,1.009232896516699896e+00,2.098902368827849918e-03,1.669130388545795804e-02,-3.182464124274879749e-03,1.835023283958435059e+00
-7.844150795320831149e-01,-8.878114906813076024e-01,1.019846382626767634e+00,4.676818722304861009e-03,1.298188480974991031e-02,4.917845236501048461e-03,1.858291745185852051e+00
-8.561387364008961054e-01,-8.538061899986608694e-01,1.014316455786454796e+00,2.473491974937479677e-03,2.834401461118516048e-03,4.118470767511883852e-03,1.869315028190612793e+00
-7.799448287318615503e-01,-9.096939129105627853e-01,1.027978805317000477e+00,-1.491518865080659288e-03,3.917167589685077722e-03,-3.004388950801591737e-03,1.876187324523925781e+00
-7.907701608886974487e-01,-6.957932780657930527e-01,9.949059473231378625e-01,3.617750447322214125e-02,1.145817283044574773e-02,1.398990033609424748e-02,1.741542220115661621e+00
-5.258233876431875897e-01,-9.431742811717782615e-01,1.029192269925492065e+00,-3.483380834540032028e-02,1.777090125681342553e-03,-5.808966766084552175e-03,1.801386594772338867e+00
-4.743696208143777238e-01,-8.646021068813347643e-01,1.015029789227691603e+00,-2.268183924451145639e-01,7.261212823607074429e-02,-2.505874252610391234e-02,1.767440319061279297e+00
-4.639910191433470610e-01,-1.058649300774356483e+00,1.035194414950511899e+00,-1.212677257500829192e-01,1.656911830919932660e-02,2.884055136344873538e-02,1.881519317626953125e+00
-7.559529982244784785e-01,-9.294562314590866237e-01,1.088471418527020340e+00,-8.038368196389747075e-03,-1.906857245004305035e-02,-1.232082540992571543e-02,1.937461853027343750e+00
-4.972884310365584537e-01,-9.387963857989426453e-01,1.024072088118256119e+00,-5.916782672520651265e-02,3.184793876649312516e-02,-1.161072228977467168e-02,1.787487030029296875e+00
-5.505673210907917614e-01,-9.448991236182360254e-01,1.024605478884987431e+00,-3.006834758946459740e-02,2.074887436173460456e-02,-3.276488247594544490e-02,1.806939959526062012e+00
-7.122817219665188437e-01,-7.992772257951427095e-01,8.847759404533419580e-01,-1.599352406127919901e-01,-3.778574700065257669e-02,-1.004846430708708060e-03,1.666770100593566895e+00
-7.799729191509268134e-01,-8.736473865878076062e-01,1.053750635769296062e+00,-2.340361614352366726e-02,-1.669786756978075895e-02,-1.545875544269806681e-02,1.883158683776855469e+00
-8.052468466106875722e-01,-8.006567297022954000e-01,1.033962905979876945e+00,3.228366232198652975e-03,1.016696672549742553e-02,1.237457785800853867e-02,1.837136983871459961e+00
-5.302405328253856354e-01,-9.602976303284070925e-01,1.031815249775586807e+00,4.838545845057874023e-03,-5.553647051168145860e-02,-4.555748643313560498e-03,1.818275570869445801e+00
-4.829933951409110526e-01,-9.747390512069196156e-01,1.050026116795437225e+00,-1.640105453447899750e-02,-3.088748864714690318e-02,5.223635890555467821e-03,1.830182790756225586e+00
-4.599031616202651218e-01,-9.978566190490032461e-01,1.049411515775941162e+00,-2.422092552638184168e-02,-2.678858204791825098e-02,7.505308586679200478e-03,1.839415073394775391e+00
-3.480972136307609599e-01,-9.993583775025509652e-01,1.015597949404327460e+00,-9.211606610359494504e-03,8.729591124104147185e-03,3.567153217959750065e-03,1.781136870384216309e+00
-5.086221261686014739e-01,-9.978558061307950533e-01,1.080040488069608395e+00,4.068761078304464207e-02,-2.025093747775224759e-02,-1.453215168856842286e-02,1.883416056632995605e+00
-2.771110681780273310e-01,-1.106628294366651666e+00,1.275963168085411770e+00,-2.423979347589713673e-01,2.776988297638984249e-01,-7.101564958062007993e-02,2.193442583084106445e+00
-5.312678383108051516e-01,-1.005735498539001460e+00,1.052664695160603126e+00,-6.850316091093510730e-03,-4.129472955692160135e-02,1.558653904915016999e-02,1.868548035621643066e+00
-3.750200256401357013e-01,-1.045739514306155415e+00,1.072928777828526359e+00,5.678956787270202089e-02,5.688321344279257535e-02,1.375665029132364797e-02,1.880834341049194336e+00
-8.528260809540639809e-01,-8.573760173352815706e-01,1.067520485036415279e+00,-1.816037111397732782e-03,7.822380245122818182e-03,-6.048115702989300194e-03,1.922704458236694336e+00
-8.622509697343151425e-01,-8.564582281586601287e-01,1.065146660561868019e+00,9.028734067342098976e-04,2.750914919465824362e-03,-4.006279161106223591e-03,1.924526810646057129e+00
-8.425952644115918266e-01,-8.397577145993166958e-01,1.057301641463478381e+00,-5.513351703755010533e-03,-5.866097736552959054e-03,-2.854981387481052811e-03,1.898537397384643555e+00
-8.565835712264195934e-01,-8.497211610005075411e-01,1.066755117847020040e+00,5.738824489499974417e-03,1.048207758550368310e-02,4.257042526037312286e-04,1.920028448104858398e+00
-8.634714927061096779e-01,-8.623337565055834153e-01,1.059272797394843701e+00,2.364428150861632664e-03,-2.639640615294605586e-03,-4.122068952749629624e-03,1.922198772430419922e+00
-8.626961625863112104e-01,-8.606789095535075651e-01,1.038790334214679811e+00,4.453315304028502251e-03,-9.972248706792679468e-03,-6.058008201992914725e-03,1.900601744651794434e+00
-8.724698356759618134e-01,-7.728754650012470417e-01,1.053966714811315430e+00,3.289306824420819980e-02,-2.162144799321434607e-02,6.747988382738760726e-03,1.879893541336059570e+00
-9.273338019840988711e-01,-6.729582065916335232e-01,1.054597251933349966e+00,4.562290695804548796e-02,4.238159887896925278e-03,-5.179248653877515512e-02,1.871616482734680176e+00
-8.255229498508950270e-01,-8.616982888231187188e-01,1.042205690593699385e+00,8.692294383745377204e-03,-2.500666824521010842e-03,7.558157910531277356e-03,1.886186957359313965e+00
-1.039913796552748959e+00,-8.783577190981848304e-01,8.991251759587177705e-01,-2.533348875164075087e-02,-1.516485205043861632e-02,1.341848630012193178e-01,1.878654003143310547e+00
-1.111509258708176962e+00,-2.147054966390417041e-01,9.132082575188593676e-01,-1.939383350348994686e-02,-1.372528178715637370e-01,-2.557366362564291590e-02,1.774138927459716797e+00
-9.013465273101095576e-01,-7.431634968021372245e-01,9.682842421864794602e-01,5.703035318726941937e-03,9.220691158381667200e-04,1.005384884070835080e-02,1.795884370803833008e+00
-8.864781185022152510e-01,-8.554440841130273032e-01,1.019400167655181377e+00,7.202034097456143369e-03,2.302951185243081247e-02,3.471025023318780912e-03,1.891023755073547363e+00
-8.323238044854861517e-01,-8.421384615517668593e-01,7.590319416152149223e-01,2.377475060395039044e-02,-7.475098491065072619e-03,3.110404416184815724e-02,1.597777724266052246e+00
-9.152723303897296603e-01,-6.958071934252294533e-01,1.045141729599827318e+00,1.278837967053774241e-02,-2.065425487494284770e-02,-2.821537533263140593e-02,1.861532807350158691e+00
-9.086275245935234723e-01,-7.868508685875413855e-01,1.027887255316169757e+00,-6.382063548428367275e-03,3.810619072150669018e-03,-1.058977924320596807e-02,1.878722667694091797e+00
-1.336222484994633808e+00,-3.446247996646976119e-01,9.607859493840842369e-01,2.608892672895173348e-01,-8.871938624173154875e-02,2.901944384101344532e-02,2.052348613739013672e+00
-9.170892649334982938e-01,-7.424006020737103917e-01,1.056344625458330855e+00,3.469506773045321138e-03,-1.911911073128153352e-02,6.215856410326690840e-02,1.895506501197814941e+00
-8.248971868571689514e-01,-8.104326658396852068e-01,7.437398410528648363e-01,-9.049549453750417929e-03,-4.906853526674465060e-02,-2.212795552657277273e-02,1.564314365386962891e+00
-7.939194501863444664e-01,-7.911984004353228572e-01,6.730553151114201382e-01,-1.183751902591382958e-02,-8.951398035745537773e-04,-3.447021702889151856e-02,1.466975808143615723e+00
-7.616355438907550512e-01,-7.743025698277166136e-01,6.046636576246241512e-01,1.443286358669926880e-03,-2.564489660723185457e-04,5.558953978879011860e-03,1.372712612152099609e+00
-8.848122345712585712e-01,-9.749663288946873729e-01,3.261248769763089861e-01,2.562467236149001404e-01,7.652332258428294620e-02,-8.868451296351814728e-02,1.349746942520141602e+00
-8.156214013778625427e-01,-8.516919534524507451e-01,8.427266087737508293e-01,-1.120633967719899746e-02,-2.876437523207589497e-02,-6.565952032063272770e-02,1.681377172470092773e+00
-8.519382390369278912e-01,-8.448562302127395895e-01,8.994567594684825806e-01,-1.837614506154518212e-02,-4.947563937797653383e-02,-3.744365943243879724e-02,1.751454830169677734e+00
-8.764101071772685270e-01,-7.336124164080881638e-01,3.095835443095333872e-01,8.283862821404380794e-02,-2.671937686603714085e-02,1.638604088214934973e-01,1.166573643684387207e+00
-8.233539512027322482e-01,-9.532061224709510450e-01,9.061077220309847746e-01,8.192264274505049737e-02,-3.851899916777073302e-03,-6.368635030838788735e-02,1.806881308555603027e+00
-7.169316966954388803e-01,-7.055693639445030918e-01,1.354782041595855580e-01,-1.457676715889853758e-01,-2.095464182168273459e-01,-4.560937677821292301e-03,9.552918672561645508e-01
-6.769955480945860637e-01,-7.587968588564278916e-01,1.061224061868113244e+00,1.620948609917974292e-01,1.349245721712064375e-02,-3.201931672561496994e-02,1.803533673286437988e+00
-6.575142941797391671e-01,-9.559421138977824972e-01,1.083289812929532969e+00,3.332146884283782723e-02,-4.730478538797559807e-02,-1.762748965534693610e-02,1.910481333732604980e+00
-5.724030729986256949e-01,-8.947480039808641816e-01,8.456340005431230988e-01,3.503135400166330071e-01,8.840836296256421312e-02,1.752124071610200451e-01,1.748009562492370605e+00
-8.173505876917005475e-01,-8.959885877787476804e-01,9.751007305038210671e-01,-8.319919191340617234e-03,1.969943745977305663e-02,3.875800734697473771e-02,1.834638595581054688e+00
-6.387254365318157934e-01,-8.770227460987530810e-01,1.038538126936855432e+00,5.220624381376318124e-02,-4.465941922739258274e-02,-2.967558143628480291e-02,1.812867283821105957e+00
-6.620131403412244930e-01,-9.296960445055910682e-01,1.012370950461046970e+00,-6.694075570329486398e-04,-2.531804234180137433e-02,1.295155565400941955e-02,1.823690652847290039e+00
-7.746152818560994024e-01,-7.662348303296480090e-01,1.008883873972054923e+00,3.969389326445378792e-03,6.853155470133997368e-03,9.817785673330796381e-03,1.779457807540893555e+00
-8.966312077906830602e-01,-7.786059299581173931e-01,9.786471150512330297e-01,1.303859539597630127e-03,-3.985312845977742602e-02,2.604723470082886266e-02,1.821009039878845215e+00
-7.129382987251698944e-01,-1.031159498066143154e+00,1.241452268582596385e+00,2.150630930193119517e-01,4.624247624735881163e-02,1.696584537333923823e-02,2.165380001068115234e+00
-7.981984776259209990e-01,-8.785264702411654802e-01,1.040394024499089021e+00,-1.013924692162037570e-03,-2.538648992933071821e-02,-1.318778501908147126e-02,1.880697607994079590e+00
-8.007327810536983836e-01,-9.114485325668351123e-01,1.048210091322122173e+00,7.945811381648968177e-03,-3.069748376050995819e-02,-1.052311389215014083e-02,1.907590985298156738e+00
-7.237129121959977596e-01,-8.815117445694360399e-01,1.041191980594061262e+00,2.210669963601798876e-02,-1.946607539722818025e-02,-1.807643295339906447e-02,1.849830508232116699e+00
-8.431350977546769876e-01,-8.690518179764147311e-01,8.879697133183022117e-01,-3.510604762292710793e-03,1.084667215474874880e-01,-1.014833040305950229e-01,1.763090729713439941e+00
-8.617023321059610330e-01,-8.640244225636770636e-01,1.067356617321439272e+00,-4.108326805647766200e-03,1.210173215415226390e-03,-1.077732576982710910e-02,1.930325508117675781e+00
-8.626458853105862801e-01,-8.556367510054758707e-01,1.070244851510966155e+00,-6.829140066608606254e-04,-2.791610323994894206e-03,-4.203587786255463463e-03,1.929415822029113770e+00
-8.630297083109221834e-01,-8.638212560064927326e-01,1.065600445113274342e+00,-4.286749717736952679e-05,-4.119922226781780675e-03,-1.229854905855571820e-03,1.929040431976318359e+00
-8.606486457678547142e-01,-8.676782119971958585e-01,1.045176695085404894e+00,-7.392366885762184127e-03,2.893724492644178352e-03,-6.294618083027201522e-03,1.909430503845214844e+00
-8.642727152216281850e-01,-8.624910585199769830e-01,1.068961063616616469e+00,-3.247713281440968349e-03,-4.428017734801286895e-03,-3.067264550699309606e-03,1.932374238967895508e+00
-8.602913549645240243e-01,-8.522209655128223371e-01,1.057884848186002369e+00,2.121743135517270736e-03,6.500709080427919881e-04,-5.536716699833446088e-03,1.914181590080261230e+00
-8.649610222633550283e-01,-8.656155850818618713e-01,1.073755486125725689e+00,-1.856335521960794004e-03,2.182345631183745058e-03,-4.576079669991271921e-03,1.939066410064697266e+00
-8.579630216011137067e-01,-8.534850526928980941e-01,1.065252895137156042e+00,-1.271259384696974424e-03,-6.305918198902834941e-03,-8.541279967055884410e-05,1.921013116836547852e+00
-8.520847818118237882e-01,-6.875585786074474015e-01,1.026593538663300720e+00,-1.829634592205466037e-02,-2.178904846558741074e-02,2.059716714168545459e-02,1.803083658218383789e+00
-8.493576480343282276e-01,-8.333831535603786200e-01,8.868244305923547177e-01,-1.239171736307018244e-03,3.408535192943483449e-02,-5.143367025309582286e-02,1.731552839279174805e+00
-7.791090238282993852e-01,-6.638892361003304599e-01,1.051515664520916271e+00,-2.255881547846086410e-01,4.255584465154784585e-02,-4.267414735303572126e-02,1.821291923522949219e+00
-8.690184369395351771e-01,-6.721958055847120361e-01,1.007408399025323975e+00,-5.393652983775165666e-02,-2.616992264227236895e-02,4.983673543973957554e-04,1.789183139801025391e+00
-9.672378184948000612e-01,-5.138365415937600211e-01,1.223942221094457716e+00,-6.156631694188205994e-01,7.135939596637334847e-02,-6.189901391549286480e-02,2.275357723236083984e+00
-3.498602120192073062e-01,-7.686966274766214857e-01,9.407483114105446020e-01,-4.176984006195704202e-01,1.173329576855161871e-01,-5.462531391414152115e-02,1.719103455543518066e+00
-8.565713143909985394e-01,-8.689039207630242512e-01,1.028418792553331240e+00,3.774814066822228774e-03,5.176422221279126934e-03,-3.011811726861759238e-03,1.891226291656494141e+00
-8.579446401797380384e-01,-8.741469055569618396e-01,1.030803205138834278e+00,6.012092900047761711e-04,5.008132859348520503e-03,-3.733417854503733556e-03,1.896932005882263184e+00
-8.588811696938725149e-01,-8.685402411250880972e-01,1.030181179033605954e+00,1.120467401118097495e-03,-1.852797144034042933e-03,5.322690453045377836e-03,1.893936514854431152e+00
-8.629703194247979603e-01,-8.156616259061880703e-01,1.044013650796629777e+00,-3.092516028322007515e-03,1.050461271659153956e-02,-1.175609381129406016e-02,1.883980751037597656e+00
-8.747809812367063342e-01,-8.011820980596218167e-01,1.029396403465659526e+00,-6.473191892451115280e-03,1.176531044575031791e-02,-1.005790939153206054e-02,1.868691325187683105e+00
-7.749642968331437176e-01,-7.797867708729276925e-01,1.013115294750027484e+00,-1.660656040771189314e-03,-3.028753335093680148e-03,-2.005841268658054531e-03,1.790509104728698730e+00
-8.710624104282543856e-01,-8.570483373619499634e-01,1.037600779167823672e+00,1.024080002634261645e-03,-1.316528812941446117e-03,-7.191662100784515857e-03,1.901737928390502930e+00
-8.725910029354627673e-01,-8.456879975675437588e-01,1.044591679115048244e+00,-1.321320217423179186e-05,1.779572554118043866e-03,1.481940605940874379e-02,1.904049277305603027e+00
-8.380501309075557570e-01,-7.955340194542123156e-01,1.046381028855490891e+00,-5.309081271745736373e-03,1.061338766283239851e-02,1.297121621374875203e-02,1.863785624504089355e+00
-8.364696388234225122e-01,-7.564165039988807182e-01,1.077738643542459185e+00,-1.041089068031589016e-01,-6.034282243348307838e-03,-1.205836209375741111e-02,1.884257078170776367e+00
-8.146705847158007829e-01,-8.095438630275085812e-01,1.041426461735401654e+00,-1.153609904136469050e-02,8.821453822891700894e-03,4.843116366165346916e-03,1.853728652000427246e+00
-8.244257307019131620e-01,-8.487782800164893615e-01,1.053969100987754093e+00,-1.779135681334593610e-03,9.257728398890243543e-03,-1.456320205368431125e-02,1.890927433967590332e+00
-8.455992569840947715e-01,-8.324642437124299965e-01,1.061357399710646465e+00,-1.709335064970299084e-03,4.774048775283010020e-03,-1.408321170110092384e-03,1.900445103645324707e+00
-8.769882352999568420e-01,-8.779817786091657084e-01,8.916851829404499608e-01,-5.888352781544495956e-02,-1.997890116140167427e-01,-1.289231473616812666e-02,1.805716276168823242e+00
-8.531233471438385285e-01,-8.628068314325502142e-01,1.063922248977303697e+00,5.708009565425129460e-03,8.051523162843621934e-03,-1.781009732080998751e-03,1.921984076499938965e+00
-8.536142491514775443e-01,-8.614382522895759342e-01,1.009405499338833723e+00,4.061475320707818096e-03,5.197676339135936380e-03,1.098508795675554733e-02,1.867075920104980469e+00
-8.530604818255204114e-01,-8.618692601184774205e-01,1.064713319082422949e+00,-3.309479638053082419e-04,3.262103466581728253e-03,-6.002007745833435118e-03,1.922229886054992676e+00
-8.452414342700976801e-01,-8.479981515680617976e-01,1.061048935523151160e+00,-3.844989284967909992e-04,6.442894124682844136e-03,-1.519808555900637598e-02,1.907884597778320312e+00
-9.849260999670875760e-01,-7.399497534459398285e-01,1.116262238007493579e+00,-4.732874141300621139e-03,2.413525807301551002e-02,-4.109104669265507132e-02,1.991769194602966309e+00
-9.099699804546846904e-01,-6.843940149311216192e-01,1.028061403491103531e+00,2.507175159215158794e-02,-1.041252497931624207e-03,3.618414355619277434e-02,1.837251663208007812e+00
-9.364069451386751730e-01,-7.589943811558806930e-01,1.003856552924637047e+00,-3.548996000119135352e-02,8.562394625304432447e-03,6.151429880933766137e-02,1.862047553062438965e+00
-9.099541044558820957e-01,-7.896330684954770973e-01,1.042110107220254100e+00,-4.690492567795473064e-03,5.866323535650204424e-03,2.548375686576353008e-02,1.895329833030700684e+00
-9.060734838273711844e-01,-7.747882549093793036e-01,1.062518403229584907e+00,8.829756793492979025e-03,1.707433399276167552e-02,-3.393587280050417571e-02,1.907539367675781250e+00
-9.557129344086670031e-01,-5.502933667996595668e-01,1.041818563565527711e+00,-1.164137004566802996e-02,-2.435804654838706444e-03,3.734728308496277488e-02,1.830100417137145996e+00
-8.188187713035016690e-01,-8.173756922147635828e-01,7.715924508055667097e-01,1.283209899018193483e-02,6.530072119696977984e-02,-1.733212824110617195e-02,1.594146370887756348e+00
-8.282792186944675228e-01,-8.487865289707805516e-01,1.047429382925313401e+00,-1.769311722082970301e-02,2.059636373201260973e-02,1.976627920601625038e-02,1.886942744255065918e+00
-8.360376991091080789e-01,-9.066882252394788955e-01,1.058120811828296981e+00,1.094416521055290720e-02,2.629880429475384140e-02,-7.602851972707844706e-03,1.931128859519958496e+00
-8.233386394111148476e-01,-8.118954519616367049e-01,7.843524314365162287e-01,1.029317047995779305e-02,-1.401492010440668658e-02,4.026294362793263193e-02,1.603800177574157715e+00
-8.498820956612554989e-01,-8.395839906451028067e-01,9.446036260737220580e-01,1.208330047085381422e-02,6.680593036862363110e-02,-1.820493656411564104e-02,1.793495655059814453e+00
-6.874031068385825227e-01,-9.302050286604103269e-01,1.056976298425484240e+00,-1.841898580242897973e-02,-1.734100122600149008e-02,2.479176329370766721e-02,1.878593802452087402e+00
-8.623800317447856134e-01,-9.347654339835451687e-01,7.429592971813983038e-01,2.728040467478573192e-02,2.158959733439515805e-01,-1.101972422883194802e-02,1.685522913932800293e+00
-7.873354632943212472e-01,-8.709405286947167202e-01,1.055182572939366015e+00,-8.995055849177414214e-03,-2.071903561581652994e-02,-4.257530880144531731e-03,1.886131286621093750e+00
-7.013358536999220183e-01,-9.219997296137238951e-01,1.075611705842627996e+00,9.942795563227737818e-03,4.440541954246993855e-02,1.207924961986220867e-02,1.898681998252868652e+00
-7.554697432422488035e-01,-9.134676909445799131e-01,1.054961176619455543e+00,-6.243161453863513722e-04,-4.691249236587378274e-02,2.109336361262781692e-02,1.896471977233886719e+00
-8.450454532007309894e-01,-8.703709283086399351e-01,1.053694920826041548e+00,4.669770182534297744e-03,-1.145343153746627290e-02,-3.835955770701311631e-03,1.911660552024841309e+00
-6.659282993255506433e-01,-8.722816487685199904e-01,1.098671057972843368e+00,-2.914906773866995926e-01,3.018002813476960977e-02,6.036253261226109425e-03,1.943776130676269531e+00
-8.445083487904424535e-01,-8.565024244289415334e-01,9.373903619194916548e-01,1.717847086596743789e-02,-1.990394336894749094e-02,3.476813361539560221e-02,1.789519309997558594e+00
-7.085577861331955329e-01,-8.066368794865423908e-01,1.512639776010220372e+00,6.528416425461992523e-01,1.190668843266834698e-01,4.714827965193155862e-02,2.547351121902465820e+00
-8.324579751353924362e-01,-7.873404218481345751e-01,1.263621355146468561e+00,3.831670366807693462e-01,1.077639117273119229e-01,5.993595592556765633e-02,2.187939882278442383e+00
-1.120283946905678230e+00,-7.235160712933721427e-01,1.392372805156210092e+00,5.577530413772447959e-01,7.415958393607492358e-03,6.928719405953319421e-02,2.534119129180908203e+00
-8.776552151999515994e-01,-5.224259311828108876e-01,1.556422425690556111e+00,5.079518644019190843e-01,-5.142169719211115569e-02,-2.396819142806791425e-01,2.478020668029785156e+00
-7.030687456483895037e-01,-5.267034212972595553e-01,1.189160252598108425e+00,5.509953033082597429e-01,-3.948859935098291557e-02,-9.994455349871805838e-02,2.055077552795410156e+00
-3.034153497606030259e-01,-8.319981412532146958e-01,1.186175338690319991e+00,4.644006569035747933e-01,1.252575872179906846e-01,6.250916950016011109e-02,1.997860550880432129e+00
-8.199666546869511796e-01,-6.191987119283779428e-01,1.223059201221374792e+00,2.729822221908750901e-01,-1.110113842963566556e-02,2.100888412365205585e-02,2.007321596145629883e+00
-7.420024008694846573e-01,-9.114259610727286631e-01,1.062394369512249970e+00,-1.166342652892288397e-02,2.250901447769535976e-02,1.473392501983299303e-02,1.895478487014770508e+00
-6.000538933898427185e-01,-8.919199619409987623e-01,1.007444265747309498e+00,-1.037574732774482617e-01,-5.647788652170053492e-02,4.251325777698058278e-02,1.784852504730224609e+00
-8.626000129564481700e-01,-8.356664779778870678e-01,9.407292287637885053e-01,-1.031567333114817228e-02,-3.179608527436019599e-02,6.152948984667979196e-03,1.790982246398925781e+00
-8.730635515161208060e-01,-8.511299109573904342e-01,9.800022813764404095e-01,-7.859461612983018389e-03,9.886023023543803051e-03,1.712275542516867666e-03,1.842329144477844238e+00
-8.607732008486724817e-01,-8.564306274937609764e-01,9.979087802388386663e-01,-1.228839016754754501e-02,1.741739899654326171e-02,3.523777394663201714e-04,1.856881737709045410e+00
-9.265723208046812154e-01,-5.339239928674008873e-01,1.149668589376861894e+00,2.961550698653377944e-01,1.141560758030417313e-03,-1.858525484538318300e-03,1.978093624114990234e+00
-1.015848628759417949e+00,-3.461054068656414517e-01,1.018585190389995843e+00,5.302941888423715056e-02,-1.205230699841195255e-02,-1.938015056267656459e-04,1.798277258872985840e+00
-1.061724876092423830e+00,-4.246980077698507827e-01,1.233671466426528918e+00,1.375296431465502373e-02,-4.757406401448551619e-02,-1.459065385162014103e-02,2.054364681243896484e+00
-9.680105407635326564e-01,-3.337853569144562105e-01,1.096107514562005170e+00,3.646318751125063318e-01,1.245891664317015229e-01,1.291589047106232180e-01,1.961935758590698242e+00
-9.770578702309444807e-01,-5.861688259245163568e-01,1.060181876998433914e+00,5.329893182223248427e-02,-4.563557067341788599e-03,2.355757062741778082e-02,1.875381350517272949e+00
-1.019634792410569091e+00,-6.186140859179294349e-01,1.209411020517521917e+00,5.473415534112957559e-02,1.152628510764957051e-02,7.496802487214905553e-02,2.064416646957397461e+00
-8.334738304144754251e-01,-8.251402384750964325e-01,8.512847062000326037e-01,-1.014344073348889168e-03,8.614391814844726825e-02,-3.435770668785158299e-02,1.688267588615417480e+00
-1.393781813388870638e+00,-1.842717416118710427e-01,1.240536938451543669e+00,2.123282405480129420e-01,1.281120751869819219e-01,7.367782388257829163e-02,2.327463865280151367e+00
-9.482678377459756724e-01,-3.257709839347041059e-01,1.001554788733271861e+00,2.251278284106887906e-01,-8.585726041614956394e-02,-4.995354270975740224e-02,1.776851177215576172e+00
-5.620907940597154040e-01,-7.008358679903998745e-01,5.383927560218864095e-01,-4.106992513630765562e-01,1.993401242587182487e-01,-4.576015856685941574e-02,1.419335722923278809e+00
-3.062054209848402708e-01,-1.156076187563352287e+00,1.107573845622219721e+00,-2.316504699697621572e-01,2.469960646140239857e-01,2.883555688641518955e-02,2.066175937652587891e+00
-7.828497155166358468e-01,-8.651075959060725573e-01,1.036429704666958829e+00,-8.635101057172576977e-02,-1.065199799609853511e-02,2.108200638212884195e-03,1.867864370346069336e+00
-7.086642639864486615e-01,-7.883870858190660247e-01,1.012994584891514060e+00,-8.594113116416578213e-02,1.109381057613231109e-02,4.995283079180430109e-03,1.769271612167358398e+00
-7.478200227045739279e-01,-9.156013533602591625e-01,1.203870734757403582e+00,-2.307298176757011654e-01,-1.409078597946093747e-02,1.255082955214689884e-02,2.079779148101806641e+00
-8.256292321374802956e-01,-8.672430328079611117e-01,1.081647364290029056e+00,-1.743904532579021102e-02,-9.947814665231983350e-03,1.239816857127840413e-02,1.928853273391723633e+00
-5.703419839303134342e-01,-1.118270643380507856e+00,1.259430242832328739e+00,-1.288261302442178236e-01,-3.310785743760627509e-02,3.224459947388445824e-02,2.169579029083251953e+00
-8.627749991456016287e-01,-8.646356110185566823e-01,1.067061502746813995e+00,-3.178094031221247607e-03,-8.397969211959427360e-03,-2.268214670851347297e-03,1.930834054946899414e+00
-8.641781542852892128e-01,-8.759087416303814599e-01,1.056699658867532365e+00,-6.144212470776595249e-03,-6.438996157195124755e-03,-6.136858814335775921e-04,1.926831841468811035e+00
-8.636300341610498865e-01,-8.667739381828346579e-01,1.060562611687546841e+00,-2.107822292723947593e-03,-6.962286416549536873e-03,6.393086290155890715e-03,1.925839543342590332e+00
-8.614782251884970377e-01,-8.647777581630754495e-01,1.059073111868827244e+00,-4.066688930429925540e-03,-1.699479906696680243e-03,1.135724205042218512e-03,1.922219395637512207e+00
-8.620491650416638452e-01,-8.650404064134740167e-01,1.040203113453666672e+00,-6.341836840965227144e-03,-6.210728275070629030e-03,2.935315040804727625e-03,1.903818488121032715e+00
-8.589577552614617861e-01,-8.656915548970229857e-01,1.040460758142256026e+00,-6.928483408376714427e-03,3.768977775951275633e-03,-4.953023967877751010e-03,1.902862787246704102e+00
-8.574363568447216366e-01,-8.738878397773246487e-01,1.025675325232320967e+00,1.333311628755797374e-04,2.580395290565487554e-03,-2.427919492849783291e-03,1.891401052474975586e+00
-8.637463523248288810e-01,-8.655252314088677235e-01,1.036943694514086634e+00,-3.110184616431181052e-03,3.325991434237078083e-03,4.961982961979050435e-03,1.901615858078002930e+00
-8.677059093897835362e-01,-7.988755466932879745e-01,1.039042469219046749e+00,1.075106839400749408e-02,-4.222688324539212827e-03,-1.165570933632803161e-02,1.873497486114501953e+00
-8.606937670707309751e-01,-8.091559104091057275e-01,1.042910999333102939e+00,6.820097247287475878e-03,-1.377609881181672373e-02,-1.611821903403778261e-02,1.878762364387512207e+00
-8.616183159665554703e-01,-8.634323628777553772e-01,1.060610813191965818e+00,-3.684445466506641644e-03,4.897612404899662816e-04,2.479492209638375043e-03,1.923152327537536621e+00
-8.579858711076585598e-01,-8.652207934063907979e-01,1.025343731980097539e+00,-4.365940143665223393e-03,2.346135579776630412e-03,1.127438396611611139e-02,1.887078046798706055e+00
-8.721623654407353321e-01,-8.586092937480205300e-01,1.029846347096762260e+00,-1.202844554401376505e-02,2.338848466634932052e-02,1.106844661634233049e-02,1.895912766456604004e+00
-6.770552926459265652e-01,-8.754984525532291117e-01,8.884162086710298833e-01,1.030178892715610806e-01,2.204926807892236204e-02,-2.779807891855726187e-02,1.684147477149963379e+00
-8.477509841641235333e-01,-8.129593600189884972e-01,1.039992607033434213e+00,7.311574874962376361e-03,-1.780640284411984589e-02,-1.806794567333997945e-02,1.871149301528930664e+00
-8.604824432504438736e-01,-8.662567778812919617e-01,1.050112143690448807e+00,-8.024712499236285809e-04,-5.534299120448739860e-03,-1.492160772671510512e-03,1.913514494895935059e+00
-7.624405359488544143e-01,-7.582123449831708051e-01,5.587625848514499172e-01,-5.470601903662671885e-03,2.123724652654424352e-02,2.464701906159395828e-02,1.320331215858459473e+00
-8.287158492800175136e-01,-8.061251775341095049e-01,7.565199028189624197e-01,-3.750395444840461459e-04,1.524146894892569326e-01,7.631098019913282182e-03,1.596100568771362305e+00
-7.852890781932960751e-01,-7.815586934236771199e-01,6.222001734415626428e-01,8.591048562726633087e-03,2.023674663492698589e-02,-3.364854371916824183e-02,1.407350778579711914e+00
-7.628157116886946643e-01,-7.456965208690364832e-01,5.476202639393719096e-01,-1.601046287947158371e-03,2.597250983701237734e-02,-4.412726333162961256e-03,1.302763104438781738e+00
-7.759884230970577335e-01,-7.645099347837762682e-01,5.587781682630058588e-01,2.723167923248690035e-03,1.261312721212765331e-01,-4.608542894052120725e-03,1.346931934356689453e+00
-7.796661972858232037e-01,-7.695101266503686643e-01,5.573134538099372426e-01,1.208779714591957325e-03,-1.372611198266587146e-02,-6.243321780332028448e-02,1.336526274681091309e+00
-5.675902369970022843e-01,-9.613245442826952036e-01,1.122435727862362453e+00,-8.492901175075918963e-02,2.386265702606992986e-02,-9.338212315246861850e-03,1.923601865768432617e+00
-8.633079231578678625e-01,-8.640116249273498417e-01,1.023068754258046109e+00,-2.260700837403695467e-03,-6.735469483394103396e-03,-1.949789592166173684e-03,1.886771798133850098e+00
-8.651815185925657570e-01,-8.657958740289568578e-01,1.068818066458262273e+00,2.513132090200401788e-03,5.255060756474428003e-03,-3.209668693977022272e-03,1.934341192245483398e+00
-8.629770144563034817e-01,-8.615896458988425710e-01,1.060627452917354052e+00,3.092368326268604001e-03,7.851547187097450767e-03,-3.931762449913112079e-03,1.922978758811950684e+00
-8.629302655421359214e-01,-8.652855027289065859e-01,1.061946816353197542e+00,4.964775509096969706e-03,8.390522931104209606e-05,3.292868618537695899e-03,1.926083445549011230e+00
-8.536742028257904291e-01,-8.549972353102700540e-01,1.067819860314534131e+00,-1.552009167247467422e-03,1.756471015162887339e-03,2.378112401181701509e-03,1.922164678573608398e+00
-8.786545064118386206e-01,-8.644058208017916245e-01,1.023197298220931195e+00,-9.074397228555944675e-03,9.014936579253288867e-03,1.081517842283123351e-02,1.894989728927612305e+00
-8.625013172853822629e-01,-8.564379669123329819e-01,1.067744593779498041e+00,1.962583928065554043e-03,4.124962604860807520e-03,-1.940691307678566249e-03,1.927240610122680664e+00
-9.858015726057507422e-01,-7.572712140100631428e-01,6.419643322938861640e-01,-2.862306686860381991e-02,5.585592515285537490e-02,9.481166705473112466e-02,1.539038419723510742e+00
-8.180122722242522126e-01,-8.060415824937408047e-01,5.903687661125764929e-01,7.947558891201887687e-02,9.635826391343561836e-02,3.320463133082533769e-02,1.420187592506408691e+00
-8.106873299171643010e-01,-8.209191610163918407e-01,7.549391723478733329e-01,2.857184730778210974e-03,-2.109824301111094466e-02,7.371975840973153671e-02,1.576380014419555664e+00
-8.670260483574441235e-01,-8.738203102309799464e-01,9.369607721753305807e-01,1.384042262777687021e-02,5.312998826197432717e-02,8.341346054534486132e-02,1.815650820732116699e+00
-8.374995968898940601e-01,-8.043831955118013743e-01,7.861421511568464915e-01,-1.258460350083989883e-02,5.283196678015937564e-02,7.984334064876717763e-03,1.610149025917053223e+00
-1.181213937989376905e+00,-4.345380976000359774e-01,7.655590508523357762e-01,-1.297267950794599445e-01,-1.723024478023346684e-01,1.396493308437686265e-01,1.758379578590393066e+00
-8.238468581933615642e-01,-6.025443799619498719e-01,1.764170885826389368e-01,6.613308272389191445e-02,-7.527855516138107217e-02,-3.402585354559083120e-02,9.282976388931274414e-01
-8.359435504190195765e-01,-8.750058074345885561e-01,1.045410545880544495e+00,-4.161262911824545330e-03,4.685165115301787898e-03,2.009676218585534219e-02,1.901535868644714355e+00
-8.688337807038057914e-01,-8.461058995360447588e-01,9.848376742563393904e-01,8.871111404598060017e-04,-5.216079195371482215e-03,4.624788759480217767e-03,1.842452883720397949e+00
-8.266258247397776371e-01,-8.606613976381222164e-01,9.754144410253693387e-01,-3.359470186669518554e-05,2.211548433265548771e-02,-3.919417767737002137e-03,1.819712758064270020e+00
-6.945247147711767211e-01,-9.385140561434094364e-01,1.052196932102958726e+00,-1.635631579120002885e-02,-3.439722718835223209e-02,9.787687012794249811e-03,1.881857633590698242e+00
-6.929860827497211773e-01,-7.778467594802758178e-01,9.958808454679690669e-01,-2.912997744600279854e-02,7.794242561105453604e-03,-7.319539949435005348e-03,1.733689665794372559e+00
-6.585457917322831145e-01,-8.410403060969792177e-01,1.019663666414677650e+00,-4.801292580846301672e-02,-2.949311490681493300e-02,1.235275528396158687e-02,1.779308319091796875e+00
-7.776186718760508265e-01,-7.868242047857554322e-01,1.024176983221736448e+00,-2.065822942082236671e-02,-8.280177151631974014e-03,1.228546814815920096e-02,1.806952595710754395e+00
-7.533711242851952594e-01,-7.594898331932062874e-01,9.987513318169338739e-01,-6.619489685536508738e-03,8.362027561402626818e-04,6.038996296031874829e-03,1.755259037017822266e+00
-8.152677811468211910e-01,-7.314925242048031517e-01,1.037182007226302716e+00,-7.160520074929055401e-02,-4.462256045323893458e-03,-1.865187054691085566e-03,1.816273927688598633e+00
-7.979873933575188927e-01,-6.761842169715105433e-01,9.952531202629102403e-01,-3.650659037385837330e-02,6.509194153194955250e-03,7.356343706387810655e-03,1.736782312393188477e+00
-8.867224875975078247e-01,-7.876839124581459517e-01,1.025649858766381373e+00,9.695304681593808595e-04,-5.070001371697529721e-03,2.733594834602070048e-02,1.865448951721191406e+00
-9.083259364076080589e-01,-7.637120414062508189e-01,1.074905264712815667e+00,5.504501887743329554e-03,1.235722044351238516e-02,-2.405463702944868332e-02,1.915620326995849609e+00
-9.086887963228814646e-01,-6.642878631084581098e-01,1.013433713861324303e+00,-1.007617982732892390e-03,-2.607868134167239116e-03,4.336213546564648968e-02,1.813886046409606934e+00
-8.995895690380494303e-01,-6.780767345809846081e-01,1.009540247551594661e+00,1.657279466229727785e-02,2.460458120501163304e-02,3.189178903233915591e-02,1.810148954391479492e+00
-3.811565880313816379e-01,-9.632797100021620595e-01,1.012745416351299887e+00,1.727063719900168159e-01,4.823720480165406659e-03,4.632455121042489132e-03,1.784059762954711914e+00
-5.863635660181412135e-01,-8.731929882018728550e-01,1.024591548389282680e+00,6.592596557393043399e-02,-2.081375795671057752e-02,-1.004422019588131765e-02,1.775994896888732910e+00
-7.794973144612130644e-01,-8.322426778003275682e-01,1.160083214246927064e+00,1.912931986234719661e-01,-8.639865953264848353e-02,3.159531592317380011e-02,2.000556707382202148e+00
-4.807730171849483036e-01,-6.988071359041025943e-01,1.172261618327712362e+00,5.638902769319019681e-01,5.526720159603768640e-02,5.119696780646179612e-02,2.027664661407470703e+00
-9.443181504132228676e-01,-6.930589973267751169e-01,1.429168034797607456e+00,5.975179907963508175e-01,8.839387292426914566e-02,1.595432042285477026e-01,2.504215240478515625e+00
-1.249601354476091331e+00,-3.636411940206570326e-01,1.294661059508802392e+00,5.000206535080813364e-01,-1.439753923816351061e-02,1.263995553450966147e-01,2.408878564834594727e+00
-7.948655018078952805e-01,-7.976762508940548058e-01,1.040262263839017098e+00,1.139721713058059749e-01,-1.404355080823862026e-02,-1.014750754217087943e-02,1.847357392311096191e+00
-6.180042772956565456e-01,-6.588275527354180428e-01,1.262006741922175435e+00,4.722412900106138789e-01,1.123765996696259317e-01,2.093991336706704787e-01,2.109815359115600586e+00
-7.651238032199081385e-01,-7.951793293365906345e-01,1.068465134776064307e+00,-1.579619946924867291e-01,-5.442517953218819343e-02,4.072113511534714014e-02,1.872639298439025879e+00
-4.765890334282266161e-01,-8.486400746878740575e-01,1.071965498794795746e+00,-4.549500599433867198e-01,1.361378543524444096e-01,1.321275485415604641e-03,1.946568489074707031e+00
-4.336902819951532484e-01,-1.093287249931850669e+00,1.117650112886416469e+00,-2.007211164729275424e-02,-4.256948252545816186e-02,-7.063167629774415313e-03,1.967683792114257812e+00
-4.904439623005591442e-01,-1.001102340646028432e+00,1.033413211305761692e+00,-1.547127753217798947e-02,1.569998703911074794e-02,-2.900210070863591758e-03,1.833730101585388184e+00
-5.421390678257529405e-01,-9.612099142894217074e-01,9.993549629103601895e-01,4.872856886334073906e-03,-4.883350029315265683e-02,8.732337795949026912e-03,1.790327787399291992e+00
-5.428000441226596973e-01,-8.821704480127013914e-01,1.036985452323092582e+00,-1.338218767201742043e-01,-2.859225654419035242e-02,8.221979207787239591e-03,1.789806485176086426e+00
-5.502277888650777271e-01,-9.379667316774004115e-01,1.034968371781468610e+00,-4.941076717443529387e-02,-2.276565974587077545e-02,8.597304428243843222e-03,1.812989592552185059e+00
-6.127223770084363474e-01,-9.200667102400337249e-01,1.050733781327765737e+00,-1.941966922086404285e-02,-1.683186914654246844e-02,1.128365819233155889e-02,1.837161898612976074e+00
-6.930934865402430534e-01,-9.490881713138497044e-01,1.088338109268680798e+00,6.027685850665484568e-02,8.209085664880749061e-03,-1.300409218117859998e-02,1.925273537635803223e+00
-6.621773784042118693e-01,-9.272061948921650476e-01,1.145169676116952973e+00,9.444425853558766071e-02,-2.058388138827785263e-02,-9.246426830274217731e-03,1.960619688034057617e+00
-7.092372124099045605e-01,-8.830256559934541727e-01,1.046324967269541162e+00,2.247324349300412402e-02,1.903142268139961998e-02,-8.141351839360967679e-03,1.849350690841674805e+00
-5.577785688048910728e-01,-1.000410864633003438e+00,1.059144172665407613e+00,3.004215725972829779e-02,-4.922209412263045536e-02,-6.830662329153756700e-03,1.880473494529724121e+00
-5.678184844918070517e-01,-9.441089132801883110e-01,1.040427450200052117e+00,4.535689555658421745e-02,-6.421433803869459889e-02,-1.768592414433311361e-02,1.831037282943725586e+00
-6.297883787351727936e-01,-1.029386583682883938e+00,1.094913193991713163e+00,-5.082382077157812129e-03,-3.134838492467015292e-02,2.811465239369049293e-03,1.956147074699401855e+00
-5.870150783865737409e-01,-9.087119364176695635e-01,1.029882631933087156e+00,1.757700851165217848e-01,-3.227190000066353093e-02,8.891533216093419276e-03,1.825936794281005859e+00
-9.964609458435821354e-01,-7.668666480147042774e-01,1.188333135304635135e+00,1.884604084353994624e-01,1.105217798777993754e-02,1.125716834156236142e-02,2.105165243148803711e+00
-1.122252502250519868e+00,-3.472296390803940591e-01,1.048907999214014453e+00,-1.305954649113723609e-01,2.187095750216875786e-02,-1.462246875279746561e-01,1.936141729354858398e+00
-1.079641242264589795e+00,-2.718190748443566340e-01,1.077225506895808316e+00,-1.970629635945253533e-02,-2.014284993206463120e-03,6.646049548307138288e-02,1.891220331192016602e+00
-9.390975435875871247e-01,-6.521486430214875618e-01,1.030828911686219040e+00,2.636350069802908744e-02,-5.848445721360909233e-03,5.250869596428767855e-02,1.846115112304687500e+00
-9.631348914130466454e-01,-5.431475758996394676e-01,9.442246434679171241e-01,-3.179949438026596908e-02,2.687804561455796326e-02,4.299057602075463669e-02,1.738990664482116699e+00
-1.351773095671949809e+00,-3.142720331855276550e-01,1.226349182615222411e+00,-1.085990716946303725e-01,-9.087765632365021884e-02,1.505588850721960130e-02,2.260344266891479492e+00
-9.804846142238665685e-01,-7.122291068243915557e-01,1.072642145050371587e+00,1.193731917350259429e-02,-1.806513341712482484e-02,-4.046641949079941847e-02,1.934643864631652832e+00
-5.636541905287336673e-01,-1.221153008145621222e+00,4.825810680526003704e-01,-1.527258732333283964e-01,3.284435246388071883e-02,-1.229610171569140847e-01,1.527540922164916992e+00
-8.207181061460824267e-01,-8.770816366973166467e-01,9.736166711508411620e-01,1.519260323945232409e-06,3.422722801016548494e-02,-1.027027130047090259e-02,1.824220418930053711e+00
-7.458253267965966327e-01,-8.627241660052565875e-01,7.551317320360630969e-01,9.069424355911846758e-02,4.252498609812906810e-02,1.840588327392470303e-01,1.604285478591918945e+00
-6.982448916061164690e-01,-8.951256823018246545e-01,5.426146338445005934e-01,2.265203995577861062e-01,2.252496407910286880e-01,3.957388957456129189e-03,1.459105730056762695e+00
-8.536698306175601880e-01,-9.642745099166574185e-01,8.036013092026332849e-01,9.633636073482294837e-02,1.317790581426837859e-01,8.545230300004387491e-02,1.744685769081115723e+00
-7.606950200097192250e-01,-7.533740742293443260e-01,9.994612663503399386e-01,7.637603854047715114e-03,-7.120729127377488019e-03,3.902074817293949807e-04,1.756600499153137207e+00
-7.668930403754153913e-01,-7.747014373362942630e-01,1.009728677807653074e+00,2.518400513953128125e-02,-7.575203959278103104e-03,-2.352761069276946247e-03,1.781126022338867188e+00
-8.236673347528232769e-01,-7.622797662718646672e-01,1.041651100031892430e+00,4.415608096902751828e-02,-2.074868883393597707e-02,-5.433936684275539331e-03,1.837363123893737793e+00
-7.664409662846478621e-01,-8.292680067883378969e-01,1.054572669717043665e+00,5.563383338551536328e-02,-2.625472557001075694e-02,-3.379602945998875368e-02,1.857209324836730957e+00
-6.753946674183508581e-01,-7.898647830242996326e-01,9.915963340105293788e-01,3.556229033618692886e-02,5.788975022987351629e-03,-3.639634258860375508e-03,1.728212237358093262e+00
-6.727100230877216536e-01,-7.979311023783188794e-01,9.911882074332325487e-01,4.199155379411322747e-02,-6.221737209235935623e-03,2.563188879005939315e-03,1.731478691101074219e+00
-7.709884827120185857e-01,-7.530591792598371192e-01,9.984097418421684633e-01,8.889482789487691133e-03,2.248083282377675175e-03,-3.051519231256344519e-04,1.760573744773864746e+00
-8.265068689717232076e-01,-8.234120054146998324e-01,1.052526529979666892e+00,-3.414718565315354171e-03,-8.126419984993240794e-03,5.603412832718816967e-03,1.877575039863586426e+00
-7.354681796536655103e-01,-7.634787494188435275e-01,9.935316608425766027e-01,2.593136322291104273e-02,-2.610237765199599606e-06,-6.049793998993249593e-03,1.743783950805664062e+00
-9.154984690958223315e-01,-6.076041765153898933e-01,1.040055807558593726e+00,-2.039412262883285795e-02,2.683706483502850543e-02,-3.180756082877739255e-02,1.823000550270080566e+00
-8.433945195382728244e-01,-8.175776710145080672e-01,1.037684331982952513e+00,-6.017513693730757243e-03,1.385001058383426159e-02,-1.141801479132593077e-02,1.868591904640197754e+00
-8.782200754898541462e-01,-6.730813982951038277e-01,1.095643860863677377e+00,-6.415652525315014565e-02,2.779519355180230453e-02,2.895265352115603680e-02,1.884273171424865723e+00
-8.505347794458479882e-01,-6.812567511152898270e-01,1.020795891224925089e+00,-1.846425626363317959e-02,2.048389433619036276e-02,-2.492404158310913484e-02,1.793851613998413086e+00
-1.036698207118757153e+00,-5.454490881279914216e-01,1.065951620309338876e+00,-1.567461597254780556e-02,-5.330879418112510065e-03,-6.902690829500321423e-02,1.909097552299499512e+00
-9.490595306065995329e-01,-7.367606856117793201e-01,1.294430918980201906e+00,-2.704631828236738755e-01,3.029284424829179270e-02,-7.827005121826778600e-02,2.200593709945678711e+00
-8.541737820231464218e-01,-7.546665322531850295e-01,1.037359819599340094e+00,-1.078066990010789934e-02,2.512826375041753157e-02,-2.880617913717337802e-02,1.845077753067016602e+00
-1.110042229133824998e+00,-3.182426973492125111e-01,1.519794747902415200e+00,-2.996920212281495854e-01,1.760118592498560383e-02,2.384019503984396993e-02,2.394319534301757812e+00
-1.133351345300307234e+00,-6.069013532189618809e-01,1.173557775214127075e+00,-9.336937777016948714e-02,-4.214725966094038517e-02,1.037285767056806002e-01,2.109091758728027344e+00
-8.634171692241791041e-01,-8.619370964500251420e-01,1.074081767401946053e+00,1.175037406960900612e-03,-7.903433166063204574e-07,-2.640895716302280385e-03,1.936765789985656738e+00
-8.629572182486259235e-01,-8.655987786508939630e-01,1.071507447084550257e+00,6.291593014708014618e-07,1.451135290783259332e-03,2.543453507055121188e-03,1.935793399810791016e+00
-8.552752649697306087e-01,-8.610414750406452100e-01,1.066534437642193467e+00,-6.268987805426234558e-04,1.330270093006548143e-03,-1.102897313755161861e-03,1.924701929092407227e+00
-8.641863064788966042e-01,-8.610123363257813356e-01,1.066073333871816686e+00,-2.769849687337703147e-04,2.526414834857230052e-03,-2.822584681897971626e-03,1.928685784339904785e+00
-8.611007588007317803e-01,-8.613956431445528583e-01,1.069885661324405657e+00,-1.256337255457427513e-03,-3.078842844269812952e-03,-1.316791940055811938e-03,1.931143760681152344e+00
-8.536300284690337969e-01,-8.612366814622964828e-01,1.068094482793123357e+00,-2.552380290144630470e-03,-9.005706408965444450e-04,1.540783874541233047e-03,1.925546646118164062e+00
-8.650200545959280118e-01,-8.583928837207928098e-01,1.036336247834030333e+00,5.120741161117740511e-03,-6.353661581615488441e-03,5.053727180041845193e-03,1.898124217987060547e+00
-5.794332539601052545e-01,-9.414806379815169324e-01,9.256612055306279174e-01,-3.387537548668659304e-02,1.135009942499269446e-02,1.790894323471207972e-02,1.716419100761413574e+00
-8.618294458579093265e-01,-8.574128590198425437e-01,1.023545586961599696e+00,3.010825917969470796e-03,1.466932193686615316e-02,-1.669022169319497872e-02,1.883571147918701172e+00
-8.530333924634202480e-01,-8.565646058514313488e-01,9.669910024079384492e-01,1.322214556461485079e-02,1.397601353620429691e-02,-2.651615835736095828e-02,1.822676062583923340e+00
-8.568366152835770189e-01,-8.552480192980393969e-01,9.960651651355383329e-01,9.385812396560661366e-03,7.547265503352801330e-03,8.997149106872057503e-03,1.852290987968444824e+00
-8.559384623472150455e-01,-8.548979101603085828e-01,1.006490172766725255e+00,5.643130832378351683e-03,2.258958358252395777e-03,-1.661892614560828152e-02,1.862160801887512207e+00
-8.485710608952343748e-01,-8.118857997076208699e-01,9.179505270130652317e-01,-2.014085321305266948e-02,-1.493392535189934887e-02,2.867594537089473376e-03,1.749013900756835938e+00
-8.603314931275677369e-01,-8.620614663455739013e-01,1.038930189139597449e+00,5.987573432188235878e-04,6.547892686029030060e-03,-4.509928449708134300e-03,1.900177478790283203e+00
-6.333265104205610951e-01,-8.456220371847054107e-01,1.009929023938849646e+00,-3.160353268595063325e-02,2.105279652681311259e-02,-2.603670148739628196e-02,1.760844588279724121e+00
-5.310720202255795330e-01,-9.765206130760940573e-01,1.162279742676281868e+00,-2.553701009787159859e-01,3.087776589300580271e-02,-4.456776720560830241e-02,2.006147146224975586e+00
-6.002940140729986496e-01,-8.834221243577914384e-01,1.085230553933170361e+00,-1.085610197361115692e-01,-1.192125830922324652e-02,-3.839860272383086200e-03,1.853159785270690918e+00
-8.719639453279731667e-01,-6.476862919681806163e-01,1.019160121593376545e+00,-1.205631736595745712e-01,-8.630112220949464133e-03,-1.257583936533071545e-02,1.801892995834350586e+00
-6.333373295373692091e-01,-8.949545631521859113e-01,9.646119207959704678e-01,-8.656051180588551774e-02,9.281408394649962035e-02,-3.475531304152459922e-02,1.758374810218811035e+00
-7.350100777864381207e-01,-8.638056151452438991e-01,1.036442412478238984e+00,-4.605907237899767304e-02,-9.264133062321872406e-03,-1.208275563666207260e-02,1.841153740882873535e+00
-8.343297315568757311e-01,-8.622471776906216467e-01,9.882484961670521262e-01,-9.233876834692613875e-03,-3.604677466765553433e-03,1.864208141505954361e-02,1.837060093879699707e+00
-1.199989109169814938e+00,-5.085091226934002062e-01,8.035895187541206575e-01,-5.142131986483537975e-01,-4.303509317684776903e-02,1.816885818576083333e-01,2.001217365264892578e+00
-1.079957348267206907e+00,-2.499672136769973685e-01,8.391708310972476603e-01,3.822474942830240974e-02,-5.648395992832529883e-02,-4.724289723544037450e-02,1.673239231109619141e+00
-7.080742139699511828e-01,-9.984905100336617378e-01,9.852129527813771048e-01,3.403127404847326037e-02,-1.209007074349893003e-03,2.985180980995724362e-02,1.857275843620300293e+00
-3.646239264259051316e-01,-1.015491272511432896e+00,6.634783131035216774e-01,-7.064694115493302951e-02,3.071210267028491592e-02,-3.983828036751999729e-02,1.473887562751770020e+00
-8.168236903953498551e-01,-8.482170959952985978e-01,6.171306303829086071e-01,-8.274043366530576746e-03,-1.471680259957698911e-01,1.618579361759890090e-01,1.498666644096374512e+00
-4.438912551210820734e-01,-9.691799451980319668e-01,7.331545887467918465e-01,-2.600425907154711447e-01,-6.535232967653310798e-02,-2.662578149180789416e-02,1.580335378646850586e+00
-6.364397678422164528e-01,-1.104873335579472204e+00,1.208309866527099707e+00,8.542698332987630483e-02,-2.071681694086504981e-03,-3.852170010695418756e-03,2.123352289199829102e+00
-5.879873218883887587e-01,-1.003263400811185813e+00,1.176243532507866618e+00,-2.547573054470444465e-01,4.528318884513019005e-02,-3.085959209603427594e-03,2.053896665573120117e+00
-5.617896628032762463e-01,-9.706073210074096513e-01,1.061214602053357492e+00,-7.624472185497598595e-04,-2.046416089139686117e-02,1.288743618503739724e-03,1.861733198165893555e+00
-5.004538332906580678e-01,-9.473058072033317956e-01,9.889875982080924555e-01,-7.373255361012089060e-02,-3.869130042154941135e-03,-1.259926411298425454e-02,1.760824441909790039e+00
-6.343051518836715363e-01,-8.645316628851945628e-01,1.074531166352669320e+00,-1.480595244170097302e-01,3.763508914316551074e-02,-3.614221013307623159e-02,1.854852557182312012e+00
-3.398336716983599293e-01,-8.545722473713401879e-01,9.933577991902045046e-01,-4.136111158640449204e-01,1.497007841630877967e-01,-6.567824510268423233e-02,1.822633981704711914e+00
-2.290529493139348838e-01,-1.165580420412396734e+00,1.435659204796216226e+00,-9.943387871380712784e-02,1.663366751607627536e-01,5.278750541669909729e-02,2.308337926864624023e+00
-3.296423171459448298e-01,-1.288678616598058824e+00,1.110803644620309338e+00,-4.203426757785527212e-01,1.550042104923279596e-01,-1.211734417898154134e-03,2.231193065643310547e+00
-7.715632005619650347e-01,-7.831045083290784081e-01,5.341901642391074789e-01,8.437198223314594167e-03,5.158838601952651232e-02,-1.269869588678932404e-01,1.332955360412597656e+00
-9.456691445705001087e-01,-8.837178895878037288e-01,7.447983670893276731e-01,-2.147460672675312321e-02,1.341458016123805441e-01,-9.754914121794169835e-02,1.685440063476562500e+00
-7.980403410011241983e-01,-7.979800855819092487e-01,7.066406189288951811e-01,8.960323814240035495e-04,-2.091371169819429207e-02,1.371282924047485981e-02,1.505275011062622070e+00
-7.985292352516285552e-01,-8.204612627658639523e-01,7.822044427206229500e-01,1.022666519334712934e-02,-4.251127753951540467e-03,-7.181875953287256142e-02,1.596781253814697266e+00
-7.982841163469976964e-01,-8.262509298051919915e-01,7.745261956448634688e-01,-7.983186066850601198e-03,7.459243829450835223e-03,-7.131757860510903879e-02,1.591891169548034668e+00
-8.740639808400955113e-01,-8.595478939432726895e-01,1.042820835035680682e+00,-3.322782582927666459e-03,4.538308090945688926e-03,-7.846225029851592843e-04,1.909693479537963867e+00
-8.642409857552696417e-01,-8.602110602045511811e-01,1.045619702907969906e+00,-7.279708333906872823e-04,-5.076528604808911143e-04,4.191104290643674242e-03,1.907863378524780273e+00
-8.674503793592036605e-01,-8.629216168315606561e-01,1.062212321833756246e+00,-3.259677043421016236e-03,-1.041398602996827295e-04,-3.408482207053305929e-03,1.927419662475585938e+00
-7.918963759815965675e-01,-8.728328934742179968e-01,1.029643567364264545e+00,3.331868388808135410e-03,2.481891761611058206e-02,3.002764321535734016e-03,1.863839030265808105e+00
-8.616693648960013219e-01,-8.632917616311661657e-01,1.048002418931969881e+00,-3.818854181797288593e-03,-9.649297064855443321e-03,-5.817863997588729880e-03,1.910594582557678223e+00
-8.506286702898394614e-01,-8.603781738463428530e-01,1.030803678224290643e+00,-2.175493124112150376e-03,7.762094714312599286e-03,1.088417872499356474e-02,1.886471867561340332e+00
-8.156272488559782596e-01,-8.626935915883819916e-01,1.052250141501350100e+00,5.189274062055533251e-03,2.627724507983534435e-02,1.818236761540273014e-02,1.892680525779724121e+00
-7.459476217637202033e-01,-7.621752116443287761e-01,9.975209652834995389e-01,-1.781991821305672213e-02,-6.815138100340927506e-03,6.423486510405519018e-03,1.751985788345336914e+00
-7.404553708861216776e-01,-7.989242252016885981e-01,1.015744070508952213e+00,-8.487497649614083109e-03,-1.338476867939775161e-02,1.393374772393665348e-02,1.786525726318359375e+00
-9.279650107090482436e-01,-4.693935317024479081e-01,1.157914271537411333e+00,-3.584288198032805073e-01,-6.953152389355818364e-02,8.851926315902274023e-02,2.007007598876953125e+00
-7.910101961563014150e-01,-8.125099898938376031e-01,1.032771457287640970e+00,-8.407955056743653122e-03,-1.513385700275205088e-02,1.797505874278617147e-02,1.835135221481323242e+00
-8.431012042122124628e-01,-8.614194722293505579e-01,1.060381582653579846e+00,-5.811833253137436983e-03,-5.077519796970833901e-03,-5.871497976937388452e-03,1.912781476974487305e+00
-7.628265205271295146e-01,-7.702197053353856404e-01,1.005679164275093074e+00,-2.263193565917166142e-03,-8.672054482522477056e-03,7.668311727662258277e-03,1.772331595420837402e+00
-7.945283598594667929e-01,-7.783203893579149213e-01,1.028665888679665796e+00,-4.893134239852858086e-02,-1.163305934425435707e-02,6.897338476655716887e-03,1.817273020744323730e+00
-6.426886208081401541e-01,-8.745365239437004057e-01,1.045970962319515030e+00,-5.670537741050875324e-02,-1.474483441346702110e-02,1.569650280819402666e-02,1.818756341934204102e+00
-8.132745017187429371e-01,-7.255347224866013356e-01,1.053737072364607785e+00,-7.598139909061245312e-02,-3.744477192284349082e-02,5.744573734690863048e-02,1.833315372467041016e+00
-8.015311646770238996e-01,-6.872462193525862295e-01,1.000436622095417505e+00,-3.259307514730287736e-02,-3.527991343584641927e-03,-6.442385838353887305e-03,1.748587965965270996e+00
-7.975800423001987438e-01,-6.990500167455044878e-01,9.985822719558197225e-01,-3.252503725282344937e-02,-1.498356187701639988e-02,1.599707425059091609e-02,1.750298857688903809e+00
-6.559204487843663944e-01,-8.066949963615762664e-01,1.005364643667798985e+00,-3.946490470251760169e-02,2.510835369316713819e-02,-1.698816510533088936e-02,1.743705868721008301e+00
-8.116161149891449877e-01,-6.965330996885937820e-01,1.017888060818951335e+00,-2.800529711528350341e-02,1.932574581004000910e-02,-2.402777148752396896e-02,1.776229143142700195e+00
-6.526240247756673885e-01,-8.679597845071505002e-01,1.066768795469547504e+00,-8.986848644040341949e-02,7.744892931243947676e-02,-3.280832729392787334e-02,1.848886489868164062e+00
-8.761663670162677109e-01,-6.442248351421611119e-01,1.020566347594863865e+00,-3.531248511517024596e-02,1.774808573417715682e-02,-2.000495836801569408e-02,1.793696522712707520e+00
-1.130141066088241608e+00,-4.497622775219731750e-01,1.215630345544831403e+00,-1.156236945305539054e-01,3.186665090996008975e-02,-9.017673330039638335e-03,2.100700616836547852e+00
-8.632792083403483252e-01,-8.579861631670087085e-01,1.027885502566490361e+00,-3.477348285758216900e-03,-4.629024919071011816e-03,-6.218315264151230704e-04,1.888550639152526855e+00
-1.147355100050775345e+00,-3.303449357512184270e-01,1.538623349468451362e+00,-8.083580150367808415e-02,1.000534987162583628e-01,-5.312844425987899022e-02,2.397001743316650391e+00
-8.677282793223245472e-01,-8.611037459093840996e-01,1.027009464764100155e+00,-1.393297190009692293e-02,2.853661777059218144e-03,-2.607988199119628658e-03,1.891600012779235840e+00
-8.658251058133743516e-01,-8.608985489621127085e-01,1.043302653706590810e+00,-3.987933783573175892e-03,-5.306342285199093642e-04,7.883810280878809570e-03,1.906730890274047852e+00
-5.755896249641387907e-01,-4.835999652115017255e-01,1.111461004959044319e+00,-5.131955457655362762e-01,3.912819495672890252e-02,-5.901384649798182419e-02,1.872047185897827148e+00
-8.558670937479275764e-01,-7.520406431012572890e-01,1.038497119360346943e+00,-1.283476789233352691e-02,-2.582013196999968091e-02,2.654774160946500594e-02,1.845892548561096191e+00
-8.557273875549896713e-01,-8.741441432289681623e-01,1.027238609753986287e+00,-2.652101173058517627e-03,2.275452994714666829e-03,-7.210555341200960283e-03,1.892292499542236328e+00
-9.167979070150692467e-01,-5.533221658765332673e-01,1.031825097656458468e+00,-2.279638325874814089e-02,1.434417253403495740e-02,-2.613948091345718802e-02,1.795882821083068848e+00
-9.682526098157733241e-01,-5.190180111967742649e-01,1.018509721971793791e+00,-3.075574374326425428e-02,6.805914921825405653e-03,-1.509375871021754675e-02,1.805595159530639648e+00
-9.624271919279965282e-01,-7.831249033337914778e-01,1.096325167914575793e+00,-1.761718525085484710e-01,6.471140003199089830e-02,-2.979399035819149926e-03,2.001791715621948242e+00
-8.565145899820284514e-01,-6.676206861052726982e-01,1.023975828989905246e+00,-2.854185052862225763e-02,-5.865543758402728611e-03,7.850120162868533258e-03,1.794280886650085449e+00
-5.878599989389794445e-01,-8.778996477794880349e-01,1.021281599467542378e+00,-1.086330541656343601e-01,1.684462534440885062e-02,-6.631486062888105985e-03,1.782290935516357422e+00
-6.261476830410616090e-01,-9.793875428283814744e-01,1.299635893204266868e+00,-2.526716915558316900e-01,-4.872257531628580024e-02,6.800530272361285378e-03,2.170823335647583008e+00
-6.510378939859964298e-01,-1.022150809550564698e+00,1.283343238156249733e+00,-2.324622488543575394e-01,-3.580670454784323081e-02,3.781221976903138826e-02,2.183501958847045898e+00
-5.620152395220971986e-01,-9.731617140227531992e-01,1.213250743250969599e+00,-1.492541526454578271e-01,-2.699072430991265870e-02,-8.737210948108249274e-04,2.029660940170288086e+00
-4.853544633416528864e-01,-1.249920536766511603e+00,1.669560321498698707e+00,-4.715897505957052926e-01,-8.396000917132101504e-02,2.718045221543078510e-02,2.750699758529663086e+00
-4.080852171639754999e-01,-9.525435906542396580e-01,1.505589421846445619e+00,-3.153491432586306153e-01,-7.117979011219652263e-02,-2.804625802504828735e-02,2.305731296539306641e+00
-8.691375629150795978e-01,-5.354196075444470626e-01,1.106319441275556814e+00,-2.246944788401196158e-01,-1.743998481376769077e-02,5.092108311495226192e-02,1.874755144119262695e+00
-4.717977340186887414e-01,-1.038528773805163841e+00,1.382744367971131094e+00,-4.877479050204894251e-01,-2.055448282189137332e-01,-2.153871955618143121e-03,2.377391576766967773e+00
-8.620884804558375247e-01,-8.658915526748859337e-01,1.067776435223484199e+00,-1.498713273633753068e-03,1.395962739769315408e-03,-1.079300040255233226e-03,1.931773424148559570e+00
-8.490795016654480998e-01,-8.502181052735902078e-01,1.064578090729886295e+00,-3.578227566461669035e-03,-5.745516231526118581e-03,3.772880079413296842e-03,1.914274215698242188e+00
-8.706728252803210832e-01,-8.323644164413582791e-01,9.421156941368049598e-01,1.021387246529307201e-02,-1.541785040414720039e-02,3.590523231850631380e-02,1.795304536819458008e+00
-8.339343459906198852e-01,-8.240821355604498466e-01,1.050771712576106465e+00,4.857145676083150234e-05,-8.840241411449000289e-03,-1.247450526605744202e-02,1.879985809326171875e+00
-9.185980386615663074e-01,-6.757635182369352567e-01,1.035244995171846538e+00,2.302248075576415753e-02,-1.183139805972628286e-02,-3.288535547467782982e-02,1.845877885818481445e+00
-8.638080107808874253e-01,-8.541436922905533136e-01,1.063447258000232321e+00,-8.899397752604994247e-04,-7.544179392804382586e-03,-5.093004139643357575e-03,1.922506570816040039e+00
-8.538913513077676098e-01,-8.582594138000509965e-01,1.067522598947004520e+00,2.557797449951630751e-03,2.324596212665977664e-03,3.047967653808384986e-03,1.923618316650390625e+00
-8.916315886066712437e-01,-7.366946086825640894e-01,1.047487346173733069e+00,-2.517260494813669536e-02,2.498127887818889920e-02,-3.663864795160170357e-02,1.868568062782287598e+00
-8.905559985994306871e-01,-7.885096285718959930e-01,1.035051324808808459e+00,-3.685416587956799085e-03,1.130640908975880446e-02,-1.860449724277657771e-02,1.877055764198303223e+00
-8.529888063220647521e-01,-6.955355466261888830e-01,1.042293106786024159e+00,2.422569221174806012e-02,-8.286781080454698467e-03,-8.213176245838489306e-03,1.822261214256286621e+00
-8.594397814855383455e-01,-8.551047903755151225e-01,1.025601858895594631e+00,1.027414217671886003e-02,-2.311180320141200187e-02,1.309336301556947302e-02,1.883523941040039062e+00
-9.685664705190540902e-01,-5.355122979125220839e-01,1.038918242429446526e+00,1.165561741515662442e-02,-1.577441646064348894e-03,-4.425903568199117399e-02,1.831521987915039062e+00
-9.138598587702432274e-01,-7.725939047433908469e-01,1.065165913521502583e+00,3.634965489824141301e-03,-2.032208751116979656e-02,4.201180744494332348e-02,1.914028167724609375e+00
-8.970342362331014119e-01,-7.784798698159894892e-01,1.059425138726491911e+00,-1.191841738879165571e-02,9.916295251345406611e-03,1.218735712604404955e-02,1.900265336036682129e+00
-8.780743799505629221e-01,-7.853907166621735270e-01,1.052620768980182975e+00,-3.679830585543740051e-03,1.896657380368760651e-02,2.646719848494102911e-02,1.886915922164916992e+00
-8.804309053095230597e-01,-8.073999429064329103e-01,9.223028495138732019e-01,4.216970251239350213e-05,-1.263053224566417464e-02,5.457977665982580856e-02,1.770012021064758301e+00
-9.145523832492798988e-01,-6.798123664304543956e-01,1.048339721793115187e+00,3.909040002036475066e-03,-7.864826442628220643e-03,-4.677920868734487120e-02,1.858514308929443359e+00
-9.013636878321730217e-01,-8.931260044078482840e-01,1.228759815515585219e+00,-2.577129111069200729e-01,-2.363019239272734148e-02,6.385182314348344934e-02,2.175569057464599609e+00
-1.009156970886246452e+00,-6.883305917624948922e-01,1.236601908145073425e+00,-1.543257964091910572e-01,1.727185252030550427e-02,2.499448292700406221e-02,2.121339797973632812e+00
-9.321344723468298898e-01,-6.592210434115746143e-01,1.016210717228661187e+00,-6.783579141730830542e-02,4.323828558596408411e-02,-5.125277546586048255e-03,1.832564830780029297e+00
-8.568581769256470304e-01,-8.258545641249018798e-01,1.061137071709120194e+00,-9.684297521872478956e-03,1.607691720029572058e-02,-1.127925539704991223e-02,1.903060913085937500e+00
-9.459526546867583763e-01,-6.695073961026761777e-01,1.089515968104447730e+00,-8.015066301495107903e-02,-2.720307222267490110e-02,1.573080563873741761e-02,1.918096303939819336e+00
-8.631502678465021727e-01,-8.615929771484510669e-01,1.023877439209240237e+00,1.415564982957165374e-02,-4.268273219047431614e-03,1.587322726413837454e-02,1.886623740196228027e+00
-6.874946873356599930e-01,-8.083918714903404190e-01,1.060239660243920801e+00,9.681329779173906969e-02,3.632897546444709136e-02,1.980569012444896929e-02,1.820368766784667969e+00
-6.984694419751310557e-01,-5.313916359041196413e-01,9.536279677034247282e-01,-4.397510463402319880e-01,4.818741139129815304e-02,2.571871668815756476e-02,1.752257227897644043e+00
-1.016921976934969774e+00,-3.166584084888066086e-01,6.056330514609289395e-01,-2.730671788909694864e-01,-8.246352845292762024e-02,2.388079278877431599e-01,1.549846172332763672e+00
-5.833635742618930031e-01,-9.508421716601288542e-01,1.047660472308807211e+00,2.803713558243478218e-02,-3.648138412317991630e-02,-1.025249031351258694e-02,1.844264745712280273e+00
-5.905976275873227044e-01,-8.728493078346796219e-01,1.017752392109771309e+00,6.142818344069540804e-02,-1.983671708457546493e-02,-1.219943013830813473e-02,1.770130634307861328e+00
-6.213565243595162713e-01,-8.648255777010811496e-01,1.018499654730703030e+00,4.888169938483796079e-02,-1.384780315871122353e-02,-4.491115347664141784e-03,1.776362538337707520e+00
-6.041997960905596265e-01,-9.278878841351430040e-01,1.056972015096661943e+00,6.441969147633977433e-02,1.588200374289546260e-02,8.821551320439382018e-03,1.848082065582275391e+00
-4.673574998616709664e-01,-9.530693261664490157e-01,1.037032038545764312e+00,1.109985642639151893e-01,-2.210374212613171879e-02,3.751877937403860948e-03,1.807836771011352539e+00
-6.436738790315708059e-01,-8.794882467263646086e-01,1.033532296607630352e+00,4.440899674354582827e-02,-3.463358725950459877e-02,-2.111936053539828842e-02,1.809693694114685059e+00
-6.649325437468187605e-01,-9.004969452588353906e-01,1.070606122244812664e+00,1.278528928082233729e-01,-2.639785488732696375e-02,4.212473353906343032e-03,1.878190398216247559e+00
-5.497663895648983168e-01,-9.116420294820926085e-01,1.001245966436247192e+00,6.897688643820859555e-02,3.326343389780039850e-02,-1.817663529558750934e-02,1.765347242355346680e+00
-2.343467384265227049e-01,-1.015982369033104016e+00,1.116443161407278506e+00,3.350854186674686597e-01,-9.636996192973909525e-02,-2.730672321326200330e-02,1.964270472526550293e+00
-4.643943138844061624e-01,-1.136111056954485665e+00,1.230834598853555173e+00,4.975957538729571250e-01,-1.347410584980301418e-01,9.613927402833991054e-02,2.299721002578735352e+00
-5.126497381456252000e-01,-1.073575587144705690e+00,1.146618784458667273e+00,6.997495698187891633e-02,-1.206817673410614938e-01,1.840734817143035648e-02,2.014431715011596680e+00
-3.973481585616145950e-01,-1.282631098408047565e+00,1.212781627584172073e+00,3.554986502126514791e-01,-9.950800780974677906e-02,-1.358292171658885827e-01,2.294745445251464844e+00
-6.170871546478312597e-01,-9.054330428048050772e-01,1.035958496725455813e+00,-1.234212765510840498e-01,-2.017499293151105849e-02,2.983639901577369094e-02,1.828098058700561523e+00
-4.739935819731037059e-01,-9.342345821070847656e-01,1.005006977783619693e+00,-1.130191703316420215e-01,-1.953870525670392544e-02,-2.870301531456017448e-04,1.766189813613891602e+00
-5.898494989057638804e-01,-8.781492978353071521e-01,1.019727532633261102e+00,-5.886096290788567220e-02,1.447103008431302983e-02,-1.123115468945569059e-02,1.774625658988952637e+00
-6.419545428668099740e-01,-8.697101967094792441e-01,1.032214908890465743e+00,-4.444077550783735037e-02,3.942200210358606099e-02,-2.363153801177469288e-02,1.802298545837402344e+00
-7.344155749270548927e-01,-8.649050964434362720e-01,1.035656881221665770e+00,-4.754634727133030814e-02,-1.142146085412889048e-02,-1.347821056525042201e-02,1.840890645980834961e+00
-6.789506408269790905e-01,-8.487704007376184467e-01,1.022079265850816654e+00,-1.658926115889779521e-02,2.279420813268889789e-02,-2.496337523925038285e-02,1.793171405792236328e+00
-6.777174032444759355e-01,-8.639359945668810825e-01,1.042819852350914456e+00,-9.060202666961973683e-02,1.396575026451367038e-02,-2.053346437441425087e-02,1.828058481216430664e+00
-7.768840529138104634e-01,-9.057817587589502839e-01,1.028983963015829062e+00,1.799007415555521454e-03,3.283384911403933962e-03,-2.565517766973106351e-02,1.874183177947998047e+00
-7.701316551224708373e-01,-8.925197611478520310e-01,1.052966747929374280e+00,-6.068085091760959046e-03,-2.264548528145382544e-02,-3.660866227094209790e-04,1.887707948684692383e+00
-8.590901419171748099e-01,-8.557055395406234499e-01,1.003985763061133296e+00,-2.842902718385483928e-04,-1.676233684612447872e-02,-5.088130096554034469e-03,1.861633300781250000e+00
-7.852034901153295277e-01,-7.071931251279808262e-01,9.994619805979736427e-01,3.456537391647296342e-02,-4.608000682175974680e-03,-8.907637862486562572e-03,1.748078942298889160e+00
-8.511720988074156224e-01,-8.304499285490245519e-01,9.054055443330197850e-01,3.653865320039465479e-03,-3.431802620304921780e-02,-3.963862437734006448e-03,1.747345089912414551e+00
-7.739853855237196489e-01,-9.265377014178670656e-01,1.096198308615098371e+00,-1.202991623394957313e-02,-1.129553144824666129e-02,-9.791307606653440118e-03,1.951221346855163574e+00
-8.578582411818249653e-01,-8.639154902108590051e-01,1.028303423818990980e+00,-2.074209987807649515e-03,7.195730032079174394e-03,-4.726889775574332798e-03,1.889259815216064453e+00
-8.572185403999116327e-01,-8.682970995777655743e-01,1.039293549790215376e+00,-5.626416405087044607e-04,5.607744981624730729e-03,-9.750342963415297142e-04,1.902101397514343262e+00
-8.513111545316834894e-01,-8.391066183407751566e-01,9.129178969064017934e-01,5.553156805802394493e-03,-3.901875903837678794e-02,1.169883374652905305e-03,1.759484410285949707e+00
-8.745408870598712081e-01,-6.156884009350869214e-01,1.011018502189131363e+00,-5.476594891136706000e-02,-2.127537213548383061e-03,-1.087612134722343825e-02,1.773026585578918457e+00
-8.476194666312910631e-01,-6.772486883916324363e-01,1.022782299672185591e+00,-2.755088163164522153e-02,-3.262251788859707458e-03,-5.103271894250868169e-03,1.791969418525695801e+00
-7.929959015411870427e-01,-7.034153616603384673e-01,1.213291902270706268e+00,-3.445865961709315139e-01,-7.165393482222423560e-02,5.703137802891907610e-02,2.057880401611328125e+00
-9.155499258483651426e-01,-7.001025651153400808e-01,1.111708610497398553e+00,-2.582191348951357046e-01,7.149115773346906635e-03,-1.150596531018546992e-05,1.979800939559936523e+00
-5.674439724478366198e-01,-7.147973501568681831e-01,1.012097474625086146e+00,-2.786517136699108721e-01,2.595395458987064322e-02,-2.089070163948774164e-02,1.727913618087768555e+00
-7.998981823830302318e-01,-6.730756186566798638e-01,9.915329077482029074e-01,-3.288624065597369611e-02,5.717173759730093813e-03,5.501870573645954103e-05,1.732471704483032227e+00
-8.028949022593669937e-01,-6.785712718673140298e-01,1.011035181506582115e+00,-2.790647048883309125e-02,2.225494349760007151e-03,8.638288003093196749e-03,1.755807280540466309e+00
-6.669502420512423146e-01,-8.006678313388663204e-01,1.008235901911730181e+00,-3.333445710972492843e-02,-2.111671460272368517e-02,5.546088429689767507e-03,1.747253417968750000e+00
-9.157742962873171022e-01,-7.961998079053841382e-01,1.092517548262329052e+00,-4.617081388001136044e-02,5.869178559623778810e-03,1.700930278263807979e-02,1.953141093254089355e+00
-8.888607109585358046e-01,-6.638576948431217373e-01,1.071472320015789403e+00,-1.080327089293799531e-01,-1.286608742132077689e-02,6.567865971804640220e-03,1.867642998695373535e+00
-1.032592136917899861e+00,-5.492261731566019378e-01,1.064437528333781469e+00,1.541160702214025846e-01,1.288629439235629455e-02,5.597971308608483409e-02,1.923199892044067383e+00
-8.370962682824424350e-01,-6.345734613640923172e-01,1.006817905121456302e+00,1.167137020108747758e-01,1.462869891678894065e-02,1.568816411243832178e-03,1.763268589973449707e+00
-8.251942909582430374e-01,-7.998583317073003629e-01,1.164293581551942625e+00,2.624385504286088078e-01,-5.904269834758611030e-02,-9.927127212474662343e-02,2.038367748260498047e+00
-8.600929015850554693e-01,-6.459663028738571455e-01,1.016147298276103506e+00,8.986857990993452061e-02,7.701849944495578297e-03,-2.396101783501598803e-02,1.786198139190673828e+00
-8.785947885213881703e-01,-5.360769885983651672e-01,1.054232516913525375e+00,3.024454262433620144e-01,-3.278867071941067666e-03,4.555998917433962125e-02,1.863274335861206055e+00
-8.767873168395275973e-01,-6.426748793999744747e-01,1.025273155565688876e+00,4.532308224454346945e-02,2.807150068503827534e-02,4.065524554753137398e-02,1.800230979919433594e+00
-6.149125688652919974e-01,-7.640563435652546476e-01,1.504615663265626235e+00,3.902959344520757767e-01,-6.761372818741240472e-03,8.879063661572492161e-02,2.304677724838256836e+00
-9.048828074186485715e-01,-7.116804094847082318e-01,1.058553123978043464e+00,1.652193151197069859e-02,-1.364514233580328955e-03,2.793185508868143568e-02,1.875162005424499512e+00
-8.222919246671296367e-01,-8.463819825387953744e-01,8.571601088430651494e-01,-5.399711916686177234e-03,-5.682523685772455403e-03,-1.811542764863241853e-02,1.691971182823181152e+00
-8.720913956520058852e-01,-8.794504451104827591e-01,8.762357220319560991e-01,-2.665437273040477048e-03,-1.089482018247518169e-01,-1.711873130745452873e-02,1.762406706809997559e+00
-8.708809069737302178e-01,-8.735657327376226133e-01,9.130708161919154353e-01,-8.030231840468802715e-03,-7.215338399194591579e-02,-8.410401244225098119e-03,1.789777755737304688e+00
-6.875229485813252328e-01,-9.204899211286216021e-01,3.168417727312436982e-01,1.587274984609044273e-02,-3.202304689859714060e-01,7.781110463921099563e-02,1.274193167686462402e+00
-8.853249855178478844e-01,-8.718545495837578541e-01,8.176829231597340097e-01,4.671504931360527524e-02,-1.476649076105038261e-01,-4.972125155004304686e-02,1.719550967216491699e+00
-7.415104346324010720e-01,-7.476876140920543090e-01,4.466921115527026087e-01,7.383098477538859415e-03,-5.407696017762986251e-02,-2.498700262711842091e-02,1.195831418037414551e+00
-8.589622030568307975e-01,-5.996069335929901101e-01,1.000038650288343822e+00,4.818827699173909573e-02,5.773686023081640021e-05,-9.600282614903385067e-03,1.745923995971679688e+00
-7.765998011560214520e-01,-7.719454582165033996e-01,5.807121655188586251e-01,4.087940250636335447e-03,-2.630569867633261380e-02,-6.824884903867951824e-02,1.360918760299682617e+00
-1.125972240954390635e+00,-5.084293615603863170e-01,1.203990597391482176e+00,2.055258247562989082e-01,2.900976720735606862e-02,-4.135411020897445528e-02,2.122642755508422852e+00
-9.743747692263826643e-01,-5.636611880306969802e-01,1.047815297649169697e+00,3.386201731161381928e-02,-6.021239563987383116e-03,-4.881670982455024732e-02,1.854210138320922852e+00
-8.026582049765080829e-01,-3.919670709573563894e-01,1.106253664092426092e+00,4.735018406144235747e-01,4.524889163988971008e-02,2.313917044467661208e-02,1.925876259803771973e+00
-1.020101084957603987e+00,-4.777152537063338311e-01,1.067661468014256876e+00,3.804498230681712789e-03,-6.668676875622148691e-03,-1.909394972199703402e-02,1.876654624938964844e+00
-1.006118749880081431e+00,-3.634456937906671015e-01,1.038376432565814911e+00,-1.987319223161618242e-02,-7.468641392800436964e-03,-5.234853535847204531e-02,1.813455462455749512e+00
-9.688449284665308081e-01,-3.868456479094388722e-01,1.109847149294126867e+00,3.049510510497017712e-01,6.148806789298435355e-03,4.739880100703235122e-02,1.932802438735961914e+00
-9.739478715463862901e-01,-5.119808688837780286e-01,1.050714486243174317e+00,7.098792499848602215e-03,-2.326931333226573209e-02,4.392429857474706360e-04,1.838238358497619629e+00
-1.011463592496412822e+00,-5.102649321936839621e-01,1.051028261445563716e+00,-9.857422130002121280e-03,5.065609400953091472e-03,2.153004638679387531e-02,1.863629221916198730e+00
-8.807419327761850658e-01,-6.487986374560170688e-01,1.072050461799721521e+00,-1.176871328194274285e-01,-1.523308521316591065e-02,1.676224225258817271e-02,1.859394669532775879e+00
-1.148740430986533667e+00,-3.486254132537842110e-01,1.178635834450853848e+00,-9.456134810952084718e-03,-2.278080214670702430e-02,-3.677379450111481485e-02,2.049530982971191406e+00
-8.925889865958163139e-01,-6.760396257203378223e-01,1.105964910345527574e+00,1.140472729050808487e-01,-1.608021854108962131e-02,-1.997987495062041388e-02,1.910319209098815918e+00
-7.975978962706806730e-01,-7.171104787342772457e-01,3.802436342821663429e-01,7.102902501435262583e-03,-7.192559319787981964e-02,-3.779556121220656317e-02,1.148452997207641602e+00
-7.943735474917903439e-01,-7.596994678121405942e-01,1.019932920756696504e+00,5.544166900295381673e-02,-7.063979415101427801e-03,9.537016249642633328e-04,1.799826264381408691e+00
-8.022664434896171759e-01,-7.957228386785535346e-01,7.423752144809478981e-01,5.922830676904797427e-03,9.883817055469489715e-03,-3.463594875654520209e-03,1.541521191596984863e+00
-7.569857645832780424e-01,-7.295743146816542346e-01,5.062587918129651809e-01,-7.125397273053024096e-03,-3.273019607559440186e-02,2.917447625528852336e-03,1.251120448112487793e+00
-9.949084850787366374e-01,-4.938463892541581912e-01,1.031872767088287235e+00,-4.567597854120108471e-03,7.214594571497708704e-04,-1.651732078083591529e-02,1.828727602958679199e+00
-9.762963751742327334e-01,-4.994818295996675817e-01,1.051831070321156414e+00,-3.900291845516290490e-02,-1.884973301776301721e-03,2.700907269391916027e-02,1.838579654693603516e+00
-9.248319914421541110e-01,-5.164115879610878812e-01,1.019546411824084231e+00,-8.141595542729604396e-02,1.953648650184004775e-04,2.841457140309680204e-02,1.782020926475524902e+00
-8.460867056902149352e-01,-6.928242761316650844e-01,1.031214468927607042e+00,2.268844811839009976e-02,4.563763025336425860e-03,5.842429038694775360e-03,1.806028366088867188e+00
-1.019897284161471518e+00,-4.863963043690598398e-01,1.083880672130939526e+00,7.214209972800314334e-03,1.914588092691224812e-04,1.301095549290352468e-02,1.894413232803344727e+00
-1.013605513245366962e+00,-3.831639995600253368e-01,1.047622088761913206e+00,-1.949630501818616288e-02,1.765211246819082706e-05,3.016242412061041767e-02,1.830437660217285156e+00
-8.717312082327214329e-01,-5.340410847543751727e-01,1.016864226627177237e+00,-1.771583000500093763e-01,-1.250999211197492862e-02,-4.468892076173037304e-04,1.771353363990783691e+00
-8.725689465976906867e-01,-5.897253982501211578e-01,1.031189967468542301e+00,-4.478481120593912762e-02,4.595709912940933693e-03,-1.737212602293562724e-02,1.781240701675415039e+00
-1.142548200091636490e+00,-4.465506986978019510e-01,1.204068285800237836e+00,-1.074745427519579327e-01,1.351338412921994532e-02,-9.972933031203732104e-04,2.095944881439208984e+00
-1.219100968534668761e+00,-1.026308851637519060e-01,1.202024532081520158e+00,4.813351491885936584e-02,2.696504327837178500e-02,5.714300451808473902e-02,2.103370666503906250e+00
-8.714101019340358967e-01,-8.606898200061885440e-01,1.061148141805093204e+00,-3.605132994315437753e-03,2.525569878459807144e-03,-7.254927204516752048e-05,1.927235603332519531e+00
-8.663668914619759853e-01,-8.716584509157083716e-01,1.058953973603873555e+00,-4.925458900780569672e-03,-2.178672214414810113e-03,-1.979314126407116358e-03,1.927997708320617676e+00
-8.642652528689811486e-01,-8.620531744466125579e-01,1.071657146308327091e+00,-3.225388581243729836e-03,-5.725058132072972450e-04,1.196217507222972678e-03,1.934826731681823730e+00
-8.677086998019124531e-01,-8.645773941195997736e-01,1.070516315322803669e+00,-1.434721463280279070e-03,1.494168260659102737e-03,3.931633896506573321e-03,1.936676502227783203e+00
-1.084416185562369517e+00,-7.150681044914045659e-01,1.126963316705870799e+00,-9.006013417626829165e-02,9.024296044586700011e-03,-9.018680027436826174e-02,2.063692331314086914e+00
-9.691230350987175557e-01,-2.459716153306484854e-01,5.319433711924276276e-01,-6.425450379394008482e-02,1.792655358372433408e-02,-1.424947918177250361e-01,1.328500747680664062e+00
-1.025661156432410070e+00,-7.497938581214027565e-01,1.101601084865981628e+00,7.334799326230482218e-03,3.185028410270643318e-02,-1.221850125304889054e-02,2.004534244537353516e+00
-9.018268521474295252e-01,-5.144470039492945457e-01,2.479279917253629506e-01,5.554323033189251940e-02,-1.358127850655370950e-01,-8.640852127713426201e-02,1.055271148681640625e+00
-8.214489140139734635e-01,-8.651980436549094877e-01,7.380500766647422051e-01,4.944870306903582924e-02,3.293601759805569757e-03,-2.614414113167349285e-01,1.647604584693908691e+00
-2.535512141031646682e-01,-1.404321455697385757e+00,1.249716276611817278e+00,-2.477234545434084667e-01,2.746997859474710826e-02,1.170407305955047383e-01,2.354030847549438477e+00
-9.182439627471284949e-01,-9.843797097699004128e-01,8.490913311952841269e-01,-1.806550287700355376e-02,1.580979066156124602e-01,-3.182234971856812145e-02,1.823111057281494141e+00
-4.563779794451997551e-01,-1.136619885419057008e+00,1.239545490343614276e+00,-2.822924252461098561e-03,-9.182601086559306902e-03,-2.361148772213093189e-02,2.120017290115356445e+00
-5.965581470580219037e-01,-9.556537896490368000e-01,9.730256683470042134e-01,4.084485482877703993e-02,5.209119574772017036e-02,-2.021287171262334953e-02,1.780602335929870605e+00
-1.092465716900276718e+00,-9.461079025167985490e-01,9.048361674476765870e-01,4.308532172513085401e-02,4.585435962566309503e-02,7.192489655967042317e-02,1.935384035110473633e+00
-5.172925427887075100e-01,-1.073140714905932214e+00,1.113290334965305606e+00,-8.232207250495152118e-02,9.079824058342241856e-04,-1.603234685460075762e-02,1.973633289337158203e+00
-3.129028759408366001e-01,-1.316256617468742229e+00,9.976184817323634491e-01,-2.394650012540216338e-02,1.018505778503695780e-01,1.392486450002224929e-01,2.032268047332763672e+00
-5.181448761458321561e-01,-9.997745866639559109e-01,1.071331499259100539e+00,2.320322671772919940e-02,2.890212133389059510e-02,5.252740844727622586e-03,1.878335833549499512e+00
-1.095648539907678520e+00,-4.048165013240505594e-01,1.612347600854329377e+00,2.084504411921804523e-01,9.577101848180208377e-02,-4.644830549565347189e-02,2.470640659332275391e+00
-1.101177644677394651e+00,-2.776781642420723673e-01,1.196747677985031455e+00,2.284588043407502489e-01,2.270233458396999845e-02,4.553618626432050058e-03,2.055349349975585938e+00
-8.488805978032099020e-01,-6.577550508623870584e-01,1.019289820217148090e+00,9.981019937022309052e-02,2.051486969596824986e-02,1.041831693498209170e-03,1.789046287536621094e+00
-8.476202677119636375e-01,-4.082289669347387573e-01,1.062854855111791341e+00,3.916956089646264627e-01,-9.791976872906264784e-02,-1.733692459656132889e-01,1.892814159393310547e+00
-8.214193587016622722e-01,-8.189915943308920809e-01,8.009047876002421962e-01,-1.012796301744856887e-02,6.035153525044657796e-02,3.459370604406825783e-02,1.625677585601806641e+00
-8.724863204358050961e-01,-6.351213021117625424e-01,1.033472795628541219e+00,3.676026380708736357e-02,1.707492184944868485e-02,3.688741430013998263e-02,1.801561832427978516e+00
-9.670136612457875813e-01,-6.376912428992882464e-01,1.061578610010091683e+00,-1.908004636067659951e-02,-1.235329104158151142e-02,-3.001884675616738746e-02,1.886751770973205566e+00
-9.106936123658376792e-01,-6.260631885569877264e-01,1.043167322610587089e+00,1.828487113735389677e-02,2.685458844030979078e-02,3.414945073879472465e-02,1.830061197280883789e+00
-9.575232983749405458e-01,-5.603665749032938903e-01,1.047441391358084228e+00,2.455711940827876374e-02,-8.554960261995127324e-03,-2.195950062755442148e-02,1.839784502983093262e+00
-7.269345508195713679e-01,-7.745502854153586414e-01,9.934445069626118840e-01,-1.642815770922961549e-01,-3.011311939006952945e-02,1.129706785681540426e-02,1.768603086471557617e+00
-8.253712625209674858e-01,-8.323027057838231491e-01,1.069318160119118843e+00,-1.653343145328139280e-02,-9.365101722739811382e-03,1.509824322111725202e-02,1.898630023002624512e+00
-8.052620711878737403e-01,-7.496650496683292531e-01,8.394224744410427874e-01,-1.091164756887357257e-01,3.180723759966205821e-02,-6.471277136331950175e-02,1.633387923240661621e+00
-8.358091938318374936e-01,-7.462355298511572643e-01,9.979933064230661621e-01,-4.454511566971479097e-01,4.604134035324213697e-02,-2.131535135627643240e-01,1.986086010932922363e+00
-5.206075838958472701e-01,-7.426476347019220769e-01,1.007574967165863589e+00,-4.183241072115739811e-01,7.312760789967882868e-02,-9.539664731876781878e-02,1.814467191696166992e+00
-5.058916536061319746e-01,-1.124866015162993893e+00,1.056485254923946959e+00,-4.032348852078689871e-01,-1.936126810695737790e-02,-2.127795226886010083e-01,2.101420164108276367e+00
-6.359875057356489947e-01,-9.460975792778072435e-01,5.538866535907094324e-01,-1.033569999042110166e-01,1.504480597718479418e-01,-2.227085371236766920e-01,1.459352612495422363e+00
-7.994626200436604213e-01,-8.375384688149312140e-01,7.683589986605254829e-01,-1.319668075264257730e-02,6.895282056446167158e-03,5.385411482428755642e-02,1.590149760246276855e+00
-6.088297043330994640e-01,-6.317545063725135135e-01,2.130417953087803129e-01,3.060357867082750816e-01,8.107879006066594230e-02,9.284998218836966466e-02,1.010642290115356445e+00
-8.324812435183207571e-01,-8.099285976462232695e-01,7.415066146983186890e-01,-9.629325715276181377e-03,4.849255512047772471e-03,4.867896949307225912e-02,1.565217733383178711e+00
-8.219303130667059420e-01,-8.869319369738180026e-01,8.368433843755387347e-01,6.040543129861246537e-03,1.759707616984945711e-01,1.211795648654110519e-01,1.732235074043273926e+00
-6.368035468096400198e-01,-8.732445819778190677e-01,1.031001090673867138e+00,-4.683112141307627790e-02,-9.140444308135863352e-03,2.447025943589346657e-03,1.799628376960754395e+00
-5.624710031749062811e-01,-9.393706365356954135e-01,1.040371366698617406e+00,-1.264081839960611575e-01,-2.795235743999585978e-02,3.044235102735011814e-02,1.835300803184509277e+00
-4.824017702914836225e-01,-9.659632884083921844e-01,1.039002656061619678e+00,-1.026939515435332101e-01,-2.940882524249142926e-03,-5.763244046032039124e-03,1.820977687835693359e+00
-8.546227417612581867e-01,-7.821161386977237839e-01,5.802789131097758624e-01,-4.579150098962167514e-02,-6.351937259043535788e-02,4.659060021935110263e-02,1.408923983573913574e+00
-8.689105498350795376e-01,-8.596497022211397887e-01,5.776482427286316890e-01,8.571374228263343650e-03,-1.160085703772570226e-01,1.276932730394469140e-01,1.472661852836608887e+00
-8.553144776573181618e-01,-8.286675822042655071e-01,8.996743655209742396e-01,-2.422008302423717379e-03,-3.937832156853259685e-02,-3.541969610248681729e-03,1.743168950080871582e+00
-8.202573035450014816e-01,-1.040156184653602711e+00,1.060748467578162657e+00,-6.509772510558685388e-02,-6.071092879365774797e-02,-1.972033432968171157e-02,2.006266832351684570e+00
-8.369661634754104185e-01,-8.454627525649786035e-01,9.003888709968497217e-01,1.262477059961988370e-02,-3.203188192716657778e-02,3.236841240799423480e-02,1.743541121482849121e+00
-5.826967954283636120e-01,-1.136615215235828202e+00,7.081012809977389466e-01,1.287510117877657678e-01,-1.311084382779969040e-02,4.524741520737384642e-02,1.656614065170288086e+00
-5.690431534373020517e-01,-1.223810531320176809e+00,4.271282943693238687e-01,-2.676742550117545139e-01,-9.240873003441653355e-02,-5.898092669277008038e-02,1.524579048156738281e+00
-4.146511273608424197e-01,-1.074754555417247737e+00,6.900886869370714827e-01,-1.355280587353348831e-01,-1.874045662969432702e-02,1.490834244602153857e-01,1.583750009536743164e+00
-6.761718651310839601e-01,-8.293561792719283954e-01,3.171411966666727311e-01,-1.632262345393533098e-01,2.766433030536104981e-02,2.112381193969734838e-01,1.174046516418457031e+00
-8.596998356994888235e-01,-8.413151572684471891e-01,1.012192920354189729e+00,3.388810290329151691e-03,9.159162337106108859e-03,-1.211377259941491535e-02,1.862963438034057617e+00
-8.432498731186277574e-01,-8.069918893357551637e-01,1.043075979971917810e+00,1.763001807775198965e-02,2.135734492942921101e-02,1.859331609775939989e-02,1.869353771209716797e+00
-8.510260102635698320e-01,-8.511033588465480859e-01,1.066199893640248808e+00,-5.083687042058740967e-03,6.661627611282369167e-03,-3.388929088387695760e-03,1.917328476905822754e+00
-8.086874226531947096e-01,-8.491308395494882033e-01,1.054336600108095157e+00,1.420846932864197262e-02,-4.293122767247172823e-03,1.255493171836943520e-02,1.883872389793395996e+00
-8.554325896427055209e-01,-8.583812941984593214e-01,1.068355076741733356e+00,9.160345271377199000e-04,5.347826962709896145e-03,3.934959826437020407e-03,1.925298690795898438e+00
-8.538070248125863015e-01,-8.572987308605224399e-01,1.066997521417735628e+00,-2.461688596484485681e-04,-7.639080792661298927e-04,3.834548791870510693e-03,1.922564744949340820e+00
-8.285227417369862568e-01,-8.504217186004082718e-01,1.058678879778671922e+00,7.689956240470399197e-04,9.043838700159038610e-03,5.098558523910242876e-03,1.898331522941589355e+00
-7.400765537735072286e-01,-8.562114375916476394e-01,1.028524103564950831e+00,1.478704823003366281e-02,2.420409545502271234e-02,2.867458768496850344e-02,1.830768108367919922e+00
-6.201183301038675211e-01,-9.424204887658470531e-01,1.052800409947764804e+00,4.359180998347521319e-02,3.408923999635830870e-02,2.030612925580498399e-02,1.857994914054870605e+00
-8.218453655759510035e-01,-7.641069576001728869e-01,1.035807112329105495e+00,4.730057444590291676e-02,2.458947643853901660e-02,2.749822616914948670e-02,1.832414507865905762e+00
-6.008157340564992399e-01,-5.302274650391924915e-01,1.110249991971927086e+00,5.109310616091695678e-01,-3.656956696492236203e-02,-3.180430651044077739e-02,1.897931933403015137e+00
-5.677818306674911053e-01,-9.092942243161150628e-01,1.307685130871262258e+00,5.596274226432734755e-01,-2.392904092595890889e-02,6.564697926860031674e-02,2.286634445190429688e+00
-8.606215421436123059e-01,-8.435242640744012865e-01,1.048852979838527988e+00,-8.040408921472202985e-03,2.914027378594097935e-03,1.040161500844662829e-02,1.901126623153686523e+00
-8.631815779254500276e-01,-8.685452784848148866e-01,1.058539253601705976e+00,2.810420619240916462e-03,-1.548015363810977462e-03,3.225504530681680155e-03,1.924424409866333008e+00
-8.631755978005274388e-01,-8.564314344301690030e-01,1.054210011003779979e+00,-9.398264031757792717e-04,-1.818287393631813154e-03,-4.274901529325071843e-03,1.914040088653564453e+00
-8.625474172607370260e-01,-8.645994246189718790e-01,1.052400732827348584e+00,4.520345193431084783e-03,-8.774284889171642815e-03,1.314385503817467639e-02,1.916186451911926270e+00
-8.563653708708321988e-01,-8.586259485878130482e-01,9.979039276820318438e-01,9.344488292934412590e-03,7.450900361350026174e-03,1.079136777928875815e-02,1.855610251426696777e+00
-8.556753523007034623e-01,-8.584061065686571235e-01,1.007680900636336530e+00,5.645813945723100052e-03,-4.514611049562020258e-03,1.641799153049606011e-02,1.864982008934020996e+00
-8.594113317573023325e-01,-8.723159351225879821e-01,1.041130155949437031e+00,7.782473200909787760e-03,5.401767907692959884e-03,4.509571052267053078e-03,1.907113075256347656e+00
-8.314167519434433329e-01,-8.431608967245668440e-01,9.078214862566251764e-01,1.327293579736442452e-03,-2.267702043519887606e-02,2.399826348546247462e-02,1.746078252792358398e+00
-8.506542071172558117e-01,-8.176736216010792591e-01,1.059387649589808245e+00,-6.355116317623238538e-03,-8.685953122004472227e-03,-7.667383513622410933e-03,1.893905282020568848e+00
-8.653533873433253421e-01,-8.600525456842517125e-01,1.044802665607214021e+00,2.576538214159795979e-03,-2.251314272704595370e-03,7.120550958024676746e-03,1.907560229301452637e+00
-8.194535834558496212e-01,-6.996226919369480379e-01,1.019313373115280141e+00,-2.732131889256677812e-02,-1.525825682221837280e-02,2.468941768820550817e-02,1.783213019371032715e+00
-9.443808001089164517e-01,-6.971061488202503487e-01,1.069517527077505026e+00,-2.450465732775086725e-02,-2.307298101929066802e-04,-5.543522598516452404e-02,1.905246973037719727e+00
-5.953988362311680715e-01,-9.031943956702481735e-01,1.076087552767373667e+00,-1.334280050314121668e-01,3.408009302448761907e-02,4.882293061742103840e-03,1.860119819641113281e+00
-8.176713813143727805e-01,-7.969790597361386952e-01,1.039387844058704768e+00,-1.727826845514858489e-02,-2.033521472224969137e-02,1.456956222390707982e-02,1.847550630569458008e+00
-7.835562868758726429e-01,-8.196572722042057002e-01,1.034914440201505137e+00,-1.872463286101667956e-02,-2.375588311224413520e-03,1.081184138950710451e-02,1.837173700332641602e+00
-7.554169661370316868e-01,-7.812154011988489133e-01,1.007598892587457273e+00,-1.339304859536821248e-02,-7.509639454231220590e-03,5.411151021175330048e-03,1.776279449462890625e+00
-8.199240905535488677e-01,-7.446408053897151103e-01,1.026659616856841817e+00,-2.572475315698204146e-02,-1.211156888896959202e-02,-9.236761414224010577e-03,1.810857057571411133e+00
-7.879043972737510559e-01,-7.728750061620650591e-01,6.201988967832954280e-01,-9.164594619825485941e-03,-2.072081302514344660e-03,-4.600502537053316465e-02,1.403008222579956055e+00
-7.484389837813267832e-01,-8.117513873678023906e-01,4.800913652562909251e-01,5.695333372993359629e-03,2.291046056859148000e-02,-2.275905690996697373e-01,1.322172760963439941e+00
-7.783608810561255531e-01,-7.759108293983436599e-01,5.771516610662067448e-01,-5.541710152837648826e-03,6.152946864611282159e-03,-1.062757294060453078e-01,1.366816878318786621e+00
-8.000195995930591275e-01,-8.017762732604856168e-01,7.084032694546817943e-01,-3.183758200386320892e-03,1.079127306349250172e-02,1.267767026443131217e-02,1.509587526321411133e+00
-7.821846582759679478e-01,-7.822223133203923817e-01,6.375440883114069646e-01,3.017602845987908504e-03,3.654719936291477012e-02,-6.607046100367644503e-02,1.425767660140991211e+00
-7.952139949151304510e-01,-7.824007291855046287e-01,6.512271011312370517e-01,1.047499009249731536e-03,3.773869751372182363e-02,-5.681301575262675749e-03,1.441594600677490234e+00
-8.617840850596882873e-01,-8.331474112925482123e-01,9.136215346080385213e-01,-1.351797753980289903e-02,1.382559529778000229e-01,1.790955679341428575e-02,1.777891516685485840e+00
-8.779396153066451047e-01,-8.692810949898419626e-01,6.367667737928530691e-01,1.769072466483110478e-02,1.695122978354920984e-01,9.378438935828108114e-02,1.547521829605102539e+00
-8.167844233684449229e-01,-7.971327547167894600e-01,7.659194960090205395e-01,-6.499305849654796532e-03,6.048018245275203070e-02,-4.825904265994477964e-03,1.576516866683959961e+00
