sxx,syy,szz,sxy,sxz,syz,smises
4.384940903216814900e-02,4.384940903216814900e-02,1.544611819356643823e-01,-1.841200094260525203e-37,-9.369010290279739656e-38,-9.369010290279256262e-38,1.106117740273475647e-01
