sxx,syy,szz,sxy,sxz,syz,smises
1.473671579956623012e-02,1.473671579956623012e-02,-1.495374315991325753e-01,4.816163451442026331e-52,2.360074786153211748e-52,2.360074786153211748e-52,1.642741411924362183e-01
