sxx,syy,szz,sxy,sxz,syz,smises
-1.481649252038809428e-01,-1.481649252038809428e-01,-2.703734462955343920e-01,-1.178941451144177239e-51,-5.364183602705974911e-52,-5.364183602705974911e-52,1.222085207700729370e-01
