sxx,syy,szz,sxy,sxz,syz,smises
2.563987158480398598e-01,-1.367448917820387022e+00,1.179977847047916306e+00,-1.728490168689661433e-01,-2.950964840066501726e-01,-5.655609124664391640e-02,2.313029050827026367e+00
9.195951768589830100e-02,-1.109075398011178049e+00,1.284100689917864191e+00,1.130459507241641723e-02,-1.353958632886557989e-01,3.098257795472808898e-02,2.086563587188720703e+00
2.739669420228882935e-01,-1.077439014551621277e+00,1.097910281259049103e+00,-4.962059395403702403e-03,-1.820707316837084921e-01,3.453279776025801329e-02,1.929187178611755371e+00
2.642266326136871735e-01,-1.806535121278232126e+00,1.544018107580314547e+00,-9.027944451378092094e-02,-2.417276517394369995e-01,-9.807433440054816320e-02,2.967266082763671875e+00
4.549471382680138620e-01,-1.157205128156520990e+00,9.453239044765664456e-01,-5.121006591047343876e-03,-5.291777749562383004e-01,3.880069812351728126e-02,2.115360260009765625e+00
5.862108546213441462e-01,-1.928674774595723784e+00,1.259150769025450645e+00,-1.442941640832569872e-01,-6.199712165545083753e-01,7.300598748939228499e-02,3.114708662033081055e+00
7.978432124627452549e-01,-9.885753964711050390e-01,7.892320262256911079e-01,6.987749565597585477e-02,-6.002245761328268894e-04,9.386208523178098118e-02,1.793617129325866699e+00
7.592261484279223538e-01,-9.161242792233987853e-01,7.675528643184810207e-01,4.209945942451721879e-02,1.923691201078253643e-02,1.018449161314881751e-01,1.690669417381286621e+00
7.436252225358993551e-01,-8.977581367689758673e-01,7.911935387539331677e-01,1.142047765093704391e-02,2.628769502863731108e-02,4.165750779446908414e-02,1.667977929115295410e+00
7.894601881926831544e-01,-9.283576083503931597e-01,7.604849398935947802e-01,-5.301239237529290632e-03,1.764206402827136339e-02,1.543637840091321642e-02,1.704023599624633789e+00
7.783606844898988131e-01,-9.310486106398804251e-01,7.569163636687020746e-01,-3.142855698455336577e-02,7.369284995512195499e-03,-1.988241065551879429e-03,1.699712038040161133e+00
7.974366408182695931e-01,-1.001866274029618475e+00,7.678959143414869626e-01,2.187928456696554974e-02,1.847183492549872227e-02,2.230988765411813513e-02,1.785822987556457520e+00
7.518776101878457130e-01,-8.877810678090066743e-01,7.545552671748937401e-01,-3.337476228635837070e-03,5.128574425400744471e-03,1.368107854611378890e-02,1.641204476356506348e+00
7.583675451624061203e-01,-9.311181568516339047e-01,7.672795280297597387e-01,-1.802858802422276779e-02,-6.651113975972082829e-03,-3.215944890306121889e-03,1.694295406341552734e+00
7.420394382994367488e-01,-9.965755268382148202e-01,6.942383965877296781e-01,1.211891164427490036e-02,-4.801239214117526688e-02,1.335778647108024596e-02,1.717512965202331543e+00
7.385744751109452055e-01,-9.273237732694866731e-01,7.385708561712810427e-01,-3.310771325729840869e-02,4.611903874571265244e-02,7.259606081946103594e-03,1.668843388557434082e+00
7.336712091970802874e-01,-8.589847602041806862e-01,7.553243280736828824e-01,3.868018919485435685e-03,9.449945702428210609e-03,-3.241679230844098786e-02,1.604672312736511230e+00
7.272674692810978669e-01,-1.005085606925432584e+00,7.785123206284707553e-01,-7.242803290856018872e-02,4.577369681325752643e-02,8.176566277843100652e-03,1.764843106269836426e+00
7.438427014427329009e-01,-9.190648627801638604e-01,7.628923748377962610e-01,-1.713207510842126857e-02,5.102444185017146819e-03,-9.586749459755588079e-03,1.672882795333862305e+00
7.929871853591333730e-01,-9.112262414858610660e-01,7.737220600324578035e-01,2.524670088430543396e-03,5.182940550166714733e-02,5.076165819670816481e-02,1.699320673942565918e+00
7.787663437398857358e-01,-1.036143657279619212e+00,7.810037051950657894e-01,-1.745296751841607114e-03,-1.087259243164190965e-03,-3.033754796979693663e-03,1.816040754318237305e+00
7.404955116043244745e-01,-9.715634532069620244e-01,7.910909056283782492e-01,-3.385216314394216830e-02,4.220279787486534012e-02,-1.404606315525410570e-02,1.740603685379028320e+00
6.769817832394136037e-01,-1.001869833059220172e+00,7.885714490168967972e-01,-1.016594301370676023e-01,1.353362908073427462e-01,1.012534757716400530e-01,1.770606040954589844e+00
7.527542010001031514e-01,-9.643134183633591539e-01,7.768088013154067495e-01,-9.895879851744143751e-03,-5.713706795930608567e-03,-6.883993090461525133e-04,1.729334115982055664e+00
7.962029489055109099e-01,-1.009710625631974779e+00,7.739159932591849200e-01,-1.782840084042031092e-02,2.312452497621188176e-03,2.343836232071868503e-02,1.795602917671203613e+00
7.414811868035872111e-01,-8.939979047404517098e-01,7.650124850558236433e-01,-3.539397488906432382e-02,-9.694661373672353727e-03,4.163621499340560556e-02,1.650173187255859375e+00
7.590835504192645633e-01,-9.658985713694676623e-01,7.558146897660042995e-01,-9.293685282941440556e-03,1.230610382290224861e-02,2.046736848435058015e-02,1.723921537399291992e+00
7.790726831334036095e-01,-9.184098133371247918e-01,7.455400914362393383e-01,-3.225109634643939099e-02,3.699297190412319421e-03,5.174615250492256568e-02,1.684293508529663086e+00
7.769020161835811233e-01,-9.096664017636690858e-01,7.659469389264239592e-01,-3.816035593761757383e-02,1.491544083998683212e-02,2.953091535187699762e-02,1.683392047882080078e+00
7.355846229749969378e-01,-9.919001357513559380e-01,6.625755914464799279e-01,-6.359763847443238027e-03,1.855582008054690590e-01,1.677596838894311951e-02,1.722693562507629395e+00
6.840023440931434218e-01,-1.012965553613378367e+00,6.049871357362036628e-01,2.005384074635929020e-02,2.954658564114344133e-01,-1.130399371696435597e-02,1.736475467681884766e+00
6.048352022297713848e-01,-1.017357990387410815e+00,7.835538443757350535e-01,-8.891293569613482883e-03,1.854619123971407157e-01,6.499111959664087904e-03,1.748404860496520996e+00
6.724405146650219711e-01,-1.022768898530912240e+00,8.524406910533398607e-01,-1.096953265324285103e-02,-3.237699501256563299e-03,1.265378070987063092e-02,1.792245984077453613e+00
5.775854202145348504e-01,-9.930996082897615151e-01,8.415775967573949634e-01,1.571193494738969436e-03,7.524333708798057463e-02,9.159026666381660589e-03,1.722972869873046875e+00
5.785625202483301033e-01,-1.030090089200880854e+00,8.037218442537119589e-01,-2.493478679857005775e-02,2.703338846384441552e-01,1.577753940515800798e-02,1.795136809349060059e+00
7.644046471492121908e-01,-1.050556725683497117e+00,5.928376980810616814e-01,1.455191138358602476e-02,2.804615009672797865e-01,-2.066461803686725496e-02,1.802782535552978516e+00
5.296701437540188850e-01,-1.065747139204211269e+00,8.462220750167441796e-01,-8.200327982399887444e-03,1.700847846902238947e-01,-1.055437392432750400e-02,1.799421072006225586e+00
7.140857463789690440e-01,-1.070115423388518172e+00,6.953126333206612886e-01,1.292225998143503064e-02,3.941056593820156939e-01,-1.370072515658500231e-02,1.901907801628112793e+00
7.819203846539164449e-01,-9.654435018526574819e-01,7.567416437556907516e-01,4.767803448061906516e-04,-5.364856904868451747e-04,-1.924174713866608211e-02,1.735232114791870117e+00
7.866950527363746337e-01,-1.017003872671913944e+00,7.801076964988973295e-01,2.935639988377983494e-03,-1.535470776044839001e-04,4.057750712947424780e-03,1.800435185432434082e+00
8.027906426907500670e-01,-1.019119636045318966e+00,7.236890344195916480e-01,6.981000745041947633e-03,-3.360399675582800773e-04,2.017133583472361519e-02,1.784058690071105957e+00
5.936763664361465187e-01,-1.055526340072194369e+00,9.287429362104800967e-01,-4.768345663348989155e-02,-8.413034938497288007e-02,-2.610868574874554079e-02,1.847926378250122070e+00
9.532212004703246588e-01,-1.010540235880753590e+00,3.566296390830427931e-01,-7.858230773722035128e-03,9.166786848280689126e-02,1.301847578548347671e-02,1.751176595687866211e+00
7.072177432690319732e-01,-1.131071928961296491e+00,9.865384731400996809e-01,5.043069176742154963e-02,-8.748275515020742651e-04,-1.336826564537325381e-02,1.994735479354858398e+00
7.344852609379108888e-01,-1.011431496898392401e+00,7.421325552127373548e-01,1.012992695813603669e-03,1.840096206048687493e-03,-1.023317427205807685e-02,1.749846458435058594e+00
2.520176049146345965e-01,-9.996036571691706563e-01,1.274227994660451779e+00,3.786163692742325337e-02,-1.971615563857249676e-01,-4.802381957968571147e-02,2.004676342010498047e+00
4.387308328230540844e-01,-8.920695738260735475e-01,9.450049001947646854e-01,4.696723130592253548e-02,-1.348667312865784174e-01,-6.471784136351041439e-02,1.665786027908325195e+00
7.123550363361336180e-01,-5.748535243936826467e-01,7.198507151508544144e-01,2.701590432106350942e-03,9.388350815621792494e-03,1.537478453373843645e-01,1.318261027336120605e+00
7.183341718958664579e-01,-7.830902871562013257e-01,7.377137502502940647e-01,3.731821372262626290e-03,-1.253970299015789644e-02,1.293459556115563736e-01,1.527891516685485840e+00
7.792562863943182094e-01,-9.096608231978231540e-01,7.753622811921747626e-01,-5.620217361047598337e-02,-1.809173576359984770e-03,1.051910360421423052e-01,1.699576616287231445e+00
7.238603192983021906e-01,-6.570767419118979102e-01,7.119965057572976708e-01,-2.978707564562587187e-02,1.725802310310850865e-02,9.227077433792849059e-02,1.385583519935607910e+00
7.485275731451095371e-01,-7.630040649020657373e-01,7.462774277097534714e-01,-6.674725114887734845e-02,-7.205145768244987196e-03,9.405362955297148775e-02,1.523611307144165039e+00
7.469011968000935919e-01,-7.809772003312662747e-01,7.487378898948118255e-01,-7.876129859544384049e-02,-2.883853663106160023e-02,8.095294405177608232e-02,1.542072415351867676e+00
7.545684130844303450e-01,-8.252158546635005587e-01,7.424990343814522609e-01,1.517634210556028686e-02,-3.163001550232611130e-03,1.277184199652894314e-01,1.589482307434082031e+00
8.041257785339059883e-01,-1.020336200230298918e+00,6.853229260883322294e-01,-1.282603282744457403e-03,4.988782099908599388e-02,3.747731265261335792e-02,1.771358013153076172e+00
8.417476034166211374e-01,-1.001903521592159896e+00,6.871319095309742497e-01,1.096082446183276049e-02,4.633052740449313672e-02,1.620267786598610787e-02,1.773551702499389648e+00
8.464916749203712509e-01,-1.052281497552518319e+00,7.347186081218590736e-01,1.424340274877703566e-02,4.966891980360110120e-02,-2.180074612425001584e-02,1.847981691360473633e+00
8.869580124596928572e-01,-1.001594228962251254e+00,5.394976633863857174e-01,-3.105598058223002153e-03,6.355267480411291858e-02,-4.006612371781417825e-02,1.745887398719787598e+00
6.576972521316968301e-01,-4.774861714470927665e-01,6.861954133515357768e-01,-4.689035394508380555e-02,1.955172493488668492e-02,-9.917287113582716473e-03,1.153187870979309082e+00
8.048393555682996636e-01,-1.055408559534656732e+00,7.255715346564932666e-01,7.687001163045478758e-03,4.992871963775633026e-02,2.479446021922588912e-03,1.824012637138366699e+00
8.552877402201615187e-01,-1.085466194795757344e+00,5.586409160497699533e-01,3.048395864957894122e-02,1.558222422180821631e-01,-7.566257692709531246e-02,1.836194634437561035e+00
7.215109290544904352e-01,-1.015724562815790488e+00,7.730206539260585652e-01,-5.097980885052422195e-03,8.543552540852875077e-02,2.280546253292971975e-02,1.770214915275573730e+00
7.165442835536708355e-01,-7.526841454599316750e-01,7.540781708632235958e-01,-3.020568900873419824e-02,8.711843822734188433e-03,-5.244385487202583851e-02,1.492113471031188965e+00
7.668578269638550715e-01,-1.017732267137246627e+00,7.290342720166897994e-01,-2.177123845608290587e-02,7.343374246809919459e-02,8.085606694583399867e-03,1.771013379096984863e+00
7.226290848375819253e-01,-1.013555968337723101e+00,6.810876592350646463e-01,2.402895744690090180e-02,1.511786183217661006e-01,-9.331651109350136419e-03,1.736231207847595215e+00
7.917391031439681148e-01,-9.656835232644660483e-01,7.598340424458457365e-01,-7.360980783366500614e-03,2.502031710644695046e-03,-2.211726480498011835e-02,1.742162585258483887e+00
7.649972760679982775e-01,-1.046297062968720715e+00,7.870380051925465192e-01,3.325155315151900187e-02,5.285875792505837639e-02,-1.019809181019861247e-02,1.825707077980041504e+00
7.684541495284912260e-01,-1.027955793146182684e+00,7.421632391784305227e-01,-3.990071778283291876e-02,6.665408256548489840e-02,2.699909335026922166e-02,1.789089679718017578e+00
7.474430746601523623e-01,-1.045477347537738133e+00,7.327197092502349962e-01,-1.412513073628550789e-02,1.064571752506006802e-01,3.407238203172127666e-02,1.796235918998718262e+00
5.655655272629599439e-01,-9.551767390247195566e-01,9.751837401800705907e-01,-1.432905452059205983e-02,2.925542162378406454e-03,-3.260323747630380214e-02,1.762724757194519043e+00
7.207190832565527616e-01,-9.720915943626157185e-01,8.388159014046780992e-01,-2.424919334890783887e-02,-6.819166545287304315e-02,3.601182282993469451e-03,1.759324789047241211e+00
7.821689626794749994e-01,-1.031107777716821383e+00,7.902583605794781807e-01,-3.954481994204425525e-03,-2.238050504114661148e-03,2.867785007485704196e-03,1.817358732223510742e+00
8.079185718367782876e-01,-9.478789045811935043e-01,7.797519665923369203e-01,-8.003588809104625335e-02,1.810067711863559692e-02,-5.532074547383461147e-03,1.747699975967407227e+00
7.938389719255012356e-01,-9.708877238763846673e-01,7.724336472192732117e-01,-5.836974444407752594e-02,-1.224633400294493010e-02,2.890529170193423258e-02,1.757874131202697754e+00
6.924096527259957501e-01,-9.189490618335057759e-01,7.885078789796610144e-01,-4.053245083532070608e-02,-5.814288398206966454e-03,-2.284804205224070899e-03,1.663011193275451660e+00
6.862296239140872611e-01,-9.100627794854444508e-01,8.087345445831565227e-01,-4.209190862645676573e-02,-8.211441659005849769e-03,1.139938745254334695e-02,1.662714004516601562e+00
7.142457837268818555e-01,-1.109168311900986970e+00,8.574201293895158393e-01,1.951507776075851741e-02,-3.814308634043729607e-03,3.188044475199320986e-03,1.899373769760131836e+00
6.846725930535464411e-01,-9.693080322177207719e-01,8.480964715991119451e-01,-1.755334155018271891e-02,2.890107061644477116e-03,-4.924285565137880016e-02,1.743812799453735352e+00
8.587547802724773138e-01,-1.074498298543529851e+00,6.623585101621145554e-01,-2.386112338348209128e-02,5.050300993801386251e-02,5.978885484765695396e-02,1.848361253738403320e+00
7.882460018728896234e-01,-9.861877781881699390e-01,7.154300595895620729e-01,-1.812572070803104840e-03,2.179485828061891381e-02,-7.038939364487316330e-03,1.739624619483947754e+00
7.919241821156193240e-01,-9.661066804958881038e-01,7.129321831058915704e-01,-1.365223522328980373e-02,1.443075470094729723e-02,1.215818635136640133e-03,1.720241308212280273e+00
7.989365725344391711e-01,-8.716775576019041294e-01,6.966797801005133461e-01,4.701282559033912595e-02,4.947448579338315638e-02,4.629451449295549255e-03,1.626227021217346191e+00
8.213827493976971761e-01,-9.948550019381149356e-01,7.016673580576570091e-01,-1.508168289618936828e-02,2.979211549616707366e-02,2.175833815913436400e-02,1.760791063308715820e+00
7.914630583364166139e-01,-1.009060552914689213e+00,7.878395487389969754e-01,-9.678199637935098153e-04,-1.420927047042967739e-02,-3.178540046391503671e-02,1.799726009368896484e+00
7.348904356884590205e-01,-9.973411221683784467e-01,7.203773411255823822e-01,1.308475760053454551e-03,7.537130152735193808e-03,-9.533090319763272424e-03,1.725150704383850098e+00
7.783294500103407065e-01,-9.343248173511625732e-01,7.696160680291095346e-01,3.776379988344896049e-02,-1.426829160195462222e-02,-7.840156128280215131e-02,1.715128898620605469e+00
8.854515334251296110e-01,-1.027094916569353478e+00,4.972872063809000154e-01,2.392612884071086861e-04,-1.828857454133515081e-01,-3.673149443380172214e-04,1.779456496238708496e+00
9.139364389828965596e-01,-1.115505228734575249e+00,4.904691326307772936e-01,4.442222807042611049e-02,-1.581464508264758262e-01,9.298463305614752816e-02,1.882935285568237305e+00
9.061020145753956312e-01,-1.040130373856538171e+00,5.587731368742515636e-01,2.368434050828108206e-02,-1.656282256294335509e-01,1.118727751837759327e-02,1.821217060089111328e+00
7.829123128911990026e-01,-1.035589860478205004e+00,7.808389794708370246e-01,-3.293335134117151078e-03,-3.909394454181949925e-03,2.264275810411048653e-03,1.817492246627807617e+00
8.269683512571124329e-01,-1.024037412303871131e+00,5.701018830464931186e-01,2.744312663120677606e-02,-1.603072824826549392e-01,9.182131425027663732e-03,1.759644508361816406e+00
8.056494002358134399e-01,-9.845659056983200319e-01,5.623843615356620695e-01,2.744113542030705150e-02,-1.281192590118977737e-01,4.750798068640713079e-02,1.699066162109375000e+00
8.961999456773313000e-01,-1.016959200571229127e+00,4.203522507405823561e-01,1.865361176869787668e-02,-1.737513212808596275e-01,6.467660357294699458e-02,1.755106329917907715e+00
7.945066160569067559e-01,-1.000184794718923964e+00,5.086965190185203101e-01,1.554786796480303948e-02,2.383916546820497029e-01,-3.759746154518962130e-02,1.721952795982360840e+00
6.664344184585224706e-01,-1.005919981972172916e+00,6.136995284205205570e-01,3.046442766772383334e-02,2.926804506221187818e-01,-3.711300944474904551e-02,1.724894404411315918e+00
7.506451505747534503e-01,-1.097052610209234169e+00,7.855459745087927104e-01,2.017142642112771528e-02,1.143115688477932268e-01,-3.611734374677641468e-02,1.877239108085632324e+00
8.262539892406300934e-01,-1.027484108815972075e+00,6.361107327738464434e-01,2.671865678114617587e-02,1.302320833472010164e-01,-4.101514718999673542e-02,1.782720685005187988e+00
7.320796192024789928e-01,-1.004045979204295502e+00,7.170995387800613852e-01,-6.657288797354890802e-04,1.585454593339362672e-01,1.293723421903979296e-03,1.750361561775207520e+00
7.950733971718043636e-01,-1.028168409952960438e+00,7.494657240554684074e-01,-9.821304047465322790e-03,2.066180225863757745e-03,8.432804673470109882e-03,1.801014304161071777e+00
7.497417345088464025e-01,-1.023797846014009361e+00,7.791880116938327827e-01,-1.753575920642502783e-02,7.045281621862044957e-03,7.361037850165499431e-06,1.788744091987609863e+00
7.526334573522018845e-01,-1.018934143447209451e+00,7.485825034505196873e-01,-1.929302145376783628e-02,2.020603510696138139e-02,2.539069639831216529e-02,1.770753264427185059e+00
7.386635870717672692e-01,-1.013625231155585338e+00,7.361639275826306061e-01,-5.343844288423701093e-03,4.008654912999650571e-02,2.634415471928113536e-03,1.752446770668029785e+00
7.020435040596066933e-01,-6.310757216668876346e-01,7.165323894286276252e-01,-1.007872422552832381e-01,-2.640576385967804279e-02,-1.546784778719029474e-01,1.378794550895690918e+00
7.400570517942768323e-01,-1.003691807786773360e+00,6.877669330567566242e-01,-2.572278090823478663e-02,1.173360103590629089e-01,4.328833012088667553e-02,1.732375025749206543e+00
8.661546007521048196e-01,-1.021618863862072457e+00,6.159074293608124417e-01,-1.925653963806760877e-02,7.835149899934140683e-02,-2.189564098608917653e-02,1.781816482543945312e+00
8.108134944749978423e-01,-1.012491092808472937e+00,7.099896217662819975e-01,-3.159912804419390438e-03,2.509425847291942013e-02,2.350176685141360314e-02,1.776048541069030762e+00
8.353377995633680664e-01,-1.015623019003930150e+00,7.101917129449003552e-01,1.278602787959391522e-02,4.090218957241782693e-02,1.682997504200470229e-02,1.793442487716674805e+00
8.315206282936993265e-01,-1.060565314751574117e+00,7.208862459457079375e-01,-9.228082755086630673e-03,2.327628049614863942e-02,-3.706000468375999970e-03,1.839788436889648438e+00
8.421428968626555323e-01,-1.039080171927185381e+00,6.368745010548197971e-01,-3.465704268454986026e-02,-2.275390864176263517e-01,-2.089372296842313334e-02,1.831724524497985840e+00
7.978692908971799502e-01,-1.014123274195684710e+00,7.005471149100910289e-01,2.614528749940661298e-02,5.126507974858200006e-02,-6.792360977688099641e-03,1.768195390701293945e+00
8.106528508619699203e-01,-1.046186003278398502e+00,6.936441320805137867e-01,3.519711729618000412e-02,4.847362609217720220e-02,-3.295976818475022940e-02,1.805076122283935547e+00
8.185089622687505839e-01,-1.074269383747085138e+00,7.266298375051004621e-01,1.484234682824069930e-02,3.656750663699175757e-02,-7.483101285992525484e-03,1.849860906600952148e+00
7.908039187838027395e-01,-1.034045180771783867e+00,7.859301129650511086e-01,3.297822241646724932e-03,-3.155271031753935709e-03,1.223465829538925801e-03,1.822435498237609863e+00
6.553491834077059819e-01,-8.121283465630791953e-01,7.802327565987331459e-01,-6.889162399146075977e-02,1.114891141835838012e-02,-1.472498270185662421e-02,1.538704514503479004e+00
7.302250814294266590e-01,-8.130453461438122975e-01,7.568951914825317040e-01,-7.542582960666238678e-02,5.038439258594363396e-03,-1.123801869924058450e-02,1.562394380569458008e+00
7.681302303195594039e-01,-9.558983614380991423e-01,7.799999664591370507e-01,-8.314543860952046395e-03,1.021264399677047560e-02,2.847189391516540078e-03,1.730151414871215820e+00
7.471989239904903712e-01,-8.314055601077258162e-01,7.524520776452737758e-01,-7.399687323330655930e-02,-4.690288672667769498e-03,1.617207246046974134e-02,1.586691379547119141e+00
7.400053033243958467e-01,-8.194967688241814319e-01,7.327578752320136335e-01,-7.716408777497908711e-02,1.032573856526290690e-02,7.379336802848426424e-04,1.561723828315734863e+00
7.503669829995476270e-01,-9.589311682866694664e-01,7.766230133520175549e-01,-1.619115057238617802e-02,-4.351206606132349865e-03,-6.274126671705274397e-03,1.722855329513549805e+00
8.580029880860423619e-01,-1.035478600210946620e+00,6.122938778912794255e-01,-1.422383874353322364e-02,-4.925867342136477228e-02,2.378222733053678237e-03,1.785581946372985840e+00
7.088547696157218025e-01,-7.052541649778810706e-01,7.063262690082984241e-01,-6.172600886459806910e-03,-2.364271303463952312e-02,7.144422281640955448e-03,1.413534283638000488e+00
8.890288318459317329e-01,-1.062520391364696781e+00,6.241438723590388982e-01,-3.311065634360062238e-02,-4.726714907737176313e-02,-1.220829223838970912e-01,1.848371386528015137e+00
7.904946234316516662e-01,-9.613216150570849106e-01,7.122891579878594115e-01,5.826077378308588267e-03,-1.481106145101413136e-03,-3.728047040484553602e-03,1.714095950126647949e+00
8.175367074925183886e-01,-1.044762680291317913e+00,7.850118656618063628e-01,6.749639393915879935e-03,9.814683676471259478e-04,1.175479097195259587e-02,1.846401929855346680e+00
8.212386892740510813e-01,-9.551009590714818476e-01,6.878655501582675580e-01,-1.391475557790691417e-02,-1.093806012565423647e-03,1.168090814025539133e-03,1.713722109794616699e+00
8.287251301096615341e-01,-1.045367687412814384e+00,7.260999193826945808e-01,6.247771693305871968e-03,-2.749997913240467742e-03,-5.428279790152697008e-03,1.825008153915405273e+00
7.742506394550056070e-01,-9.743710385388018036e-01,7.238616387304803723e-01,-9.339778891178204812e-02,-4.465787315099835342e-02,-1.184322990650781698e-01,1.745375752449035645e+00
9.007165613068975896e-01,-1.084772714407040928e+00,3.877174919666007691e-01,8.390460892854911812e-02,-4.007803269051848361e-01,6.947357095033157570e-02,1.924644351005554199e+00
7.759433861760042239e-01,-9.096487176374542516e-01,7.038806110891764334e-01,-1.634722616156652000e-02,-1.385076311332920571e-02,-1.129322657719028788e-01,1.662703752517700195e+00
7.014493822299191494e-01,-1.012646256421397606e+00,7.663919355472001982e-01,-1.632630446795532708e-02,-5.091384243868236209e-02,-1.165434419802470999e-02,1.750040888786315918e+00
7.095525763060391844e-01,-1.043215961067333275e+00,7.974154937602307980e-01,-1.297780432241226432e-02,-3.223479069559972987e-02,-1.545695101703954168e-02,1.799516677856445312e+00
6.752542899510973751e-01,-3.490129233353881366e-01,1.006142703460751742e+00,1.417376388663473263e-01,3.052419841511829213e-01,-9.717582519731393642e-02,1.365886092185974121e+00
7.800547054696718163e-01,-1.027331070206027874e+00,7.841238938949770532e-01,9.726474183342985469e-03,-8.646088749601377188e-03,-5.808470436340952558e-03,1.809592127799987793e+00
7.663294892490472021e-01,-1.031110434287498601e+00,7.800657418878021998e-01,-9.544847319904818097e-04,2.614133285980347731e-03,-5.122120819638220982e-03,1.804375529289245605e+00
7.727103600758257196e-01,-1.026205190835171921e+00,7.709877516412282361e-01,1.677935872551362256e-02,-6.267933005570978195e-04,-1.779986617102625318e-02,1.798554301261901855e+00
9.529538998090184565e-01,-3.554571888822493086e-01,3.377994515365950190e-01,1.297605803191880791e-01,7.877776088053026204e-02,1.121450236242844400e-01,1.179974794387817383e+00
7.874709833790772828e-01,-1.027079020977632595e+00,7.679347449656868108e-01,9.834288809632890302e-03,-9.733474464551203700e-03,-3.161947917703405910e-03,1.805028557777404785e+00
7.803855279967502057e-01,-1.019121290353868226e+00,7.637667619961090448e-01,3.540508229944641823e-03,3.345855912705236268e-04,-1.449547192313642256e-04,1.791265845298767090e+00
7.237470047098717441e-01,-9.981314271508079372e-01,7.358282423445359210e-01,-2.087838465637007965e-04,-5.580343538966379968e-03,-1.818750971288818092e-03,1.727980613708496094e+00
7.834203080005557318e-01,-1.032556739834092241e+00,7.813278114383397366e-01,1.323060637725949340e-02,-3.690306562048439008e-03,-8.843486869188520866e-03,1.815152287483215332e+00
7.784050689279293778e-01,-1.007915897536638239e+00,7.749179541058274223e-01,1.550383136891739407e-02,-2.281791325891699071e-03,-6.538609390565405452e-03,1.784822344779968262e+00
7.835198194063818233e-01,-1.036177888442361139e+00,7.827301820413110622e-01,9.117123972771335252e-03,-3.425734110713114615e-03,-5.242550003064517725e-03,1.819403886795043945e+00
7.672063787023694070e-01,-1.026721195942540188e+00,7.527083725077843290e-01,1.715190153386675354e-02,1.673041128204041245e-02,-1.583733438848080113e-02,1.787415146827697754e+00
7.759042269316607232e-01,-1.029821922818899615e+00,7.712256038237138567e-01,1.094504586452099346e-02,-1.604929531866017538e-03,-6.474323624346715531e-03,1.803528070449829102e+00
7.819451582565984937e-01,-1.026891256762311411e+00,7.733905303814895271e-01,5.163733966038464712e-03,-1.397508553599967947e-03,-3.258899770438100033e-04,1.804598212242126465e+00
7.725189001484948914e-01,-1.032097794608834995e+00,7.792780875413425345e-01,4.101453631344113837e-03,-4.070595844982755410e-03,1.010206247884813733e-04,1.808033466339111328e+00
7.824528364091390964e-01,-1.034914992393081823e+00,7.801525529773296608e-01,5.568271435328754453e-03,-7.955300460409459040e-03,-9.028433952900779755e-03,1.816363930702209473e+00
8.551297962886266202e-01,-1.040211759112856349e+00,7.823248650967904450e-01,-7.250250531296371231e-03,1.584779873498689748e-02,4.617305715047569786e-02,1.861971259117126465e+00
7.285885597065355768e-01,-7.889434256223505360e-01,7.595643030370050619e-01,-3.910162089565001609e-02,-8.204750982680295013e-02,-4.940221915524397461e-02,1.543688297271728516e+00
7.535109728513340599e-01,-9.166167188483242967e-01,7.534837276619640312e-01,-1.402766301848480147e-02,-2.366772648717505381e-02,-5.512354339958232263e-03,1.670821070671081543e+00
7.842900099502956301e-01,-1.046695668357783937e+00,7.864485141474555352e-01,-2.559642691281664023e-02,-1.762101787443223072e-02,-3.049002655572517068e-02,1.833616971969604492e+00
7.752609418998667179e-01,-1.041420488498554953e+00,8.367851063808929846e-01,-4.717506693861198142e-02,3.412211844087571604e-03,-1.962937757561352206e-02,1.850338816642761230e+00
6.721105395377229286e-01,-7.837053476275744890e-01,7.536413615884314243e-01,-6.239185356126690507e-02,-2.492878240901109238e-02,-1.182909485532213263e-02,1.502898335456848145e+00
7.940318326814432837e-01,-1.058006616437585867e+00,8.021877432057042956e-01,9.316589255129459346e-03,2.269745607949757993e-02,-2.388319302033550112e-02,1.857077002525329590e+00
7.661822748292469454e-01,-9.161988178448756681e-01,7.638815252446669035e-01,-5.704330668497019537e-03,1.320647501218654048e-02,1.791789123022650022e-03,1.681419372558593750e+00
7.923972819434998982e-01,-1.005936109645685583e+00,7.932502334817412848e-01,3.931272371117465469e-02,8.008621451868246435e-04,-4.054485608203398095e-02,1.801418185234069824e+00
5.624239039797047646e-01,-9.622732156410309656e-01,8.567570739132857049e-01,4.872832072130153791e-02,8.954316331979784993e-02,-2.215694832426068003e-02,1.700809359550476074e+00
7.805896372437040043e-01,-9.576571051317106509e-01,7.860414180954280461e-01,3.895396901989585381e-02,-7.578301669317808603e-03,5.168755677808728119e-03,1.742358326911926270e+00
7.103145199040545865e-01,-1.112372239153326614e+00,8.746882162633523583e-01,6.108863215974663641e-02,1.535735112929532964e-02,-8.745082825045305541e-02,1.919284582138061523e+00
7.588809677045784685e-01,-1.061288814827315186e+00,8.351479063488151944e-01,2.730597561137170295e-02,5.136471726107300073e-02,-1.119253200012492247e-02,1.862305283546447754e+00
6.927922958189060010e-01,-4.494418071120538372e-01,6.153446231348761453e-01,-5.383380379686884820e-02,1.684673517193792380e-01,2.087934770577739019e-01,1.202853083610534668e+00
6.196824756775940468e-01,-7.948673274224926644e-01,8.051751870199082006e-01,6.001244620657179146e-02,4.203679617113723760e-02,-1.923332265906596908e-02,1.521500229835510254e+00
9.463599683303248744e-01,-1.033707225233512217e+00,6.277609167806988966e-01,-2.773865762725487988e-02,-3.101273200754272458e-02,5.737397832698969136e-02,1.845641613006591797e+00
1.010031158839817200e+00,-1.196062656994895557e+00,6.859258964186960572e-01,6.288873752392540144e-04,4.221509783588582934e-03,1.201645025771701097e-01,2.073707103729248047e+00
8.591911727209546878e-01,-1.056885721555335333e+00,6.967545037428419796e-01,-2.597709803363314695e-04,1.910082626884436951e-03,-1.513224447756352821e-02,1.840432882308959961e+00
8.510376173462690375e-01,-9.520053116731779230e-01,5.885256668613481068e-01,-1.069458572830672347e-02,1.049366105011020206e-02,-6.995751170056374937e-03,1.687417030334472656e+00
9.292236678660574789e-01,-1.025429453825910997e+00,5.896942692250188855e-01,5.601738664268684532e-03,9.722679057457552301e-03,-1.635560547432316977e-02,1.809272527694702148e+00
8.673873193745532673e-01,-1.060745930330339482e+00,6.771119239199040463e-01,-1.323710379503916131e-02,-1.217365097316803514e-02,1.142701645493992973e-01,1.851261615753173828e+00
9.206662785160939499e-01,-9.936310608145498824e-01,5.828725690449749752e-01,1.850056905719571834e-02,1.259951027058287334e-02,-1.725855128838317543e-02,1.770423054695129395e+00
9.688674374495455099e-01,-1.208329743489090058e+00,6.747329077906076833e-01,-9.720310473679797877e-03,1.436673980003296686e-02,1.624393013280968634e-01,2.065520763397216797e+00
7.859034714592825210e-01,-1.006865038916079813e+00,7.694575488774574312e-01,1.279010223147899160e-02,5.098280167810474890e-03,-1.877630876421722966e-02,1.785058021545410156e+00
7.610015005628418816e-01,-9.391595624667190556e-01,7.738299212960764173e-01,2.334857332073561262e-02,1.960448288154051366e-02,1.392815387479674413e-02,1.707598567008972168e+00
7.906284847124528392e-01,-1.018044604121348007e+00,7.480473778754621605e-01,-1.564051855207574532e-02,8.613828699324003677e-03,4.933545773757699524e-03,1.788050770759582520e+00
7.892173367455563859e-01,-1.030515110778610133e+00,7.831165226389112943e-01,-1.037261344567121969e-02,1.475359138079341756e-02,9.843631255443057587e-03,1.817038297653198242e+00
7.861055036287328823e-01,-1.008793181184937549e+00,7.602035628333473349e-01,-1.716371888369218682e-02,6.163736421331897711e-03,1.554717257469274971e-02,1.782572269439697266e+00
7.609849300697710817e-01,-1.063077001520144949e+00,7.911831539201169550e-01,-5.522068903937650194e-03,2.529736875498838494e-02,-2.184191353900746813e-02,1.840282559394836426e+00
7.211553159470871499e-01,-9.970841223271376119e-01,7.313192861663891930e-01,7.689733784244773534e-04,1.893684907357683078e-02,-8.466467819938970976e-03,1.723718881607055664e+00
7.356490941542547235e-01,-1.006221536717718745e+00,7.397631945536706777e-01,7.431484638867173059e-03,-1.094087003661409381e-03,8.386425913012375208e-03,1.744040369987487793e+00
8.066237985531536925e-01,-1.017457791437443415e+00,7.535585539864447790e-01,3.366530387540265894e-04,4.088956619340559928e-02,-2.957240268793128596e-02,1.800259470939636230e+00
7.909107492436729947e-01,-1.105684704053711886e+00,8.018620676097893973e-01,2.344910176710551103e-02,-7.128481832784801242e-02,2.936878431706180237e-02,1.907209038734436035e+00
7.360042782248190640e-01,-1.011312190251736354e+00,6.876707255168859056e-01,1.611044121122031866e-02,-1.123754194604178747e-01,1.658497644527913775e-02,1.735075116157531738e+00
7.851015230241320531e-01,-1.026276557760197550e+00,6.847255339143976105e-01,3.145554557918092686e-02,-1.253352799388220418e-01,1.341160516834268880e-02,1.777633786201477051e+00
7.857157418533936566e-01,-1.026307949999205826e+00,6.987895829125888580e-01,2.778435840592896611e-02,-6.716020574527971354e-02,3.614079310873458822e-02,1.775736331939697266e+00
7.829779908417717760e-01,-1.025903042655788910e+00,7.332885905682007266e-01,2.246358291770212193e-02,-4.632627497553921947e-02,2.389038894290491065e-03,1.786786675453186035e+00
6.299189750783963371e-01,-1.032447751087234078e+00,8.143807908128194439e-01,-3.179379852874155560e-02,-1.504605758394431114e-01,-1.729875673490557930e-02,1.782127380371093750e+00
6.079036405415703115e-01,-1.039219549549758703e+00,8.395341342225114412e-01,-1.059515541664677110e-02,-1.024089370123194981e-01,-2.012437443061848227e-02,1.783593535423278809e+00
7.830062578194626477e-01,-1.191718322600318292e+00,6.561487520678748186e-01,-3.504135385841756350e-02,-2.439097176352644780e-01,-8.272350495024946571e-02,1.966674923896789551e+00
5.826578661228745126e-01,-1.171234340319461831e+00,8.098847725303791600e-01,7.449499664978675995e-02,-2.905011991994733700e-01,4.235916033552122872e-02,1.949745059013366699e+00
5.099536018636334767e-01,-1.030331639004245403e+00,8.148415411508593831e-01,-5.168455032424815188e-02,-2.256957276294495052e-01,-2.623453787441179866e-02,1.760097742080688477e+00
7.601182695826607105e-01,-1.018706066506224417e+00,7.009094163606243155e-01,-1.679688839919060359e-02,-1.466781930124627098e-01,-1.374406362549178418e-02,1.768715977668762207e+00
7.548135382106175850e-01,-1.093344307185679654e+00,6.489848902960241306e-01,-5.396873349925722894e-03,-3.234080580333510424e-01,-2.705471806495480386e-02,1.883443832397460938e+00
7.517485082666408580e-01,-1.023383878525864876e+00,7.039222433966372261e-01,-1.016763749501582888e-02,-1.434860546572963580e-01,-1.548325246353835297e-02,1.769541859626770020e+00
9.760095122445967553e-01,-1.064103463362008339e+00,3.889496214748739966e-01,1.786978696629111171e-02,7.917134781463394666e-02,-9.635026491727034792e-02,1.832114696502685547e+00
7.743657864557391690e-01,-9.540990501918884537e-01,7.689056051166607286e-01,-3.610089626477696462e-02,-3.311464238449841977e-03,-4.057468518897698606e-02,1.728312611579895020e+00
8.008067927930098140e-01,-1.016001965414046193e+00,7.466963228447641709e-01,-2.458073674377139056e-02,-2.734665302874153547e-02,4.204369419804731244e-03,1.791514158248901367e+00
7.829446457688999939e-01,-9.944329877060842371e-01,7.047663306465239419e-01,-8.388927796222222719e-03,-3.719582393010720245e-02,-7.683430284279610910e-03,1.740910530090332031e+00
7.983064386097321607e-01,-1.060170306141298591e+00,7.525942995756572662e-01,-3.818674197639679996e-02,-4.718020922854412880e-02,-1.420874208525470597e-02,1.839219570159912109e+00
7.879878766433467963e-01,-1.016802229014711401e+00,7.104123144774898702e-01,-8.956464126209855853e-03,-3.696497809161079090e-02,-7.072846267349261473e-03,1.768549561500549316e+00
7.456331556255957338e-01,-5.460882780971259010e-01,7.418146258324695985e-01,-1.037318866230353687e-01,8.122856284335141716e-03,9.198576710725794858e-02,1.312055349349975586e+00
7.893280896412474545e-01,-9.009922636800891116e-01,7.532164500044745692e-01,-2.796787910668457194e-02,-3.101084793579334236e-03,1.104338634737891955e-01,1.684164166450500488e+00
7.323434999343034768e-01,-6.657837401306790914e-01,7.018339643940952888e-01,6.226040590009874337e-02,-2.036141547227277027e-02,-2.336228499972876210e-02,1.388360381126403809e+00
7.839752212545685328e-01,-9.646402581291080303e-01,7.927795025600770096e-01,-9.896632615953001103e-03,2.813781392127357936e-03,2.304548085150232711e-02,1.753579139709472656e+00
6.972641476007653827e-01,-6.616353957056376744e-01,7.239616537967152876e-01,2.345983271174639784e-02,7.556743293568396469e-03,4.617080983096387425e-02,1.375433564186096191e+00
7.147014086219094509e-01,-6.676452404381183481e-01,7.197807834640501667e-01,-1.487313188058219868e-02,1.617109784061397659e-02,5.360224362164262707e-02,1.388523459434509277e+00
7.671697726411551566e-01,-9.211646195617758659e-01,7.277513156070545275e-01,1.678713251476328383e-02,1.398555904493824394e-02,1.275381023523781271e-02,1.669549465179443359e+00
7.961393755808081618e-01,-8.313637860425113768e-01,6.608346694883204808e-01,3.737687058094591591e-02,-1.045412061311355549e-02,3.674013533801095965e-02,1.566982269287109375e+00
8.032670825697000305e-01,-9.183688332338520999e-01,7.524504317305328316e-01,4.922534847188937690e-02,-1.480004569468461794e-03,9.807262839960800838e-02,1.707411885261535645e+00
7.685162119152449955e-01,-9.242264506186399498e-01,7.593953338832493127e-01,2.990929217740399132e-02,-2.663676001412444184e-03,-1.087738511552342573e-02,1.689106702804565430e+00
7.683390633555940985e-01,-8.013078628933724135e-01,7.400429437792604981e-01,5.356907595585729681e-02,2.916768805632511535e-02,3.048839223442996113e-03,1.559283852577209473e+00
7.329699259693953639e-01,-7.091500062096075530e-01,7.251566460500245004e-01,4.502835074726226072e-02,-1.196923276429270010e-02,6.052846174320001410e-02,1.444301486015319824e+00
8.223118024098421408e-01,-9.516955785751679553e-01,7.600696047436108493e-01,-2.181626254295581172e-02,-1.003711947256524448e-02,1.170333191746508045e-01,1.755955219268798828e+00
8.346468121804108131e-01,-1.056425518793394636e+00,7.901675612303720175e-01,-7.707795383157516056e-03,5.542419825712318650e-03,1.366526993877372441e-02,1.869451761245727539e+00
7.594436815284286713e-01,-8.471095806001498474e-01,7.754769565355046357e-01,4.359172723638213287e-02,-8.657554117118430870e-03,1.945251849883815054e-01,1.651203989982604980e+00
7.962878154743109338e-01,-8.196663259419871839e-01,6.308957445450515955e-01,-2.587280877516365957e-03,2.150418489653073157e-03,6.658694875314415118e-02,1.544257640838623047e+00
8.223596281503926519e-01,-8.015158507531419119e-01,7.641363015001189085e-01,6.608204210866565342e-02,-2.736710608922632987e-02,1.750083073619417284e-01,1.628817081451416016e+00
8.154326998483980571e-01,-8.433595401806224245e-01,7.371993092529856018e-01,2.226028843851809991e-02,-6.481355865140275840e-02,6.448798180903973776e-02,1.629264950752258301e+00
7.832633486227467134e-01,-9.946957824385447289e-01,7.156945511467855958e-01,-1.918504467768367833e-02,7.795245319221320857e-02,1.219319440976213836e-02,1.750813961029052734e+00
7.510360220229865824e-01,-1.085479695580153336e+00,7.548837580906690992e-01,-1.325881198666019681e-02,1.035796720730761816e-01,3.049818981606943272e-02,1.848073363304138184e+00
7.579908483872574987e-01,-9.496901386496565678e-01,7.640412809958434526e-01,1.456903396615281260e-02,6.269452309067034997e-03,4.972387522756478717e-03,1.710956454277038574e+00
7.915484166068317284e-01,-9.711628775571985450e-01,7.653941879130646830e-01,3.483063236733179718e-02,-1.270951430221148315e-02,-3.425355004706778089e-02,1.751963734626770020e+00
7.747040702520872069e-01,-1.033011991220140757e+00,7.752448007988953504e-01,-4.015383060223314156e-03,3.895805872309397906e-03,9.277098350831880155e-03,1.808083891868591309e+00
7.753928404709997668e-01,-1.029474982867583099e+00,7.645521678955433664e-01,-4.556590082768943728e-03,-6.567981156489970801e-03,4.477203537901199189e-03,1.799541950225830078e+00
7.257805381875921391e-01,-4.968533574637247208e-01,6.960550367654577686e-01,1.127326574270094278e-01,6.510951364919709966e-03,4.869996799785674887e-03,1.223804831504821777e+00
7.764596001268353476e-01,-1.018233852581395205e+00,7.343703618212774620e-01,-2.815995595704218202e-02,2.481076807457135644e-02,1.917989608066016094e-02,1.775524735450744629e+00
7.254267768402220540e-01,-9.904890931671028742e-01,7.162748357628155871e-01,6.047061419733552011e-03,5.012663232735796448e-03,-4.754455541326214202e-03,1.711432099342346191e+00
7.809835933097193372e-01,-9.692407964113383123e-01,6.874164686090382670e-01,7.373942326578489248e-02,1.852901084538386423e-01,-1.338708879638369695e-02,1.740150570869445801e+00
7.914364043432473572e-01,-9.958323712004605310e-01,7.045908940309061341e-01,-7.059539982276066133e-03,1.220400740020296734e-02,2.803256481334661862e-02,1.746313095092773438e+00
8.140915619050435037e-01,-1.017956746301185600e+00,6.367509552971332143e-01,-1.759907649950471706e-02,8.548903029887282290e-02,6.521961009163949885e-02,1.760275363922119141e+00
8.431990718464091872e-01,-1.005761157234362324e+00,6.956016380454781434e-01,2.089170023842447550e-03,5.386926623840262648e-03,-6.017885867983046276e-04,1.779785990715026855e+00
8.569269412192412894e-01,-1.029011809402002431e+00,5.914742743418135440e-01,-3.406478470710807421e-02,5.202760749569791676e-02,4.615953335511646660e-02,1.773301005363464355e+00
8.547912011493733475e-01,-1.018702638300962526e+00,6.208405115797239748e-01,-1.046036790746807110e-02,6.933245442630650568e-02,1.576394006214937651e-02,1.772541046142578125e+00
4.675446278823960355e-01,-1.003457639412916436e+00,9.581965721867998775e-01,2.522769043306901868e-02,-1.640753915686398168e-01,-2.692015846080183378e-02,1.791977286338806152e+00
4.338733429377224504e-01,-1.005606901704056977e+00,9.127819874954498092e-01,-4.199479269263894921e-02,-7.916225295834705689e-02,-7.133295159796998117e-03,1.736398458480834961e+00
3.633384387892297784e-01,-1.004691371828338120e+00,9.886003247114683035e-01,3.158743171421081204e-03,-1.020959489385619146e-01,1.778471095298778115e-02,1.774847745895385742e+00
3.163203697454013419e-01,-1.078440405335107100e+00,9.569491152299773873e-01,5.397163264799866716e-02,-3.593939649750559351e-01,-2.645626387626074522e-02,1.909873604774475098e+00
2.882132536508410503e-01,-1.030388091664813377e+00,9.486767327944254369e-01,2.560936332180646993e-02,-3.414744802524872780e-01,5.882053716075538730e-02,1.846069097518920898e+00
3.594830456550436315e-01,-1.019221194922920404e+00,1.003909218834726724e+00,-2.434113856253927732e-02,-9.934355902741444366e-02,1.337302860727080517e-02,1.799028873443603516e+00
7.481056389661340233e-01,-9.873117519803992215e-01,7.659006990843033602e-01,-5.028181837771849780e-03,1.708651338552139021e-02,2.264707453161424883e-02,1.745096683502197266e+00
7.780381838343077838e-01,-1.131620850296462422e+00,8.367275117459366252e-01,-3.821392733887513972e-03,5.323804608180669751e-02,2.700322770610187953e-02,1.942434787750244141e+00
7.195393643660201732e-01,-1.027396545792033988e+00,7.932791314515974523e-01,8.971314353348443585e-03,9.224840946263281050e-02,1.791215004663354593e-02,1.792421460151672363e+00
9.397235563030796879e-01,-1.073843169434321343e+00,6.877202970811228111e-01,-8.966408081498331017e-02,8.209269003073682569e-02,8.950235826077872214e-02,1.918045878410339355e+00
9.278077886746824987e-01,-1.115577739669962876e+00,7.229582137429839683e-01,-4.307031607466497297e-02,6.034840768129530464e-02,9.443056117381354309e-02,1.960113167762756348e+00
9.831540300929693110e-01,-1.144650010723156086e+00,5.933086424549428584e-01,2.053398455605537354e-02,9.066080307353596712e-02,-4.890764721583449465e-02,1.970561861991882324e+00
7.199388020847319325e-01,-9.956270612057500635e-01,7.246574699219003879e-01,-9.932622207612757173e-03,6.267195976289109162e-03,1.013477848825905872e-03,1.718051433563232422e+00
1.066445965079932279e+00,-9.022840684098472064e-01,2.720352361236102468e-01,-1.062375435349018349e-01,1.875718324354894717e-01,4.129274619181039219e-02,1.757136940956115723e+00
6.526486659259682632e-01,-3.134458885814420670e-01,6.370466181492808744e-01,3.698898710594695355e-02,9.981079692131800130e-03,3.446865352959789519e-02,9.625366330146789551e-01
6.640118510761058301e-01,-9.970391999041436915e-01,7.230124806399750303e-01,3.047699420262202363e-02,1.273639661533732537e-01,-2.829304351606563503e-02,1.707169413566589355e+00
7.254014980817610203e-01,-9.971051367112672148e-01,7.229367295006673411e-01,9.724382937300561983e-03,4.514264178615060019e-02,-5.003276752402053933e-03,1.723154664039611816e+00
7.065114236126622815e-01,-1.031514656965522470e+00,7.571789763765115477e-01,4.943131383554507513e-02,7.412149613014321070e-02,-3.219431424806531300e-02,1.771520614624023438e+00
7.209742296776514570e-01,-1.036432138956030924e+00,7.824108625809298445e-01,4.238476221644779489e-03,4.033926325666805507e-02,-4.127570343345566065e-03,1.790309309959411621e+00
7.662095215295418038e-01,-1.025251030596448842e+00,7.000506925482842258e-01,2.315001484711177657e-02,9.352380525806031075e-02,-5.084588237998567684e-02,1.769404053688049316e+00
7.817717637019888643e-01,-1.033510251103983313e+00,7.889660047697165668e-01,-7.772502334376466329e-03,1.215488225228358518e-02,4.437840591140536015e-03,1.819077730178833008e+00
7.358453438749360531e-01,-1.024895896804390194e+00,7.623500425623059851e-01,1.751292921537938446e-02,3.460661183081028408e-02,-1.575231388596490256e-02,1.775623083114624023e+00
7.658912299772513421e-01,-1.014260264158365787e+00,7.143682874283248108e-01,1.584506981829793965e-02,6.321008066311344098e-02,-1.656322685477908119e-02,1.758817195892333984e+00
7.781537699264605701e-01,-1.015041523730150441e+00,7.925527235382512359e-01,-5.775056383927036630e-03,-1.158833529933501506e-02,2.074135387216643339e-02,1.800935983657836914e+00
7.922490214245558882e-01,-1.021704315826086784e+00,7.804336356425405352e-01,-3.537152120779505759e-03,-1.233975210946248752e-03,-3.094055224323383722e-03,1.808094143867492676e+00
7.850614401945568144e-01,-1.022473102597325267e+00,7.174525565846558983e-01,-2.847645760681883839e-02,2.161057782917279874e-02,3.106328070714757875e-02,1.776590943336486816e+00
7.718704093613906192e-01,-1.029331209112102741e+00,7.719297149740996788e-01,-3.185780052083181380e-02,2.031111514699524695e-02,2.628258531688289212e-02,1.802994370460510254e+00
7.647523205819628522e-01,-9.903035898367560375e-01,7.768962140063004895e-01,3.237593621757767215e-02,1.822251758084261590e-03,-2.983415648461593475e-02,1.762812137603759766e+00
7.883718166644730907e-01,-9.837476590730183101e-01,7.683810327627123016e-01,-1.624276786148433349e-02,-4.889804183114927066e-03,-1.886529043603570044e-03,1.762457013130187988e+00
7.931980118662053103e-01,-9.851935275264455116e-01,7.824904228383268157e-01,-2.496348197076172018e-02,-8.137592688591453738e-03,1.679634790526796095e-02,1.773883700370788574e+00
7.663632567008915597e-01,-8.492716780976368174e-01,7.427267484217463522e-01,-3.240382273022387322e-02,-2.689766557772594290e-03,3.251739863197511751e-03,1.604945659637451172e+00
7.654392703226139405e-01,-8.624066877086222771e-01,7.460015317126402756e-01,-3.828170870706196216e-02,-9.850214774885117375e-03,5.033915225615481076e-03,1.619685888290405273e+00
7.736750195098134331e-01,-1.005987165886361723e+00,7.777967236044613930e-01,-1.545716978084722346e-02,-1.720603909045429272e-02,-3.280124480167577461e-02,1.783082246780395508e+00
7.581238829190890538e-01,-1.067611821904535852e+00,8.606945843939164398e-01,-8.465993046784500708e-02,7.802201393327200599e-03,-7.238429437414388434e-02,1.889047861099243164e+00
7.344177878240403246e-01,-9.173098920012358048e-01,7.743699805896183674e-01,-2.218650209557889233e-02,-9.511903322897388019e-03,1.067324453836533682e-02,1.672686576843261719e+00
7.534718034324148217e-01,-1.014780874888317141e+00,7.736179271190157802e-01,1.867347517845378488e-02,-4.384367424002126590e-02,1.122127688971641044e-02,1.780431866645812988e+00
7.788793293077824753e-01,-9.742340914531810725e-01,7.184521966372174884e-01,1.907554484711531176e-02,-6.173465553240676390e-02,-3.275239096821159351e-02,1.728255152702331543e+00
7.738114300574137072e-01,-1.011825875582029077e+00,7.694077892215459569e-01,2.118086910648799351e-02,-8.365716376844471031e-03,-9.197795106562421360e-04,1.783876419067382812e+00
7.845553169078512967e-01,-9.855720123937600219e-01,7.622453208165751448e-01,-4.864124927237606366e-02,-2.733378853765212457e-03,-1.669397832450788058e-02,1.761338472366333008e+00
7.660302897563369129e-01,-1.010349587815523753e+00,7.865928278213496494e-01,-5.239616839242209473e-03,6.097213243251327700e-03,-1.929522954830893960e-03,1.786807298660278320e+00
7.754057129940323811e-01,-1.029105880099803416e+00,7.719024586944954747e-01,-9.289720957026638068e-03,-3.102886736920314279e-03,-1.186395441118023690e-02,1.802959442138671875e+00
7.896742336103302895e-01,-1.028794325647112373e+00,7.454697741628291130e-01,-1.715002722551129538e-02,-6.949123879653666506e-03,-1.592031304441488687e-02,1.797271609306335449e+00
7.599966427783495515e-01,-9.655267852720024191e-01,7.816582474973319261e-01,1.425963011744619917e-02,-6.568382738092928136e-04,-6.283284174101617763e-03,1.736665725708007812e+00
7.744640463655489970e-01,-1.028067955837319580e+00,7.823120213842889026e-01,-1.277163586925665617e-03,4.662627503149279970e-03,-3.966308693609589021e-03,1.806501269340515137e+00
7.838166436707713070e-01,-1.013968567746514449e+00,7.764728885898858346e-01,-2.428959857330562078e-03,8.193532220897198001e-03,-3.590313891977138912e-05,1.794185638427734375e+00
7.771726785886080568e-01,-1.029556906472030908e+00,7.666398846314459448e-01,-9.446074250376267079e-03,-1.285435607756293779e-03,-1.461930370459058916e-02,1.801739931106567383e+00
7.138473562000302586e-01,-6.026814508435966999e-01,7.053842783970765140e-01,1.778198276269434275e-01,5.656420377126998578e-03,-5.442059126612540376e-02,1.351302504539489746e+00
7.027441538145527966e-01,-5.474319896203376778e-01,7.078475406148749816e-01,1.698782326576742663e-01,-1.865711138176166187e-03,-5.088327593073375260e-02,1.289844989776611328e+00
6.743809600048376041e-01,-2.221526244970288277e-01,6.469116471318330230e-01,1.351473575524116399e-01,4.656733226968327519e-03,-7.498232038714477965e-02,9.228360652923583984e-01
7.008148861684614372e-01,-4.435204209746713699e-01,6.702789551327053008e-01,1.180494957613501400e-01,-1.417783500056020831e-03,-8.899141600646885697e-02,1.158043146133422852e+00
9.852387539624676283e-01,-1.062687535705984621e+00,4.202693076128449778e-01,-1.174202899582820793e-02,2.175799529629957596e-01,-5.618684832160459469e-02,1.872988104820251465e+00
8.122642563090164414e-01,-1.022235181790952518e+00,5.672039927553151895e-01,6.878885424797251576e-03,2.600807753972104175e-01,-3.425887576931096502e-03,1.782970309257507324e+00
9.021380534418677044e-01,-1.178714987959323279e+00,5.469579762836374037e-01,-3.517429236232175876e-02,2.711876514075529654e-01,-8.935892462398947744e-02,1.991311073303222656e+00
9.099951115916743438e-01,-1.078423619125082000e+00,5.402708721585824936e-01,1.173029964643899220e-02,1.435461841229845603e-01,-8.640863724452914688e-03,1.848727107048034668e+00
8.336688409939494449e-01,-1.042360685276033427e+00,5.740846685888648659e-01,2.637892679649533889e-02,1.772080100751435849e-01,-2.496336958422135446e-02,1.788308739662170410e+00
8.672083656402040930e-01,-1.023116141032796689e+00,4.128964183309840053e-01,1.988750951758756075e-03,2.140522760041244643e-01,9.116022202981390044e-03,1.748898386955261230e+00
7.279520606992021525e-01,-1.011779327331618683e+00,7.919470632629556084e-01,4.736800143007907637e-02,-1.658788586183163605e-01,-2.747325371582512443e-02,1.798231840133666992e+00
7.364322470368556139e-01,-1.002533299759593710e+00,6.825610954239017536e-01,1.159246950059640048e-02,-8.642464712280351069e-02,6.176861941060656988e-03,1.719345331192016602e+00
7.361515161384341033e-01,-9.864152127097335354e-01,6.651440384970811470e-01,1.805687078225625547e-02,-8.966730418291989080e-02,1.466212845214188293e-02,1.695790886878967285e+00
7.345912877398512730e-01,-9.978466836860875322e-01,6.700296280514272951e-01,2.667202757213654046e-02,-9.032469482309556097e-02,1.954596874517581725e-02,1.709215164184570312e+00
7.896337753753245314e-01,-9.745834684971574902e-01,6.072441155784878974e-01,1.043591528222577100e-02,-1.290126079370672585e-01,3.327075468565494757e-04,1.695350527763366699e+00
7.408586103307700510e-01,-9.986462378222328296e-01,7.327941503272725754e-01,8.875092382665282498e-03,4.349911954640057685e-03,-1.407914780491423355e-03,1.735572814941406250e+00
8.514872296607023383e-01,-1.031115876475687587e+00,5.062929987969355672e-01,4.973264192479817658e-02,-2.077200532858942683e-01,8.263788815721317960e-02,1.780685186386108398e+00
7.011285456530961246e-01,-9.827345524558724899e-01,6.880244030670649158e-01,-7.756227188989816938e-03,-5.900103409337186661e-02,-7.747534914991753736e-03,1.680566906929016113e+00
6.956648756621194307e-01,-9.888041002653800149e-01,7.393188076815235821e-01,-7.753785399865566891e-03,-7.272820193146427303e-02,-8.298419375276632273e-03,1.711470246315002441e+00
7.416652977339376340e-01,-9.901423618419368244e-01,6.180750890254863572e-01,-1.294578330292773215e-02,-1.169829510256508581e-01,-1.413611854010448504e-02,1.685987830162048340e+00
1.100972032891865959e+00,-3.056697725911187158e-01,7.229669117161672265e-01,6.557186917192947551e-02,7.349637388555596562e-02,-6.426755214905652269e-02,1.277226090431213379e+00
7.602878694130542625e-01,-9.962533384392674440e-01,6.178415464035148519e-01,-1.297807767552983105e-02,-1.025287087767966510e-01,-1.182626440124922781e-02,1.699404716491699219e+00
7.141425768788078887e-01,-1.008994809258007663e+00,7.317454310334474687e-01,-2.304969235753393658e-02,-5.375754236705287958e-02,-2.253505969595347505e-02,1.735405206680297852e+00
6.846502421186151377e-01,-9.913244660176878664e-01,7.449174343273841092e-01,-9.011680981484944744e-03,-4.304661897689995853e-02,-1.195260776856824081e-02,1.708730816841125488e+00
8.750321053092491308e-01,-1.038488155914505828e+00,6.409255596074875383e-01,2.575296196690792655e-02,2.911663494268827007e-02,-2.920865554107480999e-02,1.809831619262695312e+00
9.126208989432104124e-01,-1.037676186578837534e+00,5.714894061202244746e-01,1.042594209853798604e-03,4.511716990682999168e-02,-5.110345786898063064e-04,1.805777549743652344e+00
8.090951350833324174e-01,-1.032833986198389731e+00,7.929103028566439892e-01,-7.900736855103927120e-03,2.970214621345700773e-02,1.595055566372247796e-02,1.834870815277099609e+00
7.982188870533885039e-01,-1.028362564276642965e+00,7.181799347604383987e-01,1.636446066634282895e-02,3.925813130218572256e-02,-8.284627678983205734e-03,1.789480686187744141e+00
8.079311446473385061e-01,-1.033055236933240195e+00,7.178188839957951872e-01,2.360105779654247254e-02,3.150599377425781361e-02,-2.020867887625437537e-02,1.799258112907409668e+00
7.353393337987552680e-01,-7.041243057087951396e-01,7.300228438180753621e-01,2.625906740902888420e-02,-1.674368080267163439e-03,-9.531536105497923073e-02,1.446984052658081055e+00
8.337520210942027665e-01,-1.091824543917301771e+00,7.372946481726341261e-01,1.772754607173633590e-02,8.146324357736385580e-02,-1.169583469026634452e-02,1.884854078292846680e+00
6.979771193844883648e-01,-5.652995866255253743e-01,7.220696609559906776e-01,-1.322170582908529513e-01,1.027554981182289204e-02,-8.694243595305656269e-02,1.304730534553527832e+00
7.152314143914655364e-01,-6.102392423288571788e-01,7.254877509404398239e-01,-1.602092568708767539e-01,-1.228949297987206755e-03,-1.535385079482906243e-02,1.359516382217407227e+00
7.513794995987769232e-01,-9.046154546497856552e-01,7.774182471182333742e-01,-5.124289025594998964e-02,1.014009805996332440e-02,-4.994502061585857910e-02,1.673853874206542969e+00
6.916928113324178895e-01,-7.835660636224890396e-01,7.629655981778187268e-01,-2.422716642733005743e-01,-2.667124029976482118e-03,-5.518713303521332464e-02,1.572214722633361816e+00
7.732893619426236542e-01,-8.179742123551474453e-01,7.536719622404963737e-01,-5.222583143863680083e-02,-5.076094821640056952e-03,1.138982406455835324e-02,1.584278106689453125e+00
7.901562543730659138e-01,-1.027881884531720802e+00,8.064800264978816413e-01,-5.843981060502015379e-02,3.115077490992998813e-03,1.191257581677929167e-02,1.829182028770446777e+00
7.432058622503744383e-01,-8.329122776439786824e-01,7.643308901218581752e-01,-7.954641501943927884e-02,-3.738069559689752557e-03,6.694942483774821151e-03,1.592811822891235352e+00
8.579517633343596295e-01,-9.990901347114631292e-01,7.550748131824260856e-01,5.901357320422553898e-02,-2.678848136491783320e-04,-4.945001608350155058e-03,1.810707807540893555e+00
8.397686791453640165e-01,-9.752017490937305855e-01,6.672475542883979927e-01,-4.559178707352839338e-02,-8.027595872031970115e-02,-2.084520049947635456e-01,1.779518365859985352e+00
6.637567948096213533e-01,-8.258448023299030938e-01,7.629592593129853606e-01,-1.832802804543698372e-01,-8.677388081762439642e-02,-4.298457231502449127e-02,1.582856059074401855e+00
8.152518457870471247e-01,-9.343057181121758870e-01,7.138075344045100579e-01,-4.986329149798317956e-02,-4.538337188896057750e-02,-6.590604975663189036e-02,1.708926200866699219e+00
7.682230427806885364e-01,-9.070752533189901934e-01,7.551325167429255858e-01,1.272251447405912776e-02,1.915117910071540905e-02,4.856861566808470462e-03,1.669287800788879395e+00
7.714971724730974589e-01,-9.185431955662808345e-01,7.671843944471554710e-01,2.069216549244618994e-03,3.254610992264840401e-03,4.400265567908985889e-03,1.687918543815612793e+00
7.496299270623276723e-01,-8.163291017476511646e-01,7.467753750978739502e-01,-3.855672096327421305e-02,-1.044374937644973120e-02,-4.360123144804689543e-02,1.567882657051086426e+00
7.680443778336495386e-01,-9.177489938848606421e-01,7.522099416079875978e-01,-5.914169872657299570e-02,4.885651244699604732e-03,-7.604800544964995801e-02,1.686229825019836426e+00
7.712000808738536106e-01,-9.130119537644952876e-01,7.603606745112805321e-01,-4.765443082266172803e-02,-6.019252689933538361e-03,-1.053696029475269802e-01,1.690757751464843750e+00
7.810176033660153339e-01,-9.707613775317004423e-01,7.837351626267065052e-01,-2.692737610402254692e-02,-4.019998236317908272e-03,1.791629899458715936e-03,1.753776192665100098e+00
7.350395785358974088e-01,-6.959347351153402084e-01,7.095323718253490064e-01,-1.464622929442139787e-01,-3.180377424730285521e-03,-1.011814130133197875e-01,1.451528429985046387e+00
7.867175203521517002e-01,-1.035752666597377303e+00,8.011441858293387730e-01,-1.177077752659611010e-02,5.449776852671212209e-03,-5.909394548709233537e-03,1.829892754554748535e+00
7.825677326407662893e-01,-9.962174667422085683e-01,8.084630856352517103e-01,-4.831596651956621136e-02,-1.492286000067907055e-03,3.688896731385823535e-03,1.793839573860168457e+00
7.039907403582217338e-01,-1.091514222865868966e+00,9.405329918329311534e-01,-8.484277725684397087e-02,1.600417439975988232e-01,-1.194243344254253573e-03,1.950113415718078613e+00
5.813830521526190953e-01,-1.102099775781014479e+00,9.678204462317554491e-01,5.249836195646787051e-02,6.160076808238076906e-02,-1.652927947777671838e-02,1.911669611930847168e+00
6.917366674789104941e-01,-1.064216464292637720e+00,8.651485207619429296e-01,3.262614500366881227e-03,3.149492542223138181e-02,-4.363627851563766508e-02,1.851125717163085938e+00
7.575210983869989922e-01,-9.872733364050777505e-01,6.505591572773599118e-01,-7.886690093171421986e-04,7.926048432929672094e-02,2.980225123959246054e-03,1.699410796165466309e+00
7.326856412592481771e-01,-1.106490775637098745e+00,9.283045090045433101e-01,-1.189492505463461995e-03,7.145386565261364897e-02,1.184703855245681017e-02,1.948424100875854492e+00
6.763779835907358651e-01,-9.929636030403006242e-01,8.544757642057099201e-01,2.960108914551026760e-02,-1.303039410268795259e-02,-1.409651071148707718e-02,1.766199469566345215e+00
7.949602218496317763e-01,-1.016663847447186297e+00,7.848889102144229746e-01,-2.994939233587236207e-03,1.933227312344476707e-03,-7.612799753386456647e-02,1.811425447463989258e+00
8.246161916596111974e-01,-9.190255343863902304e-01,6.515291518801975545e-01,2.202582402595311406e-02,-4.832115700699404770e-02,-4.960167238504498838e-02,1.668617725372314453e+00
8.739687311693558058e-01,-1.056951808625436140e+00,5.874288216334740964e-01,5.447491845306551977e-02,-2.014702494689269152e-01,1.061926867893292145e-02,1.840729475021362305e+00
8.401995448580686920e-01,-1.207228957434711925e+00,5.835643610647106572e-01,-1.785918453516070759e-02,2.699873631623369019e-01,-6.244403078966141024e-02,1.990908622741699219e+00
8.743662876875207823e-01,-1.110809643343682929e+00,7.184220263296015041e-01,-6.361252443866567685e-02,-2.164157757391612161e-02,-4.476129169012516007e-02,1.917086482048034668e+00
8.577791482657397548e-01,-1.019945564684908490e+00,7.628445186838948011e-01,-1.232312090156421555e-02,-1.722201314095043317e-02,-7.086461865721141451e-02,1.836576223373413086e+00
7.823477043278246335e-01,-1.020398924522333717e+00,7.918336260234914992e-01,-6.343103894830373971e-03,8.151528481119530399e-04,9.401038160451733947e-03,1.807615518569946289e+00
7.926053747010607387e-01,-9.952312364159253688e-01,7.743137776985706822e-01,1.526366964241689453e-02,-5.469353369177984772e-03,5.890012218938324310e-04,1.778983354568481445e+00
7.244194906180835281e-01,-7.860826510925001953e-01,7.364448748674156109e-01,-6.418309344906694691e-02,-6.997371115002355355e-03,2.333491910175214748e-03,1.520673274993896484e+00
7.954708957401110947e-01,-9.677501017301946007e-01,7.735980213849839027e-01,-1.843615016837345244e-02,1.283064656951923496e-02,-1.125830910965697207e-02,1.752927184104919434e+00
7.396113723136418239e-01,-9.804582394398558831e-01,6.801890637098390036e-01,8.873103454957393180e-03,1.230739978272751486e-02,-1.586284798974800254e-03,1.691348075866699219e+00
7.429519660868467712e-01,-7.843830506069635611e-01,7.409582610112158685e-01,-8.179557575798050706e-02,1.102592702371217245e-02,-1.012478229946811234e-02,1.533119320869445801e+00
7.271645560115882478e-01,-9.006311187530795515e-01,7.904653704066637587e-01,-4.941080098628437833e-02,2.561845076254301926e-02,-2.911274708814288320e-02,1.663911819458007812e+00
8.100003874054043651e-01,-1.002046968121883097e+00,6.675512848159573798e-01,3.073993251303055747e-04,-8.277252829210204887e-02,-5.807286199540174576e-04,1.751067638397216797e+00
7.713305251466848755e-01,-9.864252876786713253e-01,6.362532411185174430e-01,-2.082981246963979891e-03,3.826321626257348646e-02,5.882453028114764150e-03,1.695590615272521973e+00
8.077716645336129320e-01,-1.030560797852411392e+00,6.313478020811834623e-01,-1.630863703012652016e-02,-1.336695317343694067e-01,-2.884358094414582463e-02,1.772896528244018555e+00
8.500588474825852003e-01,-1.049490533520811120e+00,6.901630712787873989e-01,-1.802450425692663991e-02,7.483115272856311583e-03,-1.068910390318630714e-02,1.825269818305969238e+00
8.859938785063867783e-01,-1.033526601208562878e+00,5.422905178137862325e-01,-1.376511915586179670e-02,-1.077588242267394913e-01,1.787715987162987602e-02,1.783061504364013672e+00
7.694563418002682287e-01,-9.834868753761883964e-01,6.434915909252794108e-01,-4.358006868528033553e-03,4.100257752146615337e-02,3.418850761849255527e-04,1.694983482360839844e+00
7.180678352668279363e-01,-8.214174630131909627e-01,7.638803434192235065e-01,-2.771350811663992643e-03,-1.639605168412900521e-02,7.990386720836194917e-03,1.563221812248229980e+00
1.017968409795622087e+00,-1.070706566645802660e+00,4.774019056819477358e-01,-2.218778711640849097e-02,-1.357192576287757080e-01,-3.782911070417113025e-02,1.893868207931518555e+00
8.993939573112815777e-01,-1.049804172846133143e+00,6.659889095263460401e-01,2.028242178437617092e-03,4.044694525953541897e-02,1.437570948866856609e-02,1.845112085342407227e+00
7.076796583820406106e-01,-9.942735951873945544e-01,7.014545302656797210e-01,-1.060853318902845767e-02,-1.814886435976918733e-01,-1.232248820052966182e-02,1.727916717529296875e+00
7.747691212410815487e-01,-1.034510940468523321e+00,7.718476025836088494e-01,1.758056787958882415e-03,-1.619446112292110640e-04,-1.398554777154168479e-03,1.807825326919555664e+00
6.164115958154807728e-01,-9.831920720116460455e-01,7.886028467643493300e-01,-7.100181297262463239e-04,-2.247046687643964105e-02,6.663015874790669153e-03,1.692769646644592285e+00
7.480045861438304744e-01,-1.030328214406355247e+00,7.200222242836057385e-01,-3.063224093742325516e-02,-1.522767115037069741e-01,-2.572575438757752561e-02,1.785456180572509766e+00
6.372798748294289384e-01,-1.027906133079641959e+00,6.459740857533011749e-01,-1.594311990654157614e-03,-2.974877483537357037e-01,-1.188115964711324122e-04,1.747255563735961914e+00
6.646257108233858402e-01,-1.034038006013791255e+00,8.632876762954504457e-01,-1.085953706337913598e-02,-5.373038573233598902e-02,7.868969941924998032e-03,1.808752417564392090e+00
6.766856750505645390e-01,-1.007323191451234612e+00,7.822400247176010124e-01,-4.305360077330168400e-02,-5.978249340214430996e-02,-4.947319550096948571e-02,1.745968937873840332e+00
1.559002290725012507e+00,-1.569007174373463265e+00,3.128283922134167394e-01,6.787629241778056488e-02,2.064644336533884295e-01,-2.283693189574767524e-01,2.781638145446777344e+00
7.678723470770907333e-01,-1.050644521109622254e+00,7.703893427065490185e-01,-3.461904535944033967e-02,-7.372103691693299155e-02,-3.005341765417895300e-02,1.825978279113769531e+00
6.802101009774067508e-01,-1.045418880861805011e+00,7.871570024173961677e-01,-1.744878966933747014e-02,-6.736708662310315898e-02,-3.262109589369782681e-02,1.786478281021118164e+00
5.939227877293101754e-01,-1.079055170707864608e+00,8.635814948487312570e-01,-1.892020122689475406e-02,-2.896878536690299377e-01,1.613935863354695049e-02,1.891115188598632812e+00
7.087962030646121070e-01,-1.022682655405430463e+00,6.581645705905836419e-01,-2.047671725756015915e-02,-2.064192668001795794e-01,-2.449574785856787132e-02,1.744648933410644531e+00
7.805370040264697495e-01,-1.053063105992714243e+00,8.013469333476807011e-01,2.471319931291979244e-02,-3.647230944269275188e-03,5.482334830036338438e-03,1.844625115394592285e+00
7.552943356366463856e-01,-9.640699045766493169e-01,7.830836687536336660e-01,2.138081439260959213e-02,-2.381185644002880610e-03,6.247066774311418273e-04,1.733826756477355957e+00
7.660245265409306725e-01,-9.931998959155775575e-01,7.870919876524519188e-01,4.538730827577784621e-02,-4.854445441060107475e-03,5.359695401628348024e-03,1.771641492843627930e+00
6.286016995006412644e-01,-1.008326785049064256e+00,6.776901004740183421e-01,2.792774367712706068e-02,-2.442329093452068056e-01,2.733147406074225294e-02,1.716341733932495117e+00
8.078096654440025670e-01,-1.016491842396121559e+00,6.752535606161269577e-01,2.274077445853620733e-02,-7.948858516607279490e-02,5.285074138076509276e-02,1.769946694374084473e+00
7.856638693188637834e-01,-1.030904586339158158e+00,6.844995831152038690e-01,4.417171341521473893e-02,-5.278444458648856585e-02,4.350804220245782505e-02,1.773774027824401855e+00
7.845754508647723169e-01,-1.010088450094791312e+00,6.596887316870638784e-01,2.570357677016740089e-02,-1.303357861354030867e-01,2.967837928589523930e-02,1.751534223556518555e+00
6.460216995607224177e-01,-9.976617784943370149e-01,7.416274454541534888e-01,1.188366575630530123e-02,-1.014828992680728431e-01,1.252721405507406863e-02,1.702871799468994141e+00
7.335052199317055877e-01,-9.971644733869183819e-01,6.872907035343622795e-01,2.578630863310855947e-02,-8.225893234526111819e-02,1.806828263886658265e-02,1.714830875396728516e+00
7.021924282633503767e-01,-9.936583778451629767e-01,6.852306734881583594e-01,1.994241468357496605e-02,-6.360945026192986462e-02,2.061730622264816570e-02,1.691756486892700195e+00
6.845154893296199194e-01,-9.988958288571585520e-01,7.474740605958416495e-01,2.071815254641658915e-02,-6.153143961817186813e-02,2.003072407080695727e-02,1.719788432121276855e+00
8.544375487214959097e-01,-1.042455386743715851e+00,7.236877219283832652e-01,-4.310158218099791397e-03,-1.269157535027179082e-02,3.759966559987724943e-02,1.836316943168640137e+00
8.298349961167679201e-01,-1.025989465012040025e+00,7.159537098469783700e-01,1.053672871951618663e-02,-4.243822664267645622e-03,5.361968418873369960e-03,1.801716685295104980e+00
8.531006151642807067e-01,-1.024597554350647588e+00,6.305614641669035070e-01,2.234617207174712655e-03,-1.635957998348500780e-02,-1.165406711447578708e-02,1.777255773544311523e+00
6.617036173948012134e-01,-9.926063390617427817e-01,7.556606658080533556e-01,-1.049119856675130233e-02,3.201801064063329594e-02,1.204346966683476558e-02,1.704360365867614746e+00
7.802900902297786878e-01,-1.021470201858783788e+00,7.911307919601844318e-01,4.252200650836546365e-03,-2.661268701960410859e-03,-2.534708550315367594e-03,1.807231307029724121e+00
8.505188119078812559e-01,-1.042450937174371095e+00,6.365454750452302912e-01,2.707899418787464499e-02,-2.552569833427798668e-02,4.154537765501278151e-02,1.798167586326599121e+00
8.354205041938287390e-01,-1.032402081082136824e+00,6.377981517710294979e-01,6.371753736810679275e-03,-1.002145621767144661e-02,3.871960605846455628e-02,1.778654813766479492e+00
8.617185314063875445e-01,-1.026273269961387458e+00,6.272340997160783527e-01,-1.914084119542897727e-02,-4.880565359993091490e-02,-2.985215028816552273e-03,1.784674525260925293e+00
8.517197739205181195e-01,-1.035994967787172261e+00,6.336185858055072284e-01,-1.859962634878619889e-02,-1.295004806175777123e-02,-3.745339588761080474e-02,1.790271282196044922e+00
6.021769496619101547e-01,-2.958251815125507722e-01,7.447581887807981360e-01,1.804065402009473185e-01,-7.731672407897911825e-02,6.924787446930204607e-03,1.034646034240722656e+00
8.353932443735585522e-01,-1.040176171190995369e+00,7.379474759343664925e-01,-1.819080282224006667e-02,-2.923191813420268625e-02,1.379779273940855491e-02,1.829922795295715332e+00
7.995222994442162667e-01,-9.967109588438335388e-01,7.189810718957300173e-01,-3.296214385425454575e-03,1.012253223109361305e-02,-1.471557427838656937e-02,1.757628917694091797e+00
8.024045905175538618e-01,-1.023028354470614687e+00,7.521689787172964881e-01,-2.244301083343593767e-02,1.084947653458489310e-03,3.963218307857774986e-02,1.802568793296813965e+00
7.970217165743312959e-01,-1.027571429084618959e+00,7.686467194704630357e-01,-3.172598175924351040e-03,-3.698619054598335180e-03,-7.582315755168968219e-03,1.810639739036560059e+00
7.676839721640483782e-01,-8.946419629816813046e-01,7.548550251193598681e-01,1.741386875802064483e-03,1.549024169755093029e-02,3.176667463116446440e-03,1.656177997589111328e+00
7.995646208704584312e-01,-1.022230964262500708e+00,7.818853086912435080e-01,-1.575676207633791570e-02,7.230828072998804826e-03,-6.011708281628274676e-03,1.813299179077148438e+00
7.752544327506285526e-01,-8.926369159301839051e-01,7.461709178352537997e-01,-3.353555653102729267e-02,-7.311513772146362861e-03,2.547266682985824954e-02,1.655197858810424805e+00
7.838255943800336301e-01,-9.802870047057263836e-01,7.605572273912077907e-01,1.110815454866539639e-02,8.427351832862715886e-03,6.326983137457707976e-03,1.752794861793518066e+00
7.845688252758024062e-01,-1.005204791315035262e+00,7.378235043618938116e-01,1.503499676497081425e-02,2.140282927598564575e-02,-1.848207332017757012e-02,1.767735362052917480e+00
8.312067673525151967e-01,-1.035990775175258172e+00,6.784270057289241151e-01,3.223539101142272600e-02,3.393405957468310225e-02,-3.642252070940240477e-02,1.798624515533447266e+00
7.693687658071537427e-01,-9.536611927711928782e-01,7.833325581684049688e-01,1.951499420553615485e-02,9.252500038014232261e-04,3.275253540902539444e-03,1.730394363403320312e+00
5.443925026068183737e-01,-9.820960631223576431e-01,9.008605750098825915e-01,8.130468362411717720e-02,-1.767670607092066554e-02,9.638729046975614764e-03,1.738513350486755371e+00
4.922503933479406291e-01,-1.054892656739075285e+00,1.042785486022510977e+00,-5.499786502380602654e-02,2.295719752370748573e-02,-2.620159831821535987e-02,1.887117385864257812e+00
6.989979080518412546e-01,-9.943394385428456772e-01,7.373276398192131209e-01,-9.290875510551611927e-03,1.870194592410484233e-02,1.153812374227105274e-02,1.713322281837463379e+00
6.764673269356252794e-01,-9.542294037328015177e-01,8.164453357962132563e-01,1.681425307767138097e-02,1.469036226510067426e-02,2.471219853673288502e-02,1.705976247787475586e+00
6.046589993639519545e-01,-1.078547136140886487e+00,9.023890974056433256e-01,-3.717922405978195399e-02,2.655130912590921571e-02,1.679291050401337474e-03,1.851819992065429688e+00
5.986177486413611915e-01,-1.126484335659440728e+00,9.830929110322365050e-01,-5.404588061057442189e-02,5.076199210239955295e-02,-1.120490349921705354e-03,1.950270295143127441e+00
7.667783351004101577e-01,-9.674377262692278601e-01,7.863827863985211053e-01,1.858726902176907614e-02,1.627904938666129703e-02,9.828135940978140889e-03,1.744708895683288574e+00
7.471263061468944588e-01,-5.699559366088253753e-01,1.101918458780432264e+00,1.047917879007168040e-01,2.495936185139667474e-01,-4.448769197654003915e-02,1.598013162612915039e+00
7.646087908171321779e-01,-9.538901240236615786e-01,7.757933110787728070e-01,2.477181425311143076e-02,1.330996929042152152e-02,2.410867027183330111e-02,1.725311636924743652e+00
7.849156325957992175e-01,-9.493939333589239693e-01,7.818946112584679309e-01,5.731026103568710728e-02,1.133957486654166985e-02,-3.654796691683998011e-02,1.736907005310058594e+00
7.925661248172450879e-01,-1.043211936254540895e+00,7.751099286839202573e-01,-1.242670747827954482e-02,3.293993004740820851e-03,-3.628771562699559076e-03,1.827258944511413574e+00
6.658180897504825113e-01,-9.796926832300036914e-01,7.374311743506958283e-01,-2.989504167073070255e-03,8.338276035038984235e-03,4.825540557141440312e-03,1.682551503181457520e+00
7.516019189964795455e-01,-8.122312540883575016e-01,7.423535354767396566e-01,-2.550297388166643774e-03,-3.290443001699889028e-03,7.592304168315738844e-02,1.564781665802001953e+00
7.433590765413269352e-01,-8.329767232512690356e-01,7.386465838986402410e-01,1.284187420519808213e-02,8.573270998152962216e-03,5.261626507923193585e-02,1.576847791671752930e+00
7.107833207755169802e-01,-6.935542250390469565e-01,7.074248333261601296e-01,5.744629802875997338e-02,9.169440156278733933e-03,-5.680263817892665379e-02,1.409713029861450195e+00
7.487537378528508203e-01,-1.026217578036768607e+00,7.529714919031241793e-01,2.326429614862291981e-02,5.058709781280164297e-02,-3.596710522135404542e-02,1.780788898468017578e+00
7.770745806772231257e-01,-8.339167560113019961e-01,7.286570994892527242e-01,5.412279054809314427e-02,2.747496367800834373e-04,-4.274232205355480568e-02,1.591824769973754883e+00
7.588474669585341115e-01,-8.867587779169145978e-01,7.385662599480886659e-01,-5.392877949705540686e-04,5.890713754235036084e-03,-3.954025846082667717e-02,1.637025237083435059e+00
7.923777655220902716e-01,-9.502890218256553334e-01,7.580237949997634672e-01,3.466629897487511543e-03,1.072933094805540244e-03,-8.450300902219189982e-04,1.725758314132690430e+00
8.224165071836213592e-01,-8.784098636217032574e-01,7.400500799020222065e-01,7.397407718054696546e-02,4.264466803070071643e-02,-1.238576753440895351e-01,1.681486845016479492e+00
8.185664252057881507e-01,-8.028655847970397330e-01,6.754388477474230212e-01,9.115884204023301518e-02,6.403117813315153950e-02,2.362086393591855682e-02,1.567277669906616211e+00
7.610724471056385942e-01,-9.111543865731435154e-01,7.352328773967368170e-01,7.031448790925398651e-02,1.887051131287667202e-02,-1.293338003985756157e-01,1.679250717163085938e+00
8.994658083021545014e-01,-1.083160789582068739e+00,5.472414407895691557e-01,5.869196863050062107e-02,1.461576738966439415e-01,-7.398217365516163158e-02,1.856712460517883301e+00
9.728134438228558389e-01,-1.149549409088884033e+00,5.531848160963646066e-01,-6.655148279006738339e-03,1.052662088072764957e-01,1.211415877654025038e-02,1.955434560775756836e+00
9.078926342869847455e-01,-1.045737355341324504e+00,4.407004679804170655e-01,1.378942261310472407e-02,2.343148861204757682e-01,-3.361817887139238736e-02,1.814080834388732910e+00
7.714907708014616672e-01,-1.008871858722259152e+00,7.086726794653792627e-01,-1.960504670193176369e-02,3.436428988030480747e-02,5.875955181403349353e-03,1.751170396804809570e+00
8.161044814516472679e-01,-1.008029300689566199e+00,5.811409567944350041e-01,1.816437854205815716e-02,6.526428112413970584e-02,-3.517801964584460137e-03,1.722751379013061523e+00
8.134412257069499885e-01,-1.015110991050522493e+00,4.771330477705905682e-01,3.359974421624096347e-02,2.281065961345778159e-01,-5.588658264209819121e-02,1.735109210014343262e+00
8.056028538765851454e-01,-1.014204298117595604e+00,6.396611463907089234e-01,2.666470741336633699e-02,6.116549194972205339e-02,-5.317057110882732196e-02,1.749025702476501465e+00
8.845014362160183996e-01,-1.043567278293022760e+00,5.559084576885099382e-01,1.042598314410635163e-02,9.899626548033586826e-02,-3.757278815796085553e-02,1.796060800552368164e+00
9.240055740533212880e-01,-1.039945520613107632e+00,5.515755293952342431e-01,-6.642896632477619454e-03,5.571433909769464565e-02,-2.826966569808533197e-02,1.810032010078430176e+00
8.143521231781285508e-01,-1.018374283204039887e+00,6.330611782170432189e-01,3.358192330246505264e-02,7.273553033860014061e-02,-4.357060724495032122e-02,1.756258964538574219e+00
8.409410375385464320e-01,-1.091691010328796008e+00,6.840515862515095247e-01,8.838021057787916537e-03,-1.521421699177568088e-01,5.189353191895605677e-02,1.879953742027282715e+00
7.144126045619035859e-01,-7.057583157758888781e-01,7.106398160293232458e-01,-4.814698447290721023e-03,-2.989153495359888474e-02,6.030318524198750169e-03,1.419295907020568848e+00
7.105294830259091254e-01,-7.014399701060122228e-01,7.112735064479628333e-01,3.959036121525818901e-03,2.304005766932545191e-02,5.310872461737519215e-03,1.412951827049255371e+00
7.938398709741292247e-01,-1.102001746252493586e+00,7.535505173542150770e-01,2.756556981143082341e-02,-5.124327710274854952e-02,1.855191701033773177e-02,1.879001379013061523e+00
7.472283934737189437e-01,-1.111598385499766861e+00,8.194581331774226651e-01,4.065767256266169388e-03,-7.436390954046635804e-02,2.525305661030895904e-02,1.900860190391540527e+00
8.255991471340603516e-01,-9.952410277404316608e-01,7.132842316921153003e-01,-5.930214038092827822e-02,-2.081303699255797890e-01,-4.555456349438177094e-02,1.808396220207214355e+00
7.826617821894921168e-01,-1.024902061116943708e+00,7.903687055356484192e-01,2.706865759081717934e-02,6.659692287005078599e-03,2.711333348265191137e-02,1.812681436538696289e+00
7.566074362469790149e-01,-9.893586668240348381e-01,7.408833418874498644e-01,-1.318498578258057129e-02,-3.629143990157357447e-02,-1.143837563486377329e-02,1.739556431770324707e+00
8.050996329550617059e-01,-9.963811919155239893e-01,7.791909850763262257e-01,-1.001213339157370173e-02,-9.807844785688418776e-02,-1.054719377094782418e-01,1.806062698364257812e+00
8.100262314316724055e-01,-1.117087157496870820e+00,7.911096297163300317e-01,-7.763952746018738804e-02,-7.076666864630362652e-02,-6.472998758428308297e-02,1.929597616195678711e+00
7.555043641014754785e-01,-9.489876332942950299e-01,7.641235914798735207e-01,1.859818378269989525e-02,-2.805995768087835886e-03,-4.845153548053425687e-05,1.709128379821777344e+00
7.340097395382614298e-01,-7.913704251110087462e-01,7.476514908765802270e-01,8.422943181726150197e-02,-5.101411962558278015e-03,-8.553839008112195524e-03,1.539272904396057129e+00
7.541838577963192458e-01,-8.960889961581267604e-01,7.699725553073079043e-01,1.798323680907444599e-02,4.323660054557689749e-04,3.960651443074653111e-02,1.659934401512145996e+00
7.709325350127115284e-01,-1.018821340591970159e+00,7.989582598857321027e-01,2.188660495381369170e-02,-8.710468003560224996e-05,-8.694154138968885823e-03,1.804391145706176758e+00
7.813735540870440088e-01,-9.856606623535871803e-01,7.848355813985189444e-01,1.442115793281620838e-03,1.735345237015193526e-02,2.112458040832271289e-02,1.769403219223022461e+00
7.906259485169755408e-01,-1.027849050767043249e+00,7.508286406558963844e-01,-1.459635562927918961e-02,-1.663036024172625041e-02,9.152353786096529891e-04,1.799315452575683594e+00
8.166290239175746368e-01,-1.019216055791610342e+00,6.940665380890846947e-01,2.440175865391792237e-03,-2.603895490361910620e-02,8.661142809159964873e-03,1.778375625610351562e+00
8.315780395419732907e-01,-1.124687002969259941e+00,7.646212243908658834e-01,2.671089798065720555e-02,-4.752088472018711762e-02,1.678924541073689800e-03,1.925978779792785645e+00
8.341084929729284392e-01,-1.001015251804396211e+00,6.372906863450121806e-01,-1.186692897485116735e-02,-1.270097648583828204e-02,-2.170501087018232925e-02,1.745723724365234375e+00
8.046187022385427046e-01,-1.003144922040686948e+00,6.574670040839265539e-01,-2.709819591930665364e-02,-2.232258137026589540e-02,-2.973340922907107692e-02,1.740688800811767578e+00
7.695773111389969667e-01,-9.881307897334246082e-01,7.883799997533954551e-01,4.653335469801725063e-03,1.757470771317679731e-02,7.943941232611611766e-03,1.767518520355224609e+00
7.380381112056365600e-01,-9.870886319806239095e-01,6.851117492851646062e-01,-8.947400267648003905e-03,-7.160662373441961659e-02,-7.217610098790192344e-03,1.703918337821960449e+00
8.617023350016009831e-01,-1.043134904336380453e+00,6.209230860078801539e-01,-1.453838902329169375e-02,-1.134795640967752595e-01,-4.813763108415834713e-02,1.809406757354736328e+00
8.151023286081759966e-01,-1.043651905409586966e+00,6.655582863365957502e-01,-4.330566702281884311e-02,-6.064049544251713664e-02,-4.145804377507834176e-02,1.794764399528503418e+00
7.486745173902723538e-01,-9.800298243508344109e-01,6.511369552303879482e-01,-3.733001172555309999e-03,8.215719794391286579e-02,7.710176537857709985e-04,1.688079237937927246e+00
7.601379811073644133e-01,-1.016823138216520483e+00,6.930928607919473183e-01,-1.051802633629103298e-02,-7.877876357395105500e-02,-1.506478313627841389e-02,1.750022888183593750e+00
7.546196366837294445e-01,-1.012652844110089490e+00,7.243949137773691982e-01,-2.294927911195698833e-02,-4.943697575160314883e-02,-2.253976801523664003e-02,1.755330801010131836e+00
8.083585726193145415e-01,-1.025142374239625287e+00,6.602882280443747032e-01,-3.176105996311343049e-02,-5.742179398371508037e-02,-4.751300026629163425e-02,1.769704461097717285e+00
7.532186136141982846e-01,-1.029891706935512019e+00,7.536122464659109621e-01,-1.403347099983856192e-02,-6.554364532766100704e-02,-2.071307939370285386e-02,1.787442326545715332e+00
6.311436168566129101e-01,-1.051425138623563349e+00,8.112023783930324417e-01,1.503150209692466835e-02,2.920500201389411576e-01,-8.304795635994800806e-02,1.855712413787841797e+00
6.480212460006475883e-01,-9.967419737608298469e-01,7.495847835721884955e-01,3.367887395672627959e-02,1.020075880630588322e-01,-2.894144662509905153e-02,1.708725094795227051e+00
6.375662062264401131e-01,-1.014297598399471312e+00,8.248741761495507196e-01,2.571453956928645285e-02,7.949369748871508434e-02,-1.871107174764949366e-02,1.759300231933593750e+00
5.476703000271254673e-01,-1.030593634388081714e+00,8.559434147399532788e-01,3.881878755264463188e-02,1.195719889295450145e-01,-3.059941814633614435e-02,1.767118453979492188e+00
7.016957537601544725e-01,-1.039702373426907966e+00,8.351575146991634391e-01,5.101906834783347111e-02,3.981595229005005510e-02,-3.913798857474858062e-02,1.816548824310302734e+00
6.425931781151732469e-01,-1.121612069916520626e+00,8.740410657145838424e-01,1.863159018376863568e-02,1.946870299935393178e-01,-4.149803791532809955e-02,1.922037124633789062e+00
5.357269185113803234e-01,-1.013381621863388649e+00,7.648559377037909002e-01,4.574480885307757871e-02,2.120556121662068860e-01,-3.233479511347604751e-02,1.717993140220642090e+00
6.621069890193445051e-01,-1.069247607767998653e+00,8.680622246007495546e-01,-8.053675887113447007e-02,-7.880880539697940335e-02,-1.490469111779961150e-02,1.853468418121337891e+00
7.528912501966973370e-01,-9.870496914427333568e-01,8.310374643376301496e-01,5.086968075387672539e-02,-1.500519464869272054e-02,4.752307357156812517e-02,1.784568548202514648e+00
6.300972042882801993e-01,-8.703131203826921514e-01,8.704473970366162217e-01,-2.504041586666810176e-02,-5.899086521231539093e-02,2.270050204236093508e-02,1.638136148452758789e+00
4.994986324232333352e-01,-1.057031987115373273e+00,8.943275627922937510e-01,5.213585303604455212e-02,-1.183428739895867610e-01,2.196679550696454750e-02,1.801348924636840820e+00
8.772827470992048404e-01,-1.210902801651818850e+00,3.985983021958379724e-01,-2.181669946346364349e-03,-5.116413408757873871e-01,-2.017046996479909815e-02,2.092042446136474609e+00
1.196440003376515904e+00,-1.067002656971331565e+00,7.705815145948155531e-02,4.939471199119446765e-02,-2.358693805418975442e-01,1.091067787273073807e-03,2.004185199737548828e+00
9.103966835260101087e-01,-1.020149296086195534e+00,4.067547626239319536e-01,6.960669840966441507e-03,-1.258025349232294865e-01,-3.757515449478754030e-03,1.748149156570434570e+00
9.028440614488593141e-01,-1.100175440731122167e+00,5.629385598670865187e-01,3.051010844078375778e-02,-8.796114143755071058e-02,1.542416595006785088e-02,1.863733649253845215e+00
9.495273340585929089e-01,-1.124686359339471142e+00,4.834251056374030964e-01,4.571110293668492058e-02,-2.084965108146134005e-01,9.306989014979158426e-02,1.927559375762939453e+00
9.968991223268228730e-01,-1.258598892750725451e+00,5.613239922779077462e-01,-2.233480712477317956e-02,-2.762191101746259148e-01,-6.128278409453502551e-02,2.129838705062866211e+00
6.901050564821693545e-01,-6.962404061128403265e-01,7.505418567835774324e-01,-1.946586336273548393e-02,-7.524392469027489996e-03,7.608242494126316036e-02,1.424101471900939941e+00
7.395644326972559135e-01,-7.496919038572610328e-01,7.380073353090823574e-01,-5.543833614039635205e-02,2.120790824799267948e-02,8.077304026553169813e-02,1.498569488525390625e+00
7.046585642313305531e-01,-7.130190837820353789e-01,7.387042648490791397e-01,-2.623432407415378365e-02,-1.038772946993532509e-02,6.238664873325434901e-02,1.439895629882812500e+00
7.695537096039087865e-01,-1.002233606518978304e+00,7.856462557325363250e-01,-4.474774135839605996e-03,2.630095301230723354e-03,-4.975179209214842212e-03,1.779931664466857910e+00
7.222083544876709560e-01,-6.180921403718235840e-01,6.997284619948439532e-01,2.457729370746565903e-03,-4.344559643389967613e-03,1.122615917140166036e-01,1.343377709388732910e+00
7.849385236701984514e-01,-9.583439193683935819e-01,7.774046183179539327e-01,-3.816001324466071487e-02,-1.432909816628502239e-02,3.295501449750758843e-02,1.741895318031311035e+00
8.968487743420262559e-01,-8.372015820414157039e-01,6.234962998583089000e-01,-6.644226805608503122e-03,1.017823418309670019e-01,8.116863819676901903e-02,1.630528092384338379e+00
3.672535905832280401e-01,-1.193082976391873995e+00,1.146513715273518752e+00,-6.359034797682322493e-02,5.266901028897648385e-02,1.675213160466449899e-02,2.068598508834838867e+00
4.740163933905242599e-01,-1.006563578437043471e+00,9.364658702921156985e-01,1.217116177522657543e-02,3.581365826770736144e-02,-4.220359814914519461e-03,1.759265661239624023e+00
3.328708916996096501e-01,-1.006936982610441067e+00,9.809462258256800293e-01,-2.519739940638706516e-02,-2.729147562167942576e-02,-5.373350323231738945e-03,1.757159352302551270e+00
3.700969989531306403e-01,-1.026361740161880975e+00,1.070714873647173659e+00,-8.875953071885732404e-03,5.768794137914470821e-02,2.923988702188677624e-02,1.852601289749145508e+00
8.036008351089107826e-01,-9.695696024782218814e-01,5.978706990020588030e-01,-2.574877714999223612e-03,1.604412097451044239e-01,-1.724527773382118073e-02,1.702879905700683594e+00
7.870373087235726928e-01,-1.028995226851574074e+00,6.964901179809674936e-01,5.962029350418363016e-02,1.046016358557822767e-01,-5.239134899157341790e-02,1.787025213241577148e+00
8.164007984348694569e-01,-1.009440619119543969e+00,6.505120397507224705e-01,4.969231892680871232e-02,4.987441488678742013e-02,-5.861485277718211234e-02,1.755991697311401367e+00
9.625629888377243981e-01,-1.206840907636602456e+00,4.976849773724713044e-01,1.797834264577079927e-02,2.102031566939182583e-01,5.663480487964016319e-02,2.014215707778930664e+00
8.454109564357407125e-01,-1.136608866306379584e+00,5.759640291821073177e-01,3.587789183978328661e-02,2.877351635629787907e-01,-1.777953012698689494e-02,1.928766369819641113e+00
6.970438000482912511e-01,-1.025421417627583542e+00,7.469123506640171772e-01,4.114501722542472650e-02,1.668174173847933595e-01,-2.950900317788600347e-02,1.773822307586669922e+00
7.362606516862922890e-01,-9.881691954409755896e-01,6.392712579986844501e-01,6.068415991410407075e-04,1.201343862383983108e-01,-4.475817759295419823e-04,1.690891027450561523e+00
7.254183246863440404e-01,-2.850106072464685392e-01,6.843625987196904070e-01,8.147046238179443678e-02,2.367661907482277450e-01,-1.001624254227431732e-01,1.095149636268615723e+00
8.178801015599583835e-01,-3.853386204244613200e-01,3.868757156330269176e-01,-5.369850930560450541e-02,7.199612159085701235e-02,-1.607471661646573957e-01,1.103008389472961426e+00
7.626852267002698360e-01,-4.041567191238739087e-01,6.133298832376741228e-01,4.495654499550360422e-02,-5.201079545119804970e-02,-1.919846385962240276e-01,1.155121684074401855e+00
8.569154298028978101e-01,-3.080908442961344251e-01,3.960608090527321101e-01,-4.664247973254941060e-02,1.890547075111623926e-02,-2.587166654492379925e-01,1.114060044288635254e+00
7.169793097114747216e-01,-5.244314774158098658e-01,6.927512696690731886e-01,-1.327530287894410424e-02,-1.234196144413338830e-02,-1.344247481842692216e-01,1.251721382141113281e+00
8.112852409853719138e-01,-8.011097733692859046e-01,7.279624852030289750e-01,-2.574944180375802333e-02,5.189572692631088920e-04,-1.259089404970525627e-01,1.588068127632141113e+00
8.665625151833290518e-01,-8.219680522366844544e-01,7.582183012840056913e-01,-3.963371925110870976e-03,4.346721385201909003e-03,-2.384535039429160341e-01,1.688376545906066895e+00
7.538518356266488141e-01,-9.816270134238733736e-01,7.792790580562544145e-01,1.710802229739664948e-02,-8.876634896690448889e-03,-1.480054612306563183e-02,1.748837709426879883e+00
7.708110907075531593e-01,-1.038681451134098932e+00,7.892429461212092656e-01,1.001837992072716899e-02,-1.120384413035758250e-03,-2.689261427669680567e-03,1.818868279457092285e+00
7.982183404424663120e-01,-1.035009636123499721e+00,7.903382384276695927e-01,1.653721737718477636e-02,1.233912607612060695e-02,-2.871689824223500401e-03,1.829656481742858887e+00
7.845268300612211476e-01,-1.017343244629220100e+00,7.862691508232254600e-01,-1.038370276607234084e-02,2.337235906415787053e-03,-3.143405021069357874e-02,1.803658008575439453e+00
7.648728001535628485e-01,-1.008347259131278317e+00,7.865788058930853754e-01,-3.776757152783834139e-03,6.310742786026980094e-04,-5.665934575695083693e-03,1.784211397171020508e+00
7.322458717302102738e-01,-1.005798237978174914e+00,7.380051655616521877e-01,2.188206451973580616e-02,-1.192888790491447443e-01,3.065947230728351125e-02,1.754362106323242188e+00
7.925188965127574203e-01,-1.091641470685678517e+00,8.061919879050376547e-01,-1.472427704796517439e-02,-1.666669526762474055e-02,-8.561026326520906893e-03,1.891484379768371582e+00
7.569685155275389654e-01,-1.042184454217326417e+00,7.776161402111483323e-01,3.860812593650486679e-02,-7.957591174359522623e-02,3.328110326276617625e-02,1.816952824592590332e+00
7.949740599664503193e-01,-1.072961814621590682e+00,7.913292722734859286e-01,1.927717783422580253e-02,-5.304654508960211443e-03,-2.160156595571209245e-02,1.866812467575073242e+00
7.567281088702406677e-01,-8.252502485857904357e-01,7.206162044190147498e-01,-2.369312626809402106e-02,-5.246365803353596202e-02,-1.054292194540258215e-01,1.578011035919189453e+00
8.738537706288860285e-01,-1.241989632765150064e+00,7.411674481566117301e-01,3.645389581390087730e-03,-6.147293653938141339e-02,-8.907737105008120548e-02,2.061270475387573242e+00
8.515156987276653044e-01,-9.829480753871940868e-01,7.018402774194582028e-01,-1.352293508598171878e-01,-5.163191957491339301e-02,7.985092827487085421e-04,1.782118439674377441e+00
5.943506640510558547e-01,-9.832397551276188530e-01,8.530252391224741881e-01,1.110791570321325618e-02,8.632473892930740689e-02,2.009344490980089631e-02,1.728503346443176270e+00
5.711535781374764698e-01,-1.081123175357652677e+00,9.792189279387720768e-01,-2.354408435699874985e-02,2.761357709436339843e-03,8.445696174957870173e-03,1.890151500701904297e+00
5.123691006071746656e-01,-1.036892674576044726e+00,9.684664293451523687e-01,-2.477883886649779807e-03,4.073387387771645191e-02,-5.163698882858694557e-03,1.822066664695739746e+00
5.506047906229895039e-01,-1.023190217172792460e+00,9.850410590258928956e-01,3.930808628616794254e-02,9.496643953924546744e-02,-1.372724046302626656e-02,1.838895320892333984e+00
5.175294773589181885e-01,-9.979999891407883572e-01,8.987859431610195626e-01,8.537734572468229366e-02,9.149887401306927570e-03,2.923642469847485825e-02,1.744899630546569824e+00
7.893499191315088703e-01,-9.638301362467489586e-01,7.649727821567077202e-01,2.153956845315278812e-02,8.620184163079908438e-03,-1.614992250120444095e-03,1.741585373878479004e+00
5.922573118138495518e-01,-1.008202741634834254e+00,8.857113647358118014e-01,-4.030603421631927252e-02,1.333299383026466042e-02,1.300885372008570018e-02,1.767247557640075684e+00
6.643555268254643931e-01,-9.843238819824555730e-01,8.217379582592760912e-01,8.274793578448786172e-03,-1.813219352440272741e-02,7.485933624820372695e-03,1.733131885528564453e+00
6.538421874570444770e-01,-2.043247793809144675e+00,1.434788407893016871e+00,1.945138060507484168e-02,-6.970140811623323218e-01,7.358796091841082743e-02,3.386047840118408203e+00
7.228033874004706760e-01,-1.020490492386525450e+00,7.870161351380510206e-01,-4.625185806749169612e-03,-5.428255263086117881e-03,1.856380927944489834e-02,1.776604890823364258e+00
7.544730655984889234e-01,-1.014836187988714444e+00,8.136278847523047419e-01,-2.006866460925412973e-02,-6.469712561379457536e-03,9.059084226928271547e-03,1.800054907798767090e+00
7.755699052140391236e-01,-1.037078185988834722e+00,8.032711120046557296e-01,-8.998398800974830025e-02,-8.574637546163350194e-03,-4.511534695801190306e-03,1.833370089530944824e+00
7.964656076487640624e-01,-1.013326880170195565e+00,7.753672166230877183e-01,-1.134616183945860030e-02,-3.184082866141474052e-03,-7.978626578640497444e-03,1.799504876136779785e+00
7.680070938295187055e-01,-9.579520198085206273e-01,7.661219196693748179e-01,-1.789471738721912578e-02,-1.898194826452346473e-06,-7.816899660738238845e-03,1.725348830223083496e+00
8.007388046802179637e-01,-9.688393523255779405e-01,7.643175498145415858e-01,9.167585155548935508e-03,-1.754406051267943904e-03,-2.715282752191014188e-03,1.751732468605041504e+00
7.705188607753878927e-01,-9.739412936548621502e-01,7.835397347127555090e-01,-2.098006440103242567e-02,-7.251794844709679583e-03,1.685186964184937769e-02,1.751672148704528809e+00
7.881226464309228907e-01,-1.029301977527414591e+00,7.949351152554881006e-01,-1.487126690951557847e-02,-9.285315629844338725e-03,1.657843052516957266e-02,1.821319937705993652e+00
7.285911232358296408e-01,-1.008863994082235482e+00,7.384469557616372137e-01,1.368390025199366783e-02,1.189097650900518277e-02,-1.781303357043376515e-02,1.742959976196289062e+00
9.390146082354645651e-01,-1.247783913866967298e+00,5.548158684345901870e-01,-2.896239246101247819e-02,-3.152559767365634702e-01,-1.074473125655023634e-02,2.095364570617675781e+00
9.338434728444431343e-01,-1.051459878728183028e+00,5.542951637066311221e-01,-9.655888692011751345e-03,1.545962294951144095e-02,1.609593399220581381e-02,1.825853705406188965e+00
9.047987769213744480e-01,-1.059173768470495602e+00,6.280974315967794430e-01,2.551975138026347720e-02,-4.060619978650242823e-02,7.110429035022906852e-02,1.847264409065246582e+00
8.475467733310008134e-01,-1.078787382458737731e+00,7.222297574310334589e-01,2.192915371201850649e-02,7.083985804513807244e-03,2.300933493605029218e-02,1.867684841156005859e+00
8.822910481069763389e-01,-1.017510871731537536e+00,5.525752546706901303e-01,1.495870019450880155e-02,-5.275508166134060956e-02,1.096059174756930724e-02,1.760950326919555664e+00
9.510886642369176247e-01,-1.038523371368587966e+00,4.754076133231223134e-01,7.887225581634739382e-04,-1.160655085609103299e-01,7.112751295289447551e-02,1.814938187599182129e+00
4.087990647408955014e-01,-1.245711575996394149e+00,1.094523414485517376e+00,5.253560195374324532e-02,2.461454244085926613e-01,-5.723420490303278430e-02,2.131204128265380859e+00
4.980660959673740562e-01,-1.004132504287889027e+00,9.001442982279718175e-01,5.713305981788684845e-02,8.142414746151298288e-02,-3.610540532239767120e-02,1.748102307319641113e+00
4.965884572034766631e-01,-1.034668394446615736e+00,9.271824252167464309e-01,-2.574547418967586959e-02,1.848426237043215292e-01,5.223845803596801479e-02,1.817191243171691895e+00
5.183827177122940499e-01,-1.004039989726861926e+00,8.365832155347564525e-01,-3.220862844744825509e-02,1.175494630765878956e-01,2.501522727935490825e-02,1.717527627944946289e+00
4.247888035278344354e-01,-9.908957767782572423e-01,9.156958479682273389e-01,-6.382346894655246267e-03,1.007303865896974071e-01,-1.377426655443296597e-03,1.723568916320800781e+00
7.431651350330026329e-01,-1.009247514264126622e+00,7.350920495001592725e-01,2.050495272932252046e-04,5.221074411285397260e-03,-1.069274915281039377e-03,1.748414516448974609e+00
4.965591919239500940e-01,-1.068090846802780103e+00,9.687093398154594803e-01,3.354243072437019385e-02,1.676870148113129011e-01,-9.143324141451650289e-03,1.870237469673156738e+00
7.802542001574886976e-01,-1.038205544092392074e+00,7.812072818632503912e-01,-1.501684104857388543e-04,4.376429384130863659e-03,-1.808477064139747941e-03,1.818954944610595703e+00
7.382569149921845986e-01,-4.974058557108549383e-01,7.602243283700927945e-01,-1.255972289778971018e-01,-1.191067711728616488e-02,1.064335497877568759e-01,1.279149413108825684e+00
7.625269764700175479e-01,-8.845633631441605083e-01,7.852242529044317632e-01,-1.636993004832038301e-01,9.468221348653536353e-04,2.249107056827645904e-02,1.683068275451660156e+00
6.985149147753682008e-01,-3.685565188229396050e-01,6.448552993994461913e-01,-1.448028383848746492e-01,3.545206883856396457e-03,-2.929263459203997402e-02,1.072276830673217773e+00
7.371836269279945508e-01,-7.231563870491410917e-01,7.303658843403798562e-01,-4.964400164346639138e-02,-1.210423779903717703e-02,1.237612894384738649e-01,1.475285410881042480e+00
7.532430396145770590e-01,-1.024289756031952381e+00,7.971898560034471615e-01,4.192390382596967828e-03,9.384533302114401662e-03,-8.483549770856558224e-04,1.799997210502624512e+00
7.516392635360831243e-01,-1.019555543988260871e+00,7.652048498435151114e-01,-2.177315653322241598e-02,3.886720345142233995e-02,2.356918216944576747e-02,1.780158162117004395e+00
7.642857969474941005e-01,-1.035908945808277082e+00,7.808857953501855409e-01,1.464121193099546595e-02,1.436975197851636868e-02,6.002699097038225341e-04,1.808901190757751465e+00
7.369567225544827460e-01,-1.015548966309364198e+00,7.670719974196692492e-01,-3.699948844658361435e-02,4.122208251417931735e-02,2.284160368134004193e-02,1.770799279212951660e+00
7.143442896379453844e-01,-1.023268026400869335e+00,8.119099080399617696e-01,-2.765738566325326789e-02,1.734528638516665347e-02,2.051951158818679163e-02,1.789638876914978027e+00
7.074715858925365586e-01,-1.013087117028202311e+00,7.879597565685024785e-01,-3.219304537018065349e-02,3.476598566571660609e-02,3.021245238780512904e-02,1.764867901802062988e+00
7.608748000658348554e-01,-1.011766323657311339e+00,7.011828479981913054e-01,-3.285360060104480784e-02,4.805347387653411545e-02,2.830751680219602273e-02,1.747162461280822754e+00
7.443807902743438953e-01,-1.015248038143346410e+00,7.567380801447529670e-01,-2.351710898626712537e-02,1.786190252971817105e-02,2.875844921416556912e-02,1.767282605171203613e+00
7.926617855877226004e-01,-1.054463937801275897e+00,7.496401890110200306e-01,2.723129187777309501e-02,5.373418260723765438e-02,-2.862951936372530939e-02,1.829645752906799316e+00
1.066613932798980979e+00,-1.065100698005402968e+00,2.434043014933374438e-01,3.030636266984026647e-02,-3.989422808399958331e-01,8.428886051448083658e-03,1.986823320388793945e+00
7.635406639510678994e-01,-1.014356946608616417e+00,7.055585648433321255e-01,-1.259742929647135815e-02,4.617756804833850204e-02,4.532426285711162184e-03,1.751607894897460938e+00
7.407535904485993417e-01,-1.030117032991221038e+00,7.077278051461813879e-01,-4.660147316517871535e-02,1.211746829046234930e-01,4.364490168037227225e-02,1.770556092262268066e+00
6.882041036244530563e-01,-1.027170697950371192e+00,7.514454198457362066e-01,-5.218326322718238458e-02,1.423145603774923496e-01,4.727369606713951317e-02,1.769357681274414062e+00
7.583295877279618846e-01,-7.528188729130083079e-01,6.852238235458463222e-01,-5.257075966249584453e-02,3.147825799655687705e-05,-2.696041868439606835e-03,1.478767514228820801e+00
9.578768988751754643e-01,-1.008166522837628865e+00,4.569489410201630908e-01,1.005231903359508235e-07,-3.646042459773751743e-02,-1.055391775208372896e-03,1.770706295967102051e+00
6.305797199766425276e-01,-6.994540222494350923e-01,8.219381292838686681e-01,-1.465322576132185584e-01,-5.187738404962036198e-02,-1.254143612516684936e-01,1.476413249969482422e+00
7.605743589196500842e-01,-1.015752066053873026e+00,6.663670995099878480e-01,1.212201566824656906e-02,1.019290569866486834e-01,-2.830877782332766671e-02,1.740942597389221191e+00
8.972131497884578977e-01,-1.010608836489523377e+00,5.008981035168963425e-01,1.317483819902282548e-02,1.403460565190578768e-01,-6.444381898407862755e-03,1.760820269584655762e+00
7.338698369942575628e-01,-9.955155824634405182e-01,6.717631543932778282e-01,2.926314256856223529e-03,1.673426838660850291e-01,1.909004852941105501e-03,1.723737835884094238e+00
7.424685422667414159e-01,-1.055025433202551710e+00,6.889550995964801583e-01,2.530059352010399082e-02,1.863928533920620190e-01,-1.192242997310889729e-02,1.801175117492675781e+00
8.355901332840767193e-01,-1.014854231703598231e+00,5.303931315634624610e-01,2.121604280195745970e-02,1.750906937198468682e-01,-9.738318594598172062e-04,1.745240092277526855e+00
9.824389891183857859e-01,-1.074096744810860482e+00,4.324733511021429666e-01,9.101123501861888010e-03,1.414588550949413548e-01,-3.512462803735087041e-02,1.861386299133300781e+00
7.823175597087710376e-01,-1.149684453416152108e+00,6.105161710178306222e-01,4.269108376782818071e-02,2.703763577657457562e-01,3.145955767608232811e-02,1.912582993507385254e+00
6.959420591597534900e-01,-1.054954054077367642e+00,8.623846763614091415e-01,5.555696511409196833e-03,-1.666302532735598058e-02,1.344156384116635414e-03,1.840025782585144043e+00
7.680198570868062014e-01,-9.838394561646257586e-01,8.086943895986267172e-01,3.412627546752847185e-02,1.015118215890803942e-02,1.669209905538934433e-02,1.773854613304138184e+00
7.314261464767046750e-01,-8.726286029899235075e-01,7.861672658278906489e-01,1.563522498066537425e-01,-5.050193424695820742e-03,4.478046960980038016e-02,1.656268835067749023e+00
7.997075753337453685e-01,-1.048167195467192725e+00,8.397036788373372085e-01,6.936622190630210849e-02,-2.465758343762474575e-02,-7.768984579418321962e-03,1.872588753700256348e+00
7.166798877486324493e-01,-9.334037436107667229e-01,7.799851267831450219e-01,3.489435241063426618e-02,-4.853322315582680319e-02,-1.596731883600016957e-02,1.686038732528686523e+00
7.320965291934727892e-01,-9.744534411288279241e-01,7.754050005453432259e-01,2.829628088116002693e-02,-3.368444927955349666e-02,1.000784182963609416e-02,1.730376482009887695e+00
7.242603908674012381e-01,-7.716366652459827336e-01,7.465503599991117900e-01,-5.930034410286019048e-02,-5.416751761149507169e-03,1.332574906554953934e-02,1.510866880416870117e+00
7.691277225179353749e-01,-1.035882051477883925e+00,8.048918460317439072e-01,-1.934131895763895048e-02,-2.331229801303437866e-03,-6.378332017247782641e-03,1.823500633239746094e+00
7.525847536657065406e-01,-9.527074662457571952e-01,7.859053690546055071e-01,-1.974121287557007234e-02,1.910146046228281685e-02,-2.075535512915371861e-02,1.723226428031921387e+00
7.802112559394412949e-01,-1.039952449904515408e+00,7.807731316348652806e-01,-1.460589705565422695e-04,-1.902488609747340648e-03,2.800408909352325535e-03,1.820454120635986328e+00
7.587864293871575683e-01,-9.711806713506523359e-01,7.712627468118344876e-01,-1.333977893030502578e-02,4.047380410661578255e-03,-1.882304178356139057e-04,1.736406803131103516e+00
8.065546188552388251e-01,-1.019304317548774375e+00,7.067535312443007367e-01,-1.765110384687459261e-02,-3.668258847107540559e-03,1.011386150164141073e-02,1.778420686721801758e+00
7.343195402930627891e-01,-8.960641037079598581e-01,8.327525991230179114e-01,7.891391360860078308e-02,-5.574576291498695158e-02,1.205633493870242878e-01,1.702919602394104004e+00
6.867297945145338645e-01,-1.120853826813714704e+00,8.740059768110488569e-01,6.247351732000611113e-02,-1.094676207090473502e-01,-3.256308994665838702e-02,1.921402573585510254e+00
6.768591423832223120e-01,-9.543006764656317698e-01,8.019628779392414808e-01,-4.154182059732115795e-02,-6.102194464561187109e-02,7.744065280112052106e-03,1.702035665512084961e+00
7.367977837153598664e-01,-7.540105025415637652e-01,7.849349619619099272e-01,1.512129880928652081e-01,-5.676645224046622529e-02,5.911646909859622628e-02,1.544453740119934082e+00
7.506349634793498815e-01,-9.839929143689816193e-01,6.567386434739626022e-01,-9.475889787134940054e-03,-7.851920146317030447e-02,-7.101722484231576043e-04,1.695181965827941895e+00
7.303398663414585323e-01,-1.085906263928712256e+00,8.246474291845421467e-01,-2.101202168183404287e-02,-5.476944262418395604e-02,-5.199615553172599186e-02,1.870124101638793945e+00
7.073688611310404717e-01,-1.005839065333392179e+00,7.991779556672246043e-01,-3.038219294890986272e-02,-2.913140059585447167e-02,-1.513349107109242253e-02,1.762611865997314453e+00
7.709580397422696185e-01,-1.094374323241050107e+00,8.077146717066826520e-01,-6.009048193619191680e-02,-7.055599293364085700e-02,-1.012333315584356894e-02,1.890887022018432617e+00
7.307094636580111491e-01,-1.010903715912192524e+00,7.617851814168821178e-01,1.948382180107844025e-03,1.367914639154277530e-02,8.052892820578198569e-04,1.757520675659179688e+00
7.859461652898033224e-01,-1.034616583921736721e+00,7.732606880802330718e-01,-1.778147469295020267e-02,-4.025585844480789044e-03,2.214668160738078595e-03,1.814532160758972168e+00
7.831729145424622951e-01,-1.004617486861909326e+00,7.687936070862647631e-01,-1.370339203090009325e-02,-1.182901538280418767e-02,-1.236124201036755896e-02,1.781049013137817383e+00
7.520820667417541516e-01,-1.022109210364777532e+00,7.616755544729240102e-01,-1.531265223314086724e-02,-3.748715175631368857e-02,-4.185115725027184659e-03,1.780404210090637207e+00
7.690205064884100272e-01,-9.722540805164957556e-01,7.588723086618844871e-01,6.711029056251776974e-03,-8.276524482706422089e-03,-1.247135410559095658e-02,1.736455202102661133e+00
7.885701178871230566e-01,-1.057399195331666375e+00,7.713221203383765490e-01,1.123290452999227591e-02,-1.005212907302736013e-02,7.245110413540180316e-03,1.837634325027465820e+00
6.653980651356737885e-01,-1.829704313730511567e+00,1.320365889431843964e+00,-1.830041973558799995e-01,5.370861094851502315e-01,7.935453172576514835e-02,3.045238494873046875e+00
7.303901861020912767e-01,-9.824798618618106882e-01,7.484976095013027297e-01,-3.911270150438144605e-02,-1.105724091672559972e-01,5.475863174776902237e-03,1.733962416648864746e+00
7.621354509644612252e-01,-1.008917781311349682e+00,6.186192236758105700e-01,-2.055286278276481290e-02,-1.005351066604676102e-01,-5.914339929087153794e-03,1.713109970092773438e+00
8.258653584420058147e-01,-1.005596587616375048e+00,5.978161862243562830e-01,-1.652331065755605760e-02,-8.331531587742871392e-02,-1.412554275329747089e-02,1.735176563262939453e+00
8.714601980412671756e-01,-1.071577236664667421e+00,6.390434046553887804e-01,-7.941074829606096716e-03,-8.367364243896213694e-02,-7.317294357302077390e-02,1.847991704940795898e+00
8.096893850893182032e-01,-9.932795287520477245e-01,7.826567325729547608e-01,2.119764343788338098e-02,2.107492870937181795e-02,-5.614383013829220281e-02,1.792993426322937012e+00
7.492555691210572855e-01,-7.781888799493610342e-01,7.372455024284637615e-01,-3.269449644353931983e-03,-4.236060601555041716e-03,-8.255247307068376561e-02,1.528207063674926758e+00
8.017031315688591953e-01,-9.589906639787668663e-01,6.688634425471362555e-01,-1.280831809508034200e-02,9.480438671557933281e-03,6.978050738362068933e-03,1.698442459106445312e+00
9.216907434296328638e-01,-1.004372693287677754e+00,4.899052011673828977e-01,-5.122607771336295558e-03,-4.307798043281948347e-02,-7.769103781118474016e-03,1.752238512039184570e+00
7.806739639607600534e-01,-1.021400133985207015e+00,7.776007074566257948e-01,-6.476143782322341634e-03,6.862847706053762376e-03,-8.945039289616896552e-03,1.800680279731750488e+00
7.776535842624805461e-01,-9.041370344079689980e-01,7.535298318322199984e-01,-8.956300149595426262e-04,-1.575979798240644686e-02,3.550749299841410300e-02,1.671215295791625977e+00
7.462943416515148698e-01,-7.251694857403014893e-01,6.858863923458586864e-01,6.429317449153666708e-02,-2.488780896932885761e-02,5.419032792032780349e-02,1.450184702873229980e+00
8.667977671802928885e-01,-9.990014640510463950e-01,5.342141110590099551e-01,-6.641191146792316431e-03,-3.081531848960611733e-02,-1.036320887579919754e-02,1.724699258804321289e+00
7.857448021740618405e-01,-9.877560602582303728e-01,7.659812127981430185e-01,2.467393772940995253e-02,-4.306498832811663999e-03,5.304975633990402506e-02,1.766626715660095215e+00
7.030674294662935253e-01,-4.086544607701123599e-01,6.569541085053419716e-01,2.559655510216193169e-02,6.418643946415253376e-03,-4.313903997437714549e-02,1.092913031578063965e+00
7.106823798298952388e-01,-4.880679829517227120e-01,6.632064922509650629e-01,1.228942015086305073e-01,-1.660497916563052900e-02,-5.251240114122977115e-02,1.198646545410156250e+00
6.698120284988560158e-01,-3.609309253044861721e-01,6.808968554416545693e-01,5.154442606454709419e-02,-1.148807289336055415e-02,-4.147972711991780581e-02,1.042836308479309082e+00
6.809950784458660422e-01,-5.134556029441983416e-01,7.843084048217985327e-01,6.211873503020365339e-02,1.670075906571413110e-02,-1.375398320332980595e-01,1.276696205139160156e+00
7.222147751763459134e-01,-6.348651123895534543e-01,6.975753983921786361e-01,1.452798871506035261e-01,-1.908965788831578497e-02,-2.431994395194537334e-02,1.369314312934875488e+00
6.718670773541032260e-01,-9.885118393550470506e-01,7.568870069502142695e-01,7.351527589135303971e-03,6.973664622035723182e-02,-1.299572560695452274e-02,1.708950042724609375e+00
7.499049630257629273e-01,-9.854744082262412164e-01,6.718340589146626352e-01,1.666049286699523499e-02,8.452234558635127182e-02,-1.802990512537005346e-02,1.704521656036376953e+00
7.264638113290162735e-01,-1.001354593566000428e+00,7.069116327421260948e-01,1.280290248921403355e-03,1.482052355674567390e-01,3.871122845161105441e-03,1.737210512161254883e+00
8.775856393798415755e-01,-1.000222984267730597e+00,5.197586248412368048e-01,3.679821089415510373e-03,-4.769140353655448861e-02,1.012847866776738978e-02,1.729001641273498535e+00
9.671990714323021043e-01,-1.023128377421965496e+00,4.932680537574820612e-01,-2.332145002284694880e-03,5.250816142515934981e-02,-3.453860331967654757e-03,1.803069472312927246e+00
1.078295603339285647e+00,-1.123143744413450440e+00,3.568738771654951236e-01,2.200255539415888265e-02,1.600629609572151169e-01,-7.851343693195059203e-02,1.968609690666198730e+00
1.013919227423387692e+00,-1.141968184202278414e+00,4.781480994463807033e-01,5.137800988516746416e-03,8.790062183855593125e-02,-1.220680012062019676e-01,1.961580872535705566e+00
7.468339570319756371e-01,-8.595934985153055319e-01,7.543584390006483620e-01,2.534518121385268691e-02,1.243674816961322024e-02,4.241158357806056045e-02,1.612619161605834961e+00
7.882552806568425829e-01,-1.046244927745578090e+00,7.768333838646390710e-01,8.070815816263753051e-03,1.080176112433076790e-02,-1.760890647896426464e-02,1.829219460487365723e+00
7.829195816859892965e-01,-9.735097567169566091e-01,7.731894771955923895e-01,-1.309148805909149046e-02,-1.904614882589309582e-02,6.039199583657926113e-03,1.752073168754577637e+00
7.759046803414366700e-01,-1.013851106637993382e+00,7.773112976768532523e-01,1.129983238406176600e-02,-4.688310268654014186e-03,-8.477891363046684281e-03,1.790645122528076172e+00
7.711291799244825995e-01,-1.014349183801876553e+00,7.952011046730349531e-01,1.102337601027426027e-02,-1.102327367304189835e-02,-1.456529979488317521e-02,1.798014998435974121e+00
7.634555936289268985e-01,-9.330559812598286928e-01,7.683868225915955197e-01,3.806533898574055406e-03,1.217866881938995532e-02,1.731763970692416776e-02,1.699391007423400879e+00
7.762063260770613038e-01,-1.035049685573911082e+00,7.783678372857874006e-01,5.302128676981096751e-03,-1.311639930553150021e-03,8.121778309494974424e-03,1.812417030334472656e+00
7.705934498733382210e-01,-1.007606459988139358e+00,7.722523162646945938e-01,-5.761186525689615708e-03,4.431000505853936039e-02,-7.901653014103692191e-04,1.780713081359863281e+00
7.684276174528603676e-01,-1.021203014058136738e+00,7.997941058584656648e-01,-1.228304619907567841e-02,3.044672577620870409e-03,1.246775495254838495e-02,1.805780410766601562e+00
7.048348130269215250e-01,-5.363540827025128355e-01,7.370460180528831673e-01,-4.608922408448883068e-02,4.496983829966771928e-02,-1.707242679067147223e-03,1.262543439865112305e+00
7.564173075056356277e-01,-8.036937170432282285e-01,7.481744099253723190e-01,4.759457194667536528e-02,-1.241876518759956697e-03,4.131089510518536068e-02,1.559831619262695312e+00
7.580732937763956514e-01,-1.000456860483300403e+00,7.146830585909470512e-01,-5.439286462728714494e-03,-4.116403560429444941e-02,-3.113961184225220308e-04,1.738729596138000488e+00
7.847974601777463199e-01,-9.890148560549090195e-01,6.866454641457555574e-01,3.150460849440241129e-02,1.144337341842757011e-01,3.449495290965416921e-04,1.739023804664611816e+00
8.060033742213978947e-01,-1.058832778781119588e+00,7.178071015106077812e-01,8.930054468083637917e-05,4.350361428152764443e-02,-1.240186965454789098e-02,1.824023008346557617e+00
8.283130408334794526e-01,-9.912462317206219842e-01,5.358006516360963589e-01,-2.107157846229238199e-02,9.755826865107597445e-02,1.487421440263574958e-02,1.701371312141418457e+00
7.341845990735395011e-01,-1.008382232690833824e+00,7.080315633575555712e-01,-3.062019846576420970e-02,6.489501268831401881e-02,1.909972444556087140e-02,1.734413743019104004e+00
7.806493672204125600e-01,-1.028624669010394621e+00,6.572685476816313432e-01,-2.152155583819506321e-02,7.272640690972231869e-02,1.287713305888064019e-03,1.755769729614257812e+00
8.107653215201313657e-01,-1.065303005030795003e+00,6.708467711753435259e-01,-1.761928731491365849e-02,6.722032039367523137e-02,5.066927429849676923e-02,1.816287994384765625e+00
8.137947229857589448e-01,-1.075643536332830275e+00,7.256162020262164614e-01,-2.693777716189599269e-02,1.073942937551517901e-01,4.398647428673612553e-02,1.858420372009277344e+00
7.458439638713684205e-01,-9.951709841292758485e-01,6.503600757358688478e-01,-3.505126246301613901e-02,9.413340626712951575e-02,3.896363806615671388e-02,1.705530643463134766e+00
8.764707784222353082e-01,-1.029336632548826902e+00,5.404186086133878630e-01,-2.946685063772420607e-02,6.223186982237605136e-02,4.360849723685968765e-02,1.767628550529479980e+00
7.526243762348614474e-01,-7.807284945603681914e-01,7.303256343107208393e-01,-1.068603544916501419e-02,4.666057327978748257e-04,-7.638647209326795973e-02,1.528176784515380859e+00
8.287940425085742469e-01,-9.638544916667758367e-01,6.673046545893696058e-01,-1.035723595278044418e-02,9.216132959331208366e-04,6.540852748631618280e-03,1.717738747596740723e+00
7.909525001204041894e-01,-1.022082798281103377e+00,7.930626124787432119e-01,5.756761620756721196e-03,1.510116673854482779e-03,-2.930935312517519639e-03,1.814127683639526367e+00
8.328609148891430447e-01,-1.022339353318824973e+00,7.141294676043372647e-01,5.528403945348672049e-03,3.663163063269537709e-03,1.874387233558455837e-02,1.799105525016784668e+00
7.760150214511052358e-01,-1.037623103703896321e+00,7.792676779254250619e-01,-5.622963426984161923e-04,-1.096042973221754684e-03,-6.629676188806368255e-04,1.815268278121948242e+00
8.432022473547227115e-01,-1.012936686524775087e+00,7.131246648911854225e-01,4.958242875296708235e-03,5.726938657694818739e-03,1.498929136077930147e-03,1.794689059257507324e+00
7.306962494372224448e-01,-8.117748871165934021e-01,7.391397115745477198e-01,1.598902598985801546e-02,-4.532215533995560472e-03,-7.308011592561734771e-02,1.552147865295410156e+00
7.647112875275537958e-01,-9.734185921911649997e-01,7.963600758236077937e-01,1.260437789421978410e-03,-1.085305822545113569e-03,-2.633402052767279400e-02,1.754763722419738770e+00
8.254982187758370671e-01,-1.035082744799668220e+00,7.702224829670277773e-01,3.783740444235850209e-03,-5.112961893993715062e-03,-1.370880463667992211e-02,1.833754897117614746e+00
7.973860888205048791e-01,-1.025830020515837937e+00,7.619562987688527356e-01,6.374310162414760679e-03,-1.999201846537741745e-03,7.046689071933792334e-03,1.805840253829956055e+00
1.037895997682922733e+00,-1.018153823761763555e+00,3.533384156279372190e-01,-2.830827642397314853e-02,-1.164039013462940184e-02,3.655273070472934982e-02,1.815294504165649414e+00
9.654307189327552274e-01,-1.009149769212054348e+00,3.748446409599292539e-01,7.066289136621816628e-04,-2.970155509522953360e-02,1.106002040217120806e-02,1.756307244300842285e+00
9.572256446678799602e-01,-1.009426957188533702e+00,3.476133415585982989e-01,-4.916338755184787232e-03,8.436854374620483821e-02,1.357376628151058494e-02,1.749980926513671875e+00
9.156104583716421219e-01,-1.017801063429491615e+00,5.083056946886546079e-01,-1.373080248349013493e-03,9.075664193217041972e-03,2.137786556988914566e-02,1.765817999839782715e+00
7.742918760767041331e-01,-1.019042006531292621e+00,7.659463871677872904e-01,1.390350326421362082e-02,-1.427581467892857434e-02,-7.111948687998338736e-03,1.789551019668579102e+00
7.955640811809974178e-01,-1.022869095961851826e+00,7.811622015675754316e-01,-4.939897852083560345e-03,-1.385658608877331915e-03,3.302055922290961839e-03,1.811305999755859375e+00
7.607109753554404108e-01,-1.000685658347429285e+00,7.773276046931704153e-01,8.758516176661484964e-03,-4.890646048994067713e-03,1.859728456917496969e-02,1.770141839981079102e+00
7.761034189275517470e-01,-9.784893281695835610e-01,7.641207851027466136e-01,-4.761457975333364609e-03,-2.858095770450120969e-03,1.712430349066102614e-02,1.748910188674926758e+00
7.779471175598280386e-01,-9.874539282970160592e-01,7.726169966910115816e-01,-5.736587348691399996e-03,9.062820614019926127e-03,-1.651656755760405257e-02,1.763072013854980469e+00
8.159018994795228519e-01,-1.038353269902255516e+00,7.696249190970310128e-01,-2.099722334591262382e-02,-2.191879165797235712e-02,-2.340561539757319773e-02,1.832757949829101562e+00
7.888148171607458625e-01,-1.004794077810460040e+00,7.208069330043068712e-01,1.723342131089994345e-02,-2.019710542584588278e-02,2.503716453670529196e-02,1.761724591255187988e+00
7.770055905297681420e-01,-1.023804422154122706e+00,7.664739588343296717e-01,1.051207307538538915e-02,-5.485105535580478073e-03,7.622077852121478085e-03,1.795733332633972168e+00
7.748734196906644778e-01,-1.027837022284183721e+00,7.682431520653564272e-01,1.700512413481455529e-02,-5.964281698259210097e-03,1.056757679419197821e-02,1.799768209457397461e+00
8.171197683024797875e-01,-1.023883725531531397e+00,7.099309197705393482e-01,-6.331835707214877873e-03,2.874618387532355476e-02,1.736324717717577584e-02,1.790796518325805664e+00
7.048428926563008456e-01,-9.878782476720078254e-01,7.063606956377752599e-01,1.219476068728487725e-02,-4.585736307482146668e-02,1.013287920142120699e-02,1.695564627647399902e+00
7.467420155977673168e-01,-7.663322495957743952e-01,7.441061403518973716e-01,1.300689042026002828e-02,3.559331800238949104e-03,-5.630938851871999939e-02,1.515080928802490234e+00
7.889478795185620452e-01,-1.025224468505844033e+00,7.689643946468651681e-01,5.002775656852750247e-03,-1.873870543593849974e-03,-4.945911686876706438e-03,1.804307699203491211e+00
7.777620392915485237e-01,-9.773570159557305459e-01,7.594100947639065291e-01,7.148773317135482565e-03,-1.389557907867764071e-04,3.055850971379185134e-03,1.746067404747009277e+00
7.783419947338541256e-01,-9.899557000190786216e-01,7.864342670596837781e-01,8.344684703324334318e-03,-1.127944271201034541e-02,-1.402477919868511461e-02,1.772690773010253906e+00
7.718054349510561352e-01,-9.988868357650209084e-01,8.039121513722992107e-01,-8.078862543396214332e-03,-1.251358436354029977e-02,-3.499225903655039244e-02,1.788175582885742188e+00
7.850452575112873976e-01,-1.038810074480302603e+00,7.840612356629717006e-01,-1.558325809085749948e-03,-2.295926361431133069e-03,2.130229128954708433e-03,1.823373556137084961e+00
7.900415137921491526e-01,-9.688624012678992425e-01,7.568184100062039787e-01,7.189514847937478192e-03,5.012258614184514349e-04,-6.170295870606263416e-03,1.742607355117797852e+00
7.947293358046151335e-01,-9.332873790510120005e-01,6.956384219115017142e-01,6.079805228628065022e-03,3.192440287861208342e-02,-9.514365440246582567e-03,1.681686639785766602e+00
7.934202237570351368e-01,-9.359842048684565707e-01,6.854446092563686310e-01,5.968983742588784489e-03,-5.623223860429705893e-03,-1.932853864554870621e-03,1.678087592124938965e+00
6.760557416405141851e-01,-7.950480686619764148e-01,8.445899933780058877e-01,-9.345986624737864790e-02,-4.910295936889193247e-02,2.624434143396871602e-02,1.573526382446289062e+00
6.571353576922871476e-01,-9.940575423706164981e-01,8.563168807723202658e-01,1.980706710928084591e-02,-2.081488105805219188e-02,-1.777602291099159015e-02,1.760233759880065918e+00
5.169722251986841322e-01,-1.011550270708086785e+00,1.026120859402377850e+00,-2.579571248284624752e-02,-4.100648169447648067e-02,-1.213371157989484236e-02,1.838842272758483887e+00
6.291844932348144015e-01,-1.037734756260485725e+00,8.836225064857895495e-01,-8.768977800916708670e-03,1.306803381736103969e-02,8.769813695550194915e-04,1.807825088500976562e+00
6.562794879350035693e-01,-1.043898277767002281e+00,8.784104776961952910e-01,-1.150825241714296086e-02,-2.789763369337967119e-02,-8.883695158445524542e-03,1.822245240211486816e+00
5.346912325789943132e-01,-9.670206910260968902e-01,8.671831008185879597e-01,-2.323620901950044365e-02,-4.689921575701082312e-02,5.164599264577688286e-04,1.695056200027465820e+00
7.053526410261619084e-01,-1.047182420311407958e+00,8.595155635892972601e-01,-1.194425262927707385e-02,-2.380832533830463948e-02,1.133574574317151168e-02,1.835166335105895996e+00
7.595317401073633512e-01,-1.020158529686113758e+00,7.980886702036348312e-01,-3.836987959887331982e-03,-1.270864119980794418e-03,-5.417964487246849578e-03,1.799316644668579102e+00
7.958360302745925985e-01,-1.007931264474714483e+00,7.981320032545233811e-01,-7.085403086148836516e-02,1.310695235085862151e-02,4.254779869604218695e-03,1.809241175651550293e+00
6.989900882736789223e-01,-9.589120739748867583e-01,7.994229100692965551e-01,-9.210763031708341098e-03,-6.799155771504953108e-03,1.185160292138535618e-02,1.710569739341735840e+00
7.557021115469344519e-01,-1.171374056822448662e+00,7.818734399637335963e-01,3.697196175919901726e-03,1.255144577163732345e-01,6.255384344797066884e-03,1.952475786209106445e+00
6.947823005219935233e-01,-6.581462719297888064e-01,7.047337369782126215e-01,-8.202934449081103951e-04,-8.555288736618930218e-03,4.111045975791914955e-03,1.358031868934631348e+00
6.075538663564685748e-01,-1.042347064199717011e+00,8.673544392346479448e-01,7.315464552041807053e-03,2.198968619562425286e-01,1.908126838719800128e-02,1.834293127059936523e+00
7.059959294828018761e-01,-9.386899284361240881e-01,7.288930747509033692e-01,-2.565581779178608898e-02,1.192662429872432261e-01,-4.935361173004386946e-03,1.669699192047119141e+00
5.511326921854898808e-01,-8.791237163299951973e-01,9.402043759334943740e-01,4.882180042304988532e-02,-2.747802245763580897e-01,1.481164868325616779e-01,1.747272491455078125e+00
7.761154000084963256e-01,-1.027890629462322680e+00,7.664309873166493814e-01,-9.889689753457539534e-03,5.771496497344963048e-03,2.705874274337244367e-03,1.799298763275146484e+00
4.555538848104145888e-01,-1.101175721253176976e+00,9.150556983308580916e-01,-1.594108607219196783e-01,-4.756585895042009238e-01,-2.744908991373578785e-02,2.026602506637573242e+00
2.100857995681853219e-01,-1.191335438900159138e+00,1.089650313373445201e+00,-1.502669421145219064e-01,-3.913951607192133197e-01,-9.601421430185747008e-02,2.127257108688354492e+00
7.842274077971924662e-01,-1.036538265124747671e+00,7.856568897482748559e-01,-2.654888714213720496e-03,1.855198641730257652e-03,8.360193945509797981e-04,1.821490049362182617e+00
6.105809127200806374e-01,-1.878216845330782592e+00,1.218186372797619210e+00,-1.633474880297635656e-01,-5.970531232997176030e-01,3.643789589947241114e-01,3.102142333984375000e+00
5.344412521395698334e-01,-1.323422363783162359e+00,1.113677433380969584e+00,1.691223128908544149e-01,-6.303607602970382473e-01,-1.412204767151042095e-01,2.490183591842651367e+00
4.560198046924326398e-01,-1.007541972395900487e+00,1.001407325030430506e+00,9.084016815113407639e-02,-2.511534432749183421e-01,2.497813967302817129e-02,1.858367681503295898e+00
8.111060072843264690e-01,-1.038646382817639546e+00,7.426513817440338894e-01,2.634508506596205772e-03,4.484975579434585802e-02,-3.984023182938797869e-02,1.819467782974243164e+00
8.012569540562044512e-01,-1.008095478286645585e+00,6.937821641094183978e-01,9.042097530386488009e-04,7.406252393791926125e-02,-3.544802775649793375e-02,1.763823986053466797e+00
8.010381935562953526e-01,-1.031501883767709682e+00,6.501930278072901581e-01,-4.863942878682828846e-02,1.052822565581155445e-01,5.324752777047793428e-02,1.775776982307434082e+00
8.287255637473980308e-01,-1.017670239923838205e+00,6.989867349804906871e-01,1.070111824105730858e-02,3.083552774588957379e-02,7.568172875781331750e-03,1.786009073257446289e+00
7.461353422151717485e-01,-1.024330852988740048e+00,6.586841376181207242e-01,-4.594155108859182546e-02,1.011699718313211344e-01,5.323387190895129822e-02,1.741524696350097656e+00
7.481811260974666755e-01,-1.058349806786896607e+00,7.481946112563651052e-01,-5.559611801308834977e-02,1.474703304197439169e-01,4.518707688856705984e-02,1.828720688819885254e+00
8.694233449552055681e-01,-1.083798694110925442e+00,7.134462126702432183e-01,1.432872761538158670e-03,1.076140611666523694e-01,4.633084710667495498e-02,1.891014337539672852e+00
7.000456840615603138e-01,-5.200653635369230088e-01,6.964550925072723331e-01,-6.256822817496214550e-02,-1.071302287806438422e-02,-1.030955382411850862e-01,1.236235260963439941e+00
7.327444021793415585e-01,-5.224492539085336951e-01,7.009181606547509880e-01,-7.315034484724119990e-02,5.982096558769068456e-03,-1.071719564475726860e-01,1.259838700294494629e+00
7.232107254310765621e-01,-7.638819116572496126e-01,7.253391547841722131e-01,-3.051206508499319098e-02,6.304801250051584975e-03,-7.127873239630846958e-02,1.494245052337646484e+00
7.240876660070013626e-01,-5.266356983389519630e-01,7.085687167746261839e-01,1.054739916000151101e-02,1.345256717620098123e-02,-9.901128926866401003e-02,1.255159854888916016e+00
8.250545860818514488e-01,-8.130589252009357004e-01,6.494290205478052691e-01,-4.563685518321834722e-02,7.334859039898838570e-03,-6.401021938324653882e-02,1.563735008239746094e+00
7.619149342400760583e-01,-8.519237671865126371e-01,7.640223631846360108e-01,6.542319394371292132e-03,1.813896564021474922e-02,-5.288180712833925184e-02,1.617833614349365234e+00
8.604234621426440910e-01,-1.082590297088432019e+00,6.482783249309926887e-01,-4.855626331140942831e-03,1.829605844449553320e-01,-4.869772426677762556e-02,1.875024199485778809e+00
8.761841466602112716e-01,-1.094733569544892759e+00,7.085820354736133142e-01,-5.908730110203127932e-03,2.229408003449128567e-02,1.005116813343676363e-01,1.901099920272827148e+00
7.586481584631198372e-01,-1.154882200923012192e+00,7.127865198573822836e-01,-1.948496985249523888e-02,2.805005811508448632e-01,1.023429329798377155e-02,1.952802896499633789e+00
7.704194490798255135e-01,-1.015930488012022348e+00,5.698741577099259992e-01,3.535793029642776697e-02,2.792752130646475317e-01,-2.924420567643465016e-02,1.764460444450378418e+00
8.360819772112870751e-01,-1.042591737073489400e+00,6.651890227248421494e-01,4.147536879574445501e-02,9.589205233387738947e-02,-4.900684082402834152e-02,1.810391902923583984e+00
8.126795985210635287e-01,-1.020166539214392376e+00,6.333160835947088119e-01,2.685633343399575559e-02,6.861916406121736089e-02,-4.453647108175262659e-02,1.756414175033569336e+00
7.837770727263142501e-01,-1.036511870046152861e+00,7.857335435948017421e-01,-2.424857267189970550e-03,4.657948094632220759e-03,-1.571526424392752017e-03,1.821292757987976074e+00
6.502016348539223500e-01,-3.745024734307948466e-01,6.579110452420295907e-01,-1.138120015200275864e-02,-6.446636357306848551e-03,6.842117493714156007e-02,1.035632848739624023e+00
6.864447950560297329e-01,-6.148428940272873122e-01,7.171287695178764077e-01,5.123673150996796259e-03,6.283225501359505048e-03,6.110671532401357187e-02,1.321218848228454590e+00
6.765156819320083947e-01,-6.337086328837686633e-01,7.233180309693660881e-01,-4.170023812357984941e-04,5.179193832282962505e-03,6.788966990675709967e-02,1.339443087577819824e+00
7.809820162265690424e-01,-1.028783975234343284e+00,7.920497434160378436e-01,-1.250679285025957247e-03,4.658433279242949095e-03,-2.678937401716647085e-03,1.815350294113159180e+00
7.701672381769884002e-01,-1.019711107987168797e+00,7.723116043605737779e-01,-1.370871851828016396e-03,-7.737885670499235896e-03,1.135455067358099191e-03,1.791004300117492676e+00
7.753875115619363045e-01,-1.010885342552666044e+00,7.619531758172953806e-01,-7.610396450344206545e-03,-3.882596978539350121e-03,-3.410924191205617819e-03,1.779664993286132812e+00
7.809596121681315894e-01,-1.036495971179936859e+00,7.795039310478881767e-01,-8.898924710529394766e-03,1.795859828810917594e-03,-8.617543549643896447e-03,1.816857576370239258e+00
7.794023793594258009e-01,-1.028452352400631709e+00,7.697661534284296891e-01,-1.403495416051522664e-02,-2.214500913635139220e-03,-1.630257617930056923e-03,1.803226113319396973e+00
8.954095783955112742e-01,-9.709081253334229666e-01,5.696962577894708613e-01,-5.576180761572414879e-02,-5.363659197762989106e-02,-3.025481538975667919e-02,1.732642889022827148e+00
8.161828221650393456e-01,-1.020711781964855236e+00,6.934717523851550158e-01,-5.289968981999128858e-04,-1.162303977702103253e-02,1.966998278325251051e-02,1.779156923294067383e+00
7.667216022037051104e-01,-8.750000758161298187e-01,7.381567288321033704e-01,-2.078291213462661081e-03,-2.368709958801266773e-03,4.671259404155659462e-02,1.629646062850952148e+00
7.722113303036102216e-01,-9.885562708341250060e-01,7.781386484494172695e-01,-4.618504921877600354e-04,1.138835660505736584e-02,1.045307637496988191e-02,1.763942122459411621e+00
7.645504667758173944e-01,-7.075894068525961922e-01,6.458183300568874907e-01,-5.826520548921134204e-03,5.171258911281800819e-02,1.680087503288176243e-01,1.448898911476135254e+00
9.257114767801200017e-01,-1.156208767243703583e+00,7.403390804936915703e-01,-7.070785019106842761e-02,4.789169446535105137e-03,4.249451696389493216e-02,2.000827074050903320e+00
8.693776433402039538e-01,-1.036557029919517481e+00,7.170154720042274388e-01,4.186489340150488514e-02,-7.085071453428744281e-03,7.557723116983652845e-02,1.840639352798461914e+00
8.637478537436567017e-01,-8.932578230376528872e-01,6.854709286608475782e-01,-8.712560373415945136e-02,-8.162264583509215576e-03,8.627521251799635804e-02,1.688467025756835938e+00
7.924668025340080302e-01,-9.913619070377619469e-01,6.216982844056222479e-01,2.600654347127319063e-02,2.069428831967532606e-02,-1.970558627485209310e-02,1.706183910369873047e+00
7.390809194524051717e-01,-1.019696903571263302e+00,7.831925408512657727e-01,1.380444886495009807e-02,2.381551459100296822e-02,-7.497847560872218653e-03,1.781928658485412598e+00
7.326244211627741532e-01,-1.050184897608412715e+00,7.552241472345331275e-01,5.752276618861126845e-02,1.187790765186762798e-01,-1.507305200549870217e-02,1.808906912803649902e+00
7.587104402505284728e-01,-1.012674303761815331e+00,7.062287916086574802e-01,1.729159101877142737e-02,4.914799958598287805e-02,-1.698861742640495054e-02,1.748314142227172852e+00
6.512227296668587906e-01,-1.008415312978006906e+00,7.520170591298881435e-01,1.320974922042774009e-02,9.925247884009261168e-02,-1.525634252402193608e-02,1.721224784851074219e+00
7.136605408900744685e-01,-1.012182911176164879e+00,7.544763672229920504e-01,3.443495291321520269e-02,5.754479691922249895e-02,-3.139391855170418910e-02,1.751311421394348145e+00
7.121410455078694968e-01,-1.008177695877810809e+00,7.306272066715266966e-01,3.206855519579615565e-02,3.794444820433576920e-02,-3.213203555026236669e-02,1.732669115066528320e+00
7.533740569953883970e-01,-1.177222736358095823e+00,7.958790234593752233e-01,2.635762946363105069e-02,2.746391617614839520e-01,-3.073946190042958770e-02,2.010539531707763672e+00
5.712419978892093742e-01,-1.064474111133765222e+00,9.914409783513007390e-01,8.078853037579399043e-02,-7.489965842207459146e-02,-1.066103892532318034e-02,1.891087412834167480e+00
5.678660519552550801e-01,-9.457572644729141942e-01,8.644106221579959115e-01,-6.822813369054476704e-03,-4.681260816450236173e-02,-9.190552625381676402e-03,1.683691859245300293e+00
6.418673292815008091e-01,-1.171330980130269594e+00,9.382219334697436963e-01,-7.985425600145464042e-02,2.183978256290336484e-02,2.748503613691102854e-02,1.983857631683349609e+00
7.526945738212184045e-01,-1.013567580947243751e+00,7.468819793079594094e-01,1.488318217646532673e-02,-2.851311038354295557e-02,1.008510843095929491e-02,1.764329314231872559e+00
7.757256077611840439e-01,-1.023790370782667880e+00,7.442784821888903668e-01,1.275639253459482682e-02,-1.665253756674510768e-02,5.170000515302455336e-03,1.784392714500427246e+00
8.244511819103044203e-01,-9.988315325867533900e-01,5.483422423921867628e-01,9.735978585264613849e-03,4.610050762491195442e-02,-2.433337207453970322e-02,1.704584360122680664e+00
8.445549317985199256e-01,-9.900601918572802251e-01,5.847958015466981907e-01,7.467061214290646523e-03,5.970391804865618490e-02,4.625663574824593650e-03,1.722688198089599609e+00
9.491763112812818814e-01,-1.001849796992403174e+00,4.486913989271213432e-01,2.272429995812061052e-02,6.845403128775769119e-02,-1.368643468222301846e-02,1.759743690490722656e+00
9.432732055240026225e-01,-1.022347976478846121e+00,4.739973562438896115e-01,3.178299512184298761e-03,7.608610605640589442e-02,-2.776074932142413160e-02,1.783585548400878906e+00
8.759755900262418127e-01,-1.006017034503397189e+00,5.085899105564604117e-01,1.526700263109765157e-02,5.781566749675699085e-02,-1.929717672583696961e-02,1.731269955635070801e+00
8.777298576686661802e-01,-1.008791907038221414e+00,5.147819293490436543e-01,1.371720227198375275e-02,6.239777673672176894e-02,-2.106061689615634433e-02,1.737688660621643066e+00
8.562627406283135345e-01,-1.006082355839748033e+00,5.560334093666483568e-01,1.568299707143451169e-02,1.538720106107860017e-02,-2.446291751155727640e-02,1.732795357704162598e+00
8.652262664262985181e-01,-1.002390701735709433e+00,4.766600762763718580e-01,8.666879059650226327e-03,9.799176286419007675e-02,-1.147340560996985837e-02,1.715433359146118164e+00
6.929596965905109318e-01,-5.203573093639184410e-01,7.186586263215027914e-01,1.740971584930708083e-01,4.823896510354848920e-03,6.686918758293639020e-02,1.268224477767944336e+00
6.312350686060739235e-01,-7.548651560824819473e-01,7.823337248123736209e-01,1.217515652103796642e-01,-5.351483998107937207e-03,7.064348740878653721e-02,1.487639188766479492e+00
6.419771501971707206e-01,-8.097336077539080135e-01,9.040106858021638159e-01,1.037486964764996189e-01,-3.557928432915091754e-02,-5.494763724375246322e-02,1.612969160079956055e+00
7.374014211088116832e-01,-7.776244783343783107e-01,7.672898186403533938e-01,1.085648688241921539e-01,3.237042973556807784e-02,8.247158868069384696e-02,1.549317836761474609e+00
7.794198446217539544e-01,-9.830935639833140449e-01,9.090030163147940767e-01,1.822426819492756755e-01,-3.210824611723958610e-02,2.561587133314735705e-03,1.858598113059997559e+00
6.599637862799111465e-01,-9.847037200128562207e-01,7.555110663116263447e-01,9.800311957146635305e-03,3.680899998146656971e-02,-5.660538727845644547e-03,1.695775032043457031e+00
7.267371704197347348e-01,-1.243146815311359621e+00,7.570684527727452595e-01,3.233554488321452314e-02,2.945302227385008242e-01,-1.204545270103842859e-02,2.050592184066772461e+00
6.666656240643993314e-01,-1.023201431286950180e+00,7.456998866767136080e-01,1.031582230824667698e-02,1.736518290741566051e-01,-2.667712909947810712e-02,1.757376909255981445e+00
6.008790000762592731e-01,-9.984016834479466640e-01,8.294557551267582873e-01,6.734690603299635717e-03,7.900614428816783719e-02,-3.387328392236187841e-02,1.731418132781982422e+00
5.018951022090019087e-01,-1.041418189878535294e+00,8.838646266782176353e-01,4.018979093302513239e-02,2.880436982029511150e-01,-2.111678070360601192e-02,1.836384057998657227e+00
5.388671066535858367e-01,-1.169987584811997827e+00,8.907114634297161881e-01,1.101518688246582757e-02,1.689694875623321269e-01,1.909624530730558156e-02,1.931926488876342773e+00
4.770252234555896753e-01,-1.245140497040915895e+00,1.090919189862758376e+00,4.758100612873568391e-02,2.525066333988663231e-02,-4.826669390218682465e-03,2.099695682525634766e+00
5.238975288210651060e-01,-9.265522665879634134e-01,8.698418298732314424e-01,-2.248273564337025313e-02,-3.794741398773796015e-02,3.383044748999209511e-02,1.653640508651733398e+00
7.995337868908025669e-01,-1.018643884143349165e+00,7.233619402129967124e-01,-1.558353588618455882e-02,-9.752983530454308742e-03,-2.540458910128358394e-02,1.782141447067260742e+00
7.642072951572459472e-01,-1.014440209117767333e+00,7.596958408077696401e-01,-3.619313339330635076e-03,-4.181725314494934287e-02,-1.894323702393869990e-02,1.778185844421386719e+00
7.836654725262293120e-01,-1.107159637318924528e+00,7.872860175921156944e-01,-8.565000143159039875e-03,-4.260723094135308170e-02,-3.111167305973806807e-02,1.894900679588317871e+00
8.078640632829892088e-01,-9.154565740350203429e-01,6.027060204510614749e-01,-1.087011210420753445e-03,-9.507434932496289237e-02,3.728337671761689648e-02,1.640018820762634277e+00
8.125178838708715379e-01,-9.887743611759887141e-01,6.428879784218612947e-01,-7.341397994763895762e-03,-7.721457902263567652e-02,-2.664169678645124384e-02,1.728598356246948242e+00
8.569747096730176983e-01,-1.025010592774017626e+00,6.361859967578062935e-01,-1.095709756911531114e-02,-7.918860424402433817e-02,-4.073148347011094905e-02,1.788643360137939453e+00
8.088240563169500907e-01,-9.932348844228701124e-01,6.045701980661022379e-01,2.559160683872560224e-02,3.493219097148096697e-02,-1.497124992681067059e-02,1.710951924324035645e+00
7.283337650830563614e-01,-1.005301722269771769e+00,7.485933783603655467e-01,-8.710450338745314575e-03,3.178513673211878776e-02,1.903661844840480802e-02,1.745099067687988281e+00
7.479860072647117608e-01,-1.021331114678700303e+00,7.700929085500836102e-01,-1.224851171229121571e-02,5.141740129490365158e-03,1.571540871653180974e-02,1.780830264091491699e+00
6.800235579491503701e-01,-1.012527505160589758e+00,7.963135630979949475e-01,-1.587730926147607260e-02,1.375648243800709630e-02,2.001841298533105912e-02,1.754310488700866699e+00
7.142050340063473834e-01,-1.021277304731088797e+00,7.721685897608484561e-01,-1.704198494505813769e-04,4.812870933703643217e-02,8.363380432712307078e-03,1.767204761505126953e+00
7.301997489832563470e-01,-1.024822461241138960e+00,7.929650318095358141e-01,-7.518250692012772365e-03,8.541833368642349697e-03,1.183155659534331459e-02,1.787457823753356934e+00
7.232182565153826292e-01,-1.028203836000668669e+00,6.361921898353309901e-01,2.589301518260831228e-02,-3.016869896742104817e-01,1.954219337499903120e-02,1.788528919219970703e+00
8.192358680869007426e-01,-1.001447107950511839e+00,6.036440100142664855e-01,2.174068306596080996e-02,6.841706549365755841e-02,-2.067834171715258497e-03,1.727517127990722656e+00
6.355459576148064782e-01,-1.003823161533570207e+00,7.676064516810294780e-01,1.549095925851099462e-03,-1.811842186713490954e-01,3.300699607245728348e-03,1.737811803817749023e+00
7.222529558190049492e-01,-1.068379864235340593e+00,7.862276001111411228e-01,2.630799285102207452e-02,-1.201391682945205513e-01,5.016907576143490866e-02,1.837917566299438477e+00
5.476485039987627479e-01,-1.017444376901404102e+00,7.487196377581688544e-01,1.783544628341727362e-02,-3.012781830898098034e-01,3.787608473638975903e-02,1.755620718002319336e+00
7.823551964379292789e-01,-1.039650282280870863e+00,7.824696369452722733e-01,2.326946254817453905e-03,1.193259564568288286e-03,1.550206521680479784e-03,1.822070360183715820e+00
6.479999758161472112e-01,-1.018027801442818348e+00,7.460022170364130067e-01,1.140382772645264289e-02,-1.899784899123764803e-01,2.289463788229064573e-02,1.748932719230651855e+00
7.996344728408891767e-01,-1.014710740216306917e+00,6.635453720159646407e-01,2.171873228809293940e-02,2.928223862457859580e-02,-2.168780395048447093e-02,1.751814723014831543e+00
7.767733287881002369e-01,-1.018621935403080769e+00,7.664088433429752101e-01,4.722092041175309472e-03,-4.013776374133760580e-03,2.585933961976278478e-03,1.790273308753967285e+00
7.686326702730281735e-01,-1.026434438714420638e+00,7.676939533971975926e-01,2.027505875629533483e-03,-1.325796570129496527e-03,6.042791996037293924e-03,1.794633388519287109e+00
7.688930756919660769e-01,-1.031806563534867882e+00,7.748948129283381725e-01,5.326007636393847999e-03,-2.211447271716030817e-03,2.568727935907143267e-03,1.803741097450256348e+00
7.697061807190941352e-01,-1.016653170816010476e+00,7.651162800098075811e-01,7.439184329263936156e-03,-2.246281078862648328e-03,4.508809014291439467e-03,1.784136652946472168e+00
7.802006509609840101e-01,-1.030291273853401801e+00,7.714158855214028332e-01,1.087337711950047900e-02,-5.915128943250918311e-04,4.416062657736143440e-03,1.806230187416076660e+00
7.724161236201392278e-01,-1.032387178583934473e+00,7.762332177742237160e-01,7.241993435748409966e-03,1.132121618201201857e-03,4.502384052628688633e-03,1.806776285171508789e+00
7.302850345342650762e-01,-7.683533959663568780e-01,7.067208936081864623e-01,-1.137736966112637554e-01,-8.143245260607165359e-02,-6.422635821014763269e-02,1.510715246200561523e+00
8.008063463586130304e-01,-1.023705918916953062e+00,7.390062295564826522e-01,1.768413771235923665e-02,-6.572825000960064168e-02,-3.948132376023871792e-02,1.799578905105590820e+00
7.099280437337383010e-01,-9.950389164708847156e-01,8.330988289382174061e-01,-1.274006679869719161e-01,-3.935874804476834077e-02,-7.237242683255648568e-02,1.789172649383544922e+00
7.604105778625189771e-01,-9.758875451023061309e-01,7.631648334930514199e-01,-2.813129143355249870e-02,-1.344290869723835727e-02,-2.917520733859845297e-02,1.739250063896179199e+00
7.636533224979468182e-01,-9.764779073695551981e-01,7.795149112627403065e-01,3.639957240430686299e-03,-1.255939650110818664e-03,2.007446243889141058e-02,1.748474478721618652e+00
7.758801540151870624e-01,-9.724420287366399851e-01,7.715318663088948092e-01,-9.334667385448133098e-03,-2.352431318012935396e-02,-4.109211132697066643e-03,1.746716737747192383e+00
7.208020124778864446e-01,-1.035731673282706655e+00,8.328454350975396103e-01,1.520339247874562608e-02,-2.707004560921814473e-03,-7.028295538070231975e-03,1.815388679504394531e+00
7.358397690982925177e-01,-1.012888995546063375e+00,7.538126761660899344e-01,1.157406975635772947e-04,-5.570353012540601480e-03,-8.468476120476003260e-03,1.757871866226196289e+00
7.359217332406944312e-01,-7.983536823940006188e-01,7.250780983266765789e-01,-5.293097370261565238e-02,1.091675185251516841e-02,-1.524751420457902060e-02,1.531973123550415039e+00
7.957549443139995127e-01,-9.443041326435563931e-01,7.318843516309033737e-01,-1.427726689500053991e-01,1.884175199670446166e-01,-6.515436658081968924e-02,1.761004686355590820e+00
7.945753359985835429e-01,-9.098020649948760363e-01,7.490826963589487519e-01,4.566900813152104111e-02,1.726128879646764841e-02,-1.368754609454387802e-03,1.684218406677246094e+00
8.611039189218407941e-01,-9.736052080764053818e-01,5.787507270690728234e-01,3.334600965331901978e-02,1.870790348320178209e-02,-2.778534903729844643e-02,1.713051915168762207e+00
8.268885288548821766e-01,-1.128655634792298024e+00,7.617650359621097600e-01,4.969477100534792913e-02,6.074617372672222460e-02,-8.170610275116414051e-03,1.928657889366149902e+00
8.470101795375536424e-01,-1.086095769995281124e+00,7.388468893502507795e-01,1.671748910628756066e-02,7.263433843862962536e-02,-1.461917428698457540e-02,1.885951638221740723e+00
7.850996623634949323e-01,-1.015364819838826094e+00,7.728628812757591948e-01,1.707768974233779893e-02,-1.894571199036382486e-03,-2.039771160701020492e-02,1.794971942901611328e+00
8.352431791863093036e-01,-9.920331627170300148e-01,7.165771620757871441e-01,-4.428483645957274895e-02,4.632514037226863335e-02,8.166858746689480142e-02,1.780032515525817871e+00
8.316121107199780926e-01,-1.065934732500042781e+00,7.318246129499064168e-01,-6.783267386891282669e-02,4.879344244315347856e-02,1.041356016787374494e-01,1.864073276519775391e+00
7.758310340240852643e-01,-7.998470338983429961e-01,6.719600767110234241e-01,-4.167993570906557144e-02,5.062848803981360307e-02,1.105124498527828014e-01,1.542538046836853027e+00
8.025688098964590678e-01,-1.026328803117451338e+00,6.273824503164233679e-01,2.853218823219147438e-02,9.228766892343839845e-02,-3.386405464144236210e-02,1.756870031356811523e+00
5.514145497269019591e-01,-9.748385519699371837e-01,7.995887689427615408e-01,1.259486763172397786e-02,6.014184469848339598e-02,-2.103441116747517547e-02,1.668073773384094238e+00
4.807389537345607700e-01,-1.042779784206880667e+00,9.051976438562545635e-01,2.466480724063181001e-02,1.185991472559352333e-01,-1.290650491886372389e-02,1.786747694015502930e+00
5.378437172099803654e-01,-1.017580391450455313e+00,8.943728511000861303e-01,3.626161074100050369e-02,6.059114610104809895e-02,-1.165375145772782825e-02,1.765326380729675293e+00
4.251188229424689435e-01,-9.996625740256025461e-01,9.358612929054718199e-01,1.082593773688829072e-02,8.054213471206869701e-02,-8.804053087653753232e-03,1.743158459663391113e+00
4.704379758975872905e-01,-9.972420501120629055e-01,9.490497849216086301e-01,8.087678874844819038e-03,-2.315565448019728939e-02,-8.198677995047089564e-03,1.757159471511840820e+00
5.353455621488505400e-01,-9.912036284695298072e-01,8.846762594855090978e-01,3.439805144768073712e-04,4.066509558401190660e-02,-2.824071443876563156e-03,1.729346752166748047e+00
9.140752468558837052e-01,-1.049984566160674149e+00,5.157476257376050199e-01,2.196476879918012742e-02,3.589618672451433401e-01,3.586979468742364230e-02,1.904133558273315430e+00
9.797779757367210962e-01,-1.231281293557917156e+00,3.516152687185027381e-01,-8.872181621530261797e-02,4.849343214786927536e-01,8.809867354327249878e-02,2.155655145645141602e+00
6.765761092377066133e-01,-1.002122291306463353e+00,5.801739578009320608e-01,3.189236512187647310e-02,2.829424316860171262e-01,-3.633890529063554115e-02,1.706655740737915039e+00
5.137792175598023814e-01,-2.216298242849978894e+00,1.681572051165457271e+00,-5.827952262207743150e-02,-6.105813572592559968e-01,-2.574996552695990593e-02,3.624339342117309570e+00
7.799389158933438537e-01,-1.010669032744572204e+00,8.046518640746898043e-01,9.576027091237268585e-03,-2.379275600787487174e-03,-7.685595177978507553e-02,1.808079481124877930e+00
8.121816038430104134e-01,-9.693995208955334952e-01,7.887369376839542534e-01,4.651927922350351796e-02,5.124742232310196960e-03,-6.907366746556922732e-02,1.775865077972412109e+00
7.824979561105082082e-01,-9.442472866990340163e-01,6.982688141955104566e-01,-1.602292817370116682e-02,7.781204512772844917e-02,4.408103450734504603e-02,1.693536281585693359e+00
7.940981435326428528e-01,-9.093611526210809703e-01,6.281334669593263698e-01,-4.981181382415293679e-02,1.989666273735295199e-01,-1.818921163981894115e-02,1.665473818778991699e+00
6.850552001099782240e-01,-8.991218154652375061e-01,8.368000078999370261e-01,1.846510155940405684e-01,1.024412524872742869e-01,-4.239213928512256674e-02,1.706515669822692871e+00
7.764707335217300166e-01,-9.714562903428445306e-01,7.905104827070625895e-01,4.188524941612197655e-02,2.493420884867107723e-02,-8.514502602068745735e-03,1.757080554962158203e+00
7.140877315498854738e-01,-6.278667652819678313e-01,6.859780440618121755e-01,8.635771065140857017e-02,5.506146175093441092e-02,-1.293223664237365955e-01,1.358510613441467285e+00
4.846750858771515791e-01,-1.033038901457943970e+00,9.596676674596125167e-01,-4.770388409633279092e-02,1.061611338958247733e-02,-2.442483927564302777e-03,1.804760217666625977e+00
7.875832085664332682e-01,-9.415124878154408350e-01,7.433399864384002687e-01,1.463208639265007466e-02,4.578425991683605922e-02,-1.176357494849025048e-02,1.709553956985473633e+00
7.772898402996097911e-01,-1.015328900532240786e+00,7.409503352535060650e-01,-1.545060159219058737e-03,4.642174964071486831e-02,2.049070093945754012e-02,1.776904940605163574e+00
6.720737263051286270e-01,-1.001372527666678725e+00,8.310936402585538119e-01,4.128861616116913380e-02,2.265426394504139324e-02,7.557330997615260490e-03,1.760297179222106934e+00
7.617922045319021063e-01,-8.849080930172597004e-01,7.442597660011336380e-01,2.689527473978568436e-02,4.871871384514218917e-03,-1.999877837108736053e-02,1.639054536819458008e+00
7.723846783616773459e-01,-9.948125837244264913e-01,7.633744384922226400e-01,2.229403703465812972e-03,1.586678967793367584e-03,3.499901527214888206e-03,1.762726187705993652e+00
3.891092337015479297e-01,-1.025534120761234291e+00,1.104251500582823287e+00,-6.418633592444994429e-02,-1.888351862437667728e-02,8.436434287127830833e-02,1.886556863784790039e+00
7.890277142877044625e-01,-1.000543441841322601e+00,7.780913509807576567e-01,-7.435982803243992856e-03,-1.674639186984057393e-02,9.957383142763737236e-04,1.784411191940307617e+00
7.222532380135124885e-01,-1.152179708959743643e+00,8.951963457104266109e-01,2.995989255997846476e-02,-1.685079323424855044e-02,-3.106025353685926138e-02,1.968252301216125488e+00
7.520286963596279906e-01,-1.033271976535475645e+00,8.463023105995937101e-01,-4.208299051226459947e-02,1.043520975844121866e-02,3.937393300893405473e-02,1.837058305740356445e+00
7.814820824114447895e-01,-1.037565105887950923e+00,7.797418778861586741e-01,2.360048742906890092e-03,1.061469705514277205e-03,5.210056772448276585e-04,1.818183422088623047e+00
7.678593139704427140e-01,-9.610301006989776518e-01,7.748819522642265145e-01,-2.400981856774190432e-02,-6.538700318226208993e-03,7.896328418302123175e-03,1.733001470565795898e+00
7.695870145925078898e-01,-9.510347110489392186e-01,7.764586103953505791e-01,-3.112029947354260154e-02,3.003165776749802847e-03,-5.171430843660992493e-04,1.724918246269226074e+00
7.715809196277650939e-01,-1.028513427803787739e+00,8.094303952423678172e-01,-1.548134196854707330e-02,1.254466417736465299e-03,3.769201460747648603e-03,1.819525003433227539e+00
7.391809080332296666e-01,-7.656025866630911114e-01,7.172756630404606426e-01,-7.275311700095568601e-02,-2.228419610372120614e-03,-6.556735805777492640e-03,1.499304294586181641e+00
7.833383024548197238e-01,-1.020770695582378984e+00,7.916570661966610967e-01,-9.920235300112512436e-03,2.614989854744185875e-03,-3.001170794551957267e-03,1.808377504348754883e+00
7.359578287133248242e-01,-8.391537800407153913e-01,7.564753083363825459e-01,-7.667656534782132938e-02,3.012818675480793268e-03,3.876215568385588724e-03,1.591045260429382324e+00
8.029894881455781341e-01,-1.005885566403014852e+00,6.802914342971138062e-01,1.422810437042971651e-02,-2.933796388789904064e-02,-1.149829300124406359e-02,1.751777529716491699e+00
7.828987567462362129e-01,-9.874124955610463772e-01,7.550481489871376795e-01,1.333032801753584670e-02,3.667101152760628667e-03,1.628211329911575123e-03,1.756717085838317871e+00
4.997978975546685798e-01,-1.003052621354206586e+00,9.090545660402012951e-01,-4.222317834644244081e-03,2.826195750013922592e-02,2.852790687272206607e-03,1.744584918022155762e+00
6.040922113402337201e-01,-1.001366876967434205e+00,8.334889484830390050e-01,1.344075217322190582e-02,8.438729373895730024e-02,-3.048189570126559611e-02,1.738706946372985840e+00
5.414294348693817760e-01,-9.855582843746545363e-01,8.138604723886369019e-01,1.068220205981501927e-02,9.608836848842496059e-02,-1.422537829809198719e-02,1.688359379768371582e+00
5.104629324909020216e-01,-9.903277674509387563e-01,8.670390180988656326e-01,3.346051813085777760e-02,6.542208650509140355e-02,-1.558162514093345760e-02,1.712189435958862305e+00
7.657059240462777971e-01,-9.156462707679042801e-01,7.549352198337853093e-01,-6.575148929545737535e-03,5.872413474875698598e-03,-1.592434399335379558e-02,1.676289319992065430e+00
7.888181953243900146e-01,-9.952985668086051785e-01,7.728682594466080857e-01,-1.492292175383390720e-02,1.284172728624314794e-02,-2.007709851206478102e-02,1.776863098144531250e+00
7.763376710298820482e-01,-1.015675781985034387e+00,7.897793556607829446e-01,2.005808291544320787e-03,9.022030263301622152e-03,6.543405919161919722e-03,1.798878908157348633e+00
7.365205364603484295e-01,-9.168192425950838498e-01,7.623345943595467578e-01,-2.856410494857680726e-02,-1.130237759666450920e-03,2.542285843396954736e-03,1.667137980461120605e+00
7.782096140681310503e-01,-1.006825140175139799e+00,7.877980176100086718e-01,9.913951075184055869e-03,1.434950501844949738e-02,9.250679201841834412e-03,1.790174841880798340e+00
6.780864827124220007e-01,-1.057050052061983436e+00,8.363384866966452336e-01,2.954599749850976564e-02,1.500258791949274084e-01,-2.384519688653437969e-02,1.839070200920104980e+00
7.219898297653011277e-01,-1.055809111449450777e+00,7.836017766048428701e-01,4.333964534751268138e-02,9.517635273459043588e-02,-6.866807005757294413e-02,1.822321414947509766e+00
6.049435741446531623e-01,-1.059755421661798591e+00,8.895766339877668738e-01,7.514585747052843212e-02,6.626737310353647548e-02,-1.784636600839608483e-02,1.832249283790588379e+00
5.982739368072524933e-01,-1.065011980703646666e+00,8.980500905716963800e-01,4.995578071142348087e-02,-1.349803700319462951e-02,-8.624575807420877330e-03,1.833918094635009766e+00
5.003432323004588511e-01,-1.020668595415359148e+00,9.700628735956763338e-01,9.957373742679024448e-03,-1.212309517929414243e-02,2.540091308162026676e-02,1.803118586540222168e+00
7.821192167404935613e-01,-1.010934399483707669e+00,7.800634283890344189e-01,-1.687702671135803481e-02,1.084363640945128736e-02,-1.264615046224087588e-02,1.792497277259826660e+00
7.291308474263147321e-01,-7.487137998263856398e-01,7.307920290378786543e-01,-4.234191477553785055e-02,-2.378575545036118108e-02,7.528005878457447175e-02,1.486795067787170410e+00
6.995502253933513215e-01,-1.005462857553959921e+00,8.385403830329375419e-01,2.414513412073771015e-02,4.244569092425987816e-02,1.114517381652403369e-02,1.780700564384460449e+00
7.721701182193381197e-01,-1.032152771968579019e+00,7.749011597059239920e-01,-3.148097274263098218e-04,-1.969501853734443621e-03,7.789411382330090755e-03,1.805743694305419922e+00
7.268578677656084563e-01,-9.964127943805016763e-01,7.863065861350682084e-01,1.402998513506326442e-02,1.003873064985359720e-02,-1.086980714767805598e-02,1.754106402397155762e+00
7.714783424663211875e-01,-9.428751572865596842e-01,7.586071934106533021e-01,1.454806904188820152e-02,3.769403741266813719e-03,-1.753791295869680869e-02,1.708422660827636719e+00
8.079552154430724720e-01,-1.020221372018797590e+00,7.242074975007353199e-01,1.726125794372146763e-02,7.848504265158082194e-03,-7.849658322966432053e-03,1.788127899169921875e+00
2.143713853777248213e-01,-8.865392165716629025e-01,1.047908630584136302e+00,-2.791271972983912567e-02,2.129373009708606379e-01,5.344334975379796959e-02,1.723766565322875977e+00
7.626965386935129487e-01,-1.027399176576795137e+00,7.588021020657966798e-01,2.085928848157223015e-02,4.458959749863949246e-02,-1.526355660746480519e-02,1.790378570556640625e+00
7.592552789312347894e-01,-1.050142151516951561e+00,7.374296821781385347e-01,1.043874924406227277e-02,1.110611216982329563e-01,-2.955548984087542474e-03,1.808939218521118164e+00
9.141902205669442116e-01,-1.083927778576442069e+00,6.407878748085912290e-01,4.778369490519652346e-02,2.853525341835765339e-01,-8.807818329297724402e-02,1.948162078857421875e+00
7.889945101572772845e-01,-9.673098501178327702e-01,7.587218868903800040e-01,-1.346108008471742432e-02,-8.024184589403743004e-03,1.872960984134324977e-02,1.741879105567932129e+00
7.657008641579721164e-01,-1.022644958984777697e+00,7.595263694080343075e-01,2.633844681028944118e-02,4.036736971188865930e-02,-1.898652344499010547e-02,1.787520051002502441e+00
8.554226432324059104e-01,-1.163934624766858272e+00,6.247620847251269538e-01,-2.955890097511492537e-02,-2.895776524508590355e-01,-4.839236828458039902e-02,1.981523275375366211e+00
6.656685268661119981e-01,-1.047472355342824235e+00,7.801392533720693523e-01,2.863621728151261037e-02,-2.306075826555712416e-01,4.746906763725255995e-02,1.820115208625793457e+00
7.065529489803521468e-01,-1.045637613564468493e+00,7.838928492874694953e-01,5.800709128346599047e-02,-1.550872727363958037e-01,1.056728358421452595e-02,1.815007805824279785e+00
4.814495709184888894e-01,-1.527821017296259187e+00,1.232062233865378609e+00,-6.430200829938622666e-03,5.729408844023136105e-01,1.374334420119613931e-01,2.674012660980224609e+00
4.927740148066899750e-01,-1.169618793417865010e+00,1.029815998204623995e+00,5.320899098516417708e-02,2.277270431742890455e-01,-5.911506912243123107e-02,2.029604673385620117e+00
2.743046395809868310e-01,-1.479003115336242624e+00,1.524809568603112009e+00,-2.968585298644644821e-01,3.235719778853263229e-01,1.400112222924389804e-01,2.732700347900390625e+00
3.810781006812509197e-01,-1.443725119522071720e+00,1.183207293889114053e+00,-2.763995734798446180e-01,3.579774159564903524e-01,1.657703920491009064e-02,2.459980487823486328e+00
6.499698687238151251e-01,-1.484228070932626542e+00,8.116489003354249165e-01,8.524525596135197614e-02,5.383040170378003975e-01,-1.296835915379157822e-01,2.422305345535278320e+00
4.862121284678626587e-01,-1.098495290563263449e+00,8.691933645659607466e-01,3.755577890257387474e-02,2.996438060250167235e-01,7.270435647689092902e-04,1.881084203720092773e+00
3.930330763374292324e-01,-1.126960765906169559e+00,9.764065369478327483e-01,-5.099244583163704998e-03,4.145531521306025646e-01,3.851681911165455441e-02,2.014328956604003906e+00
5.481409389931464204e-01,-1.099247847207303730e+00,9.220738991624103376e-01,-1.376815687738125737e-01,4.798368197185490791e-01,1.576721809184547518e-01,2.071692228317260742e+00
7.453853542855123360e-01,-9.450372911610086524e-01,7.561522073214325124e-01,2.337562556723241092e-02,3.423953926512863372e-02,-6.278771702490167431e-03,1.697386145591735840e+00
7.821836636180462543e-01,-9.920913137190322528e-01,7.570722960672037205e-01,-8.553884261981763854e-03,1.288790383637339288e-03,-2.421182600472630841e-03,1.761922240257263184e+00
7.639657629200040656e-01,-9.356854675366867991e-01,7.065017004790092869e-01,-4.087903726227853918e-02,7.579904849708896108e-02,2.285131965788884945e-02,1.678768515586853027e+00
8.308515578953217240e-01,-1.035646294403152146e+00,7.006619706934772429e-01,-2.429115711901354280e-02,2.474824266926523020e-02,4.285399615051305525e-03,1.805942296981811523e+00
7.779429569422858792e-01,-9.583458691933932627e-01,7.574977604329525827e-01,-2.513570375421193825e-03,-1.040873421251165210e-04,-1.652106543691678545e-02,1.726399660110473633e+00
7.930020960489725379e-01,-1.031920982250892127e+00,7.786426258614723706e-01,-1.251400928544825313e-02,-3.359901206669273048e-03,-1.438311942311794669e-02,1.818095088005065918e+00
7.743040466279386136e-01,-1.035132641016911270e+00,7.799733655859465431e-01,2.602568783760668761e-03,-1.010501370478083562e-03,-2.533271362500238294e-03,1.812289714813232422e+00
7.507978099327351496e-01,-8.850774181665092000e-01,7.509499858634486325e-01,3.494966131835498119e-02,5.880750997764932868e-03,-1.516116450943240032e-02,1.637313246726989746e+00
7.539179129126770684e-01,-9.125553675522278807e-01,7.775335612640555949e-01,-1.709321122003463339e-02,-1.078211410332452318e-02,-3.860782388624685313e-02,1.680101990699768066e+00
7.617313068864354220e-01,-9.651895699473057588e-01,7.730396359839671883e-01,1.537888414324709539e-02,-1.421540771013355894e-02,-4.929058000111697160e-03,1.733003377914428711e+00
7.842991012391531402e-01,-1.032094834806531081e+00,7.921688630862520064e-01,8.951244888059194452e-03,-9.617205070600310518e-03,-1.164900627219659333e-02,1.820595622062683105e+00
6.072482005940521566e-01,-1.058318590261384751e+00,8.632289726790082218e-01,8.990031145893325956e-03,-3.232850746315308332e-01,-1.548462344700806195e-02,1.892219185829162598e+00
6.994815595480141646e-01,-9.435482811957307536e-01,8.061629185445920998e-01,-8.180212931765458049e-04,1.679577062661210748e-02,4.151213128543324721e-02,1.700654745101928711e+00
7.113656581368715814e-01,-1.060869354830893396e+00,8.752011536373561773e-01,-1.390888738086861962e-02,2.104577333168980088e-03,-2.219632615541537388e-02,1.860130548477172852e+00
6.583504180854878873e-01,-8.435219870973984513e-01,8.112241336747412213e-01,-7.211457472370909338e-02,3.747964861965366601e-02,-4.566904299130727235e-03,1.590115189552307129e+00
7.503116791154591514e-01,-1.016983275241639895e+00,7.587658175067317767e-01,6.271716403928763797e-03,6.491884346563634410e-03,-5.101467610131430776e-03,1.771628141403198242e+00
7.200218261060982172e-01,-1.064057024083766123e+00,8.308966995711184467e-01,-1.784051783934732707e-03,-5.902693458605241805e-02,2.759014361387723130e-02,1.845477104187011719e+00
6.748727009360335760e-01,-9.871193079615060428e-01,8.315240932547947050e-01,7.546578869282802825e-03,3.162949720088942436e-03,3.122482357131584063e-03,1.745663404464721680e+00
8.080424305643829630e-01,-1.024631737751454885e+00,7.984261867407503876e-01,-5.140051252846364327e-02,2.065187661226217455e-03,-4.574257682929860902e-02,1.831769585609436035e+00
7.812256405326022390e-01,-1.018165038966238001e+00,7.261412667690650968e-01,1.835690922513582082e-02,-3.308060652952307668e-02,1.599246366920338905e-02,1.773917675018310547e+00
6.135758101361341588e-01,-9.458651552881219837e-01,9.063789047348568273e-01,-1.555530140973989534e-02,-1.203067944044649562e-01,2.396760469930799345e-02,1.737834692001342773e+00
7.694844915846409394e-01,-1.031155947620946645e+00,7.757223550021670189e-01,2.729805259148677314e-04,2.019034700681046016e-03,6.957540338804426260e-03,1.803811192512512207e+00
7.872842177554544296e-01,-1.030436659891948992e+00,7.324224432843832178e-01,-1.082439514393322135e-03,8.680576301929196492e-02,-1.486962308619931873e-02,1.797405958175659180e+00
6.296678733685011631e-01,-1.022434261212109341e+00,8.933091118409411946e-01,2.209400481884427059e-02,2.615788219957575489e-01,-7.657230901767075881e-02,1.859794378280639648e+00
6.498245969091405172e-01,-1.018918442340991604e+00,7.554159860865689025e-01,1.283467927614219579e-02,9.872826981176457961e-02,-1.431923654122878482e-02,1.732746005058288574e+00
6.605260997576507531e-01,-1.013322463115788663e+00,6.917025234031652925e-01,3.219210566348417596e-02,2.277224631225719942e-01,-1.662511958460249906e-02,1.736213207244873047e+00
6.718592087812590430e-01,-1.077708049954488656e+00,6.998060925175002556e-01,-5.169598791490945776e-03,2.427267194519096838e-01,7.691081449013857131e-03,1.813192725181579590e+00
7.611278312971423432e-01,-9.900993082945119816e-01,6.089060121235089218e-01,1.510819410022308865e-02,1.218941610255300789e-01,-2.265072994613526874e-02,1.694163918495178223e+00
8.970761369748450065e-01,-1.146795601641475537e+00,6.822968912962729116e-01,4.234567779334708765e-02,2.904773655499141016e-01,1.332744909917686627e-02,2.010871410369873047e+00
6.557932418737945079e-01,-1.051130992873223979e+00,6.622443193054131649e-01,2.411108338877470877e-02,3.243286583326341899e-01,-1.118075189021375000e-03,1.800543904304504395e+00
6.296760331758155527e-01,-2.913416708914854936e-01,5.451268048550181877e-01,-7.256946841231706746e-02,-1.715550596052500820e-01,-2.093531546164636992e-01,1.006543278694152832e+00
6.236524378485547304e-01,-2.647949777730672083e-01,7.259538826212532658e-01,-1.174107604113088302e-03,1.210952125668999894e-02,-1.229811978242459219e-01,9.677349925041198730e-01
6.466569834862587740e-01,-3.142655467774401745e-01,7.320677268029737172e-01,-8.842130818749699417e-02,-1.593395888270792218e-02,-1.261487251353591299e-01,1.041488051414489746e+00
7.295092813594890035e-01,-6.705053299793335420e-01,7.168079420435720106e-01,-9.101731594517868673e-02,2.561891807989969197e-02,-1.226737334714754490e-01,1.419291377067565918e+00
7.404712738174585862e-01,-4.646821501511013142e-01,7.376696777563284124e-01,-5.558069421786548253e-02,5.456368568099247834e-02,-6.809144051750995463e-02,1.217018842697143555e+00
6.442182085250924839e-01,-2.269166374109163331e-01,6.204882221502540096e-01,-1.525231006807803713e-01,2.013330878376429212e-02,-3.430723380181640442e-02,9.018336534500122070e-01
7.480302381172604376e-01,-4.690609689471973986e-01,7.142895054118847398e-01,-5.395303916613083256e-02,1.708645563171946533e-02,-4.495908518260250536e-02,1.207085967063903809e+00
6.721052665081563848e-01,-4.530608608804743698e-01,6.845450867153779484e-01,-1.302379942220701844e-02,1.102276883957244678e-02,-8.414766926203444408e-02,1.141168832778930664e+00
7.326003740285144117e-01,-4.552330241327220972e-01,6.100855970077601054e-01,-4.951043848069153902e-02,2.763667986917333046e-04,-6.564320698921455310e-02,1.140487670898437500e+00
7.988580036270283014e-01,-1.016103230193473150e+00,7.855532409650667347e-01,8.811803325853207261e-03,9.688906703025950556e-03,4.826775809517912241e-02,1.810419201850891113e+00
7.204550517112037200e-01,-1.022243744774177454e+00,8.178962939910258134e-01,1.543593423427160743e-02,1.842483432323136394e-04,1.317428943725590211e-02,1.793750286102294922e+00
7.665840842966074042e-01,-1.040671278747635986e+00,8.140890307061063869e-01,-1.998380767831241245e-02,-5.757184410957451488e-03,1.160012186096256483e-02,1.831934332847595215e+00
6.861424525974058053e-01,-1.017721044284121579e+00,8.383030088236507193e-01,-9.658175255280246341e-03,-1.695011992857919925e-02,-1.491963007679157800e-02,1.785321831703186035e+00
6.521475170374108066e-01,-1.024235497995824140e+00,8.322344441277984561e-01,2.570700781203705265e-02,-1.139034297546736262e-02,2.145744554365204559e-02,1.774355888366699219e+00
6.658497249575945354e-01,-1.023765063306239398e+00,8.124706416968846545e-01,2.816579617691139514e-02,-1.741900727082381500e-02,2.071825645962667786e-02,1.768786787986755371e+00
7.497960683393902759e-01,-9.139721574882913036e-01,7.796867203883675046e-01,-4.894211426486914929e-02,-2.649486120558399143e-03,4.803752816011520183e-02,1.683115959167480469e+00
7.700594611722197946e-01,-9.810430277425385981e-01,7.994168357241169254e-01,5.669566661169603977e-02,-5.129378578922412155e-03,-3.295900745300019228e-03,1.768723964691162109e+00
7.426120629365130510e-01,-8.608438062550106684e-01,7.657296744176145253e-01,4.891432443419568843e-02,2.349110354841268955e-03,-1.705282818703422352e-03,1.617367148399353027e+00
8.005648725058278625e-01,-1.031861688631366958e+00,7.958927069534653675e-01,5.565352515620360790e-02,6.326813608070234280e-04,-8.384115898370489428e-02,1.838376641273498535e+00
7.974361987994393886e-01,-1.119796235878105950e+00,8.258194857132575839e-01,-2.213915358537759531e-02,-2.721202504907641560e-03,-3.219139449425539173e-02,1.932771205902099609e+00
7.418909505592670151e-01,-8.677965809647878448e-01,7.676341196376108567e-01,1.176002386665661766e-02,2.307872379555382224e-03,-4.301349511090577643e-02,1.624554276466369629e+00
6.781367772202500088e-01,-6.242655827854159956e-01,7.651742725146762902e-01,1.030921779533377075e-01,2.252267313776083746e-02,3.197021454368877136e-02,1.361490845680236816e+00
8.107784719277214558e-01,-1.028922924810486750e+00,5.611138370162681577e-01,-1.831400287187524151e-03,1.856713102993156062e-01,-1.781039431207038018e-02,1.758382320404052734e+00
9.113039437825407596e-01,-1.034935306370524444e+00,4.830495929973718794e-01,-1.303725429687164171e-02,1.280916523765605886e-01,1.071383894370156638e-02,1.785452365875244141e+00
9.548253629775327322e-01,-1.070738393015770118e+00,5.460725884578407907e-01,-2.134548674565962464e-02,2.092447575867675824e-01,-2.362876110500666468e-02,1.891143679618835449e+00
8.263013304151322069e-01,-1.031627295806273770e+00,6.533059812624342211e-01,-3.042611188391566163e-02,1.008583604807140044e-01,6.320926231902757042e-02,1.790445208549499512e+00
9.178198136759923020e-01,-1.026722060862011565e+00,5.307972666610312196e-01,-1.095432616322316102e-02,8.270948588196165574e-02,-1.932275931929201569e-03,1.788670420646667480e+00
7.747706053030259943e-01,-1.015783644582811895e+00,7.786719750350323821e-01,4.813436886856769376e-03,8.690510852723664498e-05,2.655608127968688437e-03,1.792533397674560547e+00
6.649208189936521851e-01,-1.164045961054589462e+00,8.126083323011390469e-01,3.591637152295334978e-02,1.699957259335190263e-01,-4.520596511965158798e-02,1.932289600372314453e+00
8.070528501857696657e-01,-1.023652912860434805e+00,5.393791852963429889e-01,-1.719980343355730643e-03,1.671755674450455809e-01,-2.718450299590423076e-03,1.736944198608398438e+00
7.933023304573106893e-01,-1.033802394322642648e+00,5.409259035714740760e-01,-1.442282441943902246e-02,2.497128981629029021e-01,1.198493565146907872e-02,1.768901348114013672e+00
9.307469241428887319e-01,-1.025303609337583133e+00,3.953587188861180102e-01,-2.985605231225424427e-02,-1.453890337346240014e-01,1.186501475375195507e-02,1.769756555557250977e+00
9.106632740930151737e-01,-1.063586516264185766e+00,5.910046077161252853e-01,-3.293174561222839830e-02,-6.912617723669811642e-02,-5.791340750330786769e-02,1.842934727668762207e+00
7.425472790353802033e-01,-1.009685618616948721e+00,6.153156337286955768e-01,-3.514107675470871765e-03,-2.210770872244280649e-01,-2.082100052888344321e-02,1.735376477241516113e+00
6.341128378679801170e-01,-1.019672470088943239e+00,6.832385653791184232e-01,3.335546227810023273e-02,-2.500281166483768747e-01,2.551773059909293734e-02,1.735366225242614746e+00
7.505135219691210224e-01,-1.029106723380034394e+00,7.756821575818096948e-01,1.784510431010908130e-02,-2.036714338343565550e-02,2.231051743161199807e-02,1.793367028236389160e+00
7.438468091247842917e-01,-1.026470848804600822e+00,7.763225640573816477e-01,1.721801891852191291e-02,-1.152472336984765484e-02,1.924573269914899715e-02,1.787448048591613770e+00
7.479276157395280400e-01,-1.040638681962927858e+00,7.766420667646938281e-01,3.314247159631078521e-02,-3.948370815105844978e-02,1.343286713888902813e-02,1.805454254150390625e+00
6.266376186695439277e-01,-1.034385852668981753e+00,8.696143119372278241e-01,2.261168415440712592e-02,-5.722191638048529372e-02,2.176649416280745930e-02,1.798445105552673340e+00
6.544207282466705244e-01,-1.213636639630149672e+00,1.007966764261043258e+00,8.881760131825783625e-03,-1.248171863104664270e-01,1.918461937860653499e-02,2.079220056533813477e+00
5.335560068320757132e-01,-1.213867978626057775e+00,1.015660789744305736e+00,-6.671040515796360093e-02,-1.967558091584237778e-01,-4.513015140613924753e-02,2.064934968948364258e+00
4.724934490880420834e-01,-1.089372442087652271e+00,1.004893690495503700e+00,5.197551584402826386e-03,-2.505530960284503839e-01,-4.742884159568391822e-02,1.936381459236145020e+00
7.434752904018844255e-01,-1.022696373592576702e+00,7.109119749173520297e-01,-3.022133978500632021e-02,-1.389882007797285102e-01,-3.598474793387790999e-02,1.768470525741577148e+00
7.255834804954883754e-01,-1.049643971835108047e+00,7.191110382656874522e-01,1.920202942217761038e-03,-1.757400495273627183e-01,-2.504528718004032754e-03,1.797962188720703125e+00
5.902807226630124582e-01,-1.007114070086634783e+00,8.036710064815739685e-01,2.391253408177424628e-02,-1.359944738104049977e-01,2.374634698152077936e-02,1.731174349784851074e+00
7.099036564373610858e-01,-1.188912395538976208e+00,7.638538426695697936e-01,2.699821168593166676e-02,-2.870141756884789785e-01,2.080266861178823451e-02,1.990344405174255371e+00
4.990000315124892838e-01,-9.959229098292194937e-01,9.291764333034839840e-01,-4.281683446383396235e-02,-2.057706903454667724e-01,-8.339252120804570290e-02,1.793408632278442383e+00
6.693034932492804012e-01,-1.026125146734746529e+00,7.178029104299797902e-01,-7.605547413818219103e-03,2.181017075113519388e-01,-3.443115601893956615e-03,1.761241555213928223e+00
7.203309677464866390e-01,-1.224289160384480324e+00,7.373269717524146838e-01,9.525406843383887184e-03,2.229407472276834778e-01,9.177865646603063088e-02,1.997382521629333496e+00
8.363091471220992501e-01,-1.034420219208730840e+00,6.517347106637628729e-01,-4.546896074012194734e-03,1.197490388498154285e-01,4.368538545621727942e-02,1.799225926399230957e+00
7.758875122187811613e-01,-9.550388227130639507e-01,7.736003295927156298e-01,-3.931953196556660021e-03,-4.269231125179272397e-03,1.678178815526699258e-02,1.730057239532470703e+00
6.521126700744811489e-01,-1.029304281950055744e+00,6.369779597203407695e-01,-3.499369049808837180e-03,3.006472376205755470e-01,-3.188209067764310014e-04,1.753039479255676270e+00
8.942205677186252366e-01,-1.124503073351176941e+00,5.559537099443113695e-01,-2.536600689525946722e-02,2.829630051713992178e-01,3.698157632479404100e-02,1.937276363372802734e+00
7.744668253336998154e-01,-1.035374688694499667e+00,7.836263309776528851e-01,2.438378512637335085e-03,2.524205048528325741e-03,4.988991293914979072e-03,1.814469337463378906e+00
7.664824169570730872e-01,-9.999698800524300379e-01,7.804907059444979867e-01,-2.211276679744208704e-03,5.805140022028573710e-03,7.309429036761379631e-03,1.773575782775878906e+00
7.718107385594139558e-01,-9.971508597012266328e-01,7.812528991806699796e-01,-3.474384813735155453e-02,8.370925820266189588e-03,-3.932674285257604929e-02,1.776087999343872070e+00
7.853163314835915898e-01,-1.008899374022361295e+00,7.742841537209146363e-01,-5.761325647675626972e-03,8.393031774750411844e-03,1.915816613175018446e-03,1.788815140724182129e+00
7.087632077057929303e-01,-1.011307382564383239e+00,8.003322641499358570e-01,2.457085665344078962e-02,-2.730585324902355671e-02,2.934618281633563988e-02,1.769509673118591309e+00
8.656593132795845635e-01,-1.071238071988648954e+00,7.237785534293619261e-01,-9.703048859820291930e-03,3.150307126868871939e-03,1.261159888497212630e-03,1.870082974433898926e+00
9.470185023107154931e-01,-1.114277372531921717e+00,6.778632688307395515e-01,-1.015416652715385309e-01,-9.238555047230412320e-02,-5.210184905838073643e-02,1.957359910011291504e+00
8.615864804472475047e-01,-1.059431585434574608e+00,5.958526088935469645e-01,1.946314993111651973e-02,-1.167114047186237069e-01,7.600928844761063730e-02,1.819279670715332031e+00
8.642548079341670908e-01,-1.036311886910413094e+00,5.672299445146017360e-01,4.540369366005408969e-02,-8.884663929957944961e-02,7.088817758281208692e-02,1.783480644226074219e+00
9.595260784439715307e-01,-1.089480410251953746e+00,4.656254410906563446e-01,-2.726753785971967881e-02,-3.177649083064555957e-01,-1.330881544755211331e-02,1.932885289192199707e+00
8.062051696375041043e-01,-1.021725191770393559e+00,6.336571785898266196e-01,2.273043740974202420e-02,-1.579940583431624357e-01,2.903854006345306035e-02,1.770497798919677734e+00
7.350110179793065690e-01,-9.930416169054288034e-01,6.807860913882080034e-01,2.976359654443514954e-02,-1.097394905415393362e-01,1.100209277585366754e-02,1.713053345680236816e+00
8.266192091994433166e-01,-1.095491097575266526e+00,6.501989218644693702e-01,6.597469788261039678e-03,-1.880613642253004536e-01,-4.394098187594652413e-03,1.868909478187561035e+00
8.099365613562210520e-01,-1.012987956408955226e+00,6.492485808556830440e-01,-7.431313609530965092e-02,-1.387219796676779637e-01,-3.831134230898376736e-02,1.770495533943176270e+00
8.955795696817866469e-01,-1.053625762080410810e+00,6.315309944559827082e-01,2.744693583270831072e-02,-1.571433622823729115e-01,4.507709561105967266e-02,1.853881359100341797e+00
7.805594964922648593e-01,-1.065663293082721896e+00,7.094859741208896509e-01,2.267675314901976269e-02,-1.946340319697280052e-01,4.732450256589230964e-02,1.845069408416748047e+00
7.863139012988146215e-01,-1.027892172323341402e+00,7.853755155263962839e-01,3.245254591699320550e-03,1.276906089841665926e-02,3.419477645535940434e-03,1.813890337944030762e+00
8.083062731241710264e-01,-1.189766810715487733e+00,7.848882954872581363e-01,-6.859630737310290494e-02,-2.288004747708433650e-01,4.883486981466751871e-03,2.029110670089721680e+00
8.141457892253027850e-01,-9.878669621081354046e-01,6.553619686999048177e-01,-5.142926175570809721e-02,-1.543924826671743689e-01,-6.980687445892092002e-02,1.755105972290039062e+00
6.656052458379986270e-01,-5.928771283225451327e-01,6.935790382854358782e-01,-7.672968621454746840e-02,8.939132838165492548e-03,1.542201435733291451e-02,1.279992341995239258e+00
7.315156018173800678e-01,-6.878418092901701364e-01,7.043158101872699639e-01,-7.067740150234280705e-02,-1.435080870536180331e-02,3.152839810392624870e-02,1.412549138069152832e+00
7.175319319659916317e-01,-4.754520273514691864e-01,7.344977539378471088e-01,-2.082156713818130722e-01,-6.986195715699143778e-03,4.834669307267209365e-02,1.257361650466918945e+00
7.024176066304246291e-01,-6.328852144119642142e-01,6.920432150519555403e-01,9.025745717213375444e-03,-2.766284723080855365e-02,6.041951647583154728e-02,1.335207819938659668e+00
6.684108844869358634e-01,-4.882834279543904477e-01,6.745469136825328338e-01,-7.631082899197916269e-02,-2.350856196931095515e-02,5.006047447160494324e-02,1.171205759048461914e+00
6.332340139423850989e-01,-2.748147454299683656e-01,6.528249535989325558e-01,-6.648408087283880219e-02,-1.225892212960951605e-02,6.652260084336950041e-02,9.325839877128601074e-01
6.653863518547402656e-01,-3.481908379525879838e-01,6.979913960861908739e-01,-5.845506816415294016e-02,2.642015353573833741e-02,-6.379123199033157054e-02,1.042114496231079102e+00
8.127131661609319213e-01,-1.000792614728416741e+00,7.143087271158479190e-01,-6.417593981083550420e-03,2.033711857168856579e-02,9.455764304105246376e-03,1.766822576522827148e+00
8.183649037656081093e-01,-1.019181780271752658e+00,7.143831475365717276e-01,7.017790425708917215e-03,-3.079040323656985836e-02,1.908227577574376013e-02,1.788967013359069824e+00
7.889800873113272939e-01,-1.019216312976269023e+00,7.403344063653714002e-01,9.529857810619596706e-03,2.341097233520782195e-02,-1.669556674469510268e-02,1.785142183303833008e+00
7.551605202235749381e-01,-1.008939905979278517e+00,7.995288460596264857e-01,-4.536849249960797636e-03,6.542984666760062046e-03,-2.015199844302356397e-03,1.786754488945007324e+00
7.833923267317632888e-01,-9.238088047873378450e-01,7.110915977771672392e-01,4.409529823264510956e-02,-3.535931351759385305e-02,-6.416948605230406166e-03,1.675123453140258789e+00
7.565273826883971431e-01,-9.379180184986273261e-01,7.787896854987488293e-01,-3.393988915080649836e-03,7.365764193320781597e-03,3.323673145371334320e-02,1.706714510917663574e+00
7.796856291400622307e-01,-1.037566424475968585e+00,7.874664032765585908e-01,4.740361995771355356e-03,-9.992978327713512160e-03,-9.628924578355919223e-03,1.821331977844238281e+00
7.287220707058913449e-01,-8.069698869353388870e-01,7.461643312821171214e-01,1.122054771886854064e-03,2.264937936424386671e-03,7.190130365654871791e-02,1.549505949020385742e+00
7.491742616618464190e-01,-7.954523504467201356e-01,6.713307454359971338e-01,3.413127842260204464e-02,-4.599485887339067880e-02,1.211373212519830239e-01,1.524977326393127441e+00
7.749976668769807953e-01,-9.748730934852797292e-01,7.577202527662616482e-01,3.632511519419690579e-03,-5.454289347919756559e-03,-5.349339908448750300e-04,1.741333603858947754e+00
7.678273761421466892e-01,-1.003892206299024981e+00,7.806728289674561561e-01,2.596166428887715719e-04,1.296868578734178701e-03,-7.861526982990387630e-03,1.778230667114257812e+00
7.099866904680366408e-01,-1.011930287852197630e+00,7.748001777523245703e-01,1.026139250864967212e-02,6.731653959278036115e-03,-1.899322224828873390e-02,1.755658388137817383e+00
6.973309588055449648e-01,-9.894559796148744146e-01,7.876573235469542800e-01,-3.125198080213737600e-02,-2.914805324352457219e-02,-3.326460720826988210e-02,1.736251354217529297e+00
7.253428112536771666e-01,-7.965528325481823213e-01,7.317733021119109393e-01,6.302185518682312804e-02,1.400154092710022193e-03,5.163753659021093866e-03,1.529050469398498535e+00
7.964359510145465615e-01,-1.020779555216935641e+00,7.802752671368691217e-01,2.153468463664496430e-02,1.453454177275509580e-02,-9.573408861252531363e-03,1.809824824333190918e+00
7.047595241510795638e-01,-6.446550396396686367e-01,7.446326397377869277e-01,2.003176054012506813e-01,1.295940567548571620e-02,-9.520591782947365744e-02,1.422811508178710938e+00
6.568926297806738646e-01,-4.799395879741801263e-01,8.132374943193584338e-01,3.604897648369657231e-02,2.934746981839175817e-02,-7.505413159335946882e-02,1.232051491737365723e+00
6.622502291436772603e-01,-1.006986775877065865e+00,8.823064439346332000e-01,3.828784041764064783e-02,9.122646670950130404e-03,1.270432281781519804e-02,1.790875434875488281e+00
7.625084627515801294e-01,-9.954465956499870538e-01,7.884050716463024688e-01,2.440201949486613120e-02,1.992411798205689401e-03,2.202877082179994367e-02,1.771963834762573242e+00
7.617201896203371625e-01,-9.670415991153213930e-01,7.617316964638876087e-01,-5.495583319475975254e-03,6.245648837419545511e-03,1.667727780226629930e-02,1.729068875312805176e+00
6.747710941886342351e-01,-9.455245884964755820e-01,7.984555762917047161e-01,7.402605908949114362e-03,6.743038498662457490e-03,2.260316135251240824e-03,1.685638546943664551e+00
7.557006392500690284e-01,-1.269258713132326299e+00,9.443436407245340281e-01,4.681651802254226113e-02,5.671375055795635674e-04,5.924515788877549212e-03,2.127139568328857422e+00
7.318749202411289900e-01,-9.994092855710698942e-01,7.394725878013672649e-01,1.367472181888215645e-03,2.761117322927336779e-03,-1.260743789830981584e-04,1.735103726387023926e+00
8.800689882724335167e-01,-1.002895662514342145e+00,5.432521052531766870e-01,1.842375518644513016e-02,-8.268715876576368529e-02,1.521680989963689404e-02,1.745569109916687012e+00
7.216293736747343424e-01,-1.006395344089356492e+00,7.481343803491390387e-01,2.604684062332555256e-02,4.973558912086652184e-02,-2.780952996298866053e-02,1.744806408882141113e+00
8.123831539545084413e-01,-1.020342990210886258e+00,6.763856945869841653e-01,1.788395036555793377e-02,-5.719445038545369064e-02,4.335133139134637187e-02,1.773286581039428711e+00
7.965458809056018552e-01,-1.030899452756278700e+00,6.259102819147195351e-01,-1.967628320599019293e-02,-3.143001191355707657e-01,1.840931504357450413e-02,1.831768989562988281e+00
8.929880176730167207e-01,-1.050912607290577672e+00,4.417807764541517579e-01,4.581047778257500008e-02,-1.868001096772632930e-01,3.962874890819019502e-02,1.794693708419799805e+00
6.609662744847391025e-01,-1.193196881318945746e+00,7.814781135917727717e-01,9.736240852475922165e-05,-2.337881870614691993e-01,-2.164772306442289129e-02,1.959915637969970703e+00
7.430568330994705706e-01,-1.009250501586340221e+00,7.278487243581274191e-01,8.746823605761381085e-03,-1.171314543432456501e-01,1.246042058280701602e-02,1.756706476211547852e+00
7.704430297623549029e-01,-1.025307481800540987e+00,6.634007069139878920e-01,9.667001804980401500e-03,-1.209827346170653656e-01,3.721388944401698984e-02,1.758494257926940918e+00
1.313946186826379758e+00,-9.358046607389014504e-01,4.330862948720834993e-01,2.948861436863509794e-02,-1.313717699417228102e-01,3.260137628111842711e-01,2.056408882141113281e+00
9.844535894934373088e-01,-1.125294464348045587e+00,5.650166580059410304e-01,-1.826492503385436159e-02,2.242853763675952128e-01,-8.686493630395514254e-02,1.979041934013366699e+00
9.094675542516389433e-01,-1.060003663640260774e+00,6.864947724018882758e-01,7.836911273965522368e-03,4.879191350445868242e-02,2.428426547610475564e-02,1.870425224304199219e+00
8.403108043104817737e-01,-9.130647863281915466e-01,6.323656215070613262e-01,2.403626554498406592e-02,8.619565426261538432e-02,3.442514235151715452e-02,1.667494773864746094e+00
8.733958336821348034e-01,-1.018252520290162888e+00,7.191212645448141760e-01,1.269625458552190497e-03,1.339380686972775070e-01,-1.646083600347058098e-02,1.834376454353332520e+00
9.281972056421221584e-01,-1.045132900148100674e+00,5.680741661687815913e-01,-5.896208716719661923e-03,3.309159113681921227e-02,-4.755904692455409366e-02,1.822979331016540527e+00
4.986940925532423741e-01,-4.085298992843539034e-01,8.014822926389305602e-01,-2.340496182876354320e-03,9.471954251051977261e-03,6.785010989483217236e-02,1.097054839134216309e+00
3.040449389746842090e-01,-7.354300022362330047e-01,1.238790056611751789e+00,-2.106115121515287902e-01,1.447501732973796584e-01,3.651706012596991902e-02,1.768001914024353027e+00
7.901795194025227342e-01,-8.417615070058196425e-01,8.376821942476926353e-01,-1.776282829694900423e-01,-4.941870046958497104e-02,-7.639902577125229355e-02,1.691892981529235840e+00
7.052998677790862647e-01,-9.430682280310873633e-01,8.859508908145194983e-01,-2.348833786214818142e-01,2.511523708678577941e-03,3.548422273304487062e-02,1.793554663658142090e+00
6.761401888312761344e-01,-1.007064765376151749e+00,8.457390777119597747e-01,9.077971689936481861e-03,4.785496490161679495e-02,9.093710582395672995e-03,1.776169419288635254e+00
7.194633908058037930e-01,-1.059299582435909937e+00,8.327611023083101305e-01,1.193128432719781779e-02,2.515943765051253250e-02,-1.373266393076809713e-02,1.838819146156311035e+00
6.410213048655448720e-01,-8.675084949286696601e-01,8.791210945294437584e-01,-6.982297093910404262e-02,-4.645974334972814875e-03,-1.453581225571703040e-03,1.645062685012817383e+00
8.111514117001684676e-01,-1.043540582257201699e+00,6.661694061386915777e-01,-3.070950947777776469e-02,-5.982496971215655462e-02,-4.498982197977191566e-02,1.792105913162231445e+00
9.273185718588849991e-01,-1.045559180088689422e+00,4.760011576033545411e-01,-5.957061553273226319e-03,-1.042523449873722918e-01,-6.111710498910729455e-02,1.802625298500061035e+00
9.212702591886585690e-01,-1.002527636154317614e+00,4.044356496746355223e-01,-4.322527436150463455e-03,-6.456932153146852094e-02,-2.430229383052862069e-02,1.728631377220153809e+00
8.231803115647390312e-01,-1.018797680966608610e+00,7.173303255711788173e-01,-3.002903832382145324e-02,-1.630045242415459686e-02,-2.674698256742790575e-02,1.792975783348083496e+00
7.660502528573019942e-01,-1.054862015347193038e+00,7.751921527238984089e-01,-4.276918785806705509e-02,-8.835290386378860661e-02,-9.714396360690179255e-03,1.833477854728698730e+00
8.038692432153996537e-01,-9.230407053528628669e-01,6.393145776380479983e-01,-3.545870446947778365e-02,-1.204455597029799735e-01,-7.838044899835729107e-03,1.665113449096679688e+00
9.916138755719472453e-01,-1.099906543285479099e+00,4.647892009464354990e-01,-4.305374317404786488e-02,-2.524345177718030353e-01,-4.515606960573162465e-02,1.937262296676635742e+00
2.906775894742503197e-01,-1.712572289695049710e+00,1.401530574074580260e+00,3.244405106454911758e-01,1.809653372179662045e-01,1.008547816584493273e-01,2.813692569732666016e+00
7.051944637633718038e-01,-5.368765563225192938e-01,7.557816788435376409e-01,-6.319681850593465711e-02,-3.656270789931828635e-02,-1.135835049232352401e-01,1.289506912231445312e+00
2.537800448862410074e-01,-8.403194744442452624e-01,1.054266064246738965e+00,2.715573647277098601e-01,5.189033178705848744e-03,9.559181004779856994e-02,1.721152901649475098e+00
4.560855265949282922e-01,-1.140329457296688220e+00,1.044921640011037267e+00,6.692874072464206209e-03,1.104644982838873524e-01,-1.013983526615682973e-01,1.975571274757385254e+00
2.164346102834261154e-01,-9.461984334810951136e-01,1.141402298016202854e+00,3.068948621197714957e-02,-9.396645197001275707e-02,-3.080104589321628825e-02,1.820670127868652344e+00
4.940137751844972391e-01,-1.219480797427934027e+00,1.154757676874826888e+00,-7.438730255897263617e-03,-4.263782551264635318e-02,4.051837550326028992e-02,2.124940633773803711e+00
5.418099281821642244e-01,-1.252873282493238705e+00,1.041618686112602887e+00,-3.030767773129188890e-03,-4.735173620642196823e-02,-3.403430743846001805e-02,2.092349052429199219e+00
6.417390632005419704e-01,-2.551087799659573219e-01,6.466752846781707031e-01,-1.566334050776601594e-01,1.927488820492912272e-02,-5.893324142174328345e-02,9.454752802848815918e-01
7.522630022236449499e-01,-7.331728376643891210e-01,6.827252637055181150e-01,1.212592088559361764e-02,-1.202117375713564543e-02,6.356836219472797311e-02,1.456385493278503418e+00
9.629643166117084485e-01,-1.047079410685222145e+00,5.343572343843017158e-01,-4.039990558350790156e-02,-1.034905050263169035e-01,-8.378522998739602878e-02,1.849472403526306152e+00
8.323148507118912631e-01,-1.052711464039969069e+00,7.282245138430937237e-01,1.322455312001234902e-02,-2.496395961455021711e-02,-2.152361666148576436e-02,1.836227178573608398e+00
3.649454647946920871e-01,-1.009471907071140206e+00,9.384979027116973072e-01,3.975312654630415443e-02,1.372203431407479912e-01,-1.606085036842722080e-02,1.751653194427490234e+00
3.250477836985849467e-01,-1.016786504479876507e+00,1.007009784883487136e+00,-2.619803286309256574e-02,1.800605866760205190e-02,-7.374767806021336435e-03,1.784339189529418945e+00
2.792233007246792131e-01,-1.016415831324073649e+00,1.020545421434883915e+00,2.430299104196345650e-02,2.303147685271609429e-02,2.441506439285007972e-04,1.786641716957092285e+00
3.067838080356747321e-01,-1.362686904138266319e+00,1.293142667859938033e+00,-5.059980864550153723e-02,2.080058680561484158e-02,-4.731471497250712421e-02,2.328610897064208984e+00
2.792932183777980804e-01,-1.067348925836829387e+00,1.012433770979481729e+00,-1.147161600417875675e-02,6.591697675259293454e-02,1.878176729493532399e-02,1.831039667129516602e+00
2.531107235666006927e-01,-1.074741990390849722e+00,1.053342489409230920e+00,-5.490141589763974234e-02,1.236702903831811140e-01,3.640656503743761475e-03,1.876464486122131348e+00
2.927026936301910798e-01,-1.259374201458721254e+00,1.260234010082958545e+00,-3.570477485504141429e-02,2.393899026032068889e-02,8.839534582167723337e-03,2.202843666076660156e+00
6.866542028782420815e-01,-1.279761415831213833e+00,9.597778732749242536e-01,3.906624368718961127e-02,2.867076898237102545e-01,-2.172995299834071595e-02,2.175100088119506836e+00
2.423945370061552362e-01,-1.106236991304632156e+00,1.211145283029214870e+00,-5.509735670389146953e-04,9.865578716508843424e-03,1.324583813928064541e-04,2.015952825546264648e+00
7.801881144025215598e-01,-2.411383176217486435e-01,1.028141670048916989e+00,6.166176793423894936e-02,9.691044546647473168e-02,-4.193300039036947091e-02,1.184350728988647461e+00
6.300442497861845625e-01,-5.827353179467176236e-02,7.271556511472625495e-01,9.961996660557928540e-02,8.592662458705699335e-03,-3.076989913582042074e-02,7.634721994400024414e-01
6.582787148007718248e-01,-2.170972491460663734e-01,6.449393004884698133e-01,8.565162932730155387e-02,2.507213065775347471e-02,7.141015756864201036e-02,8.910536766052246094e-01
6.621787929364182368e-01,-3.193707857710004205e-02,6.940084418485858997e-01,7.960033979430554407e-02,7.916410951610662258e-03,3.230550046705416012e-02,7.261067628860473633e-01
5.880625122104978786e-01,-1.297079573937524044e-01,8.089231617173188171e-01,-2.953494930475287009e-02,4.513399002237260954e-02,-2.213846885311869517e-02,8.559787273406982422e-01
7.275422599921171907e-01,-2.237531852719775172e-01,6.124550016977340361e-01,1.141682098343373836e-02,-2.809063265014558400e-02,1.079508884096316845e-01,9.200242161750793457e-01
8.082887267472648185e-01,9.697814012227357061e-02,1.133764181139556904e+00,6.161546865925080635e-02,5.189122646828806668e-02,-5.212922561057943549e-02,9.332904219627380371e-01
1.042462883031281207e+00,3.627598314736579788e-03,8.273752601210895286e-01,1.509798287826023128e-02,-9.395494027099431100e-02,6.883997347762851882e-02,9.712796211242675781e-01
8.950480686667761088e-01,-1.025600661885139653e+00,5.755849300404164426e-01,4.381515490208463121e-03,-2.625491312481314371e-02,-6.912775462621249811e-02,1.787129878997802734e+00
9.228783728522823582e-01,-1.036309709095907028e+00,5.841214576258783042e-01,-1.817055712163125275e-03,-4.573076611606717579e-02,-9.342943578648005287e-02,1.822623610496520996e+00
9.046344476843735105e-01,-1.052967827599029738e+00,5.804888166865632693e-01,1.121066716707943590e-02,-2.331493714846528953e-02,-7.222111072624075312e-02,1.822192192077636719e+00
9.115646871220268732e-01,-1.026993833038677195e+00,5.531761468170111051e-01,1.155295623495555292e-03,3.987806548488408154e-02,-2.462600883553923981e-02,1.788375973701477051e+00
9.662352628302359747e-01,-1.066174469080049647e+00,4.530877547308164721e-01,-3.202462128978109113e-02,9.494878458111054298e-03,-6.770967045212795965e-02,1.835261464118957520e+00
9.269498660227455389e-01,-1.019978558426919424e+00,5.409895910915720751e-01,3.976020239000385703e-02,8.566650025067777674e-02,-3.527547127337900962e-02,1.794031977653503418e+00
7.807584405599893307e-01,-1.037882072419345825e+00,7.782323786876188532e-01,-2.517240057517500327e-04,1.790350399956745905e-03,-2.340320309866342988e-03,1.817386031150817871e+00
7.453935788601887547e-01,-8.005416235726077190e-01,7.591877136584859187e-01,4.223692862393880337e-02,6.123634703401106653e-03,1.236220070552175414e-02,1.554784059524536133e+00
7.708401282115457942e-01,-1.030384956201338520e+00,7.916095796743791713e-01,5.131196936174768110e-03,5.715188078239349413e-04,-8.256214269118759830e-04,1.811721682548522949e+00
7.541055197911752384e-01,-9.576792026780129863e-01,7.822440824973593276e-01,1.248930721354941757e-02,-2.558799423943720897e-03,-1.490098876430443874e-03,1.726169228553771973e+00
7.802150951324884343e-01,-9.760457614797701797e-01,7.803305669252766918e-01,2.751190950201070750e-03,-2.599762448384228264e-02,-2.555003683525870154e-03,1.756907820701599121e+00
7.390469438865578944e-01,-8.695558703397607836e-01,7.665659972773191111e-01,6.782975330572126038e-02,-1.184376531721957051e-03,-4.629982001985669267e-04,1.626786708831787109e+00
7.948373898014333694e-01,-1.046660637365982360e+00,8.073080328469686151e-01,5.339146715378312313e-02,-5.007335389723322969e-03,-3.926044841966244009e-02,1.851347208023071289e+00
7.370403163294589888e-01,-8.275962522033427637e-01,7.389822034318042077e-01,5.846899840091678013e-02,6.145199759467993329e-03,-6.516209431595553804e-03,1.568957090377807617e+00
7.333018975628166070e-01,-8.327697492976933180e-01,7.568567675738923084e-01,6.180043180140078890e-02,1.075854683544420938e-03,-6.484552548590815334e-03,1.581648349761962891e+00
7.601741621565509810e-01,-1.232732404337788967e+00,8.585021186237266066e-01,2.795768429987154774e-02,-2.817491864248216626e-01,9.824095950563577206e-02,2.108731746673583984e+00
7.113734734559649109e-01,-1.021381032255023635e+00,8.037824135553286453e-01,-2.437696041304683592e-02,-3.767034672857250827e-02,-9.467304501537376904e-03,1.782528638839721680e+00
7.447687989533164910e-01,-8.846313817398983037e-01,7.293532839494356601e-01,7.612051184845142204e-02,-8.666986266740933642e-02,7.033812523372512393e-02,1.638543486595153809e+00
6.105196514568569377e-01,-9.783517031370321249e-01,6.938394949182644655e-01,-6.026188282370370172e-03,-1.660498735817156346e-01,-6.903489785937440629e-03,1.657349824905395508e+00
8.056288554076458386e-01,-1.050708038275499412e+00,8.156914007386796284e-01,4.514565406961609274e-03,-2.615783830750637376e-02,3.985409050692172162e-02,1.863235473632812500e+00
7.392212791456385101e-01,-7.685753705477706976e-01,7.200544390233213354e-01,9.465629706867315085e-02,-7.805855857431978281e-03,-6.416554556652841537e-03,1.507350087165832520e+00
7.289956974289497627e-01,-5.061933284145488932e-01,7.099570031716917473e-01,1.019151567005039949e-01,1.849496965787433139e-02,-7.130276973037710797e-02,1.244980573654174805e+00
7.102265612562052022e-01,-7.184160434726724054e-01,7.379923315695785524e-01,6.333396685839245976e-02,5.937397345020608078e-03,3.817895848243262058e-02,1.448437213897705078e+00
7.386395389445270521e-01,-7.369313812625950533e-01,7.307642630850514909e-01,6.510340289822649784e-02,1.730302743343778427e-02,2.648050766052634231e-02,1.476979374885559082e+00
7.258221048835393763e-01,-7.981498363948729136e-01,7.379174466976210489e-01,6.513537534361622805e-02,6.523463909441836253e-03,6.001294047154611712e-03,1.534285902976989746e+00
7.113010734088479614e-01,-5.320986290781144490e-01,7.020218447650399263e-01,1.778342204497435353e-01,1.329110964945552989e-02,5.130480447508384495e-04,1.276713371276855469e+00
6.979175254743491541e-01,-5.849142125357783550e-01,6.991631911911894148e-01,7.515015152582606162e-02,8.589264591800612955e-03,-5.793834225709902641e-02,1.294021368026733398e+00
7.055875751396888385e-01,-2.128850072261279647e-01,6.721119524379066679e-01,6.478721155213938709e-02,-1.665959087823154494e-02,-2.243783303127961509e-02,9.104400873184204102e-01
7.007732815914338165e-01,-6.831002753316750553e-01,7.495532815030208074e-01,2.382117529027630645e-02,-1.915785902326092721e-02,-6.949750881828757609e-02,1.415020823478698730e+00
7.133444394391412757e-01,-1.739119564658094808e-01,7.155823281785392842e-01,-5.376940904910305907e-02,-1.085399382901342316e-02,-6.237930337314982060e-02,8.999527096748352051e-01
6.972073128848809143e-01,-3.112849717750739709e-01,6.795091029907286417e-01,9.227082459287480609e-02,-2.332625380076272514e-02,-5.434496853293067919e-02,1.017622470855712891e+00
8.106742153844733734e-01,-6.480711353172999845e-01,7.231368985569620600e-01,3.777025458589982482e-02,5.665323505193581299e-02,-1.806569199980125884e-01,1.455927729606628418e+00
7.747543722420364709e-01,-6.800029042573858540e-01,7.155304298365479099e-01,8.080347667962041458e-02,-3.620916622834151333e-02,-1.460755014784974049e-01,1.456435680389404297e+00
7.579011930696375465e-01,-1.022284412003136911e+00,7.540347135635221409e-01,5.688048882849898458e-03,7.268434433835256614e-03,-5.589608971094779492e-03,1.778353691101074219e+00
7.051472761724449922e-01,-2.370857549301077505e-01,6.496843194272968747e-01,-2.758068264377724552e-02,3.111316280956736777e-02,-1.806188455143689919e-01,9.703998565673828125e-01
7.843601399394883877e-01,-1.003380722969908767e+00,7.812794856375038233e-01,4.234685548806713801e-03,1.898523693223010123e-02,1.238193717817629227e-02,1.786648988723754883e+00
7.143961168110657400e-01,-1.084402168842695691e+00,8.684895319727865548e-01,1.190602654309512731e-01,-4.871705488521160116e-02,3.099911788353056780e-02,1.894500494003295898e+00
7.708991437496345300e-01,-8.685078575680068580e-01,7.298806726735953543e-01,1.583899663947770098e-02,-4.428406189283953798e-02,1.175300586038178219e-01,1.634064793586730957e+00
7.267074786080661708e-01,-9.998928293911458764e-01,7.515666685656292589e-01,-2.403816778827438244e-02,-5.291432086101314353e-02,-1.506444826159490831e-02,1.742269396781921387e+00
6.744121085076614230e-01,-9.957675598404112094e-01,7.882412199624270199e-01,2.180444012763229841e-02,1.334387137957090963e-02,-2.359121079176156738e-02,1.730954170227050781e+00
6.652457382508301098e-01,-1.012591929716808448e+00,8.262898692141218415e-01,3.623293125541890425e-02,3.493618653939741664e-02,-2.659512230800249732e-02,1.766635894775390625e+00
6.657934554883295775e-01,-1.007333009218831288e+00,7.921353293074008262e-01,3.165976736401587832e-02,5.424863287296437242e-02,-2.181982504041855842e-02,1.743549346923828125e+00
7.383204609134297325e-01,-1.045736712255916911e+00,8.158279699765451642e-01,8.285900836176621556e-03,3.392194161497436022e-02,-1.265865429489346043e-02,1.825180530548095703e+00
6.296723757084135009e-01,-1.009055541792074351e+00,8.128365944236319862e-01,2.383175372659472255e-02,9.381470953702771010e-02,-1.934695973729313664e-02,1.745956778526306152e+00
9.651903357944537909e-01,-1.001568289616485030e+00,3.747696009792326199e-01,-7.445521354748729607e-03,-2.722643078267101072e-02,1.999714034397455896e-03,1.748691797256469727e+00
1.070685015470639323e+00,-1.128369809120899792e+00,3.904517824137347382e-01,1.557180504361158416e-02,-2.528769092056386975e-02,-8.919110854559975793e-03,1.950788021087646484e+00
9.298883311238993477e-01,-1.017074837416056754e+00,5.154400548760580403e-01,-8.539881045014238031e-03,-6.449852760808281668e-03,2.684949435700719617e-02,1.777082920074462891e+00
9.447754986160086244e-01,-1.012846771803205259e+00,4.279451787948033714e-01,-5.682718072890302966e-03,3.047360337913870756e-03,3.927090179974664780e-02,1.758519649505615234e+00
1.097107225377862427e+00,-1.070306505974286004e+00,2.782187074782642711e-01,1.256529971093183276e-02,-5.591423842518182530e-02,7.446576174945167617e-03,1.898264884948730469e+00
1.123897046819919865e+00,-1.127662618398575622e+00,2.976700180853845135e-01,1.212794404527760099e-02,-4.224190882107160816e-03,-7.961506162332737668e-02,1.977721691131591797e+00
1.189270229128517986e+00,-1.102513496889789613e+00,2.179624522952587906e-01,-5.658004614888476405e-03,-1.080965195144748536e-01,-1.775515608688528479e-02,2.001444578170776367e+00
9.948805340433074518e-01,-1.047064476191926552e+00,4.048020491674038102e-01,-1.209815985336876914e-03,-6.410866810994518550e-02,1.551121937328121467e-02,1.823699593544006348e+00
9.793031558884944809e-01,-1.056112448281223859e+00,4.114544400290452986e-01,1.824415574965697340e-02,-4.667449536353630857e-02,1.204192633645218349e-02,1.821408748626708984e+00
9.527005895172249161e-01,-1.006738514426596565e+00,4.462604989883783846e-01,-6.045800287651349400e-03,-9.376643896935144690e-03,2.309390190574472142e-03,1.761798501014709473e+00
1.512534081359784288e+00,-1.552803001335381961e+00,9.121779923645906285e-02,1.329661848411992364e-01,5.198608823741421858e-01,-4.122806098678073045e-02,2.815763235092163086e+00
9.098773752594582209e-01,-1.093331852974914531e+00,4.822581758998846224e-01,-6.639599770455388225e-03,2.402651765479010826e-01,2.631880731398267281e-02,1.874696493148803711e+00
8.846963502269092894e-01,-1.016496878855967623e+00,4.992575841727805441e-01,2.317907503453212753e-02,6.920156431853889678e-02,-3.580794574003749731e-02,1.746462225914001465e+00
1.010600488936414854e+00,-1.146070587995745127e+00,4.385056842672975241e-01,8.349989754673781128e-02,1.798463072983700894e-01,-5.226484399639071132e-02,1.967447042465209961e+00
8.939711034208046581e-01,-1.009539639870463024e+00,4.655625185241840658e-01,-1.806676872481294271e-02,7.083266750707815917e-02,2.205352613164670433e-02,1.734617233276367188e+00
8.721587667312067360e-01,-9.935189226650786853e-01,4.592782369298130107e-01,1.824522200133506635e-03,8.895170688507567092e-02,-6.325379648751165533e-03,1.704344153404235840e+00
7.966474124292410863e-01,-1.034943593311470345e+00,7.715145451915146335e-01,-1.339230792629049135e-02,-3.044825461275613761e-04,4.156413897695655953e-03,1.819316983222961426e+00
7.745817140691761971e-01,-9.997745954505565802e-01,7.624529719444192999e-01,-6.633844073622627811e-03,-1.516175955212432837e-03,2.668108780208441021e-03,1.768368482589721680e+00
7.809732129846570503e-01,-1.021873943244687943e+00,7.962359699802989965e-01,-8.821790216969681298e-03,-1.618068273797199086e-02,-1.385808345254762458e-02,1.810967206954956055e+00
8.401297661621427437e-01,-1.924762596428337691e-01,7.966986728389264805e-01,-6.486130887314627003e-02,-1.578510461521065444e-01,5.083050712713262954e-03,1.053927659988403320e+00
7.336562247191342756e-01,-3.143633209708628362e-01,7.262592954016948710e-01,-1.259046407972105874e-01,-1.104995374856738641e-02,-5.767290141902669739e-03,1.067084670066833496e+00
8.247210657943340184e-01,-1.023870286191912671e+00,7.079317131879205860e-01,2.233021785684182955e-02,2.063543878842836327e-02,1.829301874337102563e-02,1.794104576110839844e+00
6.717528462756202634e-01,-4.265424237042239608e-01,6.916720914339757886e-01,-8.742723583492627293e-02,-7.130643227834370171e-03,3.622835095824163132e-02,1.120512008666992188e+00
6.832871169071184081e-01,-5.360525303322265511e-01,7.079814243248763184e-01,-5.486775850750535977e-02,2.261114474968633267e-03,4.400192557497020762e-02,1.237887263298034668e+00
7.111525286736700702e-01,-4.817320188685179638e-01,7.018550677829688000e-01,-1.854369546267234381e-01,-9.824655683851480498e-03,7.174880362848604087e-02,1.237280488014221191e+00
6.680527499549853143e-01,-4.883438531285116957e-01,7.104224870181002904e-01,-1.678153296064454625e-01,4.110568303022507468e-03,9.840956850296683420e-03,1.213619232177734375e+00
4.984990763978101036e-01,-2.087652521102714709e-01,7.573615475421261456e-01,-5.787225264291530336e-02,2.747514410342987573e-02,1.906347744394937607e-02,8.739103674888610840e-01
7.560017527246178926e-01,-6.318537194124234091e-01,8.107816321614447208e-01,-2.479894002892244764e-01,1.186909208193921011e-02,3.529925742166927644e-02,1.481157422065734863e+00
7.596483553837019009e-01,-1.012309515494446588e+00,7.213773868869540751e-01,1.421894713923064525e-02,5.776731434300492497e-03,-9.781606009858176756e-03,1.753419041633605957e+00
6.206351814158174163e-01,-1.062293225944227704e+00,9.192430194258440768e-01,-1.783124226234646982e-03,2.115072199861588523e-02,-1.611265239924621149e-03,1.850759267807006836e+00
6.315510919193603190e-01,-1.087567089089306105e+00,9.284946057026599586e-01,-6.126026959557511614e-02,4.541685229251982148e-02,-1.703927536012751157e-03,1.889835715293884277e+00
7.707934133175509128e-01,-1.021485224504670830e+00,7.429327148205195908e-01,1.110093666605277071e-02,9.759387835798149016e-03,-5.843667152835589976e-03,1.778725028038024902e+00
7.265280248949435027e-01,-1.051539183391996479e+00,8.191104159947262264e-01,6.018515473022299778e-02,1.228332952976155315e-02,3.076618699499455577e-04,1.829216241836547852e+00
7.883577747717022133e-01,-1.015835835447488122e+00,7.534411717717013346e-01,-8.949401951248936449e-03,8.462016162138052272e-03,-5.904060269561268309e-03,1.787147760391235352e+00
7.713027126111746679e-01,-1.010866022142310916e+00,7.245967419617351801e-01,-1.351066293313770914e-02,2.547030803134948951e-02,6.948412172591418752e-03,1.760030508041381836e+00
7.654316449451215032e-01,-1.024347009679899223e+00,7.790114491338058222e-01,-4.094185667746447731e-03,1.887571192984661885e-03,4.437888629473868939e-03,1.796640515327453613e+00
7.688323071194114178e-01,-1.017860969577076169e+00,7.656274494844963474e-01,-1.273229277911153146e-03,1.245536047519590905e-02,2.020595583778536652e-02,1.785567760467529297e+00
7.629832941711975902e-01,-1.027896312566824788e+00,7.743092817137666728e-01,-6.938742688472422648e-03,2.531947439306528325e-03,1.613446345101039042e-02,1.796832203865051270e+00
7.655922708921655273e-01,-1.027167466221973635e+00,7.565463631834725700e-01,-6.007860296790333912e-03,6.150560545801642826e-03,9.047735540537235957e-03,1.788384556770324707e+00
7.947219517264085820e-01,-1.012026649864485206e+00,5.126113299982515414e-01,-1.221338374590288586e-02,-2.317885877598070410e-01,-2.193317864925949448e-02,1.731269001960754395e+00
6.696406745656497961e-01,-9.988739364395461395e-01,7.909990898783388902e-01,1.233167840811291108e-03,-1.202387835096563676e-02,-1.615973302092755734e-02,1.732737421989440918e+00
8.441217811953365402e-01,-1.025849008522752959e+00,6.112984027619621230e-01,-8.608694063846849751e-03,-1.230588388934719390e-01,-6.806723408520246911e-03,1.778037190437316895e+00
8.588596182863875717e-01,-1.011895509251926839e+00,4.751866002205984429e-01,-3.281004213598067570e-02,-2.350273451468286035e-01,-2.732834089221692492e-02,1.760782480239868164e+00
7.668906642563531051e-01,-1.023564764177558262e+00,7.515210776876473098e-01,1.606955662632414406e-02,5.352280172175082409e-03,-1.160449856619626997e-02,1.783174991607666016e+00
8.282212196895316625e-01,-1.155683884466125244e+00,5.499669201465419155e-01,1.861708887579985316e-02,-2.388143283240695691e-01,-8.051952128387339196e-04,1.906151413917541504e+00
8.800291252910475981e-01,-1.046907322616337899e+00,5.712142959487787053e-01,-3.524614013443659946e-03,-8.400955488842423713e-02,-7.869347279252347435e-03,1.798549413681030273e+00
7.468587820457890381e-01,-1.024769854356320620e+00,6.902379621317747960e-01,1.356914648432242833e-02,-1.595493299404611709e-01,3.401491942880969458e-03,1.765932559967041016e+00
7.932420044535677395e-01,-1.030213891847955088e+00,7.842897477121881789e-01,-3.790645459297116221e-04,-1.629641652461853718e-02,4.143508396061439461e-03,1.819229602813720703e+00
7.969931970975152602e-01,-9.315494612089636473e-01,7.771257483043787495e-01,-4.984042808321216544e-02,1.899024537257457471e-02,-4.404972016149483888e-02,1.722866177558898926e+00
6.070478881450720454e-01,-1.052309371197515775e+00,8.527894322406170957e-01,8.734261674397780784e-02,-5.780143024216644054e-02,1.585307127675662439e-02,1.804242610931396484e+00
6.230054407315921416e-01,-1.032545772331954659e+00,8.837673782850676840e-01,-1.630889079918012782e-02,-1.125677802894558925e-02,6.158104179818465855e-03,1.800511956214904785e+00
7.082742259454938294e-01,-1.073822361174360029e+00,9.819207249763189926e-01,-2.049622895632443875e-01,-1.271957080160264139e-02,3.159581905416847247e-02,1.966703891754150391e+00
7.455587450262948224e-01,-8.629521652923437536e-01,7.608444821846396255e-01,2.547875208778118891e-02,-1.506267807954261850e-02,-2.400834328729058512e-02,1.617555499076843262e+00
6.888740134131708936e-01,-1.013085577052635022e+00,8.219444022097269764e-01,-2.652657743033190810e-02,-1.401471206689481816e-02,2.124576037693510014e-02,1.773389101028442383e+00
6.446554094026186732e-01,-1.039028133225187611e+00,8.563255517540042661e-01,-2.386619392138266890e-02,-1.002691557382576898e-01,4.627956768564292500e-02,1.809496045112609863e+00
6.508889778709201490e-01,-9.731464583680107250e-01,8.122349745860548698e-01,8.199751718773046205e-03,-8.068914697607597331e-02,4.870733276824047026e-02,1.718256831169128418e+00
7.879844089462795242e-01,-9.901482398122773976e-01,7.750703353218661995e-01,-9.178231600090076825e-03,1.466329871286287307e-04,-1.070179159114001584e-04,1.771782279014587402e+00
9.283001485869680769e-01,-9.834912223951208787e-01,4.063871800167268566e-01,7.164178376041356903e-04,1.378496137893497203e-02,3.197536097024054978e-03,1.711768984794616699e+00
3.504988114122922216e-01,-1.082431006495456316e+00,1.111638864302343377e+00,8.975180178769831540e-03,4.159043354387714775e-02,-2.276641527006940946e-03,1.930991649627685547e+00
1.820807432567951301e-01,-1.689625887133615612e+00,1.600005860702589766e+00,9.353300213597565138e-02,-2.485882438538684625e-01,3.849002917697978005e-02,2.895481824874877930e+00
1.242164278126374477e-01,-1.182456141247471670e+00,1.455904389424570011e+00,-1.391008560585036413e-01,-1.838443697224506068e-01,-1.300750752245063424e-01,2.330465316772460938e+00
-1.769588650334717739e-02,-1.091897302139170689e+00,1.228784258018768227e+00,2.916083133014587409e-02,7.186814722469450634e-02,-1.106235279134502305e-03,2.016095638275146484e+00
1.166256685594069670e-01,-1.092599198714843789e+00,1.155722084063603550e+00,-1.927240199942293619e-01,-2.874591373184750415e-02,3.857004468879680209e-02,1.979094982147216797e+00
7.629504417638952596e-01,-9.317860487867980490e-01,7.715448887398356215e-01,1.394407497646175855e-03,-1.359966435910445193e-02,-2.244929598564214535e-02,1.699659824371337891e+00
4.118591035995120553e-01,-1.130907019944434877e+00,1.030797482305746859e+00,-9.951961601929898427e-02,1.622986899808107619e-01,1.032930009876939330e-02,1.956308841705322266e+00
2.645354472869227980e-01,-1.208341517280311139e+00,1.057881543183353479e+00,1.624817062352514607e-01,3.595368011725103008e-01,-4.793917599984121036e-02,2.107406377792358398e+00
3.260269455775211545e-01,-1.333185107712258066e+00,1.114869889281820514e+00,-1.178913948449306359e-01,4.752712352463913659e-01,1.231449342637125910e-01,2.334299325942993164e+00
3.854205239368519997e-01,-1.124915046671244534e+00,9.898863036850518160e-01,1.654493964545252632e-02,3.921483907361662524e-01,5.724100088059718566e-03,2.005417346954345703e+00
1.414883156525550689e-01,-1.206714392171513328e+00,1.193663252207283199e+00,-9.352338388880221398e-02,2.535412028227310710e-01,-2.199662490572017876e-02,2.136307239532470703e+00
1.936992523899591645e-01,-1.475733384166227458e+00,1.435643513115539838e+00,1.431739246283770528e-01,2.641360525963254435e-01,6.597128465924444185e-02,2.585851907730102539e+00
7.030732907659502651e-01,-9.884789128101132416e-01,7.088959371701075707e-01,6.937535765931885506e-03,-4.797874222437019387e-02,9.619404381870855919e-03,1.696631908416748047e+00
6.094400655859949500e-01,-1.003794058608911133e+00,7.385027885705760520e-01,2.897510843079210974e-02,-1.447569850769310218e-01,2.821019996671457822e-02,1.701516866683959961e+00
7.042294374746623786e-01,-9.851605415629656193e-01,7.048117769997348514e-01,5.169954343224814931e-03,-4.364495278671494394e-02,4.392225109813749709e-03,1.691412210464477539e+00
7.499245742334450515e-01,-9.498395336160139202e-01,6.936641637716302045e-01,9.303692726539957228e-03,-1.485310004211938539e-01,-1.707979058163903649e-02,1.692351341247558594e+00
7.732670087700976858e-01,-9.833116609130942987e-01,7.596878481920701365e-01,-2.104452254601748423e-02,-6.962408175865268320e-03,2.025831589960779520e-03,1.750253319740295410e+00
7.496004526492331399e-01,-1.019585057691806851e+00,7.531773420651763917e-01,-1.394180167952831749e-02,-1.998805982788750407e-02,-1.888116036504700751e-02,1.771781444549560547e+00
7.525862319231346742e-01,-9.039198780685612222e-01,7.775944967686551079e-01,6.744487530739518011e-02,8.711868474049595801e-03,3.043650240524083811e-02,1.674131870269775391e+00
7.586786142388374232e-01,-8.858073563887126634e-01,7.553396808507730764e-01,4.696139443285782256e-02,-2.872488332369802552e-03,4.307027553393493607e-02,1.646529793739318848e+00
7.935645114095012387e-01,-1.062461078049324659e+00,8.008234434084385844e-01,2.693210637441842414e-02,-6.039439236050550813e-04,2.220230958577790181e-02,1.860648393630981445e+00
7.535195379474657340e-01,-8.844209443211437094e-01,7.443035091582562712e-01,4.097237481308085155e-02,8.449580516459262447e-03,4.825926073933568816e-02,1.637093782424926758e+00
7.354132937914872326e-01,-1.048827051821251466e+00,8.073078784515013151e-01,-2.258410834738052569e-02,-1.913482088745617287e-04,-6.599246899793017457e-03,1.821708083152770996e+00
7.025809167171620517e-01,-9.832216918457101773e-01,7.183030613674504794e-01,8.388093164448840941e-03,2.105259504027780920e-02,-2.764545349510439450e-03,1.694179892539978027e+00
6.905648056569424487e-01,-9.808295756817965172e-01,7.167596059021326127e-01,-1.002637163841651200e-03,1.732756941167121201e-02,7.398117957857686024e-04,1.684913277626037598e+00
7.146520212153953944e-01,-9.806199070609927793e-01,7.084090951883982301e-01,-1.965516280703073250e-03,3.670410230829538462e-02,-1.786406589546765938e-03,1.693359136581420898e+00
7.463532947362724324e-01,-9.934466864655557838e-01,6.750968948606097531e-01,9.687214044206176461e-03,7.200458796480627144e-02,-1.050144970907414092e-02,1.710022211074829102e+00
6.377429407530154082e-01,-9.782752081051223625e-01,7.469946336624391225e-01,-2.574878679809329985e-03,3.965271054905045167e-02,5.733249779309296072e-03,1.674765348434448242e+00
6.815623464022138034e-01,-9.759704890989777670e-01,6.730578306042394043e-01,-1.821094696175347286e-03,9.250439371729854421e-02,1.684802604362787030e-03,1.661048054695129395e+00
9.493928590149941504e-01,-1.097746472148895425e+00,4.681361667233185919e-01,2.398202886606205786e-02,2.200262146067322733e-01,-1.537451519257334968e-02,1.893371939659118652e+00
9.263806453707250643e-01,-9.957168898632197118e-01,3.635633946018101970e-01,2.199110544202648176e-02,1.689636349165830886e-01,-5.731215130397489949e-02,1.739650368690490723e+00
7.714460086270170658e-01,-1.019591356162281359e+00,7.351854250580336370e-01,1.672115353285551914e-02,-9.430333085110851905e-04,-3.351007255402886804e-03,1.773431897163391113e+00
7.522608227499478772e-01,-8.516248446271692529e-01,7.517261226707881994e-01,-2.301467214301478395e-02,2.522011091718543221e-02,-2.643774488243763945e-02,1.605361580848693848e+00
1.086034219438851478e+00,-1.246759867009876510e+00,4.802364333040091138e-01,-1.687681308510673509e-02,2.151981090929988016e-01,4.980219314486401816e-02,2.131418228149414062e+00
1.682370554701893672e+00,-2.222701179147849260e+00,2.873792941926398559e-01,-9.268760405737248506e-03,2.590376973572582342e-01,8.054434885678957157e-02,3.459633827209472656e+00
9.623984922303077116e-01,-1.097996003111323393e+00,3.767249792573124645e-01,2.444767969710336802e-02,1.708854952757906942e-01,-7.492834843696019598e-02,1.867555022239685059e+00
9.767286342907588459e-01,-1.049470027985589304e+00,4.704055499218563474e-01,1.543559044228718334e-02,1.569967434361940195e-01,1.649075919896925895e-04,1.846778750419616699e+00
1.142418223308993674e+00,-1.145546946032897528e+00,3.483358034257797442e-01,-9.894055451186611200e-03,1.569272498425468565e-01,-7.261991616474861022e-02,2.034333229064941406e+00
1.041047815849730718e+00,-1.129274184082825760e+00,2.953499337581861894e-01,6.834365540291735194e-03,4.675850504278999953e-02,6.296999880851410214e-02,1.914824604988098145e+00
1.033022345074467108e+00,-1.114509756370436477e+00,3.126017269964612710e-01,-6.974805405019939182e-03,6.128358618682472336e-02,-6.839954182928351112e-02,1.899795293807983398e+00
5.766121252995253244e-01,-1.024406558496302910e+00,7.861446838524002168e-01,1.941459962228712704e-03,1.719273536727264906e-01,1.551929219624389837e-02,1.741275668144226074e+00
7.422155137950550152e-01,-1.022919279196790265e+00,7.039798799833112408e-01,-2.543813084558970913e-02,1.155804462294786616e-01,3.115165108339974093e-02,1.759147763252258301e+00
8.532299728810511796e-01,-1.156298504077679867e+00,6.619873299698552094e-01,1.580493280567034364e-02,2.646256264843450112e-01,-5.577440414546389058e-02,1.977532029151916504e+00
7.330096735830488042e-01,-1.012830067057239436e+00,7.732082772107622404e-01,-7.946002484787113851e-03,3.612790758071503239e-02,1.184318031517266750e-02,1.767562866210937500e+00
8.326139799273930553e-01,-1.035845468259293467e+00,7.694584595098011848e-01,-1.335992534471321276e-02,7.010295951808766940e-03,-1.823461888462046820e-02,1.838152885437011719e+00
7.009518591409833466e-01,-1.030561021911510888e+00,7.912692587499972063e-01,-2.691467274925208805e-02,5.529727567474841676e-02,3.727118082635097474e-02,1.782748937606811523e+00
8.047707177895453423e-01,-1.042465337111677659e+00,7.873073316654064513e-01,-2.817263032754961649e-02,4.535447584302348435e-03,-1.993731118815493183e-02,1.839554905891418457e+00
7.610517936400864603e-01,-9.718819491208406935e-01,7.169459735881817952e-01,9.689347109603294386e-03,-7.868012797577611517e-02,-4.649420370774442340e-02,1.718694448471069336e+00
8.105414467172139537e-01,-1.025251739352912361e+00,6.891909816398499311e-01,1.880360730611961573e-02,-4.487737609740588551e-02,1.914884132924926435e-04,1.780222177505493164e+00
9.951039491154710648e-01,-1.254670721846707915e+00,5.969091726261599451e-01,-4.798631021725602991e-02,-2.072555849979694775e-01,7.947469771891284285e-02,2.116345405578613281e+00
8.941818042916740428e-01,-1.034304681768039913e+00,5.408358301523555900e-01,8.928359035823930923e-03,-5.694349563013126336e-02,4.474855079505767443e-04,1.781139492988586426e+00
8.942782650285260315e-01,-1.018349156442167391e+00,5.311173081739934965e-01,1.886942055783338151e-02,-5.361690652701162074e-02,2.181433811399551698e-02,1.762543082237243652e+00
8.571231354464404761e-01,-1.139500454837333754e+00,6.581501005719360142e-01,3.635970942324896760e-02,-1.744326520705595518e-01,3.555335391705662096e-02,1.930766701698303223e+00
7.623142334818995280e-01,-9.063525144297222003e-01,7.789156363769013103e-01,4.671431436534683596e-02,-8.810794447045773060e-04,-9.791053516867706530e-02,1.687523365020751953e+00
6.297490018133372613e-01,-1.001296925797181103e+00,7.596624103440238196e-01,-3.887775610991119242e-03,1.394942923753863528e-01,-2.081429950714783032e-03,1.716833472251892090e+00
6.809020511334177295e-01,-1.019823703050155128e+00,7.511670986690721641e-01,-1.989872825700947020e-02,7.679449624978364197e-02,3.556729451217086752e-02,1.743439674377441406e+00
6.660003821472693097e-01,-9.898116457733888707e-01,7.585957125173686810e-01,-1.025327631389979718e-02,7.675511638316576124e-02,1.179256828590980084e-02,1.709390044212341309e+00
8.343908397242247865e-01,-1.030367683820930580e+00,6.362157607064446996e-01,2.463870400309636430e-02,1.085174961683346567e-01,4.160558488055561208e-03,1.784446835517883301e+00
7.581719395097639147e-01,-1.021381649879261611e+00,7.235195113087529162e-01,3.291260840756392303e-03,3.487792783116867856e-02,-1.032385446921512545e-02,1.763617753982543945e+00
7.507666668795792697e-01,-1.011609947647211794e+00,7.606056166499508553e-01,9.851940121177309509e-03,8.523791038046181490e-02,-4.603226635732952585e-03,1.773572444915771484e+00
7.658470393724966518e-01,-1.035065164843020913e+00,7.869767134028139433e-01,1.133475787251694844e-02,1.508649962262598523e-03,-5.888747114177824912e-03,1.811706423759460449e+00
8.030816864636112218e-01,-1.009439181775812600e+00,7.124071232680582177e-01,2.020757589994819775e-02,3.107451014322083760e-02,-1.918900976953607715e-02,1.770404100418090820e+00
2.203181735338425873e-01,-1.817971878695381349e+00,1.798878178510793902e+00,-1.437621309027882210e-01,-1.946967095294114825e-01,-4.319566302855057383e-02,3.169441938400268555e+00
7.534760110238052366e-01,-8.914090459790211529e-01,7.789192496671257793e-01,3.104988192453258557e-04,-2.173030421395645909e-02,-3.919720556050479421e-02,1.659569740295410156e+00
7.345062061317764179e-01,-8.943695036016932054e-01,7.625430125356561506e-01,-3.480579033897849422e-02,3.481433133626446203e-03,2.860048338658135840e-03,1.644197583198547363e+00
7.829689036617093478e-01,-1.039950517819075104e+00,7.728063546438768139e-01,6.770185252439200364e-03,5.987588786761699478e-03,-1.962228453557558761e-02,1.818244576454162598e+00
7.335135818484845860e-01,-8.979168195887440307e-01,7.639356383897831781e-01,-3.710482850069056482e-02,1.422541872244699251e-03,-5.830444930234703668e-04,1.648107886314392090e+00
7.496431152452128766e-01,-9.754311540586340090e-01,7.808646272020838275e-01,-3.782805305248962413e-02,3.471471027287407855e-03,1.546428054771583661e-02,1.742343783378601074e+00
7.688354051865183836e-01,-1.140556328223575999e+00,7.581819918972469985e-01,6.752742442076027640e-02,1.437537815197967861e-01,-6.016681185404407217e-02,1.926676988601684570e+00
7.470457786581908843e-01,-1.015866434152894904e+00,7.671267416545485274e-01,7.513685965729408750e-03,1.450130399379037996e-02,-9.512705776649619388e-03,1.773340225219726562e+00
7.619586769522916914e-01,-1.041329783431560241e+00,7.924990992013851709e-01,1.657915423618531135e-03,2.869813768949663196e-02,-3.582441547555249850e-02,1.820490121841430664e+00
7.449694346893505070e-01,-1.012338358926742288e+00,7.729859051553252813e-01,1.000953367706343584e-02,1.226665008287089118e-02,-1.501748900188500969e-02,1.771885395050048828e+00
7.670664587689048908e-01,-1.102281193175984386e+00,8.476872594481981160e-01,6.963296029785970460e-03,2.925121498729039982e-02,-3.212045958346954749e-02,1.912452936172485352e+00
6.976321289278126780e-01,-6.770033906774516330e-01,7.375945729845652110e-01,3.149577721481149322e-03,-7.057905398791300064e-03,4.672429874719905007e-02,1.397455692291259766e+00
7.068497814389541611e-01,-6.605810576793211819e-01,7.015104087411276890e-01,-6.618545251937391072e-02,4.169206502940086406e-02,1.066466735310421104e-01,1.383860945701599121e+00
7.486381556556563899e-01,-7.650299911817791676e-01,6.204248351753698376e-01,4.431139302784337791e-02,-5.765490059710477039e-02,7.398956632255564159e-02,1.464869856834411621e+00
8.092116862687541712e-01,-8.404776149120878337e-01,6.247531721428509766e-01,8.303950081519809179e-02,-6.956825366807899147e-02,8.542333037024191222e-02,1.583760619163513184e+00
7.516268535503131121e-01,-8.600937489479579812e-01,7.458217555348002348e-01,6.658112633511341361e-03,-1.642708497789448219e-02,-1.360145973883835138e-02,1.609291195869445801e+00
7.574406110189124686e-01,-8.320309390368694213e-01,7.466423874434375829e-01,-1.592320679544275905e-02,7.478037773576517826e-04,6.852767872849255260e-02,1.588780522346496582e+00
8.200641461810651567e-01,-9.900168557003439229e-01,6.786833041723375759e-01,-1.331092574495490802e-02,-2.920614551083693198e-03,1.690913026822229385e-03,1.743856906890869141e+00
1.024472982904761187e+00,-1.227013348551914351e+00,5.678611566603924965e-01,-7.051615797951581339e-03,3.052928483791531589e-01,2.917787163487069180e-02,2.128836393356323242e+00
7.399633547436639258e-01,-1.007513535841211283e+00,7.108520603369736790e-01,-2.509899767516348204e-02,-1.365881546147071357e-01,-2.184746991722821136e-02,1.750126361846923828e+00
9.137971627719039258e-01,-1.155705715584771198e+00,6.952247798395413403e-01,-8.749297937923387891e-03,-1.707664009302230779e-01,2.975299341544127008e-02,1.992146730422973633e+00
8.267697343261237730e-01,-1.025688619704283600e+00,6.272188189534783076e-01,-3.635024807451944784e-02,-1.104273528679092647e-01,-2.713312593427998770e-02,1.773278832435607910e+00
7.718188129515410889e-01,-1.032416163881673121e+00,7.854371850078949446e-01,6.387715998344696382e-04,6.209333266476079957e-04,-1.026225294899523258e-02,1.811170458793640137e+00
8.464227046074939143e-01,-1.088524388903659101e+00,5.595654199882214019e-01,-6.222184762443064288e-02,-1.853750811632253748e-01,-5.319089416692281830e-02,1.842402815818786621e+00
8.376306163289536366e-01,-1.021731909731047105e+00,5.793567538581341214e-01,1.096336419071921447e-02,-1.392161354196826406e-01,4.858539334780775628e-04,1.761310458183288574e+00
5.896232727723313971e-01,-9.218010597979059417e-01,8.294689570810092061e-01,5.896663551663441916e-02,6.801224582524731388e-02,-1.849336086892981127e-03,1.651894807815551758e+00
5.782852718079822818e-01,-9.671833614165725734e-01,9.305055770421311045e-01,-9.745383455057165384e-03,1.276294800238728100e-01,-5.147269813080181111e-02,1.764647006988525391e+00
7.646622875577799849e-01,-1.193951864920878903e+00,8.525177237262921981e-01,5.893896113909002921e-02,2.414442008165824660e-01,-8.517917410758683860e-03,2.049753189086914062e+00
7.420863228346760154e-01,-1.141916066537957963e+00,8.449570614849680750e-01,-1.927178732896678987e-02,2.995798418083950657e-02,4.775384764331216947e-02,1.940232992172241211e+00
7.169147029092688417e-01,-9.362671347172542013e-01,8.221378511052670479e-01,5.464011869240391860e-03,1.995778721151636459e-01,7.094690554250629444e-02,1.747203230857849121e+00
6.456840123575398049e-01,-1.015210868857661985e+00,8.051603232217218187e-01,-1.944327821871632070e-02,8.199064355486027078e-02,2.016921291720288195e-02,1.752540946006774902e+00
7.340578347678214932e-01,-1.104950988784238808e+00,8.298981268825169622e-01,-2.847047516220091098e-02,2.616842874662125146e-02,2.510614568438976867e-03,1.889945745468139648e+00
7.722819153646891532e-01,-1.031104200784668912e+00,7.730466942572783440e-01,-1.058102479898539658e-02,4.444918539138754108e-04,1.451178890733672254e-02,1.804036974906921387e+00
7.352457855782769114e-01,-1.020857396276711793e+00,7.759409384291847678e-01,1.585523270621966166e-03,6.286558560912420060e-03,1.149812671450537241e-02,1.776947379112243652e+00
7.863209765345751112e-01,-1.016362188464793759e+00,7.784179608771846226e-01,-3.770161067166790531e-03,-3.207552125105856029e-03,-8.061085768421270142e-03,1.798819303512573242e+00
7.553058436491231209e-01,-1.023416097485405851e+00,7.588626652022190111e-01,-7.467291300068142242e-03,8.659262990237731258e-03,7.683312178256253809e-03,1.780662894248962402e+00
7.455095531524658092e-01,-1.028454372470492428e+00,7.763218562125071553e-01,-8.299432029250675483e-03,8.242202278341621141e-03,9.069210067198574254e-03,1.789752602577209473e+00
7.122089610812436522e-01,-5.436484932399849868e-01,7.132894802696739811e-01,1.634767776247410542e-01,7.714031912528905403e-03,-5.591735307903002855e-02,1.291614770889282227e+00
7.729690500526065211e-01,-6.338404473324426025e-01,8.107803072012883527e-01,2.161848218341880790e-01,-1.935242408788603874e-02,-3.483257123686839263e-02,1.476044416427612305e+00
7.734448545510204109e-01,-9.044235784422403057e-01,7.725999624737387439e-01,2.831671138157685133e-02,-7.739715024820712636e-03,-1.025380152002264567e-01,1.687587857246398926e+00
6.658807424889126025e-01,-5.516905463022828693e-01,7.285444899443392908e-01,5.035126207042746327e-02,-9.661513336962893397e-03,2.102654407184187738e-02,1.253760814666748047e+00
6.682456665243931004e-01,-4.316804601275847086e-01,6.750912218880352755e-01,8.236053376859876762e-02,-2.425255239615513921e-03,4.457802807294413555e-02,1.115232229232788086e+00
7.710470754387273029e-01,-1.020434594178282639e+00,7.837552130699227959e-01,4.012328532870748296e-03,6.368782182297210229e-03,8.423796716572009083e-03,1.797975897789001465e+00
1.005688007674035989e+00,-1.149287114957258993e+00,4.459688911254310884e-01,2.181667531037116345e-02,2.762961341002090898e-01,-3.022880020940137136e-02,1.996048688888549805e+00
7.500501603512831350e-01,-1.004415284479008408e+00,7.807875208580303816e-01,1.897468322508343518e-04,-7.993384552656843112e-03,1.476915406345000875e-02,1.770273327827453613e+00
7.373597373760930607e-01,-1.028249133924032277e+00,7.674357532043709629e-01,-4.397347404860277309e-02,-9.027419585575020833e-02,-1.967715471901214028e-02,1.789634823799133301e+00
7.326549881415140852e-01,-9.557353371445156398e-01,7.880049402090982813e-01,3.569986833091052885e-04,-4.432998019984164123e-02,2.149877919373499591e-02,1.718854308128356934e+00
7.649795868665542065e-01,-1.027148083374981313e+00,7.774155361196152247e-01,-8.569113559841744525e-04,-2.342351919678682497e-03,1.096727791406788485e-02,1.798483371734619141e+00
7.721262703325185717e-01,-8.311628635819899857e-01,7.549042810301919149e-01,4.964472490396111548e-02,-1.851840235719763236e-02,-3.364655075613828816e-02,1.598449110984802246e+00
9.537069286005834812e-01,-1.064535730624947218e+00,6.004850428218715397e-01,2.170191459866672654e-02,-3.930533890456170548e-02,-7.449098008953231043e-02,1.872932434082031250e+00
1.056532899341156240e+00,-1.227447406817900877e+00,6.145142793937398151e-01,2.385743760655299750e-02,-2.687659204577982214e-02,-4.698074485789956178e-02,2.100685834884643555e+00
8.170236509267021496e-01,-9.440101275502585931e-01,6.840801370132911785e-01,4.902191455045465038e-03,2.668946325771834154e-03,-4.926693528987108675e-03,1.698517680168151855e+00
8.210426386741591642e-01,-9.817479939609023987e-01,7.605570121923568294e-01,1.524249975350198613e-02,-3.952347605005466884e-03,-7.355924922730738835e-02,1.778101921081542969e+00
8.707196259169814878e-01,-8.722337838169542668e-01,6.612614377558430068e-01,2.602881134835556554e-02,2.644345908513355201e-02,-1.884019757736272657e-02,1.649811625480651855e+00
8.307689445929778982e-01,-9.026781233335405830e-01,6.518563936358949817e-01,-2.308263289964999909e-02,2.945920020828337108e-02,-8.686509601623088050e-02,1.659382939338684082e+00
9.140393684021967946e-01,-1.158641538179673303e+00,6.772197598541401797e-01,-1.060629795877208598e-01,7.866475123631294641e-02,-2.398862907910649656e-02,1.978705883026123047e+00
7.474981600952345095e-01,-9.854478159451844910e-01,7.928843314577327384e-01,2.363336790505936660e-02,3.891113031786069820e-02,2.479894742316447048e-02,1.758373141288757324e+00
8.168041553292468837e-01,-1.037880495823748639e+00,8.094357566602710108e-01,1.329424956001928892e-01,7.331707010953866788e-02,-6.052913635141530385e-02,1.872533559799194336e+00
7.654232976320830550e-01,-1.020495084822313991e+00,7.823246374003929304e-01,-4.612234123402265962e-02,1.772285068265626873e-01,-2.493559573400598930e-02,1.822759270668029785e+00
7.210048707298982729e-01,-1.023624702923177754e+00,7.313546642415053034e-01,-6.532481697681782884e-02,9.697822225184794809e-02,4.987307877549587709e-02,1.763625383377075195e+00
7.890837646836410535e-01,-9.891863597507827288e-01,7.993927703264430695e-01,5.431357163311541225e-02,6.513749506436222747e-02,-1.249992647402452667e-01,1.802536010742187500e+00
7.629730146202488017e-01,-1.023842976050705067e+00,7.779148326708134054e-01,-1.573896295867625514e-03,-9.524136323418565470e-04,8.122937896355609741e-03,1.794391512870788574e+00
8.457443024404409648e-01,-1.075658250264297955e+00,7.409650440841129004e-01,2.916235122640511556e-03,9.947561319070746810e-02,-2.492987376555505508e-02,1.879632830619812012e+00
8.334277796283894313e-01,-1.046657995221979665e+00,6.574498534326053134e-01,2.540941091887951100e-02,-4.997258390231870684e-02,3.939545101998725984e-02,1.802476644515991211e+00
6.318886004422783476e-01,-1.007471413526247250e+00,8.440614738407015150e-01,-3.542355268689869469e-02,6.236127492560741836e-02,-1.994417624645404043e-03,1.759485602378845215e+00
7.926973104316328289e-01,-9.848502471153902649e-01,7.784214712888780641e-01,-1.675639705600529689e-02,-2.509746402202162746e-02,1.150365870928199072e-02,1.771336197853088379e+00
6.315585393841360862e-01,-1.001343176783699995e+00,8.330252924354730748e-01,-2.539226742619848931e-02,5.562953509513234723e-02,6.434242303441873798e-03,1.745644450187683105e+00
7.485287750392040085e-01,-1.034592096945822881e+00,8.440404041087622433e-01,2.349632453836030671e-02,1.654886819522819255e-02,2.716259466337365286e-02,1.834023594856262207e+00
6.803049684527249230e-01,-1.013615455610566984e+00,8.321758920049736608e-01,-1.370375765633973300e-02,4.732184305456801736e-03,7.541707291129436455e-03,1.774961829185485840e+00
7.988960548602475065e-01,-9.669060566261368228e-01,7.771061371957368458e-01,1.894201722383196188e-02,-1.069640481499593669e-02,-2.521849390436401795e-04,1.755413055419921875e+00
7.675330647259859251e-01,-1.026298893774986842e+00,8.039972659098115759e-01,3.392847761389211625e-02,1.206051221595470790e-02,1.357994116156930990e-02,1.813564538955688477e+00
7.418504866824485733e-01,-1.073924918995157407e+00,8.284719060873050323e-01,-1.127699438621192901e-02,8.555452766704937234e-03,1.834848944832085380e-04,1.860760569572448730e+00
7.292745893947838454e-01,-1.023955797578055327e+00,8.128031517084346458e-01,-8.506815786984145422e-03,1.851676471692025386e-02,2.123428631966357838e-02,1.797174692153930664e+00
6.601350290266685406e-01,-1.015956850239744913e+00,7.642334920867999148e-01,2.416058236616712429e-02,-1.929107936289091441e-01,-2.142621829009836582e-02,1.763340950012207031e+00
6.594486896024125411e-01,-9.965570177202820457e-01,7.536503969707011308e-01,-4.000286641632222646e-03,-9.616111461056983667e-02,9.651977178336041199e-03,1.713270545005798340e+00
1.168314660448361186e+00,-1.163253953997795298e+00,1.413082584970298816e-01,1.552454494709730980e-02,2.982767743870657906e-01,1.947827073772084167e-02,2.089303016662597656e+00
7.075082670380330452e-01,-9.923706593291271583e-01,7.266697773585648612e-01,2.653477782739035312e-02,-1.130496884156990123e-01,1.782745176727902614e-02,1.721608042716979980e+00
5.644455062439683868e-01,-1.035574875151779262e+00,9.471014643614483752e-01,-7.367654096176171064e-02,1.813073839890372990e-02,-2.010707593255587830e-02,1.826809167861938477e+00
6.580584401529822047e-01,-1.025956164828881745e+00,8.878563583846362794e-01,-3.863472252538401042e-02,-4.165208597782948940e-02,2.661070846390058142e-02,1.813147068023681641e+00
7.784798077417258710e-01,-1.030828728587332099e+00,8.003125177694181414e-01,3.254541350377558248e-03,-7.265202254447894296e-03,3.339067582482471361e-03,1.820384502410888672e+00
6.638225118732432595e-01,-8.166119747524344108e-01,7.638527153720232610e-01,6.343580898374281962e-02,4.252289026142461181e-02,-8.782778121524909692e-03,1.538671135902404785e+00
7.649284879641551349e-01,-1.021903506886373103e+00,8.494205155589520384e-01,4.076495103049669610e-02,-1.038443800090181439e-02,-5.899079706265254394e-03,1.832019090652465820e+00
6.711234530442690138e-01,-1.032336629373923786e+00,8.728822229381273390e-01,5.385724099945501248e-03,-9.719801869001558348e-04,-1.129351044144501215e-02,1.812910199165344238e+00
6.500491273194191066e-01,-9.922212592636838746e-01,7.618634633355454433e-01,-1.212354468204447340e-03,-3.838658042723041425e-02,1.582702211617964191e-02,1.702457189559936523e+00
6.118730344666383214e-01,-9.815326957526115947e-01,7.450572392685188561e-01,3.309321768613474046e-02,-9.395574017915997445e-02,2.059310703015154037e-02,1.673301219940185547e+00
6.614364111338773000e-01,-9.794136855637396444e-01,7.444988218697659033e-01,3.968301749176123515e-03,-9.575030163739520206e-02,8.766858478962705203e-03,1.692147612571716309e+00
6.960245151315639367e-01,-9.796418589420244905e-01,7.188408226155730274e-01,-2.346862763915946032e-03,-3.177967984756034647e-02,-2.280569352621316347e-03,1.688097357749938965e+00
6.261832882009605861e-01,-9.906654267276904235e-01,7.533391962860006563e-01,4.160805648957014054e-03,-7.952757904127202848e-02,4.689598171851629832e-03,1.689689993858337402e+00
7.071326507982310661e-01,-9.822465163183944359e-01,7.147235232100820346e-01,1.708169010586733255e-04,-5.121272442206962518e-03,-2.379957462008235741e-03,1.693215608596801758e+00
7.476423955943141131e-01,-1.010334144405409473e+00,7.585827923732931799e-01,9.688758414072197109e-03,3.202021232610574586e-02,-1.344018523500681642e-02,1.764577507972717285e+00
8.307029253493357634e-01,-1.023713034958716683e+00,6.004002127136357503e-01,3.867887420683425309e-02,9.178079318501855544e-02,-3.380428250916666516e-02,1.760115981101989746e+00
7.504860884183015557e-01,-9.901535755337331768e-01,6.636916098737337677e-01,1.495951909872437688e-02,2.929406869355062615e-02,-1.817393414437197888e-02,1.700152516365051270e+00
6.879375394543165712e-01,-9.831289039357137272e-01,7.004023875624190154e-01,1.992332262998091491e-02,5.211577401652521535e-02,-8.857900060097704739e-03,1.680185198783874512e+00
7.095889056750942503e-01,-9.883260530619494277e-01,6.967434015395486124e-01,1.312266496467556082e-02,5.455493076054145074e-02,-1.012560760001699617e-02,1.694409251213073730e+00
6.841806992167589474e-01,-9.887811065637953645e-01,7.449332109866667606e-01,1.894847180852711477e-02,6.620750170108954946e-02,-1.302359086508345087e-02,1.708468556404113770e+00
7.438558030522360864e-01,-1.016350540731218777e+00,5.169090947579058071e-01,2.586305137036435178e-02,-3.284913003267744269e-01,2.792673919793768264e-02,1.754543900489807129e+00
7.151274487622343301e-01,-9.771486844355541379e-01,6.071437108451772646e-01,-1.006376033516261093e-02,-1.491218808316187583e-01,-4.911801773387238293e-03,1.661267280578613281e+00
8.785268605468893321e-01,-1.034368686807807913e+00,5.010700750535584946e-01,1.088385498139086104e-02,-1.983959682302400274e-01,2.504027879823260416e-02,1.788833975791931152e+00
9.304844568020878004e-01,-1.127323618497659607e+00,5.254670109611986328e-01,6.808114596279155051e-02,-2.717985986338288806e-01,3.235883927607658816e-03,1.949544787406921387e+00
7.332048199589542570e-01,-1.008715904013041342e+00,6.356166874121517152e-01,3.022646819354187636e-02,-1.243534115507703153e-01,2.849153579839485556e-02,1.710376620292663574e+00
7.151864394962900162e-01,-6.504933311632092874e-01,6.975851109253095039e-01,2.456177721268749947e-02,1.098472590861644324e-02,-5.030108723988849923e-02,1.360557079315185547e+00
7.436143624368423133e-01,-7.206967089795415227e-01,7.080252317925297412e-01,6.530633927502967756e-03,1.326557188038381997e-02,-7.221043154635216343e-02,1.452466487884521484e+00
6.432182501298493449e-01,-4.625985262514051843e-01,7.852703555118210055e-01,-2.361988298027511285e-03,-2.678083317267403261e-03,-7.902371533725446873e-02,1.191161513328552246e+00
7.239974999638234543e-01,-4.735342861475198006e-01,6.560180204463462728e-01,1.069456747595077806e-01,-2.910024604486386932e-02,-3.700625125329698450e-02,1.182479143142700195e+00
7.397752654166966924e-01,-5.046805239783330732e-01,7.609082874658545936e-01,5.049367521942160764e-02,1.610372096273349207e-02,-5.900823550061151668e-02,1.262651443481445312e+00
7.421858788814964525e-01,-4.141409848779343261e-01,6.358873729538387920e-01,7.113530245049272394e-02,-3.659726121647134504e-03,-5.907199527502540737e-02,1.118554711341857910e+00
7.378702228333252622e-01,-9.082452431090546341e-01,7.855970175674230616e-01,-4.884471938533248986e-03,-8.068766170974232821e-03,1.385464598990070184e-02,1.670742511749267578e+00
8.442202738197919221e-01,-1.042519700751056710e+00,6.850956768767333394e-01,8.216313766142617492e-03,1.441805272883888225e-02,-5.918776458474111352e-02,1.815548777580261230e+00
7.328438893570115020e-01,-7.410214496931586403e-01,7.600801591043153671e-01,1.347491674733838213e-02,-1.226940784324531339e-02,5.293620101792419208e-02,1.490827441215515137e+00
7.790884317733890452e-01,-9.667476414988438460e-01,7.715224443258696940e-01,2.188769218942813663e-02,5.001459403180412433e-03,-3.025237152122578835e-02,1.743287086486816406e+00
8.366281921039568914e-01,-1.015994735086858114e+00,7.696116797335750270e-01,-1.807296732092752295e-02,2.343826592694358418e-02,1.980124189506541482e-02,1.821085095405578613e+00
9.335896330078771177e-01,-9.888988941338253680e-01,6.483884325559540196e-01,-1.095752445982392798e-01,1.048070856666594441e-01,1.448499711324911510e-01,1.833282351493835449e+00
7.939556768547140209e-01,-1.024786693502641510e+00,7.664135822039590540e-01,1.375406930651536762e-02,-1.835876308809672669e-03,9.248454692140219841e-03,1.805359959602355957e+00
7.206348301414065016e-01,-9.826386612486444072e-01,7.062518101650716584e-01,5.282467909037980199e-03,5.512791521318933727e-03,-4.077168849638313527e-04,1.696179389953613281e+00
7.819479319289038832e-01,-9.364735309052176770e-01,7.555713510029756774e-01,1.682378889757122492e-02,1.107581677694603924e-02,2.119396603331193812e-02,1.706137895584106445e+00
7.327454349079980389e-01,-7.070251965312934761e-01,8.206370046271411756e-01,-1.672911415670231272e-01,4.759745681691971569e-02,9.148659731191334521e-02,1.524163007736206055e+00
7.797364483268039992e-01,-6.362926341122534524e-01,7.383237286573292035e-01,-4.652782767198327535e-02,-8.970848040549189023e-03,8.711682996209703378e-02,1.406312823295593262e+00
7.928847198287775067e-01,-1.053255729764218218e+00,7.888881041734597810e-01,-1.094612219063850625e-03,7.663352356940869234e-03,-8.357138345763808493e-04,1.844194650650024414e+00
7.693042577754913847e-01,-8.731468313898480549e-01,7.675049973935155201e-01,-1.071164283274203544e-01,-3.888663497010979350e-03,4.848840342590436669e-02,1.654150605201721191e+00
7.527531231636684916e-01,-7.612137001208287845e-01,7.344077350098271451e-01,-7.941475260044332518e-02,-7.459311379052599791e-03,-2.477800015743368556e-02,1.511815667152404785e+00
7.536032430965067253e-01,-8.054758263837522581e-01,7.285945023081290550e-01,-5.148548653262589175e-02,-2.090257027211495783e-02,1.532224546590557970e-02,1.549945116043090820e+00
7.163729615889539160e-01,-5.522882968426828798e-01,7.092524752417102007e-01,-1.219762452459449004e-01,-5.550192089714970495e-03,6.415540970407973553e-02,1.287475585937500000e+00
6.797010673436909567e-01,-4.308484163623236829e-01,6.839462613270644864e-01,-1.140603166086197190e-01,-3.089683322121958287e-02,1.321395804696921528e-01,1.154265284538269043e+00
7.118043512163518827e-01,-6.655147665924173728e-01,6.988168590237175959e-01,-4.572018546549171808e-02,-2.667405121393401010e-02,3.668261912934818458e-02,1.375402092933654785e+00
7.793394052364833735e-01,-1.027577381835762305e+00,7.496515682864159924e-01,1.078765703834683003e-02,3.593360658642340624e-03,-9.440782209425027660e-03,1.792440056800842285e+00
7.822155888829060988e-01,-1.032644148902161607e+00,7.666636639796757802e-01,3.531368048345720229e-03,4.599992530946114561e-04,-7.315600349277275732e-03,1.807188868522644043e+00
7.860285235143904536e-01,-1.029281795211056449e+00,7.601081863121881277e-01,8.296868241109004935e-03,-1.867877681827557947e-03,-1.139952038193248196e-02,1.802658200263977051e+00
7.849900598588390732e-01,-1.026780142202080137e+00,7.871663289201322744e-01,-3.357423713364742282e-03,-1.467014583262593597e-02,1.691763116677421405e-03,1.813049077987670898e+00
7.886650014492386784e-01,-1.029333203863012969e+00,7.567844087693580413e-01,1.469115707945905028e-02,-2.593298742538008468e-03,-3.815241920094856673e-03,1.802466750144958496e+00
8.137262510405731675e-01,-1.037838710065247083e+00,7.708174007430181884e-01,-5.116359795991083648e-02,9.596724926385893830e-04,1.847845068620925513e-01,1.860370159149169922e+00
7.491932640632237295e-01,-1.024157496082524155e+00,7.715460561934647243e-01,3.242251312807385277e-03,-1.849933418353281664e-02,1.179448879821118519e-02,1.785045504570007324e+00
7.275748799565078251e-01,-1.007511828801857634e+00,7.501479519894294068e-01,1.099452580196372091e-02,-8.806436224739162127e-03,1.705994921427211181e-02,1.746902942657470703e+00
6.979785291437256012e-01,-1.015963981181397635e+00,7.746438223707142745e-01,2.126019709400895491e-02,-1.740921464311464759e-02,2.295902682800929351e-02,1.754629015922546387e+00
7.612301982066966843e-01,-1.020397001271990511e+00,7.478172535239980823e-01,9.077347533654463868e-03,-3.856536355533247626e-03,1.268438231362144404e-02,1.775176882743835449e+00
7.391781849892669065e-01,-1.022303102514669160e+00,7.718533933134090752e-01,6.180832556322373404e-03,-1.291784928360443542e-02,1.170400597097310050e-02,1.778332591056823730e+00
8.225182934161412440e-01,-9.876981933551751691e-01,6.431140556503103234e-01,-1.158877780564195742e-02,1.224057807222711791e-01,6.931759982406256182e-02,1.744728207588195801e+00
8.857882770434929443e-01,-1.004425464823034631e+00,4.991030216057578128e-01,-1.929885470725812083e-02,1.139252184086986808e-01,-1.321992834562858710e-02,1.741290926933288574e+00
1.021052390812289712e+00,-1.046535352343046732e+00,4.261005933249226718e-01,-4.075348077393534801e-02,1.197659640761173511e-01,4.311195305860083399e-02,1.858053207397460938e+00
1.100409138196405623e+00,-1.157421303882249841e+00,4.336474112076474929e-01,-2.972120180952246560e-02,1.215836964008418231e-01,5.016213589358060887e-02,2.022741079330444336e+00
9.178349711406550426e-01,-9.767552852488703419e-01,4.663573179834376026e-01,2.690598077565698430e-03,7.476794066252949456e-02,2.180176016665813510e-03,1.718937397003173828e+00
7.341856489014434439e-01,-1.037204752554519382e+00,8.192837124130400994e-01,1.286409613856601304e-02,2.035533768790303427e-02,-2.146410583605736638e-02,1.816295385360717773e+00
7.943655457267881914e-01,-1.022248222206237012e+00,7.920863332113556865e-01,6.970314839063920798e-02,-3.608171294638429834e-03,-6.994801400525946754e-03,1.819536089897155762e+00
5.482880255110381684e-01,-2.312633987094352972e-01,7.654620502686269035e-01,1.515669728847991726e-01,2.150393158205717026e-02,-1.477229981642816381e-02,9.461093544960021973e-01
2.469651234030107723e-01,-3.973816986790246197e-01,8.744855863060398971e-01,1.493892629018935825e-01,3.660548051519849078e-02,-5.437793165085751806e-02,1.137166619300842285e+00
3.509669046195837971e-01,-1.197262592708955298e+00,1.171701981588658459e+00,2.038727799417178743e-01,1.896816088831669855e-01,-1.969640237213682657e-02,2.138948440551757812e+00
6.770931107795037374e-01,-3.144800100143539390e-01,7.860606114563077895e-01,2.312640983941064571e-02,-6.013495374796534038e-02,-1.146132084818293415e-02,1.056403160095214844e+00
7.766410810961271727e-01,-8.782108357321601888e-01,7.746515733151099203e-01,1.855072051719665327e-01,-2.164443738531181619e-02,-2.624098396075275931e-03,1.685203671455383301e+00
7.748176155297609169e-01,-7.557547656132291847e-01,7.995252818110045734e-01,1.408666723074489535e-01,-2.484883949392532182e-02,5.230403926165345940e-02,1.565461277961730957e+00
5.578267555592286708e-01,-1.002826925927003732e+00,8.760300458491188103e-01,8.155187913180931419e-03,1.025270268013922931e-01,-2.056293144635157333e-02,1.751142978668212891e+00
6.761286313440544316e-01,-9.889099612013412255e-01,7.463580813387307167e-01,1.089001059874645898e-02,5.814254762646858810e-02,-1.348197270086265616e-02,1.704483270645141602e+00
6.608120902496893434e-01,-1.010084895740194000e+00,8.092184616596737046e-01,2.028763943155141233e-02,3.484743213191721090e-02,-2.236298274873180572e-02,1.751648068428039551e+00
6.104884510359949168e-01,-9.915565715058634044e-01,8.050667203470542876e-01,9.850363599715203713e-03,1.205227641299792540e-01,-1.400849072944942639e-02,1.720636248588562012e+00
6.625429290784975445e-01,-9.867456773208621579e-01,7.449796141655027348e-01,1.086565242428823991e-02,2.687172513555408787e-02,-1.206159157298400224e-02,1.692887306213378906e+00
7.742285541854891928e-01,-1.033419545232404646e+00,7.793354117217348165e-01,4.178702797562543203e-03,-1.444212174882941084e-03,-7.095679311133816329e-03,1.810264825820922852e+00
7.069240114061877689e-01,-1.006805258256896707e+00,7.518062947016964648e-01,1.552064799484919981e-02,1.864317718034010085e-02,-2.263863705213950070e-02,1.737556219100952148e+00
6.846511390751959247e-01,-1.009704433425266945e+00,7.929074692350346343e-01,1.337639930853438269e-02,1.265760497358015338e-02,-2.362293494826580437e-02,1.751763820648193359e+00
7.632567050683823906e-01,-9.600792109358120552e-01,7.892239539581739072e-01,5.026340031216560388e-03,-1.397055744743403230e-02,1.268453865332112331e-02,1.736794590950012207e+00
7.352963808378367716e-01,-7.750399424416742900e-01,7.393714822536159303e-01,-4.055580967573912954e-02,-2.042600409356832430e-02,6.672521782844356708e-02,1.518825173377990723e+00
8.110030907811247580e-01,-1.015260785355674766e+00,7.142769068330656612e-01,2.877034432017706519e-02,2.353446551560765126e-02,-2.721011386069658450e-02,1.781660556793212891e+00
7.808278702980396835e-01,-9.963992880952162734e-01,7.812072972856143327e-01,-1.381819007968948347e-02,-4.045633151889203557e-04,2.438906756130860068e-02,1.778079986572265625e+00
7.364826425643566932e-01,-7.861691446712929521e-01,7.358866696402351915e-01,-3.607969947159467977e-02,1.840698428962546243e-03,4.085510937819239463e-02,1.525281667709350586e+00
7.669829606791023213e-01,-8.484970854399436213e-01,7.387697580673402431e-01,4.844323887449733697e-03,3.094680838743865854e-03,7.311726791899560152e-02,1.606590032577514648e+00
7.553012236271907653e-01,-1.013467169423700298e+00,7.361629307752821649e-01,8.564417850503470986e-03,3.448588043818984726e-03,4.489780311102784259e-05,1.759349942207336426e+00
8.336538927151158074e-01,-1.026364319763781729e+00,7.458681126450227294e-01,2.074636032579936853e-02,-1.686283098790327534e-02,1.474538527464130423e-02,1.818484902381896973e+00
7.782732979928389527e-01,-9.730225341283625928e-01,7.685658811269714397e-01,-8.715456160649143191e-03,-6.746733855479275510e-04,3.103743012957467171e-02,1.747355103492736816e+00
7.885499467618041214e-01,-1.010905964861349648e+00,7.560259193228421326e-01,-1.656279475118907149e-02,-1.877317550864271607e-03,6.535856089218113410e-03,1.783685922622680664e+00
8.048508354914880591e-01,-9.139945929218407095e-01,6.066550493464364369e-01,4.659496598421788288e-02,-1.013654052953313067e-01,2.135631289370459873e-02,1.640655279159545898e+00
8.288403040820906398e-01,-1.066876805090240854e+00,7.957147891394021899e-01,2.408669624640653872e-03,3.194310266087763053e-03,1.869814736022631929e-02,1.879665136337280273e+00
8.357681167816681800e-01,-1.053293992603786311e+00,6.093559956511781506e-01,-6.336119695633538051e-03,-1.795806038910739977e-01,-3.105865365317141830e-02,1.814352035522460938e+00
7.769326999155564684e-01,-1.048572952444493778e+00,7.627891492193472622e-01,-2.774503733953472343e-02,-8.488763333475538020e-02,-3.011289615337777240e-02,1.825787305831909180e+00
6.074062307753989032e-01,-1.097186689167832796e+00,9.266063762064933318e-01,-3.890866606381923609e-02,-8.950312197105338152e-02,-3.214400806773353575e-02,1.892962217330932617e+00
6.697093491918408859e-01,-1.030996857776403264e+00,8.109692590641821575e-01,-6.278283717000043493e-03,-1.754477530496045823e-01,-9.827872714618997307e-03,1.801485896110534668e+00
7.346733468378972010e-01,-9.795024090603737799e-01,7.426282112011834968e-01,2.638109049673029866e-02,-9.909849040179626034e-02,-5.315939481093260276e-03,1.727348208427429199e+00
6.879189369441235380e-01,-1.039877798983088963e+00,7.683712787482606110e-01,2.237465872875302880e-02,-7.337140038028142075e-02,7.595232969610895418e-03,1.774425148963928223e+00
7.626101881437300500e-01,-1.121260708919961990e+00,7.971537737988068084e-01,1.201430652995623578e-03,-9.106323279355793554e-02,-1.978806489539897823e-02,1.908217787742614746e+00
7.053734663597327481e-01,-9.975901762979128007e-01,6.062352114043876306e-01,1.576839202911403670e-02,-4.522418333217823605e-01,-5.627744599424058802e-02,1.834366440773010254e+00
7.651035956853875497e-01,-1.148521288304285681e+00,6.668975393802114571e-01,4.945444593884033846e-02,-3.367181559908584698e-01,4.210328221876556004e-02,1.958690285682678223e+00
7.480660016458129391e-01,-1.019811389974220051e+00,6.454077883948963201e-01,2.446628485432793265e-02,-1.805914426011644980e-01,1.689907005775524718e-02,1.747837066650390625e+00
7.248129172260134867e-01,-1.087366688661597358e+00,7.891571412334748015e-01,3.207882702691232379e-02,-1.179184203549166476e-01,4.443692521894127695e-02,1.858887791633605957e+00
7.740370378561174380e-01,-1.915537409368942567e+00,9.555759700166062132e-01,-3.348721289293162262e-01,7.758028542651350667e-01,3.257988911517654129e-01,3.196168422698974609e+00
8.945751614319982226e-01,-1.228965378330118652e+00,6.484184659316158950e-01,-4.560774271280788883e-02,-3.207940209950186361e-01,-1.971550029268574755e-02,2.088881731033325195e+00
7.967692804731669742e-01,-1.024867410182566552e+00,7.723800404941880693e-01,6.130306540347404270e-03,5.214244969659925961e-03,-2.474733438583676115e-03,1.809624075889587402e+00
7.740852642409142836e-01,-1.034175613063902155e+00,7.942521452414285088e-01,1.530126821109310635e-02,-1.021890513594126380e-02,2.133458779529884969e-02,1.819082856178283691e+00
7.700395655184044674e-01,-1.037823775342215704e+00,7.942577522229153919e-01,-2.697165050526556095e-03,5.950222356183420234e-03,1.672451061527313598e-02,1.820358991622924805e+00
7.590067266042850314e-01,-1.026760884726964029e+00,7.886123251934479272e-01,8.441934386784673630e-03,-6.759237865042285603e-03,1.713358223505905345e-02,1.801094889640808105e+00
7.300736877895031007e-01,-1.036433009199573041e+00,8.030254866622352772e-01,3.059546362509099615e-02,-5.807962050748200628e-03,1.973124982212190806e-02,1.805218815803527832e+00
7.817382310839106063e-01,-1.033975763967895478e+00,7.799867689410990845e-01,4.128844408729754473e-03,-2.147926391488155784e-03,-7.770324832136742436e-04,1.814857244491577148e+00
5.506647172766842013e-01,-1.018269304168013978e+00,8.900080412005622055e-01,-1.267993393613515811e-02,-5.437589244635575303e-02,3.718419019743017268e-03,1.765930175781250000e+00
7.324550273181211768e-01,-1.129006679018026871e+00,8.558425931431070666e-01,1.639927577239828210e-03,-6.311046519424390322e-02,3.386840732246407248e-02,1.930114865303039551e+00
5.098533002155910543e-01,-1.110010269222140744e+00,9.142658861027661565e-01,5.400737659413379355e-02,-1.882476733605704666e-01,1.884400145978481350e-02,1.886459112167358398e+00
5.422524552968415179e-01,-9.762920689565390830e-01,8.494622915558385223e-01,6.564490785384154148e-02,-1.456939556701642435e-01,-1.085880663499494587e-02,1.715758919715881348e+00
8.142413721599878196e-01,-1.010534563857050649e+00,6.513494537217726643e-01,4.977724318908765405e-02,-5.333472284073682845e-02,4.651831621557807328e-02,1.755436897277832031e+00
7.720924923316829780e-01,-1.005228141060246827e+00,7.696151116773392031e-01,2.140161374997868494e-03,-6.835906645477371479e-02,-1.771496046764409540e-02,1.780293703079223633e+00
9.021474152464568075e-01,-1.136817827307946338e+00,5.089008384590205658e-01,5.730987993768065121e-03,-2.266193830504880102e-01,8.029471746922839381e-02,1.919300794601440430e+00
8.172332786601723686e-01,-1.042723211326505250e+00,7.355149531471950608e-01,3.993353700732981543e-02,-6.308485461710661157e-02,-1.585141131912259915e-02,1.825267195701599121e+00
6.059118911507292982e-01,-1.008525230939754103e+00,8.279467573590543195e-01,2.175621315830205890e-02,-9.369647912132199330e-02,9.229817329858450853e-03,1.744184851646423340e+00
7.820159527108792030e-01,-1.025351724874602244e+00,7.573964660367442647e-01,1.788803618927277753e-02,1.093886431209472286e-03,-1.205366298799729133e-02,1.795574307441711426e+00
7.600598089310147687e-01,-1.031031013146125108e+00,7.826005833968755487e-01,8.323646515199487755e-03,3.083079855288288831e-03,-1.646406810616333344e-02,1.802758097648620605e+00
7.823014991294678921e-01,-1.022505756361538287e+00,7.875626989799313638e-01,1.241787233847692351e-02,-1.406720721180517233e-02,3.416186419595533541e-03,1.807745456695556641e+00
7.772083655372157285e-01,-1.010243996544115452e+00,7.744696275571307797e-01,8.615966154666832369e-03,-1.300906228399115270e-03,-4.799706577915342255e-03,1.786167621612548828e+00
6.397214924027575522e-01,-1.002219500227196525e+00,8.259829673807348449e-01,1.111190896906183185e-03,-3.332586694092335572e-02,1.773432919613748132e-02,1.743781208992004395e+00
6.294740771296885029e-01,-1.033739328587669704e+00,8.588551036119034254e-01,3.946835036468261670e-02,-4.494186416880913137e-02,1.331202616764030379e-02,1.792112827301025391e+00
5.931956391288639718e-01,-1.022768392590727382e+00,8.825301961066028822e-01,2.176122821520140582e-02,-5.122238378038489887e-02,7.845107418904793267e-03,1.781034827232360840e+00
5.121916733110422060e-01,-1.002770444422087071e+00,9.026265670838976574e-01,7.020860566197734826e-03,-4.670782172107709740e-02,2.137077052124147780e-02,1.745596289634704590e+00
5.891638091477868766e-01,-9.927899276406111362e-01,8.236704490158157643e-01,2.426764779643781136e-02,-4.529905549131817838e-02,2.723592707032276850e-02,1.714263081550598145e+00
5.781661282749901432e-01,-1.001161658489992723e+00,8.571422815701391640e-01,4.058923077647757886e-03,-2.160286285203401324e-02,1.634530824580971917e-02,1.736361026763916016e+00
5.094533567386081430e-01,-1.023611998684763824e+00,9.108624320109772743e-01,-5.030486907210245107e-02,6.358162980142403886e-02,8.582189617208546908e-03,1.773906826972961426e+00
4.684595791076273663e-01,-1.027261538291815102e+00,9.345737771866736709e-01,-3.431228912557966054e-02,6.892961593647342622e-02,1.424158905019846239e-02,1.780453681945800781e+00
5.601358421127039522e-01,-1.003641486516086090e+00,8.314279346096772327e-01,-2.691389163083275637e-02,8.624347479033633856e-02,1.489960366806517174e-02,1.722902297973632812e+00
5.967403265605236706e-01,-1.004496045488371125e+00,8.272552354925780671e-01,-2.281522329390596460e-02,4.012098397296926661e-02,1.108336337765032653e-02,1.730018258094787598e+00
5.030933993018410488e-01,-9.994778038985077107e-01,8.671147905228304698e-01,-2.139639212697826143e-02,1.097443340927471006e-01,6.793811769697280165e-03,1.724773406982421875e+00
5.256842434680019105e-01,-9.874557766830479588e-01,8.603662575666253254e-01,3.351785259900085315e-03,1.828821837205219306e-02,1.403009153838457364e-03,1.705599188804626465e+00
4.750400460184401874e-01,-9.845032217098932392e-01,9.010585991609145751e-01,-1.940903768567742280e-04,5.395471984495762985e-02,7.181212734322419029e-03,1.715353965759277344e+00
7.572127225719321730e-01,-1.006297311900059999e+00,7.164826996583216756e-01,2.057227538456631380e-02,1.030384516915653845e-02,-1.748226512969960900e-02,1.744220137596130371e+00
7.402969811679189771e-01,-1.009080994744778081e+00,7.372983828394552575e-01,1.596162693766084786e-02,2.038598242311180989e-02,-1.591558370344477863e-02,1.748673081398010254e+00
7.086265010860014479e-01,-9.810965077702483716e-01,6.764331001412111632e-01,2.316495371269838149e-02,7.360525107847765147e-02,-1.686104806385425176e-02,1.679439902305603027e+00
7.431762988988588337e-01,-9.903838248554384105e-01,7.071113213717539203e-01,8.428255138171641611e-03,2.684832384108797043e-02,-6.991346062138047157e-03,1.716546773910522461e+00
7.658904856676618245e-01,-1.017384257378480150e+00,7.418992902644634402e-01,2.064242480617989317e-02,2.245250639266532788e-02,-1.381937223794982468e-02,1.772350192070007324e+00
7.740010155035348394e-01,-1.009219958795757099e+00,6.978368820909006676e-01,2.399024977703801895e-02,2.162066700327549412e-02,-6.229355550171913891e-03,1.747313857078552246e+00
7.757039472259501522e-01,-1.020256859161830620e+00,7.859893089598656291e-01,6.772097441331166416e-03,-6.935952693318659214e-04,5.798710498550223129e-03,1.801192164421081543e+00
7.646477587660128750e-01,-9.305019289869678190e-01,7.598534933281145820e-01,2.394062060177551497e-03,-9.588687048092642967e-03,-2.537000530938510190e-02,1.693414449691772461e+00
7.692868802479471135e-01,-1.010230004709058216e+00,7.049976318272308529e-01,-2.314939311728013427e-02,-2.890251526262178558e-02,-2.003806321769576598e-02,1.749779462814331055e+00
8.212876442415222300e-01,-9.875513689192798594e-01,6.314503141688880827e-01,-1.020238925833113867e-02,9.802779357574543939e-02,-4.061220709756510616e-02,1.731658220291137695e+00
7.940894533765900931e-01,-9.828692003629900809e-01,6.296960769786951184e-01,-2.691897428215345861e-02,7.730788479689731929e-02,4.459480130735006542e-02,1.708378314971923828e+00
7.835703522520476305e-01,-1.041893996770482334e+00,7.929677783343547226e-01,8.671421321904430532e-03,5.563678396527020273e-03,-1.680571653890455819e-02,1.830499649047851562e+00
7.191847231769581406e-01,-5.870077410501525206e-01,7.245802453293684886e-01,1.217503614086424824e-01,-2.034628737575804036e-02,-1.154484185675693081e-01,1.341235160827636719e+00
7.461819244010725605e-01,-8.770062824734622398e-01,7.611801674139559992e-01,5.977116589394842333e-02,-3.642965111853719608e-03,-7.784489395648935828e-03,1.634089708328247070e+00
7.812413226719957526e-01,-1.017816629431997022e+00,7.947828524542166484e-01,1.019784984938590898e-02,-2.186436998483252958e-02,-4.495617910958703582e-04,1.806350350379943848e+00
8.171915732506132013e-01,-8.720974679502504490e-01,6.546216874676706876e-01,-1.738249860652244655e-02,1.594899204690550590e-02,-3.548837935828091927e-02,1.615842461585998535e+00
8.365596566261239708e-01,-9.379740612262346122e-01,6.348433773254715806e-01,-5.538636988639977603e-03,3.610902726492448700e-02,-8.638652200804103343e-02,1.690591216087341309e+00
7.989172108355331314e-01,-1.024065803670652031e+00,7.603788895726246722e-01,-6.200306724497335435e-03,4.968963315305983432e-03,1.703648036537960472e-03,1.804077506065368652e+00
8.002003281114818956e-01,-1.079649109409451357e+00,7.373150982044310853e-01,-3.439429956799097687e-02,9.083825813901449941e-02,3.773850343777052085e-02,1.857996225357055664e+00
7.622760563104469256e-01,-7.123973516800136130e-01,7.554560136574441920e-01,6.390603984624519673e-02,1.106298965768176407e-01,-1.399237599458706960e-01,1.507433533668518066e+00
7.384969059386066181e-01,-6.676962297550945724e-01,6.697796602866616933e-01,6.381391126567921568e-02,1.515313459088767425e-02,-1.188453299168154287e-01,1.393107891082763672e+00
8.679698932503396858e-01,-1.026900264639781568e+00,7.395052325288078432e-01,2.803294868701842329e-02,1.070847640123062938e-01,-1.167174995988734115e-01,1.855057954788208008e+00
7.784553721311359142e-01,-1.028469401776003878e+00,7.922443322307689550e-01,7.323335697666999954e-03,1.074221983142380210e-03,1.030891987218914181e-02,1.813991785049438477e+00
7.074899312906804960e-01,-9.923886514383436497e-01,7.405808617289758589e-01,-8.458141771386638343e-04,1.694612755798510784e-02,-1.823028406773145871e-02,1.717205166816711426e+00
7.198235503327834461e-01,-6.240930586418370618e-01,7.158764911942797626e-01,1.363090197658682889e-01,-5.424326409612018930e-03,-3.691459606416474387e-02,1.364089369773864746e+00
7.841096785031389516e-01,-1.034593376227197048e+00,7.909078520745955743e-01,-4.712052833734324195e-03,-3.661510493489301271e-03,-2.017694799828980822e-03,1.822144269943237305e+00
7.946577805909113001e-01,-9.769808862756383938e-01,7.675440483166067196e-01,1.251150113785495094e-02,-1.188993783950148542e-02,8.604006779367456836e-03,1.758555889129638672e+00
7.848040674137544137e-01,-9.818278851020094677e-01,7.780732959042382380e-01,-5.889393226813569374e-03,-1.171754377890964552e-02,5.434629639496577937e-03,1.763447642326354980e+00
7.865782627009181294e-01,-1.048199172032380444e+00,8.077279301914663812e-01,-1.233759473479114147e-02,6.476814401741701546e-03,4.086641057957915608e-03,1.845614552497863770e+00
8.604075265817321405e-01,-1.131885561508191751e+00,7.415233880577793979e-01,7.204952685502938325e-02,1.964024657905194537e-01,1.531585895330403804e-03,1.969216942787170410e+00
7.259384766098532227e-01,-7.796667492116177156e-01,7.190025199228652353e-01,-5.382180985220696989e-02,6.722467464386440959e-03,-2.157187193112627965e-03,1.505088806152343750e+00
6.592792940521748912e-01,-1.006673269322042374e+00,8.345456964877329131e-01,1.031857677140922587e-02,8.842179523753395179e-03,-6.314656161140703300e-03,1.760333895683288574e+00
7.819778750282119217e-01,-1.038455660838240258e+00,7.950032274210645511e-01,-1.663583748694583142e-02,-2.696565510532555193e-03,-7.807041546976457858e-03,1.827264189720153809e+00
7.841312221978856689e-01,-1.031851997133453436e+00,7.914341675182331448e-01,6.884622158448012487e-03,7.729338230982762091e-03,-3.619619729424715208e-03,1.819744825363159180e+00
7.856043977003133172e-01,-1.034396905520205134e+00,7.873768445679030226e-01,2.553603129203914270e-03,1.020531191472645594e-02,1.620165867693113774e-03,1.820981502532958984e+00
7.745307027382408727e-01,-9.995918232100731160e-01,7.904038556673355087e-01,-1.857669294939380805e-03,1.241485111906471227e-02,5.358953163704913841e-03,1.782268881797790527e+00
7.969585011334264779e-01,-1.024132187051646881e+00,7.410915378135336518e-01,1.043400486902413063e-02,1.170376409072276802e-03,7.862797135362184497e-03,1.793953657150268555e+00
8.000789275970252579e-01,-1.024659496652244428e+00,7.690217655705737787e-01,-8.028554711439477021e-03,5.134350684318229885e-03,-9.962133323598364870e-03,1.809567332267761230e+00
8.886572245621241484e-01,-8.142684352257115732e-01,6.251854090467140468e-01,-9.136628253243402054e-02,-1.960158759548895346e-02,-9.205362650613636843e-02,1.603844761848449707e+00
8.171100183694142149e-01,-1.028863504254107442e+00,7.549846857425225322e-01,1.411154867307399391e-02,-8.280351841330725604e-03,-3.243466120497896354e-04,1.815929412841796875e+00
7.808206750353391401e-01,-1.018001099555908118e+00,7.877174449387284172e-01,3.806367166011754427e-03,3.925845553545763769e-03,8.530801706249770220e-04,1.802305579185485840e+00
7.755085374130253895e-01,-9.936442041621247334e-01,7.837716649782819900e-01,-4.306009130389029833e-03,1.028355357073891356e-02,-8.153414610204502699e-03,1.773460149765014648e+00
7.344352911776755866e-01,-9.008828687038021865e-01,6.729876820007882898e-01,-3.705115902086954325e-03,1.154586500119637038e-01,4.793858476887639941e-02,1.620025515556335449e+00
7.168331899803861429e-01,-1.010981268976266279e+00,7.618308675773090011e-01,1.135579565640417246e-02,8.545564433872523263e-03,-1.976552540394338475e-02,1.751254796981811523e+00
7.759524366340442292e-01,-1.034439016369344211e+00,7.827737747077427866e-01,1.477433118010406353e-03,3.433267525345058083e-03,-9.304690734133719103e-04,1.813824057579040527e+00
8.444375858171699889e-01,-1.012108768911538670e+00,7.167035882710818262e-01,-5.144360958780566824e-03,-2.130737493271508270e-02,-1.130501682640714656e-01,1.807129979133605957e+00
8.613439968307758932e-01,-9.356818238075435001e-01,6.937496250879104931e-01,-3.584381748377162002e-02,-5.202204721605285104e-02,-2.841318831886769369e-01,1.791754484176635742e+00
8.250013772173330207e-01,-1.032790416267214573e+00,7.645074276100713995e-01,-5.677676132018277810e-03,7.749976327507061835e-03,-2.079181864072776262e-02,1.828725934028625488e+00
8.037787238330605932e-01,-1.018396466983430004e+00,7.460888289263525319e-01,6.273230511627838485e-03,-4.680723149007390976e-03,-3.197150959111725969e-03,1.794085860252380371e+00
8.410108101264015534e-01,-1.041229530753159382e+00,7.157807572764705029e-01,5.453673756653105434e-04,3.983357781041403298e-03,3.427473270029313124e-02,1.823834180831909180e+00
7.742545845683637129e-01,-9.626272374174059676e-01,7.693597172954597108e-01,4.673134066351530293e-04,-1.429645826860763674e-03,-1.639484535280755911e-02,1.734673976898193359e+00
7.981267344109775896e-01,-1.031869891064703060e+00,7.709789105960120903e-01,7.695781715940836626e-03,1.233353630417980372e-03,-2.221888652091436739e-02,1.817032575607299805e+00
7.656340881332566184e-01,-9.542245470582721989e-01,7.577327969976046518e-01,7.341055695518305360e-05,1.910527315289773645e-03,-1.160509445463499788e-02,1.716042518615722656e+00
7.850166164718727080e-01,-1.012430355882103727e+00,7.822637687307001375e-01,-1.686729766606745624e-03,-1.020089766890051007e-02,-6.612481104502996448e-04,1.796161770820617676e+00
7.748324308426844942e-01,-9.701182916975451542e-01,7.693753313799905902e-01,1.128620419014331536e-02,-1.005872635005939514e-02,-7.582431634182649691e-03,1.742474794387817383e+00
7.764600055734059980e-01,-1.012569311382668813e+00,7.874584520584050340e-01,6.939914785397576120e-03,-7.472472123548098803e-04,-6.351362457946721496e-03,1.794628262519836426e+00
7.263114223460480634e-01,-8.023732795326801170e-01,7.305088503295855684e-01,-5.079455522470750078e-02,-1.394319366143417088e-02,1.528052260467179305e-02,1.533732414245605469e+00
7.761999870411427915e-01,-1.043902518121714529e+00,7.919692725580842474e-01,3.920188200024406558e-03,-2.315046994064335045e-03,-4.056635111246976316e-03,1.828068614006042480e+00
7.838883929345961121e-01,-1.014414808524241707e+00,7.891039769303462847e-01,-9.640309248991956945e-04,-1.468071463547837574e-02,7.781965913623571825e-03,1.801147341728210449e+00
7.799599271766083364e-01,-1.025926647510505330e+00,7.694944913567878242e-01,1.931418486125285189e-02,-7.860457021914139288e-04,-1.771619336692217134e-02,1.801249265670776367e+00
7.797360310114010984e-01,-1.024718877481753943e+00,7.661745800161950948e-01,9.908790908039248613e-03,1.347566272446811767e-03,-8.244958196443469278e-03,1.797852754592895508e+00
7.310626372603710177e-01,-8.680997646461783290e-01,7.683326863929933470e-01,-2.294126345971357964e-02,1.073315533314028042e-02,6.800784016384125649e-03,1.618756771087646484e+00
7.502310487867623889e-01,-1.016557072056731847e+00,7.690856850496227137e-01,9.636324317854392044e-03,1.526530015339233257e-02,-1.831438553235663000e-02,1.776848793029785156e+00
7.848004329628915920e-01,-1.031701170622547625e+00,7.719814516491739775e-01,1.329877122848647890e-02,-4.938822011047066737e-03,-8.385419927725892494e-03,1.810351133346557617e+00
7.369795945322118458e-01,-1.020663261140850153e+00,7.640688411936996660e-01,2.162060482872861164e-02,3.110537636586377386e-02,-1.992235190523270957e-02,1.772893428802490234e+00
7.569452087619046310e-01,-1.009018177178662157e+00,7.067340421472297907e-01,1.297100971204664423e-02,4.989670853905887882e-02,-7.597405146595403135e-03,1.743738412857055664e+00
7.691208093688409742e-01,-1.019049648544533948e+00,7.384149028918998159e-01,2.233447061095666236e-02,2.201849954189484884e-02,-1.712253769252177968e-02,1.774096846580505371e+00
7.677312900945731933e-01,-9.953533267220311398e-01,6.643336954708201070e-01,2.925651365759880315e-02,-1.758933760034255556e-01,6.170861407051535241e-02,1.744610786437988281e+00
8.066235018190771600e-01,-1.066681002437209536e+00,6.777989232110704920e-01,6.806394161202168613e-02,-1.293387717790791536e-01,4.020965067567904005e-02,1.831248760223388672e+00
8.023072208658230675e-01,-1.021956054246324408e+00,7.215957718087575579e-01,2.718428912768709738e-02,-1.412081199768578342e-02,2.050635225833460917e-02,1.786417841911315918e+00
6.972761965775371440e-01,-9.824614771546796854e-01,7.479488969274276089e-01,1.932618114953126021e-02,-8.250859198885877877e-02,2.110170472925165103e-02,1.712332487106323242e+00
9.309230099444961715e-01,-1.130686026394202681e+00,6.238430325302168900e-01,-1.289630017893305010e-02,-1.440881549282058416e-01,-1.068469813789985623e-01,1.951533555984497070e+00
7.679822601179239205e-01,-1.089796659377270327e+00,5.597839064035381451e-01,5.146930550948044386e-02,-3.092441168204927981e-01,5.624493259733533146e-02,1.847223877906799316e+00
8.014130370300707185e-01,-1.024732067189811247e+00,6.922773240601278744e-01,1.551530752945974199e-03,-4.222007375185680977e-02,5.418471244626714076e-03,1.775629997253417969e+00
8.213535498682711378e-01,-1.030017153032156907e+00,5.801133880697280087e-01,2.165206626949235658e-02,-1.187981985129157314e-01,4.888854910125198239e-02,1.757856965065002441e+00
8.192029318684914685e-01,-1.016849106582534468e+00,6.372470208543306036e-01,6.608854167863877256e-03,-7.957849481881688891e-02,1.173836464394587518e-02,1.757742047309875488e+00
7.250002330579219390e-01,-1.014963489929384677e+00,8.011498445843444616e-01,-1.565823037745146112e-02,-3.971652871769047570e-03,-3.484707646870729807e-03,1.779491305351257324e+00
7.583167830119753594e-01,-1.023812082326991835e+00,8.100772985108898316e-01,1.292202828576602749e-02,-6.008168519204010009e-03,-6.464225849068965836e-03,1.808767795562744141e+00
7.574183670983434258e-01,-9.812819366161904533e-01,7.832380446263766949e-01,1.628019087486037506e-02,6.983079515642524882e-03,7.570728047898586666e-03,1.752070665359497070e+00
7.429214672048922719e-01,-9.013593202559790907e-01,7.817331818080131001e-01,5.268900952058266918e-02,7.617460092042468642e-03,3.835871470216591778e-02,1.667902827262878418e+00
6.636600088339695835e-01,-7.966322737424476053e-01,8.595258950305499912e-01,1.423840378331450163e-01,7.793511460592926141e-03,1.200636519064756103e-01,1.600339412689208984e+00
7.406228877592464510e-01,-8.214529239202210675e-01,7.339998515909369470e-01,5.932494160140198286e-02,4.401835154095441044e-03,9.986472406785925834e-03,1.562272310256958008e+00
6.635316649313629522e-01,-3.124542794876094542e-01,6.692160066763319648e-01,4.884602971275660982e-02,-1.336777910453680433e-02,2.156290845951788077e-02,9.834721684455871582e-01
7.336626339212831693e-01,-1.796616172746700602e-01,7.161821424213529186e-01,-5.970059479463716776e-03,2.420839264627722490e-02,1.012348978386794739e-02,9.059105515480041504e-01
7.468687498464268160e-01,3.767453159257255768e-02,7.225022120243163037e-01,7.477141803624726135e-02,-7.562077880020204312e-02,-3.710972833320811543e-02,7.241054773330688477e-01
8.063404665954400086e-01,-1.305879547128439011e-01,6.878796070455814871e-01,3.079922692636092706e-03,6.390561523863971805e-02,-5.766270274523799255e-02,8.961772918701171875e-01
7.087444974822110222e-01,-7.070661234511415039e-01,7.212964328209192644e-01,-1.797351945890349467e-01,3.333224881187128730e-02,-2.365794402375559838e-02,1.457523584365844727e+00
6.981507407092097939e-01,-3.661538195653751271e-01,6.573016653672727472e-01,-9.319842122050008004e-02,-1.119867405776715265e-02,-3.749615666575607104e-02,1.059050917625427246e+00
6.466750860377274979e-01,-3.155729745738390379e-01,6.420653199535935052e-01,-5.456116757624054209e-02,1.888688910706326149e-02,-4.475982479586965157e-02,9.682551622390747070e-01
7.423279208430624276e-01,-5.304911483752030588e-01,6.932458712339634177e-01,-6.228721343282408313e-02,-6.016608175834590490e-03,-1.411441068643995156e-01,1.277308702468872070e+00
7.266863441864230833e-01,-6.077048182919545516e-01,7.094434552288184648e-01,-1.176887200378750331e-01,-1.008480284473242672e-02,-1.560479322661790513e-01,1.368502140045166016e+00
7.225124546018008020e-01,-6.054297599590272583e-01,7.185473482747296581e-01,-9.092525533708602226e-02,2.224789017720436683e-03,-1.449311177684361740e-01,1.358680605888366699e+00
8.724427606997642304e-01,-1.027540238025008934e+00,6.562050067767861705e-01,-1.028639461494304519e-02,-4.860394347959792749e-02,4.054767784709299358e-05,1.803676962852478027e+00
9.129958324236429057e-01,-1.116201794182631657e+00,7.174853628602914091e-01,8.096230344687956396e-03,1.647644373898218134e-02,3.067314100861311815e-02,1.939838051795959473e+00
8.728479942059326202e-01,-8.523196035253495229e-01,6.957639017961232408e-01,5.841311823736694553e-02,-1.523042421498314522e-02,-2.229260975943339051e-01,1.691769123077392578e+00
9.645902148242486707e-01,-9.738425591886310517e-01,6.101338101776707656e-01,-1.390988716050105094e-02,-1.202181642548003498e-01,-1.784072982139301919e-02,1.800267696380615234e+00
6.384958436480842048e-01,-1.011011750188456126e+00,7.549680716910173173e-01,-1.339876671500183410e-03,1.117701898709655278e-01,-1.632256581594080736e-04,1.721640467643737793e+00
7.746397062799526001e-01,-1.025096101240527302e+00,7.861225957054995828e-01,4.813290601600603985e-03,1.965485718826611838e-03,5.151621345553503671e-03,1.805549144744873047e+00
6.247271094662436575e-01,-9.822006570085243249e-01,7.241547317141446838e-01,1.080710450329906529e-02,1.151997174287404391e-01,-1.109267961075626786e-02,1.671050071716308594e+00
6.957708955613948199e-01,-9.837343602647876661e-01,6.936730398908146356e-01,-8.129269074923242688e-03,5.752056242604430825e-02,3.729793333294728098e-03,1.681482911109924316e+00
6.004842955388661752e-01,-9.864945175893448104e-01,7.497252638754022813e-01,-1.097700069393450426e-02,1.707067659651033409e-01,1.499117822626165261e-02,1.692948579788208008e+00
6.615944399663644671e-01,-1.046132050995382645e+00,7.367977530331160096e-01,2.874625591985931206e-02,1.732239156055623563e-01,-2.314898252864595191e-02,1.773278951644897461e+00
6.874573520723001874e-01,-9.768420915762822121e-01,6.895215440530046980e-01,8.184270143462603342e-04,6.403422001160724575e-02,-4.773572216235091805e-04,1.669022560119628906e+00
7.110343503638101303e-01,-6.186471018632249130e-01,6.977362290729876015e-01,-1.276325190265338860e-01,4.202395950622368759e-02,-3.744909983841795964e-02,1.344962000846862793e+00
7.312749000541471922e-01,-7.638034226084973177e-01,7.313227475414558754e-01,-1.413740883061854504e-02,1.938013899840192178e-02,-2.566265113713368101e-02,1.496339797973632812e+00
7.327948951367539987e-01,-7.511115342553416063e-01,7.208086232831281137e-01,-2.467492003223865915e-02,1.708607079779553978e-02,-3.473115298099686788e-04,1.478863835334777832e+00
7.813055448207988363e-01,-1.024222369781275344e+00,7.987396984305259462e-01,-5.539638144343730919e-03,-4.384415587946274145e-03,-9.950643135743210410e-03,1.814430952072143555e+00
1.157834803098781506e+00,-1.133309223259230558e+00,2.866327532255568133e-01,-3.865469486976724767e-02,-1.221954377090256512e-02,-8.321426189478357827e-02,2.009474754333496094e+00
1.168154041909096774e+00,-1.168251725921976014e+00,3.385792308054615951e-01,-3.733607818957586366e-02,8.145990323041482628e-02,3.570111312840670847e-02,2.058318614959716797e+00
1.266321272250247931e+00,-1.217608329019274072e+00,8.227437378343270546e-02,-6.254672947035917752e-02,-6.194621679110282053e-02,1.818107887004972723e-01,2.180182933807373047e+00
1.517716959461622883e+00,-1.845562163620478202e+00,2.311717094919770177e-01,-2.898276432524382606e-02,-2.298223970808228600e-01,1.889859931956649336e-02,2.966796398162841797e+00
1.220517435408460249e+00,-1.223744490983239785e+00,1.148331522946553912e-01,-2.023667477585842922e-02,-1.122242819580897000e-01,1.811254423170174654e-01,2.152162313461303711e+00
1.329512910443751972e+00,-1.301599329195646915e+00,5.870949290010916283e-02,-5.727580987946617047e-02,1.314602722909411769e-01,-1.974972409255478234e-01,2.317923307418823242e+00
7.756093332378652949e-01,-1.032191874566673828e+00,7.726682009921179706e-01,7.392345467603630114e-03,6.122577670613534029e-03,8.323054593776408607e-05,1.806409001350402832e+00
1.980683368754310836e+00,-2.255080341505411479e+00,3.154322275359467409e-01,4.094815263567187780e-02,2.428007222487586769e-01,2.442362385058808594e-01,3.744594335556030273e+00
7.989994311102797120e-01,-1.003241401088693641e+00,8.043002750450014560e-01,-2.846600731072520749e-02,-4.523027946874359773e-02,-1.210979344476481034e-01,1.819399833679199219e+00
7.664599751006456740e-01,-9.290782867506872655e-01,7.801650940643158894e-01,-1.099044959784932635e-01,1.282816475487345842e-02,-4.012234268111575242e-02,1.714594841003417969e+00
7.472644617129928779e-01,-9.536407533191368913e-01,7.707011963367980112e-01,2.315885806128310798e-02,-1.208129860540494219e-02,-4.657654600111070867e-03,1.713360309600830078e+00
7.788620261649522591e-01,-1.005832642085656037e+00,8.295456611026439386e-01,-5.399047847009782325e-02,-9.268310792705325082e-03,-1.392021129655593263e-02,1.813213348388671875e+00
7.613315394323777463e-01,-1.069765504238807896e+00,8.376951572248604316e-01,-3.487990563255947973e-02,-5.905285638012961608e-02,-5.311998930498925547e-02,1.876473784446716309e+00
7.335941494613139602e-01,-1.002285567929172228e+00,7.853830343793105628e-01,-9.136536960354921244e-03,-2.489312882009765693e-02,-1.419406818957683926e-02,1.763114690780639648e+00
7.080873143758361632e-01,-1.015583367612775234e+00,8.158367653358580274e-01,-3.265615178526695694e-02,-1.961521473743012278e-02,7.834848208487794896e-03,1.781267166137695312e+00
7.338080325902218704e-01,-8.159724662122218586e-01,7.627977098308003079e-01,6.559225673128860068e-02,-5.094152258369157027e-03,-2.385587481212083499e-02,1.569165349006652832e+00
7.329630009354805020e-01,-8.216888711020567948e-01,7.609177915254566882e-01,6.147690235564445133e-02,-4.630201182740173275e-03,2.439490975264635431e-02,1.573013544082641602e+00
5.806316467856853514e-01,-1.072749533647662679e+00,8.949992388378608110e-01,-4.543430607607368971e-02,3.863012066543126954e-02,4.419718706394629160e-02,1.835427880287170410e+00
6.617211711798391960e-01,-1.030771434710510137e+00,8.564323164467790850e-01,7.052772344319574276e-03,-6.109401055786799206e-02,-3.118365901378133270e-02,1.801736593246459961e+00
7.765165223133522199e-01,-1.035782627118538857e+00,7.984932727381727213e-01,1.579439147310716246e-02,-4.188319321879923132e-04,-5.253724338193830994e-03,1.823614954948425293e+00
4.698339835381012408e-01,-1.302369846184864066e+00,1.196420928509787540e+00,4.058997247116075818e-02,3.712939157477927743e-02,-5.577508193634823919e-02,2.230404853820800781e+00
7.663282635529349296e-01,-1.028871959198570218e+00,7.834231185326986369e-01,1.033538153253616690e-03,1.856097205254390436e-03,-9.437505286196665871e-03,1.803886175155639648e+00
7.804582678821085917e-01,-1.035454041016281357e+00,7.864127488655336951e-01,2.318696306855084609e-03,6.311424048025515363e-03,4.209263211144443489e-03,1.818948745727539062e+00
1.320004703989371420e-01,-1.144538824526830645e+00,1.133547699855848911e+00,-1.720965362828837941e-01,-2.961831711469106732e-01,1.427851973950135939e-02,2.064897298812866211e+00
7.395054711064886765e-01,-1.014973366429017476e+00,7.544159601895576994e-01,-4.459645061436850436e-04,-1.301035205167462312e-03,1.080246784597343676e-02,1.762082338333129883e+00
5.971672125012482679e-01,-9.974694691757388654e-01,8.322156091202224104e-01,-9.170318085388783069e-03,1.283470916213689389e-02,-1.918243028274529277e-02,1.724755406379699707e+00
7.639933875720619216e-01,-1.021427447053255388e+00,7.505412875466752620e-01,9.824495732120117064e-03,1.866409211708778756e-02,-5.388122603239680827e-03,1.779132485389709473e+00
7.459949723889687523e-02,-1.413087405357242199e+00,1.406983347090595693e+00,-2.353919709402655935e-01,-1.936790907094691067e-02,-5.966823678928760005e-02,2.479649782180786133e+00
9.540359126380494326e-01,-1.211262320393469150e-01,7.697737041788141887e-01,1.639020028193351880e-02,1.064632610003447832e-01,-6.695248777940451812e-02,1.019838929176330566e+00
7.400902139664315982e-01,-1.012952949639794209e+00,7.492765350166891158e-01,-9.300176131177065038e-05,-4.543334220827468725e-03,-4.539299494135592148e-04,1.757672071456909180e+00
7.281722774751158145e-01,-1.015412455007659975e+00,7.604118806370383510e-01,3.018933365116523832e-04,4.351089290397738667e-03,1.733754380844758705e-02,1.760198354721069336e+00
4.153428307841777745e-02,-9.939535050772301261e-01,1.186096925866134910e+00,-2.449043847740761115e-01,1.331702694525765396e-01,2.840777386639609450e-02,1.950127601623535156e+00
9.199632219217110940e-01,-9.843877344823861453e-01,4.269503822274802185e-01,2.161343269878422159e-03,5.797874523708145163e-03,1.598199645709558756e-03,1.711977601051330566e+00
7.610130060980474509e-01,-1.026155492573156192e+00,7.705091572337999795e-01,6.810384175077873262e-03,-5.628894798995769458e-03,-1.029604891261757908e-02,1.792089581489562988e+00
4.891104082710744372e-01,-2.231797226496539999e+00,1.663870659992004120e+00,2.084500169966305161e-02,5.988416863580763305e-01,3.359660654551158837e-02,3.613909006118774414e+00
7.700891659860895633e-01,-9.782633163854903557e-01,7.974952122028622359e-01,-5.867980496615294098e-03,3.978811545027584546e-04,-1.990205846749131327e-02,1.762581944465637207e+00
7.721364984563177103e-01,-8.850677900387833308e-01,7.487565681840844256e-01,-3.478628946087296281e-02,2.646046910594241058e-03,-4.465709304982091316e-02,1.648563385009765625e+00
8.757893430186360906e-01,-1.045998743146798526e+00,6.907566402419051954e-01,-1.076761346123814543e-02,-2.111101815688999281e-02,1.442615920679835538e-02,1.836905598640441895e+00
8.202198169822823015e-01,-9.739192876247126929e-01,7.101862634495541560e-01,6.765978747845037382e-03,-7.589332949175315451e-03,-1.122209997411506219e-02,1.741928458213806152e+00
7.927703760255540022e-01,-9.571433914306282098e-01,7.097256562725644535e-01,-4.492570299262998480e-03,-1.220343996613184375e-03,-9.479790289707308582e-03,1.710002422332763672e+00
7.777468765801046624e-01,-1.016147532453300695e+00,7.640870011403305684e-01,-1.488757934168795762e-03,-3.340283908336542582e-03,-1.652900981982395037e-03,1.787117123603820801e+00
7.869151678131628413e-01,-1.018559430027218715e+00,7.690312207604703687e-01,8.645141903195622743e-03,7.370885988812265338e-03,5.109975791812406548e-03,1.796728968620300293e+00
9.908304361499619128e-01,-1.167041254153507346e+00,7.165973466925906754e-01,-4.509969704218375064e-02,-7.059158923160320509e-02,-7.169010409344024615e-02,2.043605566024780273e+00
7.755657137243994192e-01,-1.033874464005297478e+00,7.663327807623305787e-01,3.084435237814258692e-03,-4.989245668146718299e-03,3.417325989944365334e-03,1.804879665374755859e+00
9.215412801745249682e-01,-1.006046806868985843e+00,4.794071856098229834e-01,-1.234874265411265923e-02,1.536884125461888961e-02,-4.354891848446126867e-02,1.750908732414245605e+00
7.743488847744074421e-01,-1.051269119622121107e+00,8.251300339311787857e-01,2.553780425549182637e-02,3.115205527966358038e-05,1.418137731171154048e-02,1.852222084999084473e+00
8.658475605109017259e-01,-1.001048942651538098e+00,5.551816496970217729e-01,-1.639282874574087695e-02,-3.904552998488366143e-03,-8.323800330215807078e-03,1.732886195182800293e+00
3.953246356512434279e-01,-2.242057933149189886e+00,1.816947269308184953e+00,1.647964296447048879e-02,4.240552342764768445e-01,-2.723095646055259667e-02,3.642618417739868164e+00
7.403290099176234040e-01,-9.338983127851814281e-01,7.901977568813723929e-01,3.062130006703037144e-02,4.700203357277832339e-02,2.126075357578328939e-02,1.702883481979370117e+00
6.405823912282647692e-01,-1.017230110394288456e+00,8.363561102813864556e-01,-7.898152335859163695e-03,3.633793849237819396e-02,1.828730193085282077e-02,1.765326499938964844e+00
7.896124045127758118e-01,-1.001262829246253983e+00,7.839786446994810865e-01,8.887498268923554184e-03,-1.101098321670524946e-02,-1.139067197597772897e-02,1.788341760635375977e+00
8.626812741796235917e-01,-9.796478034215838626e-01,5.180670840660062115e-01,-7.539327930168534392e-03,2.968493894180662673e-02,-2.318714430698875367e-03,1.697313427925109863e+00
7.376257504640139073e-01,-1.018664491798060734e+00,7.698102000664263089e-01,-4.453391193248485043e-04,-1.305371333943839644e-03,1.738289267788768050e-02,1.772858858108520508e+00
7.534180886454930892e-01,-1.011786175444031599e+00,7.281549178562791713e-01,1.426413752552005768e-02,-8.690294224256892019e-03,1.199997690386061210e-02,1.753071188926696777e+00
7.015072409225528993e-01,-6.585431619608411724e-01,7.052233849784727004e-01,-2.480500019839335102e-03,-2.672813770118594168e-02,4.216277281923226997e-03,1.362725257873535156e+00
7.591248619868629088e-01,-1.090893481504732643e+00,8.327499615206676031e-01,-3.734354237480870531e-03,5.294421421721200866e-02,1.563345962193592870e-02,1.890338778495788574e+00
7.672029288658630541e-01,-8.417764616351464113e-01,7.291754365538771765e-01,7.262511428022576723e-03,-1.602026827628209166e-02,-3.118508634539202736e-03,1.590607643127441406e+00
6.355323010307664111e-01,-1.039890978724889781e+00,8.662982421233972330e-01,-2.645507548182950142e-02,5.277287507529192234e-02,1.227668833933128617e-02,1.804946899414062500e+00
4.605864218893138129e-01,-1.113296628871946581e+00,1.072433381937912378e+00,1.388210663360506247e-02,4.888769500688047165e-01,4.030034812136504274e-02,2.129998207092285156e+00
5.841088905506671702e-01,-1.009376787345683368e+00,8.598487468175068926e-01,1.286872038083754916e-02,9.513465169741434479e-04,1.374146890673265398e-02,1.748051047325134277e+00
4.725640108122756144e-01,-9.992631422578399647e-01,7.907928702220639039e-01,2.270934876595257293e-02,3.900636948983003394e-01,2.100070423697375163e-02,1.787523984909057617e+00
7.752242963180040469e-01,-1.013073737789522477e+00,7.949958347978455242e-01,1.338905559218334009e-03,4.371438868733509668e-03,2.021709948784132429e-03,1.798286199569702148e+00
6.831805911409367660e-01,-1.170896672423414442e+00,8.650421523447298089e-01,5.122827405210726021e-02,2.477262971542389114e-01,-1.333382217267327016e-02,2.000093221664428711e+00
7.570225243334618437e-01,-1.012439089136869974e+00,7.231598010065118931e-01,1.541235038068453078e-02,-5.101143253365402266e-03,1.027250349781984318e-02,1.753091454505920410e+00
7.566258965287011584e-01,-1.023531139295715819e+00,7.682989106552493563e-01,5.523879002999238647e-03,1.302920360911657602e-04,6.886623915261192927e-03,1.786087632179260254e+00
7.160897622069619661e-01,-1.007478603868348310e+00,7.566630166774177546e-01,-2.357912577934907078e-02,-4.262792399397184739e-02,-2.890971670114419675e-02,1.746966361999511719e+00
7.506003264801108799e-01,-1.004207956367955790e+00,7.028524631485151275e-01,-3.170669192196469421e-02,-5.423362664022918223e-02,-2.559883319409765948e-02,1.735410451889038086e+00
7.519115115351616696e-01,-1.015379329103033967e+00,5.399317776333621977e-01,-2.501412703317124758e-02,-2.372008471256927820e-01,-1.763316446945071420e-02,1.721982955932617188e+00
6.555335917645389587e-01,-1.013460014054261782e+00,6.198993665867453817e-01,-1.621648818301624217e-02,-2.766285202124433851e-01,-2.150471426327738717e-02,1.720198392868041992e+00
7.608459010744296203e-01,-1.022184312874720780e+00,7.470791484864336418e-01,9.894311499837386142e-03,-1.782099975903836397e-02,5.618099182440327265e-03,1.776564359664916992e+00
7.258305785565520862e-01,-1.140490575570017651e+00,7.841436136867596662e-01,-4.934879608860624073e-02,-2.691685671795254198e-01,-5.680671022031244521e-02,1.956969022750854492e+00
7.287084149989112580e-01,-1.117153189260308155e+00,6.752091706178708908e-01,-5.512993865743413130e-02,-2.185359133933905684e-01,-5.036256139175024349e-02,1.863146781921386719e+00
6.664179739683082637e-01,-9.989803557273585488e-01,7.163124757661395448e-01,-1.996534711018767977e-02,-1.107195454323359474e-01,-2.344228870726029756e-02,1.702573418617248535e+00
7.348633306742171634e-01,-9.996535288035409694e-01,6.684399218307955914e-01,-2.356880078901505207e-02,-9.424419923451425596e-02,-1.951607466158824036e-02,1.710907101631164551e+00
6.324486739749781705e-01,-1.018645628759059285e+00,8.113387555255490158e-01,-3.507853982826864003e-02,-1.101895016635862368e-01,-2.155196116264576287e-02,1.759257912635803223e+00
7.731218289489988349e-01,-1.019379985194817095e+00,7.405957001693543873e-01,1.630483139276715787e-02,7.742053088144617732e-04,6.416213488769063021e-04,1.776687383651733398e+00
7.537687271672938172e-01,-1.020049220766563014e+00,7.506970058840108928e-01,8.039797114022348423e-03,-1.047472234080146572e-02,1.222804608074820956e-02,1.772558212280273438e+00
7.553577227084730117e-01,-8.318727829308660837e-01,7.297903396771623363e-01,1.244752384293535546e-02,2.078787216972002513e-02,3.278481936301842065e-02,1.576184868812561035e+00
7.494533488381389663e-01,-1.008287106923073884e+00,7.320596694038095098e-01,-8.590494548827556920e-03,-3.241394388209205540e-03,-4.888315724824413878e-03,1.749201297760009766e+00
8.009508409336416612e-01,-1.054152912602771996e+00,7.954435018561145654e-01,-5.024612699635085458e-03,-2.599832812132205073e-02,-2.953506432249518136e-03,1.852931022644042969e+00
7.087500493248053424e-01,-1.003578534750889872e+00,7.278670937197231350e-01,1.530035094291376865e-02,-3.784530877686149986e-02,2.008811142036359687e-02,1.723768830299377441e+00
7.738595202043856425e-01,-1.029965994393074347e+00,7.920900921562754604e-01,1.640641960925615312e-03,4.701313781665834857e-03,-9.736775201914075334e-03,1.813108444213867188e+00
7.833975515037593373e-01,-1.015436082186884192e+00,7.795502899395069241e-01,4.449283362177641234e-03,-1.061814297220539660e-02,-4.158189386326491266e-03,1.797038197517395020e+00
7.428483911969914200e-01,-1.012423694554151599e+00,7.708958960367370272e-01,2.430952048130449739e-02,-4.861064498961856217e-02,2.488808449493437602e-02,1.772489190101623535e+00
6.992324858329026505e-01,-8.138181956658050442e-01,8.157521981741976402e-01,1.903157962751466925e-01,1.366625149056254450e-02,-5.340663851024607389e-03,1.608883380889892578e+00
6.817478758561406060e-01,-8.486362075876267008e-01,7.674573087410054839e-01,6.871996041669063693e-02,-1.039140369797420443e-04,-3.644844467249777446e-03,1.579492688179016113e+00
7.649905001247324643e-01,-8.917501776447441797e-01,7.500970549155638878e-01,5.080530404499922041e-03,-2.187170903269607808e-02,-4.836194056647065767e-03,1.649824142456054688e+00
7.875398640685402629e-01,-1.000727783418462913e+00,7.845307021198951736e-01,2.718014794065930217e-02,8.566468321296195204e-03,2.023607018001076507e-02,1.787790298461914062e+00
7.764565871873483349e-01,-1.031180020495994665e+00,7.954176822624172694e-01,1.863377838444126716e-02,4.151135213862134406e-04,2.435406177434024794e-02,1.817967534065246582e+00
7.870399515572614746e-01,-9.592484837903652029e-01,7.808008689930476809e-01,9.116810861718335074e-03,-3.037372610706171386e-03,-9.420331060766179085e-03,1.743333101272583008e+00
7.387843654424522954e-01,-1.030486092169331735e+00,7.160321318698753545e-01,3.048339042092454085e-02,-1.525214711710931592e-01,2.444836408504787520e-02,1.779030680656433105e+00
6.879751125912065834e-01,-5.544988717809004042e-01,6.672710279004208100e-01,-1.067930155926741925e-03,1.471604252685298000e-02,-3.579730892447671037e-03,1.232532978057861328e+00
5.940508978190390810e-01,-1.015546398352114243e+00,8.246704565289243449e-01,2.599338335723134705e-02,-1.346948831386295675e-01,2.348896537821938343e-02,1.753084063529968262e+00
6.048993669762059433e-01,-9.962168634412571500e-01,7.349984161891811585e-01,2.187707343398827622e-02,-2.046040719807790675e-01,8.901489938468945193e-03,1.707648873329162598e+00
6.986966716792438747e-01,-9.779349379838527812e-01,6.516415234355243946e-01,-2.593837709107081613e-02,1.997551359327526532e-01,-1.326113200146985388e-02,1.690167427062988281e+00
8.156122431717467425e-01,-9.835592865508708815e-01,6.768190782592098387e-01,2.820631730632713538e-02,-3.301375176393086391e-02,1.655272893532339085e-02,1.735813260078430176e+00
7.311185624497282820e-01,-9.963878329017524793e-01,7.207689348943009389e-01,7.720760940794314971e-03,2.487089061181101124e-02,-8.609155253944927432e-04,1.722946047782897949e+00
5.799721134512774157e-01,-1.030469515658476443e+00,8.406404308292959593e-01,5.948623962101313306e-02,-1.499809099125118395e-01,2.147067870071659584e-02,1.777847886085510254e+00
7.126716413091798152e-01,-9.819780429379818543e-01,7.079965595386313870e-01,-5.089799615568041304e-04,-3.187815141315001460e-03,-8.525215854825043483e-04,1.692326903343200684e+00
5.840495123658807630e-01,-1.027653305667268757e+00,8.448281151336056727e-01,-1.545548901509753541e-02,-1.410913166331956847e-01,-2.342034571147064842e-02,1.774252414703369141e+00
7.900592491172779841e-01,-1.018342334253033998e+00,7.836643283791544512e-01,-1.063795308540358558e-02,-1.039797097717125307e-02,1.550768008166973069e-03,1.805398464202880859e+00
7.995546739234629108e-01,-1.034353416015932448e+00,7.710154903984951513e-01,9.211047549142772906e-03,1.364506376639461728e-03,5.877512903352121072e-03,1.819906234741210938e+00
5.275267821758252706e-01,-1.004411524929151867e+00,9.157566947813774449e-01,2.056540474088559139e-03,7.049827430295751984e-02,-4.030978756213122668e-03,1.762745976448059082e+00
6.445652865931725817e-01,-9.979399511761970487e-01,7.554065307253301498e-01,6.732586801865179764e-03,-9.623761222935686699e-02,8.486837059774522847e-05,1.708826422691345215e+00
7.849591350755907859e-01,-1.004926026077091361e+00,7.780308038234831081e-01,9.078679712937579721e-03,-8.156176499776681202e-03,2.589313585678910089e-03,1.786561727523803711e+00
6.885748385238814606e-01,-1.042253250590021052e+00,8.656613016652965342e-01,-1.383759498737525961e-02,2.691833494723963605e-02,-2.699369808968319923e-04,1.826576113700866699e+00
6.909334413498897653e-01,-1.024093158987772867e+00,8.468143685506233087e-01,-9.270544208811281120e-03,6.224159880749537480e-03,-3.019380567659948021e-03,1.798153638839721680e+00
7.899309385998110056e-01,-1.012693429656370991e+00,7.997411374525150718e-01,-5.769482937331894823e-02,-9.613954650247778441e-03,3.806540876344111091e-02,1.811586380004882812e+00
7.996120990263957395e-01,-8.940441171337536463e-01,7.897753003809490080e-01,-1.562842225856132805e-01,7.966081429108864964e-02,-1.540015982178978213e-02,1.716080188751220703e+00
5.999970926096929169e-01,-9.799719349652409317e-01,7.934564010494016273e-01,6.747967481096663598e-05,1.999163935990296015e-02,-7.673271120994352296e-03,1.685456633567810059e+00
7.908835254278917537e-01,-9.804787018675371613e-01,7.662689268884472771e-01,-5.190004364741564874e-03,-5.929746015681336066e-03,4.701756662183791818e-02,1.761120915412902832e+00
7.793700891091234206e-01,-1.018251404785353920e+00,7.907476249940363910e-01,4.023052622321617033e-03,1.027333290995250704e-02,-9.437413118496003177e-05,1.803438425064086914e+00
7.031738137164574853e-01,-9.834809739598767697e-01,7.212027620321072030e-01,-7.278749805189000592e-05,7.691890787093851739e-03,-3.889403702136840901e-04,1.695793628692626953e+00
8.153734394562131005e-01,-1.023918152268245230e+00,7.217895785681726073e-01,2.864236019593371235e-03,7.411345937611371094e-04,1.298536986462416054e-02,1.794479250907897949e+00
2.061025804200514067e+00,-2.382240730309726828e+00,2.658062853890968968e-01,2.061801965092473210e-02,8.117712298780482838e-02,6.215212174783393828e-02,3.875748395919799805e+00
7.835651605365923089e-01,-1.033028777936895404e+00,7.839003552206535996e-01,-2.112685745314300291e-03,-2.459702657809185837e-03,4.878551678741189189e-03,1.816789865493774414e+00
7.198829677388909332e-01,-1.096540369662478698e+00,8.262479256735681954e-01,-2.547824103283086866e-02,1.192558572990309040e-01,-6.798921533533996975e-02,1.887429952621459961e+00
5.940839150993253437e-01,-8.656513016580776876e-01,8.213396186274929400e-01,-7.932773293368487744e-02,1.759334066557470544e-02,-2.627472866975144594e-02,1.592508554458618164e+00
6.874423204179594959e-01,-1.025144479813385301e+00,8.500884192735875811e-01,3.097138228090967269e-03,5.842242289248665565e-02,7.895145201140863628e-03,1.802334070205688477e+00
8.382945525024263489e-01,-1.028306749159235700e+00,6.954587502193438908e-01,-1.009133314844344598e-02,-1.920772265547792367e-03,4.962375369073668968e-03,1.799548625946044922e+00
7.822372179956001981e-01,-1.025087153329881762e+00,7.840672836947278901e-01,3.426006375438269552e-03,7.726569938501771928e-03,-2.619046945909748840e-03,1.808305025100708008e+00
1.005585202605944861e+00,-1.103890747153904783e+00,3.740067649590919641e-01,-1.762020005967256456e-02,-1.511086247899605661e-01,5.041838427862446043e-02,1.895663380622863770e+00
9.714075379344906391e-01,-1.081859271347668239e+00,4.649742321565216718e-01,-2.414586482351647329e-02,-4.618194300288155918e-02,-6.886403030123983138e-02,1.858739018440246582e+00
8.395731208428564019e-01,-8.924423675470241069e-01,7.730080096396306777e-01,8.333787651698998378e-02,1.374898462985456836e-02,-1.362148230498441137e-01,1.722231984138488770e+00
6.795406468063798222e-01,-4.671291522036201682e-01,6.574655086139266080e-01,1.622671718198342994e-02,6.177603207329032675e-03,-6.012016358487769219e-02,1.140952944755554199e+00
7.796903224378166630e-01,-6.249278176276519270e-01,7.628051639877240220e-01,9.829751434851562164e-02,-1.497970565558320605e-03,-1.639843831075668557e-01,1.434986591339111328e+00
7.924522840685709335e-01,-1.024897651332850490e+00,7.862860234591594333e-01,2.815328391932618926e-03,-1.642033290382495818e-03,2.661702741279212223e-03,1.814289331436157227e+00
7.577111818702662038e-01,-7.038618909544345215e-01,6.927417544848737396e-01,1.510087794770770819e-01,2.682296514547721430e-02,-1.724181303607165705e-01,1.484995841979980469e+00
7.776470378993001198e-01,-1.038211395025242512e+00,7.804120754196552934e-01,-1.620213936673883109e-03,-3.483825571329767640e-03,2.324945500344233196e-03,1.817259192466735840e+00
9.480014659601502247e-01,-2.194122311280023441e-01,5.398906565811636415e-01,6.070414804852541923e-02,2.037863833974520866e-01,-9.803267146238195395e-02,1.103380203247070312e+00
6.769887797463638446e-01,-1.172817293638763747e-01,4.566536466784074655e-01,-3.413502926048225111e-02,-2.197315210887290302e-02,-7.115438250993401381e-02,7.242516279220581055e-01
5.593774540194259570e-01,-5.936675290224457946e-02,7.191079058181435446e-01,3.116359423089137912e-03,-1.418156086068868803e-02,1.531353046276675602e-02,7.131104469299316406e-01
6.449750743794364638e-01,-3.495547816484604886e-01,6.583499634265732592e-01,2.089259367084549471e-02,-1.818939501676299086e-02,-7.008417955957924050e-02,1.009756207466125488e+00
6.493662737492531534e-01,-3.286876500641838228e-01,6.490429491096501025e-01,3.520502102818334061e-02,2.916359682890783123e-02,-3.509495848771417015e-02,9.829741120338439941e-01
6.340048435881169286e-01,-1.805746254241976656e-01,6.452387549900131525e-01,-5.261086923533703913e-02,2.310300447532689233e-02,-1.448446471591701423e-01,8.635170459747314453e-01
7.743561537050875909e-01,-1.031150369515410725e+00,7.701040121110547254e-01,5.030473789011207647e-03,2.861310248991463996e-04,7.843549828428340474e-04,1.803405880928039551e+00
7.810577089055041888e-01,-1.038167338912516113e+00,7.822632606613539874e-01,-3.495085841553924083e-04,-2.175656366147132349e-03,4.320228356993057253e-03,1.819847464561462402e+00
8.545790102604063909e-01,-9.887431705294319473e-01,6.896969984183711766e-01,-2.633526292764538576e-02,3.449907444541896323e-02,4.731151610491988319e-02,1.770157694816589355e+00
7.992307948035136667e-01,-1.029718308228838364e+00,7.996222126964588339e-01,-6.534489830133203593e-03,1.055272957502692913e-02,9.422431294027172610e-03,1.829344034194946289e+00
7.640439334916770964e-01,-1.014394352980778180e+00,7.383811742062611483e-01,1.254978197007659488e-02,1.365409863728271611e-02,-7.560805392331389901e-03,1.766087532043457031e+00
7.820197477162500466e-01,-1.040032071160330807e+00,7.796800957269363064e-01,-3.499446967135126565e-04,-2.177591559152806510e-03,1.998329989585520376e-03,1.820890426635742188e+00
7.626175675199682313e-01,-1.013100427241723001e+00,7.152489651112852176e-01,3.658449765908862450e-02,3.959312158832713202e-02,-3.469844357097664339e-02,1.756028175354003906e+00
6.947904163441529501e-01,-9.969039594084236899e-01,7.611295461914262539e-01,1.444243226425647765e-03,1.339836681120103352e-02,1.921560706096782367e-02,1.726299166679382324e+00
7.450798082161399494e-01,-9.770095407349207450e-01,6.365328860977075287e-01,6.390804353314665648e-03,3.948121192240465482e-02,8.943252639357483248e-04,1.671899437904357910e+00
7.688943659416290766e-01,-9.786399308859999868e-01,7.856205220812571000e-01,-5.548385568134001078e-03,-1.251857022232447797e-02,8.082196093901771600e-03,1.756173133850097656e+00
8.309951896653594572e-01,-1.039390465215846548e+00,7.676728907115575318e-01,9.676383877745596898e-04,-2.639933178490230098e-02,6.711704377009118996e-03,1.840147733688354492e+00
7.429866039802089928e-01,-8.623751441248173055e-01,7.392592794181136462e-01,-3.228522801818457712e-03,-1.448682580201081588e-03,4.505271389608214716e-02,1.605410695075988770e+00
8.127181646967314155e-01,-1.047751684296777341e+00,6.694407093868679492e-01,1.161406556920413675e-02,5.142997257984262272e-03,-5.075505416638171480e-02,1.795417904853820801e+00
7.844459311300107096e-01,-9.866904890471717149e-01,7.561711059703379867e-01,-7.401773399762490852e-03,3.952408702127940127e-03,4.600449987695823945e-03,1.757247805595397949e+00
7.718336944720539661e-01,-1.031525385694268770e+00,7.696696786468775198e-01,-1.858825025940338349e-04,-3.732305737370338397e-03,6.804062051743241246e-03,1.802328228950500488e+00
7.485147299741718996e-01,-1.017024429053269952e+00,7.610013387392583484e-01,1.747912040246425724e-04,-7.631370701704141791e-04,1.010919649589426574e-02,1.771902441978454590e+00
9.342727874427121382e-01,-1.079732544754851586e+00,5.931368749003094187e-01,-4.224887558332135820e-03,-4.657105873931353252e-02,-6.913709825801123143e-02,1.872549533843994141e+00
7.749076413911893946e-01,-1.032057755720004577e+00,7.702193522401795667e-01,3.663677166443142421e-04,1.162250561345867881e-03,8.888859188643596660e-04,1.804627656936645508e+00
9.257306650037495643e-01,-9.716318215039747574e-01,4.805190835433725827e-01,-1.901268336540642978e-02,-8.966335458731480856e-02,3.389209380072415873e-02,1.726881265640258789e+00
8.546211068921698573e-01,-1.091021294487227955e+00,7.013453670200384682e-01,1.350630286664971369e-01,-5.689345780309193468e-02,5.525961575753254168e-02,1.893249988555908203e+00
9.334187530692831247e-01,-1.015399975492089490e+00,5.972500775308072773e-01,2.096482657625904633e-02,-1.429654609753578942e-01,-3.781311350059669840e-02,1.822826743125915527e+00
8.620950517647611999e-01,-1.025615955630412524e+00,7.959264279146918142e-01,-9.692469246516063203e-03,3.508753915077671148e-02,2.989184922302508957e-02,1.857304453849792480e+00
8.759922048304744635e-01,-7.922564362127122450e-01,5.913857319993348627e-01,-9.842582361983803069e-03,4.332237564131038304e-02,9.046171142575476498e-02,1.555548429489135742e+00
7.895443860237663092e-01,-1.008647445092285766e+00,8.167045802132395504e-01,3.694743487578203839e-02,6.169105328644473862e-03,1.677449905230468316e-02,1.813318610191345215e+00
7.870819964239830213e-01,-1.030893155079473322e+00,7.844233117376013809e-01,-1.592717776000076441e-02,-3.448924408433205573e-03,1.082765017953140566e-03,1.816867470741271973e+00
7.598620165130601789e-01,-1.016234958855948500e+00,7.477403073947690437e-01,3.519286082504496775e-04,5.769174320188632729e-03,5.041721812028912304e-04,1.770095825195312500e+00
1.305563444541495977e-01,-1.094734785943921818e+00,1.187787039872634232e+00,1.036105214672558977e-01,4.796830270230835469e-02,2.126524493105576979e-02,1.988706946372985840e+00
9.211155743395905704e-01,-1.003673917271309168e+00,5.192693692492361679e-01,-1.453799666392284473e-02,4.944155919216355888e-02,-1.147391665830352694e-02,1.761018991470336914e+00
5.997414899801006838e-01,-9.829890580356800411e-01,7.987312435474057670e-01,-4.693978025536691160e-04,2.151706574323066293e-02,-6.307479250261119504e-03,1.691475391387939453e+00
7.749190621937334100e-01,-9.659311417213273243e-01,7.737437785629144305e-01,1.549799491879507232e-02,1.541941159730866179e-02,1.286264967718090541e-02,1.740817308425903320e+00
7.790162644692899541e-01,-9.080774941692821844e-01,7.481533557858630612e-01,-5.503990922031867100e-02,-1.458556607045663304e-02,6.196850046683351210e-02,1.678218126296997070e+00
7.500848748435500202e-01,-8.916267075628243610e-01,6.738298859093897475e-01,-1.807215321246455689e-02,8.433419309831029220e-02,7.762083169368444099e-03,1.611936807632446289e+00
7.345382310751864541e-01,-8.443836295658313507e-01,7.575868707981918693e-01,-2.056630835777878159e-03,-1.316739937673501448e-02,1.637594240361720660e-02,1.590991735458374023e+00
7.423877974389323509e-01,-5.554842384278620981e-01,7.303856888521249591e-01,-9.528049420634550348e-02,-3.881651238074939822e-03,1.556933750574397701e-01,1.330052733421325684e+00
7.070897872503697501e-01,-9.821031746897113113e-01,7.126914935705317422e-01,3.450508367092218302e-04,1.945669708844872687e-03,8.741725285181662893e-04,1.692004919052124023e+00
8.884333278174434412e-01,-9.981355120595944985e-01,5.171738283478624076e-01,2.281964479922462489e-03,2.239398979407432669e-02,-8.602929532247309205e-03,1.731563210487365723e+00
6.693224258308576591e-01,-4.453669971719136367e-01,6.748875905792998120e-01,-8.711432379570746565e-02,-7.364335517653006896e-03,2.066063111123036047e-02,1.128262758255004883e+00
7.344898721580721546e-01,-6.764614006998044271e-01,7.104304611013620985e-01,-1.410005824521186335e-01,-2.860665172821585597e-02,7.047893024833543074e-02,1.426329612731933594e+00
8.153143972861247590e-01,-9.890649960536745944e-01,5.507262068280821543e-01,2.215386208287224018e-02,5.955590478019653911e-02,-1.210854987818601319e-02,1.691427588462829590e+00
7.472045017161732527e-01,-9.100017395503282591e-01,7.951851060392155501e-01,-7.453265288157252810e-02,2.928735212824639875e-02,9.802415075539443190e-02,1.695940256118774414e+00
7.679988726768427476e-01,-8.379441143769732481e-01,7.550542280293115471e-01,-1.292957294151630132e-01,-9.194365558159171142e-03,2.308787211916854543e-01,1.663956999778747559e+00
7.396734766284005502e-01,-1.017660343985757665e+00,7.592843170230592076e-01,-1.005074866060521699e-04,6.899809040651675406e-03,-1.801014885393313961e-02,1.767536520957946777e+00
7.889410456376098058e-01,-1.028129535321156585e+00,7.694781378710578990e-01,6.644376148505562463e-03,-1.242255977542190042e-03,7.309292936527227516e-03,1.807500004768371582e+00
7.145018943358270036e-01,-9.838661026155604006e-01,6.113115910251202267e-01,-1.333291983705076761e-02,-1.483678516431694294e-01,-4.758996472457996049e-03,1.669277429580688477e+00
8.253246148040814800e-01,-9.915656411161062334e-01,5.439624238895319763e-01,-2.331626452934765920e-02,6.446193599196743673e-02,1.596462763827300943e-02,1.698208570480346680e+00
7.316950834080511168e-01,-9.876837756800775914e-01,6.544954750243592301e-01,7.194385500714940186e-03,-7.901505682463265401e-02,4.683043231228894987e-03,1.687731981277465820e+00
7.171434959901512585e-01,-9.827169028183091459e-01,7.083913739835718815e-01,2.640485905515192429e-05,5.295971976560550319e-03,-1.023135487329034435e-05,1.695526123046875000e+00
7.639407576736652050e-01,-1.262507625771510877e+00,8.104599135840602209e-01,1.532999542500310293e-02,-3.703078620623243555e-01,8.884841033760619566e-02,2.153763294219970703e+00
7.945776221151176211e-01,-9.842175582919839849e-01,6.204444343805652906e-01,-6.020774287996218457e-03,2.194569687635666844e-02,-4.330794627003141579e-04,1.698894262313842773e+00
8.508401457330531104e-01,-1.035116335590393177e+00,5.822120239284075405e-01,1.567706784425974484e-02,-1.204148683873558084e-01,-1.122112445163742089e-02,1.779602885246276855e+00
6.247949040348885763e-01,-9.837720444048112522e-01,7.069402776119689813e-01,-8.036639789793645350e-03,-1.481319621591376257e-01,-1.311361526295418134e-02,1.671200394630432129e+00
7.259857982599297044e-01,-1.021867624475756964e+00,8.022072526583159391e-01,2.477140595534917805e-02,-2.404149485034817822e-03,5.697023265967236794e-03,1.787730574607849121e+00
7.651835573216189124e-01,-1.000993779110442183e+00,7.865440559861686109e-01,-1.246959063101021545e-02,7.625224276149714098e-03,-6.230061276305336529e-03,1.777166962623596191e+00
7.702741748344439365e-01,-1.027662675344429344e+00,7.782040988684527649e-01,-4.482824907780031537e-03,-4.160544888598854615e-03,-5.028190874348277030e-03,1.801967024803161621e+00
7.959685334106746391e-01,-1.001595945663378506e+00,7.807795153078541661e-01,-4.128642709202542255e-03,1.628734871384124663e-02,-5.491581104272997074e-03,1.790280103683471680e+00
7.457489509623113078e-01,-9.118512318792991733e-01,7.557296428263237109e-01,-2.157010042219961038e-02,-8.894416770922574517e-03,-5.292905006526628722e-03,1.663129329681396484e+00
7.874349276578228585e-01,-8.859584057398239842e-01,6.967727692080438739e-01,-4.497934850974903004e-02,-2.172733849686510690e-02,-8.789231075334613674e-02,1.639332890510559082e+00
1.755369842373449007e-01,-1.572534244199828679e+00,1.474132032722977215e+00,1.811370158523297469e-01,-1.006168446336670394e-02,4.484016503607386045e-02,2.667752981185913086e+00
7.782037961282787242e-01,-1.036249150173870426e+00,7.748276917033550815e-01,2.547402821347676330e-04,-4.227341800718216252e-04,-2.215534629058150528e-03,1.812771558761596680e+00
2.163103970515252716e-01,-1.348095821487255375e+00,1.344410062698778052e+00,3.844717292120160279e-02,-2.445639320175906906e-01,-4.014523927981104856e-02,2.381907939910888672e+00
6.626635203286738163e-01,-9.790747764970034739e-01,7.379072738398100295e-01,7.523629182566392553e-04,1.431683795276153873e-02,-7.882604652426981884e-03,1.680862784385681152e+00
7.285714457288191559e-01,-1.019811555855201446e+00,7.888108473652359898e-01,7.565487206281536203e-04,5.049458245584174249e-03,-1.296795472034295744e-02,1.779431462287902832e+00
1.110160564137904204e-01,-1.369077502753322406e+00,1.674527812387608172e+00,2.675458132790887178e-01,-2.315815926869923547e-01,-1.999761523029242594e-01,2.728551626205444336e+00
1.899935276563507192e-01,-1.915940545700245856e+00,1.717126537118494500e+00,1.441449900527351224e-01,-2.668411017824940945e-01,-1.190227099010156830e-01,3.209607362747192383e+00
9.159639555859052651e-01,-1.135966491013983282e+00,4.985077906826358429e-01,-6.569247204354729253e-02,1.527131767733198586e-01,4.913309065371283813e-02,1.902169823646545410e+00
6.832732333770079602e-01,-5.214427203649218967e-01,5.085819015097390317e-01,1.819757698993090811e-03,-2.613805720852497849e-01,1.480321770144046589e-01,1.241818904876708984e+00
6.387729616424382417e-01,-5.088356386221969396e-01,7.711609997266513084e-01,2.219894465510246703e-03,-1.320380874380735481e-01,1.233055597090124134e-01,1.258726119995117188e+00
7.200071814488950839e-01,-5.597872459315095250e-01,6.914183368229755988e-01,7.918761124898125725e-02,-5.716320135688231913e-03,1.488455160168258851e-01,1.299029707908630371e+00
7.820039771729099254e-01,-1.032634012937101442e+00,7.833570225050019431e-01,1.388839783810317434e-03,-2.563877733374444502e-03,-7.337788198995345845e-04,1.815322399139404297e+00
8.097534848070505609e-01,-7.161435354075900150e-01,7.245036967220085389e-01,1.056451904577101475e-01,1.214752688575336873e-02,8.727996359907382040e-02,1.504102945327758789e+00
5.770680267283407883e-01,-1.125397909918308681e+00,9.018976042659011538e-01,1.344284604964606812e-02,1.783835880547708086e-01,-2.559374547347344903e-02,1.911775350570678711e+00
8.671466532972029739e-01,-2.467295065616729177e-01,6.105791461495829742e-01,-6.942495209857560412e-02,1.168497125377706836e-01,2.423874198250737522e-02,1.038241863250732422e+00
7.635199798034799645e-01,-1.043137682780414632e+00,8.232702464605180515e-01,-2.609385374594866414e-02,3.702429007828679682e-03,3.594699646749834054e-03,1.837839126586914062e+00
8.580851906543033314e-01,-1.002644449972044383e+00,5.560765069451695242e-01,2.294792872375348014e-02,2.081115180305651360e-02,-4.031427292298273013e-02,1.731855154037475586e+00
4.070003598656654620e-01,-9.652105492818017218e-01,9.915967256684596887e-01,-6.734479308792271079e-02,1.030822962008139942e-01,-4.445905847743837624e-02,1.754513859748840332e+00
7.786801340952806960e-01,-1.036709173775717474e+00,7.812596191213133645e-01,1.123181423782384624e-03,-2.084602360519348819e-03,-7.431211610161003170e-04,1.816685557365417480e+00
6.306008407675263161e-01,-8.606206355752781256e-01,8.368421423886582833e-01,1.394765091048175663e-02,1.442332990629052042e-02,1.520945987732083039e-02,1.604908108711242676e+00
7.512864642166006135e-01,-1.012947820362177564e+00,7.356286134054733639e-01,7.791559808048641005e-03,8.243465098334653738e-04,-3.415992895738391845e-04,1.756510257720947266e+00
7.848314208167999073e-01,-1.000390711657109577e+00,6.728148449202933090e-01,1.826970511725526519e-02,1.165988871830421492e-02,2.444586698673591098e-03,1.732344746589660645e+00
4.621420996596204422e-01,-1.218305761791382613e+00,1.054373409447197707e+00,6.489912618120460830e-02,-5.786691174155299267e-02,-1.823966229047630904e-03,2.047571182250976562e+00
6.735313773173525753e-01,-1.040444214318452021e+00,8.742430668056704324e-01,4.559803298531113491e-02,2.578034301642685017e-02,1.403428130023873059e-02,1.825057506561279297e+00
7.818742278420930392e-01,-1.026444942116847558e+00,7.984150086553702952e-01,4.989920003149074870e-03,-1.443880323922710346e-02,-6.214246334024501293e-03,1.816870570182800293e+00
6.362292716289785766e-01,-9.088387433158136020e-01,9.655039820639443882e-01,-3.447687373111357756e-02,7.362229092261400598e-02,-5.107644725344144543e-02,1.741281747817993164e+00
6.454577798728353688e-01,-1.132816481136630582e+00,9.798469607413214932e-01,1.079868430830849269e-01,3.100768843564539676e-02,-9.154111740223482008e-02,1.982856154441833496e+00
7.917023043220323686e-01,-9.889487759693340596e-01,6.214188350635608815e-01,1.225617873776758092e-02,2.068014566507671986e-02,-9.233424628159712672e-04,1.702420473098754883e+00
7.538459007785088817e-01,-7.686944464997568227e-01,7.553796703248697453e-01,-3.924767222749797613e-02,-8.934747234898650706e-03,8.674405000365624507e-02,1.532286167144775391e+00
1.053641898282687617e+00,-8.402949138062408840e-01,1.954403459999015380e-01,1.106458930009025649e-01,-9.126066402494954766e-02,1.183197287376250295e-01,1.673869371414184570e+00
7.572247303577855915e-01,-3.192004076903059984e-01,5.560072066860850537e-01,1.361808390230029482e-02,-7.819298163627405596e-02,1.968973384435357965e-01,1.057255148887634277e+00
1.103562380824055333e+00,-8.855874903005067633e-01,3.675528420283984410e-01,-5.223785957519004944e-04,-3.194369911607835011e-01,2.780034884652476945e-01,1.890072107315063477e+00
7.845712825648634148e-01,-1.031286515903649725e+00,7.711364456935301259e-01,1.257108490855587610e-02,-1.893372568283905547e-03,2.966637608886789346e-03,1.809319138526916504e+00
8.303570708614161910e-01,-4.632866099698340623e-01,5.725564778146577938e-01,-6.235875143588305580e-02,-4.064914186191543460e-02,1.012393702447861032e-01,1.205754637718200684e+00
9.986147849506880059e-01,-1.160862774014735255e+00,5.916411832332084675e-01,9.691735375528228238e-03,-1.009536819008987479e-02,-7.268625583171781090e-02,1.991621971130371094e+00
7.727632463195771573e-01,-1.028830770537725092e+00,7.586689675589541881e-01,3.889983099221546630e-04,1.620242561861251354e-03,-7.228462575914852001e-03,1.794634342193603516e+00
7.827225806936506380e-01,-9.912310952242278095e-01,7.143182827929470680e-01,-3.179888424078457232e-02,-3.085176222153632533e-02,-1.324584702811092835e-02,1.742601513862609863e+00
8.241568524536965201e-01,-1.034750884925073278e+00,7.665186716929863753e-01,-3.411847302178383848e-03,-8.522411109634761908e-03,2.567151951200262114e-02,1.831378221511840820e+00
8.113880226490247649e-01,-8.334328183827112158e-01,6.866166681193230925e-01,7.005586145815684285e-02,-1.038297186781685089e-01,1.107160343846736450e-01,1.612332582473754883e+00
8.303228945163210195e-01,-1.108578173221201224e+00,6.795891156726161508e-01,1.263404512131402826e-02,-1.062389475248862458e-01,-7.865308304510838094e-03,1.877318501472473145e+00
9.366219019029208281e-01,-9.567158943235790636e-01,6.681591918371907468e-01,-3.387588600379178722e-02,-4.046977810269423298e-02,2.203568271991925009e-02,1.777166962623596191e+00
7.527208844675878918e-01,-9.958376039745384656e-01,7.242549488912966016e-01,-1.063438926214200012e-02,-4.198045719419163380e-02,-1.441617756279131753e-02,1.736301422119140625e+00
7.673310113859846959e-01,-9.351375827330288271e-01,7.572755475852797069e-01,-3.118955344440323824e-02,-3.107230820946165102e-03,8.754551542680390165e-04,1.698331832885742188e+00
6.524425512961458118e-01,-8.912504812866099968e-01,7.824894936095614373e-01,-4.101931089764900007e-02,8.904137846827599179e-02,-2.835523155384603658e-02,1.622312545776367188e+00
6.890716746756756494e-01,-6.074034326620891822e-01,6.767185174309287010e-01,-7.788897584642368033e-02,2.215722556632023638e-02,6.646372503265347842e-02,1.303038716316223145e+00
6.934666517777101635e-01,-7.404172491545333301e-01,8.059652513563617671e-01,-1.225811884377076971e-01,1.932198068244200123e-02,9.416135596556043930e-02,1.517493486404418945e+00
6.219191398535153237e-01,-6.484984455458656649e-01,8.073422654859988556e-01,-1.390510179389599088e-01,3.496041595900402366e-02,5.843260695790949977e-02,1.398507356643676758e+00
7.503389049448923043e-01,-8.913280462717754205e-01,7.540699087976632242e-01,-2.641758602283759277e-02,-3.137228450556403536e-03,-3.809019590893092562e-03,1.644194602966308594e+00
7.208587071246643774e-01,-9.840417676578089301e-01,8.497893084035040845e-01,-6.982245286210551904e-02,-1.309805090894083229e-02,8.646166755741246934e-02,1.783448815345764160e+00
7.116613118744036237e-01,-7.793139775024285898e-01,7.398757276505324443e-01,-1.238551560968304543e-01,2.983976535817610409e-02,3.752672495331389052e-02,1.522756218910217285e+00
7.085577873112638425e-01,-1.013176357808730721e+00,8.198055141669577939e-01,9.621888552592109539e-03,1.673587046474550241e-02,-1.230246217980099539e-02,1.780408859252929688e+00
7.259875165736455749e-01,-8.154794070154063323e-01,7.637854206154054415e-01,-4.604011093208019989e-02,-3.227113780998108836e-03,4.866099899393815098e-02,1.565026283264160156e+00
3.765308500127217406e-01,-1.066661596490613872e+00,1.020003675398975185e+00,3.162019414404645436e-03,-9.145483128906889414e-02,2.163675864703126783e-02,1.857967495918273926e+00
5.153045277582454231e-01,-1.123626091711653840e+00,1.013561370976808318e+00,4.469658420850330244e-02,-2.210402420929902800e-01,1.696035238415082372e-02,1.975954055786132812e+00
2.240910433495736653e-01,-1.057484598995359404e+00,1.079550445120581736e+00,5.403878137858245806e-02,-2.392454246279006047e-01,5.332463866534809666e-02,1.913005232810974121e+00
7.405405979214363388e-01,-1.935706696163489005e+00,1.015498108075824746e+00,2.962449850370061505e-02,-5.769283937288676167e-01,-4.071049078295059520e-02,2.996648073196411133e+00
7.802450997428704849e-01,-1.036544118436052431e+00,7.782087545474505319e-01,2.272043194534260728e-03,-2.030102690896895459e-03,-8.612973254519025327e-04,1.815780162811279297e+00
4.368234605557212991e-01,-1.188251342686333034e+00,1.157916146646315703e+00,7.861872916452222748e-02,-5.873523443426921231e-01,-6.765531939898533631e-02,2.323767423629760742e+00
5.018000318428670337e-01,-1.099686188059345371e+00,7.315575917969047159e-01,7.391945124444881943e-02,-5.195811476144331920e-01,3.279730831647031247e-02,1.953205823898315430e+00
3.932679499300808512e-01,-1.245587528506086672e+00,1.102343497236641712e+00,1.189246583543411562e-01,1.165360585542827287e-01,-1.139979290797865918e-01,2.114915132522583008e+00
6.813673764729915039e-01,-1.264682254129872119e+00,8.404230796519720492e-01,7.048924924721468310e-02,-3.540439235579224131e-01,3.478101812656184122e-02,2.125209331512451172e+00
5.326737384300739286e-01,-1.025412334351200938e+00,9.259409317634605951e-01,4.072343776256700382e-03,-4.594557879329314032e-02,-2.028309244797229030e-02,1.789595603942871094e+00
4.647595197146774382e-01,-1.241879966177261929e+00,1.072806763158580701e+00,8.505626973496736853e-02,-1.165742317507952597e-01,1.336419661787506541e-02,2.093577146530151367e+00
4.141603740400627842e-01,-1.069633836449627395e+00,1.007862725466974751e+00,-6.949952610138589171e-02,-2.759776207503517043e-02,5.672529137095622120e-03,1.857937574386596680e+00
7.553784368430247476e-01,-1.015444407683118833e+00,7.449559982042880391e-01,-1.756430529760001982e-02,8.531913987936066632e-03,8.965574267072927385e-04,1.765959262847900391e+00
5.811138758478008315e-01,-1.098285075510363473e+00,9.725466887490976653e-01,-1.889976421206188834e-02,1.906222442483865038e-03,-2.311573178866561679e-03,1.905799269676208496e+00
6.145379976771799813e-01,-1.105011916032681674e+00,8.817904948720666214e-01,-6.295334410031588890e-02,-8.898548923844097625e-02,-5.860708549565142589e-02,1.879834771156311035e+00
6.154865191641429867e-01,-1.050559224691617111e+00,8.313368057898318231e-01,-4.817143985323053823e-02,-7.758359210533745387e-02,-2.761900237338408767e-02,1.791430592536926270e+00
6.211026858013733998e-01,-1.018943580888155287e+00,8.303618071640663789e-01,-6.751378985151304524e-02,-4.838754706013633639e-02,-5.319538248194130570e-02,1.762363076210021973e+00
9.015596174915609939e-01,-1.042118088882994176e+00,5.267823494414229923e-01,-4.448809022799114776e-02,1.126433076386581245e-01,5.456640925472837356e-02,1.800786018371582031e+00
5.562955518616408135e-01,-1.026890269925950117e+00,8.802907435302247396e-01,-5.105936718740404501e-02,-1.876416964140522614e-01,-2.913702112323765525e-02,1.800108671188354492e+00
6.409115227177890617e-01,-1.147318826363234567e+00,8.970750023626394842e-01,1.001886295488844426e-02,-4.849641186869385612e-02,6.508332997556121047e-02,1.934303760528564453e+00
7.322481416347785821e-01,-1.021165820293986837e+00,7.810308643411371099e-01,2.845272880640964050e-03,3.516060338828767232e-03,1.505679864770362829e-02,1.778515696525573730e+00
6.473770372314943122e-01,-1.008194332835360196e+00,8.622692741151052331e-01,7.201198962546867532e-03,-1.030551236688805605e-01,4.208371651924597973e-02,1.783309936523437500e+00
7.588182351179514340e-01,-9.835989622065871574e-01,7.841368269436853611e-01,-5.635479210341817410e-03,-8.986474494424255815e-04,-1.286911535380559635e-02,1.755382776260375977e+00
7.401027933560209160e-01,-1.015713074818861195e+00,7.575032457778796413e-01,-1.392295489931385654e-04,-2.861916925365201939e-04,1.059283274824868171e-02,1.764675855636596680e+00
5.317683636153743842e-01,-1.161783918587676157e+00,9.152058443179164060e-01,7.639076077684575639e-02,-2.623300516872376642e-01,-4.240178568820540846e-03,1.971934795379638672e+00
4.781717756382668494e-01,-1.093886662768879692e+00,9.016524879026573958e-01,-8.871123627324187244e-02,2.353626134769277733e-01,5.484517619764040647e-02,1.874902606010437012e+00
8.359311985865700567e-01,-1.004132658359722763e+00,6.309964283224520631e-01,-2.090861731154232406e-02,9.741738501031987907e-02,-4.643453427509672965e-02,1.756983399391174316e+00
3.368334427928298958e-01,-9.541026162123543708e-01,8.888712622868529811e-01,-4.575458525584570613e-02,4.140107599137533012e-01,-1.470251351735952783e-01,1.808107137680053711e+00
3.234723065392653973e-01,-1.646428818844552611e+00,1.321675123354827841e+00,2.607219367437830781e-01,3.034031254318407811e-01,-9.701345537112776585e-02,2.711384057998657227e+00
3.227757174319059175e-01,-1.023324219227881082e+00,1.062697027529328597e+00,1.930658564318355960e-02,2.222156786810234874e-01,-2.355723331758317884e-02,1.872538089752197266e+00
4.069257132420823764e-01,-1.125189727163954156e+00,9.917272187565790986e-01,-5.555527968604875855e-02,2.703305981102493982e-01,5.115534007831131630e-02,1.954916834831237793e+00
7.809783994173187249e-01,-1.016929088089254307e+00,7.723902276561134261e-01,-7.999337225950711727e-03,-4.180267663524216137e-03,9.559684655667911174e-03,1.793773412704467773e+00
7.094685194842274001e-01,-6.071774040008386386e-01,8.047964374978751056e-01,4.440380540898445499e-02,9.477886969606527656e-02,-6.659382561280761947e-02,1.383591532707214355e+00
4.140049196125638598e-01,-1.128722207975553893e+00,9.076045924516533692e-01,7.459933041350864935e-02,3.103035591251191994e-01,-3.140596613369542323e-02,1.921888709068298340e+00
6.946084037248760890e-01,-9.821361326643727185e-01,7.233249743305609769e-01,3.945620386288779769e-04,1.784489876820369303e-02,5.401559826191026405e-03,1.691594123840332031e+00
4.864343056393306552e-01,-1.031093672310863241e+00,9.153615073506605748e-01,-7.134709896927773909e-02,8.530053402200846180e-02,3.424738659972675903e-02,1.782805919647216797e+00
7.769748044926683139e-01,-4.000243430672033029e-01,6.181825486463337072e-01,-2.722778218102749753e-02,-4.715640228076055374e-02,1.564866858422759438e-02,1.110528469085693359e+00
9.489452744256877681e-01,-2.657969986823333075e-01,7.149952725113239982e-01,-1.284058703371926680e-01,-1.822010888519800531e-01,-7.908179356721681263e-02,1.189100503921508789e+00
9.678747781719196919e-01,-6.146885769353501727e-01,5.881148558004598570e-01,-1.330456048559839899e-01,-6.124329270602039965e-02,-7.812096787172820300e-02,1.459587097167968750e+00
1.197960493054269770e+00,-5.483363840771662279e-01,5.109266362801068162e-01,1.071994386610552324e-02,-9.762066593939534853e-02,-5.707709989994600580e-02,1.536395430564880371e+00
8.028184878302833116e-01,-4.539527769896289922e-01,6.030689815182206370e-01,4.922850912764853426e-02,-5.853886168417495039e-02,-1.262355346232921227e-01,1.197368502616882324e+00
7.497600569327393938e-01,-9.829401102274035740e-01,6.626253966219415314e-01,5.307599410095550918e-03,4.426527779485504160e-02,-1.893935274335245209e-02,1.692897796630859375e+00
7.407238223116099363e-01,-9.814890322414719925e-01,6.606015125043556147e-01,-7.229930606126469192e-03,2.098402272623900097e-02,1.213737001053585710e-03,1.684022307395935059e+00
7.798514821809350295e-01,-4.603287552183656373e-01,4.610344752922808653e-01,2.561966176913602067e-02,-1.462252322025689999e-01,-1.657139653267361012e-01,1.180168867111206055e+00
8.197174451512942994e-01,-9.812613414194421013e-01,5.660379284613122897e-01,7.487321818044498367e-03,4.168015738031074363e-02,2.900714222462107313e-03,1.690092206001281738e+00
8.649838843309871628e-01,-1.179686375913865382e+00,7.798486031635216698e-01,8.485647926961603638e-02,-6.196999244746990987e-02,1.877524699362478899e-01,2.037823915481567383e+00
8.006423559479527441e-01,-9.806492441562967288e-01,7.076974134880843481e-01,-1.110471597474582336e-02,-8.755906756993413198e-03,-1.332265854176165054e-02,1.737011432647705078e+00
7.490223351158640241e-01,-9.962337587987204479e-01,7.361407374501047762e-01,-1.092869495269703332e-02,-4.181673722845029306e-02,-1.663118198044695809e-02,1.740700125694274902e+00
7.817385082735013313e-01,-1.034761702454634280e+00,7.837910236082262783e-01,-5.433916795906215506e-03,7.093559388787479790e-03,-5.757173908435327808e-03,1.817620635032653809e+00
7.696656209492158673e-01,-1.028448375546750615e+00,7.834692257367753543e-01,-2.091685987977791403e-03,-5.789688526274324332e-04,-9.355904384196723003e-03,1.805132031440734863e+00
7.849235696567490317e-01,-1.016355503203647759e+00,7.689335392723790630e-01,-5.465915560218482724e-03,5.778579188804800620e-03,-2.408367164282668865e-03,1.793395280838012695e+00
7.921891690008149300e-01,-9.821465357127391327e-01,7.811337703055638571e-01,-1.129009351913807385e-02,-6.195080938427653672e-03,-4.898809339283893838e-02,1.771008372306823730e+00
8.910473082178131943e-01,-8.646672725467532405e-01,6.476480450166441916e-01,3.380777618968653503e-02,-7.266499551974134850e-03,-4.915166968442083451e-02,1.650839805603027344e+00
7.993984498972021013e-01,-9.525988293457501310e-01,7.418127171725045210e-01,1.824337071030964277e-02,1.036412448332082407e-03,-5.463350072791824108e-02,1.726811170578002930e+00
6.922791978671304358e-01,-7.622971712342593298e-01,7.510080772559093454e-01,7.891179359228773366e-03,-7.704028334963142211e-03,-5.481383966381112721e-02,1.487967014312744141e+00
5.417887118633514243e-01,-1.100919583493688458e+00,7.697362048643953125e-01,-1.362413997253568085e-02,4.532371078646585394e-01,4.933533442276821779e-02,1.936241745948791504e+00
7.901197014833107879e-01,-1.017867307604995775e+00,7.776561146091269805e-01,2.345683029678745021e-03,-5.738970398272102286e-03,-3.438147084858255743e-03,1.801829338073730469e+00
7.420929392404551628e-01,-7.197354831380697870e-01,7.304263496745683204e-01,-9.946173821453961270e-03,-6.004410037211893245e-03,-4.921202360958959465e-02,1.458661794662475586e+00
7.719497472439103003e-01,-9.008120002352502098e-01,7.614004051764287073e-01,3.315680026504447958e-02,-1.433418942484090269e-02,-8.482255047233268341e-02,1.675140500068664551e+00
7.759820187570085626e-01,-1.031878062212941760e+00,7.781041876840650851e-01,3.211496225989237188e-03,4.047006869169769922e-04,-4.771402915510069773e-03,1.808949708938598633e+00
5.560799475065741904e-01,-1.800258891177749065e+00,1.417855696748149263e+00,-2.529293195760025648e-01,5.810306786937005086e-01,1.254116311499628988e-01,3.094756841659545898e+00
7.852723479588028521e-01,-9.583099685799806311e-01,7.853840944171041061e-01,1.081734736482029176e-02,-9.919918884287349733e-03,-7.837217712595376251e-02,1.749098896980285645e+00
7.261900528464879656e-01,-5.274676062401291166e-01,6.839499971282169133e-01,7.181169432811075615e-02,-8.373016064526981467e-03,-1.032151670889121242e-01,1.252249360084533691e+00
7.934573482154319013e-01,-3.739084838911520547e-01,6.451102084105402312e-01,9.513155176527962609e-02,2.534889990612840954e-02,-2.588531233303618673e-01,1.200694441795349121e+00
7.247005669256394444e-01,-8.331028116811005635e-01,7.784278347535636966e-01,-6.403820244280690466e-02,3.974983745460297299e-03,3.167794056241918926e-04,1.589240312576293945e+00
5.977613024262466990e-01,-3.076297390239772778e-01,7.352266950325152539e-01,-1.331630717760342586e-01,-4.024082456466382927e-03,-4.480898944328640110e-02,1.011117696762084961e+00
7.687978657986656028e-01,-1.003735958874777401e+00,7.948769840849652102e-01,2.548417557596782852e-03,-1.815221203774668862e-02,-6.601369313863631426e-03,1.786035060882568359e+00
7.243837229194567406e-01,-9.967283579567980389e-01,8.087817163021766564e-01,1.220843721534635787e-02,1.824612335921055664e-02,-2.236479059566559568e-02,1.765659809112548828e+00
6.993380281770742446e-01,-1.054688906736877652e+00,9.204740425403057369e-01,-1.880815614758962057e-02,-1.106695773107456600e-02,-7.806690079352218183e-03,1.874833822250366211e+00
5.123668925562510079e-01,-2.716004677357612418e-01,7.973766705215659112e-01,-1.337104316448742558e-01,3.952244110457076021e-02,-6.105226603673064023e-02,9.943728446960449219e-01
7.291394101883846846e-01,-8.287706071994074275e-01,7.579198324887168603e-01,-6.665564264446746656e-02,-2.073311386125562070e-03,2.638119443690785902e-03,1.576740980148315430e+00
9.198304818804621252e-01,-9.660459191598447237e-01,7.608193605384269143e-01,-8.380587837056571732e-02,-5.684373504983299130e-02,-1.300456370247798643e-01,1.833967924118041992e+00
7.677187312572084643e-01,-1.029674901027710865e+00,8.080226612401291142e-01,5.564313547214212730e-03,5.443999015125068446e-03,8.456157307106876991e-03,1.817989706993103027e+00
9.209799757851951929e-01,-1.108677723376715551e+00,6.214470635911826246e-01,5.973797662397624907e-04,-4.561391633017666813e-02,-9.201924604005924657e-02,1.906023740768432617e+00
8.228195780275462390e-01,-1.020308163948871139e+00,6.802417677954528674e-01,-1.169253490957445837e-02,7.891305584553370486e-03,1.294024260673793184e-02,1.776445508003234863e+00
7.608852497483500343e-01,-1.024499621065926513e+00,7.347462334592776978e-01,1.058742151739340207e-02,-3.601344678103379771e-02,9.531046966785715335e-03,1.773728847503662109e+00
8.206997074216564325e-01,-1.053563541631173717e+00,6.508318246353821390e-01,2.294006157895527379e-02,-6.410892217575073215e-02,-3.003831016522884832e-03,1.799243330955505371e+00
6.970773502353102558e-01,-1.004894170886647231e+00,7.476415110057323954e-01,2.320467507048871308e-02,6.782384081595325964e-02,-2.768458944532133786e-02,1.732927441596984863e+00
7.777114345110203164e-01,-9.235408725710407829e-01,7.623078543464525403e-01,-9.770677921499196228e-02,2.272980113694382000e-03,-1.062419865724746754e-01,1.711960434913635254e+00
8.118466773138593995e-01,-6.183863321982344674e-01,7.087185635771342529e-01,8.193759152616325592e-02,1.990247159199446531e-02,-4.497791516668301140e-03,1.389278531074523926e+00
3.701440577196690729e-01,-1.033756528421220011e+00,9.683318618390895915e-01,2.828510912055081164e-02,-5.591824654278271765e-03,-1.859764800730384984e-02,1.781037092208862305e+00
6.347527191547595038e-01,-9.951907446334731233e-01,7.951760772757029416e-01,2.077551705974496274e-03,2.066233277487393438e-02,1.897720429073846901e-02,1.716480851173400879e+00
7.722409404434487090e-01,-1.033237647942554016e+00,7.849821750891112782e-01,-1.223638838066699137e-03,-1.134277822302387582e-03,1.192693063494755859e-02,1.812002897262573242e+00
7.419700910287830853e-01,-7.689367832888753806e-01,7.501240602928259671e-01,-2.355032473902584494e-02,-2.714696915100203191e-05,-4.544246528945615482e-02,1.517591834068298340e+00
8.349698571580075335e-01,-1.036303673042075379e+00,6.897150875505539958e-01,1.597785347124368316e-02,-3.653750257544196439e-02,1.019202501921466150e-02,1.804448604583740234e+00
5.171498005933877762e-01,-9.800071184321700324e-01,8.535986304442573225e-01,1.948546164382879489e-04,2.426432378920109420e-02,6.400443438629679904e-03,1.691236972808837891e+00
7.419636295430080963e-01,-8.564145450121188885e-01,8.034264131029141831e-01,-5.760608004625619033e-02,-6.827493286317279364e-03,-1.033915040982995304e-02,1.633170843124389648e+00
7.892042034115316351e-01,-1.024429022207341333e+00,7.684238342618813222e-01,1.712981205038179022e-02,2.159984649526726017e-03,2.358738427087673367e-03,1.803585410118103027e+00
7.666674514212952207e-01,-9.224985684665378827e-01,7.665157618113400684e-01,-5.907057090847983583e-02,-1.832168069471122769e-03,-6.618538125348248646e-02,1.696067571640014648e+00
7.671133263976079864e-01,-9.554712602127524157e-01,7.712291980780056067e-01,-7.552244094922624072e-03,-1.827580130754281884e-02,8.699945503082751400e-03,1.725052118301391602e+00
7.313946500798929051e-01,-1.021918466257792701e+00,7.867793985054520878e-01,2.846362269374911984e-03,3.416204188451349086e-03,1.782648372880820536e-02,1.781935453414916992e+00
7.997036605944680687e-01,-1.067467690819483117e+00,7.641225695857664091e-01,5.522617740049590163e-02,-1.657944708670751680e-02,4.397185512212235803e-02,1.853896975517272949e+00
7.918055530157199762e-01,-9.811910464471813587e-01,6.100014454381599283e-01,8.271357598558588126e-03,2.479289575610477483e-02,2.212735141069944317e-03,1.690057873725891113e+00
7.811912775427510836e-01,-9.921748699377691549e-01,7.779740739331196808e-01,-1.317675303779744164e-02,9.351112617598080282e-03,-7.956002014167478167e-03,1.772034287452697754e+00
9.058143251963144404e-01,-1.039459405995089902e+00,5.679709870169648012e-01,-3.384567515399687643e-02,-2.848171890487859875e-02,-5.703810280416182071e-02,1.804621934890747070e+00
6.963225169338553844e-01,-1.025765006562865400e+00,8.130543911460350603e-01,7.015182672574338252e-03,7.902696053018940653e-03,8.176227994056064347e-03,1.783471226692199707e+00
6.364593413791248544e-01,-1.001617217893431278e+00,7.942053315030184191e-01,3.874210955996852321e-03,2.174152122261876693e-02,1.512671583766229434e-02,1.722999811172485352e+00
7.913739739819949381e-01,-1.025022784561333555e+00,7.700950193228002227e-01,-1.222816570954245695e-02,9.699698305967880893e-03,1.360940176413662044e-02,1.806207418441772461e+00
7.648218707574998554e-01,-9.483830250520925986e-01,7.635082753377360198e-01,-2.568157658914710720e-03,5.646729748820806215e-03,3.374758280301087821e-02,1.713579416275024414e+00
7.721170454211209178e-01,-9.909254056909844177e-01,7.959715556137579862e-01,2.280902493717432492e-02,1.676678582382793575e-02,6.857050740050338669e-03,1.775806665420532227e+00
5.996238491155587713e-01,-9.822618849400202024e-01,7.984598074712407900e-01,-6.772639374774165480e-04,2.171246765246698934e-02,9.733320938903763930e-03,1.690601587295532227e+00
7.851290742139734880e-01,-9.187396232638442850e-01,7.667967012231629020e-01,3.722623087359543115e-02,6.689992967027628620e-03,1.022628187444904468e-01,1.705266356468200684e+00
7.775610937432968495e-01,-9.921628064679264281e-01,7.625113173570269298e-01,-6.768995901326299060e-03,-4.274991851839583801e-03,1.040289651932259493e-03,1.762302637100219727e+00
7.995092689282510268e-01,-1.027972936502935974e+00,7.258799171837828634e-01,-1.475305737605439246e-02,-2.001895961393585291e-02,-2.284184035741178287e-02,1.792756676673889160e+00
7.810637219943337151e-01,-1.034100004269058237e+00,7.833754730975981406e-01,-5.425778689611833970e-05,-5.727819411759595483e-03,-3.153411284314870319e-03,1.816356062889099121e+00
6.388314986260286155e-01,-9.919095269065772991e-01,7.939949675275186358e-01,-1.662140210044199366e-03,2.051903234624156275e-02,-1.629780799168946415e-02,1.714202880859375000e+00
7.811659498006883195e-01,-9.988480034209514802e-01,8.003009917242923654e-01,-1.407011324069164238e-02,1.743640747933546814e-02,-1.130240643764829876e-02,1.790185928344726562e+00
7.860891960639890819e-01,-1.040994502513407971e+00,8.078444671089132223e-01,-5.165180229178929078e-02,3.410847468239111384e-03,5.443000086555639661e-02,1.842656612396240234e+00
7.667745496886009260e-01,-1.009082361648377502e+00,7.762069186762079465e-01,2.652389321737345755e-03,-1.463439284337924706e-03,-5.691084934926598712e-03,1.780626893043518066e+00
3.538646131635980741e-01,-1.060119975977873885e+00,9.971058392966725137e-01,8.929050662839940061e-03,-1.833087925171921970e-02,8.894939356270852374e-04,1.823155045509338379e+00
4.401376669701353439e-01,-1.010775704710449752e+00,9.540540843665795689e-01,1.493673035518510751e-02,-3.912240606461463502e-03,-1.025478908367582782e-03,1.765113711357116699e+00
3.638856627860119763e-01,-1.065858157793023508e+00,1.041639475726185315e+00,1.600025303856947995e-02,5.719359929818881860e-02,1.459288557808714401e-02,1.866481184959411621e+00
4.854430201774373455e-01,-1.008931879910890617e+00,9.411385481037004563e-01,-1.659818276477861843e-02,-7.301744967199551122e-03,-3.777027798789353748e-03,1.767151355743408203e+00
4.758066495665129181e-01,-1.018364203433074211e+00,9.372525761626238072e-01,1.066204460382452930e-02,2.498830860791183966e-02,3.890038367783559860e-03,1.771219253540039062e+00
7.692449801939698073e-01,-8.511157246731864134e-01,7.349128860270323083e-01,-3.097558668462609133e-02,8.336387886350636557e-04,-4.310850942744947289e-04,1.604368448257446289e+00
7.300675731216682562e-01,-1.022894697322032087e+00,7.849017279753017773e-01,1.364300023291371150e-03,6.320068619129082937e-03,-1.666836939345034754e-02,1.781281709671020508e+00
5.070775643456395532e-01,-9.974872606868739888e-01,8.632075334329416538e-01,-1.586378851849786636e-02,1.208991806450501472e-01,1.707969840625684840e-02,1.723903894424438477e+00
4.890664848736998582e-01,-9.990592769296887665e-01,9.063853224418149113e-01,-1.781464766397807431e-04,3.955519530520999055e-02,-4.999101169828446163e-03,1.736221551895141602e+00
4.980886069019172524e-01,-1.011996812425758119e+00,9.294092772280891923e-01,-4.466670258854156701e-03,2.912907855719949757e-02,-1.076993803781151927e-03,1.766447067260742188e+00
7.236683439044404587e-01,-1.021252060095883429e+00,7.890503932147405752e-01,-2.683975133029967153e-03,-4.309329258879266746e-03,1.862940413104739734e-02,1.778827428817749023e+00
4.762920956470665379e-01,-1.008010139685800777e+00,9.128463468436537331e-01,-7.822603000046628521e-03,1.949338365585014630e-03,-4.365155604145513901e-03,1.744122505187988281e+00
3.458117916908465261e-01,-1.101631681212549729e+00,1.136717940750292755e+00,2.258040267500343451e-02,-3.915413130679595149e-02,-6.969468761100936979e-04,1.967624783515930176e+00
7.018331421636333500e-01,-9.814197651992495608e-01,6.863102358623500709e-01,-6.491103146965993866e-03,-5.736149126098794709e-02,-7.538230727285049823e-03,1.678576827049255371e+00
6.854845277241288226e-01,-9.908821712535529347e-01,7.458869484470398437e-01,2.680022476776356896e-02,-6.559443065778745863e-02,6.879228377468853302e-03,1.711816310882568359e+00
6.190535724281323038e-01,-1.000225818162491009e+00,8.197477330454774336e-01,1.328592421082547270e-02,-9.241513786929056451e-02,-9.777914571776965148e-04,1.735937237739562988e+00
6.699651331592164638e-01,-9.330606763836800654e-01,8.007336277545429315e-01,-2.087197082749672403e-02,-1.855982163601661503e-02,-1.956173607973522161e-02,1.673291921615600586e+00
7.896552048169793725e-01,-1.034254994914938663e+00,7.824833431692942431e-01,-4.690837189957794938e-03,-1.192300363674428723e-02,5.281132009322822042e-03,1.820493102073669434e+00
5.835960162830766684e-01,-9.899308629054163200e-01,8.229218196951673114e-01,-8.312583309569503837e-03,-1.257122457628850332e-01,1.212704715359868429e-02,1.719857096672058105e+00
7.178681963709114822e-01,-1.007594463040505151e+00,7.584687182456522070e-01,3.064818471219683121e-02,-4.082093305648445969e-02,3.172793950721619627e-02,1.749217391014099121e+00
6.836225666594512029e-01,-1.052735045671469916e+00,6.411802586400020543e-01,1.986394030753034154e-02,-2.503704758931599716e-01,5.130617276399625226e-02,1.772055506706237793e+00
7.763639561591096916e-01,-1.033067402477189312e+00,8.235162519374151779e-01,-7.382307868713153254e-02,-1.517361487407290280e-02,2.792782113259480170e-02,1.838739871978759766e+00
7.512791630388513386e-01,-1.004065687925299377e+00,7.341880373988221020e-01,1.277211833169713401e-02,4.426975719891685507e-02,-1.097806305759840492e-02,1.748787403106689453e+00
7.736317996965751398e-01,-1.034676969227759535e+00,7.940278657639340265e-01,-1.204513231143451019e-02,1.259194792667251567e-02,5.004841106030036291e-02,1.820907592773437500e+00
8.153297601324305255e-01,-1.017045481284430508e+00,6.310267073020322526e-01,1.965208271650283750e-02,5.832085699029074255e-02,-3.757931709728866421e-02,1.751985549926757812e+00
7.897163626238533629e-01,-1.030850277423803529e+00,7.838572506713266108e-01,3.341020318826132696e-03,2.926042288216953134e-03,-4.532367671053342921e-03,1.817677378654479980e+00
8.058117423459407735e-01,-1.018459980180015378e+00,7.245303566184111421e-01,1.322878253565797947e-02,6.463221928419179974e-02,-2.453026578364952970e-02,1.789177656173706055e+00
1.304916582350706067e+00,-9.048015770739679109e-01,3.593275632930757468e-01,3.160821086391913531e-02,-1.934276934022155503e-01,3.156062196734266134e-01,2.025233268737792969e+00
7.682320620559699442e-01,-9.184960649626023876e-01,7.751841693525884924e-01,1.006692285423793805e-02,1.502518681985575422e-01,4.270033009253113021e-02,1.711819887161254883e+00
7.729484245328048786e-01,-1.035124948799061473e+00,8.012233298339981324e-01,7.036788030173752803e-03,2.467738865259071993e-03,8.226834524350815081e-03,1.822476863861083984e+00
9.207758438499652476e-01,-1.002283295795051599e+00,4.638601386158637263e-01,-9.466541591002079065e-03,-1.723898940768641211e-02,5.052329135729421127e-03,1.740542888641357422e+00
6.334667097472270747e-01,-9.954160457428744557e-01,7.937842377950687922e-01,-1.782887734483830713e-02,-1.886152666521907079e-02,-2.588526300094896870e-02,1.715846776962280273e+00
5.166493250841361906e-01,-9.841155395495160274e-01,8.613428493479761139e-01,-2.879089561959995180e-04,2.582282649943685657e-02,8.570916908048384353e-03,1.700186371803283691e+00
9.855799423608972987e-01,-1.024471797035633180e+00,4.017818074775391102e-01,-7.885043247839097769e-03,-3.135841015221058764e-02,-2.223450349686756367e-02,1.792284488677978516e+00
8.962850625803786553e-01,-9.854126224260669753e-01,4.882201455261293566e-01,-1.156659176543358043e-03,-3.785526843979478834e-02,2.408026921457783083e-03,1.715741515159606934e+00
7.498928644174664981e-01,-7.762145923376168044e-01,7.137480908143841729e-01,-3.864554254665425546e-03,6.072135370890970052e-03,1.210012364530812764e-03,1.508412837982177734e+00
9.020925389674248063e-01,-1.004442143480853256e+00,5.071734344654645898e-01,-2.959476533977332784e-03,-1.238553695981285847e-02,-2.820511511259258391e-02,1.743783712387084961e+00
9.468274566052563568e-01,-1.024859671023475860e+00,4.864059204161346184e-01,-1.669059270009256787e-03,-7.785692900812011229e-03,-2.063481223038616391e-02,1.786952257156372070e+00
7.638999942590172232e-01,-1.021612022890970639e+00,7.140051052909042184e-01,-1.442160332329722044e-02,4.512430257535812034e-02,1.023354009857544746e-02,1.763094305992126465e+00
6.222963810991083422e-01,-1.017159552060883154e+00,8.366851972016168260e-01,5.369878789639073551e-03,1.877738259602708057e-02,9.901385739533818259e-03,1.756900072097778320e+00
1.084835066434532980e+00,-1.886092521806853606e-01,8.951155371851033937e-01,-1.318145240979872769e-02,2.622825380167504578e-02,8.977473245048885400e-03,1.191168904304504395e+00
7.863454021250867454e-01,-1.061046269478294946e+00,7.038463183231776776e-01,-6.752258801573424521e-03,2.214342324864892741e-01,-1.698996842526319471e-03,1.847836256027221680e+00
6.748164404958215679e-01,-1.011877388393393806e+00,8.057133375762995930e-01,-2.305153146356983540e-02,5.660070522062053688e-02,2.804919145122153692e-02,1.759664297103881836e+00
7.907026267393471031e-01,-1.019056792414334556e+00,7.950310034596277386e-01,-4.160310618016139529e-03,-6.201588757421727834e-04,1.830173939048704290e-02,1.812219381332397461e+00
7.185048455509837062e-01,-1.029720908181629868e+00,8.165458218103027743e-01,-1.786397701358504939e-02,1.010942065045658013e-03,-1.414512029475320336e-02,1.799684405326843262e+00
6.014214435399709568e-01,-1.007935005773259451e+00,8.229748727464831770e-01,-7.691764847369497726e-03,1.009206633378862544e-01,1.564884730903387186e-02,1.739867687225341797e+00
5.092774271259721264e-01,-1.054232988195161980e+00,9.786880804609556783e-01,7.659225898055351846e-03,5.689990126894502176e-02,-6.863964786601709292e-03,1.846312522888183594e+00
5.334718131795876950e-01,-9.867831128891229042e-01,8.585881104976068601e-01,-1.732377013128919615e-03,2.568515059528410360e-02,-6.086044491313430567e-03,1.706820011138916016e+00
7.314119856549343712e-01,-1.032207905214739263e+00,7.467247210098258980e-01,-2.982346507353664938e-02,1.477080427109053740e-01,2.753105865400605479e-02,1.791086435317993164e+00
4.718686429685798878e-01,-9.920446316964031119e-01,9.177458849574786637e-01,-5.352419028220629579e-03,1.121091483124576384e-02,-7.035184435148156756e-04,1.730618000030517578e+00
7.695713630639019476e-01,-6.385379949058833660e-01,6.645376134196063767e-01,-3.783920146515686034e-02,4.798270155037964724e-02,7.117673283509495796e-02,1.368322253227233887e+00
6.268248133407735567e-01,-9.901675470165023363e-01,7.514609456583183356e-01,-1.135763628054265589e-02,1.155215392847082495e-01,1.173441827447115754e-02,1.694865703582763672e+00
5.879354264857044043e-01,-1.117438544121975408e+00,8.745061032807328605e-01,-5.507356553082597833e-02,1.439126233107475283e-01,4.534020964388247449e-02,1.885877013206481934e+00
7.695574937273297333e-01,-9.922240960984662905e-01,7.123866050377056780e-01,5.122254337943588608e-03,-1.248452405650093827e-01,3.571087731392016962e-03,1.747368335723876953e+00
1.986357830748925468e-01,-1.128298583787668674e+00,1.111193090775438153e+00,1.305729587744899195e-02,-1.126326045802884535e-01,-1.520680802130280201e-02,1.960531234741210938e+00
7.859168504717271020e-01,-1.030884281454473417e+00,7.821987095177247440e-01,4.087354002487865456e-03,-6.603225412955053726e-03,-2.486275318113678225e-03,1.814999818801879883e+00
7.900336268452483601e-01,-1.004855914917345938e+00,7.757710162322957181e-01,7.983173455743470398e-03,-1.239370786037793416e-02,-6.287694508540375531e-03,1.788016438484191895e+00
7.710576966748496908e-01,-1.025723032589835659e+00,7.897086967448627703e-01,-7.710016944638161188e-03,-1.504297297396472392e-03,-8.607647788349180595e-03,1.806291222572326660e+00
7.301155929689977508e-01,-9.973003399071291852e-01,7.284946439535716634e-01,-8.949256022639917596e-02,-3.005051996422614669e-01,-1.299219183594476756e-03,1.810002803802490234e+00
6.174636489084749380e-01,-1.002115948047053395e+00,7.286181403549309987e-01,-2.575944817814743854e-02,-2.392059718215850395e-01,-2.674235698639736841e-02,1.729511976242065430e+00
7.710664777686846438e-01,-1.029214654485505198e+00,7.887946536913550410e-01,-6.292867436786160791e-03,-1.217935654278550460e-03,-1.068600267374310991e-02,1.809339046478271484e+00
7.153133165300936680e-01,-1.004688569621826399e+00,7.278544287691365300e-01,-1.101984240971169184e-02,-5.561090679990680907e-02,-1.545853756915089791e-02,1.729304313659667969e+00
6.968645939730887529e-01,-1.004524813117141813e+00,7.698451159323289605e-01,-1.208730772689502360e-02,-4.903810881344220635e-02,-2.541947546845872707e-02,1.741783976554870605e+00
7.850464613394552149e-01,-1.028105027921337067e+00,7.830169690335970767e-01,2.877693442056498789e-03,-9.617368585133274569e-03,1.833022822121577644e-04,1.812221050262451172e+00
7.722081528980935250e-01,-9.960254435492070790e-01,7.870451015045281107e-01,2.638083410756119837e-02,-1.532997892167350983e-03,-4.038604412113556714e-04,1.776288509368896484e+00
7.709100014135292778e-01,-1.026843208078684233e+00,7.792907156636821320e-01,1.633499443906550469e-02,-1.186325830162605986e-03,-2.029948078087344052e-02,1.802524447441101074e+00
7.493061881046594319e-01,-1.021049806701141316e+00,7.576933605063131960e-01,-9.324511582365094253e-03,-1.205761727962288872e-02,-7.267963568231113752e-03,1.774805426597595215e+00
7.511513839363785916e-01,-1.016713071867139773e+00,6.858596234834659633e-01,-3.563413169358594507e-02,-1.265616098359761410e-01,-4.353083289450299098e-02,1.752634763717651367e+00
7.223831462553207405e-01,-1.016420471038808726e+00,7.691757046678688869e-01,4.350225130835655776e-03,-3.152290014950712149e-02,-1.454483385124111239e-02,1.763707160949707031e+00
7.522303388722867412e-01,-1.075973610860349705e+00,7.670696412154976995e-01,-3.737230387144635513e-02,-1.146051038591613946e-01,-1.258030409658763595e-02,1.847632765769958496e+00
7.748592991845919542e-01,-1.023751577624727904e+00,7.700196278412829720e-01,-1.296551150593762674e-03,1.133534134855983429e-03,-5.155087159923426102e-03,1.796220541000366211e+00
7.399077912022269388e-01,-1.021928893918214065e+00,7.738382195808997110e-01,-9.069960858432963777e-03,-1.490868645972694834e-02,-1.215857990341471205e-02,1.779425978660583496e+00
7.628182829067728932e-01,-1.017908204512864012e+00,7.233565921505739071e-01,-2.161260184446940624e-02,-4.172264802758399865e-02,-2.258451270813872924e-02,1.763640403747558594e+00
1.081211495430786318e+00,-1.228982796672612565e+00,4.540724423903108598e-01,7.325564496811506898e-02,-2.666143585470668320e-01,4.090725219061260021e-02,2.125054597854614258e+00
1.011762913070555658e+00,-1.090288959150019110e+00,4.002093994048877557e-01,-1.921813231705971764e-02,-2.160488419391757287e-01,-6.233284873257916026e-02,1.913086056709289551e+00
8.601646123647369580e-01,-1.131785824588157796e+00,3.443662672899973076e-01,4.756515079290810077e-02,-5.294817872706616413e-01,6.526958006376545884e-02,2.016702890396118164e+00
1.344430059962310020e+00,-1.344954988242280658e+00,8.392063332751409366e-02,4.273947353191921185e-03,-1.606357756897252298e-01,1.959501905972826363e-01,2.371568441390991211e+00
9.391099615999335404e-01,-1.090206763734059781e+00,4.107524188847933577e-01,1.082968181319094066e-02,-2.034302489847025774e-01,6.016300214269714591e-02,1.860227227210998535e+00
1.095027779624807129e+00,-1.212190112827536748e+00,4.082497615441022520e-01,5.548892639626708256e-02,-1.302658762712361473e-01,4.879865785935579708e-02,2.068250656127929688e+00
7.564912924286272267e-01,-8.335248571421963737e-01,7.469612831421512666e-01,6.461699555878097634e-02,3.184760276974998080e-03,-7.319143126227804427e-03,1.589278578758239746e+00
7.555675861674174820e-01,-7.991251244965444922e-01,7.530055339551222637e-01,1.809319489269023140e-01,-7.282824744419011051e-03,-7.704171933841202913e-02,1.590367078781127930e+00
6.808856542982861804e-01,-5.331320819695599678e-01,6.900876321654514367e-01,1.488750551561175972e-01,2.748928747765158262e-02,-3.001014634710180706e-02,1.247619867324829102e+00
3.641154134597605063e-01,-1.011942147791925040e+00,1.005238907278566574e+00,2.338361490385432173e-02,9.491867804149893562e-02,-1.033061154258667694e-02,1.793261170387268066e+00
1.515574235611783782e-01,-1.442638780552949473e+00,1.517519007287359667e+00,1.079872562148959103e-01,2.859649874150189675e-01,1.283104852185948941e-01,2.629567623138427734e+00
6.915084848746647639e-01,-1.024111905079348350e+00,8.220169369167524831e-01,1.308104394739960201e-02,2.145722004971898462e-04,-1.359145270902811266e-02,1.784756660461425781e+00
3.750058580199788216e-01,-2.152888128268983792e+00,1.557560510709235846e+00,-1.096027129130107969e-01,4.412195865741393996e-01,-1.409309936304704303e-01,3.384922981262207031e+00
1.612844361857082021e-01,-1.210779230977313103e+00,1.086213826785126679e+00,1.977730839614940950e-01,3.666352871325722074e-01,3.230734824773241320e-03,2.127851724624633789e+00
4.672707831579807070e-01,-1.179982281857391069e+00,9.008946152318590972e-01,1.117334909930964813e-02,5.249930578609316445e-01,8.979870937506836959e-03,2.107897043228149414e+00
6.930797991318797813e-01,-1.022284909756584481e+00,8.199524365062593745e-01,1.506932336956182464e-02,6.531533048037278973e-03,4.539613979546114971e-04,1.782418370246887207e+00
7.729369351546899747e-01,-1.029146583036238516e+00,7.908018495737283438e-01,9.837726644191706685e-03,1.469448962735524266e-03,-9.486249170074019521e-03,1.811238527297973633e+00
5.761456122255110834e-01,-1.143503923419729063e+00,8.624393002472919845e-01,5.634818079084819020e-02,3.710704555810470096e-01,-4.169300327762338193e-02,1.989799857139587402e+00
7.013068688311595578e-01,-9.880404339081410026e-01,8.459163651758319080e-01,6.478317214741188823e-02,1.541076814555694327e-02,3.673050072986165648e-02,1.771003246307373047e+00
4.936490953782506907e-01,-1.304316249383151938e+00,1.107903900324082924e+00,1.419412344167189921e-01,5.698765157748567622e-01,-3.175939572849511422e-02,2.398362636566162109e+00
4.983899314744925091e-01,-1.197084329989782203e+00,8.995649265451219900e-01,1.226324680980034609e-01,4.734621929859160194e-01,-6.926634517901860376e-03,2.105591535568237305e+00
7.682568821729929276e-01,-1.029262039399390538e+00,7.965635344162547149e-01,3.634166967618457453e-03,3.339890889659811839e-03,-6.071447001421410514e-03,1.811888813972473145e+00
6.007306353509677121e-01,-1.015851091088873170e+00,8.630391075149926872e-01,1.078933967741482064e-02,8.809769869861042851e-03,-2.287172731208689594e-03,1.762606859207153320e+00
1.003424945072632024e+00,-4.774869356369438878e-01,5.010647555868712466e-01,9.528843867382889854e-02,1.056921679220964028e-01,-9.406047698229680343e-02,1.337463617324829102e+00
7.616513505005921836e-01,-2.992844215972433886e-01,5.663488628431665450e-01,7.252023078338926121e-02,1.484450499832982440e-01,8.044820527044773545e-03,1.019119143486022949e+00
7.745650257677518802e-01,-9.567732324106715813e-01,7.767186796580743957e-01,-7.004759986017400700e-03,-2.694784632713369960e-02,8.261663351333327701e-03,1.733146309852600098e+00
8.154983317080757299e-01,-1.951721844823003371e-01,1.085322233756081500e+00,-5.822463896047698657e-03,-1.761908172718457772e-03,5.716066225808733026e-02,1.173403620719909668e+00
7.137435917570333910e-01,-5.949401708931277843e-01,6.938982846212125022e-01,1.763020420384189824e-01,-1.176763362313321300e-02,-1.708177306241508847e-02,1.334771037101745605e+00
6.909513171504191309e-01,-1.022591118559603274e+00,8.055112849499210803e-01,8.686802720463975350e-03,-4.655062849585692164e-02,2.746995428637500399e-03,1.775501370429992676e+00
7.726712838258764648e-01,-5.563583757199628277e-01,7.266019514680865932e-01,2.289324157007309735e-01,-4.556585883741774007e-02,-7.269749085851845427e-02,1.373509526252746582e+00
8.250290310283557860e-01,-6.115988243898263788e-01,6.745547319535323272e-01,-6.103904017168437085e-03,7.734537008227396204e-02,-1.532993684072871121e-01,1.399616837501525879e+00
6.996294390778208250e-01,-5.022675890307000124e-01,6.936788489871155150e-01,5.275474781451952588e-02,3.074632937404541029e-03,-1.403721691478567180e-01,1.226756095886230469e+00
1.102472753032861075e+00,-2.268909375030775388e-01,6.403225501332313607e-01,-2.318659014970952253e-03,-5.076184698629073941e-03,-6.160795331937935632e-02,1.173841953277587891e+00
5.130786351833191983e-01,-9.987731776675232709e-01,7.674504892157494318e-01,-4.338299442635790322e-03,2.306187570156652822e-01,4.260208136171720304e-03,1.701364040374755859e+00
7.426381277243552237e-01,-9.921886186779093064e-01,6.277786714129371948e-01,5.364199621867286882e-03,1.312016092091916608e-01,8.007523699416655566e-03,1.695722699165344238e+00
4.435659036638531783e-01,-9.904380904502292360e-01,9.174506727092308633e-01,5.977530440156292703e-04,1.788631477607342465e-02,4.555350221545990323e-04,1.720885872840881348e+00
6.336424087270224881e-01,-9.901738577692241750e-01,7.344338273547637019e-01,-9.528529187344501883e-03,1.333970672842808014e-01,-6.070160355579047769e-03,1.692445635795593262e+00
7.407536053774235185e-01,-1.006597068304521336e+00,7.226471848399116382e-01,-1.144775095898753481e-02,3.374297636498053976e-02,1.080628069968692789e-02,1.739564061164855957e+00
1.005610863538514560e-01,-9.358778155980651547e-01,1.327212376296537100e+00,-9.220793147331664275e-02,-6.385295199220628048e-02,-1.075560343241697830e-01,1.980573534965515137e+00
8.171605694995511815e-01,-1.008494733746668537e+00,5.903207950973385909e-01,2.423393400227672606e-02,-5.124838383739509229e-02,3.548960542525100847e-02,1.727356910705566406e+00
7.692739089688704901e-01,-1.057155690521212943e+00,7.748305335054082033e-01,-2.548518374930251046e-02,3.415730972233346069e-02,2.609710201377704597e-02,1.831260919570922852e+00
4.818600507834917002e-01,-9.927450346063763087e-01,9.197796970979972286e-01,-5.502515812385877243e-04,-1.130418345238199881e-02,6.377105468529120982e-03,1.735655069351196289e+00
6.498426091977466124e-01,-1.026121885702339753e+00,7.214737818644884060e-01,3.050905227862690805e-02,3.008733834539321084e-01,3.182802398034724305e-03,1.791210889816284180e+00
6.816176041042629752e-01,-9.794121058047929873e-01,6.945912382999477330e-01,6.317703358158416153e-03,7.030989658223171790e-02,-5.641855854467343542e-03,1.672059535980224609e+00
6.062289601449233345e-01,-1.012015214458007684e+00,8.385873609065138679e-01,-4.716029969339930426e-03,-1.995221048769825478e-02,4.687601770042634265e-03,1.746437549591064453e+00
6.636711025149860665e-01,-9.708720354752561343e-01,6.820502496086544575e-01,-1.216906955822516859e-02,9.115842590077355423e-02,9.631627818792235646e-03,1.651594042778015137e+00
6.553514515020544273e-01,-1.025826891910923022e+00,7.812205488827554944e-01,-4.744604302502921506e-02,1.434566182834949022e-01,5.136338124092722918e-02,1.769242644309997559e+00
7.985510951920471445e-01,-1.007358850287247476e+00,6.019210206648194506e-01,-1.859606465656196694e-02,1.267035385493679445e-01,3.032549970126315053e-02,1.731137037277221680e+00
6.750043481271258416e-01,-1.020883507999353457e+00,8.265801991679060379e-01,-1.317700027175382205e-02,9.122870722299549970e-05,-9.245890351857671352e-04,1.776679515838623047e+00
7.968514594335345258e-01,-1.013423184883683881e+00,7.771435973509337458e-01,-1.277007120759152299e-02,-4.783032533929889446e-03,-3.742772231516825789e-03,1.800668239593505859e+00
8.449379557077857372e-01,-1.150104949904566354e+00,8.775196528263784490e-01,-2.247972305957997019e-01,5.208924321746046804e-01,1.554237202086718450e-01,2.254842996597290039e+00
7.871317680932662375e-01,-1.023471353868819822e+00,7.810421985239092146e-01,-1.698944936007511057e-03,1.590872797482315764e-03,2.891130545768518922e-03,1.807577490806579590e+00
7.363069708300282734e-01,-9.298026858404557782e-01,7.103202602986522507e-01,2.814762940636366534e-02,5.659656857391782286e-02,-1.998881227490117984e-02,1.657252311706542969e+00
8.484945788351105911e-01,-1.024586088209491042e+00,6.968402910999835775e-01,1.198172210216558869e-02,-2.599914205092960021e-03,9.331566467946899451e-03,1.802243471145629883e+00
7.423716177258976590e-01,-1.015804500506059860e+00,6.695421488391818388e-01,-1.417286650096791570e-02,1.894282534708671695e-01,1.222848563607631042e-02,1.754178047180175781e+00
8.006073685169806664e-01,-1.020314699522616886e+00,7.775444743094493960e-01,4.378885209551934728e-03,8.500509554702329051e-03,3.619785534314696584e-03,1.809587478637695312e+00
7.929777877747139492e-01,-1.021406626715654742e+00,7.793731917404321807e-01,-5.157255365735515136e-03,-9.942622014311930032e-04,-7.868317334597965760e-04,1.807643890380859375e+00
7.985056058724127048e-01,-1.027490721606101554e+00,7.619353010160219153e-01,1.623095882615864863e-02,-5.588963533958804866e-03,2.264209304729227629e-02,1.808658242225646973e+00
7.854383285977961648e-01,-1.014652970344750660e+00,7.829817008542083734e-01,9.258759458111574152e-04,-3.159099116557140957e-03,5.202973172046374169e-04,1.798873543739318848e+00
6.671432457513573056e-01,-9.742829439370451761e-01,7.136043966652806381e-01,-5.967103062235373616e-03,1.688321221364157410e-01,-2.251278844638799487e-02,1.691106557846069336e+00
7.593564074156359256e-01,-9.996534417708531350e-01,6.956273205151849437e-01,1.763322038929455993e-02,1.217734060378713318e-02,1.676820509851603734e-04,1.728425502777099609e+00
6.297589534921854693e-01,-1.025622193494121870e+00,8.394832590712361098e-01,-3.656109657723063261e-02,-1.673803764244893508e-02,-1.394286805681677240e-02,1.771123528480529785e+00
8.041005015357821639e-01,-9.945481546340237955e-01,6.857055102914443312e-01,1.392033273686298436e-02,2.648319318721912424e-02,1.917097347716247707e-02,1.743557095527648926e+00
6.999859576849535303e-01,-1.041919320877895183e+00,7.800781303631930674e-01,4.074575338238934502e-02,5.065268921802797142e-02,-2.465606277647892225e-02,1.787362098693847656e+00
7.629066146160015105e-01,-1.025958450350328732e+00,7.898005259142046874e-01,-5.576345073400828731e-03,-4.912622538888764077e-04,6.101254302428387420e-03,1.802519559860229492e+00
6.644487374557732640e-01,-1.034090373784923633e+00,8.298581863449048246e-01,5.249605293867162792e-02,-7.417023442606210382e-02,2.638426019454124388e-02,1.794494152069091797e+00
7.881180270926877451e-01,-1.004531767438954004e+00,7.684833950303554539e-01,1.013778204213018619e-02,-9.009836354009330764e-03,-3.324225389088711433e-03,1.783077597618103027e+00
8.335306101438305637e-01,-9.137459897289050836e-01,7.665256509965492349e-01,-6.034519027343138164e-02,1.658697479241691766e-02,1.021902702654771122e-01,1.727271676063537598e+00
7.681347030498677508e-01,-1.029107213748452709e+00,7.668466323652306516e-01,6.086065008174108837e-03,9.199865601025684078e-04,2.246777826228342186e-05,1.796629905700683594e+00
7.152793952136293765e-01,-1.033100889104060949e+00,8.862482899313599560e-01,-4.864040874510491830e-02,3.650828159996000188e-02,3.798512078154053090e-02,1.844019412994384766e+00
7.530175988903240469e-01,-1.040212561349325382e+00,7.730871051675813899e-01,2.248911806905492389e-02,2.759660539988895503e-02,-2.366119182079462827e-02,1.804867863655090332e+00
7.935946476793740434e-01,-1.024037493266276577e+00,7.857344036335524029e-01,5.760573855415901043e-03,6.414360600060850645e-04,1.908604067462067559e-04,1.813742637634277344e+00
7.859536788023627762e-01,-9.799956617749923105e-01,7.684552829778465988e-01,2.417792705271090323e-04,-1.854034133363739734e-02,9.930754474504413162e-03,1.757643103599548340e+00
7.766170054263408229e-01,-1.102184267130426498e+00,8.453181378173511007e-01,1.323298517645426012e-02,4.431936711645198534e-02,-1.340015094397011171e-02,1.915893077850341797e+00
6.949327309842023848e-01,-9.901938096752679330e-01,7.602877789964180844e-01,1.112955267690770265e-02,5.554351704957925795e-02,-1.296632008974633356e-02,1.721680998802185059e+00
8.273837477485732617e-01,-8.675765909449542068e-01,8.495517191791968070e-01,8.339865692023307187e-02,-1.551212492677667143e-02,1.202304799673183655e-01,1.725082516670227051e+00
8.855953436084480490e-01,-1.030837918605620018e+00,7.821580619452771499e-01,6.901034322262040999e-02,-1.523292533968876317e-01,1.329708584020622419e-01,1.903189063072204590e+00
8.467687088611535184e-01,-1.040224182375365958e+00,6.713297041802928078e-01,-3.663933797938792591e-02,-7.739343325344648361e-02,-3.421816690577821063e-02,1.812726736068725586e+00
8.046736571659376391e-01,-1.025455540173773716e+00,7.321065846229055651e-01,-6.174873584023148412e-03,-2.458303663954724758e-03,-1.385026801751189016e-03,1.794984698295593262e+00
7.964168773627664510e-01,-1.021855112784890496e+00,7.414097722545163194e-01,-1.164942627924878127e-02,-9.329850200441074104e-03,-9.126083817314459062e-04,1.791589140892028809e+00
6.981751394841548830e-01,-9.899307615434080887e-01,7.867671683717897269e-01,-3.097407972409154872e-02,-2.892363105449189536e-02,-3.389063014554816178e-02,1.736645221710205078e+00
8.517409202598191786e-01,-1.033762285557756622e+00,6.391740684136564266e-01,-3.874071744351704344e-02,-6.390419931970869882e-02,-7.861494268335279811e-02,1.798556685447692871e+00
8.751314128287248639e-01,-1.011247231190036233e+00,5.467221241950600552e-01,-2.234057000877401247e-03,1.860429219771442613e-02,9.031859996628725448e-03,1.745872497558593750e+00
7.263596221487905735e-01,-1.020257366001179333e+00,7.860205591130670078e-01,1.287352457379813565e-03,-5.874856900662759132e-03,-1.869706551433042083e-02,1.777524232864379883e+00
7.823000482639912434e-01,-1.038618417749160860e+00,7.828563088367588296e-01,3.665722552773917949e-04,1.758390291853515613e-03,-2.423904705814327286e-03,1.821204185485839844e+00
7.765126473931415196e-01,-9.896812257138579705e-01,7.944809366323623001e-01,-1.087482728336975485e-02,-4.956841418743384610e-03,2.814947754779774727e-02,1.776036262512207031e+00
7.538974513172547187e-01,-1.014067551120077182e+00,7.381202773545474383e-01,-1.036204873525136110e-03,-5.820301896595573773e-03,-1.077892707450000404e-02,1.760258197784423828e+00
6.165722394254992134e-01,-1.033029613175997952e+00,8.884074087718198953e-01,-3.299795254232167074e-02,1.908001297727285835e-05,-1.217059935083088934e-02,1.802002072334289551e+00
7.516091608840362870e-01,-8.048254188312713442e-01,8.301347000833395606e-01,6.505777687960592748e-02,2.293257838907547530e-02,1.329901945178107447e-01,1.618088126182556152e+00
7.534706987757987529e-01,-7.707158615844675875e-01,7.339653784618732635e-01,5.016576292276560961e-02,3.231507724903575317e-03,1.520856992933665441e-01,1.539729475975036621e+00
6.939096859273691242e-01,-9.638616171915895814e-01,7.624675157874957199e-01,-3.281345997583313273e-02,1.188205670276033105e-01,1.485304718254864750e-02,1.706694483757019043e+00
6.208790449627683561e-01,-1.104693641115315206e-01,6.141241307228892943e-01,1.760624921175227633e-02,3.304932247788152418e-03,-2.404277240386452560e-02,7.298443913459777832e-01
8.505125899253302979e-01,-1.137629024683012302e+00,5.850250656084968748e-01,-5.478707536786812937e-02,3.114466739876074475e-01,5.193518185591392000e-02,1.950245499610900879e+00
8.975343431685693929e-01,-1.126544967564466093e+00,6.352097000255594317e-01,-2.623805463213281855e-02,1.326133098142293909e-01,9.451430556972360841e-03,1.920894980430603027e+00
8.619411466690285462e-01,-1.056117000270704320e+00,6.596149555852961477e-01,-4.523705300499045179e-02,5.875558404841883103e-02,5.321299953376360664e-02,1.832157254219055176e+00
6.325213374963163382e-01,-9.731931924675587542e-01,7.753285605433437588e-01,-5.780884386818218972e-03,1.434339036099934461e-01,3.947130822632517744e-03,1.699966907501220703e+00
7.652102785837172627e-01,-8.832664386540810542e-01,7.684054410488285747e-01,-3.189059485478346057e-02,2.510915808703170771e-02,-4.237139039869006196e-02,1.653203368186950684e+00
7.044202181054155520e-01,-6.706017198187391726e-01,7.194266476327415560e-01,-4.622823461042984555e-02,2.594229876248254490e-02,-3.865509891517278362e-02,1.387248158454895020e+00
6.954737886830557603e-01,-6.717547461168478229e-01,7.157887886453668802e-01,-5.038938752367264073e-02,1.716561703982830839e-02,-4.291131217319231472e-02,1.382579922676086426e+00
6.569726495402922195e-01,-4.046617835961942022e-01,6.679107341039004497e-01,-4.622943397168951390e-02,2.645500733151628925e-02,-6.202047015808903260e-03,1.071179747581481934e+00
7.407555338409865797e-01,-7.014236155215622937e-01,6.976009638248171774e-01,-7.184873069281477731e-02,2.350073682445830842e-02,-5.942878752071829862e-02,1.430819749832153320e+00
7.438845527112725176e-01,-7.163850958596953422e-01,7.125580453506998868e-01,-5.658388359493014830e-02,3.186592708449963174e-02,-4.497726974349251089e-02,1.451324939727783203e+00
8.199911325102759996e-01,-1.026368524805919558e+00,7.009129582748044873e-01,-1.138247739895884144e-03,-1.467729434536747379e-03,-1.078847226034385619e-02,1.789894461631774902e+00
7.027518108032400068e-01,-5.952093243391933797e-01,6.626543132180440221e-01,-4.051229190888582660e-03,1.227515942105161448e-02,-2.071047819642351997e-04,1.278580188751220703e+00
4.805492608213541850e-01,-1.014101390932163005e+00,9.139421118403627808e-01,3.846821999810930842e-02,1.774436654388949607e-03,-6.844027951801490844e-03,1.753331184387207031e+00
6.265592971085118812e-01,-1.006263352318987003e+00,8.320382925098092075e-01,4.271303735007426182e-03,1.140377993993896624e-02,1.938312484758865709e-02,1.745111465454101562e+00
8.356205210280815976e-01,-1.026446237712827170e+00,7.000901257711709125e-01,2.033632930671219405e-02,-4.091659144165224124e-03,-1.771658837245597418e-02,1.798757076263427734e+00
5.195588765723164748e-01,-9.848116345328925547e-01,8.666815640833247514e-01,-1.113937947076327692e-03,-2.597807169012442130e-02,7.730659135836741129e-03,1.705295681953430176e+00
8.177173500497761927e-01,-9.741660308740714980e-01,7.065773474572950574e-01,1.923501844564332736e-02,2.851874163554515146e-02,2.405574223227735509e-02,1.740498304367065430e+00
7.655657522028991302e-01,-9.537030662463323871e-01,7.658494765385979175e-01,1.064738913436012735e-02,-2.206529578979314946e-04,-3.900016973359505482e-03,1.719522953033447266e+00
6.722759342351812828e-01,-1.000628130300310836e+00,7.899694362866300779e-01,8.711885082621660323e-04,1.177637635548941901e-02,1.614162600703614170e-02,1.735093593597412109e+00
1.276827247518506514e+00,-2.193274052459608381e+00,9.090761010971571965e-01,-2.299275155941207238e-01,8.050244924615499453e-01,2.587694655465492266e-01,3.633784294128417969e+00
7.565479170580463597e-01,-9.704648493613179383e-01,7.971944341639820575e-01,6.620439164048952906e-03,2.029622553192839650e-03,-3.072796584912400319e-02,1.748541951179504395e+00
8.620849756070743108e-01,-9.737728203479684153e-01,6.661310709794674434e-01,-1.208280217454806222e-04,-2.780671303141304951e-02,-1.091223135409470461e-02,1.746913075447082520e+00
5.491301809480702012e-01,-1.005818137014006020e+00,8.748448996284543533e-01,4.303111996770657421e-03,-3.001381359939528023e-02,-9.884209141090734285e-03,1.741687417030334473e+00
7.878420121708741286e-01,-9.785136796579809726e-01,7.835691462556128029e-01,-9.680242770209833772e-03,-7.131993130376861750e-03,-5.171904895104956906e-02,1.766618728637695312e+00
7.566920612527110457e-01,-7.269192370184323071e-01,6.562705406010809206e-01,2.213768571492009257e-02,-3.360059696682413805e-02,-9.509935154120954803e-02,1.447131395339965820e+00
6.501099791067612710e-01,-4.543427787176873567e-01,6.764463465544796605e-01,4.403601349975068933e-03,1.874881185020672511e-02,1.469195377095029427e-03,1.118354082107543945e+00
8.435326717627419368e-01,-1.070117376164991141e+00,7.306708420370808810e-01,1.546608793313773017e-02,-6.603420665196884157e-03,-2.649379269756303116e-03,1.860023021697998047e+00
7.954059312234091905e-01,-9.831824403050075656e-01,7.680576035146493563e-01,6.708575406748061923e-03,-9.568017475363838412e-03,-3.890913728269296615e-03,1.765202045440673828e+00
4.895285887915520884e-01,-1.002304822290927433e+00,8.907452220731393311e-01,-6.277734297719937337e-03,-8.288184507575367677e-02,-1.198322859351181637e-02,1.733853340148925781e+00
6.689494027266447151e-01,-4.507180813215336257e-01,7.147717218957003738e-01,-4.568427286204067989e-02,3.619891996293271574e-02,-5.042537922866480865e-02,1.151034832000732422e+00
7.849108850806019166e-01,-9.865714707922260684e-01,7.718173043482475792e-01,6.825412215673574805e-03,1.358425963978046602e-02,5.635561505151423164e-03,1.765195369720458984e+00
7.106593861620925656e-01,-7.326164798982786053e-01,7.215119311392902413e-01,-2.876148153565933827e-02,-9.386043098769114579e-03,-1.332888744881274498e-02,1.449863791465759277e+00
7.584115754746385551e-01,-1.002161647187804316e+00,7.315316807619638428e-01,1.327220516275882251e-02,-3.583177508363308977e-02,2.002776102772569483e-02,1.748885393142700195e+00
7.544671552077832910e-01,-8.013118649191014464e-01,7.054993713338795214e-01,-1.283940079798374240e-02,-2.656486251629714898e-02,-8.905920416621290747e-02,1.540477037429809570e+00
7.549890395655938224e-01,-1.990761057016449564e+00,1.009819815274352495e+00,1.523094157625178580e-01,-5.992290403992670544e-01,-3.259402240542682572e-01,3.125590562820434570e+00
7.731413050075874871e-01,-7.907173335755955934e-01,7.982438130337836668e-01,-1.303417595759105152e-01,-2.799233972870659656e-02,-1.590949313621646544e-01,1.617031812667846680e+00
7.565942188806296098e-01,-9.226791382351704485e-01,7.592753131054936766e-01,-2.810446781591557225e-02,5.377094691902050208e-03,-3.385340484182786450e-03,1.681356310844421387e+00
7.325066468637297934e-01,-8.200745345694284705e-01,7.711094593643728068e-01,-2.223030557977009186e-02,2.502754107351775475e-02,-4.730265899820142866e-02,1.575438618659973145e+00
7.738687715590066851e-01,-9.894626930093299855e-01,7.959923415634613253e-01,-3.263351439242898402e-03,1.934059783047240716e-02,-1.342938944920222914e-02,1.774974226951599121e+00
7.899899879165335204e-01,-9.751902848478948282e-01,7.552313481453887256e-01,-1.105076497793329796e-02,4.960657674207009926e-03,-1.477003998832830331e-02,1.748373270034790039e+00
7.107675940350079991e-01,-1.004100281982027720e+00,7.425976286089770451e-01,2.190310558360338694e-02,-1.217538045150121928e-01,3.258070118782737529e-02,1.745126128196716309e+00
2.981079399545242259e-01,-1.838967379166105198e+00,1.680152576243784779e+00,-1.460327049732739191e-01,2.779429372119147090e-01,3.215064978997073802e-02,3.119215726852416992e+00
7.845642624999725756e-01,-9.867852035667191712e-01,7.741598553367627922e-01,6.726854953604737702e-03,1.620183422531046649e-02,5.584000042786703422e-03,1.766458034515380859e+00
7.341788995155205111e-01,-9.959147315479540685e-01,7.203174583169014156e-01,7.567217004587189350e-03,-4.677952181002927035e-02,1.559330798967542911e-02,1.725369691848754883e+00
6.319786428876201789e-01,-9.906623643591176975e-01,7.425759383098708977e-01,1.787148981862158800e-02,-1.063368025123445221e-01,1.788148318733167458e-02,1.691299915313720703e+00
7.283562189615349070e-01,-9.738918218048397968e-01,6.450310558148703022e-01,6.900422953924728944e-03,-9.224572587883139718e-02,3.077269809227844988e-02,1.670707345008850098e+00
8.005067269527348373e-01,-1.022280516114926652e+00,7.797486439350731491e-01,8.699385611912288652e-03,5.966084233604159424e-04,4.947815939636433704e-04,1.812560439109802246e+00
5.726174050361060308e-01,-1.032770474037637776e+00,8.570847515921745652e-01,3.334400823834696853e-02,-1.470117122800954634e-01,5.031053862491530193e-03,1.784130334854125977e+00
7.452580322111784783e-01,-1.022328912262407075e+00,7.043952993370430349e-01,2.229773630319326072e-02,-7.492389074933425430e-02,3.526677822349588709e-02,1.753815412521362305e+00
7.605831433986830481e-01,-1.020809039860269385e+00,7.246157233668705233e-01,2.566711061869250340e-02,-4.252183687608309531e-02,2.428983929663199037e-02,1.766281485557556152e+00
7.916479821459949662e-01,-1.583256901661068694e-01,1.086057460088986293e+00,1.342736425464978976e-02,5.928529795195071339e-02,-7.422498784781254855e-02,1.138604998588562012e+00
7.299539753793833352e-01,-1.021831107274806971e+00,7.683025710086102134e-01,7.486024697342632400e-03,-3.422142882074644121e-02,1.443630988140236736e-02,1.772486090660095215e+00
7.424554108763750104e-01,-1.014909203981910091e+00,7.509955017169787084e-01,-5.686908927623704507e-05,-2.329924943258284125e-03,1.021246875827965493e-02,1.761743664741516113e+00
7.426527271791243390e-01,-1.033665585097535367e+00,7.937265264630747330e-01,2.341664190627230913e-02,-1.829933930482780663e-02,3.126144977317767831e-02,1.803945660591125488e+00
7.698193088583165089e-01,-1.029927777728097738e+00,7.920365753247562424e-01,-6.705964623489043402e-03,1.186440991057651287e-03,7.492391075970732464e-03,1.811042785644531250e+00
7.757544539366471037e-01,-1.016044564393995042e+00,7.330281497332377105e-01,1.953102361556059013e-02,-2.255612887211418810e-02,2.592631495746635165e-02,1.772145509719848633e+00
7.926534872357637873e-01,-9.560964704030554540e-01,7.464679426997935519e-01,-3.650945643696435622e-03,1.031793801574549911e-02,2.877041628708605029e-03,1.726231932640075684e+00
7.756782008766969216e-01,-1.016371486772356558e+00,7.918877051096373521e-01,3.258288142881005881e-03,1.558254781304715605e-02,1.765472417782081721e-02,1.800680041313171387e+00
7.615728606485212548e-01,-1.030158099191679000e+00,7.862628439000085567e-01,1.693779410873422903e-02,1.885690382958191830e-03,1.614802929109488555e-02,1.804660916328430176e+00
6.421470443905827885e-01,-1.013945340030435238e+00,8.432745602374501770e-01,7.980401959083666466e-03,-1.347978356155314465e-02,-1.367157409597359249e-02,1.765637874603271484e+00
7.929099900404544821e-01,-9.572331071692171678e-01,7.590553135646787020e-01,-3.100753369578844454e-03,1.606893502284518528e-03,-3.264027328101702890e-04,1.733474373817443848e+00
7.671033028545333199e-01,-1.032732179518293325e+00,7.806386132340696893e-01,1.743257775746977212e-02,-1.780422574563378900e-03,1.986081830014838068e-02,1.807223558425903320e+00
7.033055053205835572e-01,-8.198449066784427863e-01,7.678275333241042500e-01,7.249483412825017369e-03,-6.272912548823745410e-03,-1.925182519843149972e-03,1.556506991386413574e+00
9.632487437161868504e-01,-1.038943622226035979e+00,4.101061266421584528e-01,-9.075617317821398772e-03,-2.762968839252867570e-02,2.736190818269633104e-02,1.792212724685668945e+00
7.404862617255620894e-01,-9.431289970870997408e-01,7.684707448845304878e-01,8.666188596649498921e-03,-2.350656133800881412e-03,5.336272324358615248e-04,1.697852015495300293e+00
6.429938674782076369e-01,-1.006611518555086349e+00,8.288693742100124995e-01,9.476661195524352724e-03,-1.856407875270251612e-02,-1.790183546193743758e-02,1.750609517097473145e+00
7.873690597326901131e-01,-1.006963347741044901e+00,7.758613485779273233e-01,9.308910142996170561e-03,1.381464335157215305e-02,9.533834926514347594e-03,1.788915276527404785e+00
7.294440162268753802e-01,-1.018899658513570561e+00,7.920394971814861407e-01,-1.336017184827109454e-02,1.467250926913494331e-03,1.446889973456306523e-02,1.780795335769653320e+00
7.707628007331519537e-01,-1.031721290559284743e+00,7.796321880744616628e-01,-7.329732790448612641e-04,8.176677746216647752e-04,-6.796490692104184377e-03,1.806974411010742188e+00
7.792901324088715720e-01,-8.283339587876986654e-01,7.665213976773360693e-01,9.206576665688770422e-02,5.975808653287553729e-02,2.505237183607678976e-03,1.612529397010803223e+00
7.606783792563551749e-01,-9.644130078450772192e-01,7.792342945130417142e-01,2.944766927365509435e-02,3.037956349750426180e-03,3.445493600427027101e-03,1.735211849212646484e+00
7.722698049916623120e-01,-9.173774022003964301e-01,7.762911412571352754e-01,5.563133777777036493e-02,-1.539785663382395309e-02,-6.232377843627147362e-02,1.698047995567321777e+00
7.832230223095253407e-01,-9.907292595419820991e-01,7.666485231547601753e-01,2.335046054779163494e-02,-3.115585295056670645e-03,-3.372442426075805688e-02,1.767160415649414062e+00
8.621158861996287559e-01,-1.093596577442575546e+00,7.310363073937484746e-01,8.169540612538205362e-03,1.055332708521210076e-02,4.262070840791212789e-02,1.895157814025878906e+00
7.580388609380751541e-01,-1.018219536904537037e+00,7.586224808810344555e-01,7.740444392388344010e-03,-1.597691820585954886e-05,-6.947517267942692615e-03,1.776641607284545898e+00
7.821225171352769179e-01,-1.005629254367685466e+00,7.779118662111108584e-01,1.109750287683684659e-02,1.009344653888565035e-02,8.435943394725090722e-03,1.785898923873901367e+00
7.362397219099136025e-01,-1.022023140288081722e+00,7.673288045708495098e-01,1.454922081181671441e-02,-3.050942498293044564e-02,1.468414118481474115e-02,1.775159716606140137e+00
7.232738218518084405e-01,-9.956571925361017428e-01,7.207651556097744994e-01,-4.711150630943909635e-04,-4.348930455252337547e-03,-9.618916803414831115e-03,1.717775583267211914e+00
8.237508988266826204e-01,-1.020102430633011092e+00,6.802619700199492581e-01,-1.533418578383121929e-03,1.512401161207216696e-02,9.571375414056134887e-03,1.776732921600341797e+00
7.527991917754571771e-01,-8.759562907474601756e-01,7.549085020565333704e-01,-1.217791614924933208e-02,1.870124604234450066e-02,-1.674860719838463380e-02,1.630527496337890625e+00
7.816276186532737924e-01,-1.023066686653065993e+00,7.997763290424710902e-01,3.224507827985985918e-03,-5.622610088555501581e-03,-4.443765579772434617e-03,1.813887834548950195e+00
7.677712626895870640e-01,-9.510675068244786035e-01,7.737087480314263077e-01,-2.016420916836794350e-02,1.410415320416706121e-02,-2.037982862833016481e-02,1.722704291343688965e+00
7.012759873544532896e-01,-9.941629933019456855e-01,7.648382481498725571e-01,2.250649598326353792e-02,-1.078051045046205247e-01,3.414197359668291742e-02,1.739598155021667480e+00
7.012176014049498196e-01,-1.032002059065455501e+00,8.296422151319081673e-01,1.332299241151680726e-02,1.330861476958380366e-03,-8.159788194652878301e-03,1.801074385643005371e+00
6.858833259872230137e-01,-9.796208901526213264e-01,7.153286986942158920e-01,1.350211357329669792e-03,-2.504855085165966916e-02,4.404565799532438562e-03,1.680999279022216797e+00
7.828704733707394503e-01,-1.006798533823590525e+00,7.611968950804235412e-01,8.021408388060606923e-03,5.516942225303560036e-03,2.232444097541775099e-03,1.779015302658081055e+00
7.203606534233484293e-01,-1.003627001076162095e+00,7.758872338484359421e-01,-1.665774807270824567e-02,-5.278535892829327308e-02,-1.454878155928497271e-02,1.755212306976318359e+00
7.753882864161487642e-01,-1.017870657722753647e+00,7.497794132911488330e-01,1.883200241997561378e-02,-4.014414276739754206e-02,2.820154039332283327e-02,1.782917499542236328e+00
7.821789034660954210e-01,-1.035045587912399423e+00,7.784027687062788914e-01,2.095886452148935572e-04,2.041515758469017016e-03,-3.090939286143874233e-03,1.815350770950317383e+00
6.194693233973198598e-01,-9.813796695555083716e-01,7.925081097244803807e-01,1.041447458531408188e-03,-2.509541865362821533e-02,-6.857056803248115853e-03,1.694609880447387695e+00
7.626051530549819990e-01,-9.610957564241076057e-01,7.675116268326067637e-01,1.242059301029775457e-02,3.229265130413098658e-04,2.605465508807618385e-03,1.726299405097961426e+00
7.193714403916044997e-01,-9.527416934192590725e-01,8.101716325234683547e-01,2.276190128530291429e-02,-1.110660340404488744e-02,-5.182453398922783755e-03,1.719895362854003906e+00
7.707223530079646556e-01,-1.024092189755324345e+00,7.522468339700145723e-01,1.365921751210244679e-02,-3.685298628337904323e-03,7.323496318310744602e-03,1.785861611366271973e+00
8.120768796726218763e-01,-1.018886902789228444e+00,6.820723961302102012e-01,8.475537311822801956e-03,2.086859603810210968e-03,9.837160419652341697e-03,1.769693493843078613e+00
7.948245681594470202e-01,-9.692302524753246828e-01,7.636801454058703698e-01,1.467531937306742681e-02,-4.224036553289007082e-03,-7.110091947301346547e-03,1.748934030532836914e+00
7.751212778604454900e-01,-9.657849937635116788e-01,7.954228152606226399e-01,7.131955579095809739e-02,-1.879620317165801510e-02,-5.711709978982904695e-02,1.758583545684814453e+00
7.878184220257280490e-01,-1.068733516205747414e+00,8.030652403959767094e-01,-1.290275714996773609e-03,1.477553074704125651e-05,-7.496040169794052771e-03,1.864268660545349121e+00
7.227176625169640101e-01,-9.972167109683394148e-01,7.401886993639308354e-01,9.620063927501380265e-04,-1.126521971082279595e-03,9.848926420455754449e-03,1.728822231292724609e+00
6.914624732804663942e-01,-9.929235076024542916e-01,7.436978304463024436e-01,9.190719596393694818e-03,1.273369173595487007e-02,-1.416392633187096330e-02,1.711493730545043945e+00
6.729833910843177058e-01,-7.825502069131780036e-01,8.111576833760814065e-01,1.638403247604197990e-02,7.862474568937696806e-02,-4.866858605354056067e-02,1.537935018539428711e+00
7.536654666321418450e-01,-8.305675931408769141e-01,7.367296850441062972e-01,7.529111875559033051e-02,-1.336734121511367994e-02,-4.529418126117336525e-03,1.581409096717834473e+00
6.196614880257490521e-01,-1.686333778332821942e-01,6.258372938486138626e-01,-4.843486893278953903e-02,8.733372253821603806e-04,-3.180215202618970338e-02,7.977402806282043457e-01
7.135222022365209638e-01,-1.020924026188674283e+00,7.955106550828001666e-01,-5.827943966855476249e-03,-8.975018333616014560e-03,1.462076579841257128e-02,1.777136802673339844e+00
6.105331360120400674e-01,-2.389119914376562348e-01,6.286334024473259063e-01,-1.441011241440371370e-02,1.006365634571934620e-02,2.621088459942375049e-02,8.603764772415161133e-01
7.817915091722867915e-01,-1.015566514321934566e+00,7.760133990891410205e-01,5.302234650220171396e-03,6.727852152276960884e-04,-3.450000475865858812e-03,1.794509768486022949e+00
6.170870307285793999e-01,-2.469615233489371731e-01,6.311145520146692611e-01,4.344031293208534643e-03,1.825037611208413799e-03,2.458667925676248991e-02,8.722254633903503418e-01
6.307027008259153966e-01,-3.219049551601131376e-01,6.420293126309546405e-01,-5.389124172776216248e-02,-5.379447977423679195e-03,5.137577145653618449e-02,9.670043587684631348e-01
6.540392345593535328e-01,-3.601939068147426148e-01,6.406880852751430933e-01,-6.780793575694371578e-02,-1.311912797707443651e-02,3.560677017402114758e-02,1.016572475433349609e+00
7.773343232929783575e-01,-1.033146898735881836e+00,7.831865242144061545e-01,-1.049466533895885168e-03,-1.730145449173398986e-03,-1.126588904635658986e-02,1.813522815704345703e+00
6.149454383198533769e-01,-3.015448148441837728e-01,6.211975857125555667e-01,-2.590161219765448573e-03,1.312989322480132351e-02,-8.349243291867392350e-03,9.200379848480224609e-01
9.057791583667117452e-01,-1.022685802624364371e+00,5.188802489030075460e-01,-1.561279659614518874e-03,-4.479407574029053984e-02,5.514347717094131643e-03,1.768803238868713379e+00
8.492609367123519215e-01,-9.915456920774204930e-01,5.681806861789895358e-01,9.570743556618447126e-03,-2.083821734982387389e-02,2.838210579816306464e-02,1.718765497207641602e+00
7.548709596031222269e-01,-1.042004584781020426e+00,7.796861635251761680e-01,2.066855189850620722e-02,8.384789498716799239e-02,-3.203875305008024865e-02,1.816430449485778809e+00
7.277084659024999347e-01,-9.821305942035896130e-01,6.315562766451271459e-01,-5.213484342539084770e-03,1.249453493938133264e-01,4.256866526700999430e-03,1.677903413772583008e+00
7.538555541901860169e-01,-1.173902972386828170e+00,7.229991022680141155e-01,-1.691365902182498317e-04,3.890603035581043923e-01,9.101840382184256395e-03,2.027824878692626953e+00
7.252705531045327003e-01,-1.018213940924974859e+00,7.891580983593877718e-01,1.546781719483020364e-03,-5.243536318609210226e-03,-1.594084709210931428e-02,1.776530027389526367e+00
7.497322965997114119e-01,-1.007996499970565951e+00,6.266556359043401470e-01,-2.115088121341469635e-03,1.212990367858855362e-01,1.666714862299572414e-02,1.712720155715942383e+00
7.856835827598850353e-01,-1.036102181130155397e+00,7.843346287301069530e-01,1.875440613160508831e-03,2.326134823681616937e-03,-4.282851957753441505e-03,1.821134090423583984e+00
8.830593522893990244e-01,-1.103682736261623054e+00,4.916391445258407322e-01,4.229701131068147602e-02,1.688227824238833497e-01,-6.131549055729265847e-03,1.847616314888000488e+00
7.780480912853657838e-01,-1.036383373001978025e+00,7.838684009465348712e-01,-1.250375007080900937e-03,-3.682235031396074255e-05,-2.388964489978475259e-03,1.817354559898376465e+00
6.394581341495538807e-01,-9.827030099549534103e-01,7.215408781232031110e-01,1.831489755634245487e-02,1.180268748241172505e-01,-1.070901384828855038e-02,1.677628397941589355e+00
6.751516142471745141e-01,-1.055507326974437721e+00,8.409405216539302952e-01,2.584375544595950841e-02,4.847911026598671069e-02,-4.467231541204981504e-02,1.823357224464416504e+00
7.752367645277252750e-01,-9.466913197585287154e-01,7.498368928426053515e-01,-6.990500036036060173e-04,-2.446982760729903440e-03,9.203352663724226335e-03,1.709449648857116699e+00
7.417834588587858269e-01,-1.025821642876093343e+00,7.874406786459823282e-01,-1.950459793720116242e-02,-9.607452677241905617e-03,-1.580320761654267422e-02,1.791475296020507812e+00
9.647271406934146976e-01,-1.021509152486200112e+00,4.211094793920698298e-01,-4.320277479072874224e-03,2.867672426766210408e-04,2.682193900019104807e-02,1.778515100479125977e+00
7.457328593887675439e-01,-1.025551575940182536e+00,7.882218956416160438e-01,-1.199193113805453043e-02,-1.207476794025174292e-02,-1.432407520123476705e-02,1.793320536613464355e+00
6.114334362455595695e-01,-1.068244762524435787e+00,9.118620102817531770e-01,-4.776284975426321050e-02,5.326314696488567736e-03,1.847608916518827388e-02,1.850446581840515137e+00
8.446465353011312072e-01,-1.005178366177211124e+00,5.928120075138783029e-01,-1.122153720988685460e-02,-3.347663529671655869e-02,1.877316152070010458e-02,1.739028453826904297e+00
7.874907675620328451e-01,-1.032079895208826814e+00,7.822786180099801090e-01,-5.569209088281673733e-04,9.580100322951744587e-03,-6.430962398178476438e-03,1.817080378532409668e+00
7.936300693104866300e-01,-1.010779414489164196e+00,7.120232791558068763e-01,-2.362806281998630284e-02,-4.896083177854938101e-02,4.317277635670978102e-03,1.767547249794006348e+00
7.874938861234852538e-01,-1.000398399759548251e+00,6.738269796486551222e-01,1.936692740631229190e-02,1.460054758726011745e-02,2.119276107065784856e-03,1.734368205070495605e+00
7.856093480955921304e-01,-1.037652420077959992e+00,7.822755694594376585e-01,-1.103288982353038683e-02,-4.211223295063886026e-04,-1.241969490064288514e-02,1.821824550628662109e+00
7.770986413545375449e-01,-1.042649849891172043e+00,6.904481720862363225e-01,-2.202326073701932341e-02,-4.826213654069427123e-02,-4.363855652506744981e-02,1.781983852386474609e+00
7.079460886089931071e-01,-1.005861143798077117e+00,7.751173914655560271e-01,-1.122426339684202794e-02,-4.080779539756208135e-02,-1.738820251792159641e-02,1.750156164169311523e+00
7.773968380214295593e-01,-1.031013232273802815e+00,7.747286460017326348e-01,-5.945065810477045964e-03,-4.794779161152309477e-04,-3.368194476127448801e-03,1.807116389274597168e+00
6.882748806346536963e-01,-5.438515453193271121e-01,7.387798832237533198e-01,1.492541655031950631e-01,-1.366012951948923984e-03,-1.951597377057948113e-02,1.284870982170104980e+00
6.711165245226247134e-01,-1.003783945946874256e+00,7.907632679289173794e-01,-1.262044731584135212e-03,-1.462867112582875995e-02,1.750895232095803569e-02,1.738266348838806152e+00
7.529168696405013073e-01,-9.591225100716742613e-01,7.836067110868942809e-01,1.273181189081297113e-02,-2.104205298774305261e-03,1.007657583707745027e-03,1.727734208106994629e+00
8.136776290695767466e-01,-8.798860836843519495e-01,8.203753940517390930e-01,1.501172858219398942e-01,4.458178327470783270e-02,-7.024739239108616917e-02,1.722764730453491211e+00
7.375658044794108914e-01,-8.124745209928772027e-01,7.304427312713593912e-01,4.219077419591973216e-02,-8.352096919804886596e-03,-5.305237583647433308e-02,1.551008701324462891e+00
6.969238317012161898e-01,-1.052384519893774462e+00,8.327576735883708281e-01,-3.538309721941679080e-03,-3.555235638000350112e-02,-9.113518483260077060e-03,1.822148323059082031e+00
7.688921894584616057e-01,-9.337912378401511670e-01,7.765101083513104019e-01,4.457209685565476087e-02,-2.911290639526067231e-02,-7.262358990299444539e-02,1.713617563247680664e+00
6.810265488280657920e-01,-8.448245138545010802e-01,7.749677835058593756e-01,4.778152116273282762e-02,2.300031011933657832e-02,-1.239620529747464256e-02,1.577746510505676270e+00
8.035183560625005494e-01,-1.058193284663570433e+00,8.084111436190135613e-01,5.861466204989741746e-02,8.858250555269286952e-02,-3.194141666783600290e-03,1.873227477073669434e+00
7.662551567101895111e-01,-1.009975696070039231e+00,7.780568923373646362e-01,-3.825840833993642866e-03,1.468869629753557712e-03,-3.416397095659313640e-03,1.782184958457946777e+00
5.320027201461532407e-01,-9.878707837987841245e-01,8.650055580248033893e-01,1.118502543723568290e-03,-2.919408785187001254e-02,-7.141649036599698880e-03,1.711648941040039062e+00
7.946521750846227139e-01,-1.029809175848477976e+00,7.759412623235013573e-01,8.588662940059096917e-03,5.029507860086150639e-03,-1.161999544994177930e-02,1.815371632575988770e+00
7.435022271311937381e-01,-1.019782863986939292e+00,7.554187965055777498e-01,1.124891455815306071e-02,1.674001255884883382e-02,-1.659146042485747097e-02,1.769851565361022949e+00
7.743787724677120288e-01,-1.033414194046098356e+00,7.887006551542331545e-01,-2.830838581634739955e-03,-1.555888075059506850e-03,-8.352624746009529658e-03,1.815062522888183594e+00
6.822916634119302604e-01,-1.021065517299892811e+00,8.115173989870718696e-01,-7.729587608301561469e-03,5.737363314307093731e-02,-2.451972530879427750e-02,1.774852275848388672e+00
7.321533902050454401e-01,-1.031614826057590140e+00,8.040796715243728743e-01,1.684743590820832193e-02,4.614113817668476746e-03,-1.077574405105849800e-02,1.801159858703613281e+00
6.090629586241410598e-01,-1.031204332164971982e+00,7.177248925264128054e-01,5.597810274828007165e-02,3.046233420649336887e-01,-4.195409682371743776e-02,1.781456112861633301e+00
9.177668809084061907e-01,-1.007949400846310795e+00,4.893786745400948712e-01,1.662705338562867194e-03,-2.143612279239984902e-02,-1.791865059297686677e-02,1.751940488815307617e+00
7.778317793024708271e-01,-1.034926526443223471e+00,7.829950814161701356e-01,-6.359815459950001696e-04,-1.939614558819561466e-03,-1.028889269190113795e-02,1.815436363220214844e+00
1.145383268748594308e+00,-2.122358390256182226e+00,9.851641717275967380e-01,-4.789290323327036192e-02,7.950127491371309363e-01,-8.156396655593675660e-02,3.478969097137451172e+00
4.823371806503148340e-01,-1.180958442996509428e+00,1.010064404423576478e+00,-3.438182135866566652e-02,-1.638579703063835699e-03,5.303178666483764417e-03,1.981528043746948242e+00
9.346634752301511417e-01,-1.017929205147490190e+00,5.073131317390181527e-01,-1.038391473283225598e-02,3.325100957412008285e-03,-3.480323170890898404e-02,1.778987288475036621e+00
9.132478208247799545e-01,-9.965554952934524424e-01,5.009024877671650611e-01,-6.927582253132094983e-03,-4.003618537142335926e-02,6.077019860470949178e-03,1.742108583450317383e+00
9.136278148414099798e-01,-9.929832220522961661e-01,4.585055687961451243e-01,2.488115852158244087e-04,-1.084708883342229424e-02,-3.635664864662898395e-04,1.724794030189514160e+00
9.582903412992710424e-01,-1.034537919789697558e+00,4.473401951552442579e-01,1.629413374321205324e-02,-9.458835857991135243e-03,-4.026625623865426329e-02,1.794471383094787598e+00
9.498756019699594599e-01,-9.873977978862875649e-01,4.124144785568349958e-01,3.165629898987033786e-03,-1.296535423334833209e-02,2.618271456595043598e-03,1.732408285140991211e+00
7.790417362908319543e-01,-1.025827288633710310e+00,7.743401899986713799e-01,9.120392423246699576e-03,2.050586859135188414e-03,7.437476480062452620e-03,1.802641630172729492e+00
7.911509360747209785e-01,-1.006327940298588519e+00,6.725462328269232737e-01,1.686918235919325840e-02,-1.279245815929210862e-02,-2.067445288260276546e-03,1.741598486900329590e+00
7.913435641144349608e-01,-1.004181055137346235e+00,7.735809847109766935e-01,-4.854953869252468142e-03,1.177858502297816565e-02,2.415308732889508755e-03,1.786850690841674805e+00
2.012694807481681947e-01,-2.026060591598416227e+00,1.713756440189697638e+00,8.532515993684598732e-02,3.963274701168458675e-02,1.669413633978093781e-01,3.275299310684204102e+00
8.981258252228114802e-01,-1.024771538203121501e+00,5.576715057026300215e-01,-6.220559734035495218e-03,2.012596265795245712e-02,1.149802148130958830e-02,1.777783036231994629e+00
6.892041517226614733e-01,-1.947583094453099184e-01,6.958306121699998625e-01,1.282629868003491991e-01,-2.635077445720039255e-02,-1.295255832000362720e-02,9.160958528518676758e-01
7.240883971760547766e-01,-7.541922654727730713e-01,7.180469778524629643e-01,5.683114613014496330e-03,-2.725446622964171339e-02,6.348941535924421467e-04,1.476057529449462891e+00
7.949181446361245351e-01,-1.021529437804857832e+00,7.090015114755728876e-01,-1.580516401857876702e-02,3.816071860100066909e-02,2.020967162424803024e-02,1.776835322380065918e+00
8.371848801740529034e-01,-1.036578052170966213e+00,6.963265406635263943e-01,-9.760980670093280173e-03,2.340718155329611291e-02,-3.735303886464874743e-03,1.808000206947326660e+00
8.589039642155242849e-01,-9.708795092784050507e-01,6.046068302102258762e-01,1.383568636375492010e-02,-1.234225656583431106e-02,-1.022285454406273580e-01,1.726223945617675781e+00
7.055499880455742279e-01,-6.246832142457700021e-01,7.217294535217758655e-01,9.618628894270291052e-02,-9.941694370999260011e-03,-1.011831301630540525e-01,1.360172986984252930e+00
7.449841927268507913e-01,-6.339410830971853317e-01,6.328086465395026394e-01,-4.991660672807969254e-03,9.401658578134993241e-03,-2.054334471557914821e-01,1.373420953750610352e+00
7.597851696331772153e-01,-1.029731044077983437e+00,7.735375007837986816e-01,-7.596285381748624395e-03,-3.671888045610086776e-03,-9.946423832456778233e-04,1.796492099761962891e+00
8.092623532339217052e-01,-1.028844375555489243e+00,7.650130377760924194e-01,7.178797751140523044e-04,4.810967056030205843e-03,7.424549863321986722e-03,1.816451430320739746e+00
7.859484273535876087e-01,-1.032672255747104195e+00,7.867770617083020834e-01,-8.573389282677454631e-04,1.115965037197058640e-02,-6.447144760955917774e-04,1.819138765335083008e+00
7.939327395640104479e-01,-9.417118856324299125e-01,6.840182519711223152e-01,3.315973277728820334e-02,8.451517778522822655e-02,-1.897844268957410083e-02,1.691028833389282227e+00
8.198705056850500439e-01,-9.899138382926190305e-01,5.589760741080480599e-01,2.177815136105637137e-02,1.160659916818822801e-01,-1.736495530884804572e-02,1.707033753395080566e+00
9.178007925211495444e-01,-1.054299010221695809e+00,5.790368771504504908e-01,-1.415079554509884006e-02,5.601362772069570783e-02,2.442053650640970547e-02,1.829662442207336426e+00
7.773180703931974467e-01,-1.017651315811206825e+00,7.979527014775118499e-01,-2.210477054353678431e-03,1.774757118175892536e-03,-3.234197144409300777e-03,1.805390477180480957e+00
7.360103499867030052e-01,-9.926584327707126398e-01,5.373350413015923754e-01,-1.237603673549777551e-02,-2.730909150104291472e-01,-2.432681604105800532e-02,1.705958604812622070e+00
7.765805232217919407e-01,-1.011132436214752239e+00,7.080430065957042940e-01,-2.015771522904727386e-02,-1.106828568943711219e-02,-9.208650517490837156e-03,1.754973053932189941e+00
7.637843362786084223e-01,-1.056969309315715977e+00,7.167047321218091849e-01,-4.122560796874159134e-02,-1.514289682825948335e-01,-5.972779820351326041e-02,1.821052670478820801e+00
5.403683384530155731e-01,-1.150870194266873758e+00,9.797608844075016421e-01,9.610114181481516776e-03,-1.993537372424104004e-01,-7.656449888215624555e-02,1.983320593833923340e+00
8.424120927500284850e-01,-1.017730649041713287e+00,5.787286361562492543e-01,-2.643581135610467009e-02,-2.031752353935292743e-01,-1.359771815980080449e-02,1.779230952262878418e+00
7.936934456158449835e-01,-1.028351541402074076e+00,7.728598617576556418e-01,8.943907191335262810e-03,-6.401744329832917066e-03,5.531327173715114287e-03,1.811843514442443848e+00
7.275723189456944073e-01,-1.008740525136301525e+00,7.532583934073252552e-01,-1.190899468838269373e-02,-2.617900449702157892e-02,-1.840022054461482731e-02,1.750296592712402344e+00
7.707025242141229970e-01,-1.031673562134947542e+00,7.755939884162912357e-01,-1.167624287468520478e-03,-2.547215791279026052e-03,-5.090196258111535357e-05,1.804833292961120605e+00
7.487617709318450387e-01,-1.020735402079965715e+00,7.532899227999156899e-01,-1.061550040457467578e-02,-2.076141175125483310e-02,-1.671807881358782291e-02,1.772462368011474609e+00
7.544881461121620836e-01,-9.537473440593943197e-01,7.673990215540726911e-01,1.040178281895796052e-02,2.924178375301083547e-03,1.874747909613493427e-03,1.714832544326782227e+00
6.803700447074436664e-01,-9.827287184511481755e-01,7.436359769359988103e-01,4.560042516252529486e-04,-1.559330795537328118e-02,-2.517322787939007666e-03,1.695838093757629395e+00
6.997271061075123200e-01,-1.120483443364518994e+00,9.305677643455326775e-01,6.055589572083366900e-02,-5.234541068383451179e-02,3.781364617295020908e-02,1.951958775520324707e+00
6.973102354739715292e-01,-9.989681384757753690e-01,7.581688540722464342e-01,6.732873117019530463e-04,-7.910660542185723315e-03,1.646906582145645642e-02,1.727802038192749023e+00
7.650707512894034945e-01,-9.878529382574208206e-01,7.938919192586073592e-01,-6.887926258609499211e-03,5.307694213999876801e-03,-1.038152329870800986e-02,1.767666101455688477e+00
6.735123407265282136e-01,-6.197858435209071537e-01,7.540049865535840556e-01,8.470304885733559441e-02,3.017442555051176242e-02,-1.423059362868971806e-02,1.344642400741577148e+00
7.064485496742882731e-01,-9.823478660148714514e-01,7.213555251466921003e-01,9.975950441754347867e-04,-6.433013533501147352e-03,4.045169189495682535e-03,1.696350932121276855e+00
7.918567947623452730e-01,-1.021779407143404539e+00,7.812737759152947881e-01,5.197302359066671359e-03,1.010620883601328138e-02,1.514177322338120836e-03,1.808476924896240234e+00
7.514551650817105077e-01,-8.425333673977979387e-01,7.673404832764736394e-01,1.999635592481910796e-03,2.342105263720582406e-02,3.008813486513886581e-02,1.603354692459106445e+00
6.630229987449964835e-01,-5.555821950830821532e-01,7.744317075683242457e-01,8.209724126931845778e-02,2.205381687970082299e-02,1.319229192119547311e-01,1.306546449661254883e+00
7.819108953734192902e-01,-1.016665870436575414e+00,7.911160404147545844e-01,2.514218778331244429e-03,1.729427230893736123e-02,6.081070824326012016e-04,1.803451299667358398e+00
6.901170833863234932e-01,-4.604549218522939191e-01,6.603067154198150046e-01,1.702386748702678920e-01,6.675176301533969347e-03,-1.324169046037216788e-02,1.173886299133300781e+00
7.275080532058898486e-01,-7.266760653012588334e-01,7.907018825990898003e-01,6.307005162256658359e-02,-4.136374016638661583e-02,7.129848603136423879e-02,1.497617125511169434e+00
7.552584556789704306e-01,-7.045458649723529421e-01,7.242567295960473661e-01,5.227710553198827020e-02,1.857823449222329587e-02,1.804896409060913476e-01,1.481113433837890625e+00
7.068855737998767097e-01,-4.640143684759307496e-01,6.594941249489223445e-01,7.079768538333218453e-02,-1.009337309925821893e-02,1.704472868443927258e-01,1.191747188568115234e+00
7.507983011129237827e-01,-9.998693917314906976e-01,7.655782693511401504e-01,1.278694083117729204e-03,-4.024452281739319265e-02,-9.343565992097572354e-03,1.759561419486999512e+00
7.626903241966325186e-01,-8.024023855285611351e-01,7.374041648978759689e-01,5.879941760869977774e-02,8.428516559728285035e-03,5.955460437963909157e-03,1.556043386459350586e+00
7.695928328707843935e-01,-7.843331413194263302e-01,6.799764216529389227e-01,7.650193355153674102e-02,-3.348001261955663166e-02,8.075416600726892380e-02,1.524448752403259277e+00
8.356241492827813921e-01,-8.836147857866030186e-01,7.043030250956739957e-01,4.878394183864184774e-02,-8.366143023080516161e-02,6.296074989462867311e-02,1.669516324996948242e+00
7.813071110879933334e-01,-1.035826453410484849e+00,7.811729431746373686e-01,-1.143795557117983387e-05,2.697175748439761996e-03,4.743265573929435208e-03,1.817091107368469238e+00
6.744296143724090031e-01,-1.029512177505919723e+00,8.058410305023216980e-01,-2.731932059586380038e-02,-2.706649010696346447e-02,-1.816290396539299579e-02,1.774832487106323242e+00
7.923723279270749043e-01,-9.819089440673287594e-01,7.602058953021815224e-01,2.157860235088352591e-03,9.141944234776547967e-03,6.790738208596338275e-03,1.758533358573913574e+00
8.298934952736530812e-01,-1.229838554080630475e+00,8.255571454955561439e-01,1.059786817713942453e-01,-6.670614979143427159e-02,3.144932599056467215e-02,2.069684505462646484e+00
7.210387039785374208e-01,-9.944611186873134612e-01,7.242275506991047163e-01,8.578082356002715483e-04,2.501789519841526085e-03,6.472761880038385316e-04,1.717102885246276855e+00
7.020808595742331626e-01,-9.119426391275489152e-01,7.324222209699868813e-01,-1.845816022865062050e-02,-2.380084269893449900e-01,9.248718908996618471e-02,1.688665747642517090e+00
7.651262693186857700e-01,-1.029743889614789021e+00,7.675506791393771344e-01,3.665758401071478626e-04,-1.328417799130935501e-04,5.923374899220063342e-03,1.796113014221191406e+00
8.728322237559837937e-01,-1.061212926826736958e+00,6.189904465060183103e-01,-4.273559137345731701e-02,-5.503350626989784999e-02,-6.231436762520158046e-02,1.827632069587707520e+00
3.564337121851711143e-01,-1.319578642088893528e+00,1.137270480600982125e+00,-1.327987122675291717e-02,-1.037152913845831859e-01,1.503018191498995890e-02,2.181946992874145508e+00
7.798565223741164010e-01,-3.866586105263795092e-01,6.904216560049515339e-01,-8.140381505327369538e-02,-2.547120295599291095e-01,-6.183103935729222789e-02,1.220824599266052246e+00
8.851515286144598926e-01,-1.034698282073684306e+00,6.582371001932711962e-01,-1.541793725080872063e-02,-1.043490283440785815e-03,-5.840512963033915594e-03,1.817275643348693848e+00
7.137919571730665380e-01,-1.020018833508079314e+00,6.791166460692493745e-01,-2.370396192411926284e-02,-2.176689283575751477e-01,-4.784623801768486673e-02,1.760077953338623047e+00
7.652172506458512213e-01,-9.714787464502396830e-01,7.921710125603067532e-01,-3.749278711423296127e-03,1.088045557839370514e-02,6.440811980343130738e-03,1.750477552413940430e+00
6.159209681857296115e-01,-2.940847251557342501e-01,6.273451815198010095e-01,-4.873769860546500049e-02,1.698346319802024676e-02,-4.820336922274598423e-02,9.239042401313781738e-01
7.538151751496577901e-01,-1.122064725159711784e+00,7.955059207072512351e-01,4.275883121085940282e-04,-1.303109637805182630e-01,-2.882817584518711576e-02,1.911100983619689941e+00
3.453323115354197670e-01,-1.063326556339053708e+00,1.095080960729005737e+00,-5.308727406288159430e-03,-2.766873653886638834e-02,6.636138811093437887e-05,1.898674368858337402e+00
7.085919687954548296e-01,-6.169707830470998466e-01,7.056834732845129743e-01,-1.184177112031896684e-01,2.932914026055161855e-02,-3.548472505862885346e-02,1.342272758483886719e+00
4.781732278403542091e-01,-1.053712729498115230e+00,9.877279010812289872e-01,-6.494576104037913522e-02,6.864741303918227289e-02,4.185611103934121918e-02,1.849039554595947266e+00
4.690669157222246421e-01,-1.236856696253243237e+00,1.058794570870178253e+00,1.056509981816156941e-02,8.713783173792928605e-02,3.038574917716461987e-02,2.071199655532836914e+00
6.749011811355059010e-01,-1.016583604549927244e+00,7.953606273757736211e-01,-1.071663171038119908e-03,-4.333987925881860326e-02,-1.822874513331512736e-02,1.756707668304443359e+00
3.444304415635932592e-01,-1.068802593018010283e+00,1.007659144338882928e+00,6.667962933438680018e-02,3.076422136549390035e-02,-2.068033015647134307e-02,1.841699600219726562e+00
4.968871057869436170e-01,-1.026697285774504032e+00,9.106907912104026392e-01,6.243785265228455478e-03,1.016009137588702420e-02,-1.115975121754659086e-02,1.767429709434509277e+00
7.361264646300629266e-01,-2.671118889389439977e-01,6.480359385918519344e-01,-1.439451990839241968e-01,-7.453348390289054812e-03,-5.585410223883709863e-02,9.987781047821044922e-01
7.057172220539562613e-01,-1.025764909037699457e+00,7.970019584665686274e-01,-1.014657725375853192e-02,-4.143994746377686889e-02,-1.929751743947681619e-02,1.780729889869689941e+00
7.860175655676613360e-01,-9.584762477512716039e-01,7.730359973991358657e-01,2.527390246959549530e-02,6.752494352997255936e-03,2.581356803705159644e-02,1.739204764366149902e+00
7.159572672165140927e-01,-7.217274524890444631e-01,7.382869853691218509e-01,-3.125255558769338138e-02,1.695878129416820632e-03,-2.398852498386702670e-02,1.450587511062622070e+00
6.672888959083067562e-01,-3.444089922294128470e-01,6.902566117710575710e-01,-1.135291996524254443e-01,2.019398404512106476e-03,-7.288190101546695998e-02,1.049719333648681641e+00
6.740240428230361847e-01,-7.664431415224891575e-01,7.605552127608984359e-01,-8.760954015127538075e-02,-1.434553268340843513e-02,-2.211617187570871432e-02,1.494051456451416016e+00
7.407800853291089949e-01,-1.118878303913369399e+00,8.090233947776159784e-01,1.355055522164481246e-02,-5.361640366838515970e-02,9.653573498435964739e-03,1.897195339202880859e+00
7.717895295662750010e-01,-9.895032769616144419e-01,7.859620290086214434e-01,3.606452173801712180e-03,1.234541856131492372e-02,4.260567040843362373e-03,1.768577337265014648e+00
7.706850718972788616e-01,-1.028829445410692101e+00,7.860538326487098715e-01,-4.362631886484955382e-03,-2.991050019732344970e-03,-6.821096731259860407e-03,1.807309746742248535e+00
8.604869741350889001e-01,-1.026635417017699226e+00,6.363962763651027643e-01,-1.173168034931306586e-02,1.033680236369524663e-02,2.620376830637366483e-02,1.786436200141906738e+00
7.992652028448481438e-01,-1.010692209626105065e+00,6.895512703070505456e-01,6.312015710994394249e-03,-4.111867123719361444e-02,7.403929461825871014e-03,1.759193420410156250e+00
6.255460119778876171e-01,-1.056828829742491038e+00,8.762666757068005019e-01,3.315209849069220005e-02,-5.918261399945182188e-02,2.438227153139782902e-02,1.825004220008850098e+00
7.400251616623899631e-01,-1.008568370165018324e+00,7.469765491580866446e-01,1.098306062184880964e-02,-2.961898558390163669e-03,1.660931147348507220e-02,1.752426505088806152e+00
7.867484949233244373e-01,-9.593712776548961596e-01,7.685632744373199765e-01,1.414030208764719895e-02,1.480655684360933366e-02,1.095380654846931680e-02,1.737564086914062500e+00
7.814507163792795419e-01,-9.983732161347372847e-01,7.777636833891192758e-01,-1.148530233840498044e-02,6.245518253637028297e-03,1.026817683201287044e-02,1.778216361999511719e+00
7.890775213996576998e-01,-1.019414803274566905e+00,7.259641006574506505e-01,-1.642649769756986816e-02,-5.442161221488231448e-03,3.844684215937342348e-03,1.778041124343872070e+00
6.656384696710326843e-01,-1.053154284895268855e+00,8.697277816665456296e-01,7.911684813269513616e-02,-1.482212822404328501e-01,-2.965916518528268972e-02,1.853109359741210938e+00
6.182314601557177269e-01,-8.807075961775909789e-01,8.072383054746297137e-01,1.747643050406799681e-02,-1.052602923596260148e-01,-2.243800252390197592e-02,1.612922072410583496e+00
7.249180125361598392e-01,-1.101913499889284775e+00,8.417182609116073966e-01,-2.333798397219764235e-03,-1.385606483895153104e-02,1.745414501188749176e-02,1.888342261314392090e+00
7.064618802446474000e-01,-9.841374383498520118e-01,7.209187069313756080e-01,1.869143424936068731e-04,-5.225086860534008081e-03,6.710259898717040614e-05,1.697898030281066895e+00
7.865461106072688668e-01,-1.035860210104770696e+00,8.558133426662887233e-01,-6.906889148331989137e-02,-1.135210356408729027e-01,-1.023965609659774866e-02,1.872293472290039062e+00
7.564474543066475043e-01,-1.000865009568714381e+00,7.184133403723351741e-01,2.458024286799530278e-02,-4.138068323155252859e-02,1.961536675999582882e-02,1.740936517715454102e+00
7.689215376593032669e-01,-1.029651464654887549e+00,7.870718010504387241e-01,-5.332426986901094186e-04,8.777341146968754143e-03,1.190433078722509010e-02,1.807898163795471191e+00
7.228878895658470416e-01,-9.998260129547520414e-01,6.557815173582905999e-01,2.595099865557362953e-02,-9.836352681096062478e-02,1.132961826807372258e-02,1.699433088302612305e+00
5.325404358521939052e-01,-9.835718569002347422e-01,8.567449251730838711e-01,1.618090084254251342e-03,-3.082768055520147127e-02,-9.503492427558761502e-03,1.702458620071411133e+00
6.908140220235334805e-01,-1.027415751924997789e+00,7.526264997599854123e-01,4.693732251607712902e-02,-7.468273064963423802e-02,4.009775108683995282e-02,1.757984042167663574e+00
7.667759762579107186e-01,-9.945363366822952411e-01,8.228068083888521178e-01,1.402481337364283945e-02,-1.383096012367601192e-02,2.982318860757437323e-02,1.791055679321289062e+00
7.925839128331947370e-01,-9.956168145228757593e-01,7.982342560025830203e-01,2.515614812323064067e-02,-3.013150941481594972e-02,8.885016728858156909e-03,1.792388558387756348e+00
6.280521336780451325e-01,-1.041357451168681170e+00,8.482888734022316912e-01,3.268885220466295760e-02,-6.887430761566404325e-02,2.296872217584076253e-02,1.795025706291198730e+00
7.432664221910323388e-01,-4.209275028666862872e-01,7.357565571416346817e-01,-1.766771270482206668e-01,8.225103054577272491e-03,-6.940100380030608807e-02,1.206216335296630859e+00
7.423650888027024664e-01,-1.016257092746033042e+00,7.629886373771760377e-01,3.037621792316672238e-04,3.412098338155426097e-03,1.092826679708447206e-02,1.769135355949401855e+00
6.900014572922636980e-01,-6.870053757549264839e-01,7.384200227959415441e-01,-1.111574690160102574e-01,1.654057535111719268e-02,4.767255395915641347e-02,1.417699456214904785e+00
6.699758131875678258e-01,-6.095274331847555516e-01,8.140319115282528273e-01,-1.024415450440195746e-01,1.355728514105834434e-02,1.796561096051819961e-02,1.369380712509155273e+00
7.109628321229455317e-01,-1.056701640643942230e+00,8.357614091585178207e-01,-3.324166392582281193e-02,7.996304766781035800e-02,7.477432728789458471e-02,1.843932032585144043e+00
8.473651199478487994e-01,-1.003951139207206023e+00,6.858557421296699319e-01,-6.811205394929540323e-03,-1.878071152049190333e-03,9.870789427575965558e-03,1.776202201843261719e+00
7.977342995974934237e-01,-1.051096529902755705e+00,7.457490165253417569e-01,1.027932897519642785e-02,1.768526519837902988e-01,3.396064124397327882e-02,1.849965810775756836e+00
7.597790152520940143e-01,-8.469978265746024304e-01,7.473727171504821465e-01,-8.327524455680400395e-02,-1.600972134799455437e-02,8.267440176065959934e-02,1.613700747489929199e+00
7.727926469335915094e-01,-1.026988257429221951e+00,7.852963032352172634e-01,-1.737283821946715434e-02,-1.271532254336434856e-03,-1.731429500365542877e-03,1.806319713592529297e+00
7.514479981778577899e-01,-2.081838940527085957e-01,8.055289876297254681e-01,-1.382505291650694967e-01,2.751700091100988677e-01,8.357388837039633755e-02,1.131885528564453125e+00
6.569116648768402733e-01,-4.952636070102646726e-01,6.063047713707367947e-01,-8.288816528855538768e-02,2.356033151686757199e-01,2.388185543410993594e-02,1.208557009696960449e+00
6.903373128260149594e-01,-3.184336831394784517e-01,6.012826471523011751e-01,-1.704482120167954973e-01,1.711010781161336203e-01,1.549794132330285512e-01,1.087545037269592285e+00
7.192795244250733688e-01,-4.626634304021183808e-01,7.494068472947448267e-01,-9.880884949766957637e-02,8.554514127570397863e-02,1.015904100655583286e-01,1.231142163276672363e+00
7.745742989928166011e-01,-6.362488834306314622e-01,7.986103851107488882e-01,-7.506018232476047158e-02,4.065430748884958367e-01,3.050403945219104518e-02,1.593874454498291016e+00
9.023864580057738838e-01,-1.008816620598701030e+00,4.236621134224809460e-01,2.640833367304418894e-02,2.331937694309426379e-01,-3.142765585597342981e-02,1.770629286766052246e+00
7.525915004472992775e-01,-1.021913652206672296e+00,7.678607262830824398e-01,1.012603484213732419e-02,-4.380687542752919293e-03,1.330169277517547800e-02,1.782440185546875000e+00
7.799849816330630681e-01,-1.038710016371457989e+00,7.812301332122361108e-01,1.379922498164899800e-04,1.750640568995837781e-03,2.878710710111173025e-03,1.819327235221862793e+00
8.993682819720258959e-01,-1.125457873619248650e+00,6.060098623864116352e-01,2.891685853540720483e-02,6.073125312693899991e-02,-3.911031100012304917e-02,1.900037527084350586e+00
6.487162008468420060e-01,-1.051896437662342088e+00,8.214960129591762916e-01,-3.086513503965922223e-02,8.477034993955281927e-02,1.645505367646037803e-02,1.800276637077331543e+00
9.260536830539994879e-01,-1.064483872610866300e+00,5.366594640074604516e-01,1.669187311953828148e-03,1.053705676325187024e-01,4.155237077730794884e-03,1.836336851119995117e+00
7.772175278648104646e-01,-1.039270995589116842e+00,7.809717716734863036e-01,-8.005328187372601299e-04,2.179499032468370547e-03,8.471544489965331234e-04,1.818373560905456543e+00
7.728435106975564128e-01,-1.027419808650601230e+00,7.816988155138973049e-01,7.178729912956986932e-03,1.059284250823990230e-03,1.088414028288651331e-02,1.804849505424499512e+00
9.076903524100343734e-01,-1.036832240041760889e+00,5.054796238074794612e-01,1.228408961974269964e-02,7.154684813043628300e-02,1.588668927155480323e-03,1.782316207885742188e+00
8.357984659600889987e-01,-9.987142544191957017e-01,5.538733973920212383e-01,9.232506858517293413e-03,1.141773056176639545e-01,-6.550881504546780809e-03,1.722561240196228027e+00
7.926127145538202079e-01,-9.907878505004041880e-01,6.307911937132115732e-01,-2.328533744427606182e-03,1.077932144941545350e-01,3.196271268773091985e-03,1.718434214591979980e+00
9.993231384578327159e-01,-1.213991746246517511e+00,5.391609145417116666e-01,3.927037682103404551e-03,3.074280621489119403e-01,3.502724356789480714e-02,2.092675685882568359e+00
7.897273854708082297e-01,-1.024629858134082472e+00,7.803177233616460651e-01,2.915597414514352337e-03,1.896317098047444090e-03,-2.528597450953499418e-03,1.809686064720153809e+00
7.203071914484344695e-01,-1.036198772641651722e+00,8.160732694580937752e-01,1.122922118279619588e-02,1.952543709723930654e-02,-1.258904387217560719e-02,1.806846857070922852e+00
7.901641671133677880e-01,-1.042626247427091979e+00,7.982553182134990433e-01,1.269007830114619179e-02,2.415775619684100775e-02,-1.484485760484949811e-02,1.837637186050415039e+00
7.707959464853582077e-01,-1.076239113942374592e+00,8.945592585654539297e-01,1.062938455095756157e-01,1.585759785897304375e-01,-7.217659791894100174e-02,1.944328546524047852e+00
7.923322802009790111e-01,-1.029172032032255268e+00,7.819753108677883757e-01,-3.763695352771521258e-03,-2.915042532750586769e-03,-4.632898499523073824e-03,1.816384434700012207e+00
8.242781699327931255e-01,-1.031762402911589938e+00,7.428851491365048298e-01,-1.402086893208678506e-02,2.034476722706789545e-02,-5.815869173224058608e-02,1.820005893707275391e+00
7.901615069186093132e-01,-1.021787949472532375e+00,7.833852847537379205e-01,-3.438939193450040940e-03,-2.709916739775749921e-03,-2.616491345072962803e-04,1.808586835861206055e+00
8.216085696776254110e-01,-5.823088246843808324e-01,8.211672692096300130e-01,-1.641106760053434588e-01,-3.556750961937920064e-01,-2.021056969634753980e-02,1.559455513954162598e+00
7.943451813540256534e-01,-1.011326358478711551e+00,7.742241854171980631e-01,3.300995293687210980e-03,-3.959837279149702391e-03,-2.341576943274309951e-03,1.795722365379333496e+00
7.692678105465765581e-01,-1.030118611545301599e+00,7.725332299623953736e-01,7.594683786485604583e-03,-3.591338330202131605e-03,-2.391129243879816437e-04,1.801080226898193359e+00
6.806894990792545785e-01,-1.003483294923926739e+00,7.857043927845728248e-01,-5.447411369596163663e-03,6.160889982336748005e-02,2.821804458058997656e-02,1.743041634559631348e+00
7.964562834757585863e-01,-1.025324353824674128e+00,7.797943636851316640e-01,-7.873749371026446216e-07,5.585312092208299418e-03,-4.998716760174062856e-03,1.813553571701049805e+00
5.281010697706184365e-01,-1.001840950369361938e+00,8.579968082195802426e-01,-3.230965695810419230e-02,1.156528018871354896e-01,1.014044101820721182e-02,1.731427788734436035e+00
7.831269389942175918e-01,-1.037837362610429359e+00,7.785761400050311698e-01,1.492200173271031804e-03,-2.307926775124008456e-03,-1.348449383075130906e-03,1.818700909614562988e+00
6.597549344470857724e-01,-1.026699461598459484e+00,7.160383707006394705e-01,1.460280013336674038e-02,1.952299158211532049e-01,4.347071256218059505e-05,1.748484969139099121e+00
7.841967248197877494e-01,-1.034502872103477911e+00,7.780645470344259573e-01,4.210853797705143772e-03,-4.145733257861681197e-03,-2.610226139485321076e-03,1.815675735473632812e+00
7.400238994974605022e-01,-9.948512747097869591e-01,6.979804413153781750e-01,9.420600716008286843e-03,9.945858368860492627e-03,3.968319682071163104e-04,1.714404463768005371e+00
7.671936574523983143e-01,-1.018837387759504054e+00,7.878162553531082857e-01,-1.272527201419992957e-03,-6.154326374934480925e-03,2.054733203670729147e-03,1.796467661857604980e+00
7.708286938922912501e-01,-1.011673018376323174e+00,7.705146321520790487e-01,-8.023116763640274554e-03,3.033421381797754991e-03,1.132260533478301329e-02,1.782514452934265137e+00
7.982520496421343648e-01,-1.012024894559324872e+00,7.769099953112352797e-01,4.508348803586225903e-03,5.326511853265714514e-04,-1.421895477386174054e-03,1.799719691276550293e+00
7.880765631500716850e-01,-1.015515474769573379e+00,7.782764202889849159e-01,-2.081489374451905524e-04,2.154507510419655276e-03,-2.787439350357169988e-03,1.798722386360168457e+00
7.781598414790669160e-01,-1.033060139018856738e+00,7.702829573481904113e-01,-3.577011263433538604e-03,4.312734836787791327e-03,1.037792329954035503e-02,1.807409882545471191e+00
7.881247159064467267e-01,-1.016891784670922672e+00,7.800300068343343218e-01,-3.159119140191046868e-03,7.166817547058185883e-03,-2.626607793755855735e-03,1.801039576530456543e+00
7.795986870796194346e-01,-1.028040384047862910e+00,7.805462623361829611e-01,2.451431398922551252e-03,-4.547274552306156126e-03,1.503325964720267447e-03,1.808137059211730957e+00
7.683333115761472598e-01,-1.028067751075418368e+00,7.820829502187861548e-01,-5.387271408556361385e-03,-1.252279086813559890e-04,1.738674724037634831e-02,1.803590774536132812e+00
7.165258687553482941e-01,-1.028398926453341522e+00,6.920335515926697711e-01,-6.251968444130497071e-02,1.773789433333138599e-01,3.998424355464245961e-02,1.764521837234497070e+00
7.257068508199608914e-01,-7.532134307936548812e-01,7.288809959039930231e-01,8.159442508646645720e-02,-1.890623629684073589e-02,-3.559826735681768245e-02,1.488877654075622559e+00
7.650645947892023013e-01,-9.498099687109721190e-01,7.772910677684151670e-01,-1.716928934233606999e-02,-1.792059871786762237e-02,2.163853881474812543e-02,1.721965074539184570e+00
7.762176080524200161e-01,-1.012899821120134103e+00,7.069363004837617703e-01,-2.416400443939179660e-02,3.578203949319475052e-02,8.916541828636017492e-03,1.757162451744079590e+00
7.711398164113776321e-01,-9.869217435882164935e-01,7.852408473716405712e-01,-3.687089653618611657e-03,1.208916034585915712e-02,-3.974018744132306290e-03,1.765303492546081543e+00
7.559811175070827449e-01,-9.631151614285025087e-01,7.868858438002787059e-01,1.088993183419080524e-02,-9.205686054589830303e-03,-5.273317216528228962e-02,1.737333536148071289e+00
7.601982376977038935e-01,-1.005491192639733855e+00,7.616767627588417744e-01,-1.601813443146703902e-02,3.650580365122551435e-02,3.443664026259736499e-02,1.768784165382385254e+00
7.468917693415816350e-01,-9.031423339047098819e-01,7.744353581590091018e-01,1.179505097404330918e-02,-1.294641148471682365e-02,-3.836665654873519515e-02,1.665579557418823242e+00
7.799330720110286830e-01,-1.021890331115615558e+00,7.896309891560275851e-01,3.464746146962711416e-03,-6.868699675524114756e-03,-3.213727818384216721e-03,1.806749582290649414e+00
7.149198256496861470e-01,-7.214558892372162635e-01,7.348206597078752456e-01,6.049044370554734415e-03,-1.278063961819407568e-02,-4.958732058684979516e-02,1.449183464050292969e+00
7.818060284289506390e-01,-8.205541009630452631e-01,7.591080935613030434e-01,8.518632413355665609e-03,6.240835005854253326e-02,-2.052325791113684406e-01,1.634003162384033203e+00
7.864827182217123402e-01,-1.028482295414500314e+00,7.816686562201597965e-01,-1.064262111632661404e-04,-2.976853723034893033e-03,-1.848752193185750764e-03,1.812572956085205078e+00
7.702723023365780630e-01,-1.032321041725580368e+00,7.856486517380290024e-01,-1.555241228596400448e-03,-8.824747408861905677e-04,-1.008113335683749785e-02,1.810417294502258301e+00
9.516758019278726000e-01,-1.028650062956881772e+00,6.320863689066147373e-01,4.722019332647970496e-02,4.856077446553107302e-02,-6.244267385752558241e-02,1.848349928855895996e+00
8.978569019662471229e-01,-1.042801152493847860e+00,6.234871395380201520e-01,-2.345461682800620978e-02,2.268403312697466617e-02,3.594157818495420653e-02,1.821000814437866211e+00
8.597175455331819149e-01,-9.840863372412730348e-01,5.346306878849541588e-01,7.334609340787513407e-03,2.554649817983475207e-02,2.816149136217833884e-03,1.705297827720642090e+00
8.974058036895318224e-01,-1.017120382035229698e+00,6.170015649090105914e-01,-3.438399578686736346e-02,2.762352485137003696e-02,2.791353519680280296e-02,1.793145060539245605e+00
6.582277302169433630e-01,-1.015997403175493474e+00,7.472505547601983045e-01,3.182588190817210727e-02,1.095837331883085797e-01,-2.672084924193780103e-02,1.732398748397827148e+00
7.922042672688328624e-01,-9.612588927509592152e-01,7.546665024026815161e-01,5.463012153470282219e-03,-1.382235226386367005e-02,-2.802303805706036956e-03,1.735196590423583984e+00
7.426917966333473897e-01,-8.243293661293318308e-01,7.514317599235067480e-01,-3.998032352556477043e-02,-3.080981782218639858e-02,2.551767756781913449e-02,1.574459910392761230e+00
8.966109586858357350e-01,-9.947894753066912621e-01,7.689402860733791645e-01,-2.289978020736766276e-03,8.760483693907199221e-02,-1.726329565635057461e-01,1.861361026763916016e+00
8.621043260662981655e-01,-6.329126451210744797e-01,7.791631816275930156e-01,1.506763621229894046e-01,2.907052124027265788e-02,-1.707414235908615019e-01,1.508661627769470215e+00
7.756819920022831605e-01,-1.016867376435687920e+00,7.961777938478284966e-01,4.741364456612242890e-04,-4.632609891712368214e-03,-2.267600380026825371e-03,1.802906990051269531e+00
7.033204395244454510e-01,-5.669811438187973840e-01,6.540587850166934558e-01,-4.217041946071786653e-05,1.052376013252377847e-02,7.078446327885217632e-03,1.246594667434692383e+00
7.798394236511937416e-01,-1.022677034776462657e+00,7.969459919799927183e-01,3.200412051272871067e-03,-1.939576600903698475e-03,-5.068329811930535715e-03,1.811163187026977539e+00
2.635715758242100915e-01,-1.095251180820925097e+00,1.122060876881804559e+00,-2.568592352344628571e-02,-1.704513546005810287e-01,7.782915704730654360e-02,1.963988423347473145e+00
8.491877824465102753e-01,-1.059652037348467246e+00,6.752392736248195027e-01,9.180436068109653486e-03,1.060191286824795250e-02,-2.517472144605747281e-02,1.828764319419860840e+00
8.276250129085575002e-01,-1.058155386718298896e+00,7.155972285371230424e-01,-2.378811271056886084e-02,5.492666498093681793e-02,3.207878785859499121e-02,1.836108326911926270e+00
8.049976429464338334e-01,-1.024403172060596834e+00,7.241023067714577044e-01,-1.899108039149960056e-02,1.403077379867058438e-02,-9.275247199782662988e-03,1.790863513946533203e+00
8.843417138800544475e-01,-1.034816732717441790e+00,6.134684699308878830e-01,-1.823802503478150205e-02,6.291875547396154345e-02,3.023808042590553705e-02,1.803416252136230469e+00
7.883071923006923498e-01,-1.025798895476053296e+00,7.860553662655291873e-01,3.645372837486201504e-03,-1.848379016388236248e-02,-2.839099407573315685e-03,1.813281536102294922e+00
9.931573894067438069e-01,-1.187544605452821367e+00,6.281128952672779819e-01,-6.106639692693341392e-02,1.700394384308937246e-01,2.448357882127605648e-02,2.047533035278320312e+00
8.076865650974645039e-01,-3.054612614040586038e-01,3.832841274088890637e-01,-7.617749904932974436e-02,7.159362967641662301e-02,7.527546254689697347e-02,9.982875585556030273e-01
8.943242872523683440e-01,-9.376807810428926526e-01,4.805132096070373615e-01,4.786527584178983802e-02,2.241520015020221496e-02,1.589094386687961782e-02,1.666888236999511719e+00
1.354275825705560043e+00,-1.516456390370368057e+00,2.678255485636467093e-01,-2.213084830370826844e-02,-1.212124938742197011e-01,-1.638384103676748249e-01,2.535477399826049805e+00
1.256725395261825140e+00,-1.219608167995595460e+00,8.269961558257263312e-02,-1.224990737766325569e-02,2.116929112266142110e-01,-1.250083946013008651e-01,2.187477588653564453e+00
7.804218441537718043e-01,-1.010280334193747409e+00,7.789526952843405239e-01,-7.294429031486457382e-03,-9.571493513291491270e-03,2.808674925781502827e-03,1.790096044540405273e+00
7.872734983665788944e-01,-9.930741665484614789e-01,7.743909490286253750e-01,6.272827538972039658e-03,-1.442872634971163401e-02,-1.046432562512675246e-03,1.774151682853698730e+00
7.716749688398109042e-01,-9.674949844453729630e-01,7.731813513594929521e-01,-5.721460134739041366e-03,1.908530152792741602e-02,-5.993905659526050853e-03,1.740296840667724609e+00
7.556949193016496702e-01,-1.021307271767999181e+00,7.482082788527889550e-01,5.322749087676374724e-03,1.155173686469328394e-02,-8.145831661574327517e-03,1.773463726043701172e+00
7.343915271565472080e-01,-8.655421358194955728e-01,7.701034557750848775e-01,-4.401349160657380883e-05,-9.730849078041623260e-03,3.496699199944763164e-02,1.619305968284606934e+00
7.687414604768743054e-01,-1.026334752676358208e+00,7.975944152970295686e-01,-6.981047685829945559e-03,-4.003630005448195056e-03,-4.463823454929918833e-03,1.809745430946350098e+00
1.537699154594409201e+00,-1.350417305657450218e+00,9.791437507919542593e-02,4.348447460236871259e-02,6.781807128112057881e-02,-1.423873262649973104e-01,2.517185688018798828e+00
7.243724448847577158e-01,-6.260486522627373152e-01,6.904110411823938254e-01,-2.984419641463463817e-03,9.780597593970116396e-03,1.215890247922456480e-01,1.350404977798461914e+00
7.834028361906453242e-01,-1.031777486193612425e+00,7.878073051727499942e-01,-5.088448996894871963e-03,1.420805677175832797e-03,-1.049122380485490065e-02,1.817500472068786621e+00
7.719813937374575552e-01,-1.009305888213847480e+00,7.993200565916478428e-01,-1.636269246571174594e-03,1.031883691274490056e-03,-1.013298104016389754e-04,1.795115947723388672e+00
7.999311616983755258e-01,-1.032740398801549997e+00,7.686846715489288329e-01,1.034704271113802421e-02,1.687534151417610737e-03,6.645626816555434344e-03,1.817376971244812012e+00
7.767364047534734972e-01,-1.017453446625718794e+00,8.005837649479449203e-01,6.061643858671144844e-04,-9.094560283523824007e-04,-1.918626572070167811e-03,1.806235671043395996e+00
7.743698390403404019e-01,-9.453466193388866401e-01,7.679248560449896122e-01,7.666290951740045365e-03,-2.183867828340216657e-02,-8.701513061457423481e-03,1.717037200927734375e+00
8.428716381184632178e-01,-1.057932154350336162e+00,7.012079049602203407e-01,-7.063389997585079426e-03,8.761751873768130680e-03,-1.135836719498386355e-02,1.834288835525512695e+00
7.636277827805550977e-01,-1.012660479576624528e+00,7.433868094117941361e-01,2.673674054027940644e-02,3.067329147909500162e-02,-2.622199495690629573e-02,1.768243670463562012e+00
9.736278877476896021e-01,-1.084204491620031297e+00,6.103765598238481971e-01,-1.590053311937979219e-02,1.144332600594205746e-01,7.043480922164469318e-03,1.912931680679321289e+00
7.781147801271856013e-01,-1.024119504468868680e+00,7.988727926555537762e-01,-3.494474333164396262e-03,5.831263780194980394e-03,-2.682606955235365340e-03,1.812746644020080566e+00
8.994888454079609241e-01,-9.620475066106080053e-01,4.290629389611025912e-01,4.587557890734288157e-02,1.768700638084083621e-01,-7.396856480253470069e-03,1.706232666969299316e+00
8.733361682145153182e-01,-1.043414424853974731e+00,7.017829611318142646e-01,2.374596479655413997e-02,3.302128285151756382e-02,1.088137722037093268e-02,1.838438630104064941e+00
8.587941708752381276e-01,-9.782481442959677365e-01,5.854304239541149313e-01,3.049906139786945011e-02,5.859878054812740766e-02,8.878272025387535377e-03,1.720639348030090332e+00
7.836893727220370920e-01,-1.037401682445449502e+00,7.938142505036432928e-01,-2.687242610309902285e-03,7.074646718305196112e-03,4.734450016927461134e-04,1.826221823692321777e+00
7.307084490841397884e-01,-1.002501845157743654e+00,8.139774552313334688e-01,1.141751686480225840e-02,-1.691416897570810762e-01,1.468534325056397583e-02,1.800594091415405273e+00
7.657334518999726614e-01,-1.030251229074099051e+00,7.953779297283537497e-01,2.203733860321310106e-03,-6.338338950149586398e-03,1.142158941189877139e-02,1.811134219169616699e+00
7.058734795528506245e-01,-7.896250709483424446e-01,7.590989257895277564e-01,-3.715938019565530846e-03,1.114857416111278768e-02,-9.940741966661684192e-03,1.523042440414428711e+00
7.684469643108968739e-01,-8.639964043828509688e-01,7.422198977481310189e-01,6.545320444590759477e-03,-1.998072164516228461e-02,-3.252250064308219273e-03,1.619908332824707031e+00
7.682111034404183192e-01,-1.034187231491794590e+00,7.955234033153032458e-01,-2.167965906600262393e-02,1.186615143014658081e-03,8.182446500833672615e-03,1.816653132438659668e+00
7.585500516292176254e-01,-8.446743061791383012e-01,7.373626348081809834e-01,-5.911211438923891226e-02,6.553711513410692691e-03,-7.471640436330787352e-03,1.596116542816162109e+00
7.894366390417626445e-01,-9.937062324523759926e-01,7.843489132670753428e-01,-1.648705041311890676e-02,1.062450070631642055e-02,-6.452974242127165749e-03,1.780963540077209473e+00
5.235271024731624756e-01,-1.008048067551130966e+00,9.113677280371426104e-01,-5.719452270375362940e-02,-6.633370066213155336e-02,-1.895430031683423278e-02,1.764721512794494629e+00
7.655290443279055834e-01,-1.065836284357607022e+00,8.431879261324891628e-01,-2.410748398251597729e-02,4.164242691526663480e-03,-1.802984336183216518e-02,1.872143745422363281e+00
6.956985616140032302e-01,-1.013572275405633327e+00,8.029860703180897730e-01,7.781022137703404520e-03,-5.430875583884618545e-03,-2.515638770727378695e-02,1.765975475311279297e+00
7.546616548513216394e-01,-1.035807468250288021e+00,7.607138191167704955e-01,1.305338051030957916e-02,4.487042934522650350e-02,-2.555674658240333214e-02,1.795873880386352539e+00
7.868929789558765098e-01,-1.024891786923962655e+00,7.973037532536311200e-01,2.582418024294254929e-03,3.467953007835357978e-03,7.985887684093681549e-03,1.817080616950988770e+00
6.901988511621732769e-01,-9.820290008635206291e-01,7.653677549656563439e-01,8.701548837766991118e-03,5.525763255728964596e-02,-2.112329571102365688e-02,1.714182615280151367e+00
6.522200564635112219e-01,-1.022473217422994907e+00,8.297448423406317275e-01,2.562106782631796281e-02,1.265107881314547419e-02,-7.376382151310614983e-03,1.770882487297058105e+00
7.524488015119619178e-01,-1.026126186129888040e+00,7.799794215669306752e-01,7.433523069246643182e-03,1.885561719516547045e-03,-1.251440373735822863e-02,1.792679071426391602e+00
7.769422170705100328e-01,-1.030468904724878065e+00,7.773551430417979802e-01,9.895053535092694988e-04,-8.861502289280918064e-05,-8.096691678022784229e-04,1.807618975639343262e+00
7.931803131965844411e-01,-1.032566397070485698e+00,7.818849974734978225e-01,2.973319066648529452e-03,-2.524531224383774579e-03,-4.148766572838943727e-03,1.820152044296264648e+00
7.858963819928235228e-01,-1.030283810258539434e+00,7.901902682050934157e-01,-2.958065210056754282e-03,2.739031275755251810e-03,2.735875648369212512e-03,1.818350553512573242e+00
7.302522419334323001e-01,-7.239184367280336874e-01,7.461634954361733296e-01,-1.507074838092511415e-01,9.348608064071674273e-02,2.679980070170250375e-02,1.494829416275024414e+00
7.817862553821526284e-01,-1.030842754462538924e+00,7.855988797419763969e-01,-2.155396302106716774e-03,3.058687991606603724e-03,1.480898789932829024e-03,1.814551711082458496e+00
7.096155215885217027e-01,-9.475234890408300581e-01,7.221346623667731501e-01,2.350340887428851305e-02,8.473388711599820489e-02,-2.992023473560305805e-02,1.671195626258850098e+00
6.767745419751718394e-01,-1.049573375769794037e+00,7.456731980812738581e-01,2.747116534473982574e-02,1.982372460996561503e-01,-1.512553684032867489e-02,1.795776009559631348e+00
7.947438476153098064e-01,-1.034274545281028690e+00,7.407569660932062927e-01,-2.112019487997637834e-02,-1.831413201389275533e-02,-2.173867235216838875e-02,1.803674578666687012e+00
8.223614656959267188e-01,-1.031726268782645839e+00,7.241831735017795202e-01,-7.596372163599054983e-03,2.355659805194241715e-02,-2.065384064747574286e-02,1.807862520217895508e+00
9.146708921998296660e-01,-1.067155456672835179e+00,5.606049238442593063e-01,-8.490727549678619675e-06,-1.515285889162913679e-01,-1.885053727293724973e-02,1.849662065505981445e+00
8.699916462228984848e-01,-9.958630176801391842e-01,5.785746149112593884e-01,3.841126547822554249e-02,1.619946100172265091e-01,8.032443061437135115e-03,1.762368321418762207e+00
7.568581680408350554e-01,-1.014401749433516242e+00,6.814732249772197381e-01,2.664618605396155623e-02,7.670573058628346597e-02,-4.334229020179675151e-02,1.742106556892395020e+00
7.356393983950784143e-01,-1.009314917350603968e+00,7.184809137686948288e-01,2.678939463716316360e-02,4.878634546704526537e-02,-1.715919906935167022e-02,1.739366531372070312e+00
8.949869880992809001e-01,-1.138404742989568064e+00,6.607455687893870611e-01,-2.393237893530192860e-03,1.071999624810386631e-01,-5.822591590680692430e-02,1.938532948493957520e+00
7.817860636494434745e-01,-1.035665887373065752e+00,7.801391419444219100e-01,-2.524523884028131819e-03,1.025314353227794713e-03,1.320231340281320101e-04,1.816635251045227051e+00
7.822674729852896469e-01,-1.036378993967011830e+00,7.859743632249750478e-01,-2.847458409402401497e-03,5.362521816589917514e-03,-1.235002596997674621e-03,1.820534348487854004e+00
7.753665514159698846e-01,-1.036225004155918672e+00,7.836810160503620004e-01,4.219436943054681241e-03,-4.648962008408360352e-03,-9.706902606682348347e-03,1.815873503684997559e+00
7.666180096059307392e-01,-9.976644537579462124e-01,6.327204068707114049e-01,1.327182361271927145e-02,7.503136091333696689e-02,-6.448002811738673228e-03,1.706437826156616211e+00
7.786528431612077528e-01,-8.931954854670646204e-01,7.463389692970572309e-01,-3.249878685067688656e-03,2.971988446877292522e-02,-6.763942936599019046e-03,1.656778812408447266e+00
7.807789692168030093e-01,-1.038547278124906992e+00,7.826712371619587438e-01,-3.508436694617887274e-04,5.187203064914943686e-04,-3.221558060606572946e-03,1.820281982421875000e+00
7.824742605141619123e-01,-1.088484825156564639e+00,7.376436651793623067e-01,3.565255764762553792e-02,1.286272989598586658e-01,-1.604047786819059324e-02,1.863556146621704102e+00
7.655041035108482994e-01,-1.010809091176831931e+00,7.856947694195799414e-01,2.765397910525467257e-03,-2.754440017866820797e-03,-5.880919386339183161e-04,1.786507129669189453e+00
7.878582423718347716e-01,-1.037271397699269571e+00,7.883676618006243420e-01,-1.465826394782267358e-03,1.325657517544975156e-02,-2.015515950994154794e-03,1.825533866882324219e+00
6.302980369150871232e-01,-1.021485137145401012e+00,8.188168983433958825e-01,2.834155148123339990e-02,9.340803107408907069e-02,-2.134431813922436222e-02,1.762177944183349609e+00
7.812775834807763609e-01,-1.038111922059357983e+00,7.793286158869536795e-01,-1.279362443140766737e-03,1.912539988833329881e-03,-2.000715328180130339e-03,1.818423509597778320e+00
7.035791379199720641e-01,-6.689443976082867227e-01,7.089570601473503819e-01,8.531537785183042344e-03,3.127006771424151177e-02,2.057899162233689863e-02,1.376827239990234375e+00
7.894692922982982086e-01,-9.797657920560403078e-01,7.785606431524247917e-01,-4.340379294710057685e-03,3.090376676392045385e-02,-7.896003613607268257e-04,1.764634609222412109e+00
7.763275471525743487e-01,-9.685543181604274743e-01,7.788637730067173859e-01,-4.472210366178413880e-03,2.603083467444005511e-02,-4.545034824675682657e-03,1.746768236160278320e+00
7.853523583397270524e-01,-1.031883301908383732e+00,7.835096668312139245e-01,2.974343269349182233e-03,-6.778466061743676496e-03,-4.149419244754394380e-03,1.816374540328979492e+00
7.834145601453801344e-01,-1.027665662490183873e+00,7.757444950935924455e-01,-7.786635968585247682e-03,8.064467932348797635e-03,-5.077473734076298761e-03,1.807383060455322266e+00
7.747004454494843539e-01,-9.250994860390664432e-01,7.551864870987944345e-01,2.069205020805913592e-02,1.701650729911850443e-02,-4.862369005159215135e-03,1.690785288810729980e+00
7.797551432527328741e-01,-1.032575816161526161e+00,7.889604698553520645e-01,-7.066969833131852771e-03,8.150004973157957619e-03,-6.220473800208733278e-03,1.817079067230224609e+00
7.832939411690507114e-01,-1.016148890024957563e+00,7.837525725086239570e-01,6.591231912134529712e-03,2.896774522221272265e-03,-2.142272382973382794e-03,1.799719214439392090e+00
7.829528376697489911e-01,-1.007850874276833064e+00,7.788491919059101765e-01,3.189997071755761027e-03,6.167522030098315268e-03,1.959364196201763501e-03,1.788799047470092773e+00
7.782723513797551451e-01,-1.037860539704245522e+00,7.755967416209699206e-01,1.046715691181629200e-05,1.473788834615540489e-03,2.181592948461851152e-04,1.814798355102539062e+00
7.583548122123022761e-01,-1.028401057417274389e+00,8.020787754234235400e-01,-2.393809938154588951e-03,7.582510862492935350e-03,3.717132128968115862e-04,1.809066772460937500e+00
7.872538436989232613e-01,-1.037997857657777523e+00,7.818280907441531591e-01,3.341329384824833111e-03,-2.291537035946109978e-03,-3.945223485991142601e-03,1.822571158409118652e+00
7.904562773422949551e-01,-1.031704987056927925e+00,7.864824667791779911e-01,3.587209425612489753e-03,2.634463859851205077e-03,-2.407435271814085433e-03,1.820198655128479004e+00
7.123671796238537635e-01,-9.790513421430731000e-01,6.869773493369771833e-01,5.797266499149908610e-03,-1.846145746967214549e-02,9.270996433981876141e-04,1.679202914237976074e+00
7.435749268371115717e-01,-1.029874373250375230e+00,7.851350886695921405e-01,1.436483141764055907e-02,6.637398257136335310e-04,-1.591645200272827007e-02,1.794974923133850098e+00
7.213089406687563931e-01,-9.829815838746799317e-01,7.104372580502231749e-01,-7.262020064344977370e-03,-2.677013106104012344e-02,-3.193583722576873608e-03,1.699568986892700195e+00
6.962854353405432128e-01,4.367111628534908752e-02,7.108401763070351098e-01,2.672100202829767041e-02,-1.877380416122198439e-03,-4.194021836732571978e-02,6.656166315078735352e-01
7.076520038906807253e-01,-9.785631906194670604e-01,6.905263615421661783e-01,8.974182276235928048e-04,-1.637401304892488474e-02,-1.703243057149148596e-03,1.677960991859436035e+00
7.836466728213377086e-01,-9.961677602468942405e-01,7.732228248662781356e-01,1.260044826142121474e-02,-4.381854367305025068e-03,-8.014419076149461793e-03,1.774830222129821777e+00
7.180318881884714122e-01,-9.872600496140812032e-01,7.182320613980694990e-01,-3.779189128613972409e-03,-6.156995260918807136e-04,-3.559653966627818883e-03,1.705416083335876465e+00
7.734298373296775164e-01,-1.004943137939634523e+00,8.022254786611686672e-01,2.548068650836224878e-03,-9.973696796846313536e-03,-6.596559268364140909e-03,1.793069243431091309e+00
6.927712613549761311e-01,-9.806161446178542906e-01,7.134353918694940067e-01,3.120409841441278186e-04,-1.626990794230007836e-02,-2.234799425825290380e-03,1.684054851531982422e+00
7.641391829629331500e-01,-9.697248687238524401e-01,7.953304115055466195e-01,1.088890037977898080e-03,-2.329495018672892229e-03,-5.038739689167234109e-03,1.749695658683776855e+00
5.781598177281632722e-01,-1.012691470162148999e+00,8.683231166033538173e-01,-5.824950310200475295e-03,-1.068396243885940192e-02,-1.811687791375617140e-03,1.754155993461608887e+00
7.032340155194066744e-01,-9.873156721784605017e-01,7.221322834835535165e-01,5.856898055077422796e-03,-1.456685224262957781e-02,6.881640565997706668e-03,1.700336813926696777e+00
7.124497099382985921e-01,-9.944570161286964138e-01,7.246003224569440571e-01,1.074866971014680397e-03,-1.990196276793211594e-02,1.004137573139144216e-02,1.713450431823730469e+00
7.334405381561616144e-01,-9.922084995872852975e-01,7.196139510148412688e-01,1.209722664330855485e-02,-1.629664350136527176e-02,9.639799864712255903e-03,1.719218015670776367e+00
7.296461703793046816e-01,-1.002497815697744210e+00,7.235361285834860379e-01,7.871343572926084442e-03,-1.721859047409572685e-02,9.625037477491819871e-03,1.729488372802734375e+00
7.374301427838941825e-01,-1.003363657847263335e+00,7.223651269980163603e-01,8.785355074335391909e-03,-1.806037870223584085e-02,9.575021999638080178e-03,1.733738780021667480e+00
7.721235581806807913e-01,-1.028219444385126913e+00,7.754913800126372880e-01,-3.674427813811415901e-03,-9.110526417702977976e-04,-2.515195252636219687e-03,1.802046418190002441e+00
7.843926577345191609e-01,-1.017764691399903665e+00,7.795142088663972180e-01,-3.290241128594832004e-03,1.152395705044772373e-02,-3.976357810212279020e-03,1.799855947494506836e+00
7.831346414853759264e-01,-1.030431800432034750e+00,7.821815013906679992e-01,3.214664322900376466e-03,2.675189724610617728e-03,-4.875577255596541190e-03,1.813124179840087891e+00
7.748921769818547522e-01,-1.029427180550344323e+00,7.860391728187542393e-01,1.691005628198934260e-03,3.001732299005585927e-03,-1.179456207662929121e-02,1.810043692588806152e+00
7.387987166914363746e-01,-1.024182976766977893e+00,7.913020456866954877e-01,-1.178496471265178674e-02,-1.534856289861731213e-03,-1.159642404136710693e-02,1.790042042732238770e+00
7.521379767454420273e-01,-9.698768575355791732e-01,7.974289513678500807e-01,-5.874386353830895677e-03,3.705194780878398597e-03,-5.084156208546887490e-03,1.745164871215820312e+00
7.704696884398011258e-01,-1.030218503272823272e+00,7.870309378668587375e-01,2.463421662713914922e-03,1.856431751973413192e-03,-8.617100714462528135e-03,1.809095144271850586e+00
7.538716798960725107e-01,-9.688964113361144825e-01,7.964480179003963212e-01,1.153726906151069861e-03,-8.551989303852739269e-03,-5.038089215427225473e-03,1.744531869888305664e+00
7.527258969534860178e-01,-1.026560018620739978e+00,7.805070309624817515e-01,-7.628083839206779501e-03,2.690706295660534424e-03,-1.075275445589020037e-02,1.793489336967468262e+00
7.685548680427823909e-01,-1.028604626942823730e+00,7.781259763767359727e-01,4.333074962469448017e-03,-1.522341194903114101e-05,-1.070187046776354539e-02,1.802075028419494629e+00
7.775552518242933031e-01,-1.030988068919627798e+00,7.859239791647510964e-01,-4.524995012694503840e-03,3.142903715031891340e-05,-5.447069828822866805e-03,1.812783718109130859e+00
7.526880658710579652e-01,-9.032293655874676919e-01,7.670847788063313022e-01,-7.616514519289245728e-03,2.407137699154014016e-02,-8.522123955816088975e-03,1.663802862167358398e+00
6.407857982148190690e-01,-4.863320227432872955e-01,6.827082000498709835e-01,4.076700164792045077e-04,-1.630932417282328004e-02,-2.309303740712904170e-03,1.149007439613342285e+00
7.827555305751315862e-01,-1.025353425029747356e+00,7.930301861008830500e-01,-4.036822688882556708e-03,1.656615093090936519e-02,-2.356533300664406631e-03,1.813513159751892090e+00
7.760428940458501401e-01,-1.035600972576674828e+00,7.796771400438937683e-01,-4.590380118522750449e-03,6.809486027375318278e-05,-5.497838626243001584e-03,1.813506126403808594e+00
7.849461265385193620e-01,-1.034078203085159853e+00,7.809191928773906444e-01,-6.288120173033122894e-04,3.522700370482141630e-03,-1.042192284588297968e-03,1.817025661468505859e+00
7.678973616283752968e-01,-9.878298344899172356e-01,7.968443530336142278e-01,-4.069805188519555125e-03,1.771169903872451754e-02,-1.163965778423898785e-03,1.770659089088439941e+00
7.683291694151239692e-01,-1.026785795573509130e+00,8.064744169750142078e-01,-7.803069712423582084e-03,-6.370358960253045058e-03,-8.200695347269671846e-06,1.814572215080261230e+00
7.794694027282047522e-01,-1.036609439268339816e+00,7.795751334340166316e-01,1.576917280957123180e-03,-2.501621310084430234e-03,-2.063766395519267213e-04,1.816138982772827148e+00
7.833561778675743881e-01,-1.036883739004111904e+00,7.827222818518495551e-01,5.217984167814097851e-03,-5.204260324730405375e-03,-7.430801258668113521e-04,1.819968223571777344e+00
7.823288267288076581e-01,-1.034290192007579545e+00,7.822374819116881817e-01,2.624912519529190580e-03,-4.101197692560522821e-03,7.261054100680169789e-04,1.816593408584594727e+00
7.830930219031979611e-01,-9.570073593970190862e-01,7.499986002598146850e-01,4.417682786946004053e-03,-1.048717728668262239e-03,8.884598116160370013e-03,1.723878026008605957e+00
7.828764813560464830e-01,-1.027405313637008266e+00,7.811381416093967633e-01,-1.468684993361476024e-03,3.570191494968526572e-03,1.748515491545035109e-03,1.809428095817565918e+00
7.063978115471870600e-01,-9.831656503056964702e-01,7.227542191938909344e-01,1.175385063314601428e-04,-2.718595409047613355e-03,-5.144438658425263405e-03,1.697830677032470703e+00
7.688642195812445124e-01,-1.026851746438182333e+00,7.643302620911830436e-01,-1.136552485266210943e-02,-2.386737874082325503e-03,4.645221416426026850e-04,1.793566226959228516e+00
7.790531813172557607e-01,-1.033484493977510521e+00,7.746474731148149662e-01,4.466222176196471202e-03,1.682509942689681525e-03,-2.876793760561764061e-03,1.810364603996276855e+00
6.802018670299401215e-01,-5.686758859508680430e-01,6.866037975503604951e-01,4.717975284840728034e-02,-2.293610293890539081e-02,6.563316538213036233e-03,1.255434989929199219e+00
6.657462693736342363e-01,-4.415581538490602198e-01,6.610413171400013610e-01,8.311368688063092147e-02,-9.945324345994047827e-03,-6.063659089690244530e-02,1.119368672370910645e+00
7.420593132530231006e-01,-8.091285546705913045e-01,7.447689138245742191e-01,2.382567271364958994e-02,-2.687566716145851908e-02,-4.784479457736694197e-02,1.555998563766479492e+00
7.235147779880506391e-01,-7.726305213839104180e-01,7.399982493083916424e-01,-4.243951485158400580e-03,-2.920636783158851377e-02,-4.488864633432591844e-02,1.507329463958740234e+00
7.515471751505499176e-01,-8.056349084926975879e-01,7.247453846967691904e-01,4.679032361424444175e-02,-1.861416343468732040e-02,-2.595189174543839628e-02,1.547070503234863281e+00
7.365244208418301186e-01,-7.470444560149064328e-01,7.228050771554588305e-01,3.302163743794871154e-02,-1.925344391945719297e-02,-3.536895348204105276e-03,1.478253126144409180e+00
7.955719692707352575e-01,-1.020482765190444008e+00,7.871041565725263034e-01,6.622518484997947166e-03,-3.558540291131175384e-03,4.305988139552130445e-03,1.811897754669189453e+00
7.963141514062157533e-01,-1.017683215600270863e+00,7.793100786361439880e-01,-3.390742238928934338e-03,-3.857491657680904313e-03,1.245129492436323690e-03,1.805578589439392090e+00
7.833229446681333474e-01,-1.035482757954034660e+00,7.833204928031906045e-01,-1.331386308845416413e-04,-6.413620210467158543e-03,-3.081180143115946814e-03,1.818846225738525391e+00
7.525428103089161214e-01,-1.022536463485981484e+00,7.578274656228700668e-01,-5.391084339279776996e-03,-6.811477708616691176e-03,-5.762977640860741935e-03,1.777819156646728516e+00
7.978670381743356854e-01,-1.012421611946249911e+00,7.777078786315713144e-01,-3.410952267663434033e-03,-1.124981359453728008e-03,-2.425071826161842060e-03,1.800309419631958008e+00
7.929420356347928189e-01,-9.939186288886061593e-01,7.702568159422218397e-01,1.520173304894738807e-02,-4.917005221777634785e-03,6.110315959854291921e-05,1.775842428207397461e+00
7.847716379233858897e-01,-1.035638845174001510e+00,7.814228693773759282e-01,-4.264124153431351929e-04,-4.392482018783343441e-03,2.659139608110509465e-03,1.818760275840759277e+00
7.708594557430770156e-01,-9.216086990923746392e-01,7.631035185728447523e-01,2.384021934811175747e-02,-1.428081664437626068e-02,-6.691763993736101965e-03,1.689329147338867188e+00
7.170616784314544079e-01,-7.706484309059560278e-01,7.535199269438526137e-01,-7.054502122480679066e-03,-1.455220887066632784e-04,-7.573467985757248791e-03,1.506376862525939941e+00
8.391581833984476102e-01,-1.023483034406852399e+00,6.788772524065275205e-01,2.217755704642514984e-03,1.216983281266771633e-02,2.608546224235852584e-02,1.788596272468566895e+00
7.796585027182876271e-01,-1.007842013325249475e+00,7.827100370535345908e-01,3.417223829184543558e-03,-1.068056035861862825e-02,-9.881806865497505185e-03,1.789215564727783203e+00
7.785084933356459791e-01,-1.004493198618561234e+00,7.875466036698974825e-01,1.195522832633779016e-02,-1.680050334253702787e-02,-9.718523455375299713e-03,1.787973880767822266e+00
7.984726023359791647e-01,-1.040768133621567726e+00,7.879145088068670866e-01,1.439706308045289943e-02,-1.594469756626614929e-02,4.975881101901030723e-03,1.834382176399230957e+00
7.198537097810133734e-01,-7.896867559594197283e-01,7.479109427809735866e-01,-5.258027171101623508e-03,1.303853354742747980e-02,-8.795720547238542603e-03,1.524033546447753906e+00
7.591793837670901546e-01,-8.634084579150794747e-01,7.433234513848316904e-01,6.369515847496677076e-03,-2.538524713791092194e-02,-3.256345755739519475e-03,1.615364313125610352e+00
7.817009239270213961e-01,-1.018280979144378984e+00,7.755007696706002207e-01,2.838924167122095291e-03,-3.208066931199548329e-03,-3.410036562606804864e-03,1.796914815902709961e+00
7.220725969950917422e-01,-7.544590378474170800e-01,7.258176608614805847e-01,5.538654412966075892e-03,-2.351599697289786378e-02,1.683853360937256124e-03,1.479002714157104492e+00
5.300304931370126704e-01,-5.821507314983995762e-01,7.425782606302452349e-01,3.033134702777954272e-01,-1.819143753458870860e-01,8.025609933984693967e-02,1.383153676986694336e+00
6.765344086005964375e-01,-1.021166812391093970e+00,8.272786053201013345e-01,-1.000219819545549241e-02,-5.987638300485468093e-03,1.496796805901621716e-02,1.778176546096801758e+00
7.593974222861050727e-01,-9.222916454561240762e-01,7.716285405029186251e-01,-2.198651601498857050e-02,2.055843693165421496e-02,7.746273195846016188e-03,1.688696146011352539e+00
6.020844206176527713e-01,-1.005651906714262411e+00,8.536028080302932031e-01,-5.345359089751271567e-03,-2.183163019183353287e-02,1.644636318165598743e-02,1.747792840003967285e+00
6.001649343142498871e-01,-1.074353690942148276e+00,9.035152429884738545e-01,6.167163142992737601e-02,-1.822007478615211840e-02,1.836102060353812446e-02,1.848625779151916504e+00
7.750657715064173114e-01,-1.012095119486503325e+00,7.872701789032555686e-01,8.679540645875449822e-03,-6.196739339836389651e-03,3.053580536795108113e-03,1.793397188186645508e+00
5.750287083780085684e-01,-1.016719080404233422e+00,8.910200285035109191e-01,-5.843556222507243283e-03,-1.000715596106489802e-02,8.850768543652012474e-03,1.771193861961364746e+00
7.841812258077498488e-01,-1.017926752076856900e+00,7.766555758729014602e-01,4.143124832392066498e-03,-5.664248831019032867e-04,-2.390080199957443988e-03,1.798376321792602539e+00
7.807804880205990727e-01,-1.025957618932951121e+00,7.922083197780993569e-01,1.065055400203445118e-03,-4.398412257736331391e-03,-3.356902657350909966e-03,1.812505364418029785e+00
8.291352412953696405e-01,-6.085941398477545672e-01,9.045214179730449722e-01,1.323152966616127912e-01,2.557581465576791446e-01,-8.145769906901104140e-02,1.565183281898498535e+00
9.741386508225992058e-01,-1.024071123292484176e+00,4.351402479549894009e-01,-1.665192438848758782e-02,-8.532432872230792664e-02,-6.820285729834374075e-03,1.796981334686279297e+00
5.293171689969189408e-01,-1.001527829660682656e+00,8.783897182977860041e-01,-2.132335960328944624e-02,-2.682449821760379133e-02,-1.254203000165235796e-02,1.733121037483215332e+00
7.238582711573391393e-01,-1.018943852713624754e+00,7.847992550965535719e-01,-2.661758559938554036e-03,-4.372481966643545701e-03,1.745286247513008066e-02,1.774337530136108398e+00
7.936462579784195892e-01,-1.019109600627064793e+00,7.823086436526467402e-01,3.323017047952892032e-04,1.971914065355361359e-02,-2.398174718833720291e-03,1.807441353797912598e+00
8.832415165843889859e-01,-1.012942990338996152e+00,5.151684336950662635e-01,1.649403940430477916e-02,4.068155535788579857e-02,-4.101236961409674558e-02,1.744673609733581543e+00
8.506228548451953975e-01,-9.760916850912023657e-01,4.393324609887149235e-01,2.866559881503442236e-02,-1.968601029865698904e-01,-4.956496869980137315e-04,1.695129275321960449e+00
7.752304210521316907e-01,-7.102718013693155585e-01,7.209208538082828577e-01,6.880110665483160637e-02,-5.603911285542660312e-03,1.384958313620384962e-01,1.483518719673156738e+00
8.149581180339862119e-01,-9.939339835290190717e-01,5.774935223669164230e-01,1.247478609292567223e-02,-9.568766961335119225e-02,1.535069414792793532e-02,1.711015582084655762e+00
6.603322675864167213e-01,-8.462368466402070410e-01,7.881495581528705774e-01,-6.452440856911582923e-02,2.081195269809415702e-02,5.782941870423891594e-03,1.578779101371765137e+00
7.216371019553394772e-01,-9.770167600931288776e-01,7.831530816363119207e-01,8.974857829857702668e-03,1.455798278186129849e-02,-1.666619203028433735e-02,1.730726480484008789e+00
7.676850408968635131e-01,-1.010795809887319763e+00,7.218533961707777058e-01,2.650282159540218868e-02,3.093872332599426761e-02,-2.763271439264301799e-02,1.758082389831542969e+00
7.844344723625826798e-01,-1.031500457455524877e+00,7.818433630648566890e-01,-9.517010060064129244e-04,-7.095242024511934018e-03,-9.868716842393571165e-03,1.814763665199279785e+00
7.821979068402407087e-01,-1.021267238036922986e+00,7.813300564038623275e-01,-4.626073714780467964e-03,-8.424714651485571901e-03,-3.417956652901510406e-03,1.803117990493774414e+00
7.727404945822637927e-01,-9.605068371898595192e-01,7.682386263311833385e-01,-8.598793183870112253e-03,-1.163484838767024979e-02,1.493641123566110448e-03,1.731184124946594238e+00
7.409704217546144722e-01,-9.614020627406514308e-01,8.245806495413017245e-01,4.697798145349404292e-02,7.785202761624143708e-03,3.928825737648353189e-02,1.748951673507690430e+00
6.966137817745109428e-01,-5.223343133977951247e-01,6.941162861580919552e-01,1.132650722365736301e-01,1.460724214786253417e-02,1.450683621543525093e-01,1.258990883827209473e+00
7.831951813730023693e-01,-9.953567178618871747e-01,7.826254883261063444e-01,1.881609825735302763e-02,-2.166190270922330272e-03,3.219057805667728707e-03,1.778578400611877441e+00
6.081361250880876756e-01,-9.819342091252574178e-01,7.907440704415782395e-01,1.476951840765292241e-03,-1.948341334711391898e-02,-8.408122685776404925e-03,1.689196944236755371e+00
7.886583002729655734e-01,-1.018136918368565569e+00,7.788428129287835455e-01,-3.351455406581627886e-03,6.880961953668263825e-03,-3.860014356148167101e-03,1.801968693733215332e+00
7.147041997352912013e-01,-7.220755805172202058e-01,7.266882472374394109e-01,1.512052605267066308e-01,-1.513227220707204224e-02,6.114737798592475432e-02,1.470439076423645020e+00
6.506312918913181864e-01,-9.919777935199700636e-01,8.870142315124665000e-01,6.284281160128893373e-02,-1.094255499081495248e-01,-1.180766461695258174e-02,1.786201000213623047e+00
7.270616696587118843e-01,-6.991607175511839189e-01,7.075303989796224435e-01,-4.359760014360312963e-02,1.758454580580923882e-02,-2.285373200502855209e-02,1.419448018074035645e+00
7.864557743314186666e-01,-1.031064373323439032e+00,7.845382946921346523e-01,4.055746221799324397e-03,7.881206947235132321e-03,-3.203503783851029997e-03,1.816635489463806152e+00
7.401301700606336409e-01,-7.256622460493281634e-01,7.005392821250191471e-01,6.938630805449187700e-02,-4.082589482238144912e-02,1.366945675222155931e-01,1.472271323204040527e+00
7.955921540146702053e-01,-9.951499219061306079e-01,6.342390949857259486e-01,-1.545495806509275191e-02,-1.683728496264933622e-02,1.314190028085935723e-03,1.716223359107971191e+00
7.651886583360978378e-01,-1.037320195510785137e+00,7.878321320534755756e-01,5.373336370483703002e-03,1.239359641322077248e-03,-7.313744384074491456e-03,1.814005970954895020e+00
7.920483673849870732e-01,-1.030870543061140232e+00,7.852104162663871012e-01,4.056811943475157820e-03,-6.189839209237971498e-03,-2.434234598353153013e-03,1.819559574127197266e+00
7.758228052631420679e-01,-6.902924007181535648e-01,7.176179965897067081e-01,1.453713639290420308e-02,3.551724297429744055e-03,7.587576555842134862e-02,1.444122552871704102e+00
6.886254999995402581e-01,-6.790641548870688382e-01,7.197856255220644872e-01,5.677182781431620168e-03,1.619661473263546425e-02,-6.452304776884326687e-02,1.388357520103454590e+00
7.931177915241244269e-01,-9.003473065619241877e-01,7.389853995461150848e-01,-4.689495389145023618e-02,1.881424715467060194e-02,-2.146737881423199656e-02,1.669767975807189941e+00
7.936684298831350182e-01,-9.688986980022251672e-01,7.630968800153392628e-01,-3.713986941592492628e-03,8.849257721010356584e-03,-3.620993658126496744e-03,1.747572183609008789e+00
7.848307514013017627e-01,-9.988151834961334075e-01,7.737619381329658985e-01,-8.334033664727973426e-03,-7.088053949287128480e-03,-2.660775796980403753e-03,1.778244256973266602e+00
6.462632371857032210e-01,-8.682369298623054954e-01,7.937182600846118818e-01,-3.900499112906754412e-02,3.008539595773364675e-02,1.294487692517128433e-02,1.595793485641479492e+00
6.682250340921586096e-01,-4.864181497580409297e-01,6.685351698114487817e-01,-4.987178674782119514e-02,2.614082233065113947e-02,-2.956606576631544067e-02,1.160040140151977539e+00
7.668094007055727968e-01,-1.034166476944711643e+00,7.866472050090316248e-01,-2.928314041297268994e-03,-9.192747715847498710e-03,-1.327761346337881336e-02,1.811199426651000977e+00
7.843085876939616119e-01,-1.030156247102862244e+00,7.544149885177101611e-01,1.074158052433044075e-02,-7.733704287296671795e-03,-6.635521947181625795e-03,1.799886941909790039e+00
7.996744149649067657e-01,-9.625760861761947229e-01,7.613204516584177739e-01,6.695460397538250882e-03,-4.282914804425635123e-03,-1.666939232147267866e-03,1.743446707725524902e+00
7.867180883454897300e-01,-9.840847324226568160e-01,7.714286611374413516e-01,-1.683078844968242255e-02,-3.832473619331573308e-03,-2.098390481839642729e-03,1.763465046882629395e+00
6.520938614405249467e-01,-4.401167621152645704e-01,6.765782858306312875e-01,-2.020578224511868169e-03,-2.010115734747958908e-03,-1.683079381262973517e-01,1.142485380172729492e+00
7.688798704795793970e-01,-1.012110124290102497e+00,6.887082541742765018e-01,-2.145253251300423269e-02,5.093106928811240441e-02,1.601963703329024533e-02,1.745136260986328125e+00
6.809335174368695842e-01,-6.282702605074603763e-01,7.325211325337153134e-01,-2.372014071234300470e-02,3.539440465281401983e-03,-8.449245979669917084e-02,1.344379782676696777e+00
6.974456544629247245e-01,-5.354827996118959321e-01,6.640855195981200110e-01,6.464421332176912421e-03,-4.031605756350010138e-03,-5.047537729017053483e-05,1.216663002967834473e+00
7.070006696396065049e-01,-4.599544719320377562e-01,6.705902054636775356e-01,1.022215259278202136e-03,-3.325617638512626782e-03,-1.768202967025480077e-01,1.189307928085327148e+00
7.901696501866535272e-01,-9.703615149972820708e-01,7.641300823777560369e-01,6.428174380239857870e-03,5.844644207255120585e-03,3.262843964129604792e-03,1.747730851173400879e+00
7.730116897994088188e-01,-6.667261878044861145e-01,6.913933605520199421e-01,-1.005182769339964255e-01,1.183726959390142552e-02,-1.481657876199314050e-01,1.434778451919555664e+00
9.665709337483217034e-01,-3.308657059846701887e-01,8.264291421099332347e-01,9.620359019149142543e-02,1.081589765647403278e-01,-8.542956440132730422e-02,1.267245650291442871e+00
7.826065607537247004e-01,-1.038653833336005139e+00,7.781194896049870025e-01,-3.137255722557307533e-04,2.145287970396826324e-03,1.694104513500690416e-03,1.819027304649353027e+00
7.455809495075130799e-01,-1.012110893030624403e+00,7.397803372184350579e-01,3.048111623131952120e-04,3.417078070143708159e-03,3.062912764902040895e-04,1.754808902740478516e+00
7.780639608385310213e-01,-1.014588217066278331e+00,7.772229154638863324e-01,2.560735330944090456e-03,-5.393870332139937343e-03,-3.113984184344049770e-03,1.792269706726074219e+00
6.528775525638461641e-01,-3.609113711557493942e-01,6.404120941804580802e-01,-4.230340082648903488e-02,-1.784959114065848632e-02,-4.069126477480581455e-02,1.013201832771301270e+00
7.192857499841295299e-01,-7.395321415568766321e-01,7.226328238900997514e-01,-2.610649921035385155e-04,2.812231769004040413e-02,-1.296747767602669799e-03,1.461308121681213379e+00
7.693138719566220418e-01,-1.025167421464797446e+00,7.674339729396161269e-01,-1.125206838858812397e-02,5.611466883031681480e-04,7.981241411474647787e-03,1.793701529502868652e+00
6.388031265635212286e-01,-5.149921541595774421e-01,6.849199571525259600e-01,-5.535023393947229899e-03,-2.946167986120155121e-03,-8.331106949853579052e-03,1.177669644355773926e+00
7.654556156322291915e-01,-1.029093991133099184e+00,7.686266858893002762e-01,2.218550795300133218e-04,2.719088171167684774e-03,6.758683518708826464e-03,1.796181559562683105e+00
7.147744192760410176e-01,-1.019301408781140283e+00,7.934261671195602661e-01,4.945291210528437661e-03,3.981689751641965744e-03,1.444404381458608971e-02,1.774919748306274414e+00
7.832242280354990704e-01,-1.015533207411502215e+00,7.806568275204182061e-01,4.476205138713596626e-03,-1.006488902472792504e-02,-4.126663874000320933e-03,1.797590613365173340e+00
7.739805923210346661e-01,-1.033990381761693111e+00,7.765841336548483520e-01,-3.086553256330045857e-03,-2.946804842538401701e-04,2.045167132836791125e-03,1.809285640716552734e+00
7.685819520825305506e-01,-9.959519350658684322e-01,8.047551824220153804e-01,-6.643610095813714048e-03,-2.570198269434187041e-02,5.057111425669484628e-02,1.785638213157653809e+00
7.299697273102786488e-01,-7.819161369387429561e-01,7.309450835884580000e-01,-1.119666892345970444e-02,-6.764986783902318668e-03,5.066206736751653616e-02,1.515086770057678223e+00
7.533427854396960166e-01,-8.101844286998006739e-01,7.269165084892128537e-01,6.825615066912592808e-03,-5.230549901176242272e-03,-1.527547543233877779e-03,1.550556778907775879e+00
9.145066899022922247e-01,-8.695936178594153576e-01,6.292021102778014852e-01,-7.051376183658859429e-04,3.241056950501161604e-02,7.200414505092782302e-02,1.665565133094787598e+00
7.126421453373662507e-01,-7.394719976946392270e-01,7.280318432678305474e-01,-1.580614811392626849e-03,2.732479308266098916e-02,-2.869749415788632797e-04,1.460639476776123047e+00
7.120974410622021855e-01,-7.879832846010983438e-01,7.578494153402516309e-01,3.818236994335100828e-03,3.509177413396781693e-03,-1.060283746484875708e-02,1.523609161376953125e+00
6.025784417093091871e-01,-2.306779996796515242e-01,6.080823203227442297e-01,9.564888194688166102e-04,3.428832525061911198e-03,1.987710536486277340e-04,8.360447883605957031e-01
7.621416960646896221e-01,-8.002987247674797633e-01,7.034150296757936127e-01,4.869538006424999933e-03,1.599917593366313034e-02,-2.487611926147150973e-03,1.534199953079223633e+00
8.755902633625343157e-01,-8.792313349286275947e-01,7.636696171561843105e-01,-5.874440396449429752e-02,3.568165583923482709e-02,1.169316001876761629e-01,1.717764735221862793e+00
6.398928162640878936e-01,-7.627518496656661151e-01,8.319275424845039568e-01,-1.132732325621183256e-01,-2.569989288841741937e-01,6.236741096255363215e-02,1.588065743446350098e+00
7.284287886825315805e-01,-8.314573308703184784e-01,7.632838842523632650e-01,-1.398734980082781860e-02,-5.440473833790632381e-03,3.134338421875769443e-02,1.578750252723693848e+00
7.628899990773817530e-01,-8.920337456490434747e-01,7.494385240722284403e-01,-6.612753166157546783e-03,2.139713816115134531e-02,-6.564965978394760905e-03,1.648734807968139648e+00
7.807267210603051621e-01,-1.028769588672576507e+00,7.756777200340964074e-01,-7.865101757698188256e-03,-1.570482425541828118e-03,3.357924138523289172e-03,1.807039856910705566e+00
7.790319426947589498e-01,-1.033307237439085258e+00,7.749354134058140664e-01,-6.147207032229745800e-03,1.221809317223592579e-04,5.037016145091628011e-03,1.810346722602844238e+00
7.824334744003713649e-01,-1.034647039770153265e+00,7.824716427145603781e-01,-2.716890574395236253e-03,-5.972163026908875252e-03,-7.124224315238108151e-04,1.817135572433471680e+00
4.810112812690074402e-01,-1.150845449939561727e+00,1.028545496758194844e+00,1.066476884818440690e-01,-2.468483392771996798e-01,-1.955111202005925183e-02,2.018493890762329102e+00
6.930592131374679887e-01,-1.010931227760108575e+00,5.923540715355537500e-01,2.386487932647573737e-02,-2.525156268629968892e-01,2.175365573619868209e-02,1.713635087013244629e+00
4.899956434856712617e-01,-9.921724542066623354e-01,8.936655561574688988e-01,-3.180454462478589372e-02,-9.865194899263787787e-02,1.614885039819840759e-02,1.729477405548095703e+00
3.870645099217303597e-01,-1.042176401690764198e+00,9.811875028941763333e-01,-1.473865470182051177e-02,-4.490576604602871530e-02,1.682828292943152823e-02,1.803443193435668945e+00
3.447463764300381373e-01,-1.251517501243950559e+00,1.207316070111508433e+00,-3.990016800253864265e-02,-1.420847171413948673e-01,1.810712534842788546e-02,2.176073789596557617e+00
7.944889726949904141e-01,-1.016129259549898745e+00,7.774535605916823577e-01,4.600638792950892983e-04,5.958791460089272844e-03,-2.769790711884562422e-03,1.802196979522705078e+00
4.648946991064247802e-01,-1.055795336748937663e+00,7.679299915728746706e-01,1.545420736113563565e-01,-5.318534315317358097e-01,1.261887421614202309e-01,1.957849860191345215e+00
7.051356756440203544e-01,-1.012809993734664404e+00,7.766256012074046478e-01,-1.579774014003815924e-02,-2.450993300178706119e-02,-2.154184881140438698e-02,1.755906343460083008e+00
7.266710136261200770e-01,-9.988208870185990573e-01,7.400703266503182443e-01,-8.493745661599524325e-04,-6.069178774151717717e-04,-9.268054459823434066e-03,1.732305765151977539e+00
4.400297970324832386e-01,-1.018465262846444785e+00,9.771707324194290889e-01,-8.800601139375034210e-04,-1.944932536622545061e-01,-5.976807064477018989e-03,1.820092797279357910e+00
2.581248725403388899e-01,-1.424084559417330365e+00,1.160760496404240394e+00,1.690506817650288540e-01,-3.473180637543417659e-01,1.062283074206692851e-01,2.375811338424682617e+00
1.355257037564795985e-01,-1.326274245473973545e+00,1.326514796743118785e+00,-1.891076441464095148e-01,-2.571165231830318532e-01,3.730739140339021237e-02,2.367718219757080078e+00
7.873623456500566942e-01,-9.343647391546900938e-01,7.516413696684056678e-01,-1.684112848514004307e-02,1.414942472214892992e-02,5.611585251110192199e-03,1.704600930213928223e+00
6.578167710907971699e-01,-4.808197334814565127e-01,6.547086302146176706e-01,-1.250828294363466320e-01,-1.588109187419884938e-01,-1.931228631821695768e-02,1.190244674682617188e+00
7.380921465731160591e-01,-3.202021893165187261e-01,8.596209480720020668e-01,-5.157737237082930110e-02,-1.746547102904247653e-02,-1.042794414463564939e-01,1.142316818237304688e+00
7.400512698271077827e-01,-9.814199608870706193e-01,6.737191446138892648e-01,-3.922423745200988993e-03,-9.830876799789828660e-03,-2.846003528872681054e-04,1.689381718635559082e+00
7.933435319702774047e-01,-1.011463662606594927e+00,7.771132854556753733e-01,-8.079008280638710123e-04,2.246919834272027763e-03,-1.511891164994201044e-03,1.796753764152526855e+00
7.222833241905810553e-01,-9.861679569611844220e-01,6.759106266572615374e-01,5.360265542374647273e-03,-5.594536940180871304e-02,2.641318817430808943e-03,1.688557863235473633e+00
7.334621756373833623e-01,-1.027438847113572029e+00,7.892700367756814162e-01,1.561566408646554091e-02,3.100111349936303905e-03,-1.391549436239744933e-02,1.789832472801208496e+00
7.576160312374629058e-01,-7.803835818435733707e-01,7.463373612287953485e-01,-4.954695193453985402e-02,1.529203796225069023e-02,-3.654917654294655149e-02,1.536325931549072266e+00
7.383141693203346678e-01,-7.661757832000455348e-01,7.201100020961637149e-01,-4.854548424183249833e-02,2.219067955589088675e-02,4.798830951251880673e-03,1.498349070549011230e+00
7.639161657467323785e-01,-6.694087169261517811e-01,7.660378421767446433e-01,-9.750175053117923762e-02,-1.113145383364667722e-02,-1.478346802993333875e-01,1.466943264007568359e+00
7.485370089054594889e-01,-8.740416130102575121e-01,7.696050138278189845e-01,-4.106760851215531666e-02,2.836899965619654046e-02,-4.441858487079618223e-02,1.637309670448303223e+00
6.638721656148718342e-01,-4.968510492119685984e-01,7.488085624652445205e-01,-1.333089897887929087e-01,1.836992749244170577e-03,-7.618902511577700654e-02,1.234430432319641113e+00
7.915407918723769143e-01,-1.028848975667247201e+00,7.837009712869198452e-01,-2.757338482961199481e-03,-5.816463000429761276e-03,-1.503087580744904813e-03,1.816518664360046387e+00
7.557478316534697038e-01,-1.024030468055230569e+00,7.938120872549223606e-01,-1.235821349326743195e-02,-6.206454047319352567e-03,-1.290352535230574740e-03,1.799273252487182617e+00
7.868259397042394188e-01,-1.039109440806183171e+00,7.825701272583092116e-01,-1.680436730371490930e-03,-2.910656874920718087e-03,2.863498915684498623e-03,1.823827266693115234e+00
7.870328258756058570e-01,-1.042811215433689043e+00,7.904644651645833520e-01,-2.181382898853663748e-03,-1.055055904767041898e-02,-1.746913809655446315e-03,1.831659793853759766e+00
6.991760996926088545e-01,-9.950176996494739523e-01,7.426246751099740973e-01,1.133223028047567783e-03,-1.224656117336212977e-02,9.912606266010400360e-03,1.716548681259155273e+00
9.016117803316053836e-01,-1.036551143393371399e+00,5.582400402582444743e-01,-3.534496976939378865e-02,7.819533049775549693e-02,5.540858646595687997e-02,1.800047516822814941e+00
7.718689639948873582e-01,-1.029978827459173907e+00,7.610914606610169608e-01,3.040402017262875799e-04,5.248504956732511113e-03,-4.324267419129500440e-04,1.796506524085998535e+00
7.786495245730841175e-01,-1.035044874860167052e+00,7.842650298591101743e-01,-7.094738815646501467e-03,9.916233255385850914e-04,8.244558681738138953e-03,1.816607117652893066e+00
1.098495890614941572e+00,-9.361196631553730940e-01,1.833029298886061087e-01,-2.904262629424391243e-02,-2.781919500815074331e-01,1.831554538964966783e-01,1.857555747032165527e+00
9.064601072651858882e-01,-1.017339998245256227e+00,3.362652424293502973e-01,9.765687078538620725e-02,-4.393986539702068317e-01,1.597289873796448045e-01,1.900934576988220215e+00
1.063295978192852154e+00,-1.210994874988510217e+00,4.019147822030968431e-01,-3.794993834058074753e-03,-1.950695616011385303e-01,7.948642217131461629e-02,2.058835744857788086e+00
7.205080301896306105e-01,-6.191264180931406180e-01,7.012740335846524564e-01,6.175172530738725143e-03,7.170194472831805353e-03,-7.545328125385521167e-02,1.336627125740051270e+00
1.186040640169559790e+00,-1.139759183745808979e+00,3.315729697414827593e-01,3.280084003805590342e-02,-1.409024079100132387e-01,6.967698793050910999e-02,2.056572914123535156e+00
7.430010813679092108e-01,-6.918495328002320921e-01,7.038873194557822011e-01,6.544309695662631210e-02,-3.952988084596312235e-02,-6.884957106016870165e-02,1.426870942115783691e+00
7.807625471922465810e-01,-1.024139787975478555e+00,7.944479464653215750e-01,-1.474919993487820106e-03,-5.707834081056449268e-04,2.415854880789692315e-03,1.811790704727172852e+00
7.879490276305252117e-01,-1.032150205276709976e+00,7.828883660923118271e-01,-1.413239192232520428e-03,4.738478777802319908e-03,1.191367988278792169e-03,1.817595481872558594e+00
7.798043705859238894e-01,-1.038031605567036220e+00,7.807101367831523753e-01,-1.407499329740716492e-03,3.987447018975585726e-03,5.526974009139923229e-05,1.818303823471069336e+00
7.755925086985033801e-01,-1.035605376621109519e+00,7.760472046919981715e-01,-2.842538889896401716e-03,7.420468611009408267e-05,-3.309064564947358008e-03,1.811441063880920410e+00
7.825104446789599155e-01,-1.033587664225794178e+00,7.822511265676408421e-01,-4.336048836428865738e-03,6.069221499019858933e-03,-8.918643382741470865e-03,1.816080093383789062e+00
7.792691714326666075e-01,-1.035747184012687061e+00,7.826265794806710474e-01,3.653322620890602033e-04,4.575003406087484181e-03,1.177532068433581082e-03,1.816715955734252930e+00
7.787658824092813514e-01,-1.037802310022104768e+00,7.803231821947134161e-01,-5.691276045320064862e-04,-1.029667799307798720e-03,9.591298822270640512e-08,1.817348480224609375e+00
6.709281255004153621e-01,-9.996952430915397869e-01,7.863102292870329801e-01,-1.465780132679763304e-03,-1.431623477472619005e-02,1.712944227550265708e-02,1.731634259223937988e+00
7.820235952741224628e-01,-1.018292376510871122e+00,7.931821582781672930e-01,-1.199388425550115209e-04,3.216616856481429665e-04,-7.062199841615584422e-03,1.805962681770324707e+00
8.839984253625188249e-01,-9.839109900663320918e-01,4.513065563434292549e-01,1.479961751612967821e-02,9.648824241749129338e-02,-3.134844169551420992e-03,1.701968073844909668e+00
7.795705575778694163e-01,-1.037482975163161125e+00,7.754867739527467885e-01,-5.369221180617448491e-04,7.392318978452725462e-04,-2.477203898177320150e-03,1.815020799636840820e+00
6.182437929450420588e-01,-2.812401765433547030e-01,6.193912688773608455e-01,-6.553671370521217286e-04,4.700693870416249205e-03,-3.790935887882802488e-03,9.001197218894958496e-01
5.737228044346808220e-01,-1.007484565993778114e+00,8.673975777732247927e-01,-7.941028689721721726e-03,8.281181172539453517e-04,-1.161991956257799399e-02,1.746831059455871582e+00
7.943227727193999943e-01,-1.026535489667816714e+00,7.793247929765139137e-01,-5.076894384014719527e-03,-1.052964650895213752e-02,3.479761124113628823e-04,1.813518881797790527e+00
7.971720844376355419e-01,-1.019677228839133587e+00,7.804287885035865457e-01,3.954393036249450981e-03,-4.862776155777294787e-03,4.584753883416199465e-04,1.808568596839904785e+00
7.781427952608512832e-01,-1.023464544007715249e+00,7.833606618079587136e-01,7.903342079509973958e-03,-2.160620093207654951e-03,-4.000773724439665377e-03,1.804291009902954102e+00
8.664877732421396583e-01,-8.884452744776076827e-01,7.654483863428751533e-01,3.937755758756601721e-02,1.016817238937167515e-02,-1.453095915766643709e-01,1.726553797721862793e+00
7.914018749824042187e-01,-1.024199116575172042e+00,7.815388356307964024e-01,-4.910539905228616248e-03,-7.120274565078980357e-03,-3.312719738836836757e-03,1.810760736465454102e+00
7.781048004563870801e-01,-1.022971618700333041e+00,7.853718783619259014e-01,7.018806182836867004e-03,-7.299891228750747052e-04,-5.267654817331519392e-03,1.804785370826721191e+00
7.968905550176709207e-01,-1.049276641489366391e+00,7.811486703806240772e-01,2.117317062395002170e-02,-4.512203672678257935e-03,1.233933520655087004e-02,1.838853359222412109e+00
6.962905421821761198e-01,-5.543939562350854722e-01,6.424761376658834067e-01,2.915362997691711916e-04,4.547144951749886727e-03,-9.285466121787894905e-03,1.224795460700988770e+00
7.578069323662517398e-01,-9.567918880928558689e-01,7.753825817266295495e-01,9.827807789775985098e-03,-2.151857037546796910e-03,8.403901543868571786e-03,1.723603367805480957e+00
7.941960409545625321e-01,-9.685580765427046490e-01,7.646663936112849669e-01,-4.643694543653121079e-03,-9.104076436819441304e-04,-2.641810142068814365e-04,1.748195648193359375e+00
7.240822160457048851e-01,-9.137007028570990341e-01,7.966658823658240296e-01,2.213890107487066217e-01,8.510340649268112456e-02,-1.095035369893362365e-01,1.735285997390747070e+00
6.856416623254261156e-01,-5.571600096393561907e-01,6.745347544957667196e-01,7.277325377558549468e-02,-1.235888653176120747e-02,-5.101610805761247480e-02,1.247008323669433594e+00
7.463554815841314527e-01,-8.110166144693725654e-01,7.459375474865632683e-01,4.023557842100041609e-02,-2.391413246591406194e-02,-3.404504927428985556e-02,1.560386657714843750e+00
7.616233083111221269e-01,-9.147614734843052542e-01,7.688048028658533983e-01,2.152175131386056123e-02,-2.648143037076997053e-02,8.189724776746412638e-03,1.681086301803588867e+00
7.095023594528564459e-01,-6.878451433207570798e-01,7.298945297365777574e-01,8.430241678766565300e-03,-1.263879855582648003e-02,-6.998748060791738779e-02,1.413109302520751953e+00
5.184395326714963392e-01,-9.849166833893979733e-01,8.608796462588126364e-01,-1.637403869397761197e-03,-2.354892887459859169e-02,-5.019198148822262562e-03,1.701147198677062988e+00
7.814334537556459903e-01,-1.024628563037862872e+00,7.653323178533093518e-01,9.284440664660787920e-03,3.152203342326898722e-04,-7.600093125985970394e-03,1.798185706138610840e+00
7.617909353389555882e-01,-8.004106729556434985e-01,7.202568966034103015e-01,-7.081055565999789733e-03,1.359210587417057463e-02,-4.495556618252623086e-03,1.542102336883544922e+00
7.750678924680163284e-01,-1.033424569949811467e+00,7.782271848294062266e-01,3.696777958860246027e-03,-5.169808945745987296e-03,-7.253081496741700489e-03,1.810151219367980957e+00
7.864078936637730610e-01,-1.035427939781050188e+00,7.827692317427713542e-01,1.553383850446636918e-03,-5.127904933869252731e-03,-2.008490090926197055e-03,1.820046186447143555e+00
7.795550547478207193e-01,-1.036830981803202656e+00,7.786291201844721677e-01,2.780099429836248477e-04,-3.904989599288925979e-03,-2.239648869617218846e-03,1.815940022468566895e+00
7.758000138413416735e-01,-1.033235340227915300e+00,7.792530128715873250e-01,4.856930224817666841e-03,2.321291193730638152e-04,-6.500753653576562402e-03,1.810818910598754883e+00
7.820678477597182710e-01,-1.026381246562955596e+00,7.763729772740979307e-01,9.441581042757943992e-03,1.711138178376282563e-03,-6.071234120761717472e-03,1.805715441703796387e+00
7.686040016916177997e-01,-1.017599517927150865e+00,7.287371756854692517e-01,1.509402917182162997e-02,1.246681599766784332e-02,1.764033566566634240e-03,1.766935586929321289e+00
7.586622876341435617e-01,-1.022030872806374280e+00,7.499847298719745092e-01,5.617635805537422519e-03,7.145695393300195014e-03,-6.290548724877415010e-03,1.776473402976989746e+00
7.806348096494091227e-01,-1.001618018845372715e+00,7.760066261318023795e-01,-3.951612576276243051e-03,1.027024093154920228e-02,-3.204893938744146978e-03,1.780053973197937012e+00
7.566571791432850080e-01,-1.021631831548115432e+00,7.507223328990695332e-01,4.613647097454790999e-03,8.490890497568905418e-03,-6.617742468023414537e-03,1.775444984436035156e+00
7.239542564608195674e-01,-1.023721013274579761e+00,8.180517945066169139e-01,1.877654934753962557e-02,2.112042263199715667e-03,1.300126738995420386e-03,1.796872615814208984e+00
7.528774898344915423e-01,-1.014767386821346040e+00,7.507843806185443558e-01,1.353172139405174612e-02,4.823544636266123911e-03,-9.857090836250168714e-03,1.766856908798217773e+00
7.786254202380311629e-01,-1.023125528655431715e+00,7.911450993843366364e-01,-5.531209341220116871e-03,-1.141886104816140259e-02,-9.936735777868636182e-03,1.808258771896362305e+00
7.911449415725240186e-01,-1.034593804170509390e+00,7.833041296009124466e-01,-4.629864262086108920e-03,-9.083381656320249631e-03,8.094181776988468562e-04,1.821917057037353516e+00
1.130277596914702531e+00,-3.298519255105477610e-01,7.672444675754847010e-01,-5.030798921018460323e-02,3.084958501674892658e-03,7.750496263572678735e-02,1.326400399208068848e+00
8.566482748873748276e-01,-9.789829923979165294e-01,5.153210610144105530e-01,3.165478121375430104e-04,2.535843929158815638e-02,2.427145217502914461e-03,1.691579937934875488e+00
7.838581962716746343e-01,-1.034237850759088362e+00,7.879515740147031710e-01,-3.942809190705814232e-03,-5.861375276437591833e-03,-1.247277956910959953e-03,1.820188641548156738e+00
7.858325399510988074e-01,-1.016159986264661974e+00,7.737708312165199054e-01,-2.217762616784612392e-03,3.982531843590839853e-04,1.982282431380556851e-03,1.795999526977539062e+00
7.967167709466657088e-01,-9.765659428184720880e-01,5.926661525427014965e-01,-6.768244605214246423e-03,2.103885189163636621e-02,8.246026425173146523e-04,1.681010484695434570e+00
7.718439177762340675e-01,-1.024642022629622007e+00,7.690245257784452670e-01,1.259504199813590158e-02,9.395488258398303422e-04,-8.248146226911352158e-03,1.795268058776855469e+00
1.326027457965457845e+00,-1.123571193281012626e+00,3.577106841310155327e-01,-1.361620469380235565e-02,-1.578194155464478776e-01,-3.051441535196006694e-01,2.218287467956542969e+00
7.624686167839876960e-01,-1.032120795179706896e+00,8.009966259058568516e-01,-6.302655636149632860e-03,1.666341101537424738e-03,9.142888342566513407e-03,1.814264535903930664e+00
7.743847471205724808e-01,-1.034138807578455221e+00,7.749768817227662421e-01,2.867402983393253346e-03,-5.491946047869016847e-04,-2.026411682797507434e-03,1.808830142021179199e+00
7.527270374352528215e-01,-1.023065513960924378e+00,7.720494663132053681e-01,7.502288778785945640e-03,-7.537327989883128073e-04,-8.847951899235284925e-03,1.785645723342895508e+00
6.220446738191338643e-01,-3.333813613989005664e-01,6.268658675754996690e-01,4.840957870076061445e-03,-4.265301456064432735e-03,5.809754370281671951e-04,9.579114317893981934e-01
9.052988764683309597e-01,-1.015895007032638686e+00,5.071426367230820187e-01,-3.178520994299515335e-03,1.029258963717931234e-02,4.857588004043282559e-02,1.758410096168518066e+00
7.714851315219171113e-01,-1.030014621609988135e+00,7.705991515914768497e-01,3.656799298238718084e-04,-3.353879214983009407e-03,-7.186271324372774452e-03,1.801109433174133301e+00
7.676590280006055922e-01,-1.030131142475957162e+00,7.684165023681134299e-01,4.900676727957381843e-05,-3.685044208512534662e-03,6.559544682715140983e-03,1.798216223716735840e+00
7.836332395286380592e-01,-1.024948505844079039e+00,7.912351793683681800e-01,3.418736782493631433e-03,-5.803089496658673380e-03,1.034826631332187458e-03,1.812433123588562012e+00
7.337367870641937628e-01,-1.008447428481521246e+00,7.425445223475591883e-01,6.391087404799888211e-03,4.364605723839523610e-03,-7.623554306524100641e-03,1.746706128120422363e+00
7.358415099977193563e-01,-9.938180367124787029e-01,7.256943776536670665e-01,1.396127312305560884e-02,1.575649175845120556e-02,-1.097219760803428562e-02,1.725098490715026855e+00
8.716877279479776641e-01,-9.877852935796634926e-01,5.145219722029460430e-01,4.067113982877134520e-03,2.877612768712236799e-02,1.207834443251949762e-03,1.709855318069458008e+00
7.128176544397049064e-01,-9.899503067207581219e-01,7.224395779436976195e-01,6.218881139310505728e-03,4.101732640540586144e-03,-7.019524589746052416e-03,1.707691311836242676e+00
8.557064849711811805e-01,-1.004380951010336087e+00,5.495759908198932786e-01,1.149462460587682977e-02,6.545632553414289234e-02,-2.219341724912088018e-02,1.731744527816772461e+00
7.819490901332452060e-01,-1.032553683530345712e+00,7.817759948647781121e-01,-2.360139803061672530e-03,-6.220338087015839582e-03,-6.538788968867997355e-04,1.814453125000000000e+00
7.384987953537195393e-01,-9.978764604227116086e-01,7.182899754395892788e-01,1.011408766329841696e-02,1.166622939161886426e-02,-8.440554810484287608e-04,1.726567268371582031e+00
7.647035467411447129e-01,-1.024995593114295556e+00,7.957776751197449538e-01,1.198364904110798754e-03,3.768348820876379489e-04,2.387641915813378934e-03,1.805442810058593750e+00
6.508003440295437869e-01,-9.936719182519819782e-01,7.646081667386062097e-01,2.122826615377049198e-02,-2.462990580038917909e-02,1.813712165806533050e-02,1.705448269844055176e+00
6.729873125099264941e-01,-6.576591993508573708e-01,7.085071519202975621e-01,-2.448227257229423828e-03,-2.001519129071828093e-02,4.207564241394247048e-03,1.349229097366333008e+00
6.951783321364730650e-01,-1.006831978054633758e+00,7.667395513921951844e-01,1.462961499923363766e-02,-4.647645024649815770e-02,1.867844549833138496e-02,1.741242885589599609e+00
6.446922466999533974e-01,-1.005012841557815895e+00,8.201781972878976479e-01,-3.193209099645225035e-03,-2.535603192512196624e-02,1.447637548623837561e-02,1.744823813438415527e+00
6.736422574615398284e-01,-1.020090343407610733e+00,8.202861587880901917e-01,1.914004053163904234e-02,-1.391834819111437138e-02,1.515689411810472800e-02,1.772280931472778320e+00
6.976486022948032995e-01,-1.000035684217944532e+00,7.996331926689991265e-01,2.029629497737410471e-02,-5.305818525083966231e-02,6.904758783299419674e-03,1.753708839416503906e+00
6.389807979790180781e-01,-3.333139366245027602e-01,6.135962945176829386e-01,4.837979945309361235e-03,-2.194132652427113750e-03,5.807397586599072868e-04,9.598988890647888184e-01
7.380572126133952970e-01,-9.822262850412064594e-01,6.836436826566545388e-01,9.254527886286788557e-04,7.652885186101091031e-02,-4.515633482473189889e-04,1.698912143707275391e+00
6.892671393764162602e-01,-5.357126425152016758e-01,6.443912427628530892e-01,-6.336034181214509481e-03,-1.673239072611495959e-02,3.613907059096346276e-03,1.203585028648376465e+00
7.022287229272549114e-01,-6.586210597795579824e-01,7.075060889523511198e-01,-2.973541602683827875e-03,-2.482504571914797772e-02,3.028219036701093082e-03,1.364193797111511230e+00
5.610623446207845255e-01,-1.031904763319887675e+00,8.673114451997566698e-01,-1.042541547143186614e-02,-1.353441468652478719e-01,-3.415595343856905192e-02,1.782682657241821289e+00
7.479975554432857221e-01,-9.837482885893910067e-01,6.743822935813864605e-01,-7.304767529843021225e-03,-7.421117405214647245e-02,-4.257053519427489961e-03,1.701063275337219238e+00
5.788079125761287358e-01,-9.885232618277738359e-01,8.436239070842166399e-01,5.195346995202031019e-03,7.925411298384779646e-02,1.314818468070293005e-02,1.720799803733825684e+00
7.601119428280600498e-01,-1.016474348024601015e+00,7.469801141525183041e-01,3.427671810087770383e-04,4.827239719761421133e-03,4.799496916967558842e-04,1.770076990127563477e+00
9.290799256232609160e-01,-1.276829764715989635e+00,5.653515074849817523e-01,1.075474861545972632e-01,-2.597617105927756409e-01,3.731879997862307119e-02,2.106487512588500977e+00
8.042710297878489234e-01,-9.924940139111768644e-01,5.573740099176478502e-01,-9.106318603876473530e-03,-6.516595547039735759e-02,-8.788735164935697688e-03,1.690836191177368164e+00
6.910162105429542567e-01,-9.916005161224348274e-01,7.458902041176413977e-01,-1.552109785419628941e-02,-6.973568942940301663e-02,-1.814945686537780545e-02,1.715471386909484863e+00
7.394305257020189481e-01,-9.818316534452515842e-01,6.720041999048832482e-01,5.421853556896236159e-02,-6.766030357998571720e-02,3.830664979773771434e-02,1.696521878242492676e+00
5.214529425797485018e-01,-8.529861223764533262e-01,7.241537404225135699e-01,1.125784204311504610e-01,3.960894903379873488e-01,6.997346914286149168e-03,1.648514270782470703e+00
7.464676583145641864e-01,-9.915816690138300471e-01,6.616895621286228435e-01,1.132828712474735072e-02,-3.805596873286801185e-02,9.036688780998810080e-03,1.698713898658752441e+00
7.914231657776791273e-01,-9.684309060894707999e-01,7.603947835668121158e-01,1.304858707443829618e-02,1.191612865440520169e-02,1.267843367164504451e-02,1.744953513145446777e+00
7.607958217009039847e-01,-9.070471643511334170e-01,7.779256005491416159e-01,2.820825403713455443e-02,1.660263716762082342e-02,4.337552395016187196e-02,1.679113388061523438e+00
7.112677389272535899e-01,-9.819042532122091993e-01,7.078059074989232480e-01,5.181379543496265633e-04,2.788223477194289555e-03,-4.344127534169910272e-04,1.691451072692871094e+00
7.966235794176292906e-01,-1.013407551430349329e+00,7.778772042589207070e-01,-2.119904431547113728e-03,1.580113061847854272e-04,1.359985508834761188e-03,1.800736427307128906e+00
7.998813962924076204e-01,-1.023955296096782153e+00,7.893671157025288210e-01,-1.063982248426656972e-02,3.119267289356385427e-03,1.564156922854680184e-03,1.818705797195434570e+00
7.937254710834528160e-01,-9.871203405734765290e-01,7.680469786679586797e-01,4.204759287559828133e-03,1.697304853970374450e-02,6.415885325123687165e-03,1.768440723419189453e+00
7.812477167527960287e-01,-1.011764154323975484e+00,7.800123151450759629e-01,-1.635947941923578119e-02,4.065641948056452834e-03,-1.341932742997269633e-02,1.792782902717590332e+00
7.941158822856206889e-01,-1.022920033498009751e+00,7.803076874953318587e-01,-3.930966254810764650e-03,-1.672879307780134875e-03,1.548929978146128570e-05,1.810186386108398438e+00
7.926504778860286038e-01,-1.026058831454057518e+00,7.826463589595262782e-01,-3.367645928093287392e-03,3.313051850155545805e-03,8.674097306914506800e-04,1.813747048377990723e+00
7.652042562532063164e-01,-1.031096357943464215e+00,7.838805656382757947e-01,-2.052477552631362147e-03,7.889465564319103185e-04,1.130210308979004083e-02,1.805821299552917480e+00
7.938682421100560216e-01,-9.826477852526612766e-01,7.656059422715211227e-01,-2.213372089989083455e-02,5.110751531766374173e-03,8.967261594283882763e-04,1.762994647026062012e+00
8.939326667457333508e-01,-1.023865770045564449e+00,5.738461439995484747e-01,-9.503316419086665912e-03,2.046997234115156827e-02,-5.127445591280630800e-03,1.779930233955383301e+00
7.792903962250081751e-01,-1.036291506047793298e+00,7.792482893507598485e-01,2.459826610730151807e-03,-1.297216564581097492e-03,-2.476329562656354871e-03,1.815572261810302734e+00
7.747042042864660250e-01,-1.035815136814884685e+00,7.799842634964188059e-01,2.970843365075141913e-03,-1.001901181316585147e-03,-2.448182849670641707e-03,1.813178181648254395e+00
7.744865246665171288e-01,-1.035311811648902403e+00,7.767528777156188502e-01,3.425475693486400991e-03,7.998125537942931979e-04,-3.296533079333652857e-03,1.810951828956604004e+00
7.538692069525679829e-01,-9.644770697147372340e-01,7.935359378863711122e-01,2.303117804529191022e-03,-1.079654179847842205e-02,5.142575637239623840e-03,1.738646984100341797e+00
7.764185662903557716e-01,-1.035342432892143671e+00,7.750943029225358938e-01,3.389844120579338111e-03,9.882949663738546577e-04,-3.331957949075941942e-03,1.811118721961975098e+00
2.931029473209160741e-01,-1.133912597291336644e+00,1.172224947349716384e+00,-2.190413145828281061e-01,-1.274631716047131685e-02,1.019031890844890043e-01,2.058962583541870117e+00
7.799645421689938019e-01,-1.035876834178950157e+00,7.751490664543758680e-01,2.431437356286104620e-03,-7.701243408441960352e-04,-2.810202562486037274e-03,1.813450336456298828e+00
7.166239684054640513e-01,-9.882707619660332510e-01,7.209824981762479323e-01,3.605466797439182709e-03,-4.009622646487512841e-03,6.147128101090944610e-03,1.707136869430541992e+00
7.045279886480458886e-01,-9.810259623098650517e-01,7.133124347635020346e-01,5.126759442312373407e-04,3.181075425422721578e-03,-1.095493969092224771e-03,1.689973592758178711e+00
7.139339313857442360e-01,-9.868871101328104967e-01,7.080851131936463094e-01,-1.035708689261764966e-02,1.276419168348428071e-02,5.213775359611171924e-03,1.698166847229003906e+00
7.256178224816505207e-01,-9.946006376173985863e-01,7.209236924477098185e-01,8.893108748298998549e-04,1.475157258876341314e-03,6.146843450469361174e-04,1.717879176139831543e+00
7.149037821784787194e-01,-9.876712809753427358e-01,7.200880208048767717e-01,-4.677747087143221787e-03,1.873488763881068619e-03,4.849276430348111767e-03,1.705216169357299805e+00
7.835406826392714574e-01,-1.039762517790815632e+00,7.822818827409967479e-01,2.089439905485708775e-03,2.067711620337139584e-03,1.247811270275484214e-03,1.822682499885559082e+00
7.248903368319090657e-01,-8.049942132003251594e-01,7.548022737947612804e-01,4.869764026724698359e-03,2.101676896060599570e-02,6.643786854091007603e-03,1.545552253723144531e+00
7.146407935816936341e-01,-9.824050886641355618e-01,6.959353847346683164e-01,-4.590965304052587598e-03,1.963054962538423459e-02,6.135893778388207742e-04,1.688132405281066895e+00
1.197678011089528205e+00,-1.242394284367070556e+00,2.298171237751964746e-01,1.008229999920740548e-02,-3.298514539809753732e-01,1.366091180900668930e-02,2.203707695007324219e+00
1.096071790327425521e+00,-1.090431575181886714e+00,3.469338099545747900e-01,-1.064953063597520386e-02,-1.061108692448243102e-01,-1.947323852476443712e-02,1.933718800544738770e+00
8.029252297715667730e-01,-9.818535316913556965e-01,5.635767509307783030e-01,2.617569741865791166e-02,-8.005807261203623515e-02,3.817133799175788378e-03,1.684299826622009277e+00
8.956932358773942449e-01,-9.991112424977219852e-01,5.282650039286838073e-01,-8.256904103379592670e-04,-6.967169995636057767e-02,-2.163576778531076800e-02,1.745007634162902832e+00
8.086453242702157374e-01,-9.957971281866642155e-01,6.121161064343834113e-01,1.535453759303938640e-02,-6.511037928656396301e-02,-1.047470228096852168e-03,1.718557357788085938e+00
7.787651093009804182e-01,-1.023395399681639839e+00,8.003683767845637398e-01,1.297170690758683593e-03,-2.759536563803520297e-03,-1.566762733676869664e-03,1.813068389892578125e+00
6.966300209766731477e-01,-2.638882509429192336e-01,6.794035222795604678e-01,-6.605986352579319362e-03,2.213946198432322973e-02,7.931625758435295603e-02,9.627150893211364746e-01
7.833425108845908369e-01,-1.029521041044341167e+00,7.702376545506584016e-01,1.230365660129502381e-02,1.629430112885181959e-03,-4.203760594385678659e-03,1.806489348411560059e+00
8.290381498517648273e-01,-9.944004563615238546e-01,5.875156731122914699e-01,2.976625634095360091e-03,-3.339839877158413961e-02,-1.675764533140811172e-03,1.716461896896362305e+00
2.507627731259486348e-01,-1.049140458962364963e+00,1.082950409727976959e+00,-9.845270478914117714e-04,-2.136655923695866127e-02,-1.092576089127134803e-02,1.861660242080688477e+00
9.136799181026409311e-01,-1.018460612363362383e+00,4.594618934194946713e-01,8.098553017878941038e-03,-9.697805807629977792e-02,1.587347778332129020e-02,1.758133888244628906e+00
1.091955816781002397e+00,-1.124852209021769411e+00,2.828143430692712235e-01,-2.533871343279504515e-02,1.644032207436938939e-02,6.847293925554889804e-02,1.947315812110900879e+00
7.905408553388953985e-01,-9.752167338763936266e-01,7.696767066426357662e-01,-9.479609643081872428e-03,-9.889291092500793190e-03,3.905855118571862575e-03,1.755591869354248047e+00
9.722022029005440436e-01,-1.012977044839521223e+00,3.875736418158484131e-01,-5.234099214624669469e-03,-1.421633540348285311e-02,-1.585702448803769571e-03,1.767153263092041016e+00
5.713639969513417682e-01,-1.016760571822832748e+00,8.587298472319629949e-01,-3.927418132461601985e-02,-2.410985727798627132e-02,-2.541576327830872423e-02,1.751970529556274414e+00
9.527454431172446281e-01,-1.008271051242805250e+00,4.293381409643576285e-01,2.664444018552370765e-03,-2.023549437066066159e-02,2.151340507119281834e-02,1.759479641914367676e+00
9.567702361193677341e-01,-1.010095871620773522e+00,4.434538023508247107e-01,-5.840059000613882084e-03,-2.631229203599372984e-02,1.505891009214378046e-02,1.767849206924438477e+00
6.269063973165851511e-01,-3.078119998519234235e-01,6.209622577230653473e-01,-4.706433879243855992e-03,-1.467880362995822548e-04,2.758864025144242785e-03,9.318084716796875000e-01
7.122845793956980032e-01,-9.822373771818289079e-01,7.086556340220422356e-01,2.216425612755383112e-04,2.651594636900709429e-03,6.696399019580354713e-04,1.692717075347900391e+00
7.161324281774710254e-01,-9.858991421619962559e-01,7.181606073749347008e-01,6.494373992076902732e-03,2.698791601470788837e-02,-3.883716379130802438e-03,1.703738331794738770e+00
7.159988734524762588e-01,-9.898822151510220380e-01,7.219587018179907112e-01,4.771571884609681138e-03,2.508117516923016356e-03,-6.362290887921938712e-03,1.708929777145385742e+00
7.192090896343542594e-01,-9.830694326259655780e-01,6.938832158905652303e-01,7.142787858925398088e-03,1.986280453435947113e-02,-2.946235337025748520e-04,1.690153479576110840e+00
7.436713352098671681e-01,-1.012744081649833872e+00,7.442634891655492968e-01,1.172793805100461398e-02,1.571502817787399919e-02,-7.861105339418455323e-03,1.757092595100402832e+00
7.798110784409612029e-01,-9.916077867927285405e-01,7.741487180964824466e-01,-9.678558943744704213e-03,-1.369664040744208305e-02,-2.342038685373827415e-03,1.768837690353393555e+00
7.583539543021844409e-01,-1.023324106885051155e+00,7.612103085597216046e-01,4.701943815928473318e-03,1.289914598067628485e-03,-6.443927023751998967e-03,1.783162832260131836e+00
7.425121670075303104e-01,-1.014803029431389669e+00,7.521341335158744368e-01,-1.602778526622164240e-04,6.637505260363874698e-03,-9.394141349868961877e-03,1.762258529663085938e+00
7.776668965577382409e-01,-1.013875166201586797e+00,7.979292184053713433e-01,-1.641378939806838449e-03,-9.581120977199508422e-05,3.193626542683566678e-03,1.801769375801086426e+00
7.317543468410878660e-01,-1.009474161688871607e+00,7.514800643695180860e-01,6.025091199464975567e-03,2.002672341156438215e-03,-8.244275224017921094e-03,1.751267433166503906e+00
8.042871271960729818e-01,-1.022456661822155555e+00,7.240180807368874483e-01,7.574735386110073576e-03,-1.398116065906095714e-03,1.527612548474526280e-02,1.788206696510314941e+00
8.503423100334159823e-01,-1.019313766374983610e+00,6.211675176019353373e-01,7.190342616311350653e-03,3.715031248373340707e-04,3.301782432033041614e-02,1.767224669456481934e+00
7.891965452105911272e-01,-1.028849403873915769e+00,7.812662531085475814e-01,-3.233370597819702763e-03,-1.656603759733866511e-03,3.912591599636954659e-03,1.814117431640625000e+00
7.446975724621421877e-01,-9.840637280213638816e-01,6.796681744129841052e-01,-3.739871345171986560e-03,1.409824271596528747e-02,1.031829694415641041e-03,1.697370171546936035e+00
7.815451294818690497e-01,-1.021054977111144124e+00,7.914435301095429365e-01,3.706754382026254853e-03,-1.161970146553824648e-02,-7.219877361480036421e-03,1.807736277580261230e+00
7.825240559359490922e-01,-1.024357835758170632e+00,7.914479873084473427e-01,-1.454586553228585022e-03,-3.296065370343921695e-03,-3.074985042393060548e-03,1.811378955841064453e+00
7.823094042558172978e-01,-1.028872789590773440e+00,7.876675786251209344e-01,-2.020824331948817450e-03,-5.523279053696240025e-03,-1.831313599341708202e-03,1.813898563385009766e+00
7.761770685326792041e-01,-1.004223993209451882e+00,7.889249775195741332e-01,-2.757002232270827288e-03,-9.797245112786836727e-03,-1.052556350509762512e-02,1.786989092826843262e+00
7.858823823365912453e-01,-1.024480890890473450e+00,7.925398853612508621e-01,1.173968691941515430e-03,-4.617739273094743913e-04,3.737490976514168135e-03,1.813714027404785156e+00
7.777255195089753936e-01,-1.017753006132998017e+00,7.965794991437432637e-01,-4.992072936836779553e-04,-6.898813544327959610e-03,-6.574308125113225397e-03,1.805055022239685059e+00
7.833089925790632790e-01,-1.019680145429625817e+00,7.806687130498132232e-01,-4.612231409061416307e-03,-1.737121901609393372e-03,7.037091736437217290e-03,1.801731944084167480e+00
7.814975576293896609e-01,-1.029948288544607404e+00,7.835605063038890705e-01,4.708953073542233164e-03,2.603378468926293571e-03,-5.389595064772872892e-04,1.812502384185791016e+00
7.831484606076282162e-01,-9.799199908145705962e-01,7.816540184526499235e-01,3.561453811804811756e-03,2.821777723392476442e-02,3.422593202606860792e-03,1.763020038604736328e+00
7.752892024012033589e-01,-9.782552582895429616e-01,7.736384124148614205e-01,5.495574293298621099e-03,1.753023777591916979e-02,5.384845126028428228e-03,1.753033280372619629e+00
7.815048499556822570e-01,-1.021062253139078058e+00,7.921367879673604229e-01,5.165167312860445906e-04,1.742971098218626651e-03,-3.483304927563319123e-03,1.807919383049011230e+00
7.698662794200283876e-01,-9.899510290915126687e-01,7.922618816449841228e-01,-1.377277204993416224e-03,-5.678867305684393366e-03,-1.687610511301631047e-02,1.771391391754150391e+00
7.578309860789227415e-01,-9.687123532576229490e-01,7.717826623314996137e-01,1.046011040367721828e-02,-5.999795101574602503e-03,7.201916041924576704e-03,1.733731985092163086e+00
7.856783936940043844e-01,-9.930321247804465568e-01,7.730084228584394035e-01,1.157734739161402938e-02,-1.002360145145788153e-02,-2.289253085119377900e-03,1.772612333297729492e+00
7.199959482115542153e-01,-8.046705997184777637e-01,7.554126605128321792e-01,4.059215156589766893e-03,1.349123601894277116e-02,4.428345088055393036e-03,1.542891860008239746e+00
8.645291447777986305e-01,-1.054000008347655948e+00,6.396939532884287072e-01,1.429150615116881254e-02,-9.323173089888202314e-02,7.576423084227919269e-02,1.828622937202453613e+00
7.763628866864087374e-01,-1.041419432360118025e+00,7.930815638810801982e-01,1.462351943295192233e-02,-5.742451253461456663e-03,9.599976468619373857e-03,1.826477408409118652e+00
7.031552703641879010e-01,-9.598696134746048658e-01,7.880257415032325685e-01,1.019029273166345562e-02,1.012123506079120466e-02,3.185035997169766153e-03,1.707233309745788574e+00
7.896708519902491119e-01,-1.022847345360321736e+00,7.857521626941939008e-01,6.964425000662010160e-03,-7.269520929129845779e-03,-1.606359421193066664e-03,1.810648083686828613e+00
8.623134683044689774e-01,-6.530816006106614502e-01,3.893881297526105012e-01,7.534426462957811987e-02,2.660270059455058234e-01,2.228580560334524341e-01,1.477074980735778809e+00
7.866103435802286326e-01,-6.247561384235756909e-01,3.961224458539602811e-01,-7.340533590986313139e-02,2.748289591540771237e-01,2.177804165829375360e-01,1.406540989875793457e+00
7.058485252170203506e-01,-4.029007006530064827e-01,6.576673234543387592e-01,-1.471753868438139407e-02,-1.747928720019305618e-02,1.637507111796035753e-01,1.122601747512817383e+00
8.983114117540713650e-01,-1.103644727708656958e+00,7.782917382161906872e-01,-6.556572834787997850e-02,1.022558399050310096e-01,6.801327603598894544e-02,1.959617733955383301e+00
6.744338230484987484e-01,-1.026955647586168530e+00,8.431150777612984593e-01,-1.272681504610365458e-02,-7.213271533489036200e-03,5.267355535814118375e-03,1.791897654533386230e+00
7.392462226696004945e-01,-8.915485622544779831e-01,7.695599365088519050e-01,-6.607619170146125827e-03,-2.954732267337247670e-02,8.195021239579276806e-03,1.647057294845581055e+00
7.831524345707605583e-01,-1.016483139140285763e+00,7.832013257785577220e-01,-6.172866857433734200e-03,-1.571778960655821969e-02,7.405803229209625971e-03,1.799943327903747559e+00
7.844316246547056171e-01,-9.662032289916235861e-01,7.708790069874547068e-01,-8.267301769936674649e-03,-2.349177709517625418e-02,7.844546918568432239e-03,1.744484305381774902e+00
4.198452414930137766e-01,-1.038755339734472649e+00,1.011579046912571611e+00,-6.933858508514026409e-02,-1.059859821823110199e-01,-4.094791578766066725e-03,1.840907573699951172e+00
7.788124762397343748e-01,-1.015480872211298458e+00,7.835103616175509433e-01,3.598816951643963626e-03,1.001053625038928960e-02,2.660845131777737817e-03,1.796747326850891113e+00
7.832688700465122444e-01,-1.019684157860544893e+00,7.845747542364838178e-01,1.135876934177819375e-03,-2.560701423295628446e-03,-2.322229658977841785e-03,1.803617358207702637e+00
7.742844405469989644e-01,-1.024125109822773716e+00,7.743634665831011787e-01,-1.427490435069561116e-03,-2.192115159630571904e-03,-4.705644028348868538e-03,1.798473238945007324e+00
7.833053035669715891e-01,-1.038406759303760696e+00,7.838748084454768561e-01,-4.864088967618818322e-03,7.303856009526652968e-03,6.833302385156035403e-04,1.822060704231262207e+00
7.707176307723707653e-01,-9.659918445329864767e-01,7.822506560827187094e-01,-8.311721172457441770e-03,-2.508228872666191239e-02,7.874103256479667717e-03,1.743158936500549316e+00
7.840263319786321405e-01,-9.742835886727058137e-01,7.668259543779765153e-01,-5.825595508517047300e-03,-1.159347870592444645e-02,5.970711219989614273e-03,1.749948024749755859e+00
6.806120893712923614e-01,-6.165130340473756743e-01,7.091982911822285462e-01,2.317248610292859945e-01,9.085744371653610429e-03,1.126321822492967334e-01,1.385577678680419922e+00
7.533364954848843498e-01,-1.015055680072384003e+00,7.428036590752681301e-01,7.891473222626432457e-03,-2.188739412154775028e-03,-3.218933059335593724e-04,1.763206481933593750e+00
7.613580534826813739e-01,-8.004600691624307318e-01,7.224819151689838570e-01,-6.210836758272467346e-03,-4.115088539941838888e-03,4.072327532389070047e-04,1.542801618576049805e+00
7.801518501480722012e-01,-1.037214942786247596e+00,7.808435947969140090e-01,-8.947137983613736439e-04,2.585800376691032611e-03,-1.122975247787838873e-03,1.817719936370849609e+00
7.831710883419397140e-01,-1.035827824097336869e+00,7.802288022175053461e-01,-2.698456727198535448e-03,5.724665930475972622e-03,-2.605234264441974069e-03,1.817568182945251465e+00
7.833143640218866999e-01,-1.035268748698373598e+00,7.804815216389400234e-01,-3.529439805728922484e-03,-6.144402018551726324e-03,1.513592358350408177e-03,1.817211627960205078e+00
7.846108916979498416e-01,-1.036617048888195391e+00,7.811910942344605369e-01,-3.061486751578984360e-03,-6.787341633341478775e-03,-2.543542249121949180e-04,1.819566249847412109e+00
7.632803671273480361e-01,-9.655504142411339696e-01,7.958716541370471909e-01,-1.730962704463036143e-04,-2.833943431032681995e-03,4.186519588319437962e-03,1.745376706123352051e+00
7.709663249214282477e-01,-9.296411587248226693e-01,7.596073880850262583e-01,1.925370871139030562e-02,-1.951005913875636030e-02,-3.132367756853796266e-03,1.695630073547363281e+00
7.491852722857437197e-01,-8.926981379461823574e-01,7.752457482111687614e-01,-5.767422149251120490e-03,-1.907925307671042015e-02,8.739923485366188349e-03,1.655496716499328613e+00
7.878293641303442119e-01,-9.976366328949952678e-01,8.002580628978106514e-01,-9.697737835227558667e-03,9.667884934041717088e-03,-3.469083207534963409e-02,1.792876839637756348e+00
7.824358692362649581e-01,-1.005488961390632152e+00,7.782158653660813385e-01,-1.884297383996943456e-03,1.226353862396876646e-02,-3.730500904549590574e-02,1.787116289138793945e+00
2.721389574270818290e-01,-1.460566556727048049e+00,1.463671111567140581e+00,3.598149689877960106e-02,-2.143237472312723713e-01,1.500113372775463139e-01,2.587622404098510742e+00
6.316440223142321120e-01,8.878209683584203926e-02,7.678696675177569819e-01,6.757858976254321748e-02,1.427368723157611610e-02,7.324485673780551471e-04,6.336573362350463867e-01
7.048093338304430855e-01,-4.437113688983618243e-02,6.842842069203938227e-01,-2.851327599628382045e-02,1.078726410982457258e-02,-4.991566181295779142e-02,7.460418939590454102e-01
4.466389148713842405e-01,-1.240957642161877317e+00,1.159501098460483437e+00,6.293812311605656573e-02,-1.685976069482265222e-02,1.006337837358710352e-02,2.138274669647216797e+00
6.994264053521932478e-01,-4.395609061144029051e-02,5.953694655531787117e-01,1.988905538642621665e-02,1.004395927903234814e-01,-3.614109225828610050e-02,7.221224904060363770e-01
7.736935046919581893e-01,-1.017473377127632306e+00,7.797128894381600839e-01,9.141187780676320734e-03,2.749275087476351492e-03,-5.170293790937197966e-03,1.794282674789428711e+00
6.830504039241535041e-01,-9.928216359792918499e-01,8.136608678573481468e-01,-2.216222206472349965e-02,8.799248615844575822e-03,-2.674340551364663005e-03,1.745342373847961426e+00
7.300882275468745242e-01,-1.021812460910358267e+00,8.057190970791185958e-01,-2.091207284994517010e-02,-4.932239876370061310e-03,-1.873106889078981346e-02,1.791594624519348145e+00
7.648374837839156948e-01,-1.028841201542972650e+00,7.977586130752928328e-01,8.474572986682214759e-03,4.235007415417831045e-03,-3.908697203415216134e-03,1.810450792312622070e+00
7.964108922211075026e-01,-1.012730109989949723e+00,7.780928667027224854e-01,-2.390205860111054709e-03,6.492177433212124177e-04,8.323120825073584582e-04,1.800057530403137207e+00
7.847272574756928298e-01,-1.028254583652867149e+00,7.802964700334217296e-01,-2.632857731594625758e-03,-5.385926049374057008e-03,4.130710402971704727e-03,1.810814380645751953e+00
6.854185914972368288e-01,-6.045390468500850822e-01,7.193991964290347152e-01,-1.753943671201071627e-02,1.845290968947894223e-03,9.161474004013531180e-02,1.317228794097900391e+00
6.678466997644498804e-01,-5.105270734414408818e-01,6.814855493190761226e-01,1.102172134770036498e-02,8.323216399305622239e-04,-7.888740844850673783e-03,1.185485363006591797e+00
6.485501026744073805e-01,-4.310442770175783589e-01,7.441451224619131111e-01,-4.019959725435502673e-02,1.529613841177118174e-03,1.382280241281374222e-01,1.157601952552795410e+00
7.674124754445791341e-01,-9.901852972388224261e-01,7.965138618382340274e-01,4.294607618643224087e-03,1.649596320063985086e-02,1.833683927870555794e-03,1.772576451301574707e+00
7.902604673976330041e-01,-1.022870490830062540e+00,7.614810719147094842e-01,3.109953588491648144e-03,6.697215644687431330e-03,-2.090080616041305444e-03,1.798963069915771484e+00
7.742159676994291306e-01,-1.024314360702172522e+00,7.510459334469627990e-01,1.300387231403671122e-02,-4.733554931233959796e-03,7.784408923368509731e-03,1.787269592285156250e+00
7.325679976756208633e-01,-5.243426223423885979e-01,7.479863373067695553e-01,-1.152956207520999810e-01,-2.025769071246236175e-02,1.304406524916867649e-01,1.300613760948181152e+00
6.742160552635299009e-01,-2.374765151605335856e-01,6.607010553736352154e-01,-7.297146937089241114e-02,3.452421155943848768e-02,1.409629394595699088e-02,9.160736203193664551e-01
7.810312475334258986e-01,-1.031374736875241727e+00,7.809956578170527131e-01,-1.408678255097765408e-03,5.283865156833429493e-03,2.635898465391315129e-03,1.812418699264526367e+00
6.488591000792358621e-01,-3.455135039142963604e-01,6.528187453674429985e-01,-1.223233777403929558e-02,8.469067946548256703e-03,9.124857555815601984e-02,1.009144663810729980e+00
8.398712109112218549e-01,-1.190137617863269881e+00,7.870543645569104685e-01,8.771568871866981809e-02,-2.216550659056724937e-01,4.394067873291813975e-02,2.047626495361328125e+00
7.483772573052979160e-01,-9.620841953582844885e-01,7.975505585273413578e-01,5.924223269784003459e-03,3.805318749939031256e-03,4.265166101615263869e-03,1.735629200935363770e+00
6.801349575755271104e-01,-1.034752056734531411e+00,7.904711134891246882e-01,4.646043166799031926e-02,-6.045677678807889754e-02,3.363377549335735961e-02,1.778499364852905273e+00
7.813428181916045601e-01,-1.097650272388095427e+00,7.392177976700923248e-01,4.378098502820004789e-02,-1.460590209126693684e-01,3.210370938144986586e-02,1.877785682678222656e+00
7.948615829681935363e-01,-9.827123586113675202e-01,6.075632098294966310e-01,5.504058361399227425e-03,-2.787015858501186438e-02,2.670989212718375815e-04,1.692434430122375488e+00
7.618269483804452902e-01,-9.626209693516339927e-01,7.905352711400421839e-01,3.081349600042076510e-03,8.204904170665059185e-03,5.397903576563347315e-03,1.739071249961853027e+00
7.360333106684737725e-01,-1.007036517635763406e+00,7.353576148578493399e-01,1.162889092722826229e-02,-1.494882496795529175e-02,8.939426722375881651e-03,1.743109583854675293e+00
7.931713570842883199e-01,-9.927833705415712862e-01,6.326209782578425811e-01,2.088629233275538649e-02,-1.763408494265978482e-02,1.327445938578251765e-02,1.712146401405334473e+00
7.655890221583464550e-01,-9.921202138275455606e-01,6.487947460022873702e-01,2.783141678288646864e-02,-2.787288964538845934e-02,1.966862685838300859e-02,1.704026818275451660e+00
7.697446137495792540e-01,-9.880829608159636956e-01,7.876333330934919275e-01,-2.690498409681684779e-03,-1.830122715858832627e-02,6.694207641911726660e-03,1.767168402671813965e+00
4.786640880635687489e-01,-9.945588918838245140e-01,9.291446749529469473e-01,1.001016767793978454e-02,2.095063671623221754e-03,7.794019005137689873e-03,1.742834806442260742e+00
9.083306624623902481e-01,-1.014195994249272204e+00,5.414639153005840200e-01,1.502760673510574081e-02,1.059405324500407690e-02,8.750643933392338036e-03,1.768228650093078613e+00
7.655372473528314625e-01,-1.006432152576793637e+00,6.974155298230273470e-01,1.615924680812621736e-02,-1.973948872406209795e-02,9.724356697837841304e-03,1.739552378654479980e+00
7.783575470158257126e-01,-1.017047857712420234e+00,7.935027685158850819e-01,-5.360152601207642670e-03,-1.193620117202475774e-02,4.966154431088474347e-03,1.803188681602478027e+00
7.786007711227574957e-01,-1.024860933133372232e+00,7.979402605007538396e-01,3.284562496816990310e-03,6.116653875743897212e-03,2.516353816589546669e-03,1.813253879547119141e+00
7.132248861686713015e-01,-9.869165397926401573e-01,7.002137438544697723e-01,-8.043430832824004922e-03,2.370115494956303789e-02,6.384396384517943175e-03,1.694264173507690430e+00
7.140814873784413486e-01,-9.959534824746423265e-01,7.366906087309076367e-01,-8.417159512576976102e-03,2.997360156850417331e-02,1.235719410444229699e-02,1.722428202629089355e+00
7.755442592697201487e-01,-1.000877692183611556e+00,6.612830988064054560e-01,-1.966575258826933070e-02,1.833991769552001383e-02,1.238947317517143445e-02,1.722899913787841797e+00
7.122273648744457120e-01,-9.895405270441051115e-01,7.238247226684322300e-01,-7.752320624363337118e-03,3.726763198725818738e-02,7.932690714732551843e-03,1.708923697471618652e+00
7.802100644501066551e-01,-1.012925198778369840e+00,7.826461491159220074e-01,4.131298161001498853e-03,1.299096650674935174e-03,-3.559966790213402003e-03,1.794380784034729004e+00
7.897112115266551324e-01,-9.922280932869126380e-01,7.718786807781133907e-01,-1.407212479266200904e-02,-2.786216421776437340e-03,-3.784450540773126766e-03,1.773276448249816895e+00
7.840919373308457008e-01,-1.029049513250169134e+00,7.780129542948387433e-01,-4.985972264073990946e-03,-3.409637260728037769e-04,2.108565141748819458e-03,1.810134053230285645e+00
7.782962704849996083e-01,-1.013032645529484244e+00,7.851017740977577208e-01,4.923370154317784075e-03,9.671953363162468908e-04,-4.319081213881118333e-03,1.794777989387512207e+00
7.710428590672746552e-01,-9.891032469164466878e-01,7.967815313299966284e-01,-3.372165538591659871e-03,-1.119308397550266947e-02,4.315098915537851978e-03,1.773286938667297363e+00
7.863595233302933529e-01,-1.034519854836017938e+00,7.803011395837314845e-01,-2.350915955650800544e-03,-2.650939677471389911e-03,3.620462440549241257e-03,1.817878961563110352e+00
7.974738619095935732e-01,-1.010026170903243425e+00,7.783924371525221542e-01,4.002044541028373752e-03,-1.134913818405725257e-05,3.625114178672038238e-04,1.798048734664916992e+00
6.498494430474452965e-01,-1.102188133578920759e+00,8.434874681477247949e-01,9.080012325632227932e-03,-2.819092536307836738e-01,-7.351297514796454940e-04,1.919651031494140625e+00
7.796197936420554697e-01,-1.019677089917856438e+00,7.955317474397303190e-01,-3.830661213815232842e-03,-1.809151115976073525e-03,3.661616857907533992e-03,1.807331442832946777e+00
7.727582982267127143e-01,-1.033342708648097741e+00,7.744945766059319059e-01,-2.479817343852140383e-03,2.071097542279442746e-03,1.696879105369316666e-03,1.806980848312377930e+00
5.145687171674866445e-01,-1.750388475187168558e+00,1.273174807567416522e+00,5.397253941776880559e-02,-4.290008966656461142e-01,1.768601013804506072e-01,2.842257499694824219e+00
4.959046488131121366e-01,-1.015261434714478606e+00,9.137506126734468159e-01,-1.765038762292134647e-02,1.240350650381540076e-02,5.649566788626699497e-03,1.758165121078491211e+00
5.923324516745983592e-01,-1.180400131341185821e+00,7.608088690425124367e-01,-3.019189559877454021e-02,-4.926359516987739995e-01,2.253031870655019392e-02,2.049867391586303711e+00
6.931974611105219397e-01,-1.038612464282254289e+00,7.733180366491507751e-01,-4.900089673504755272e-02,-9.367660146006373534e-02,-2.455154763200060805e-02,1.783164620399475098e+00
7.623915342687036523e-01,-1.220367381204048751e+00,8.040784822601814152e-01,-1.054701375633396165e-02,-3.616229475435588370e-01,5.607341986185424010e-02,2.101857662200927734e+00
5.632795591915447098e-01,-1.003877114706423157e+00,8.320312374093888907e-01,-5.103802685505180563e-03,-1.662662363052767878e-01,-1.680206337318115861e-02,1.741620540618896484e+00
9.492435622430537290e-01,-1.069144753837298012e+00,7.105662896645918991e-01,3.229283461156938484e-02,2.768744713430051560e-02,1.349106777928862216e-02,1.911828756332397461e+00
8.910867273732513416e-01,-1.068676694289762530e+00,6.710519374658255876e-01,-9.093094437096643085e-03,2.007347624237505908e-03,-2.175873267000767719e-02,1.859987139701843262e+00
8.314790191852985402e-01,-1.020607310768893106e+00,7.143471987784077992e-01,-8.574314945236522281e-03,1.106092712865828880e-02,1.174591574511618837e-02,1.796665549278259277e+00
8.408180482515066334e-01,-1.030677410109194225e+00,6.971771435998663780e-01,-1.419411746991592477e-02,1.695711437577589187e-02,-1.748255927108252269e-02,1.804629802703857422e+00
8.049720870463641376e-01,-1.017801127461570587e+00,7.170972788741679649e-01,-3.734836133851230505e-03,-2.724992490952159868e-03,1.777868795820120723e-02,1.780747175216674805e+00
8.473353865472184054e-01,-1.005874240364186933e+00,6.164778404149122704e-01,1.566255308949119490e-02,-1.411005253707244694e-02,2.755671356541876393e-02,1.750275731086730957e+00
8.549643577086376567e-01,-1.031203494077552740e+00,6.223502153220279443e-01,-6.820040211593781862e-03,7.264887125910470672e-03,3.805727440770428904e-02,1.782591462135314941e+00
8.709488276944019614e-01,-1.023118090805454905e+00,6.264001925547050265e-01,6.078056633645720179e-03,-1.383298489594026598e-02,3.174502196074431570e-02,1.785444021224975586e+00
7.736699204997088408e-01,-1.019738238370206496e+00,7.244765662330429068e-01,1.043774590410304244e-02,-3.159665280095973194e-02,6.810727633188696714e-03,1.770302295684814453e+00
1.005842571206229774e+00,-1.122760932960545910e+00,5.956437905426372748e-01,1.788462534381919655e-02,-1.031973739875246543e-01,-8.857976710124050579e-02,1.970409393310546875e+00
7.466145027950306101e-01,-1.021132004899159451e+00,7.655720568299412276e-01,8.341657466618085034e-03,-4.814131851713501775e-02,2.148145973455984833e-02,1.779703617095947266e+00
8.702080239124081462e-01,-1.016454693760154848e+00,5.512507232254639788e-01,1.252974628561741820e-02,-6.579642249810983834e-02,8.837105748603350797e-03,1.753042459487915039e+00
8.724306450696365234e-01,-1.012048070510405351e+00,5.205111423535156989e-01,1.122318899807041997e-02,-3.345221372794393577e-02,4.199911787059924795e-02,1.738087892532348633e+00
8.604223232490111339e-01,-1.020831952271293197e+00,6.179030305780034427e-01,5.710711541575833917e-03,-7.033669952939767666e-04,3.208077113783200374e-02,1.773380875587463379e+00
9.245713849035486209e-01,-1.111406417724915219e+00,6.023239337991088682e-01,4.017289332238015848e-02,-1.576992651472891929e-02,2.562574194541843847e-02,1.897503137588500977e+00
7.841711471601277017e-01,-1.018044660578225624e+00,7.257452730358400217e-01,1.626162952645230156e-02,-2.837225402997774117e-03,-2.284713787385678641e-03,1.773959517478942871e+00
8.964124482871036470e-01,-1.011377422782168800e+00,5.148651145985839728e-01,2.229303353375065855e-02,-2.786226759035177747e-02,4.213584007838514639e-02,1.751135230064392090e+00
7.790055064860486045e-01,-1.036177725497953395e+00,7.823558924742082255e-01,2.556324461449405172e-03,-2.018639698947350704e-04,3.085332847245118122e-04,1.816866278648376465e+00
7.827507360020132809e-01,-1.027325000122870202e+00,7.811131856067982104e-01,-3.430099257668212977e-03,-9.750817287789855480e-04,-4.894857021026089577e-03,1.809287905693054199e+00
7.723900213493810618e-01,-1.010753969027607280e+00,7.980601696425431157e-01,6.749525410405282817e-04,1.526561407165751699e-03,2.965472126987279446e-03,1.796126365661621094e+00
8.044830888488541110e-01,-1.024309771914770240e+00,7.318627854298059843e-01,-1.679312094409346479e-02,-1.034177257840122790e-03,-1.438339689393967761e-03,1.793824076652526855e+00
7.797113875502388325e-01,-1.024181819980853447e+00,7.978741579335579814e-01,-1.049078695740046033e-03,-1.049426745849588258e-03,4.357726962024904317e-03,1.813060402870178223e+00
7.764923784431412290e-01,-1.010812225067915904e+00,7.946740934571709936e-01,1.238523164083553006e-03,2.028160696635678169e-03,2.534369877648270323e-03,1.796474575996398926e+00
7.838885430947750699e-01,-1.030429567784169276e+00,7.934980048930411201e-01,1.512556397263195129e-04,5.819723292104533874e-03,4.301955434496703042e-03,1.819185137748718262e+00
7.672279805498366523e-01,-9.808158026661439877e-01,7.858109624359098655e-01,-7.596343111799302647e-04,2.032132191621770397e-03,6.520313426929961673e-03,1.757449269294738770e+00
7.799077759657883080e-01,-1.029694008077638889e+00,7.940711372878949126e-01,-1.800475308154405154e-03,8.246194029938929901e-03,6.929129858953926233e-03,1.816823363304138184e+00
7.752824039930285016e-01,-1.013274922509037612e+00,7.946477777180042112e-01,-2.095508413290364004e-03,-3.959637064481125526e-03,2.621304944543103969e-03,1.798340678215026855e+00
7.883369749630686485e-01,-1.029711222177927432e+00,7.902665119196088384e-01,-5.426734143628088487e-03,7.774342863631242100e-03,5.368083322441275125e-03,1.819111585617065430e+00
7.868346387130251696e-01,-1.027272473276962250e+00,7.807042078216142045e-01,-6.877523602072956564e-03,6.267433206290809293e-04,-6.499169225125764338e-03,1.811124205589294434e+00
7.829905806215142761e-01,-1.031271545521614819e+00,7.882125194224478548e-01,-2.826745433868783214e-03,5.716693414107765561e-03,8.464370856379407632e-04,1.816912889480590820e+00
7.740498314934671775e-01,-1.028923305783428610e+00,7.601882222424836133e-01,-1.182525126946558369e-02,-1.100908683247235967e-03,8.669079293989849500e-03,1.796262979507446289e+00
7.801549608406413983e-01,-1.018862375894923122e+00,7.874458494577089018e-01,-3.924185768364217911e-03,-6.963792918620337682e-03,2.623872315711078124e-03,1.802732706069946289e+00
7.557375378710416980e-01,-1.023121438451034537e+00,7.560121089765776681e-01,-7.469970227622962401e-03,4.976397897583292006e-03,5.891809428839790523e-03,1.779093503952026367e+00
7.835798890094490821e-01,-1.030534311666010394e+00,7.836370624118693673e-01,-3.903004603763441001e-03,-5.809773241235976354e-03,1.979050588621356511e-03,1.814186573028564453e+00
7.729788062812792404e-01,-1.031954487901558970e+00,7.707878888083228297e-01,-6.328862261831386636e-03,-3.300332278535747857e-03,2.490156819070780589e-04,1.803881287574768066e+00
7.599450347822929164e-01,-1.023849327320692115e+00,7.580842253541579812e-01,-6.902853243338532944e-03,2.905861004014600535e-04,5.655119458580692635e-03,1.782931804656982422e+00
6.584555308921239414e-01,-3.721522390580711548e-02,9.768652913044116870e-01,5.440648170529103177e-03,1.107749953562295886e-01,-1.412818286403388045e-02,9.188861846923828125e-01
7.595064479381213873e-01,-9.971438592896363362e-01,6.968533383101339629e-01,-1.022376196850956556e-02,1.210965549348021197e-02,8.468209952888840512e-04,1.726395606994628906e+00
7.859578980992621977e-01,-1.036082806314123417e+00,7.829888716300593687e-01,9.164634060172575317e-04,4.133443920955432241e-03,2.457859830765811784e-03,1.820577740669250488e+00
7.805320603595919948e-01,-1.028552199265921896e+00,7.809945624852332458e-01,6.022646463613444065e-03,4.710356842949466050e-03,1.104143341834390446e-02,1.809465050697326660e+00
7.774317839477846714e-01,-1.036659633508527190e+00,7.802832311881001681e-01,-2.440599887693099747e-04,5.718349125007266866e-04,-2.285686541287856445e-08,1.815519094467163086e+00
7.826178957672533798e-01,-1.034120876833858338e+00,7.783286495003201022e-01,-1.235165282222322209e-03,5.763841761153314439e-03,-9.800405574650371873e-05,1.814626693725585938e+00
7.853977987249325388e-01,-1.035141994953982403e+00,7.775392789791473191e-01,4.049470638245483700e-03,2.928548082096885715e-03,6.277223216722355517e-03,1.816676497459411621e+00
7.818150751867042336e-01,-1.035923039766172504e+00,7.816012853775312630e-01,2.684338736321105739e-03,5.728460447784480825e-03,7.611106219869638416e-03,1.817712068557739258e+00
7.523269039612954234e-01,-1.012899879534703063e+00,7.563864334417988999e-01,-9.322454309005464429e-03,9.192539703087129754e-03,9.068529683374024555e-03,1.767475366592407227e+00
7.394813155584385456e-01,-1.009176636917303194e+00,7.358591548311231856e-01,-9.229163705134248163e-03,1.853517858846384040e-03,7.683445265506691838e-03,1.746976494789123535e+00
7.564592772533372811e-01,-1.010515583353379432e+00,7.304759597525679604e-01,-9.353836970301393841e-03,1.321859432253881658e-03,7.471509226590195701e-03,1.754251599311828613e+00
7.752494349947245400e-01,-1.028245696968198342e+00,7.528073065145743925e-01,-1.183046465808706635e-02,3.143902190211078727e-03,8.270126054634761165e-03,1.792562127113342285e+00
7.549923439815945381e-01,-1.023445366210756102e+00,7.587854496193058296e-01,-5.986659922833544034e-03,7.623610325148841294e-03,7.829183541066065191e-03,1.780468106269836426e+00
7.354525807403502480e-01,-1.009600340856081857e+00,7.427019833966226336e-01,-7.958204878482822917e-03,3.433016275763916582e-03,8.872767097719115939e-03,1.748820900917053223e+00
6.090574500479981612e-01,-1.049271110054090350e+00,8.445364080692232545e-01,7.507270462798842914e-02,7.774085109767554791e-02,-2.262842167883859570e-02,1.797937750816345215e+00
7.802198583960129330e-01,-7.278899743890023810e-01,7.483917512152650220e-01,-2.387717727882461907e-03,8.246226447227275602e-02,9.950999973932946052e-02,1.509149432182312012e+00
7.325241934973940605e-01,-1.043356864251942850e+00,7.986084439990217554e-01,-3.577082173833916103e-03,1.391752385259516916e-02,-2.058265263487241842e-02,1.810350418090820312e+00
7.784647176768308974e-01,-9.776688121941732312e-01,7.711532402337608616e-01,1.939901086931055405e-03,-1.224549474933589628e-02,-6.466922065843798244e-03,1.752656579017639160e+00
6.375894641445449817e-01,-1.028024717096521323e+00,8.353683366173205727e-01,3.413811959811626634e-02,2.799701682565864432e-03,-1.454220369266495151e-02,1.773968577384948730e+00
7.178714274695376929e-01,-1.029673514025721159e+00,8.175343899805090908e-01,-1.565473993674865519e-02,-6.952711663270789999e-05,-4.136755564765120727e-03,1.799666166305541992e+00
7.244777121325595148e-01,-1.020512249310038921e+00,8.128177525578902385e-01,3.724835249022551836e-03,3.395979007322318458e-03,-6.068470955147927184e-03,1.790847063064575195e+00
7.871038113975157291e-01,-1.019251731065681899e+00,7.811844989748328860e-01,2.294683555344899026e-03,-1.683159339915071828e-03,-1.912571594576764622e-03,1.803412914276123047e+00
7.222188448327391264e-01,-9.981416693470608337e-01,7.934985448786688877e-01,6.531856518057518705e-03,-3.209923337138778534e-04,-6.217777362949252970e-03,1.757154583930969238e+00
7.339667649418076811e-01,-1.017173968636005954e+00,7.889456315344202109e-01,1.146410354521269770e-02,3.343507010771100060e-03,-9.655140338519862739e-03,1.779466152191162109e+00
9.842836183342640322e-01,-1.060494273266611609e+00,7.333348501415553056e-01,-3.445102625059778823e-02,-4.817409558595568686e-02,-1.994772496459156774e-01,1.964905500411987305e+00
6.579432073138158366e-01,-4.255512753858296526e-01,6.859248176152206167e-01,5.961770968405223116e-03,7.298065922466250369e-03,-1.679518379244023529e-01,1.135760068893432617e+00
5.966081344577721657e-01,-1.018546085687657587e+00,8.845707056763494336e-01,1.330257635014085726e-02,1.132681884620599655e-02,2.241732629569701245e-03,1.776986360549926758e+00
7.168994055100404994e-01,-7.512781518406985715e-01,7.466497409231729332e-01,1.225290362264522606e-02,8.199803667097728052e-03,-6.082545091600120857e-02,1.487232446670532227e+00
8.167792953601231698e-01,-6.422112658543633890e-01,7.006416545182991840e-01,-1.092774983153153440e-01,-8.362990713251783337e-02,-1.366801660947928321e-01,1.444142937660217285e+00
7.745504027572099881e-01,-8.845688973076117900e-01,7.613473752154777952e-01,3.239041622440396589e-02,8.862770589996639067e-03,-3.729231574999809784e-02,1.654841661453247070e+00
8.565032681695035066e-01,-1.007164232603384058e+00,5.607724719131705893e-01,-2.326581914734931686e-02,4.063291620800253690e-02,4.610222793090104632e-02,1.738540410995483398e+00
9.730949765083173331e-01,-1.231326300209871549e+00,6.224475474453273760e-01,1.829711119232331484e-02,1.250494704863192585e-01,-5.860087155656636820e-02,2.065834045410156250e+00
7.965292498760910833e-01,-1.025255955231775484e+00,6.541431811531688290e-01,-3.727360698135890986e-03,1.523694902744255064e-01,-2.585572177970211008e-02,1.775239348411560059e+00
8.311447710332867667e-01,-1.021321065807042183e+00,6.408763661506078346e-01,-1.572464559958700048e-02,1.131032021790550485e-02,2.731970604622660503e-02,1.765992879867553711e+00
7.695516095788200728e-01,-1.030871842462726562e+00,7.765081981733464866e-01,1.599821226966430482e-04,-1.831721489777034164e-03,-7.825164157719223870e-03,1.803965568542480469e+00
7.760707986466470754e-01,-9.943234924714932088e-01,7.898985143373136175e-01,-9.776761336511370550e-04,5.737632837280792764e-03,-1.148315173742580665e-02,1.777488350868225098e+00
7.990562427197012152e-01,-1.025786487160460281e+00,7.787805965098784089e-01,2.742564736302842768e-03,-6.762484013593893402e-03,-3.814527550303243794e-03,1.814845919609069824e+00
7.833279682481186779e-01,-1.025050001966969493e+00,7.918844486615629341e-01,1.390392487477855018e-03,4.990261693536392554e-03,-3.567658733020577858e-03,1.812704086303710938e+00
7.805127318396298808e-01,-1.016093569824762621e+00,7.948358375513544516e-01,1.523308872821866125e-03,5.086137875015449110e-03,2.438761380984923524e-03,1.803838849067687988e+00
7.811272075505184542e-01,-1.032869227043700544e+00,7.781146120958012391e-01,4.217262536494711771e-03,-2.185144281554434256e-03,-2.022163203557202397e-04,1.812510728836059570e+00
7.827406971288715098e-01,-1.038542853900596308e+00,7.829422951771929373e-01,1.857004968080743813e-03,-2.597229489983718907e-03,-1.841628397525304009e-03,1.821395516395568848e+00
7.778044163163214675e-01,-1.011810813391830655e+00,7.976752855415411014e-01,-2.759335035502649778e-04,2.041447293886191803e-04,3.079353790408028476e-03,1.799640893936157227e+00
7.236118257701749101e-01,-9.858411667245731147e-01,7.101970803449086933e-01,-4.337152741080694575e-03,-2.433067781980563504e-02,-5.768188269278163617e-03,1.703352570533752441e+00
7.228031801391336941e-01,-9.894961469124967657e-01,7.126252547247990954e-01,-6.301404385691599351e-03,-2.549522132374972341e-02,-7.060709019398231368e-03,1.707882761955261230e+00
6.929592620574779316e-01,-9.808614170377827346e-01,7.140588969458918633e-01,-4.170065956580322150e-04,-2.027162489354921229e-02,-5.937191580086749118e-03,1.684867024421691895e+00
7.178958181197381272e-01,-9.892709767943169696e-01,7.188261041043139121e-01,-5.328771561489300743e-03,-8.214347220976993529e-04,-5.338654172173011928e-03,1.707682728767395020e+00
7.851890056292125664e-01,-1.026423710651727550e+00,7.803573633007370169e-01,3.058315673278219887e-03,-9.356517642310871116e-03,1.859340498556275815e-03,1.809284925460815430e+00
7.819882304129817108e-01,-1.030990288132020538e+00,7.803679839647159611e-01,-4.242295328720246429e-03,-5.690811986648799600e-03,8.479336143372654538e-03,1.812270164489746094e+00
7.815947005613972376e-01,-1.029942977933155701e+00,7.867659799044901536e-01,5.859491102434140689e-03,-1.024558185349267597e-02,-1.407991048351580916e-03,1.814245700836181641e+00
7.850839089304526563e-01,-1.030223257808914994e+00,7.841892926297544530e-01,1.635996189505550162e-03,-4.946600083043137253e-03,2.985026845613633802e-03,1.814889788627624512e+00
7.733019103531880711e-01,-9.931383599514048699e-01,7.852709128670030125e-01,-1.426649711908338589e-03,4.357629012061201013e-03,1.323212335672737348e-02,1.772621035575866699e+00
7.751120531075527120e-01,-1.030424408191280783e+00,7.816140971151240846e-01,-5.365169722730486930e-03,-1.603771776280424853e-03,8.537753605116441685e-03,1.808882713317871094e+00
7.764561715505996498e-01,-1.030747873641533197e+00,7.837733761810680155e-01,-5.778924085708658440e-03,8.956000804175036877e-04,8.126679030132130666e-03,1.810956716537475586e+00
7.758387141605370685e-01,-1.034487243742034268e+00,7.757689201558157777e-01,2.498689597596013157e-03,9.982971751400695343e-04,-2.458859613486274673e-03,1.810302019119262695e+00
7.820982166996380824e-01,-1.030616309392371699e+00,7.842099269768277869e-01,4.407546881292467855e-03,-2.187399536046742612e-03,-9.585549085440648763e-04,1.813792109489440918e+00
7.791655150649334782e-01,-1.037281331693580277e+00,7.822620534222597399e-01,1.511325831719916675e-03,-2.289177549047887762e-03,-9.866155457553210748e-04,1.818004131317138672e+00
7.800019671576612357e-01,-1.038584342989269604e+00,7.824508357779095258e-01,2.004245511388277196e-03,-1.599622548488398559e-03,-1.390597500500246860e-03,1.819818973541259766e+00
7.776186443245328705e-01,-1.037932718537085686e+00,7.804159667684358315e-01,7.976984560949506578e-05,8.079233291446714753e-04,1.054971749739630124e-08,1.816952228546142578e+00
7.745714716711100678e-01,-1.034847436888745698e+00,7.755031179737554847e-01,1.573759864497631562e-03,2.134673318261801154e-03,-1.797205044515270880e-03,1.809893369674682617e+00
7.782448351460466984e-01,-1.034295307673877007e+00,7.763588018120062273e-01,4.539893666478956799e-03,2.812583222494837668e-03,-2.187051157507780442e-03,1.811625480651855469e+00
6.863966674233182852e-01,-1.004473196338394381e+00,8.498679837863313269e-01,-8.624659356052704479e-03,-2.650256690220565564e-02,1.835387426379394074e-02,1.779188990592956543e+00
7.820869887733533643e-01,-1.030108833990602601e+00,7.655717863029832815e-01,1.190693156202180143e-02,-4.122998741899890377e-04,2.691694684106006770e-03,1.804118990898132324e+00
7.204286996578070923e-01,-6.580894573461552044e-01,6.950440421720563977e-01,-2.692306062434962621e-02,-2.292310665379378165e-02,4.626068140354038655e-02,1.369720578193664551e+00
7.754733968216618312e-01,-1.034108229049860439e+00,7.716318377015536356e-01,2.710183256825214864e-03,5.853912520129057624e-04,-1.252856429815797645e-03,1.807671546936035156e+00
7.904974992357616248e-01,-1.030709997496971342e+00,7.839051236081506779e-01,6.502441107265547436e-03,-4.058018567599534256e-03,6.585444382776581458e-03,1.818004488945007324e+00
9.045581790003329736e-01,-9.920024878197650775e-01,4.592816218562469355e-01,-4.706713530942381596e-03,-6.093662297115080492e-03,3.484050892945400602e-03,1.717828273773193359e+00
7.853674356573998594e-01,-1.020116427412749438e+00,7.861381468358742408e-01,7.417963789466380797e-03,-5.586280026285824103e-03,2.172325258045902912e-03,1.805944919586181641e+00
7.772236551335800492e-01,-1.025469656203930491e+00,7.877458386826163839e-01,-7.005775997926214430e-03,1.121776409683258348e-03,6.646391694159097148e-03,1.808055758476257324e+00
7.893121351235223848e-01,-1.026292395554147197e+00,7.836787392900464999e-01,2.791414106256585002e-03,-4.010575412683950978e-03,3.687361502559864603e-04,1.812814235687255859e+00
6.362295167032817611e-01,-3.731072713901846249e-01,6.612304566859116273e-01,-3.974494715402692238e-03,-1.309493671794337115e-02,4.702499602768966253e-02,1.025580883026123047e+00
7.504136880180902747e-01,-1.016396713307131439e+00,7.601877878462353078e-01,-1.023255282352479980e-03,-6.874169639168453694e-03,1.172442440819290434e-04,1.771758556365966797e+00
7.777518402634340244e-01,-1.032140178251684359e+00,7.770626508447604497e-01,-4.348702501368473944e-03,-1.112420253045435115e-03,3.055905724347475049e-03,1.809571981430053711e+00
7.828139835519164480e-01,-1.029837006244552988e+00,7.862263687156614278e-01,-5.397661176193953303e-03,-4.537149504872343454e-03,2.512747081600775253e-03,1.814405918121337891e+00
7.795338163606159165e-01,-1.024330271062320330e+00,7.973747057703398644e-01,1.034973063794897736e-04,-1.322176384342706526e-03,4.770327257521249104e-04,1.812852025032043457e+00
7.131520677334478586e-01,-9.975028391708459230e-01,7.413908573477030473e-01,-8.650486347447499140e-04,-1.083590489278946599e-02,-1.789320312481562994e-02,1.725328803062438965e+00
7.821032647640123736e-01,-1.022857177997173794e+00,7.836528643727150856e-01,-7.881903599981235700e-03,-6.716298449417029519e-03,4.433859287121517598e-03,1.805841088294982910e+00
6.812899383798474151e-01,-9.804433380140709087e-01,7.355507207689397919e-01,7.511253257772652469e-04,-1.784504861777087142e-02,-5.813727672363474229e-03,1.689830541610717773e+00
7.844528988268915093e-01,-1.030111881045145061e+00,7.825062468636316826e-01,1.191830451966056437e-03,2.415052454594673534e-03,-2.336416967264482066e-03,1.813602805137634277e+00
5.397209763444359432e-01,-9.918811613143347916e-01,9.549789691870073094e-01,1.070626267612170834e-01,-4.181958588939795746e-02,-2.591972138629228262e-02,1.787709116935729980e+00
7.200404848691959181e-01,-9.969789082444855399e-01,7.399655879643659562e-01,-5.556348774532408712e-04,-9.946206246804784046e-03,2.409097002471589574e-04,1.727154374122619629e+00
7.831936734571859349e-01,-1.028844171521890782e+00,7.768713104681632675e-01,-6.910866393127863480e-03,1.067609773291231358e-03,4.032958251224991880e-03,1.808938980102539062e+00
7.222147466574786456e-01,-1.021832553652603837e+00,8.031775578157820394e-01,3.768603049228495122e-03,-1.361234236572842708e-03,-1.734089174600838071e-02,1.786171674728393555e+00
6.155964741373023408e-01,-9.826263341614003277e-01,7.923867761057978854e-01,-8.120833844600319632e-04,-2.305917959338015660e-02,9.067688823504749598e-03,1.694097161293029785e+00
7.031096724120767805e-01,-9.869475938781864244e-01,7.221703046788450209e-01,7.386521932050164538e-03,1.581906794632221766e-02,-9.599821912036291677e-03,1.700018048286437988e+00
7.141903456494220759e-01,-9.905910887933199183e-01,7.255699272295237368e-01,7.335357032710958756e-03,2.608580345037124840e-02,-7.888642463026359838e-03,1.711197972297668457e+00
7.102496479939366392e-01,-9.984828789280328909e-01,7.584770003916999626e-01,-7.769846117870473322e-04,-6.977198698334536459e-03,-8.997856422325633055e-03,1.733462214469909668e+00
7.148199500311889221e-01,-9.813447982909333511e-01,7.095470129097249945e-01,1.930151588086443000e-03,3.050497207145362599e-02,-1.590451654321277386e-03,1.694363951683044434e+00
6.913911720114038761e-01,-9.813532388876047285e-01,7.185064564499515916e-01,7.054512570037357357e-04,2.443053705986533361e-02,-5.862431771166755866e-03,1.687027335166931152e+00
7.822952972977170738e-01,-1.014623993409434322e+00,7.806091137075630293e-01,-1.495788701091021891e-03,-1.034858954143050812e-02,3.032614488853474510e-03,1.796175837516784668e+00
7.802367317928915469e-01,-1.016530028750669779e+00,7.895963525549514195e-01,3.865093122277452812e-04,-7.972184627831543913e-03,4.976683766339392093e-03,1.801538467407226562e+00
7.843926117467875381e-01,-1.030337146126385717e+00,7.862386627370239189e-01,2.447113675889560792e-03,-6.381557565711296759e-03,2.018057190932908557e-03,1.815695405006408691e+00
7.422399371221235498e-01,-1.016600071744270473e+00,7.724353715268535980e-01,-8.276375722938110729e-04,-3.675701764732794419e-03,-9.768936370222938009e-03,1.774223089218139648e+00
7.451345425522002408e-01,-1.016666798392933835e+00,7.568103165966763024e-01,-1.119900274633202093e-03,-8.476616939911623544e-03,-1.835914577890787602e-02,1.768016219139099121e+00
7.806698464114515401e-01,-1.026848889855528579e+00,7.940903236447472979e-01,-2.800618029326937524e-03,1.144599692134163835e-03,4.251558388785769971e-03,1.814288735389709473e+00
6.713605311851259527e-01,-1.004226545100518786e+00,7.887178520154528583e-01,2.437354432779074867e-04,-1.301778061617162897e-02,-2.017690870266285880e-02,1.737739086151123047e+00
7.823554175059190818e-01,-1.026444038376588708e+00,7.762164208837079027e-01,8.249760559964800302e-03,7.950470951529308968e-04,-3.886550470376870167e-03,1.805807352066040039e+00
7.971506094710751888e-01,-1.008984699131110885e+00,7.735823137167656682e-01,6.313279644081418174e-03,8.004527122156253425e-04,-1.344543071757199918e-03,1.794502615928649902e+00
7.937066275336648324e-01,-1.021437663933114859e+00,7.813642866782239960e-01,3.217262530687346744e-03,1.252276193421407013e-03,5.137006163715077253e-04,1.809014797210693359e+00
8.004012255371492079e-01,-1.011212514203765789e+00,7.763404549821752987e-01,7.168911988083264547e-03,6.875033816762198685e-03,2.794944740904933052e-03,1.799792766571044922e+00
7.776999522585175129e-01,-1.008226068753683924e+00,7.839955958790865154e-01,-2.785350792769711228e-03,7.944840218129439529e-04,-9.093693676355618996e-04,1.789089918136596680e+00
6.924852159060859158e-01,-9.797995838294597526e-01,7.195060386153605547e-01,1.178218206232280792e-03,-1.710659061874968134e-02,1.690270424877893078e-03,1.686221718788146973e+00
7.040507804207046805e-01,-9.870346049525412502e-01,7.176070887051078095e-01,5.323306022551451896e-03,-1.711515290655940547e-02,6.406386576136157904e-03,1.698224186897277832e+00
6.536719449774429647e-01,-9.874586752429602710e-01,7.471055312765283452e-01,7.369792819370743139e-03,-3.206601494228411564e-02,1.255796053607072769e-02,1.690886497497558594e+00
6.256979813081123831e-01,-1.146041346761033086e+00,8.019975637550597058e-01,-4.775653922091230297e-02,3.701178729611337981e-01,5.281280598685163252e-02,1.977035641670227051e+00
6.838557724658786974e-01,-9.769304603338855308e-01,6.926189886097053883e-01,-3.075852604061749419e-03,6.247504148407571900e-02,1.659773731869516400e-03,1.668708324432373047e+00
7.712281174914989990e-01,-1.021691126648701653e+00,7.467305413461253760e-01,-2.536457040149473971e-02,1.673058603454243010e-02,2.366184635876761311e-02,1.782045722007751465e+00
6.279253900852721504e-01,-1.071285516028201545e+00,8.144888007001811481e-01,-6.726338693638611067e-03,3.212371383785773693e-01,2.286792240370792012e-03,1.883843302726745605e+00
1.397615545995478881e+00,-1.202580310851860457e+00,1.926727681326267927e-01,-1.924361354853624867e-03,1.931927906038950066e-02,2.321306595918838922e-01,2.289673089981079102e+00
5.573008348339946183e-01,-9.781523299367157476e-01,8.136480068604221572e-01,-1.049971831177164659e-03,5.225905099759993455e-02,-8.368056287044501468e-03,1.680876493453979492e+00
6.400568547415400600e-01,-9.779913581823257429e-01,7.466468470699038074e-01,-1.914172580686468754e-03,2.806220569095117107e-02,3.520508942203068054e-03,1.674610376358032227e+00
6.204430123603238423e-01,-9.816107711609389774e-01,7.874107477312033421e-01,8.956087841121207135e-04,-2.656940273294929739e-02,-9.820956555692083104e-03,1.692440629005432129e+00
7.794813891294288810e-01,-1.039335413333142721e+00,7.824744743045193296e-01,-1.443932577161172355e-03,1.292563313863903662e-03,-1.745596584441089791e-03,1.820320844650268555e+00
5.605404700240534943e-01,-9.847377407408279826e-01,8.170892701177479012e-01,-2.220746839313280339e-03,4.469828718823967706e-02,3.643515962062460894e-03,1.690026521682739258e+00
7.816163878490982597e-01,-1.022444697190936669e+00,7.717930331707041347e-01,8.613108026669948764e-03,3.144498329078666138e-03,7.454475462051577891e-03,1.799285888671875000e+00
7.799537005568327741e-01,-1.021180318039953239e+00,7.721351239186640125e-01,6.522398347979079143e-03,2.614032176093796303e-03,7.160656616218546294e-03,1.797321438789367676e+00
7.752484377629111911e-01,-1.023667633630996665e+00,7.440684036518664390e-01,1.269996061133629728e-02,-9.794720657191793856e-03,6.912998991458607981e-03,1.783787012100219727e+00
7.824331033999256668e-01,-1.019767027070650034e+00,7.839719133279914320e-01,1.286836657996986294e-03,1.241249254454082976e-02,3.687546568610178353e-03,1.803110837936401367e+00
7.742030316272076051e-01,-1.029863694993605527e+00,7.723634909706741380e-01,1.077044227051683276e-02,-4.839837231818210073e-03,1.658959977489467968e-02,1.803492546081542969e+00
7.836595220390111249e-01,-1.027788844862606021e+00,7.811782924673936757e-01,-1.896216772627146987e-03,9.378716714833420370e-03,-2.424534948693597529e-03,1.810289740562438965e+00
7.773674562389458753e-01,-1.036468060864029761e+00,7.826480909715609613e-01,-3.617133245330425920e-03,1.324099014939784241e-03,5.530818354121612955e-04,1.816494107246398926e+00
7.671676677929211152e-01,-1.029507256656419401e+00,7.729697370658989986e-01,-1.214991764464384144e-02,-1.086110318961301945e-05,1.852743275757064113e-03,1.799708843231201172e+00
7.764385989017201783e-01,-1.023408791578820587e+00,8.027106934492080903e-01,1.518128019541826589e-03,-2.762124577763998886e-03,-1.345048821911442932e-03,1.813135862350463867e+00
7.710286599921578610e-01,-8.594802359547064619e-01,7.348013426761077493e-01,-7.546526947722672490e-03,-1.387667001199414940e-02,2.103745525835747088e-03,1.612936615943908691e+00
7.945663679442540595e-01,-1.021294611425711540e+00,7.920637908251695336e-01,2.529498869412814994e-03,-2.538609907912744816e-03,1.607851473212373134e-03,1.814623713493347168e+00
7.885373921598581859e-01,-9.876863302535908717e-01,7.728502596770377986e-01,1.045478899471135800e-02,-1.366832147552663563e-03,1.264752157298994640e-03,1.768527984619140625e+00
7.767557044265686050e-01,-1.019618721082130808e+00,7.880496492401017905e-01,-3.169800964256937279e-03,-5.626730754402203393e-04,1.606513340497658232e-03,1.802058696746826172e+00
7.953590740687846994e-01,-1.017532370838146072e+00,7.803601055976047141e-01,2.910983906563127319e-03,-5.044320158746389872e-03,1.387385421645098921e-03,1.805468440055847168e+00
7.788055231969484016e-01,-1.018815748938702193e+00,7.979894148599935289e-01,-2.656570480738273000e-03,1.533016413054872533e-03,-3.340954763923272442e-03,1.807306647300720215e+00
7.856904539435120016e-01,-1.037777596570940597e+00,7.860171482615976313e-01,-4.203435110625208804e-03,2.227163375451554714e-03,1.274344888970535810e-03,1.823651313781738281e+00
7.881780136260478908e-01,-9.857928395932120669e-01,7.699104484173516783e-01,1.132601141888524461e-02,-3.629510953499353980e-03,8.968577613058157337e-04,1.765028834342956543e+00
7.086811205558687377e-01,-9.813078876050642663e-01,7.164875318854340147e-01,1.903685020216066030e-03,-2.938298735620875624e-02,1.703390399674934580e-03,1.694675803184509277e+00
7.257387287167172962e-01,-9.880736936714430430e-01,7.049505876315965702e-01,6.581718690379242780e-03,-1.475337210523363501e-02,5.993381942033512710e-03,1.703774929046630859e+00
7.755099781227514644e-01,-9.667947904705638251e-01,7.705903686124897511e-01,-8.458142486129841334e-03,2.428335497062592691e-02,-7.478953720240643158e-03,1.740468382835388184e+00
7.094341559824350885e-01,-9.816762995035706041e-01,7.096591096025447465e-01,6.790219443123454712e-04,-3.205427894742362421e-02,-1.493659116649859089e-03,1.692136406898498535e+00
7.138455591117280896e-01,-9.883246595498140774e-01,7.202621754242475305e-01,5.487403513109459507e-03,-2.541960370928147799e-03,6.625629786246303374e-03,1.705458402633666992e+00
7.859492645729907467e-01,-1.030823178044795618e+00,7.658711396358428569e-01,-1.144493083308245271e-02,5.243914367597015671e-04,2.426143700494752878e-03,1.806930899620056152e+00
6.999312127719083954e-01,-7.907784967973257029e-01,7.605200687053137454e-01,5.672234950188389732e-03,1.453451391741322068e-02,-4.681363480700468163e-03,1.522170424461364746e+00
7.145734727940974418e-01,-9.810424720069200744e-01,6.925279086202996703e-01,4.296380791497086439e-03,-2.531291475389692291e-02,4.214286519109688425e-04,1.685288310050964355e+00
7.797718202301701096e-01,-1.038022779682161723e+00,7.820764114576661541e-01,-4.899444802272499714e-04,2.921992332300662673e-03,-8.017010481239355418e-04,1.818955779075622559e+00
7.851552375810624262e-01,-1.033835634885518884e+00,7.881198006866549921e-01,-9.376437253878914038e-04,1.199598840331742022e-02,-2.730346952660939533e-03,1.820600390434265137e+00
7.844364344726443283e-01,-1.031541496730584040e+00,7.932968305784533491e-01,-8.773603482780249416e-03,8.691303466540952621e-03,7.677548674929110181e-03,1.820598483085632324e+00
7.824266409170493874e-01,-1.029526622637978894e+00,7.794472139693201518e-01,7.024655966066170728e-04,6.900190847576722838e-03,-5.528642040033131819e-04,1.810505509376525879e+00
7.808333091649140023e-01,-1.024293892543546969e+00,7.906846772805984358e-01,3.460748279856669558e-03,2.696456441643380574e-03,1.432741064513989165e-03,1.810090661048889160e+00
7.797748848029135704e-01,-1.035158110712469437e+00,7.791638470652583193e-01,-5.679398131780899125e-03,2.737402185670122397e-03,-4.827187664764257674e-03,1.814679622650146484e+00
7.831942732122750828e-01,-1.027966401220189896e+00,7.737954924843739590e-01,-6.769154306198441919e-03,-1.997993175830293025e-03,-3.881144746185128010e-03,1.806533455848693848e+00
4.357206430706943578e-01,-1.165890330829305599e+00,1.033289871475805199e+00,-1.251862861158518081e-01,-2.414929939735251940e-01,8.398009569982862674e-03,2.025216817855834961e+00
8.368056145739938279e-01,-1.036609658985815141e+00,6.858884722140744516e-01,1.284107444206225926e-02,-3.600841735423659928e-02,1.551495154861198128e-02,1.804116606712341309e+00
8.345384652715703844e-01,-1.003508232555380353e+00,6.264229344141837297e-01,1.418014122669433892e-02,-1.372579609733972153e-02,3.102694356495409173e-02,1.744493603706359863e+00
7.754329622400810695e-01,-1.037398274528761988e+00,7.794652692643360137e-01,-2.180840674840036578e-03,4.508213068890165988e-04,-4.536048467566718622e-04,1.814854979515075684e+00
7.903601174254137884e-01,-1.029310998346411044e+00,7.646347889919130614e-01,5.137707119541065452e-03,-8.825688861932698328e-04,-4.894388027241339777e-03,1.806988239288330078e+00
7.981063098023857272e-01,-1.028730328400892846e+00,7.642488876683954935e-01,6.554943295935756510e-03,6.169542808692969442e-03,-8.250476155335056960e-03,1.810268998146057129e+00
2.330892423309944284e-01,-1.434601740062029451e+00,1.375235684401979963e+00,1.687730747336937120e-01,-1.934914577791979617e-01,5.861776091905725877e-02,2.489682197570800781e+00
7.803909687211950663e-01,-1.037404630304419539e+00,7.829224584861166347e-01,-2.499272196251466766e-05,-7.481451852632812517e-04,-2.652589587520922439e-03,1.819068908691406250e+00
7.731703177610911304e-01,-1.029748069894873996e+00,7.594780221088577310e-01,-1.162193433645783295e-03,-2.916556371782793623e-03,-7.885586661776492964e-03,1.796171545982360840e+00
7.797421765615266676e-01,-1.037736260079608952e+00,7.787622152307612788e-01,2.655250530165928037e-08,-3.513405165123408263e-04,-4.617377161130174507e-04,1.816988945007324219e+00
7.752167349829115484e-01,-1.023162086755078359e+00,7.519485922268107636e-01,1.268028857052660822e-02,3.237068921870778562e-03,-7.344811153159118769e-03,1.787047386169433594e+00
7.817823629475120217e-01,-1.024141632483529740e+00,7.807147136748302518e-01,-6.439068772668324336e-03,-6.355089807867583124e-03,-1.325613191519506209e-03,1.805459856986999512e+00
7.749884807301021805e-01,-1.028278177420817618e+00,7.826792268091355975e-01,5.987918032584375362e-03,-2.655474246347365799e-03,-9.455417738574625752e-03,1.807234168052673340e+00
7.804291173463270281e-01,-1.034644883147398886e+00,7.787662411062664658e-01,2.222568821197255123e-04,-1.325410792261237040e-03,-3.557081972255416932e-03,1.814255118370056152e+00
7.812297657246536353e-01,-1.037147167955621674e+00,7.778948886494180259e-01,2.555534331445002451e-03,-1.445426373031569482e-03,-2.766519837089576528e-04,1.816718935966491699e+00
4.427446570651767388e-01,-9.853112008611025763e-01,9.122303933765353312e-01,-2.036742892516704879e-03,-1.588912456465278039e-02,-1.610982651201811177e-03,1.712013363838195801e+00
2.082798687095752943e-01,-1.056874678071779039e+00,1.321087882795887403e+00,2.450375704255940423e-01,-2.709364080504613193e-01,-1.277845527451108298e-01,2.167064428329467773e+00
7.711780205046212533e-01,-1.031676623605450205e+00,7.790284145484924760e-01,-1.582355320698599970e-03,-2.717987658214373031e-03,-1.014857276529316024e-02,1.806886315345764160e+00
7.557694002098904740e-01,-1.015119740854960817e+00,7.442855676152304589e-01,8.870242836292297969e-03,2.179482446687103052e-03,4.671082294537915662e-04,1.765246272087097168e+00
1.490994475708490974e+00,-2.000498236094482962e+00,5.693077546067775163e-01,-1.045944624448529453e-01,6.195298163416391724e-01,2.501549437551023880e-01,3.345738887786865234e+00
7.774276494005969429e-01,-1.027204873129447860e+00,7.801886557333377326e-01,-1.160626498178436022e-02,-8.277693419745607659e-04,-4.220731643712260714e-03,1.806141853332519531e+00
7.790607128570512518e-01,-1.038016477674094107e+00,7.798191959936826567e-01,-7.572304258457891995e-04,-1.798333457847490439e-03,-1.271597937475384393e-03,1.817461013793945312e+00
7.803593134362633021e-01,-1.026813537084080075e+00,7.763800514690176735e-01,1.063708403399005534e-02,-6.864988832976620658e-03,-1.916876380266241539e-03,1.805322766304016113e+00
7.778364380975111292e-01,-1.029141671274748759e+00,7.735522147167911422e-01,7.533891741785612994e-03,2.644138243270049808e-03,-2.380465974248584162e-03,1.804897546768188477e+00
8.087363064311218208e-01,-1.030297842960233412e+00,7.753332654824950376e-01,8.192903664749819070e-03,5.565468110493399650e-03,4.780849602340053045e-03,1.822661757469177246e+00
7.788170569487382622e-01,-1.033796762756755472e+00,7.787207177159078952e-01,1.299673455959095888e-03,-1.370568375550953143e-03,-1.917173274233462208e-03,1.812571644783020020e+00
7.563568922021288721e-01,-1.014997005167747046e+00,7.425424253416471609e-01,9.326032639709887218e-03,2.959779052424928929e-04,6.949255361771268860e-04,1.764561653137207031e+00
7.774101281565912736e-01,-1.012292911377450588e+00,7.763500143491838257e-01,-4.431741506854785899e-03,-1.368623874042741197e-03,5.532679475885631665e-03,1.789216876029968262e+00
7.712018474414490399e-01,-1.029815922420677321e+00,7.786669288075107609e-01,4.660246759425255153e-03,2.867317395142223932e-03,-8.413861273354453565e-03,1.804845571517944336e+00
7.676365431439661213e-01,-1.029896374914254897e+00,7.698516395225973863e-01,-1.300165697549546381e-03,3.767802543800837043e-03,-4.902899421694150578e-03,1.798674821853637695e+00
8.500454156308528963e-01,-1.008736454155588325e+00,6.006032385795588846e-01,-5.934708874486219893e-03,-2.805075764891714479e-02,7.346823590102456204e-03,1.748216509819030762e+00
7.610117623673700038e-01,-1.023374749450810084e+00,7.586411818542269092e-01,5.867323152470790143e-03,1.302151887831489406e-03,-5.263622010057047995e-03,1.783256053924560547e+00
7.123482952532766976e-01,-9.810477911982741217e-01,7.029612549356984985e-01,7.042861480288334797e-04,-1.723355130742712862e-03,8.763669241121953540e-04,1.688725948333740234e+00
1.592403840728202624e+00,-1.858921137710657812e+00,2.205041182800088762e-01,-1.647219887320648946e-01,3.219994955691017624e-02,6.413615898358621115e-02,3.025844097137451172e+00
7.721573274332867998e-01,-1.029397083782969124e+00,7.602421825878543649e-01,1.731772670432159896e-04,-6.554026768310903736e-03,3.076842241107475553e-04,1.795662522315979004e+00
7.856039285688973806e-01,-1.034587638855614777e+00,7.844502689304908571e-01,-4.735726273489258148e-03,7.978358473097933723e-03,-4.163791310648807045e-03,1.819700241088867188e+00
6.812146436294737040e-01,-9.821089059349639161e-01,7.383827587663568393e-01,8.056281063403702850e-04,-8.271425062113793580e-02,2.792509242611230895e-03,1.698691487312316895e+00
7.914011106225163905e-01,-1.031169933017352491e+00,7.810484853757714285e-01,1.943837467303769590e-03,-1.349846166109765298e-03,-2.997188279463256812e-03,1.817428827285766602e+00
4.327221847976767677e-01,-1.214784244500586974e+00,1.056846569997154983e+00,-7.761778657871634679e-02,-2.043836964624283770e-01,-2.319536031936695122e-06,2.067715883255004883e+00
7.715050853781543205e-01,-1.029965523471457978e+00,7.836689117149124861e-01,1.070647515130189898e-03,2.583484203966180575e-04,-1.001551712190484195e-02,1.807667493820190430e+00
5.510152930963564399e-01,-9.888959649295867571e-01,8.464175486939260473e-01,-2.393830653743549315e-03,-6.395324872080131173e-02,-5.901696297436918523e-03,1.710518717765808105e+00
6.535865579357054145e-01,-9.976848222650743780e-01,7.250991155931973964e-01,-2.677277759615304467e-02,-1.148892011072580599e-01,-2.758458646211577395e-02,1.701155304908752441e+00
7.259187760543754919e-01,-8.221903896374018750e-01,7.684716197234281454e-01,-2.505605043008809780e-03,-8.224343925373694617e-03,8.160495232918410502e-03,1.569952487945556641e+00
6.208591528687769090e-01,-9.824252764793444115e-01,7.537576902304872206e-01,1.358065100820338503e-02,-4.445978561277558888e-02,1.420838664598952049e-02,1.675812125205993652e+00
5.518863685037816991e-01,-9.851400280457766057e-01,8.293198402803968472e-01,-5.092791599871315973e-03,-7.040693711566900492e-02,-2.117750654989206116e-02,1.697685718536376953e+00
8.625638814577800684e-01,-1.009624130062021896e+00,5.918644751820899552e-01,-1.121658138159910625e-02,-9.096231121849974316e-03,8.427929800967281018e-03,1.752827644348144531e+00
7.866781019085208326e-01,-1.017947525762285421e+00,7.788373606355322165e-01,-2.313434314829111629e-03,1.311856139232930353e-02,-1.410244206030457532e-02,1.801031470298767090e+00
7.115351544389927341e-01,-9.830346698298505492e-01,7.226725399565244734e-01,-4.151966799684343908e-03,3.648807652631348014e-02,4.537906464736302797e-03,1.701373457908630371e+00
7.355938929921095326e-01,-1.003655218803609639e+00,7.332499800864009654e-01,-1.804694636294711801e-02,2.697257373593547891e-02,1.774806584787808061e-02,1.739258766174316406e+00
7.140407639486967550e-01,-9.888587576434662019e-01,7.216847055124442356e-01,-5.260808959628788389e-03,3.312566127936319386e-03,6.588061012854975855e-03,1.706806421279907227e+00
7.075811861096623634e-01,-9.821302420146880152e-01,7.126063478425908038e-01,6.004098454911356445e-04,1.586826277152345943e-03,5.641667947892972613e-04,1.692232489585876465e+00
9.111848929149780618e-01,-9.839059014452432583e-01,4.564715958616459290e-01,3.639317945657848021e-03,-6.580396866308755276e-03,3.122884373079373201e-03,1.713653802871704102e+00
6.873240226488609439e-01,-9.804491390706310261e-01,7.242625344086066619e-01,-2.742748439910160096e-03,1.705131802706381233e-02,4.706657667987772242e-03,1.686830759048461914e+00
7.119729173077899986e-01,-9.812357684965488103e-01,7.089759550749656913e-01,-2.063595657689181427e-03,5.296774034959256597e-03,-9.940683160503312345e-06,1.691740870475769043e+00
6.052270182084577010e-01,-1.019137514587324933e+00,8.626373457927350996e-01,9.087568170395242048e-03,1.308825563241855679e-02,6.121508415759967583e-03,1.767433881759643555e+00
7.503753118176295089e-01,-1.025796519146515706e+00,7.762636189018534694e-01,-8.513329283972297101e-03,-1.295016960623515592e-03,-1.247575447809749598e-02,1.789449095726013184e+00
7.767209988504293339e-01,-1.033950339476603197e+00,7.878324152842341999e-01,1.289177500435784249e-03,-7.081937274411901143e-03,-2.106659903981395691e-03,1.816298961639404297e+00
7.829809222419933379e-01,-1.036458841474610537e+00,7.786437951305511529e-01,2.087259909725429265e-03,-2.070038181381482489e-03,-1.588895225266425629e-03,1.817284345626831055e+00
7.841215504088830945e-01,-1.028617565709294412e+00,7.656337182543008213e-01,-1.134966580555200888e-02,5.670490752832906944e-04,2.382750966784419333e-03,1.803678393363952637e+00
7.706705691387040202e-01,-1.024920023944853043e+00,7.519311155262650148e-01,-1.366273251543143226e-02,-3.777526313445630363e-03,-1.073718796712147885e-02,1.786560058593750000e+00
7.780197175175047608e-01,-1.035626232080556486e+00,7.744340362614260398e-01,-4.918839721889322128e-03,6.144508569097153865e-04,-8.795813171139854278e-05,1.811876177787780762e+00
7.382320325899127678e-01,-1.014034748248320739e+00,7.539485686800047048e-01,-1.082849648314411842e-02,-6.691379092403346163e-03,-6.956758632549455909e-04,1.760316133499145508e+00
7.835228757502229469e-01,-1.027158033605480858e+00,7.738224313730779347e-01,-8.798799677508939085e-03,-1.002233702118990061e-03,-7.182394042553661914e-03,1.805958271026611328e+00
7.793513251959651722e-01,-1.023455171243316864e+00,7.865599611436293603e-01,-1.536317494633310590e-03,1.005723040575240250e-02,-3.614061655468316786e-03,1.806518435478210449e+00
7.204875213006074475e-01,-1.026644978305230049e+00,8.194372210948873692e-01,3.215668900866065424e-03,2.749450543755799139e-03,-1.081502565965220160e-02,1.798762321472167969e+00
7.752243575250826746e-01,-1.019891848501091269e+00,7.664305367061723384e-01,-7.579526542989610365e-03,-1.773175747446266654e-03,-9.992515377764014722e-05,1.790786266326904297e+00
7.560610792275740399e-01,-1.020215578807754930e+00,7.544900440759179094e-01,-6.776454559395569260e-03,-1.139776972070564651e-02,-7.132770720289009075e-03,1.775683164596557617e+00
7.674044561257913344e-01,-1.028315190108536559e+00,7.605924290926977527e-01,-8.972687946091755797e-05,1.932034914908750331e-03,2.731804119359074602e-05,1.792326450347900391e+00
7.703808015400531728e-01,-1.013238907715911186e+00,7.932213839478574613e-01,-8.365048193200507604e-03,-5.876976025057726628e-03,1.568630453335644395e-02,1.795441865921020508e+00
7.726523101042130914e-01,-9.751711171878125750e-01,7.797599868416917879e-01,4.009307118715398771e-03,-1.651092360465614486e-02,-4.559815777731672515e-03,1.751653075218200684e+00
7.613417241412657743e-01,-1.021927166394838604e+00,7.600596612475060132e-01,-5.367745040777142235e-03,-1.315149349622250687e-03,-7.218160700182453191e-03,1.782697796821594238e+00
6.230649520956640375e-01,-9.818785226738765415e-01,7.339820551685317662e-01,-6.307676834068275291e-03,1.096592382080551070e-01,8.730120609213885136e-03,1.674092411994934082e+00
7.845891102423476759e-01,-1.191640750967519757e+00,8.938020195794174061e-01,-4.322198757876891638e-03,2.160561157560353662e-01,1.595709107468135796e-03,2.067207336425781250e+00
7.751907790891512384e-01,-1.029633028732663158e+00,7.685682327838663230e-01,5.777742514181913834e-03,2.251582065969190416e-03,-5.621747082890845085e-03,1.801579952239990234e+00
6.708594321522860504e-01,-1.003800468399866697e+00,8.423774122707283762e-01,1.745379547408105634e-03,-1.469676328287428807e-02,-2.089037589470261677e-02,1.767230868339538574e+00
7.423070351958745983e-01,-1.007084647869948002e+00,7.361755103799085820e-01,1.014552551399382392e-02,1.186573646896504908e-02,-1.212657881830384553e-02,1.746669650077819824e+00
7.814900470460637294e-01,-1.013035113159756584e+00,7.805019175524670061e-01,7.058807841498474477e-03,7.087495112042621788e-03,8.797207032516542711e-05,1.794114947319030762e+00
6.458273870386294080e-01,-1.000926042561811613e+00,7.979921827613891683e-01,-2.487330610382501757e-03,1.625300329544431335e-02,-2.069188753983633791e-02,1.728474617004394531e+00
5.161425638728520671e-01,-9.818063298080959012e-01,8.653750097583862155e-01,-2.378753839087202442e-03,2.949967924829212038e-02,-1.084160277811459412e-02,1.700566649436950684e+00
7.768832143902604237e-01,-1.222058575812731140e+00,9.462420278671146434e-01,-2.449739221179987256e-02,7.758550632728195007e-02,9.407487147588079746e-03,2.093588590621948242e+00
6.323973134112294003e-01,-1.045141800704574075e+00,8.599853554368752651e-01,5.898728685898636283e-03,3.552325433505251762e-02,-3.473619053545421191e-04,1.803222656250000000e+00
7.417599058148823810e-01,-1.008332089339119220e+00,7.339268705786458069e-01,7.402971862737669877e-03,3.925027819499531806e-03,-6.763292282309193992e-03,1.746288299560546875e+00
7.835820160200467344e-01,-1.035007792576004171e+00,7.817641316459510437e-01,-8.011632289582164539e-04,5.369627588020510836e-03,2.779208818275512045e-03,1.817712187767028809e+00
7.821312745480026862e-01,-1.037523065009524403e+00,7.796570755689485877e-01,8.015869135649478314e-04,2.611228696369555929e-03,1.116198047757228180e-03,1.818425655364990234e+00
8.714682863191512974e-01,-1.037543903468764794e+00,6.903600135378333835e-01,-3.017502349785612832e-03,-5.076060783170145349e-03,3.658513037122503378e-03,1.825249195098876953e+00
8.217163640163201999e-01,-1.018898736893427026e+00,6.842817573350897797e-01,-1.311476708311426487e-02,8.485084949559359253e-04,1.176817118676045000e-02,1.776153564453125000e+00
7.806832376708843224e-01,-1.033058224152471061e+00,7.817180978161764049e-01,5.711319672491235733e-04,4.271580486053677857e-03,2.831352304650331525e-03,1.814281105995178223e+00
6.939880349007425675e-01,-1.005519884418712540e+00,8.186138978230511620e-01,1.191441759440678644e-03,-1.256270252071595324e-02,1.897496940846391672e-02,1.765564918518066406e+00
6.236660954033323989e-01,-1.022034374373471888e+00,8.513059413468335723e-01,3.278229173081448344e-02,-1.404129114432715007e-02,5.356955633857444880e-03,1.771631598472595215e+00
5.682256275796530032e-01,-1.051661971814838337e+00,8.987513108812928975e-01,6.901820280276627084e-02,-2.709012365013615739e-02,1.999244361566691885e-02,1.812839984893798828e+00
7.796793781587060268e-01,-1.005011139102513162e+00,7.802719125519043120e-01,6.196406690723490346e-03,1.056733279759137709e-02,6.074091961024029665e-03,1.785143971443176270e+00
6.978910449224648982e-01,-5.474388084007153488e-01,6.723221985563787584e-01,9.562947548619946114e-02,-1.537085636512895183e-02,-7.072847428732878527e-02,1.250123977661132812e+00
1.278212517279289751e+00,-1.016410152617570173e+00,4.240866250130269632e-01,-1.341378197230339575e-01,2.425500569329405998e-01,2.488321848695901339e-01,2.109775066375732422e+00
8.926711891399903287e-01,-5.662174452655377443e-01,6.557033904536982982e-01,-1.164166490303107648e-01,3.230682363405900093e-01,9.489992684513870458e-02,1.489830851554870605e+00
8.323873916207552570e-01,-1.012947019655869418e+00,6.308022581257440864e-01,1.220602489533222611e-02,-1.675787417841319293e-02,-6.055358362315120882e-03,1.753654241561889648e+00
6.221957228564273246e-01,-9.832716643743799612e-01,7.889656932553534840e-01,1.459997444723391564e-03,2.135511728580745394e-02,6.753054690039476601e-03,1.695462465286254883e+00
1.445071657060829740e+00,-1.873130053759785030e+00,5.280456598952047997e-01,-1.328554097009112811e-01,-7.635839411342086880e-01,-5.144961899511317771e-01,3.377095460891723633e+00
7.257108397645866127e-01,-1.112079501808677540e+00,9.541353981208793300e-01,-5.589495910395458206e-02,-7.506697022615563264e-02,-2.489776213548674025e-02,1.969158530235290527e+00
7.843783104123905892e-01,-1.030029984270234289e+00,7.923689142558872911e-01,-8.121754934647004015e-03,1.368048615496913860e-02,-8.465841538336503838e-03,1.818684697151184082e+00
6.196416765586785225e-01,-2.812017210438285675e-01,6.190404490096712564e-01,-8.262639874493951870e-04,5.286577974695554072e-03,-3.756880188560605266e-03,9.006141424179077148e-01
8.791573323952104335e-01,-1.011864749093121851e+00,4.220667511460876042e-01,-3.669300724040893552e-02,1.911687842776226276e-01,4.608829348470741549e-02,1.743724703788757324e+00
2.421168060598894167e-01,-9.142656139220945999e-01,1.091810409722862252e+00,5.235894502840174498e-03,-1.341744488200669605e-01,3.485650785796446521e-02,1.760541319847106934e+00
9.722237890485886380e-01,-1.090734476717017509e+00,4.780920724220476536e-01,-1.263480012888434749e-02,1.272990404825372068e-01,6.715831162494864670e-02,1.882342815399169922e+00
9.465743781260846923e-01,-1.015113078784959821e+00,4.488619241333449139e-01,-5.265125647240256022e-03,-3.147388300221707486e-02,-3.175254021012392097e-02,1.767953276634216309e+00
7.967688931490982673e-01,-1.024608134923164382e+00,7.691252703315230033e-01,-3.577514125059588182e-04,2.713502321994847900e-03,1.958324998849038726e-02,1.808038115501403809e+00
7.298249741917753886e-01,-1.008374962036499678e+00,7.397105606560123725e-01,-9.995950784214394785e-03,-1.970546648593152553e-02,-8.897301818736207124e-03,1.743651866912841797e+00
9.302646111061687595e-01,-9.828097435420587447e-01,4.059067236018061298e-01,2.248738229478755568e-03,1.374631732157709577e-02,3.185570746363755069e-03,1.712390542030334473e+00
9.245828412172746313e-01,-1.015904482361190464e+00,5.081243201302614310e-01,-9.430367787360127013e-03,1.069135645814894148e-02,2.861033516835640583e-02,1.770271658897399902e+00
7.868379040431924265e-01,-1.021752571330896364e+00,7.269649934738335872e-01,-1.883733677151483432e-02,-5.710136499616807332e-03,3.693399894471461296e-03,1.779747724533081055e+00
6.219787772880102095e-01,-9.466788484761771150e-01,6.202176590962786840e-01,-4.497440156322805166e-02,-4.125643306854179237e-01,3.299511810753007202e-02,1.725656270980834961e+00
8.738886271505255099e-01,-9.877197622744694483e-01,4.811050552497210808e-01,-2.576838777505212341e-02,1.109745133735947353e-01,3.719728785517639746e-02,1.712233781814575195e+00
7.905935842030907823e-01,-1.001409473126120053e+00,6.676353795076760411e-01,-1.854580398746095982e-02,-1.429050278260311085e-02,-5.228116477406252217e-04,1.734271407127380371e+00
8.288632502903581223e-01,-1.002841988864071832e+00,6.318339014430762735e-01,-1.410665314573799310e-02,-1.342637405888566851e-02,5.624576088209881294e-03,1.741923570632934570e+00
8.841896894719025735e-01,-1.015981338060319761e+00,5.894619298267920193e-01,-2.401287703157853771e-03,-1.252866191804855468e-03,7.494972282943395195e-03,1.771347403526306152e+00
9.063994705758399162e-01,-1.003110569661940010e+00,5.008640429582272846e-01,-1.901067486153294045e-02,-2.798238960023296390e-02,-1.027264855804809092e-02,1.743577718734741211e+00
8.491146107815011890e-01,-1.045416160622189672e+00,6.339469856594577291e-01,5.300070075316626675e-03,3.452310363852391373e-02,3.576090820061945258e-02,1.798721432685852051e+00
6.521676460306373713e-01,-1.002201063894639921e+00,7.875135371735388912e-01,8.560064796471188522e-03,-2.821488091265351994e-02,-1.108738789578499022e-02,1.726888298988342285e+00
7.116897911805757371e-01,-9.998484314902729153e-01,7.567775489444164005e-01,-2.400962644219968231e-02,-4.815825396819460591e-02,-2.196289155116887964e-02,1.737440466880798340e+00
8.338275401926766861e-01,-9.882381490271407998e-01,5.743626729540702858e-01,-7.110707146295017732e-03,-1.255272800962096147e-01,-2.993237678180013604e-03,1.721026778221130371e+00
8.097530388900038290e-01,-9.965028789261742848e-01,6.416839060502199654e-01,1.317507565348774619e-02,-8.015169051994593119e-02,3.851198843288610937e-03,1.734090566635131836e+00
7.561384814545628608e-01,-1.016664145379390094e+00,7.354931943250593296e-01,-1.894994758006389446e-02,-8.250827357101650841e-03,4.604281821957757499e-04,1.762934327125549316e+00
6.656882467290199390e-01,-1.003942224133095529e+00,7.828892734375986207e-01,-1.848499532808368581e-02,-3.423562242402579392e-02,-1.669752050560716419e-02,1.732761383056640625e+00
7.600346767825283401e-01,-9.936915792939309267e-01,6.824970659456128796e-01,-1.057557435683998716e-02,-1.703616578517199928e-02,-9.233815506311762083e-04,1.716623663902282715e+00
7.442974237731840859e-01,-9.851274155264252430e-01,6.832578774911818309e-01,-4.548272109365028223e-03,-7.002643039975041742e-03,8.054372580085328260e-04,1.699789404869079590e+00
6.632072300412605870e-01,-5.181949124025944098e-01,6.849633815378382007e-01,1.715059392901135569e-03,1.007378972589213773e-03,-1.646732597011722320e-03,1.192437529563903809e+00
6.979142135753162446e-01,-1.005930535971473416e+00,7.587547476260845247e-01,-7.310733258333829837e-03,-2.199539263604522593e-02,-1.259750642068990442e-02,1.735666751861572266e+00
7.389038804799304971e-01,-1.012112018591436069e+00,7.735914337165664678e-01,-1.260838665292377848e-02,-1.863117346852412662e-02,-2.323073003839456335e-02,1.769501566886901855e+00
6.467607410571207804e-01,-9.925581655255990565e-01,7.648389066966673200e-01,-2.000197442986379956e-02,-2.787872106404278710e-02,-2.481370322917737792e-02,1.703013777732849121e+00
7.734494718637729971e-01,-1.032921219265876989e+00,7.729043441114262780e-01,-4.907613860969080657e-03,1.437085757658786676e-03,-7.085127554923398123e-03,1.806161642074584961e+00
7.870583024648191151e-01,-1.024937577840597358e+00,7.762718508052445232e-01,5.498377237745813093e-03,-2.516705857957306485e-03,-2.345130205561581169e-03,1.806661725044250488e+00
7.806387324955819107e-01,-1.033772760202635643e+00,7.820784644309104472e-01,3.425998671221215739e-03,-1.266880785249713086e-03,-1.912336506229166382e-03,1.815145850181579590e+00
7.976069597936222833e-01,-1.016714144269969422e+00,6.554415790572504230e-01,3.062972728011121096e-02,1.515776585402444088e-01,-2.328740695067557306e-02,1.768447637557983398e+00
7.837682506034652219e-01,-1.023389335862376237e+00,7.473069097368508773e-01,2.114866937792501955e-02,5.703113561623271432e-03,-1.103488201082739907e-02,1.789709806442260742e+00
7.801605740807824318e-01,-1.020706881442860592e+00,7.885139303320213289e-01,2.659240788909039872e-03,-6.011944769550943771e-03,3.906525840010240287e-03,1.805107235908508301e+00
7.198823538231581276e-01,-9.950806650494513628e-01,7.273994540599105774e-01,5.750695779154597290e-04,-3.813559517324336366e-03,-5.977146332880293881e-04,1.718747138977050781e+00
7.830800963712807317e-01,-1.030998686752043758e+00,7.867414868702373720e-01,1.285790118084254594e-03,-4.617892688397852788e-03,2.088678463307852215e-03,1.815934777259826660e+00
6.954876545730817039e-01,-1.008481749557957885e+00,7.877520016218997334e-01,-2.352391506645407776e-02,8.321787813347405680e-03,2.280726989204347882e-02,1.752902865409851074e+00
7.823388359345473386e-01,-1.033502316642790575e+00,7.870230670356543889e-01,4.412149816205013925e-03,-2.193114764612476113e-03,-1.143432726321237311e-03,1.818208932876586914e+00
7.753880435439298724e-01,-1.006501043321759159e+00,7.812114168987798202e-01,-1.216670332657861318e-03,-9.098615977765206475e-03,5.668285147637392232e-03,1.784905672073364258e+00
7.757867221442471539e-01,-1.011369330042554804e+00,7.816718228501717824e-01,-3.595767743105422395e-03,-1.037066342462200207e-03,2.211843083278388321e-03,1.790121674537658691e+00
7.919249284032285896e-01,-1.027196953615867825e+00,7.810742300523819681e-01,1.861620101163004651e-03,-5.091792736408297555e-03,-5.992553276099874183e-05,1.813745141029357910e+00
8.366270854479949115e-01,-1.010167421282441413e+00,6.163305543337881387e-01,9.884030886546426795e-03,1.695877487496694550e-02,9.795251474385891291e-03,1.747507333755493164e+00
7.887383927825568630e-01,-1.028766708665698415e+00,7.819748266391564062e-01,-6.873433810393032818e-04,-5.898825215289141451e-03,-6.908429517304819642e-04,1.814162373542785645e+00
7.765712411276988192e-01,-1.016490642439896286e+00,7.798476343220501761e-01,5.641154591747975060e-03,-1.545202328235892753e-03,-4.735951894264817108e-03,1.794749617576599121e+00
7.428746834409345468e-01,-9.975132264391107784e-01,7.104980425484047624e-01,1.054676479751581915e-02,4.129209652917412848e-03,-6.256412105765973061e-04,1.724539518356323242e+00
7.775106498347819084e-01,-1.018345148955240864e+00,7.887538568078522605e-01,4.377272921711803863e-03,-1.057355500438853175e-03,-4.941394652966914040e-03,1.801540970802307129e+00
1.265297172202092479e+00,-1.268782644633263734e+00,1.981637593829935484e-01,-5.082245141740331269e-03,-2.150957582299470594e-01,-7.951676592362008633e-02,2.239191293716430664e+00
8.996710934263920656e-01,-9.633611780141028147e-01,6.713139804887056084e-01,1.670891324629435529e-02,3.673675223160687356e-03,5.281784353806587978e-02,1.762624979019165039e+00
9.237669917890629634e-01,-9.838505627701888967e-01,6.344185681310342551e-01,5.812210962359844191e-02,2.546623568822141762e-03,1.136433343832103648e-01,1.794340968132019043e+00
7.796745498237236394e-01,-1.037076531376537769e+00,7.788502380875133024e-01,8.823759138675969609e-04,-1.757980228691829712e-03,6.410104778167523276e-04,1.816342592239379883e+00
7.859753967620257686e-01,-1.002360456887494644e+00,6.745787163255045904e-01,1.753275277280046812e-02,1.470896424337965816e-02,2.191040095946325105e-03,1.735777974128723145e+00
6.953608867808546146e-01,-8.041906644106342483e-01,7.690333242255489310e-01,9.685244522036395853e-03,6.129723129031202505e-03,1.924809272261852802e-03,1.537843704223632812e+00
8.538815057195654479e-01,-9.850933591946697820e-01,5.453897066454191922e-01,-5.173228579359178889e-03,-3.073424947241367930e-02,2.368165762594218009e-03,1.706639409065246582e+00
1.075411262456234196e+00,-1.166966809720409337e+00,6.646208830308181215e-01,-4.098344549315462160e-02,1.023821152251891686e-01,1.162643463143929815e-02,2.076716423034667969e+00
1.003293822042683470e+00,-1.087596285818287267e+00,5.588347497063673730e-01,1.902534179136127282e-02,-6.498401228298800181e-02,8.936537160514378738e-04,1.911493420600891113e+00
7.913878101511468977e-01,-9.900444519983534475e-01,6.377533794691119251e-01,-1.095830368228433230e-02,1.553030014232694225e-02,-2.903606662064970537e-03,1.710124015808105469e+00
7.811049289080234104e-01,-1.033456607404587890e+00,7.830078166196264844e-01,1.245272354851610511e-03,5.301985123915406960e-03,-1.587668325461500394e-03,1.815540313720703125e+00
8.438174701424396851e-01,-1.010443249030885227e+00,6.309396852813409229e-01,-9.705128939430901491e-03,-8.143690022867773950e-03,4.071742104661393857e-03,1.757668972015380859e+00
1.077521385822319155e+00,-1.142905187692474289e+00,3.898835116187934768e-01,-1.426589549839881767e-02,-5.946750256007782287e-02,3.515030816734656532e-02,1.972616791725158691e+00
1.247477597742285838e+00,-1.248286691933220283e+00,1.524023610014414165e-01,-8.033950319044572130e-02,-1.010435785045151746e-01,-6.367002293797842383e-02,2.181085586547851562e+00
1.420077989164586274e+00,-1.611007385584117380e+00,2.509584116720152691e-01,-2.467998005115822763e-02,-3.046146231016314543e-01,2.916841482264087571e-01,2.747008323669433594e+00
7.853530272825404168e-01,-1.033717546725087644e+00,7.885403098999675953e-01,-9.341542478939272561e-04,7.266193428664399767e-03,1.979090106598599495e-03,1.820713758468627930e+00
1.118976053553815353e+00,-1.170550543404069943e+00,5.134568229030016528e-01,-2.834231750856613941e-02,-1.378258949567145730e-01,-4.330443682505003694e-02,2.070569276809692383e+00
7.481564190243320533e-01,-9.782048991168915686e-01,6.377407043226024363e-01,-6.357359612914020679e-03,-3.418877548051334203e-02,1.223033651900354768e-03,1.674971580505371094e+00
9.149388429575979753e-01,-9.974159940135784996e-01,4.594365327889828876e-01,4.715442123912991657e-04,-1.328748130869875782e-02,-4.018942297343397474e-03,1.730341076850891113e+00
9.435185509689228978e-01,-7.619323044414698654e-01,2.959369704807303103e-01,-1.860482334183518813e-02,-1.147539569334634323e-02,2.731785989169416284e-02,1.492373347282409668e+00
1.250272887944968270e+00,-1.324271739742141740e+00,1.603558666939303712e-01,1.230397435901415676e-01,3.696215889023815038e-01,-1.703529310551776810e-01,2.356373548507690430e+00
8.058219475303527446e-01,-1.015218449645569843e+00,6.756076138952062937e-01,2.173071237370276243e-02,-1.154433465618995291e-02,1.812853782753950579e-02,1.760346770286560059e+00
6.912819827855942734e-01,-5.357868448916427440e-01,6.636356304275224938e-01,-6.355520424902039688e-03,-3.705471535569804329e-03,3.454570321896202958e-03,1.213563561439514160e+00
5.204031085172996507e-01,-9.873814148686830272e-01,8.650161843875669998e-01,-1.536778132352713136e-03,-2.652687441066082369e-02,5.390336317812998920e-03,1.707038283348083496e+00
8.988946973855017619e-01,-1.040226290504876694e+00,5.822430272922258787e-01,-2.887306424985703474e-02,6.723418438121642193e-02,2.492328430971177747e-02,1.806753516197204590e+00
6.682130298577821925e-01,-9.733403573864655156e-01,6.887108381831313908e-01,3.511663728845659978e-03,-8.257547431091831480e-02,1.151082146701648545e-02,1.658208847045898438e+00
1.150282799759423380e+00,-1.188307439972730029e+00,2.875713286239126587e-01,-5.434965537566326457e-03,-1.552161982982806776e-02,1.030864899062083340e-01,2.056316852569580078e+00
8.081395756001397146e-01,-9.900857443405246539e-01,6.823795464847705050e-01,2.539196227233026654e-02,-3.015198439644071332e-02,1.191627978351153354e-02,1.740221977233886719e+00
9.135987786186234860e-01,-1.004355019242291425e+00,5.031666799290602787e-01,-2.175038131888230603e-03,1.656314399993656650e-02,-5.079648333858161058e-02,1.751681923866271973e+00
7.808693072068948471e-01,-1.029410212963026039e+00,7.920128484792370305e-01,4.384381092950035384e-03,6.880134007352396892e-03,1.858199524531610903e-03,1.815934777259826660e+00
8.643991469344545209e-01,-9.854377291375824299e-01,5.259730768013872737e-01,6.110144445504932936e-03,-2.750250717026409691e-02,-2.418530897559276367e-03,1.706691026687622070e+00
1.136493442298758927e+00,-1.062667162627382922e+00,1.480585364463178066e-01,-6.462314252563439165e-02,7.344683691610462417e-02,4.143054043868670683e-02,1.916623353958129883e+00
7.186775858336669209e-01,-9.932365079224276805e-01,7.231172145319358924e-01,-9.523737660789401496e-03,-3.964809651865819698e-03,-9.782269938636057888e-04,1.714232206344604492e+00
4.327451267958962733e-01,-1.040105209517902196e+00,9.972482145139605070e-01,1.277553967623209358e-02,-1.472558487332127630e-01,2.663874525457049502e-02,1.840394496917724609e+00
7.188917689058720306e-01,-7.916954086822729497e-01,7.594349195798320018e-01,3.497726808974626426e-06,2.806062648370850291e-03,-4.235747855571310623e-03,1.531286597251892090e+00
5.091769739283710239e-01,-1.001661722170872348e+00,9.033847336529111649e-01,1.206209062903882551e-02,-1.429183161627103037e-02,4.300127019833336305e-03,1.742045402526855469e+00
4.755103678658069155e-01,-9.878473768149981238e-01,9.085571073949570975e-01,-2.053844408782415452e-03,-4.059285309501797778e-02,8.805373457228172010e-03,1.722740888595581055e+00
7.709522723975715808e-01,-1.015339690453417543e+00,7.324153549338361380e-01,-1.015475975783054936e-02,-8.232917910902009390e-03,4.616883497544400114e-04,1.767483830451965332e+00
7.465028361746760543e-01,-9.945038521087027350e-01,6.852004651200078733e-01,-1.846740173852118305e-02,-1.306524155239430912e-02,-5.207833932341115373e-04,1.711628079414367676e+00
5.039262175305017077e-01,-1.017684447443046647e+00,9.329986017660211184e-01,-1.450694035806730092e-02,4.375590040602674730e-02,-8.409587113363110183e-03,1.777321100234985352e+00
3.889964036315606832e-01,-1.002504650713472278e+00,9.500786184001341894e-01,-1.690230496239252325e-02,4.220660580760660086e-02,5.786748318905019992e-03,1.743025183677673340e+00
3.253047952062317894e-01,-1.619341860661431376e+00,1.325097561100984089e+00,1.525645682098908107e-01,-2.120995322451367238e-01,-3.241270531082943163e-02,2.633138418197631836e+00
4.471760974157101831e-01,-9.901323693833566919e-01,9.366858890724315545e-01,-1.746495027068795157e-03,2.508267553675085169e-03,3.532578933333457589e-03,1.734680771827697754e+00
4.439558614824369309e-01,-1.018592497036457933e+00,9.552093497187310600e-01,9.729047972607207662e-03,1.170797893176105976e-02,6.070317229183140768e-03,1.774532794952392578e+00
7.840587682507375034e-01,-1.027017115127873303e+00,7.861910297827983118e-01,-1.981059860656324712e-03,-1.414064560015333184e-02,2.889197424868681502e-03,1.812318563461303711e+00
7.867164653973011124e-01,-1.035921960254847951e+00,7.805907419783979506e-01,3.343509687569883558e-03,-5.746181543487907835e-03,-9.837730778449521249e-04,1.819620490074157715e+00
7.204257504101624354e-01,-9.836394480491273962e-01,7.054259270056699727e-01,6.590181164526255761e-04,8.801325132786861835e-03,3.458822024042795817e-04,1.696684002876281738e+00
7.678779024052349023e-01,-1.030702112763412392e+00,8.199141803288217956e-01,2.078895302224832015e-02,6.106970891659328597e-03,4.243825589910708504e-03,1.825555205345153809e+00
7.520863984916265066e-01,-1.022877517654698920e+00,7.711899199761456103e-01,4.705059660667594568e-03,1.442387098510377122e-02,-1.278146233878201671e-02,1.784923076629638672e+00
7.260154046280254958e-01,-1.033228939361780618e+00,8.190378686257007157e-01,2.663750556514079409e-02,2.483388913645914395e-02,-1.415099877904691522e-02,1.808817982673645020e+00
7.593078347438813047e-01,-1.024025575041093816e+00,7.598950884149071605e-01,5.886406280716230052e-03,-1.061514905905685158e-05,-5.736230164147799668e-03,1.783683896064758301e+00
7.580850706429298480e-01,-1.029930029526682445e+00,7.748578071369128795e-01,-8.732330302184663530e-04,-8.379210002786689065e-03,-1.025556555984704406e-03,1.796520352363586426e+00
7.441734771613974786e-01,-9.792323651936312157e-01,6.781985298629633618e-01,9.277861534350973285e-03,1.154023348642469783e-02,-8.626269543266490815e-04,1.691578745841979980e+00
1.067678135491727520e+00,-1.031834200584079486e+00,3.366353290883359883e-01,-3.527040297310211209e-02,-3.719498284537525734e-02,-1.188827416955275107e-02,1.848201513290405273e+00
7.781409594559001164e-01,-1.027461081808259014e+00,7.767267060437600401e-01,5.917906467621687587e-03,-1.496862048206946526e-03,-5.027862294918904532e-03,1.804947257041931152e+00
7.727514214298301098e-01,-1.030460500151247460e+00,7.721408626754453497e-01,7.377676611406946451e-03,-2.226022899449757106e-03,-3.659874582352547179e-04,1.802956223487854004e+00
7.755978978612444452e-01,-1.030753528248066209e+00,7.718506114978631594e-01,8.253159737398920934e-03,-3.345697929118497324e-03,-8.700366254882493326e-04,1.804547309875488281e+00
9.220297402352024552e-01,-9.989221841431417115e-01,4.653896924008613656e-01,2.488894896465718674e-03,5.385219840801560437e-03,-6.199512044419435916e-03,1.738278985023498535e+00
8.027331588312986987e-01,-9.859315415956941830e-01,7.806860130518993302e-01,3.897404993466786066e-02,-6.405212154121323748e-03,2.441223030574929376e-04,1.779059529304504395e+00
7.722982211620472714e-01,-1.034169035939653591e+00,8.226518145162100559e-01,1.832831843110881154e-02,-6.952206593457061976e-03,-2.389721350546848005e-02,1.832945108413696289e+00
7.970593960410320422e-01,-9.777712748272299192e-01,5.928811862550186218e-01,1.088576704553728854e-02,2.623250789591334217e-02,7.040735162188512409e-04,1.682781100273132324e+00
7.250946175711330266e-01,-9.914912444516625900e-01,7.316851280138803038e-01,-1.006558829923525668e-02,1.986207327148595964e-02,1.283773589252742119e-02,1.720466613769531250e+00
6.606509389379697783e-01,-1.010756535380059828e+00,8.614047056416429538e-01,-2.207958612596303428e-03,-5.331618740236943044e-02,1.270007754568578014e-02,1.782827138900756836e+00
6.579762543580018885e-01,-1.042062524130248136e+00,8.574603325187504232e-01,2.740535099271907554e-02,-3.812612480886788668e-02,-1.276907030872820314e-02,1.810016393661499023e+00
8.063032305978001801e-01,-1.015195448374774490e+00,7.009344352382693710e-01,-2.475333055807886484e-02,5.960757429871264834e-02,1.285553546459762249e-03,1.774692416191101074e+00
6.900767080291312361e-01,-5.669554755929721024e-01,6.731476617215871316e-01,2.284328834916776740e-03,1.420008801685319379e-02,3.387498189722090106e-03,1.248916029930114746e+00
9.064913779405547878e-01,-9.947758550915463127e-01,4.673045303594995925e-01,-4.153553654081332432e-03,4.870228663064319480e-03,-6.149243434622767013e-03,1.724217772483825684e+00
6.619056110072161214e-01,-8.548829317032511366e-01,8.393170043080253606e-01,7.626822796628604517e-02,-2.135689507328469156e-02,-6.124298704009033603e-03,1.618687510490417480e+00
7.345717886749497660e-01,-1.005852930630633635e+00,7.395631795459571833e-01,-4.424363245143368012e-03,-1.054945965130021316e-03,-7.720759516173091898e-03,1.742994904518127441e+00
7.115952102449862871e-01,-1.021177513336436693e+00,8.294710715656548050e-01,-1.931230175571506044e-02,3.589118465398551377e-03,-1.424349155561454965e-02,1.795108437538146973e+00
6.902694226672345668e-01,-9.984691154074113451e-01,8.355334695213330054e-01,-1.751846355452772730e-02,-2.929629776056564064e-03,-3.991158014274870380e-02,1.767477750778198242e+00
6.979644883659628096e-01,-4.122729869087481402e-01,7.154123320780321205e-01,1.164118750713863393e-01,2.118681092536107285e-02,9.545692145074549662e-02,1.149626374244689941e+00
7.259833182900325976e-01,-9.845552800827520601e-01,6.977455391817861674e-01,-2.915767819664773219e-03,-6.777835154805142079e-03,-6.075210215354683680e-04,1.696644425392150879e+00
7.829665298821157915e-01,-1.033091169428448586e+00,7.852880960042571967e-01,-3.383175712595552428e-03,2.694178000496559588e-03,4.850294080952417299e-04,1.817235231399536133e+00
6.477970367674195096e-01,-2.969051250509613937e-01,6.554433124302472269e-01,4.318040896721148797e-02,6.422474701551939870e-03,4.026948225632556028e-02,9.541102647781372070e-01
8.581755142785008061e-01,-1.009989370528020070e+00,5.827987571554040791e-01,-1.097278781984106950e-02,1.280401624890916898e-02,-7.006794755448783607e-03,1.747118592262268066e+00
6.806491403282055597e-01,-7.000583782964975299e-02,1.060895757705073050e+00,4.431383316410901496e-02,4.078806436877578656e-02,4.343533448475862813e-02,1.005010604858398438e+00
6.655583948592760368e-01,-4.729780196726022234e-01,6.624887851064493738e-01,4.213905261056824503e-02,7.550811404266419974e-03,8.118025113653523639e-02,1.148062944412231445e+00
8.306343545563610320e-01,-1.019383424074318034e+00,7.186039359868261478e-01,-8.271863629827885117e-03,-2.677636184499859566e-03,1.612485284898840590e-02,1.796904325485229492e+00
6.067869932654229581e-01,-3.082089173156095097e-01,6.299146879133850074e-01,-6.285872093373025965e-04,-6.488123993793216276e-03,1.157681216954793571e-03,9.268471598625183105e-01
7.954132466754560982e-01,-9.826157334278269317e-01,6.102270130454919839e-01,-7.794121334244999075e-03,-2.389503030714945631e-02,1.172454233223806444e-03,1.693609714508056641e+00
7.794637410498759245e-01,-1.037111986235965677e+00,7.862216135415497353e-01,-4.297206405361911168e-03,5.459218611841986854e-03,6.203081232955099374e-07,1.820003867149353027e+00
6.916590226477723480e-01,-5.293708064217710341e-01,6.848232425927016642e-01,1.485355913349595443e-03,1.523333208572040000e-02,5.034892971955268193e-02,1.221033096313476562e+00
6.736007309283202904e-01,-4.479866594301835092e-01,6.696327368972561089e-01,-4.342357382630401830e-02,1.995368903345392034e-02,-4.732183030745697704e-03,1.122694134712219238e+00
7.002028609250748881e-01,-6.768875679218187003e-01,7.145717894356204969e-01,4.071444056566587977e-02,1.370129646415664537e-02,6.814079308850334860e-02,1.391343832015991211e+00
6.551264344879852430e-01,-3.613439271000470354e-01,6.410195528048229230e-01,5.670146534936203186e-02,9.055509073408050252e-03,3.756336837919974081e-02,1.016462445259094238e+00
6.124794628563591248e-01,-6.731305768933771860e-01,7.105799379902053570e-01,9.852135195547848112e-02,2.285256274085170070e-01,-2.167306018976211668e-01,1.454387664794921875e+00
7.113697464888378841e-01,-9.845919927883316491e-01,7.130964384153480884e-01,-2.975873901441007750e-03,-5.844634383453424856e-03,-6.644681146875145664e-04,1.696864128112792969e+00
6.706643164492476217e-01,-9.830677179646523101e-01,7.449039419113161475e-01,1.372169406502391550e-03,-1.830696288385363912e-02,7.316154264240983321e-03,1.692419886589050293e+00
7.220053899185501223e-01,-9.815684056791398326e-01,7.012996163241015379e-01,5.739361960468147839e-03,-1.721753532181241044e-03,8.761293908230421285e-04,1.693348288536071777e+00
6.548492225530622157e-01,-3.624101340596774801e-01,6.410949340614354730e-01,5.895657352069343105e-02,9.265303464565069480e-03,3.722461216288785318e-02,1.017770290374755859e+00
1.000237130926157514e+00,-1.015889564146746027e+00,4.386360255302702571e-01,-1.042313776667737890e-01,-3.181916192670592447e-01,4.693964474973415929e-02,1.894952178001403809e+00
7.823741943806999943e-01,-3.974783181634223284e-01,5.178547213498847501e-01,-5.564861487534154827e-02,-1.992881941596734707e-01,-2.343032840333001965e-01,1.201274394989013672e+00
6.909189410213545379e-01,-6.425172093126811923e-01,7.128234593086728577e-01,4.121681041022357038e-04,2.052024063227211176e-02,5.496061822906445071e-02,1.348356723785400391e+00
7.390509895367678439e-01,-9.805506974806712517e-01,6.741065491725396486e-01,-6.392523321605127727e-03,-1.191922581210863759e-02,1.188958820357910451e-03,1.688230514526367188e+00
7.557227474392321787e-01,-9.155798434101980465e-01,7.691355704609590394e-01,-2.905421421784007505e-03,1.052551837494282265e-02,-1.072305952958143432e-02,1.678258538246154785e+00
7.314961119758107699e-01,-7.585335376506154859e-01,7.307186401497400841e-01,-7.649307752619024549e-03,-3.726418669645419415e-03,-8.499123539148394080e-02,1.496969699859619141e+00
7.960980611465950929e-01,-1.025506338373100013e+00,7.820394629482780857e-01,-9.379014882164456629e-07,1.359840368313790021e-03,2.364990871111485871e-03,1.814622044563293457e+00
9.335831945333923354e-01,-6.422180762308952184e-01,2.069440821778546491e-01,-2.622891841904844909e-02,1.743484762102449556e-02,-1.329961701484770331e-01,1.386417984962463379e+00
9.674327158501669910e-01,-1.091862987300799226e+00,6.771123084969645767e-01,1.054226334949353097e-02,1.779552957951628656e-02,-7.387520439416886409e-02,1.935144782066345215e+00
7.494369074959188470e-01,-1.016924315253012523e+00,7.616551491696437193e-01,-2.189511672666849572e-04,7.905795628276351267e-03,-6.727938042443207245e-05,1.772554874420166016e+00
7.809999610909255097e-01,-1.035897259328352416e+00,7.855038249034518305e-01,-3.461008853302173938e-03,-2.018798316138659121e-03,2.885652501797417689e-03,1.819173455238342285e+00
9.511324637559853690e-01,-8.595716580073209379e-01,3.872066312384024878e-01,-5.592589704392098710e-03,-2.084169029937024686e-01,7.190149798284535543e-02,1.649689435958862305e+00
7.140338397726503361e-01,-9.802356906576487061e-01,6.958796189921496733e-01,3.301737782449933631e-04,1.675690548164603458e-02,-2.113019910950658274e-04,1.685515761375427246e+00
8.707162578501848049e-01,-1.069483012409621070e+00,7.284668794850730489e-01,-1.497022727362476782e-02,-3.220795383667879319e-02,2.711518103040058345e-02,1.874728202819824219e+00
7.082971104631462511e-01,-9.821973259518979038e-01,8.121398969063009510e-01,9.397885798530052764e-03,2.408065262879729648e-02,1.563298716424858098e-02,1.745519399642944336e+00
7.745224353442980991e-01,-1.003211376967672486e+00,7.938907300016193602e-01,3.830113105282960308e-03,-7.042053856044319139e-03,-1.375067379141444064e-02,1.787709236145019531e+00
7.418922023110092745e-01,-1.007260512076733061e+00,7.218472393338360993e-01,-8.704709416999550919e-03,3.403447932263372472e-02,1.443383581617956046e-02,1.740460515022277832e+00
7.542997139002105556e-01,-9.106392654847379475e-01,7.715873698785706836e-01,2.123327604664116547e-02,-9.052784210604087473e-03,-2.143080152580932943e-02,1.674538731575012207e+00
7.696451253875739029e-01,-1.003410071078228771e+00,7.864164508766768868e-01,-1.664126623709535284e-04,-4.771864111453436551e-03,-2.413511800328330646e-03,1.781524181365966797e+00
7.709887449771462009e-01,-1.017540883522938699e+00,7.442167025552521853e-01,-9.480305198616818807e-03,3.885138637819585995e-03,-8.829732608701095897e-04,1.775384306907653809e+00
1.057717846752994406e+00,-1.035728454709760937e+00,3.938112266162222541e-01,4.642373276073641364e-02,1.865765124419125065e-01,4.076475809247351312e-02,1.883963823318481445e+00
8.021778456866981433e-01,-1.011449903377162229e+00,6.644670652785297227e-01,-1.544590380663994275e-02,3.382733365728411712e-02,1.349055277973118007e-02,1.750185251235961914e+00
8.432278603910017267e-01,-1.006515477660593350e+00,5.847015091439178303e-01,-1.755918723290466124e-02,8.403805613004074887e-03,-6.667891190717476976e-03,1.735352754592895508e+00
7.676240102490672346e-01,-1.019188873631128756e+00,7.445177232368210829e-01,-1.453160010546448826e-02,1.046192482087713975e-02,1.348502511528017374e-02,1.775797009468078613e+00
7.311883110573208500e-01,-1.007277759780810023e+00,7.337836454293705790e-01,-1.000386678640024021e-02,2.344901576130989374e-02,8.083975850261975599e-03,1.740381836891174316e+00
1.224964999826833045e+00,-1.199852359969638682e+00,1.259846725204018802e-01,1.282143391755705478e-03,-2.035891762415774631e-01,3.562656195610995613e-02,2.133267164230346680e+00
9.304706274053389237e-01,-9.788882635843825231e-01,4.410566802889924753e-01,-6.608168353393797500e-04,4.944269749131705721e-02,-5.527035882193582529e-03,1.719923615455627441e+00
6.296887864444568050e-01,-4.544931967125642180e-01,6.803448576279597093e-01,8.954643122501000207e-04,8.909748261231661623e-03,1.842304526717021898e-03,1.110489845275878906e+00
1.550638616303570416e-01,-1.080019179965529652e+00,1.139989547749654886e+00,2.059852900502019690e-02,-1.047737566129811754e-01,2.796086165992382050e-02,1.936110734939575195e+00
3.519417215632855700e-01,-1.147344048403220240e+00,9.799789226139777876e-01,6.573374155553991446e-03,-3.712999877658321179e-01,7.025437320545301068e-02,2.003103494644165039e+00
7.958516421556287579e-01,-9.819383775829462202e-01,6.072052082796622896e-01,6.460870813990409432e-03,-2.753764967066655092e-02,4.295072708082106334e-04,1.692085027694702148e+00
3.939280889897935345e-01,-1.004879329697618395e+00,1.074701580816170177e+00,1.637980233658415663e-01,-5.336603592140862773e-01,-9.851778355225342121e-02,2.082395792007446289e+00
3.625000243540665301e-01,-9.856088027708026500e-01,9.352004253277744761e-01,1.129499626698994222e-04,-1.175886992228719896e-01,-9.611504644415864301e-03,1.720233678817749023e+00
1.074819007037979002e-01,-1.129609259365611740e+00,1.310564528647249594e+00,7.475428765433762834e-02,-2.491303211520782546e-01,-1.098332157960468236e-01,2.169165134429931641e+00
5.275287983102099343e-01,-1.007865799385374572e+00,9.008346745909865394e-01,5.768684304815739974e-03,-1.056680845880625039e-02,-1.330591278964944960e-02,1.752407431602478027e+00
3.698191910559419648e-01,-1.002184790183255014e+00,9.206687041615884137e-01,1.427931003335158281e-04,-1.132343518736629029e-01,1.328432780041614684e-02,1.726439476013183594e+00
7.087581178182834618e-01,-7.012245515217138125e-01,7.086290715687177943e-01,4.423189978589999946e-03,2.024486547719603347e-02,5.946258158107200348e-03,1.410412549972534180e+00
6.838478211476948232e-01,-1.234471156123654323e+00,9.512029998334968761e-01,3.298605951352692051e-02,-2.654441442128095963e-01,6.098949199199635296e-02,2.118986606597900391e+00
3.619200251534832047e-01,-1.044385156123613045e+00,1.081535845646789173e+00,2.106399456480754790e-03,-4.822449963691803621e-02,5.062469116446800810e-02,1.876757621765136719e+00
3.634838152608343420e-01,-1.194012454020721758e+00,1.126571467595969933e+00,-5.117549231885294703e-02,-7.196190863445238450e-02,-3.075937275640459184e-03,2.054269790649414062e+00
9.489804854036620885e-01,-1.026839550452456118e+00,4.846884954865602335e-01,2.809531200668788538e-03,-1.304070945737643289e-02,1.883970757658876005e-02,1.789880752563476562e+00
3.176775633609209004e-01,-1.166585475951985584e+00,1.113558596895362962e+00,-1.115620475803977135e-01,-3.847826071155732719e-02,2.836710803054007940e-02,2.015429019927978516e+00
4.304557726439617316e-01,-1.190686287101632157e+00,1.103514083458621675e+00,8.809383031964064525e-02,-3.155757673732226265e-02,2.276960956339913605e-02,2.049403905868530273e+00
7.214201742404869888e-01,-9.880489439959935227e-01,7.133678561028985454e-01,5.379340307325209368e-03,-2.143831522505002928e-03,4.239552101602840455e-03,1.705502510070800781e+00
3.993936449589609028e-01,-2.337728359198075978e+00,1.864098120825054439e+00,-8.075320946866751393e-02,-5.165885075978033925e-01,7.865788003123777572e-03,3.803499698638916016e+00
4.725124713906235785e-01,-1.009541394276668225e+00,9.361509972402037860e-01,-3.808467706562544425e-03,6.672615137025950278e-03,8.411229567322760919e-03,1.760389447212219238e+00
4.203988483588773084e-01,-9.781777320653843866e-01,8.994518374914559633e-01,8.740074571508280662e-05,-9.349677804090340827e-02,6.920790165079609285e-03,1.697606921195983887e+00
9.436075606227958268e-01,-1.020895974598328149e+00,4.528482684454185336e-01,-4.390654094474199208e-03,4.207894772222558338e-02,2.930681580583842372e-02,1.773123502731323242e+00
8.854671701368652670e-01,-1.007344137617758095e+00,5.114336527813148070e-01,-2.317949857566048433e-02,-5.752957327326629899e-02,-2.311927798125514369e-02,1.740058898925781250e+00
1.048174080841740130e+00,-1.144288959056660060e+00,4.256259165104858688e-01,-4.630329698329135706e-03,-6.820972498300825748e-02,-1.083862516344856952e-03,1.960502982139587402e+00
1.050670705484844536e+00,-1.177837846209362604e+00,4.949052356169831302e-01,-1.140303286403670895e-02,-1.369822696268691298e-01,-4.804150003871159036e-02,2.024896144866943359e+00
7.431748153389362566e-01,-9.817463424587363763e-01,6.736436764420160594e-01,6.976175034452718714e-03,-1.549607439619537716e-02,1.087147256055199943e-03,1.691485047340393066e+00
4.214237335753614477e-01,-1.094821606981988937e+00,8.813315002476092008e-01,-1.125964538514622609e-01,-3.632600468371814939e-01,-5.788265504458277311e-02,1.910970091819763184e+00
9.261958498805407114e-01,-1.588424656398137902e+00,7.862649241289059177e-01,9.786067481289484338e-02,-7.711821196156776193e-01,4.424510326499963772e-03,2.793560028076171875e+00
9.655316010913235214e-01,-1.810996942033317181e-01,9.595563019560096052e-01,4.888608247737129438e-03,-1.107463269155324892e-01,-5.088036950962882693e-02,1.163004755973815918e+00
7.739269270690865010e-01,-1.035860660065506034e+00,7.795360823058850031e-01,-2.405497020945212942e-03,-7.956431921535008596e-04,3.889577315546557165e-04,1.812604069709777832e+00
7.979685435567588359e-01,-1.008554467085045481e+00,7.752334250562096241e-01,3.868982642096468853e-03,2.362115431642352204e-03,2.036993492059412710e-03,1.795284032821655273e+00
9.485472399595937798e-01,-1.062217083112433347e+00,5.508278815185707611e-01,-2.953315472411404199e-02,-3.272764446297563024e-02,-3.231916454875763400e-02,1.846780300140380859e+00
7.530686836880406965e-01,-1.014124027031528152e+00,7.381311713956222320e-01,-2.661263482986819351e-04,5.477373933569090747e-03,1.139338612319582694e-02,1.759907722473144531e+00
9.197860465162848165e-01,-1.003440773902126715e+00,4.850057692697313794e-01,-3.966644116945548804e-03,-3.823379559914059922e-02,-5.919222801325408831e-03,1.748196840286254883e+00
9.064180848393139645e-01,-1.008551369445922941e+00,4.933437113191897483e-01,6.401768394731139657e-03,-4.610673272329617045e-02,-5.350734311265186588e-03,1.747369408607482910e+00
9.955789781269144267e-01,-1.020518251417755762e+00,3.757875666847998453e-01,-1.465692158750201216e-02,-1.007356452637111210e-01,-2.579534526779348608e-02,1.797863602638244629e+00
7.773338150871721419e-01,-1.035068835626025141e+00,7.743602420090973659e-01,2.964965494146004025e-03,-9.974688974452852394e-04,3.842303104647510313e-03,1.810938000679016113e+00
7.755769194241817210e-01,-1.035108657114142572e+00,7.756296103995103941e-01,3.314759023521148158e-03,-5.343229816046196883e-04,3.717066450131679967e-03,1.810732722282409668e+00
7.412541009250442903e-01,-9.985199661217499800e-01,7.214337568041589988e-01,2.997302641253598806e-04,1.090630697315474532e-02,8.737211457200239843e-04,1.730052947998046875e+00
7.543165515446378366e-01,-1.021916655246279726e+00,7.553488406066116712e-01,5.030291193433358843e-03,-7.458354996126266047e-03,4.380179590878490771e-03,1.776834130287170410e+00
7.574891300253673299e-01,-1.022949968457772529e+00,7.619191545622531203e-01,5.227571533074940394e-03,-2.029092985199421745e-03,6.239071045184209352e-03,1.782717466354370117e+00
7.970172923077241123e-01,-1.022056777595569343e+00,7.675165703559736485e-01,5.931169560109001739e-03,-4.729084711520727471e-03,2.205079554789254534e-02,1.804956555366516113e+00
7.430138003878302699e-01,-8.678789034746839937e-01,7.626772523081426503e-01,-4.025710920358930613e-03,7.549369685818414430e-03,2.855103178051205878e-02,1.621635794639587402e+00
6.879508675788873484e-01,-1.028641342738390474e+00,8.447318008293965841e-01,1.299939721820210156e-02,-6.249899892926127735e-03,1.667313535690391046e-03,1.800286173820495605e+00
7.941864399976286126e-01,-9.949911742871726528e-01,6.384272180909545957e-01,-1.669666637718897340e-02,2.124883514004908408e-02,1.406240473592034086e-03,1.717245817184448242e+00
7.723847511600326898e-01,-9.938448628697328369e-01,7.862217802687120338e-01,-2.166731643442321425e-03,8.605351475403422157e-03,1.523711930740113095e-02,1.773451566696166992e+00
7.480254270633563962e-01,-1.034059997956426002e+00,7.966376241424241167e-01,-2.117507415896333067e-02,2.784970659998113607e-02,1.718452666509791282e-02,1.808142900466918945e+00
7.846042522604703695e-01,-1.033943865143498897e+00,7.945513442891620759e-01,-8.089421606527626152e-03,8.164977830280684828e-03,9.125061633801067468e-03,1.823719143867492676e+00
7.253980732505220796e-01,-7.642930496400008877e-01,7.287998027196697093e-01,-6.096125677773109319e-03,2.042074009441885787e-02,-3.075931666684203567e-03,1.491861104965209961e+00
9.587624576622342243e-01,-9.977996465113518898e-01,4.139689000753685177e-01,1.306415755014931224e-03,-1.624387098123863601e-02,2.795299046367218012e-03,1.749237895011901855e+00
7.340170246578132662e-01,-9.459983047182498606e-01,7.717130837947885347e-01,-6.432706906892189658e-03,2.057355876730653649e-02,1.401567777652279641e-02,1.699760437011718750e+00
7.708161693085668897e-01,-9.641095909320682722e-01,7.740745053511874918e-01,2.080510535789837235e-03,1.361153361377235443e-02,5.395068524398466099e-04,1.736721277236938477e+00
7.848775583907329212e-01,-1.024323166267275598e+00,7.888206218565974037e-01,-1.211442047190852862e-03,-2.252370608038144206e-03,-3.247030461342092708e-03,1.811189651489257812e+00
7.147749976863853050e-01,-1.010148527851867595e+00,8.011285308725095700e-01,1.543688093355509786e-02,-1.825635066407673996e-03,-5.019340311057918745e-04,1.769886136054992676e+00
8.670144508719419552e-01,-1.011115166672621690e+00,5.814730718494404149e-01,-1.001095370513109713e-02,1.183494436604178371e-02,-7.185500836681794207e-03,1.753139138221740723e+00
7.698779275352873874e-01,-1.027843654177755139e+00,7.943901218278770493e-01,-4.260319588660419279e-03,-4.533446789781609039e-03,-4.298035430752192992e-03,1.810149550437927246e+00
7.790264083562293829e-01,-1.018897136859990615e+00,7.903945348465035714e-01,8.791407596529392937e-03,-1.302005509671576387e-03,1.260874260041875338e-03,1.803701519966125488e+00
7.825503402098947792e-01,-1.021903452519289379e+00,7.918893330876337622e-01,7.840317339254831985e-03,2.291686066258013642e-03,2.320426691647389100e-03,1.809201121330261230e+00
1.045285018308789615e+00,-1.053204858600058635e+00,4.942289442903370356e-01,-2.741094109091333011e-02,7.883636133619674859e-04,7.434201513497357139e-02,1.889384269714355469e+00
8.654746715972128079e-01,-1.012385395892787754e+00,5.806111204092994083e-01,-2.405207952140867803e-03,-4.638052132650546944e-03,-1.066120004175387902e-02,1.752995967864990234e+00
7.972872015378209554e-01,-1.016610106681786307e+00,7.722190167199944888e-01,-9.981369582613435279e-03,-4.527407443854058328e-03,5.468368341951118389e-04,1.801594257354736328e+00
7.796394607442667102e-01,-9.497563372073483112e-01,7.692456139291652395e-01,-1.655190849152304508e-02,2.145218538999715818e-02,-1.980739853731689967e-02,1.725202083587646484e+00
7.906466483980760795e-01,-9.930468673399375223e-01,7.748695753046953572e-01,-1.706215957620004636e-02,-5.568362076749704993e-03,7.445400836968102485e-04,1.776130080223083496e+00
7.895767327463290020e-01,-9.813579836297471326e-01,7.648165636844782567e-01,-1.771278359144196415e-02,-4.766054473760459285e-03,1.749727068820057909e-03,1.758974909782409668e+00
7.947672089650782423e-01,-1.019154396367116133e+00,7.876673016361074309e-01,-1.074453488644870787e-02,-5.747334788633125593e-03,1.353273701488227855e-03,1.810506582260131836e+00
7.902046013580183992e-01,-9.870655278941917743e-01,7.674942396028112679e-01,-1.650751542851878334e-02,-4.137685827467665022e-03,-3.333834929235403939e-04,1.766270518302917480e+00
6.300198298294795718e-01,-1.001931398107823057e+00,8.162714767888468170e-01,-1.050036524032599110e-02,-7.365563769698546537e-02,-9.620481162187461549e-03,1.737467169761657715e+00
5.908581318336216803e-01,-1.084070679605501519e+00,9.016068550202962495e-01,-5.757081335698441271e-02,-4.121694266627325826e-02,-3.690348024808047522e-02,1.855143785476684570e+00
5.426182455964080331e-01,-1.016750479484500147e+00,8.717713234917705556e-01,7.758574412742882910e-04,-4.795212225340340917e-02,-3.189620918185370399e-03,1.749335289001464844e+00
7.483446054796228930e-01,-9.478401855635794071e-01,7.575547104833896261e-01,9.206894707430178862e-03,-1.174551568170404195e-02,9.473574729900340052e-03,1.701084136962890625e+00
6.839542072315664134e-01,-9.857968599792565900e-01,8.482958642540494587e-01,-3.073890463659907299e-02,-4.182652908415395582e-02,-4.073958158337438566e-03,1.760005474090576172e+00
7.715564272230901466e-01,-1.022415101718851860e+00,7.754338178659538894e-01,3.104833072224309418e-03,-2.269949473856769200e-03,7.654351949753344757e-03,1.795974612236022949e+00
8.229351490614977838e-01,-1.020449306550949897e+00,6.900686843566462558e-01,1.886813596101557383e-02,-6.068636903358355650e-03,-6.144198369102721498e-03,1.781035542488098145e+00
7.604271017610800820e-01,-1.131016540925350755e+00,8.304624575580843437e-01,-4.901337204171621331e-02,-1.913406938705795590e-01,-1.009892840549805881e-02,1.957620620727539062e+00
7.598131604700952835e-01,-1.009439416878908480e+00,6.997968978717633570e-01,1.438589385887126954e-02,-2.172424484560264712e-02,1.367681728868737866e-02,1.740767240524291992e+00
7.704780947239581179e-01,-1.025806727281789010e+00,7.685847110369052881e-01,1.287954671766143068e-02,2.910944222653596460e-03,1.004105023490872370e-02,1.795568823814392090e+00
7.917526774546606028e-01,-8.846192021637144798e-01,8.249802922485622858e-01,9.221122974284808038e-02,-6.968095553591717450e-02,-9.740095421550661395e-03,1.705106496810913086e+00
7.414093517340687445e-01,-9.984084181318255702e-01,7.214618931333121044e-01,1.003651045089279034e-02,-7.288660111631583942e-04,8.665096574007282631e-04,1.730018734931945801e+00
7.558602769674044319e-01,-9.682086621660226378e-01,7.967485067237414231e-01,-1.775345369904110656e-04,1.016413562677702907e-03,-2.281879633213608483e-02,1.745320916175842285e+00
8.024099135185488452e-01,-1.029195620951534496e+00,7.701337586401286739e-01,8.292466021389801245e-04,-1.307346131354258012e-03,-1.431511761705239923e-02,1.815853834152221680e+00
7.568214061577533958e-01,-1.001748658727770191e+00,7.092486990492405941e-01,1.696143228759007179e-02,-4.216602577917514041e-03,2.184837954676692754e-04,1.735536932945251465e+00
6.257361533974342693e-01,-1.110050092995248150e+00,8.996828261539406846e-01,6.598267846400801551e-02,-4.281111046828890709e-02,-3.426558434309355094e-03,1.892645835876464844e+00
7.818405714183870314e-01,-1.034261272322842817e+00,7.639294154959556105e-01,2.398063239290725880e-03,3.986500629003322544e-04,2.466114517943594417e-03,1.807222843170166016e+00
7.718843976080572711e-01,-1.017856976800760815e+00,7.372734697852458829e-01,1.722007692873791379e-02,-8.223107127140630388e-04,-1.302767725015342931e-03,1.772942304611206055e+00
7.416837302996501791e-01,-8.547520600769984433e-01,7.640218281222170837e-01,-3.358017116483963567e-03,2.161921483826344682e-03,-3.112107828319928340e-02,1.608639478683471680e+00
7.981261175956355647e-01,-1.008250536424329713e+00,7.721198448940796988e-01,3.811395545693182889e-03,3.441685943167365055e-04,1.481346344779362100e-03,1.793529033660888672e+00
7.734295442234110363e-01,-1.011501380937515293e+00,7.950196910494640168e-01,1.416688533780929545e-03,2.839711798993611695e-03,-6.258365813953190547e-03,1.795864462852478027e+00
7.709288035253814009e-01,-1.023812964328894681e+00,7.535204444294325565e-01,-1.205232040776779701e-02,2.380604213458875282e-03,6.169852282306758674e-03,1.786259889602661133e+00
7.879997917532288731e-01,-1.025182977697180364e+00,7.821552114151675283e-01,6.329056165826263750e-03,-5.553270450230855110e-03,7.599154478946266653e-03,1.810374140739440918e+00
7.781185788344328058e-01,-1.033960625230731623e+00,7.796774164360492643e-01,-6.552122322314748309e-03,-2.443515537281440962e-03,4.321362479335357464e-03,1.812915086746215820e+00
7.848573782697318979e-01,-1.026517680495425022e+00,7.809975699372668778e-01,-3.621727051793444899e-03,-8.944082902563328663e-03,3.836960037562660818e-03,1.809537649154663086e+00
7.629615421565575373e-01,-9.697348984124938287e-01,7.959786069904133399e-01,-5.714225259265559185e-04,2.639641408980204166e-03,-2.249092894866001890e-02,1.749878525733947754e+00
8.477144010574331201e-01,-1.056060769127415755e+00,7.807889251728834523e-01,-4.437865833248793787e-03,1.447618455367020163e-01,-2.425627202125164514e-02,1.888417363166809082e+00
7.922685864003800038e-01,-1.021641762083902227e+00,7.823161477784378315e-01,-4.480394919739769111e-03,-1.540652395976180279e-04,2.709520205157316683e-04,1.808971405029296875e+00
7.098359634539674889e-01,-5.675589613562517233e-01,6.952851234814412251e-01,-4.034029955512595869e-03,-1.071832939222455228e-03,1.324281944654325527e-01,1.290746450424194336e+00
6.600872475267784978e-01,1.056753783784455947e-01,7.974572066664171732e-01,4.653972243115774010e-02,-2.817591758786957071e-02,5.718147603540737339e-02,6.489154100418090820e-01
7.796517967518218351e-01,-1.034179312262796024e+00,7.839289751777669402e-01,-2.351494752648982615e-03,-4.768256613595743022e-03,3.620477053966732542e-03,1.816007614135742188e+00
7.172585820903356613e-01,-4.345531772028266015e-02,6.670367991435880439e-01,-7.662560764143513947e-02,-7.655217116978627924e-03,4.904470740850095517e-02,7.536643147468566895e-01
7.125815089491509546e-01,-5.701299666452541715e-01,7.454520873435499517e-01,7.143690747482472903e-03,-1.375866505904929822e-03,1.403893037045852443e-01,1.322073698043823242e+00
7.902827277657966665e-01,-1.017435990208702679e+00,7.172766566645811803e-01,-1.452148636712415411e-02,8.649850983316123565e-03,-3.328771417770213722e-03,1.772594928741455078e+00
7.782583824317497179e-01,-1.033896103769521790e+00,7.799606576353407261e-01,-3.251743582553102193e-03,-1.430837123080399512e-03,-3.119470247311146444e-04,1.813016772270202637e+00
7.511615555654033161e-01,-5.478895304362696450e-02,8.727648265092580182e-01,1.608603137906040176e-02,-1.207754110548103360e-01,4.091238078945883677e-02,9.010591506958007812e-01
7.218142306892362248e-01,-5.424529853607958918e-01,7.366831524140502463e-01,1.094326026086870907e-01,5.196129099233567396e-03,1.128956793204401454e-01,1.300628542900085449e+00
7.056836993745991826e-01,-1.200650485826507685e-01,6.883905111101642493e-01,-5.638500443953545910e-02,5.846990843498878904e-02,-5.080054462526320536e-02,8.339162468910217285e-01
8.083333736307041217e-01,-1.023529491093398747e+00,7.112697135059471432e-01,-1.795528701106710590e-02,3.253444726491903395e-03,-8.456687205933996476e-03,1.785650849342346191e+00
7.817906833098333674e-01,-1.028394950274453601e+00,7.838888163227375472e-01,-2.184086425447261635e-03,-2.580860811396330258e-03,-1.667371534492844906e-03,1.811247348785400391e+00
7.294065139068888204e-01,-2.991160879097312097e-01,6.816970823615635666e-01,-7.003573750011174437e-02,1.702092264503650074e-02,1.199533854687449830e-01,1.034318804740905762e+00
7.907104813665214449e-01,-1.016233976188838595e+00,7.779090138826824097e-01,-4.279406118283026091e-03,1.532561786835615427e-04,9.705245864172915016e-03,1.800671577453613281e+00
7.955037115072683962e-01,-1.028539684415384681e+00,7.691888827593481581e-01,2.122980476903273822e-03,3.881272860021450603e-03,-4.267479856824686960e-03,1.811060667037963867e+00
7.771931705695737103e-01,-1.001776077119505448e+00,7.891726742121389915e-01,-6.000054352607167097e-04,-6.750264758453678078e-03,-8.665000280562129911e-03,1.785090804100036621e+00
7.827230896930700288e-01,-9.620848201109210018e-01,7.568915185324139872e-01,-8.812776218518406091e-04,-1.698279709583403341e-03,-1.296958136205414447e-02,1.732185482978820801e+00
7.782983548391033679e-01,-1.011908081428612327e+00,7.971272079417355272e-01,2.592621181107895422e-03,-2.413894360956791128e-03,-7.211376733871506343e-03,1.799748539924621582e+00
7.829897895070502267e-01,-1.029257874733551903e+00,7.904415886343137965e-01,-4.647871809788762555e-03,-2.746461559741381238e-03,-3.792359884964545576e-03,1.816020965576171875e+00
7.327319717758871143e-01,-8.527359695474958645e-01,7.663307807233843416e-01,-1.869125461489087739e-03,-5.695469158549619493e-03,-3.409516280037873381e-02,1.603652834892272949e+00
7.688262889662879074e-01,-9.811216389565544649e-01,7.951470055662577252e-01,2.372679929409790382e-03,-1.029450602885138844e-02,4.680396852011518491e-03,1.763369202613830566e+00
8.220554898053971105e-01,-1.026807899316305006e+00,6.998725933874403449e-01,-1.104134517902407783e-02,2.874361092209678885e-03,-1.075541106866801343e-02,1.791106462478637695e+00
8.082763298630059046e-01,-1.029524000698604169e+00,7.705096516197644796e-01,-1.359999142692613211e-02,8.481214163631364475e-03,-1.405561457093752221e-02,1.819585680961608887e+00
7.738358719583935397e-01,-1.008879762251600365e+00,7.818009892348389833e-01,7.032885710359013803e-03,3.779085864478224418e-03,2.016751010894358553e-03,1.786768436431884766e+00
7.685108713772198508e-01,-9.882326129177257945e-01,7.901126314513509108e-01,1.413948195376960428e-04,3.024330061536428717e-03,-1.445480805045473369e-02,1.767828464508056641e+00
7.286541787293407957e-01,-1.006279212658307110e+00,7.347950287355582422e-01,1.561188857933634884e-02,-2.052891972345208260e-02,1.291553664906773188e-02,1.738729834556579590e+00
7.479030196768472472e-01,-1.006982804019393773e+00,7.340768060428464192e-01,7.532476568298857381e-03,-1.111369793848401150e-02,8.692390371046866335e-03,1.748233199119567871e+00
7.869803048543188018e-01,-1.026058567696064294e+00,7.918014686499905697e-01,1.275891225998138740e-03,1.208705763986781196e-03,-4.367762917409272541e-03,1.815472602844238281e+00
7.887866141955867105e-01,-1.027869820357381947e+00,7.697469810587270755e-01,7.044551096884546851e-03,1.330804024100401897e-03,-1.814120913359823766e-03,1.807257175445556641e+00
7.571867301994127386e-01,-1.029989944694852610e+00,7.809829429965988723e-01,-2.911256847640584546e-03,-1.191148658060388159e-02,2.998995818205615633e-03,1.799325704574584961e+00
7.774063897215000019e-01,-1.032205200273279555e+00,7.773607448028914124e-01,1.252466807608866757e-02,1.667985738383142690e-03,-1.230626723633246387e-04,1.809721112251281738e+00
7.467341482071072623e-01,-1.015456389201831122e+00,7.381599140302714801e-01,1.058643628922916087e-02,-2.240239166409738192e-02,5.850890066395722337e-03,1.758472084999084473e+00
7.820832861728962415e-01,-1.027001815373160598e+00,7.911656047174042694e-01,2.452736154212084140e-03,5.078315567630835477e-03,3.012622749042159417e-03,1.813677072525024414e+00
7.924097141621901930e-01,-1.024727216930571672e+00,7.873562691538094072e-01,-5.326190772868557091e-03,-2.726731392055145977e-04,1.906952658331618989e-03,1.814641952514648438e+00
7.880729287265415550e-01,-1.019772253766154435e+00,7.254734156902492570e-01,1.753488417967629873e-02,-2.961151549092346218e-03,-2.255059913860921195e-03,1.777643561363220215e+00
7.711943870281460223e-01,-1.023651439954031073e+00,7.554917947421150304e-01,7.133068201523025051e-03,-2.707008634511324455e-04,5.883240713595075042e-03,1.787118077278137207e+00
7.602580175409064944e-01,-1.022752680085809551e+00,7.581237849864296274e-01,6.386935186521632175e-03,-1.250956524423105535e-03,5.194541309738853925e-03,1.782002925872802734e+00
1.866180530359874967e-01,-9.659819597788177337e-01,1.078710639905549051e+00,-1.085739726881626132e-03,-1.488993347991481031e-02,2.831040269459380969e-03,1.775734901428222656e+00
6.937848432317719194e-01,-9.820111285030505011e-01,7.994614564749218388e-01,-8.200124584537884717e-03,9.590121256269651829e-04,-6.605573401614687687e-03,1.731152057647705078e+00
6.079281185410516652e-01,-1.078696514353727931e+00,9.347118541418169002e-01,8.722841378265061563e-02,-7.959835667849828045e-02,5.679515668885107282e-02,1.885248780250549316e+00
7.654792183830170238e-01,-9.567266466023174321e-01,7.686177910167459881e-01,1.495838737909377207e-02,3.027816883411806829e-03,7.615121016387127418e-04,1.723980426788330078e+00
7.545150320915341435e-01,-1.014854797284783006e+00,7.396896699863086955e-01,9.220351461609970628e-03,-1.983684173184950095e-04,-1.333634356638548979e-03,1.762077808380126953e+00
7.081947441629646844e-01,-1.119773729233712212e+00,8.947318304639856335e-01,6.678879134091286751e-02,1.508977374426805768e-02,4.054099090721291487e-02,1.932936787605285645e+00
7.703526727395116902e-01,-9.112822756815256442e-01,7.428289310393657585e-01,7.857433749900307254e-03,1.535699474697540916e-02,-2.308653522812256428e-02,1.668790102005004883e+00
7.891844084922070568e-01,-1.023892631738821501e+00,7.828763035624458633e-01,-3.368191765927773008e-03,4.962553983697764494e-03,-3.928159859779106712e-04,1.809961199760437012e+00
7.610567925582888416e-01,-1.021063127729381792e+00,8.370723663357340083e-01,4.811771571927463999e-03,5.005949153683962247e-03,2.957663326176307450e-02,1.822077870368957520e+00
9.309114606221914334e-01,-1.029453185377577906e+00,5.567692017703375074e-01,-2.090855822331705305e-02,2.277424944226418696e-02,-7.343635700076160070e-05,1.803447842597961426e+00
7.797482644276547692e-01,-1.035308123014810233e+00,7.756113585297857993e-01,2.356137229937302173e-03,1.901391008498800727e-03,3.320967986260579038e-03,1.813008189201354980e+00
7.781496802519326517e-01,-1.037247851530758824e+00,7.802692200711638382e-01,1.162673501905933399e-03,4.452476995244737884e-04,1.384338546647466157e-04,1.816459536552429199e+00
7.583649243319805500e-01,-1.029075245023851615e+00,7.743034266038729685e-01,-7.440693593714426540e-03,2.839150997816368514e-03,9.566221773162285032e-04,1.795516252517700195e+00
7.268559527154975219e-01,-1.037655517053936327e+00,8.257708529279984555e-01,-9.189410303550063844e-03,1.743899020346473955e-02,1.730580103852525156e-02,1.816558718681335449e+00
7.894548760452471114e-01,-1.014608423463405407e+00,6.909800894173079300e-01,-2.492945630267785415e-02,1.233046434359960641e-02,2.240049755901078049e-02,1.757985472679138184e+00
7.692359636040781989e-01,-1.031517765252760510e+00,7.853077537302595168e-01,1.985616934780822136e-03,-6.707426118337509770e-04,1.085721392099324792e-02,1.808944582939147949e+00
7.891416458162555658e-01,-1.001425313195960065e+00,7.794306114145403974e-01,-4.850875384586595361e-03,-1.559932834570380150e-02,-7.726495905682825502e-03,1.786005496978759766e+00
7.760056250954047163e-01,-1.032953284408898220e+00,7.731989480505260248e-01,-4.055411402569954020e-03,-1.225232426100660542e-03,1.008771602822949864e-02,1.807656526565551758e+00
7.783291235035045830e-01,-1.036731787751897782e+00,7.754985413666273253e-01,-1.866205742176147266e-04,-2.523307018368726269e-04,2.641829266099471503e-03,1.813653111457824707e+00
7.745363648963108361e-01,-1.033973196359675661e+00,7.754728665683979782e-01,-2.966516274340772093e-03,-4.596701105185682233e-04,2.286564139395365954e-03,1.808989763259887695e+00
7.735500764624770875e-01,-1.026510026653776331e+00,7.708171027657166885e-01,7.033140154286386409e-04,3.144033568608325968e-04,3.138860913017588010e-03,1.798703908920288086e+00
7.787188602994464803e-01,-1.037611919080826395e+00,7.821326702340617443e-01,-1.551412899728875448e-03,-1.318928553885916326e-03,1.202064675886454527e-03,1.818044662475585938e+00
7.640176132399172371e-01,-1.013717493206612197e+00,7.790965864913153016e-01,-4.912590166448301855e-03,1.336382781454952288e-03,1.315351646319551371e-02,1.785489439964294434e+00
8.212579272341136161e-01,-1.051238237674554821e+00,8.573355747764241919e-01,6.888078737184322176e-02,1.212653769601939047e-01,-6.871864049503020877e-02,1.909873008728027344e+00
2.589539740010111668e-01,-2.428288827978269282e+00,1.896655417171715596e+00,-2.227543968789881812e-01,2.375519391495307248e-02,-6.379338579390066155e-02,3.803551197052001953e+00
7.915605949045010359e-01,-1.029131580280868485e+00,7.778365927886772280e-01,4.660374596038734107e-03,-1.066039253253689596e-02,6.836019723796030526e-03,1.814019680023193359e+00
7.690716330841869119e-01,-1.029743628072130601e+00,7.836865683908855740e-01,2.291819520267713954e-03,-3.073101420561038426e-04,1.086397888385235398e-02,1.806269526481628418e+00
7.794556190384771543e-01,-1.030839639508876582e+00,7.691052789354246855e-01,-6.797631696625347844e-03,-2.478423266979204150e-04,2.848378023159998891e-05,1.805180788040161133e+00
5.480120813787091594e-01,-1.294917539995325884e+00,1.131167580603097855e+00,3.379435948097268827e-02,-4.162017473342587148e-02,9.678378464892157390e-03,2.195467710494995117e+00
7.795564558797840604e-01,-1.026538798295135058e+00,7.864233935442246359e-01,-4.567794948126649261e-03,-8.867212028216374733e-03,4.810198978809945326e-03,1.809640169143676758e+00
7.767953764011592543e-01,-1.028419272748763325e+00,7.805402829302263701e-01,-1.500018634536533398e-02,1.989899368563296037e-04,-1.569071375503654567e-02,1.807481169700622559e+00
7.851082964425897259e-01,-1.032997788496677227e+00,7.724283921148862309e-01,-1.034508128631491525e-02,-9.109437016651465539e-04,-2.259567086727007172e-03,1.811892867088317871e+00
7.822081809860602641e-01,-1.034853299980631025e+00,7.803749216264452837e-01,2.085325413781524521e-03,4.378286835811098614e-03,4.382998455041906536e-04,1.816165089607238770e+00
7.526211829140627696e-01,-1.025639396459176567e+00,7.729062027844485483e-01,-8.819047660312365547e-03,-2.529244469622758586e-03,-1.191205751444119124e-02,1.788679003715515137e+00
9.862189387379459715e-01,-1.554389841029108599e+00,6.284933404726462669e-01,-2.013971411086572932e-02,6.052068754426770392e-01,-8.978510402125487733e-02,2.607306480407714844e+00
9.071356707375168860e-01,-1.017702883473873499e+00,4.978486557379406818e-01,-5.235042172387518837e-03,4.505313222998581779e-03,4.425456757256983342e-02,1.758046150207519531e+00
8.762762550149465479e-01,-1.017193145637517837e+00,6.099140514922543055e-01,1.371162539666166517e-02,-2.697757294619307356e-02,-1.175700237984686133e-02,1.776228785514831543e+00
8.149549924842734994e-01,-1.020929497389552632e+00,7.209246110112138561e-01,-1.281893723713932974e-02,4.880628552638490228e-03,1.121809656503909396e-02,1.790984869003295898e+00
7.755956111737356551e-01,-1.035125384533967186e+00,7.742900451574037390e-01,-2.610023197186361367e-03,-6.093508109912279883e-04,-2.667517751521317291e-03,1.810080409049987793e+00
7.783911445092304149e-01,-1.040096228275722678e+00,7.855882347381719644e-01,-5.818910325304024224e-03,4.066863797388093477e-03,-6.904583849835281735e-03,1.822177290916442871e+00
7.917722826122689517e-01,-1.029311322488128511e+00,7.729569230963929671e-01,-7.155608607193743136e-03,4.104371181865103160e-04,-5.788257393651714301e-03,1.811819434165954590e+00
7.716438471996813764e-01,-1.030980800649064388e+00,7.721242594211287225e-01,-5.647356892078638684e-04,3.377464636846168409e-03,-7.136976467728067819e-03,1.802917003631591797e+00
8.097280944616431775e-01,-1.029544912913424648e+00,7.698027922352550512e-01,2.505363220530955511e-03,-4.863896006679821124e-03,-6.062185137501492280e-03,1.819693803787231445e+00
6.536934210275190393e-01,-1.021224721273389591e+00,6.423760829578741838e-01,-3.683417372126723821e-02,-2.674754696305528534e-01,-3.803272778760303369e-02,1.734809041023254395e+00
7.591054563074145500e-01,-8.277815708021031282e-01,7.354284296871776982e-01,-4.822433235404653337e-03,-1.204737249966911531e-03,-8.251640660457622289e-02,1.581676125526428223e+00
7.781788070078009545e-01,-1.007557191776556227e+00,7.910934182454857355e-01,2.267654308345077793e-03,-1.486079327676783149e-02,3.673663073891312528e-03,1.792428612709045410e+00
7.547028003126678986e-01,-9.173544817463148426e-01,7.757097488866193657e-01,4.685230311898347724e-03,1.253556081335054778e-02,6.710495657809588182e-04,1.682819128036499023e+00
7.911753025708411213e-01,-1.027543162009901145e+00,7.706749245759917377e-01,-1.067992911774544350e-03,6.742547463622114001e-04,-9.403656356572372144e-03,1.808630108833312988e+00
7.616157121712210376e-01,-9.978105599914233181e-01,5.059194894350323990e-01,-1.439549267564990513e-02,-2.592985984659437193e-01,-1.130812253522208745e-02,1.706984281539916992e+00
8.197525434269602451e-01,-9.964682407397721375e-01,5.902413299357840426e-01,-1.543729963246288917e-02,-4.900639653507933569e-02,-1.413806728731641094e-02,1.715520262718200684e+00
7.995805301598503112e-01,-1.031171788258813615e+00,7.686545624455571879e-01,1.128377735563858633e-02,-1.627604016055459422e-03,-1.390418710313426169e-03,1.815595865249633789e+00
7.752231225194360364e-01,-9.959677993999308532e-01,6.550665298737439191e-01,-1.498697414943520739e-02,-2.674764379369200598e-02,-1.483580038571327697e-02,1.715288639068603516e+00
8.265791587848982935e-01,-1.004647009205446473e+00,5.919417330140908096e-01,-1.580188109985276521e-02,-3.784983868119490280e-02,-2.476993032700679567e-02,1.727905511856079102e+00
8.048379307674982108e-01,-1.023712477544894028e+00,6.054270410416635606e-01,5.836076084340279489e-03,-7.312202756429279915e-02,-2.449181356946305427e-02,1.742604613304138184e+00
8.119030161364909626e-01,-8.383203385126397622e-01,6.790972929729170993e-01,2.345935344456398508e-02,3.263343919980880251e-04,4.859782443603008484e-03,1.588533163070678711e+00
4.652637722577630530e-01,-1.874502106009370950e+00,1.295982456707019059e+00,-1.555550483237982951e-01,-5.475614399178183600e-01,5.691379736289388369e-02,3.014973640441894531e+00
6.943316977597201456e-01,-9.983737257606321025e-01,7.628160317537379109e-01,1.886500945776669810e-02,-4.788017878432844487e-02,2.010618737565106340e-02,1.730613589286804199e+00
7.811140836640049212e-01,-1.039111761565413516e+00,7.756572951770748237e-01,1.987223668624819612e-04,2.325470095841245585e-03,-3.533109693219130634e-04,1.817508220672607422e+00
7.863364378140681454e-01,-1.036376878533866730e+00,7.813341367171804386e-01,1.249387063268567492e-03,3.593651121218944394e-03,3.320669135794835063e-03,1.820238351821899414e+00
7.821118004425963166e-01,-1.035135253320859094e+00,7.848011314349782053e-01,2.499982882746468790e-03,2.525937009428883689e-03,-1.048988667556519875e-03,1.818604588508605957e+00
7.827836167824507863e-01,-1.035930187979316575e+00,7.809266852624988653e-01,7.347333264205932468e-04,8.744519331103168180e-04,3.183743342819325608e-03,1.817795515060424805e+00
7.803294494383289370e-01,-1.034011839421887125e+00,7.764907366867156435e-01,3.680508281408844447e-03,4.598680587293812712e-04,5.533147268833074053e-05,1.812436342239379883e+00
7.780713028207589810e-01,-1.035603926508003703e+00,7.783504991335200573e-01,1.411147267221627170e-03,2.357479408487230042e-04,8.248241537124917800e-04,1.813817143440246582e+00
7.816472024054492707e-01,-1.034431731043303548e+00,7.788935750730744401e-01,4.450059044476353289e-03,3.154277014810853534e-03,1.470745227085612766e-03,1.814730048179626465e+00
7.769605403010070299e-01,-1.011385226725022513e+00,7.866790414652613528e-01,6.127929660229312035e-03,-1.151704085330989375e-03,3.543653575135906689e-03,1.793267846107482910e+00
7.817195822069124000e-01,-1.039421623843752585e+00,7.810964622876951369e-01,1.211926154254415553e-03,1.704249480713832143e-07,6.040231239060674540e-04,1.820831179618835449e+00
7.822417400710554025e-01,-1.037517010593743905e+00,7.799580963422431124e-01,4.378661448016687822e-03,8.165672414395197531e-03,5.938748004185085208e-03,1.818717956542968750e+00
9.427036752276501952e-01,-1.144566115333724321e+00,6.121272313211049143e-01,-2.946804342769351187e-02,-5.384083796862895038e-02,-4.617062030249216575e-02,1.947734713554382324e+00
8.711131421023184940e-01,-9.865123018465614679e-01,4.831473303955836074e-01,1.782351202220540387e-03,-1.999344148725213516e-02,-3.058174521731167605e-02,1.698413729667663574e+00
8.733265321738816755e-01,-1.032475092518996274e+00,5.528634137479448984e-01,1.687795493509355524e-02,-1.256365994902281513e-01,-1.654612197688721045e-02,1.781310439109802246e+00
8.923863863098775440e-01,-1.007005612457497312e+00,5.107752326940064869e-01,-2.058477218995433122e-02,-8.270925405352196058e-02,4.742726444021911313e-03,1.746524810791015625e+00
8.981487323120684874e-01,-1.015136725894760783e+00,5.174918173136879851e-01,5.033574206701070183e-03,-3.820145043683273456e-02,-1.336282624938697240e-02,1.755632519721984863e+00
8.338601995613691420e-01,-9.853968561058328302e-01,5.627239719986277811e-01,-1.424581883355881132e-03,-4.790525697097391955e-02,-2.392237922613438196e-04,1.702009320259094238e+00
7.693557449198868969e-01,-9.578275891656307106e-01,7.804441061084204101e-01,8.658922551957815711e-03,2.361138457937033211e-02,8.760870674812928222e-03,1.733367919921875000e+00
7.620266540460958193e-01,-1.029681625759121033e+00,7.716687052894647403e-01,-3.984817479164807098e-04,4.586600001791675020e-03,6.014147749514875147e-04,1.796566724777221680e+00
7.866711953140704816e-01,-1.005551706015240576e+00,7.705935346044621159e-01,-1.092585135904336480e-03,-7.869829245575443288e-04,2.901194457551949622e-03,1.784247040748596191e+00
7.751690304557066202e-01,-1.005827556253967359e+00,7.892772964917886824e-01,-2.265954973510016235e-03,8.824864036371261877e-03,1.017968518627028994e-02,1.788249015808105469e+00
7.681802820891900918e-01,-9.566994141599856061e-01,7.609603721145141719e-01,-7.750494138016041437e-03,4.165082285676998189e-03,5.112111456329346271e-02,1.723624348640441895e+00
7.912987446230541622e-01,-1.027324103752163209e+00,7.672793127123682666e-01,-1.117349565314911149e-02,5.143082224605272090e-03,1.605257386088983175e-03,1.806860685348510742e+00
7.806003176038012192e-01,-1.017992029276291399e+00,7.256731933230211595e-01,1.354496626490804545e-02,-1.917872133295843787e-02,4.658978276873558186e-03,1.772252440452575684e+00
7.928382280171074603e-01,-1.005683664506713981e+00,7.250790066479583240e-01,-1.634251510148117953e-02,-1.624730296283051489e-03,-1.488665065910948354e-02,1.766035079956054688e+00
7.759971075658582684e-01,-9.960126543037146618e-01,7.885999848356182174e-01,5.718117294425023416e-03,4.013384352462900928e-03,8.964559905189191380e-03,1.778453588485717773e+00
7.802791607398453788e-01,-1.038538692557789966e+00,7.826614229382493626e-01,1.509658618134145092e-03,9.609384829495603826e-04,1.736944624343574701e-03,1.820015311241149902e+00
7.300777408932328516e-01,-1.003847512868685454e+00,7.368396092341810144e-01,-1.334079392536459234e-02,-2.785872786638195209e-02,-1.447516785649602400e-02,1.738320469856262207e+00
7.934845170341141563e-01,-1.013368822030337624e+00,7.782021498408692173e-01,4.231904962394162500e-03,1.365283549310349759e-02,5.097039053004120447e-03,1.799452781677246094e+00
3.408891981717831476e-01,-1.068174559511727573e+00,9.651012929134308305e-01,-2.487682540462750336e-02,-4.701920208349563701e-01,-1.553820036172505123e-02,1.980019807815551758e+00
6.774521860730068346e-01,-9.860494189852082592e-01,7.538778849036515961e-01,-9.979436052027853762e-03,-7.933360104256896583e-02,-4.439649770882296738e-03,1.708640456199645996e+00
7.761737087694191572e-01,-1.037410510667100327e+00,7.798173031846802328e-01,-1.151023678646552652e-04,1.856088820373900852e-03,2.502125116534027337e-04,1.815411686897277832e+00
3.460810285462475044e-01,-1.029132845940380792e+00,9.590922062849411844e-01,-1.536664369761086765e-02,-1.075808968781328673e-01,3.920323614457774455e-03,1.773553729057312012e+00
8.445227261652876738e-01,-1.002185727597117992e+00,5.747552733437109040e-01,-9.747308485070323852e-03,-1.306626757700511399e-01,-7.394401649150568467e-03,1.742581963539123535e+00
7.437244438696012372e-01,-9.873342215770011254e-01,6.577082359538632961e-01,1.177399446126771616e-02,-3.260888709716685402e-02,4.399392767979889117e-03,1.690777301788330078e+00
7.091968386071373365e-01,-9.882318786838036884e-01,7.222791981597903588e-01,6.170395461866508974e-03,-2.229383168710195873e-02,7.574061759339644102e-03,1.704529047012329102e+00
7.770569043307430368e-01,-1.004703762207265205e+00,7.856221469870778851e-01,2.868451121876122202e-03,8.223573060285937347e-03,-5.701243528825039250e-03,1.786149740219116211e+00
7.228733956491576462e-01,-9.806973139088513980e-01,6.880058661103349849e-01,-7.400401263874945360e-03,-1.646347261533842588e-02,-2.755131546386515098e-03,1.686703801155090332e+00
7.827632294368944699e-01,-1.034894650411945616e+00,7.919020927426656531e-01,4.572566623372929795e-03,2.315858144867167373e-03,4.128649136105007333e-03,1.822280168533325195e+00
7.844835101808320665e-01,-1.034305240922326341e+00,7.848826584286949792e-01,4.467590053057227464e-03,5.948700005589660153e-03,2.982227451878571942e-03,1.819041371345520020e+00
7.491125027313803031e-01,-9.788897420769244739e-01,6.348080727016138791e-01,6.327825429611300123e-03,-4.175423097121939986e-02,5.034487966531051191e-04,1.675377607345581055e+00
7.066173982346493077e-01,-9.883322112077892463e-01,7.059678496984460594e-01,1.399331856561934068e-02,-2.395257366635576354e-02,1.622305703040420599e-02,1.695538759231567383e+00
7.364081083421096796e-01,-9.905330336345015141e-01,6.997896872091851073e-01,1.236282482247871850e-02,-1.316208763515034491e-02,6.996134422447606617e-03,1.709255337715148926e+00
7.818718389476942976e-01,-9.964787011243035897e-01,7.936391333652959013e-01,5.299448150243039370e-03,-1.786316543182790879e-03,2.807145898019366981e-02,1.784951925277709961e+00
8.014180553047303146e-01,-1.000563130018461866e+00,7.090018946969991465e-01,-4.751353880768217734e-04,3.573439384834906432e-03,-1.637965499963677657e-02,1.757836341857910156e+00
7.811634295221508983e-01,-1.035076698540822404e+00,7.807414257641798194e-01,4.117126219965438691e-03,2.884406502977092217e-03,6.273975461064981544e-04,1.816050410270690918e+00
7.407918449079977652e-01,-1.013990942949629659e+00,7.506769222183359291e-01,-1.704320535078435660e-04,4.206305630318167045e-03,2.456728508728522669e-04,1.759761333465576172e+00
7.892610256157945869e-01,-1.007091191655013596e+00,7.667645999671415247e-01,9.011414542005076814e-03,8.662067462015074926e-04,1.660431107392243292e-03,1.785281538963317871e+00
7.718177723502480658e-01,-1.022012186838330283e+00,7.462027172038433465e-01,1.127584293857237033e-02,1.558220669735558769e-02,-4.564874400550091374e-03,1.781489610671997070e+00
7.437874891041018621e-01,-1.021738712697201956e+00,7.719871010389979249e-01,8.642807918072491907e-03,7.450708559904335032e-03,-1.279836772832524186e-02,1.780041337013244629e+00
6.441452841827265408e-01,-1.005144472889647034e+00,8.128819446927444403e-01,-4.561431361964938207e-05,-3.634701934222149544e-02,1.089749339889085553e-02,1.741046786308288574e+00
7.449211280390514167e-01,-1.030466861559293568e+00,7.886256755935661111e-01,1.496092359145094995e-02,4.198843062135200477e-03,-1.450182442138493212e-02,1.798015713691711426e+00
8.016145428135142970e-01,-9.831587961582644031e-01,6.745367200963128251e-01,2.241441802739067152e-02,-1.352380629624188972e-02,1.955042244780919730e-02,1.725677251815795898e+00
7.764907992540049930e-01,-1.024397497690917147e+00,7.835175166191227225e-01,-4.865048013503889268e-03,-2.136782200912219418e-03,-8.376347275796985209e-03,1.804493665695190430e+00
7.776490293688960165e-01,-1.026607523124549060e+00,7.828005862204179266e-01,8.250973706376915282e-03,4.512464551588660916e-04,-7.780389841131185938e-03,1.806944727897644043e+00
7.777132886241889809e-01,-1.018698613532602826e+00,7.812323525062973006e-01,-1.877450263474672327e-03,-7.565010310704568461e-03,4.837773019558326386e-03,1.798244237899780273e+00
7.760512082327282180e-01,-1.018347776041737429e+00,7.804654746597248227e-01,4.289051125507532640e-03,-4.237289457650665614e-03,-5.643917582081096028e-03,1.796667098999023438e+00
7.809614654748220364e-01,-1.038772633456466421e+00,7.750061155855678674e-01,-1.093483702012865611e-04,-2.403987080469289876e-03,2.396453578789865639e-04,1.816768527030944824e+00
8.292478833603130761e-01,-1.298250059681530066e+00,7.680118907024312547e-01,2.558871839108305124e-02,3.531554412868354031e-01,-4.761226078254185597e-03,2.185384750366210938e+00
6.000500645849922154e-01,-9.952283477683798729e-01,8.138577504142150421e-01,-7.139520555729545609e-03,1.024174513377214824e-01,2.252902654592418841e-02,1.721874952316284180e+00
5.913857457860334232e-01,-9.889604525124315870e-01,7.766570036581852410e-01,3.133366544237737444e-02,1.652717251879424754e-01,-2.940990443921375451e-03,1.705733776092529297e+00
7.386818476016325796e-01,-1.031220702090513530e+00,6.918330005046886555e-01,3.987206546718942424e-02,9.894214748350968480e-02,-4.504127679947061980e-02,1.758424282073974609e+00
8.456584608849495588e-01,-1.019172974347946292e+00,5.871104823068733491e-01,1.517440222035632003e-02,1.166248624555861202e-01,-3.571550043814555181e-02,1.762843370437622070e+00
8.319284842307915762e-01,-1.169006092093042293e+00,8.431124767430755451e-01,2.507711836317906909e-02,1.418025115951692672e-01,-1.184517095730525972e-02,2.022096395492553711e+00
7.881020546228645340e-01,-1.016471107729639556e+00,7.929626484073055703e-01,-4.354239986193670330e-03,3.954811498383560900e-03,-8.770457394239815005e-03,1.807100892066955566e+00
7.942459315327736746e-01,-1.030409220865486919e+00,7.829077156909319823e-01,5.381597341733669257e-03,1.142452058337475439e-03,-7.677264815563340436e-03,1.819086074829101562e+00
7.814285866164966121e-01,-1.024624829576182616e+00,7.898877147984915137e-01,2.949946985731967571e-03,1.625348556431728802e-03,-2.786986248318861110e-03,1.810313582420349121e+00
7.905980854112795164e-01,-6.396925957368597704e-01,6.906756965797300474e-01,1.002082834061346628e-01,-1.096670469208858162e-02,-1.276419382047160600e-01,1.411439418792724609e+00
7.659931374342274779e-01,-9.577545997964498348e-01,7.680041922429312606e-01,2.094095046447802446e-03,8.771932717581708977e-03,-2.375061179435642572e-02,1.725315332412719727e+00
7.904914355072651944e-01,-1.020778163575733588e+00,7.973742166324775393e-01,-2.320326560150126963e-03,-6.059708376465541163e-05,-6.703799213469405216e-03,1.814762353897094727e+00
7.133202400561005074e-01,-9.809649751045095289e-01,6.962792511255260219e-01,5.399757336847655492e-04,1.500826886558277729e-02,1.579510191914561615e-03,1.686032176017761230e+00
7.286249110895233194e-01,-8.511984672383481332e-01,7.695202051703833313e-01,-3.652349389488928136e-03,2.506511757493909941e-03,-2.787717549172607362e-02,1.601409316062927246e+00
7.826932749991670768e-01,-1.028192861784044343e+00,7.976486453504549878e-01,4.401545208952271915e-03,3.767224047589644471e-03,-9.231492875553706789e-03,1.818507909774780273e+00
7.793538682017289165e-01,-1.029004187841635609e+00,7.936710330568239602e-01,1.175511682959849442e-03,9.284322862918636954e-03,-5.698293827816018967e-03,1.815658211708068848e+00
7.797000271471570265e-01,-1.021669395375552014e+00,7.948369896412146307e-01,3.484935598067807232e-05,-3.044677964244615876e-04,-3.327072838500429175e-03,1.808994650840759277e+00
7.892151981140027583e-01,-1.023875547461040814e+00,7.800677607485669851e-01,2.162270577568332994e-03,-2.485426187543874309e-03,3.022669490679063316e-03,1.808550953865051270e+00
7.494827205615057775e-01,-9.240357414969324612e-01,7.849232475572955892e-01,-1.482955635157666777e-02,1.298694437517769126e-02,-1.928969556417029288e-02,1.692191600799560547e+00
7.768840523791227248e-01,-1.032048766563248510e+00,7.743909768435237595e-01,-4.887393984028414601e-03,5.158671437724990459e-04,3.330825462085610159e-03,1.807716846466064453e+00
7.302272016052931969e-01,-7.933811419060949888e-01,7.399547621139843656e-01,4.308421770479699785e-03,3.067426980589940677e-02,-4.115837250295070054e-02,1.531097173690795898e+00
8.020162338453464823e-01,-1.015495920147607700e+00,6.620420172825125515e-01,-1.942828992835012383e-02,-2.994595272546170597e-02,-2.382663414027094001e-02,1.753300905227661133e+00
8.098427202610327669e-01,-8.074361837433787770e-01,6.803527600127685648e-01,1.817568772593007240e-02,-4.733590778592155351e-03,1.037691647363752356e-01,1.567258715629577637e+00
8.023763690254486214e-01,-1.024473671941288799e+00,7.355004831057495585e-01,-2.049603074307084979e-02,-1.035267854675029622e-03,-1.194116915591500634e-02,1.794818282127380371e+00
8.557457961573309291e-01,-9.861612832788932970e-01,5.381732563339572950e-01,-4.895091590242373059e-03,-2.463985562173905478e-02,1.348572484026207274e-03,1.705999255180358887e+00
7.963307361603730872e-01,-9.960766328641107448e-01,6.247533750046367906e-01,-1.616389084412448926e-02,-1.554225469348460842e-02,-1.157708415789599626e-02,1.713632702827453613e+00
7.798199575328097488e-01,-1.023693613471805985e+00,7.939491129174454098e-01,-2.910028417700803900e-03,-2.458448839530090208e-03,-5.047566578924729194e-03,1.810652613639831543e+00
7.355312552070656373e-01,-1.003783807225471891e+00,7.294019360815040542e-01,8.461287473077856031e-03,-1.242640438354832358e-02,8.781964276889934334e-03,1.736520409584045410e+00
7.715584187900643709e-01,-1.006451562324172988e+00,8.301469345143175360e-01,3.025243268963584420e-02,5.143287746607489233e-03,-1.127889465474370481e-02,1.808902859687805176e+00
7.372917482494558694e-01,-9.920786204495841698e-01,6.549353901783403487e-01,1.754975665578210539e-02,-1.010175488626685880e-01,1.450090678000792374e-02,1.699190497398376465e+00
7.505978286194989746e-01,-9.615848633377079846e-01,7.964127760306465298e-01,-5.583099724475890091e-03,-3.665639267832445074e-03,3.906092501485280716e-03,1.735595464706420898e+00
7.175910647663474862e-01,-9.918526776541520817e-01,6.389117859692989843e-01,1.985205764295722500e-02,-1.654974665386747812e-01,1.756227578221857683e-02,1.696515917778015137e+00
7.820966829178981339e-01,-4.707404459827249088e-01,4.042791799148568455e-01,6.984022952683584251e-02,-2.337733623363775215e-01,1.044657907693208043e-01,1.204294562339782715e+00
4.598913813398287642e-01,-9.813408126398560638e-01,9.084272195659958138e-01,8.347750306872283796e-03,-9.576836241741853994e-02,4.230867023333492044e-02,1.719846725463867188e+00
6.840488369170146798e-01,-9.901803900545005366e-01,7.442654275059022995e-01,1.492832003890130245e-02,-1.482605149322657398e-02,1.449104486498862393e-02,1.705709218978881836e+00
7.500723582485732122e-01,-1.013771999494397447e+00,7.499796086978163245e-01,1.437116084291480828e-02,-1.167183847540246081e-02,1.112205429994303496e-02,1.764194607734680176e+00
7.546705387080944183e-01,-1.013304342172953287e+00,7.413001486920294258e-01,1.031993279181382672e-02,1.389969421123114779e-02,-1.429662242192107288e-02,1.761757016181945801e+00
6.480234552867905062e-01,-9.830907025679016531e-01,7.615179165747747447e-01,3.321390113238489351e-04,-4.293320977555098450e-02,4.894475182642747842e-03,1.692376613616943359e+00
9.030423144962218540e-01,-1.021784254554685356e+00,6.535137465348974661e-01,6.862907965064812474e-03,1.158496326566880730e-01,1.711688535452509968e-04,1.824096322059631348e+00
7.365774195088145015e-01,-1.015097776976285449e+00,7.725168997261657733e-01,-4.757557995117868139e-04,4.756242941224056095e-03,-9.474019950459728473e-03,1.770014047622680664e+00
7.937033214904439804e-01,-9.615621939808324248e-01,7.607365918253063963e-01,-4.918250481345660258e-03,-2.601692712487918991e-03,-3.303711392297838719e-03,1.739052653312683105e+00
7.695452056141672825e-01,-9.057395100058632798e-01,7.488191506782463369e-01,2.248994305250471420e-02,-1.590532222651561481e-02,3.017049330556196944e-03,1.665710091590881348e+00
7.909883019985898267e-01,-1.001261770100226656e+00,6.683176326764339592e-01,-1.633778668123650468e-02,1.418872378581427507e-02,-1.950242393025979418e-03,1.734580039978027344e+00
7.811837295992055674e-01,-1.015179811987484637e+00,7.813694784747949873e-01,-4.682726164247107137e-03,-2.485091145705175825e-03,7.427466429740908413e-03,1.796525955200195312e+00
7.563033355464419127e-01,-8.309699199021736149e-01,7.370724941418447251e-01,3.759904300434306623e-02,-1.168640846777550509e-03,-2.000307178635748334e-03,1.579094290733337402e+00
7.535542977535465425e-01,-9.631797821238863300e-01,7.877971336738444075e-01,2.239868025833229720e-02,6.813247040068060555e-04,-1.029571092342309105e-02,1.734635114669799805e+00
7.223241447573733875e-01,-1.007322278397295046e+00,7.771962524373472458e-01,-2.726462687175197283e-02,1.883509912455266083e-02,2.966551342487296766e-02,1.759412288665771484e+00
5.690580266333391535e-01,-1.031754266115520347e+00,1.014255516010763136e+00,2.755473536588829431e-01,4.271983377363751389e-02,-2.067579866006783590e-02,1.925620675086975098e+00
7.819340732774340275e-01,-1.037584789706403221e+00,7.806587035622669646e-01,-3.325766516641044147e-03,-9.758684220289088511e-04,8.109969288047580655e-04,1.818892002105712891e+00
7.841156592929016123e-01,-1.037075172908623610e+00,7.858102475726017611e-01,-4.543864802833063807e-03,-3.403690338814528531e-03,-1.477322091470157717e-03,1.822067022323608398e+00
7.542937153037276854e-01,-1.008318967971564284e+00,7.346737928582862676e-01,-6.629187652961233621e-03,1.044866070750431232e-02,8.043105964415750431e-03,1.753071427345275879e+00
7.803928205899063331e-01,-1.027934666678184783e+00,7.814744660105679142e-01,-4.176516749599865595e-03,6.535061244008177374e-03,3.238929762099441480e-03,1.808927178382873535e+00
7.517073852527326183e-01,-1.008223025688371077e+00,7.331911768726862011e-01,-7.596672291347503908e-03,-1.145741464020643991e-03,4.481779171497502802e-03,1.750813484191894531e+00
7.991963883359729515e-01,-1.022722435964094956e+00,7.749248721269812457e-01,6.784521533648934892e-03,-4.699942452486557259e-03,-1.663574792582228276e-03,1.809963822364807129e+00
7.816336521896276590e-01,-1.020675563018214049e+00,7.896298413081749290e-01,-7.440515533717792160e-03,7.629968302054993424e-04,4.464343515436131234e-03,1.806383609771728516e+00
7.785633179800051096e-01,-1.023368419596869749e+00,7.878727752954906016e-01,-8.086989193817183813e-03,-1.349867377668350840e-03,-1.402014647401620198e-03,1.806661844253540039e+00
7.500247622255210578e-01,-1.022524949937447358e+00,7.719956325898961191e-01,8.582961615678457931e-03,2.791212041188077635e-03,-1.237949278474113381e-02,1.783833980560302734e+00
7.590149258866174531e-01,-1.024137173343575347e+00,7.609065821250645678e-01,-5.592193514550909336e-03,1.538093504029645637e-03,6.953773229916009740e-03,1.784167647361755371e+00
7.819679839524928955e-01,-1.037800905614825187e+00,7.877694283045921786e-01,-5.593499837720758254e-03,-3.509012141800913614e-03,5.178253342460740170e-03,1.822734475135803223e+00
7.851037459045191458e-01,-1.014357067610561103e+00,7.178942142649293867e-01,-1.902732393381138115e-02,7.847234417303833656e-03,-4.782178267593405543e-03,1.767194032669067383e+00
7.791444528980269180e-01,-1.014897520050130675e+00,7.849950060155732601e-01,-5.569983279342671963e-03,-1.200547714759105968e-02,5.428951671465230208e-03,1.797145247459411621e+00
7.852166378026580462e-01,-1.038825847874351060e+00,7.842287511218234419e-01,-3.201254155477440983e-03,-5.136596836565550557e-03,8.473074277025998205e-03,1.823637962341308594e+00
7.907074510396669975e-01,-1.017279907683218854e+00,7.782579067142010310e-01,4.790298100959065886e-03,-9.965064255281668240e-03,3.878425866903527711e-03,1.801909089088439941e+00
7.795326498689901795e-01,-1.017405810636282215e+00,7.836595575786047263e-01,-2.336058173914016666e-03,-1.324491002600100813e-03,4.627438752125625013e-03,1.799029350280761719e+00
7.805468042186399780e-01,-1.036900960161821539e+00,7.734056640875225375e-01,-1.658312013069990947e-03,1.953045511443753709e-03,7.326581032567702420e-03,1.813937544822692871e+00
7.721682294810991998e-01,-1.027966459739842575e+00,7.534518259633502524e-01,-1.230166254713174236e-02,2.443706267782468858e-03,8.036860746105795039e-03,1.791035652160644531e+00
7.821805628571878444e-01,-1.040671722706502322e+00,7.814222104769529276e-01,-3.259451526925692113e-04,-1.480811414170432605e-03,1.009892000732548869e-03,1.822475910186767578e+00
7.793548622567629813e-01,-1.034881553798902676e+00,7.792687255336759877e-01,1.758670597669391347e-04,-1.046520193872882160e-03,1.319733238195186465e-03,1.814195752143859863e+00
6.769721138908550984e-01,-1.012288914540600437e+00,7.968743937084736828e-01,-3.921468781073618112e-03,3.560447750204098760e-02,2.012370817833589523e-02,1.753735899925231934e+00
7.907607198596846576e-01,-9.745841505328562970e-01,7.821936307172704383e-01,1.802613170355919434e-02,-9.809912498260511468e-03,-7.028585859848735136e-03,1.761477708816528320e+00
8.686609506379366907e-01,-1.203028281428075497e+00,7.233466332901998808e-01,-3.678173327511088941e-02,3.311843849225095116e-01,7.296387238858988156e-02,2.088311672210693359e+00
7.651889851961166666e-01,-9.791811438603281736e-01,7.942684257460381758e-01,-5.460781116424734058e-03,-1.582822884354075782e-02,8.364750482397927817e-03,1.759388804435729980e+00
9.155445207664806295e-01,-1.071491679138776298e+00,5.739324910159772086e-01,-3.471574354102619636e-02,3.687511741837287138e-01,-1.216466295457848401e-01,1.960142254829406738e+00
7.869028645774284181e-01,-1.039822956001030585e+00,7.831772350188367371e-01,-1.640118379613046055e-04,-4.674562821639193476e-03,2.883027599727036507e-03,1.824890732765197754e+00
7.385828807942094176e-01,-1.020943897915359555e+00,7.731024862574848999e-01,-7.140096596989953422e-04,3.188764882149598343e-03,1.652470085229136923e-02,1.777277588844299316e+00
7.841637843072172265e-01,-1.032054264722126913e+00,7.687513650119243147e-01,-1.219210720595681127e-02,-1.586584327059156112e-04,-1.646142351552997828e-03,1.808686614036560059e+00
7.916077253590864116e-01,-1.024661733002419695e+00,7.214960036445361435e-01,-3.055765154464299208e-02,2.978987936131389375e-02,3.062539126492872660e-02,1.784568905830383301e+00
8.921474314995638810e-01,-9.491060106012207953e-01,5.340433631529768466e-01,-9.768248333980270731e-03,3.649307529847969356e-01,-9.860294308113790041e-02,1.813303470611572266e+00
7.830561274674191496e-01,-1.038354728741993638e+00,7.863224058838875763e-01,-3.755508932332236437e-03,-5.636376929206584306e-03,2.060219014089103434e-03,1.823087453842163086e+00
7.740923351505433203e-01,-8.821859850568698480e-01,7.456999372781820679e-01,8.338872265583458648e-03,2.113427637189527891e-02,5.992486347377394204e-03,1.642770409584045410e+00
5.288990313638033403e-01,-8.496301697130104191e-01,6.884436385265964020e-01,1.133254973586465125e-01,3.936770179015303128e-01,1.030907518408765572e-02,1.627736449241638184e+00
7.830673363724672820e-01,-1.012911281957566967e+00,7.841024791900776947e-01,6.656153479070121837e-03,1.675342482350784812e-02,6.187305086200558558e-03,1.796799659729003906e+00
7.401769093173061753e-01,-9.819080139641828131e-01,6.738169930227899673e-01,5.578300065646405424e-03,-1.427217159869273271e-02,-2.107609472110504479e-04,1.690090894699096680e+00
7.812560879702128425e-01,-1.022941186103669686e+00,7.857075100712114235e-01,1.055898014607758572e-03,1.196942420196531187e-02,3.812037280286754634e-03,1.806559085845947266e+00
7.113994256474521771e-01,-9.807655943923044850e-01,7.076472719879499662e-01,6.874542213614071723e-04,-1.704026994103670888e-03,-1.829462081292778947e-03,1.690298080444335938e+00
7.404073450097989895e-01,-1.005041609761502031e+00,7.360797375124382702e-01,8.281216301038842389e-03,-2.261531597471174316e-03,8.214713219578125003e-03,1.743410706520080566e+00
7.396101842584895669e-01,-9.908616090457599279e-01,6.964140259246205389e-01,1.095245620480076593e-02,-4.602864344508113964e-02,9.218869512385884785e-03,1.711320996284484863e+00
7.360667715148752066e-01,-1.005035600038149290e+00,7.397337476325418493e-01,7.253776389820700866e-03,-1.707660131842276413e-03,9.158642593162465151e-03,1.743058681488037109e+00
7.592223563308939660e-01,-1.045879760365600486e+00,7.517545188205243534e-01,-7.448093425390767131e-02,-2.023300152969095822e-01,-2.222606132443534499e-02,1.840083122253417969e+00
7.663831376426410991e-01,-9.944957414119287575e-01,6.473766919767636185e-01,2.487868085913499949e-02,-2.747577714784234931e-02,1.831550578085749947e-02,1.705997943878173828e+00
6.347802247157293687e-01,-9.789434828937151334e-01,7.573445825114879515e-01,3.951194622398590019e-04,4.144166645253880704e-02,-7.112644605190328838e-03,1.679945111274719238e+00
7.288935199347551519e-01,-1.033435277916658457e+00,7.545070243516185382e-01,2.524891662431548098e-02,9.532668756170648017e-02,-3.310800944039117566e-02,1.784393668174743652e+00
7.053802370023150026e-01,-9.986946465881348933e-01,7.606741596576435116e-01,-1.320386177048830240e-04,1.233251371934316644e-02,-1.036754755789271072e-02,1.732608556747436523e+00
7.460712546838027537e-01,-9.901303563878728342e-01,6.777411724791532199e-01,2.170261710502669611e-02,7.748193777975473373e-02,-5.205355201155427436e-03,1.708781719207763672e+00
7.977552354367914988e-01,-1.031035076146737728e+00,7.746349297453516414e-01,-4.940683362088777765e-03,-4.361522335018190762e-03,-1.495724070066700370e-02,1.817560911178588867e+00
7.646609305561686831e-01,-9.714663874515989672e-01,7.964852087447882312e-01,-1.286504699418041936e-05,1.827572593850483942e-03,4.845602508351810368e-03,1.752279162406921387e+00
7.360112251037682629e-01,-9.966112927775352404e-01,7.337091665844239774e-01,1.519687469523357468e-02,2.209254968729500862e-02,-1.456986529045897760e-02,1.732279300689697266e+00
7.822813589460680950e-01,-1.028324498902174255e+00,7.653995625879413955e-01,2.342269976838339679e-02,4.689177222623841339e-04,2.141423717739550370e-02,1.803062558174133301e+00
8.489820967884542657e-01,-1.030014959596432300e+00,6.856354473955830198e-01,1.306397049118907840e-02,-3.092967584354527292e-03,-1.223316530377871296e-02,1.803156614303588867e+00
6.974916515552312957e-01,-9.932662652044227380e-01,7.400427641668162471e-01,9.758742062922518695e-03,2.049195460513966033e-02,-1.458504268792784261e-02,1.713067531585693359e+00
7.535615165386415626e-01,-9.702703212400867194e-01,7.946945206781996784e-01,-1.406985101305347216e-05,1.057980920600632563e-02,4.849211454073167060e-03,1.744878411293029785e+00
8.055331516259640612e-01,-1.028740861684338093e+00,6.392060007292383883e-01,4.447619953163860218e-02,1.041187987083524585e-01,-7.367701602563400155e-03,1.767980694770812988e+00
7.397418089994760582e-01,-9.934897134030689081e-01,7.086654290735409090e-01,1.303445947391210745e-02,2.550455034669224172e-02,-4.631217566686238706e-03,1.718639016151428223e+00
7.938994900178906189e-01,-9.830728983718346470e-01,7.704211516586305653e-01,-2.076872617314153707e-02,2.004815267999542332e-03,-6.003845117790398587e-04,1.765720486640930176e+00
7.614658814285542032e-01,-9.620026637193282992e-01,7.905807909573262515e-01,-3.043362707790846743e-03,-7.107519143257570379e-03,4.962943084809375710e-03,1.738281726837158203e+00
4.032909561821462208e-01,-6.186753874223245298e-01,1.153535440923568967e+00,1.334029006152257640e-02,1.824234019572459342e-01,-2.497934824226562961e-02,1.573609590530395508e+00
7.224985946190463082e-01,-8.141164576548859388e-01,7.704106669630096382e-01,3.543203277061538620e-03,6.856925184600223822e-03,9.612908437556006921e-03,1.561268687248229980e+00
6.634250229929442577e-01,-9.925009881040139925e-01,7.552184843341730458e-01,3.963823507004988339e-03,3.686269434475326207e-02,-1.273150911543367500e-02,1.705030798912048340e+00
7.702673173115968108e-01,-9.721042891519083851e-01,7.765772384878429913e-01,-6.639624472042159921e-03,-1.560561247746528046e-02,-6.750709509769685368e-03,1.745821475982666016e+00
1.420752479537549240e-01,-1.076031008506630915e+00,1.587059715761268919e+00,3.997187160564557029e-01,-1.550366462165067571e-01,6.007543482645148758e-02,2.427790880203247070e+00
7.825715849980130479e-01,-1.028222458335855016e+00,7.831731357044517949e-01,-3.317139813751430154e-04,-5.014107385541166119e-03,-1.950707265053498339e-03,1.811118960380554199e+00
7.856077643509902231e-01,-1.033294191362427838e+00,7.791400942265531704e-01,2.907071047710164165e-03,-2.461428742860031615e-03,-3.656976733772158636e-03,1.815699815750122070e+00
7.265263494633308339e-01,-1.024106225574921147e+00,7.977121015842262297e-01,-1.726317598249614560e-02,1.049842991958823942e-03,8.791424150167103518e-03,1.787604808807373047e+00
7.464493619825838255e-01,-8.770442178876018957e-01,7.624347688518415822e-01,-6.162117125969652186e-03,-2.287142934235135081e-02,6.801946293556699469e-03,1.632103323936462402e+00
7.931541984603144302e-01,-1.023393159557359322e+00,7.801886283136115763e-01,2.703794982508736077e-03,-5.909588999042876328e-04,9.981969237359168820e-05,1.810105800628662109e+00
7.857005981392033434e-01,-1.014893830704666211e+00,7.945572444677329038e-01,1.578405617791287484e-03,-4.825849056383405868e-03,-9.453716308644633318e-03,1.805134773254394531e+00
7.970964717942287114e-01,-1.002863069537536678e+00,7.143782399698839214e-01,-1.127826043421972270e-02,2.012180904503570698e-03,1.229656735758264362e-02,1.760299563407897949e+00
8.014528380829040177e-01,-1.006519916128128189e+00,7.143495923991100005e-01,-9.053718136262493138e-03,3.013411390110749821e-03,1.165203742310184920e-02,1.766225576400756836e+00
7.744004446232140015e-01,-9.833023448776507802e-01,7.760581251891733867e-01,4.526556429377548429e-03,-1.063956605617859957e-02,-5.961140217847429520e-03,1.758676528930664062e+00
4.164846395901016241e-01,-1.015970589223114784e+00,9.725967535334089087e-01,-2.795313812108522061e-02,-5.042032397823835617e-03,-7.232582627517620752e-03,1.777743458747863770e+00
7.727577599467226888e-01,-1.033166954226284018e+00,7.820377865736546363e-01,-1.266015760445239656e-03,-1.997856593829495670e-03,1.036120254971513790e-02,1.810676097869873047e+00
8.201374698644632311e-01,-1.010585010171372033e+00,5.979696580300808417e-01,-1.026240909048591922e-02,3.560234656522058561e-02,2.791944378457211079e-02,1.732233405113220215e+00
7.805866953023572474e-01,-1.019256279895496498e+00,7.831839767368899974e-01,-2.681584536633082900e-03,-4.350639842644566865e-03,1.672063646526007318e-03,1.801167130470275879e+00
7.405908456483737412e-01,-8.775696427740929950e-01,7.739238347443480048e-01,-6.651004288005547653e-03,-2.654283819494896238e-02,5.582964335199803833e-03,1.635797142982482910e+00
9.130211368555232188e-01,-9.695974590514849778e-01,3.094517936374430733e-01,5.797939298412027598e-02,-4.577293297983102693e-01,1.614536638252270229e-01,1.867911338806152344e+00
7.949049288576367500e-01,-1.024363817864414994e+00,7.339539783068439460e-01,-1.515421154009373439e-02,3.442087086833674724e-03,9.111696197203443537e-03,1.789843916893005371e+00
7.745866639226957062e-01,-1.036997690130903704e+00,7.802588393381438836e-01,-2.900300485742228311e-03,2.571109206527174944e-03,6.084840948926112381e-03,1.814470171928405762e+00
7.734275452266629047e-01,-9.968723300715940372e-01,7.894347038360085556e-01,8.118579659045306943e-03,-1.164798342307124882e-02,7.717134406309097971e-03,1.778577685356140137e+00
7.748200442516381958e-01,-9.827925470900880089e-01,7.766516937069583015e-01,1.096033604468564515e-02,-1.533439375912714828e-02,7.320827786689244367e-03,1.758877873420715332e+00
7.395572590398380441e-01,-9.889372177794019114e-01,6.922625682732491681e-01,1.050169826050106024e-02,1.046419750752333733e-02,-3.967965830545327338e-03,1.705546259880065918e+00
7.663553720692133364e-01,-9.320176378793340044e-01,7.676148168721371734e-01,2.369981111458201867e-02,-1.923081138977644072e-02,-8.833058500678342070e-03,1.699894189834594727e+00
7.319531050782233095e-01,-7.593207931970552549e-01,7.487638930745610377e-01,8.266663864126264083e-02,-4.724695973560879593e-03,-3.426316859214498939e-02,1.507759928703308105e+00
7.939837303199146490e-01,-9.724140073521017058e-01,7.655109518406297830e-01,4.853917925936986934e-03,1.107922387419320309e-02,-4.675802516134812577e-03,1.752478837966918945e+00
6.136840505883289776e-01,-1.000268531647476200e+00,8.421293066687268736e-01,-4.409288049149059224e-02,2.610321505089295991e-03,7.314893042646351123e-03,1.741190195083618164e+00
5.969007646545667622e-01,-1.018817565085389454e+00,8.864365417090048771e-01,1.351663215710633553e-02,-1.550894254807619593e-03,-5.782515448257194608e-03,1.778437733650207520e+00
6.766176549996218981e-01,-1.264295926021464123e+00,9.225468312005536964e-01,7.051293357185342559e-02,9.478680255303321978e-02,4.162202877787057193e-02,2.086149692535400391e+00
7.842490245261637405e-01,-1.030384687288704137e+00,7.828181570281556034e-01,-1.448597728221264792e-03,2.448343220956937169e-03,2.787747685220881479e-03,1.813931822776794434e+00
7.515294733267480209e-01,-9.616550349143997423e-01,7.798561060282496182e-01,-1.329492373629522980e-02,1.523184409652261241e-03,9.104366658582092528e-03,1.727749466896057129e+00
5.709683613841691763e-01,-1.016759924109862601e+00,8.720034974888237755e-01,-2.844324151638628201e-02,5.577544689870542194e-02,1.589021906802671677e-02,1.761244535446166992e+00
6.931134205851199326e-01,-5.354052017300676702e-01,6.483793468663168191e-01,5.725546008359818674e-03,-1.627756998005476172e-02,-2.101328768681898478e-03,1.207149147987365723e+00
5.177827986074250433e-01,-1.181789104840228477e+00,9.523295430899763048e-01,-2.934046920236482031e-02,1.050252832890878341e-01,6.663353750831990663e-03,1.962581396102905273e+00
5.454788023766239391e-01,-1.011973651469530111e+00,8.716525342466870940e-01,-2.528577114460436523e-02,2.383267280996416437e-02,1.217735962943232095e-02,1.744739055633544922e+00
6.510447562856386261e-01,-1.019461390198055373e+00,8.320882573778348723e-01,-2.177030163715530306e-02,1.417145317076688379e-02,1.613294608470479397e-02,1.768786907196044922e+00
6.711024497255504428e-01,-1.008367364259853183e+00,8.017960784425794962e-01,1.223233617131712879e-02,-4.618986050362651474e-02,2.999972972154903161e-02,1.751212477684020996e+00
7.973865501976965531e-01,-1.023450942151875154e+00,7.814817426033505710e-01,-1.162397672070089420e-02,-5.760341857191993153e-03,-4.825945066271944417e-03,1.813095927238464355e+00
7.482589706172038113e-01,-8.917632116203542125e-01,7.795707157298266132e-01,5.487320349802528481e-03,2.115437617371795920e-02,8.121413460255504785e-03,1.656392455101013184e+00
7.879023579966886182e-01,-1.024890647948218714e+00,7.807282159979340719e-01,-5.328847768959918228e-05,-1.866426894933965065e-03,-3.287359551842155853e-03,1.809228420257568359e+00
7.094945315955334397e-01,-6.797376378838502209e-01,7.297183841603955834e-01,-2.405929830274072811e-02,1.807186453259498893e-02,-6.076175387663192845e-02,1.404372811317443848e+00
7.695831777216457503e-01,-1.027099016143737664e+00,7.879928756586651595e-01,-3.447918721368156084e-03,-1.092427596424218154e-03,-5.929625367026622636e-03,1.805997490882873535e+00
7.887077991018203171e-01,-1.031958923440463582e+00,7.799868356636611155e-01,4.091026456493201090e-03,8.875997295127585618e-03,4.807229211200467374e-03,1.816419959068298340e+00
1.616432381185207046e+00,-1.621005500524698384e+00,3.186618587770164712e-01,-5.943389102676104041e-03,1.543829554703020704e-02,-2.629024365515926220e-01,2.858659744262695312e+00
7.210237596829822682e-01,-1.016069846109318942e+00,8.154027265912694444e-01,1.162419569978155424e-02,2.653336552509774106e-03,-5.353267352923871646e-03,1.786297559738159180e+00
7.207475439348394186e-01,-1.020169405884902680e+00,8.124068003567558316e-01,7.918525914420578363e-03,4.835691061345723241e-03,3.313161856345111372e-03,1.788590431213378906e+00
7.854395921356418508e-01,-9.903993528305847782e-01,7.720817271586584152e-01,-1.051607216095355388e-02,-1.028125185310828187e-02,5.691553817978345885e-03,1.769408702850341797e+00
7.329594243544267362e-01,-1.031636595858229866e+00,7.973338789672215210e-01,1.620975195803432342e-02,2.522769615405826352e-03,-1.363762697827935674e-02,1.798027634620666504e+00
7.891106048421759889e-01,-1.033220489647630913e+00,7.860364715386709555e-01,-8.836468785929130253e-04,-2.444382833211296117e-03,-2.087794534565212429e-03,1.820805072784423828e+00
8.809055657657001159e-01,-6.194364916713974711e-01,4.702014050847070359e-01,-2.828492417844483478e-02,-2.817471108164091784e-02,-7.285650459721609851e-02,1.350634336471557617e+00
7.213707965225396590e-01,-8.045421620434148879e-01,7.605466689791369195e-01,-3.245681957367909168e-03,-1.404589057243993411e-02,1.027336912287548157e-02,1.546177268028259277e+00
7.858829982661179603e-01,-1.012736389256433611e+00,7.787232041890808087e-01,5.292770506090156571e-04,1.603301596199498743e-03,4.930677768306000047e-03,1.795072913169860840e+00
7.407811854357083670e-01,-7.360502506532313749e-01,7.244909408323397804e-01,-3.989431261356931463e-02,2.638174723138374256e-02,-2.813085753117558138e-02,1.471895098686218262e+00
8.133041800791604992e-01,-1.026113853660775899e+00,6.922422429667387522e-01,1.101797281162816833e-02,-9.200899895987570826e-03,-1.006436548516881010e-02,1.782232642173767090e+00
7.754974881443459367e-01,-9.947766439679879280e-01,7.903878112952321677e-01,-1.392633068575338442e-03,3.754143841044146369e-03,-1.507820880274627490e-02,1.777971386909484863e+00
6.961703089897343100e-01,-8.038733244709905801e-01,7.720487106540248057e-01,4.935519955447258041e-05,-4.962114753067859048e-03,1.140154669673556879e-02,1.539536714553833008e+00
6.245819972389023977e-01,-3.933240792132875474e-01,6.464063743122645533e-01,-3.314029823081157721e-04,1.945505717604768727e-03,-9.245051394835645739e-03,1.029122114181518555e+00
7.475853895718720388e-01,-8.945116850474990056e-01,7.780710059035889081e-01,-2.463778969217354786e-02,1.750680235922343411e-02,-3.354079807485395998e-02,1.659393906593322754e+00
7.944146907806564073e-01,-1.019901733792091036e+00,7.303370813190779298e-01,1.836976841452616846e-02,-3.810555844587507762e-03,1.496103440656823547e-02,1.783625602722167969e+00
6.871744662321543906e-01,-1.025229190532442214e+00,8.478253218380110701e-01,1.335040632143609518e-02,6.758313152400897625e-03,1.258509712876076036e-04,1.798306345939636230e+00
7.946781571264391886e-01,-1.023692250838319717e+00,7.791878476169189494e-01,5.790527570124958702e-03,1.822717424279188128e-03,-3.178638232431071908e-03,1.810713887214660645e+00
7.868141046602916688e-01,-1.026822174762254347e+00,7.791002689752534183e-01,6.086466111632020913e-03,7.955621353635201811e-04,8.250227796294839697e-03,1.809879302978515625e+00
7.298014108389427879e-01,-6.434615531778622444e-01,6.927386832827642227e-01,-8.469015565382137511e-02,-8.616400253021462910e-03,4.769832119108102612e-03,1.363134741783142090e+00
6.216902741828065349e-01,-3.032865316576560666e-01,6.222330612263911043e-01,-6.257726564044632095e-03,-7.120584084321951446e-03,1.040926599506937760e-03,9.253957271575927734e-01
7.703392375783606472e-01,-8.882786457401687930e-01,7.506377776625674514e-01,2.489096595688632813e-02,-9.664824723852551494e-03,-1.645251474165771452e-03,1.649506330490112305e+00
7.908989508301644822e-01,-1.030289562087416844e+00,7.693403067359112502e-01,1.357400087793404590e-02,3.855113275317444479e-03,-3.672221054235300097e-03,1.810681581497192383e+00
5.623564017768459822e-01,-9.910618370550106082e-01,8.153064045632841816e-01,-7.192046202091385843e-03,3.881042467899938064e-02,-7.942548646885738781e-04,1.695495486259460449e+00
7.874410030395644355e-01,-1.006663347174763246e+00,7.188531247220391052e-01,8.707833989966540927e-03,9.830672162012234205e-02,2.876343599657201627e-02,1.769791841506958008e+00
5.162810617523554413e-01,-1.090571782778684051e+00,9.423299813237531186e-01,-1.849881459479492396e-02,1.053461388412031963e-01,3.238147165983123760e-03,1.866130590438842773e+00
7.841045459278386254e-01,-1.034404804978168002e+00,7.808059279732785241e-01,-4.145538078141158302e-03,-3.510842462727675316e-03,8.997300833323236546e-03,1.816953539848327637e+00
1.422407560175545649e-01,-1.735276797122709658e+00,1.854998440671743687e+00,2.825712487839123765e-01,1.105165381651288248e-01,7.515494669568333064e-02,3.157130002975463867e+00
7.967772154508684368e-01,-1.035712049241683808e+00,7.862383776545834868e-01,-2.908615458906805597e-03,-1.807150324128218091e-02,5.261381864028904717e-03,1.827540397644042969e+00
4.958745106216975174e-01,-1.029905846802607217e+00,9.316138894006269489e-01,-5.860266865200364737e-03,8.240383641507827150e-02,1.116351554481459160e-02,1.789850592613220215e+00
8.350254196779123284e-01,-1.015702261878688839e+00,5.418903532929820743e-01,-9.024501881292388769e-03,9.679309534650303026e-02,-2.208853299755562157e-03,1.731176972389221191e+00
7.969244677887356021e-01,-1.009479887967529743e+00,7.721484084072290921e-01,1.438723025609912713e-02,6.777061441704537552e-03,8.951873860921274323e-03,1.794423103332519531e+00
7.911732549192170838e-01,-1.024292074125658925e+00,7.819153517119534769e-01,2.640853005147112634e-03,-5.188388841760995483e-03,2.402803403900090687e-03,1.810886979103088379e+00
5.057645074116425832e-01,-1.010255910975399907e+00,8.781484374456167696e-01,9.056796940306690354e-04,7.937076322680530760e-02,8.668680724189047060e-03,1.738003611564636230e+00
5.290950277045448624e-01,-9.994020197910588044e-01,8.764917518260447737e-01,-2.526603309533907715e-02,3.281648876717940810e-02,1.275364987580067389e-02,1.730207085609436035e+00
5.668672567676042995e-01,-1.006521446632262062e+00,8.581149051717729126e-01,-2.705892474790733832e-02,1.851885059829338001e-02,2.339279186764017110e-02,1.738818526268005371e+00
7.136336767095134981e-01,-9.959454078507274932e-01,7.308932106954375563e-01,9.468508302281658951e-04,2.212480515579955814e-02,-1.069237458007409394e-02,1.718801736831665039e+00
7.732901791686416226e-01,-1.029146062288825103e+00,7.535194908410388637e-01,1.480601752525276954e-02,1.519295583766326011e-03,-1.018822627571409380e-02,1.792904853820800781e+00
7.590528717346414211e-01,-1.012432410656212367e+00,7.231271053898173928e-01,1.376265387117578225e-02,7.667047305122931880e-03,-1.000684432320935596e-02,1.754096269607543945e+00
7.889562288535032497e-01,-1.021528176767978691e+00,7.808470317005561379e-01,2.711209655564407895e-03,7.451481250085253971e-03,4.055647226762031793e-03,1.806509375572204590e+00
7.450497767708921248e-01,-9.910506653591331094e-01,6.901562073897531402e-01,1.443282607176958610e-02,8.581474392464361750e-03,-8.500230493201628088e-03,1.709625720977783203e+00
7.341310696035607819e-01,-1.006132861516364052e+00,7.354108637789357195e-01,1.209781133617455172e-02,9.086661411348041784e-03,-1.502163926407416167e-02,1.741295814514160156e+00
7.533530610639341818e-01,-9.900777791368567948e-01,6.712586659617851836e-01,1.191681143088515159e-02,1.611005793992642543e-02,-6.008183715919120267e-03,1.704252839088439941e+00
7.896632852944502901e-01,-1.026030442062157766e+00,7.854177646614004527e-01,-3.163582097129637519e-03,2.461978524337792018e-03,1.123877277451820755e-03,1.813588976860046387e+00
7.518752604016538665e-01,-1.010201383034822209e+00,7.123052956221050946e-01,2.481419002926675207e-02,1.946735034431112260e-02,-2.389575193778745513e-02,1.743975877761840820e+00
7.650503419644367753e-01,-1.024945255651478648e+00,7.527222961103510190e-01,1.426817461679157073e-02,1.645814380403689409e-02,-1.701269625262982754e-02,1.784505724906921387e+00
7.417172836540304459e-01,-9.822780880034882589e-01,6.198764320117788884e-01,8.687037407709935141e-03,1.244964663844954633e-01,-1.272680812896989470e-02,1.680524468421936035e+00
7.374728189261449129e-01,-1.006457847987191290e+00,7.345638941589431870e-01,1.307220099768789667e-02,1.637893854824730780e-02,-1.504977746555718338e-02,1.743050932884216309e+00
5.860855871115080440e-01,-9.877757789975620817e-01,8.106508715161416800e-01,1.067225996061979543e-02,4.813141971679364001e-02,-1.186651683023957210e-02,1.699593424797058105e+00
7.242308344097287964e-01,-1.007332562540571574e+00,7.557449589636437981e-01,1.191869926353120862e-02,6.752539319857881611e-03,-1.535448096804753991e-02,1.747897028923034668e+00
7.005523694318684935e-01,-1.005714186888300166e+00,7.632726583941660259e-01,9.988483529273820341e-03,1.810187650956331454e-02,-1.339766626332195010e-02,1.738999128341674805e+00
7.779667253043386355e-01,-1.028003181654842724e+00,7.858800681396042043e-01,7.539443464674941593e-03,4.849305710312000126e-03,1.171031397068890683e-03,1.810007333755493164e+00
6.597769358666130124e-01,-9.859310827139804445e-01,7.519697446586227629e-01,6.674478648639183345e-03,2.343935683506030015e-02,-7.402576254767693174e-03,1.694261789321899414e+00
7.863427512321210511e-01,-1.025233851175972211e+00,7.826254697597233578e-01,-4.243791167900799396e-03,6.866707310715515489e-03,-7.098484090779124192e-03,1.809816598892211914e+00
7.876622593568860520e-01,-9.828096061245330528e-01,7.671112547627334521e-01,6.999564238347044144e-03,1.921534450863648588e-02,2.047160143687038521e-03,1.760646224021911621e+00
7.737120013364605642e-01,-1.036484806248708646e+00,7.932501819271060572e-01,-6.035563997070884923e-03,3.198972360782333709e-03,-1.121209957161825588e-02,1.820186614990234375e+00
6.520354740280507322e-01,-4.580518916917523664e-01,6.737744052286216423e-01,-3.554118745299121238e-03,-1.789896525147184614e-02,1.031968175025799054e-03,1.121561765670776367e+00
7.774400840117394740e-01,-1.035247639336569270e+00,7.782069611074287074e-01,-3.320256295865508904e-03,2.059638527030754462e-04,-4.294448467261655772e-03,1.813095688819885254e+00
6.938656446953631596e-01,-5.623975340911846477e-01,6.617358699912512243e-01,2.788135819203780945e-03,1.178077467167335315e-02,8.513239749391399115e-04,1.240688443183898926e+00
7.878076771607773754e-01,-1.032875493812781986e+00,7.824071685465856518e-01,3.023653952776564954e-03,9.751382723038038575e-03,1.234382716323229696e-03,1.818076133728027344e+00
5.763625043758997535e-01,-1.057062134660971653e+00,9.173850521140993752e-01,7.036841285082566511e-02,9.006985344777423529e-04,1.541934417808446707e-02,1.832205772399902344e+00
6.190619172634550527e-01,-5.052264485262787375e-01,1.154800144035236675e+00,-3.338747680245793270e-02,-1.967673175012426279e-01,-1.334608044182864772e-01,1.525219917297363281e+00
6.543772357888447688e-01,-3.925274546181223290e-01,6.588673136810556663e-01,-7.873318336838028633e-03,5.198117188207951322e-03,-5.117640748580580025e-03,1.049321651458740234e+00
6.241122623346463394e-01,-3.551599172092491652e-01,6.466240441922757043e-01,1.143855133518841861e-02,1.919784968706187865e-03,-6.247900932061713902e-02,9.968151450157165527e-01
6.788656155998840092e-01,-6.094783494563746906e-01,6.963608788109680869e-01,-6.540089190654213569e-02,2.730871173241761207e-02,7.001847028183435032e-03,1.303032040596008301e+00
7.064340467982664906e-01,-6.692597054726200367e-01,7.078136418039014943e-01,3.485249766707888310e-03,2.240940870825336440e-02,1.162757990150709193e-03,1.376945972442626953e+00
6.980239794584979229e-01,-7.449198659561068192e-01,7.539045179663278473e-01,-1.498875381684362622e-02,3.812424968556150234e-03,-4.857060826342933513e-02,1.474325895309448242e+00
6.316497316601548118e-01,-3.929920553919437065e-01,6.624542078762108988e-01,3.052136253035148822e-03,1.633994741134105894e-02,-4.215635166034440232e-03,1.040809988975524902e+00
7.043635594535528899e-01,-4.469830565193578797e-01,6.587360859347659581e-01,3.011815389246980286e-04,-1.072568706740108582e-03,-1.448959678333181234e-01,1.156778335571289062e+00
6.572761565398066441e-01,-3.980654512533077227e-01,7.766968577870604351e-01,4.205375386402062515e-02,-1.116290308916366956e-02,-1.087502132633095947e-01,1.138066768646240234e+00
6.248404308137602836e-01,-3.738536434293112110e-01,6.473827203754947135e-01,1.781507471158130101e-02,3.290987603634844359e-03,-6.738648475190317511e-02,1.017358541488647461e+00
6.896326366282659048e-01,-1.029773484775842407e+00,8.495101390885475556e-01,1.541332415141148660e-02,3.086517363789799059e-03,1.296326928592590397e-02,1.805009126663208008e+00
6.625097873107410607e-01,-4.767512641206724799e-01,6.698269680122175274e-01,-4.657332162939344100e-02,2.738849448674811338e-02,-6.604145020513944864e-02,1.152452826499938965e+00
8.489219175556866892e-01,-1.023299556433800106e+00,6.804971872144874867e-01,-2.906653246016761686e-04,7.703939538086427771e-03,1.152840031910000104e-02,1.794109463691711426e+00
7.862551945328541958e-01,-1.027258720599283581e+00,7.923642696609833891e-01,-8.860406597799378716e-05,3.044708732813092462e-03,4.659968572475971585e-03,1.816601753234863281e+00
6.988605465792394611e-01,-5.600519513554946816e-01,6.446555652440814077e-01,-7.615623963744434918e-04,-2.469925263066041592e-03,5.341382252324609545e-03,1.232746958732604980e+00
7.537608083586212482e-01,-8.100406688729107074e-01,7.228247878092943779e-01,1.692267695449535536e-02,-6.551336393556068428e-03,-2.368631513338073646e-02,1.549427390098571777e+00
7.772874629519164191e-01,-1.014844599101902167e+00,7.934136232985612436e-01,-3.324639658677480507e-03,-1.288110825655001696e-03,1.724991912887486678e-03,1.800262331962585449e+00
7.926401882359932483e-01,-1.021869997317255363e+00,7.864904132487067212e-01,4.989696285701161575e-03,-6.734991133620915615e-04,-1.913345424579462840e-03,1.811467170715332031e+00
7.947616466269212809e-01,-1.026671764862372216e+00,7.815940996050958489e-01,5.812965613249439743e-03,-2.114795815875581981e-03,3.075015670590967691e-03,1.814924955368041992e+00
7.951589875488774828e-01,-9.842544229851226678e-01,7.632309959362465479e-01,-1.761744881626430915e-03,-1.444915661470995601e-02,4.665392761103699139e-03,1.763864874839782715e+00
7.559802025298907324e-01,-9.610161015683642560e-01,7.827281887854087294e-01,8.802056120142964096e-03,-1.957358857774431967e-04,-5.296285023844669697e-03,1.730616807937622070e+00
7.600354035088590088e-01,-8.717211972988010427e-01,7.426136850850990623e-01,-5.601342536958799946e-03,-2.127145576274606931e-02,5.161710999298356646e-03,1.623587608337402344e+00
6.165513273755207635e-01,-2.352474126097956475e-01,6.173742883278654503e-01,-1.300593001950269348e-02,-1.832514344118276340e-03,-4.270973278769531895e-02,8.557176589965820312e-01
6.862706881133838754e-01,-9.966098047815243888e-01,7.579055221838501000e-01,1.082870571948672117e-03,-1.888292766863926275e-02,-1.587485716248092024e-02,1.720348954200744629e+00
7.691776408916202179e-01,-8.577223042219519478e-01,7.426635049454783921e-01,3.524504172125400570e-02,3.824414477629833951e-04,1.305769940084612179e-03,1.614962100982666016e+00
6.508327972077468937e-01,-5.672113478411460186e-01,6.935993091564744972e-01,3.727888128770024106e-03,-4.842154559465184673e-03,-5.919782697764234582e-03,1.240068197250366211e+00
7.738038029512444016e-01,-8.723908038059928760e-01,7.361056502604625962e-01,-2.712325137782341765e-03,-2.600146120468698266e-02,6.204098320208377079e-03,1.628338098526000977e+00
6.548946254740712902e-01,-3.160479755743625385e-01,6.371576071106175299e-01,3.457455094015468577e-02,9.696678220913022492e-03,3.495061253327668566e-02,9.661031961441040039e-01
7.685514299545721517e-01,-8.558187192568651458e-01,7.330839912613378306e-01,3.583542620375707033e-02,-5.122710637886896887e-03,8.306117477693841528e-04,1.608153462409973145e+00
7.864168544303339337e-01,-9.839761399308657452e-01,7.696764525288735115e-01,-3.724852518436543979e-03,-1.292656585633449387e-02,3.361231630031679719e-03,1.762246131896972656e+00
7.450435480366759400e-01,-7.465148039337300423e-01,6.949213177863222679e-01,5.768006932602928044e-02,-1.724047607059980879e-03,3.454072884751047904e-03,1.470552325248718262e+00
7.814732752505129110e-01,-1.016585343843698697e+00,7.858214907272648153e-01,5.331278832142543299e-03,-1.680920645464711221e-03,-1.886435536188413656e-03,1.800265669822692871e+00
7.931743106698201373e-01,-9.873195358339741379e-01,7.722586272323621603e-01,1.727336097848914537e-02,5.456965994043804337e-04,-1.751774536295063042e-03,1.770384311676025391e+00
7.947176632639059157e-01,-1.019489484703585802e+00,7.809881362904877999e-01,-3.465611415782713332e-03,-4.577102053878977228e-03,7.777320475064379655e-04,1.807409405708312988e+00
6.834134518983177031e-01,-9.766200688243956707e-01,6.923598764359232272e-01,1.376109106372863135e-03,-6.465027457523407628e-02,1.105604204954149187e-03,1.668289899826049805e+00
7.918902837392096661e-01,-9.801122695469411950e-01,6.097353825174546271e-01,8.880213237574931598e-03,2.469043508728273328e-02,2.014652011566228466e-03,1.688926339149475098e+00
6.791443698239605364e-01,-9.804573988847733457e-01,7.380035519966068325e-01,1.166521044584290911e-03,-9.556665794160980679e-03,1.708167718072357887e-03,1.689885258674621582e+00
5.858644565320231257e-01,-9.879589351400414055e-01,7.936658308120114746e-01,1.250449958169537988e-02,-5.362687270395703754e-02,1.881270185112942847e-02,1.690355777740478516e+00
7.824069574659264781e-01,-1.033770632835816272e+00,7.849757436654112297e-01,3.029526597873284134e-03,-2.083595778684977327e-03,-4.071732507078372346e-04,1.817474603652954102e+00
6.431834043739494966e-01,-9.785341297209404487e-01,7.473068964419267157e-01,-8.268773532799611166e-04,-3.529501375682096709e-02,5.248210854945199386e-03,1.677346229553222656e+00
9.825215658468151592e-01,-1.231462142125247183e+00,5.652536497244013969e-01,-3.815876614830578106e-02,3.130561974665098668e-01,2.832808017468282057e-03,2.109601020812988281e+00
8.001285882793292004e-01,-1.012903177343791317e+00,7.722097623368529007e-01,2.834959539611125057e-03,-2.426105917885084361e-03,-1.035105916965785126e-03,1.799247264862060547e+00
7.993716132466284208e-01,-1.012709010077000427e+00,7.761876243453142976e-01,3.492106244027373425e-03,-4.542469113607889740e-04,7.785430896807737965e-04,1.800611376762390137e+00
6.929629643082626522e-01,-9.922748202644735560e-01,7.442276270405414618e-01,-4.472120189441456013e-03,-7.973334093849614168e-03,-1.211932553547223623e-02,1.711647987365722656e+00
6.390213503273620699e-01,-9.803579376373399157e-01,7.578411395197233169e-01,7.069996413886912206e-04,-2.976965228977682468e-02,-7.248105313991627316e-03,1.682777285575866699e+00
7.031897297439652084e-01,-9.917459958735628245e-01,7.365924481527981182e-01,-6.872731232994885517e-03,-1.385722626091930205e-02,-1.085021673387307276e-02,1.712194323539733887e+00
7.265450930215255898e-01,-6.041793236010730705e-01,6.669733071124355206e-01,-7.579191704124971229e-02,-2.598940293854721043e-03,4.211463696657221853e-03,1.308590650558471680e+00
6.600765724837415194e-01,-2.985210162085107921e-01,1.102398257554959571e+00,3.916225135378764016e-02,-1.330730141723578397e-01,-3.451607403810617175e-02,1.264858365058898926e+00
7.129935154637045969e-01,-1.016531950075949542e+00,7.200427841071338486e-01,2.948931697638645932e-02,-1.479545300713531186e-01,3.012934979462177781e-02,1.753426313400268555e+00
7.255687191098267874e-01,-9.837888903411249331e-01,6.886817806527198993e-01,-4.677004222843799200e-03,-1.615260892202834142e-02,-4.306345467397837065e-03,1.691483139991760254e+00
7.421355382184029459e-01,-1.041970706365655142e+00,7.291062103454105658e-01,-3.355768030626198051e-02,-9.548846744363172212e-02,-3.906777872581795874e-02,1.787531971931457520e+00
6.576138761355532214e-01,-4.351628531189056792e-01,6.698169279611134730e-01,6.539034166780688384e-02,1.664757054363818350e-02,4.326119427314770866e-02,1.107663631439208984e+00
6.929503924243238799e-01,-5.624620335738321764e-01,6.704249126982848583e-01,2.786538172194908368e-03,6.984336389664758636e-03,9.651577726110052453e-04,1.244371891021728516e+00
6.183744405823100587e-01,-7.264682587779989209e-01,5.961424918124551553e-01,1.598216676149819548e-01,-4.039711363674862721e-01,8.622186063471111439e-02,1.538735628128051758e+00
6.325080587195517356e-01,-2.514204563335628029e-01,7.022525174112483892e-01,1.658479146756840911e-02,1.955687230901610664e-04,1.127452786616107427e-01,9.417020678520202637e-01
4.044767085140534846e-01,-6.094935784525489231e-01,8.262808760669532182e-01,-1.821610875821107201e-01,-2.291950499998897661e-01,1.107917392863529311e-02,1.375230431556701660e+00
6.462182540525296393e-01,-9.969373214736605426e-01,7.905531066485464997e-01,-1.781684873633629807e-03,1.843701485222852890e-02,-1.860712939992829190e-02,1.720472455024719238e+00
4.911833996958442361e-01,-2.134143753162619506e-01,7.139792620174769677e-01,-1.500460889664368969e-01,-8.417901501046401447e-02,-3.848030835523378679e-05,8.898748755455017090e-01
6.871902705337314954e-01,-2.030583662892395669e-01,6.598455216087231179e-01,1.253125912608775705e-01,-4.239750604760655905e-02,-3.306553765597872174e-02,9.081459641456604004e-01
6.378866980925504970e-01,-3.690645815461317536e-01,9.597124022171925617e-01,-9.314539946289049355e-02,-2.022421907888592996e-01,-1.884152063902419239e-01,1.302620530128479004e+00
6.380917252698959929e-01,-2.944207954215296574e-01,6.494719268380864108e-01,2.299029031803290560e-02,1.915698473202861411e-04,4.720960893663430497e-02,9.426522850990295410e-01
7.377360312353866689e-01,-5.070400164739483628e-01,7.553443401954923475e-01,1.414473975195721378e-01,1.968254921579032715e-02,1.207527939221407914e-01,1.294845104217529297e+00
7.696814548297086223e-01,-1.022966379256302183e+00,7.592578032661319032e-01,-1.700874352598537309e-02,-1.202615228023752592e-02,-1.135779091833286070e-02,1.787931084632873535e+00
7.518216991721361486e-01,-7.755564270092680790e-01,6.991248280030968321e-01,-5.268813771334883780e-03,2.212881059700053370e-03,-1.780700602472693340e-03,1.501759052276611328e+00
7.747051283005166322e-01,-1.029429150473453847e+00,7.713918213945787361e-01,-1.418407775015173740e-02,-2.172684218937365012e-03,-6.150658209669192418e-03,1.802682757377624512e+00
7.858029783807779500e-01,-9.969714927265188598e-01,7.532215579762031599e-01,-1.282388394308636714e-02,-3.399375781704886638e-03,4.215527393287487809e-03,1.766873598098754883e+00
6.581637825627324467e-01,-4.053846204271364662e-01,6.435771039213682432e-01,-5.669481075818728205e-02,1.594790445556337408e-02,-2.722591854914298976e-02,1.062291860580444336e+00
7.900689339377112708e-01,-1.027341249874922147e+00,7.778259162923324421e-01,-5.090855577409897706e-03,5.158867261690970899e-04,-8.228273625413198150e-03,1.811397433280944824e+00
7.826153172121437240e-01,-1.028216066885176971e+00,7.793664645713197503e-01,3.745312420162424374e-04,-7.154550005157930478e-03,-6.858403537406152026e-04,1.809252142906188965e+00
7.860224902831094429e-01,-1.022056984660547396e+00,7.402171274074706986e-01,-1.509341669990936670e-02,-5.129769975974382210e-03,-1.268889988210815910e-02,1.785966157913208008e+00
1.073167262102123098e+00,-1.505700967331289331e-01,9.187171337159298901e-01,-2.730656758858634060e-03,-2.283628944046501089e-02,4.106709753866010643e-02,1.157163739204406738e+00
7.915004408296120175e-01,-9.861251529908361402e-01,7.670986499179146545e-01,1.585372660500100964e-02,-4.665470174066222928e-03,-2.463155937577328567e-03,1.765788316726684570e+00
7.830850608258206336e-01,-1.009118395947941726e+00,7.641704105506699207e-01,-5.618590753002606145e-03,5.542207513593572568e-03,-6.053098087242552621e-04,1.782874107360839844e+00
7.781897808160894714e-01,-9.983763922592631124e-01,7.759844336186009217e-01,7.500764221473962476e-03,8.022084536013048689e-03,-2.083167664517905030e-03,1.775570034980773926e+00
7.802578915881961397e-01,-1.034846272744883722e+00,7.876644636285554668e-01,-7.677813256849121311e-03,-6.585848707151714838e-03,8.620412693052293979e-04,1.818903803825378418e+00
9.884368712198141615e-01,-1.128236485938710620e+00,5.481376173659772144e-01,1.226832840910338507e-02,-6.972469168540251783e-02,9.744721640688353004e-02,1.945693612098693848e+00
7.092993514942264044e-01,-1.014051379833802669e+00,8.270997751922470886e-01,-1.986478676608845889e-02,2.762885922077119275e-04,1.367620235046719014e-02,1.785657048225402832e+00
6.637950655846237558e-01,-1.036696667203305777e+00,8.196576462838000010e-01,3.325283836972641599e-02,2.516580484984888288e-01,3.820304471792176915e-02,1.838123798370361328e+00
7.965280188091173885e-01,-9.695972476005072505e-01,7.559495191006855297e-01,-2.915941695887431899e-03,-4.947127876813279049e-03,3.115004888531393203e-03,1.746226310729980469e+00
7.943796934127802523e-01,-1.038071159215274264e+00,7.854978580906735175e-01,7.902417008714407790e-03,-8.683943674463696222e-03,5.197671451593084170e-03,1.828161358833312988e+00
7.279908727199551066e-01,-9.812882201278463334e-01,7.241332090370673491e-01,-5.604326994032634603e-03,7.732291788528564136e-02,1.668528057687689026e-02,1.712869524955749512e+00
7.704152339420227147e-01,-1.032379361351618563e+00,8.094690150112677784e-01,9.560659157355211324e-03,6.756606902636521153e-03,-9.169355705713519000e-04,1.822748780250549316e+00
7.812696502382343589e-01,-1.015382456319847027e+00,7.857083873647672245e-01,-4.368662779160408655e-03,-1.648245023104878259e-03,-4.082395956427994910e-03,1.798907637596130371e+00
7.497377519889982800e-01,-1.028738383635427578e+00,7.766391471266287372e-01,-1.053293559721680747e-02,6.942892725783653650e-03,1.394312649875187327e-02,1.792374134063720703e+00
8.757624080339959649e-01,-1.150887248790850359e+00,6.668029115473894652e-01,-4.575213004835116531e-02,-2.720003970496502887e-01,-5.578272838723530996e-02,1.991244077682495117e+00
6.238637833805471544e-01,-3.638319980086022754e-01,6.540488029479064602e-01,-7.035352094114360327e-04,8.356460765240434838e-03,6.870521768724607847e-02,1.010267257690429688e+00
7.852372716914742812e-01,-9.885448470071064309e-01,7.718142200997183400e-01,4.253346613009381834e-03,-1.188550955410652352e-02,-3.583957283420337574e-03,1.767254948616027832e+00
7.715107361262448782e-01,-1.023292165320500491e+00,7.829279508393018894e-01,-1.231858953902620259e-03,-4.821912371692528565e-03,1.034359586584327959e-02,1.800648450851440430e+00
7.930798185511855891e-01,-1.033677254508192478e+00,7.835667364351627251e-01,3.614530525123406043e-03,-7.504123860848850233e-03,-5.691571157184036923e-03,1.822102904319763184e+00
7.856504123690550845e-01,-1.035089221080574662e+00,7.782644654354023972e-01,-5.653189936026984524e-03,6.817569919320747018e-03,-4.278117182856918527e-03,1.817137718200683594e+00
7.821710535946335696e-01,-1.024701394967637569e+00,7.808421531327600640e-01,-4.174051549051459482e-03,4.168549541083085147e-03,3.848058843173783085e-03,1.806249618530273438e+00
9.890212469193164768e-01,-1.226563457278985858e+00,6.786589678123012837e-01,6.590240173251418754e-02,-1.726508931433038407e-01,-5.505787855371801348e-02,2.104532003402709961e+00
6.888997847281382869e-01,-9.878358244463265603e-01,7.436467898267669074e-01,7.871483098631193789e-03,8.667208495665042894e-03,-8.618269455170142479e-03,1.704954504966735840e+00
8.023152115656875250e-01,-1.024415245210834380e+00,7.071687423349959367e-01,-1.125390652342716721e-02,-3.448128830279267171e-02,-1.387208454686367567e-03,1.782173633575439453e+00
7.297770372931904337e-01,-1.033535349378680523e+00,8.185254073777290529e-01,1.850372324108520358e-02,1.839934183741533807e-03,-7.706536463668338909e-03,1.809655666351318359e+00
7.785743469556319907e-01,-9.821622813193306989e-01,7.748034630035824932e-01,-6.204873619365261841e-03,1.794332213238225213e-02,6.352048506873937683e-03,1.759196043014526367e+00
7.770128756598754238e-01,-1.000429473242442358e+00,7.868248425828638926e-01,-1.036099731267354574e-03,7.573852928778649317e-03,1.658324704674478053e-02,1.782649159431457520e+00
6.900870550745833443e-01,-1.008853238058415869e+00,7.573043666278764796e-01,-8.720485630136298738e-02,-2.589302284478878780e-01,-1.835804357518575763e-02,1.797240734100341797e+00
7.267430513618819976e-01,-6.302204003975118152e-01,6.773604317149424237e-01,-6.650535932479739731e-02,9.693675434775429756e-03,1.733722075157360628e-03,1.338035106658935547e+00
7.794232164758114756e-01,-1.025299178117906607e+00,7.801987144114397310e-01,5.788940257358313711e-04,5.852786807186670381e-03,2.623257014867464505e-04,1.805139064788818359e+00
6.848077235641940597e-01,-4.789288110240361163e-01,6.298633374275343089e-01,1.029827549762201127e-03,-3.044289864225794597e-03,4.172661754325185683e-04,1.137274026870727539e+00
7.728814537177239874e-01,-9.919188587552585368e-01,7.785154586915064012e-01,3.286898744974040693e-03,9.960282548699430499e-03,9.874231874926316099e-03,1.767800092697143555e+00
7.787604519000933534e-01,-1.013652283150102473e+00,7.936662620863030870e-01,1.188420901843065952e-02,2.265374500898593990e-03,4.481308500042245277e-03,1.800050616264343262e+00
6.203927790289884836e-01,-3.291477729824206500e-01,6.186475299969722563e-01,5.093302743466328504e-03,-2.868875571442724634e-03,-2.022621666515445754e-03,9.487296342849731445e-01
7.538366123708599709e-01,-8.401724111401540629e-01,7.473596470236301137e-01,-3.475132370961461076e-02,2.617122142537189541e-02,-3.730692643524641250e-02,1.593874335289001465e+00
7.408754708201172878e-01,-8.369916479810548537e-01,7.616398176318723845e-01,-4.601639333445771245e-03,-9.171411353167535771e-04,3.997020024536968030e-02,1.589879870414733887e+00
7.798531634920763400e-01,-1.015331865597174144e+00,7.843788508915197077e-01,-1.328017155231805621e-03,-1.213164309175077549e-03,1.229543735010238479e-03,1.797456145286560059e+00
7.737827694308716531e-01,-1.000459955800024447e+00,7.898966876058715059e-01,-7.226094707397955064e-03,-9.694083904286750122e-04,4.559394000475034542e-03,1.782416582107543945e+00
7.758834148074349457e-01,-8.925618105044879069e-01,7.481074165403629461e-01,2.600507146033746459e-03,-2.772506164566797965e-02,-4.948058054247811942e-03,1.655457019805908203e+00
7.655090536052607808e-01,-9.471642906437639509e-01,7.893435813456027850e-01,1.415520487084663721e-02,4.153428099175072476e-03,2.087416919372306334e-02,1.725282311439514160e+00
7.817975189183006268e-01,-1.025897554346173024e+00,7.957919982628148814e-01,-7.996919798500406323e-03,1.718219536426014021e-02,1.776298332503827709e-02,1.815290331840515137e+00
7.271492464807048917e-01,-8.332979863803824383e-01,7.602288016856292296e-01,-3.213012596138058955e-03,6.283953024271171119e-03,3.860367458415880915e-02,1.578711152076721191e+00
7.378556223804497716e-01,-8.800577633466737382e-01,7.650181736645897956e-01,1.030978890700835586e-02,2.781355984960983546e-03,5.613949611444057084e-04,1.631769299507141113e+00
7.860390276334099369e-01,-1.025784085828305159e+00,7.965875472917126610e-01,2.909628219000474914e-03,-6.832011984191323955e-04,4.197648797179760792e-04,1.817127823829650879e+00
7.023310932087356573e-01,-6.341493952400740763e-01,6.933638896415725839e-01,9.290750199963447239e-03,-1.990534801189530745e-02,3.010048313144602153e-02,1.333582282066345215e+00
6.797167002889853427e-01,-1.028507801671154187e+00,8.357907734719220993e-01,-8.736588155404633165e-04,6.662079472491762300e-03,8.983260153997793974e-04,1.791406512260437012e+00
7.617630392957273067e-01,-9.941184707675576604e-01,6.895235062788773739e-01,-1.898943761811183392e-02,-5.598263949632519693e-02,-2.010028299145705244e-02,1.724294185638427734e+00
6.034119479944216602e-01,-1.113944432460568068e+00,1.031028117008475631e+00,8.975212530337045580e-02,-3.299792311064053685e-02,8.542327423630017083e-03,1.973370194435119629e+00
6.673725503954557325e-01,-4.593789198952500374e-01,6.707564347073535771e-01,-2.864897835275617005e-02,-1.641346191144221062e-02,7.446204542107724700e-02,1.137232303619384766e+00
7.911738344497621922e-01,-1.027702351479809373e+00,7.679632377772492857e-01,-8.576302728980914752e-03,-4.449950849039613614e-04,7.319085135435922373e-03,1.807488322257995605e+00
6.290784689527288975e-01,-3.289174594668252682e-01,6.185843834475149849e-01,3.204715887059878584e-03,-7.791048198592996285e-03,-1.908746253872807769e-03,9.529097080230712891e-01
1.021477035743283412e+00,-1.219584270152973549e-01,1.086104093332841192e+00,-4.423851606931374081e-02,-7.503647774851350538e-02,-2.375866687956387432e-02,1.187423348426818848e+00
7.219154402565334250e-01,-7.644847024461114415e-01,7.335760680913309129e-01,-5.838706436237220757e-03,2.976795435765823908e-02,-5.109154516276847094e-03,1.493215560913085938e+00
7.912135908338459034e-01,-1.037392286982136813e+00,7.797291756877281488e-01,-9.395809554448660353e-03,-2.142185539545334635e-03,-1.303720967493974398e-02,1.823107123374938965e+00
7.924844805638868728e-01,-1.022575930350186235e+00,7.361200161810228515e-01,-1.859818020424722218e-02,-1.878777749750108403e-02,-1.711149933060818890e-02,1.788376688957214355e+00
5.647827211106229983e-01,-1.103703690162654905e+00,1.010382159825968351e+00,4.051711917722447542e-02,1.072022908859213974e-01,-6.862525690616730345e-02,1.944071173667907715e+00
6.272240402950579607e-01,-5.014754757233118587e-01,5.783897873163095227e-01,1.633610112511096613e-01,3.096625814498392693e-01,-2.582227213569453575e-02,1.261333346366882324e+00
6.310584054647589980e-01,-5.027453666934489362e-02,1.070092344480705782e+00,-1.956965082682025903e-03,-4.086290390855099042e-02,-5.142093988163692897e-02,9.844017624855041504e-01
3.807210358097382619e-01,-1.081013081534355269e+00,1.016170955614159599e+00,-6.094810767953960651e-02,1.179906652341107393e-01,1.509633327437010647e-02,1.876942992210388184e+00
7.715000110570896519e-01,-9.222387093605846076e-01,7.639114761303043011e-01,-8.141080145566708184e-03,2.062934356906530320e-02,1.735188698005733429e-02,1.690660834312438965e+00
7.699647388561665640e-01,-1.003736583326835019e+00,7.805754738656751623e-01,-3.119979781715789477e-03,6.534052868383292620e-03,-8.184750840575474862e-03,1.779131054878234863e+00
7.746974687241788837e-01,-9.891132760178301675e-01,7.735649386944298822e-01,9.539527307807584011e-03,9.672574202814801167e-03,-2.549649513860967960e-04,1.763401865959167480e+00
8.422004761849788412e-01,-1.022148180536414541e+00,6.772826308092559922e-01,-7.450225172312776450e-03,4.069042276998357448e-04,1.772335023047381594e-02,1.787914633750915527e+00
7.876269363976882154e-01,-1.023527770424867311e+00,7.849058125109049655e-01,2.466865475781160506e-03,2.435157618297534993e-03,-3.816240786817931270e-04,1.809805750846862793e+00
7.518796678099124442e-01,-7.756803025890026682e-01,7.006841516669057857e-01,-3.821282283097466106e-03,1.332255251832721414e-02,3.572276992505744354e-03,1.502820968627929688e+00
7.786409112866818916e-01,-1.024945542687430988e+00,7.869057911714891773e-01,-8.122496413252766959e-03,-8.399786393266293026e-04,-6.507832675232522526e-03,1.807823538780212402e+00
7.787624031887285803e-01,-1.032921904116421041e+00,7.842915384288856595e-01,-6.318204326728462002e-03,-6.449422900364651335e-04,-8.053479286591653727e-03,1.814542174339294434e+00
7.697613218713547090e-01,-1.030489382020422173e+00,7.899842416000739664e-01,3.289181595636418622e-03,1.315500377092700644e-03,-1.026822729674396230e-02,1.810544610023498535e+00
7.257524640058550247e-01,-1.021440041897363038e+00,7.891230209179618260e-01,-1.933021136965159311e-03,2.481209871496367538e-03,-1.715112740153417609e-02,1.779980421066284180e+00
7.064022512877857762e-01,-1.008209226422209559e+00,7.634983718081193027e-01,-1.556651189910434815e-02,-2.416440763531028935e-02,-1.764434658010449741e-02,1.744838953018188477e+00
7.714346786105558129e-01,-1.029102537769523762e+00,7.922666477591915335e-01,6.635187993164849696e-03,2.593367021273260565e-03,-3.072067398605031301e-03,1.811092972755432129e+00
7.907214962888428067e-01,-1.000250397886130127e+00,7.727901853281411437e-01,-7.197873433220412266e-03,1.756630515480496826e-02,-2.239681648750260420e-03,1.782381415367126465e+00
7.606261607599615893e-01,-1.027476949798332928e+00,7.854438423527976276e-01,7.038685584846653999e-03,3.283003530741992072e-03,-1.053241537517359341e-02,1.800782918930053711e+00
7.579849918695250599e-01,-1.029136021698390913e+00,8.024312663434935988e-01,7.156669743453024021e-03,-8.123887456320626459e-04,-1.081565690335343881e-02,1.809893488883972168e+00
7.389316553443570079e-01,-1.024072839911760902e+00,7.881737195393054840e-01,-1.372488342240959364e-02,-5.569302519510694813e-03,-1.510944145971579444e-02,1.788509607315063477e+00
7.795507432729831265e-01,-1.022021864390443957e+00,7.889482908269493944e-01,-4.615499999299490716e-03,2.152059214047925221e-03,-2.284888459083354341e-03,1.806315541267395020e+00
7.787748343532059359e-01,-1.037063838510941416e+00,7.796400114449750784e-01,8.755412514016303873e-04,-1.218871611497311831e-03,6.372991874845023406e-04,1.816273570060729980e+00
7.785606766663049072e-01,-1.035837511422408541e+00,7.829978915500541703e-01,1.068223335278445721e-03,-1.854751442583997415e-03,-2.165748105864663715e-03,1.816628456115722656e+00
7.238997329001142234e-01,-7.421698083206603735e-01,7.240113268674484015e-01,5.862167567072507600e-03,-2.833831155702695379e-02,-5.165199386694064448e-03,1.467009186744689941e+00
7.806911029528736945e-01,-1.026636034651885243e+00,7.798590346042522103e-01,-3.756800221556595796e-03,-5.179609820097023226e-03,-2.978303929677990694e-03,1.806952595710754395e+00
7.794212801056419337e-01,-1.029842855021490644e+00,7.659881170251342519e-01,1.075585530292564110e-02,-6.690978381409579036e-04,2.499956726500496274e-03,1.802686929702758789e+00
7.914503770546186256e-01,-1.025083495957187729e+00,7.801439360540796120e-01,1.785439690147468681e-03,-2.509613590680461089e-03,-3.840794356201142172e-03,1.810927152633666992e+00
7.696041362440941835e-01,-1.015125586703975458e+00,7.717788696078931032e-01,-5.374324470717358089e-03,-7.185241086433524597e-04,-1.760225566694977647e-03,1.785845398902893066e+00
7.401406024085430690e-01,-1.025425067796168044e+00,7.970931913927212786e-01,-8.559480805779494730e-03,-4.565253632273025622e-03,-9.311907922855779118e-03,1.794870972633361816e+00
7.646891225598421160e-01,-8.799040002495607249e-01,7.442337546479159682e-01,2.484780648208671436e-02,1.492206373779955512e-02,1.771960766653588037e-02,1.635520219802856445e+00
7.660842077396287086e-01,-9.373506476004663801e-01,7.667143274116127172e-01,9.088913465386355001e-03,1.486867368488963524e-02,2.228964730265672878e-02,1.704454660415649414e+00
7.515681873884122455e-01,-1.024877252146430884e+00,8.089827895302056371e-01,-8.826287387564923231e-03,-3.136499623323931590e-03,-6.951623237380635204e-04,1.805910706520080566e+00
8.313216004318489949e-01,-1.130653453092885341e+00,8.632016981703546366e-01,1.639681607266410546e-01,-9.636801984314352643e-02,5.614793047985177504e-02,2.007706403732299805e+00
7.308556332875715267e-01,-1.045785173981512717e+00,8.572103386555558480e-01,2.735903443163363244e-02,-9.765177413962691788e-02,4.947431264383141125e-02,1.853402614593505859e+00
5.214363378602374643e-01,-1.006980568569321166e+00,9.000125581980945588e-01,2.606948619983423532e-02,-4.051806526543726139e-02,1.753079362386740850e-02,1.750967264175415039e+00
6.308379999688444872e-01,-1.023210908186350077e+00,8.615033975772008468e-01,6.127344396410164956e-04,-2.048576255953615533e-01,2.666232693229530354e-02,1.816218614578247070e+00
6.616265359594231121e-01,-1.224719378074736964e+00,9.177727929568855192e-01,4.516115852754157278e-02,-2.221010840860561941e-01,3.965358605934881514e-02,2.065409183502197266e+00
7.856494779799119144e-01,-1.031403136519371655e+00,7.878639053973215400e-01,1.826702419680508154e-03,-2.083427657608996446e-03,2.388030904634652531e-03,1.818171858787536621e+00
5.952211877648511118e-01,-1.003910273448414880e+00,8.184212187135193606e-01,1.973322134847840456e-02,-4.973573688904683876e-02,4.318733283265666079e-03,1.724126100540161133e+00
6.473193930037551835e-01,-5.632819553889643061e-01,6.486986367646738749e-01,-1.653710295927728058e-01,2.229575340915968540e-01,2.273548012088205117e-01,1.361422300338745117e+00
6.643325343497245017e-01,-3.399998824044491719e-01,6.959664774976865864e-01,1.209162667068389707e-01,-1.471019202697355054e-03,1.404082405690622315e-02,1.042072653770446777e+00
1.017233500782530609e+00,-6.790720604284072870e-02,1.042377029930226406e+00,4.508696902328465650e-02,-2.460188529771541177e-02,-5.400936959691850225e-02,1.105491757392883301e+00
7.587006233937357846e-01,-8.608442148495096813e-01,7.714379863116455072e-01,4.473118065442767410e-02,1.358152978710485889e-02,1.110522924634792935e-02,1.628079414367675781e+00
6.724683303339011875e-01,-1.641328155595645488e-01,6.742879752234863799e-01,-1.183712368741330068e-01,2.738458784970052365e-02,9.544771962182777014e-02,8.792285919189453125e-01
7.510719617903622858e-01,-9.044237551200730030e-01,7.735069650812247399e-01,7.741310407934073184e-03,-2.523157211177168291e-02,-7.291642134290605634e-03,1.667500972747802734e+00
7.731815589767904173e-01,-9.748957966952569443e-01,7.763042273670035520e-01,4.723260761126800433e-03,-1.855589878214491603e-02,-3.866034224249010384e-03,1.749967932701110840e+00
7.507049108029709705e-01,-1.083856547888092159e+00,7.585766916118770187e-01,4.830684216206202614e-02,1.290732530158385516e-01,-2.019272925670719324e-02,1.854271411895751953e+00
7.505187593816482483e-01,-8.264439410536792430e-01,7.398749135341038397e-01,1.441549264544117470e-02,-2.153542378853977313e-02,1.240061193088405622e-02,1.572455286979675293e+00
7.243879565307845825e-01,-7.635434162461518515e-01,7.142610050862457927e-01,-5.925402162698939143e-03,3.055745388941007168e-02,-3.974001661437891880e-03,1.483889460563659668e+00
7.433186201087620404e-01,-8.761885754999756415e-01,7.665910559325151974e-01,2.523626939927136291e-03,-1.736202876901526276e-02,3.957268612510244504e-02,1.632990002632141113e+00
7.712544003689768557e-01,-8.973702121222600914e-01,7.514090778309578944e-01,-8.483205871664619563e-03,1.935962765477263620e-02,-5.086198821607495688e-03,1.659218311309814453e+00
8.046541385210169706e-01,-1.017626283974459422e+00,7.557773608259643616e-01,6.400535173780699631e-03,4.216882541551331826e-02,3.855715492707068037e-02,1.801095604896545410e+00
7.164419576251166433e-01,-6.463711345979035183e-01,6.911617727128125388e-01,-4.404842899316312871e-02,-2.391400410128540627e-02,5.958809235539375138e-02,1.357068538665771484e+00
7.269413526899671796e-01,-6.838298516413010564e-01,6.995913213831678190e-01,-2.166363690239575188e-02,-2.881987622075531455e-02,4.050644428809395403e-02,1.400450229644775391e+00
7.180143508061344049e-01,-7.913534205740373473e-01,7.989545593027332915e-01,-8.529852742804866494e-02,-8.684345641121842679e-03,1.517095415890421795e-01,1.580510020256042480e+00
7.781330071782606161e-01,-1.031542743626672420e+00,7.714858046025434568e-01,-7.175766405383167228e-03,-1.110195055588394163e-05,1.852647580561450928e-03,1.806406974792480469e+00
7.333548899075753580e-01,-6.857740115340641429e-01,6.688798360852016289e-01,-6.641805649506862808e-02,4.698415096588295231e-02,6.495738996894681594e-02,1.399678707122802734e+00
7.878843505776376155e-01,-1.021667876261018293e+00,7.812686266733513962e-01,-3.023819726914607573e-03,6.583096732005427713e-03,-3.641042920834237570e-03,1.806308031082153320e+00
7.483552700760773835e-01,-8.456486961045015516e-01,7.493273114032308335e-01,-6.915241530828801497e-02,-3.426007722451390736e-02,-3.558177142585398824e-03,1.600095152854919434e+00
7.934400432849435525e-01,-9.998158849387014380e-01,7.765181220746826263e-01,-4.697627163252463857e-03,2.124595996533508793e-02,-5.976413183844148970e-03,1.785282969474792480e+00
6.070088417983108275e-01,-8.536264118695037206e-01,8.140868434271318899e-01,1.785573126249481724e-02,4.969906210885786241e-02,1.665931113759825527e-02,1.577339887619018555e+00
7.616874290275721382e-01,-8.445184685881974573e-01,7.356499885874465683e-01,-8.311653715485700644e-03,1.910745876849459859e-02,2.088097706612391385e-02,1.594165802001953125e+00
7.840020175510842293e-01,-1.016875313132158842e+00,7.831012711368782186e-01,-6.031162971523619867e-03,1.553716660066047431e-02,-5.090415609357121229e-03,1.800680160522460938e+00
7.840576888149576318e-01,-1.035597980146589325e+00,7.814399517249913663e-01,6.046122455594225452e-04,5.371006037614978190e-03,-2.638649336813808904e-03,1.818378090858459473e+00
7.922227006495198287e-01,-9.713917562811011930e-01,7.730539300350253162e-01,-2.260703567605226033e-02,1.130938395435858272e-03,-7.865779904447303336e-03,1.754599571228027344e+00
7.847363077103102214e-01,-9.007630392234085015e-01,7.528789566701417080e-01,-4.481496696949839598e-02,1.566701154616760572e-02,-2.339988830420396820e-02,1.672313213348388672e+00
7.886523178794966338e-01,-1.006838027016663029e+00,7.762337222857393915e-01,-2.909668069480379586e-03,9.838313175149996509e-03,3.029367584208641790e-03,1.789409279823303223e+00
7.846871100989213366e-01,-1.032707427792987520e+00,7.833627962947590229e-01,2.547357085162630513e-03,-1.620590973727188818e-03,-5.502201599474602738e-03,1.816765308380126953e+00
7.767607627202038900e-01,-1.032066556553394410e+00,7.696674502550505670e-01,9.503948831144240147e-03,-2.288831430268880272e-03,-9.492061707083571803e-03,1.805445432662963867e+00
7.484828940676739872e-01,-6.895918407308242459e-01,7.527971541430122926e-01,7.516771336475346066e-02,2.981585783968601112e-03,1.076684290629146140e-01,1.458093404769897461e+00
6.544987126542938238e-01,-2.917310910602062823e-01,7.746439511325473593e-01,1.118657751516275861e-01,1.608779819527998700e-02,-4.183034524910304169e-02,1.032975435256958008e+00
7.599126448066297890e-01,-1.029477543544934592e+00,7.731992819946651441e-01,-4.719876881444565577e-04,-6.062187012518785618e-03,-3.378254149427094635e-04,1.796101331710815430e+00
7.767050574183088640e-01,-1.031694531226023059e+00,7.845478036427230295e-01,1.554542552331179177e-04,-8.257517353409809255e-04,-5.063506885053030600e-03,1.812355518341064453e+00
6.922840988915741622e-01,-5.345646326731972042e-01,7.204478563431293558e-01,2.914061464363011320e-02,-2.616026927777342914e-02,1.478474397367848248e-01,1.269126057624816895e+00
6.629094853817881772e-01,-4.418638907791886949e-01,7.205483983317788610e-01,7.253603369141509161e-02,2.830662139625463730e-02,1.002904194859042114e-01,1.155805826187133789e+00
7.713096893253834629e-01,-1.029553030889871934e+00,7.959098510412223604e-01,-6.833478522159165333e-03,5.858698004110625543e-04,-6.016251668117849260e-04,1.813327193260192871e+00
6.465818100185273254e-01,-1.894836445781406531e-01,6.728627487087399661e-01,9.096973250490915375e-02,-2.045538779648034197e-02,-2.449804459472142842e-02,8.657661080360412598e-01
7.705777305467051974e-01,-9.961823005017214072e-01,7.972879549089317841e-01,1.376164138155132116e-03,-4.249728714545471762e-03,2.886523630464227913e-02,1.780984163284301758e+00
7.684509954517337871e-01,-1.022864638093453404e+00,7.424831919397387736e-01,1.593526881754737945e-02,1.018079576865862229e-02,-1.023917043488042737e-02,1.778863906860351562e+00
7.856005243000008242e-01,-1.032194870188658742e+00,7.654721985442334287e-01,1.279210640917793212e-02,-1.708869693815574017e-03,3.170887449552306243e-03,1.807961821556091309e+00
7.744084711179859415e-01,-9.725221561615964294e-01,7.732205123775307554e-01,-3.668902404431172940e-03,-1.392199985339063334e-02,1.857836507439690173e-03,1.746517896652221680e+00
7.688689486486643965e-01,-9.800066569615362155e-01,7.966647827057012909e-01,4.841199015716278128e-03,-1.331649745871277962e-02,1.785841735947027442e-02,1.763380050659179688e+00
8.308889690494135616e-01,-1.008979325111304171e+00,7.049234366002545826e-01,-2.581789455914640374e-03,3.930983419650996985e-03,-1.434717818305881847e-02,1.780423164367675781e+00
1.194139549642396103e+00,-6.091484612725328596e-01,1.922877985664933898e-01,-1.216124058050638695e-01,1.568079943354808714e-01,2.083178499603206557e-01,1.642331004142761230e+00
7.749896951813631807e-01,-9.977232390458427025e-01,7.881510228226672465e-01,-5.330884398118340521e-03,-1.164696865070055133e-02,1.372649631664761387e-02,1.779627203941345215e+00
7.637889035168856644e-01,-8.529333070598724698e-01,7.737929591819274755e-01,2.820221218220585885e-02,4.925840989615524849e-03,5.965064870452938678e-02,1.625791549682617188e+00
7.791210177676659576e-01,-1.016405424533514568e+00,7.909897651462929336e-01,5.494440351438806616e-03,-8.269487265047234168e-05,-5.937859228435506814e-03,1.801544666290283203e+00
7.772532508955833919e-01,-1.004171752900991033e+00,7.843123918219424562e-01,3.630505601363388790e-03,-9.096259993319212242e-03,5.291627188843516481e-03,1.785069227218627930e+00
7.250820130201516278e-01,-8.205340291648203221e-01,7.584741216141138720e-01,2.471268204144255742e-03,-1.450806379380201183e-02,-3.395255065450156814e-03,1.562798738479614258e+00
7.441196156562926989e-01,-9.253519011762808555e-01,7.846910826140801598e-01,2.896151192641507584e-04,-3.033704499788968806e-03,-5.549146131811542176e-03,1.690158128738403320e+00
7.551512133683936367e-01,-9.042050109402017810e-01,7.671976678098308966e-01,7.025368382369793531e-03,-2.376707860137647343e-02,-8.575753249786790405e-03,1.666031479835510254e+00
7.817927698572535444e-01,-1.024246998603833836e+00,7.867012084939595251e-01,3.239252338137206793e-03,-1.469566022560948393e-03,1.218261866560140698e-03,1.808510661125183105e+00
7.670731740297811463e-01,-9.423571482102071073e-01,7.349710829928026712e-01,-5.832500155798005801e-05,2.494794444246967169e-02,-1.994798063462768778e-02,1.694510936737060547e+00
7.875157925384762558e-01,-1.018901693062772340e+00,7.936131478545908058e-01,3.987290820757757870e-03,-7.998006251660940563e-03,-6.249818885554023207e-03,1.809572458267211914e+00
7.598807620831867782e-01,-1.001153524544151185e+00,6.496926465517289806e-01,-1.729142375449950822e-02,2.183125681716074629e-01,-1.236752950743755589e-02,1.750335693359375000e+00
7.914473046678931478e-01,-9.705830292874583209e-01,7.662789631139410584e-01,6.593528965479263787e-03,-1.148660455810938952e-02,4.177933053513259790e-03,1.749747276306152344e+00
7.708252232786594327e-01,-9.777752628458316053e-01,7.729145860281751990e-01,-1.207802642588167927e-02,1.036148689377582206e-02,3.674260817823650754e-04,1.749863266944885254e+00
7.695684622806698849e-01,-9.184368747110659426e-01,7.600046678722176541e-01,-2.586387917436800549e-02,1.372281126912214440e-02,-1.579571890058865252e-03,1.684009790420532227e+00
7.799287108874690677e-01,-1.038045037291831507e+00,7.792024655923928123e-01,-9.685388945021604010e-04,-1.025398171747857320e-03,-1.694568103478061869e-03,1.817614793777465820e+00
7.887335235872564576e-01,-1.031791364240799869e+00,7.841100072632541940e-01,-2.010198179739279382e-03,4.301434135366752343e-03,-5.302879186087002504e-03,1.818259358406066895e+00
1.606333021580843790e+00,-1.465416478659113286e+00,2.226499291429245020e-01,1.416571862867614939e-01,-7.292989040923628097e-02,4.024069315010815329e-01,2.768004179000854492e+00
7.919922670080246085e-01,-1.024358287912674914e+00,7.971231455719569592e-01,-5.833884686661902803e-04,-6.658018637440366906e-03,6.553341167213261320e-03,1.818993687629699707e+00
7.777284725256836673e-01,-1.017878021398078925e+00,7.903170264544898682e-01,-2.678548136825842970e-03,7.506851120863120008e-03,-3.268533074546223043e-03,1.801995515823364258e+00
7.633193882861342150e-01,-1.003248874497349341e+00,6.943929470941037074e-01,-1.938483482424858961e-02,-2.175155843448791856e-02,-1.011618580342575624e-02,1.733956336975097656e+00
7.825676981923046505e-01,-1.023856622034650110e+00,7.914322183328448279e-01,2.216456256119052944e-03,-5.794135947120924827e-03,1.754418221674661259e-03,1.810907244682312012e+00
7.690217913422617846e-01,-9.850510653761875846e-01,7.886624841646882045e-01,1.523273299554696054e-03,-3.335532970127470971e-03,9.517923203164059542e-03,1.764063715934753418e+00
7.634614237303931628e-01,-9.622947164093196282e-01,7.688229872824738909e-01,-7.907753960462171605e-03,-4.179943407429238984e-03,4.821079118884904341e-03,1.728532791137695312e+00
7.612412737855338563e-01,-1.022639789526810006e+00,7.591364841854830736e-01,-1.277807375586728980e-02,-1.226730399433637953e-03,-1.035567411062065374e-02,1.783058404922485352e+00
7.865806398211496742e-01,-1.020431161467370007e+00,7.845133595132793847e-01,-6.376665700283425109e-03,1.801913057553703595e-02,-7.034551210240731940e-03,1.806323528289794922e+00
7.941216547788072511e-01,-1.017436940593148043e+00,7.784123675966803102e-01,-3.635256699337906499e-03,1.181195066860797963e-02,-4.296959200119931412e-03,1.803897619247436523e+00
7.917867513835478155e-01,-1.022298976683274851e+00,7.664233211508352239e-01,7.182392389630722768e-03,-1.278153517724651966e-03,9.415500953750677651e-03,1.801656007766723633e+00
7.921441065659132752e-01,-1.024168372522428871e+00,7.818523898479484702e-01,-1.049143965454041360e-03,9.971931720833030269e-03,-5.249052551831471722e-03,1.811294674873352051e+00
6.354880776488629479e-01,-5.452866955726076714e-01,7.040443772180433601e-01,3.154946828936565362e-02,1.553496786099345384e-01,-1.170526070430782939e-01,1.263475060462951660e+00
5.496936783105943469e-01,-5.003651040648411374e-01,8.036996639598894543e-01,7.182891892175510828e-02,5.295619719234591349e-02,4.689200415556381285e-02,1.210103988647460938e+00
7.816241185643423295e-01,-1.038722453383140509e+00,7.814157958106097146e-01,-5.954639311831200470e-04,2.686961497436302949e-03,-6.098048657893371735e-04,1.820248961448669434e+00
7.721739620658671921e-01,-1.030804429977834724e+00,7.706445599987155060e-01,-7.150201541935420711e-04,-1.787837382058629111e-03,-1.124626689498731819e-02,1.802322506904602051e+00
6.609614836570862906e-01,-2.336848494961194511e-01,6.716250494973343699e-01,1.069131056462084214e-02,8.600245639873008163e-02,-1.707811237984598052e-01,9.592062830924987793e-01
5.631583970357598723e-01,-9.726913158630057232e-03,1.051128126963103204e+00,1.710460956478485571e-04,-7.640270006037536143e-02,-1.198237223275031016e-01,9.520756602287292480e-01
7.695822263827939436e-01,-1.033908370308249225e+00,7.977123921873239265e-01,-2.339562008274452196e-03,1.320907878913234364e-03,-7.854727586109585061e-03,1.817775845527648926e+00
7.857960404214099359e-01,-1.035471069678742584e+00,7.812293083806745031e-01,1.767932161913576567e-03,-3.787712412772089449e-03,-3.590391337035537568e-03,1.819013118743896484e+00
6.764211963341930645e-01,-4.877250447373245312e-01,7.250194016289887022e-01,2.272764339604647910e-02,-1.965682098467827141e-02,-3.910124452399457717e-02,1.192253828048706055e+00
7.850913458779026355e-01,-9.291785532016584304e-01,7.528856092422371304e-01,1.846773684789775744e-02,8.040389628939641903e-03,3.449726139615628961e-02,1.699804782867431641e+00
7.813583349341635120e-01,-1.034458216461995317e+00,7.874529838876577204e-01,3.424739879856712656e-03,-5.447539861680151217e-03,-1.911094946636394173e-03,1.818908691406250000e+00
7.369044291530517654e-01,-9.453955782585390377e-01,8.051986195803138013e-01,6.340393086481947715e-02,8.170483352036198021e-03,-4.573838957516558612e-02,1.722853779792785645e+00
7.709688128207723423e-01,-1.030511117167658641e+00,7.677075704245291954e-01,5.823829151878869709e-03,-4.448985274472450763e-03,2.077399428343144980e-03,1.799899935722351074e+00
7.821286072311064430e-01,-1.035068134968055720e+00,7.813164154822743734e-01,1.768663899941900911e-03,-1.329816272707157144e-03,-3.591099940897943266e-03,1.816805481910705566e+00
7.163826395170266315e-01,-1.022333576610926276e+00,8.042961147516265452e-01,-1.876378266497739228e-02,-7.146859301377092100e-04,-2.921303785761200558e-03,1.784601569175720215e+00
7.798545014610286374e-01,-1.018915222575773161e+00,7.917215031826475569e-01,-7.512317181321456240e-03,-1.198609845399632083e-04,-6.686675446228592702e-03,1.804816603660583496e+00
7.708618734469829814e-01,-1.030941265965684028e+00,7.964790369688246052e-01,6.642524155290815274e-03,-1.792781643078415190e-03,-3.855187627786381844e-03,1.814798712730407715e+00
7.009503469764581940e-01,-6.446487190057661465e-01,7.298080371269788369e-01,2.201789636093071101e-01,-2.691414494994115187e-03,-8.477655737645787073e-03,1.412789463996887207e+00
7.920401192698552917e-01,-1.022954578212257992e+00,7.869589242198633539e-01,-2.378507984240745519e-03,5.895791086197348790e-03,-2.157743828101885402e-03,1.812496781349182129e+00
7.279793735792181586e-01,-6.844536110338799162e-01,7.139725138289370054e-01,-6.305804429724623517e-02,-1.245908822347091723e-02,3.611788294893402557e-03,1.409898281097412109e+00
7.843836983925792650e-01,-1.036115851995451642e+00,7.771679795958523762e-01,-3.003415193734809609e-03,4.939026299884220761e-03,-4.745381256536030171e-03,1.816948652267456055e+00
8.051738302873880926e-01,-1.020648928148254253e+00,7.209257367288025575e-01,9.221251950690460136e-03,1.286723792845110344e-03,-1.465752577047654825e-02,1.785443663597106934e+00
6.665210371968988134e-01,-2.541769615179799158e-01,5.934313950171319352e-01,1.558925390419498846e-01,2.027507045457813684e-01,-1.034592004139453791e-01,1.007013320922851562e+00
7.820309772235234380e-01,-1.034273209492476031e+00,7.941535975083757748e-01,4.420720365906061905e-03,-6.862240522171085370e-03,-1.230719117568230452e-03,1.822451829910278320e+00
7.370292180044480945e-01,-1.025238712608058655e+00,8.012908998807203309e-01,-1.132444471644813294e-02,-3.944628096294562972e-03,-1.241344298000025825e-02,1.795510411262512207e+00
7.907982354430151961e-01,-1.019224692600447568e+00,7.756060553521969547e-01,2.728877368422990678e-03,-2.785032205795207050e-03,-1.026599881527957402e-03,1.802488327026367188e+00
6.321046447852525230e-01,-1.001652356657558585e+00,8.137040536482349484e-01,-3.205039745778699017e-03,1.822857863588211308e-02,-1.979237769689066312e-02,1.732348799705505371e+00
6.313113481906978963e-01,-1.029153923756579880e+00,8.223152067391340525e-01,8.037016751163427591e-03,1.054004789934782083e-01,-9.296141037883294544e-03,1.773291707038879395e+00
7.705553844669897900e-01,-9.857817947817374415e-01,7.916904775617763512e-01,5.600698136488738155e-03,-1.727851916666711674e-02,-5.364602159354278470e-03,1.767303943634033203e+00
7.790900200375117102e-01,-1.022329577668670719e+00,8.000385176486726202e-01,4.249102438706552250e-03,-7.906834884397107369e-03,-2.457228704791420641e-03,1.812056422233581543e+00
7.210401189721913351e-01,-6.301062234482210922e-01,6.752337805042039065e-01,6.284692525550580888e-02,1.970161015465564380e-03,-2.333141473087639323e-03,1.333297014236450195e+00
7.760752461616726716e-01,-1.033332384368508716e+00,7.773902787804460868e-01,-1.311178874849775605e-03,1.428546352433538022e-03,6.945508613159923203e-04,1.810068964958190918e+00
7.720092984978654815e-01,-1.019353422859185399e+00,7.669856711535300020e-01,2.533803029554947302e-03,4.936305111047137838e-03,2.085788798730590227e-03,1.788885712623596191e+00
6.934994441660878861e-01,-9.814428417842838703e-01,7.184194769068725783e-01,-5.133808847018928106e-06,1.753461583736532631e-02,2.548639129227103957e-03,1.687819361686706543e+00
6.898709982532209573e-01,-9.798784453289282048e-01,7.200665212649655089e-01,-1.697128663266113478e-03,1.756529358523142501e-02,8.500292774181479995e-04,1.685328006744384766e+00
7.273273353611620085e-01,-9.883007477254124318e-01,7.125391859303922271e-01,-4.961024682487267731e-03,2.668692685120040847e-02,4.412182582310673375e-03,1.708945989608764648e+00
8.164740246166198867e-01,-1.019062106117841537e+00,7.212005342535008356e-01,1.744842593396825348e-02,1.101196895945751389e-02,-6.118534269609100795e-03,1.790190339088439941e+00
7.515412938644446816e-01,-9.965999671483023459e-01,7.204511641763822194e-01,1.410468868619208817e-02,3.389434149626355253e-02,-2.272853235426509216e-02,1.734418511390686035e+00
7.835075872848222822e-01,-1.026378905706668565e+00,7.842396332685709348e-01,-4.113068949398539925e-03,9.102748111920938578e-03,1.334606864984452237e-03,1.810336828231811523e+00
7.608197821195717969e-01,-9.725127022888319095e-01,7.874491843468210961e-01,-1.318821262260108564e-03,1.656098609356898566e-02,-6.260355270154588370e-03,1.747070074081420898e+00
7.473698091281790745e-01,-9.892820550558081294e-01,6.873857659168407519e-01,-7.206750009308761709e-03,6.969488110050683916e-02,3.808181624394662602e-03,1.711770415306091309e+00
7.857766986967271716e-01,-1.028528815390167273e+00,7.835518882148755360e-01,-2.437894760978654134e-03,-1.130816811664027421e-02,-4.869823565809784996e-03,1.813324451446533203e+00
7.968532642063022031e-01,-1.026679379512861479e+00,7.338310704487678304e-01,-1.108603042103952288e-02,5.890452650694945206e-04,-9.024707254404846449e-04,1.792956233024597168e+00
7.745388494732001750e-01,-1.035979128721808751e+00,7.811143106382520962e-01,-3.938988225736700204e-03,9.319737915734725708e-04,-5.876330671204090493e-03,1.813856720924377441e+00
6.116192938639873899e-01,-1.140674393958974298e+00,8.977219021774537344e-01,5.190216403482364460e-02,9.771238956518141228e-02,4.502110127603237144e-03,1.921069741249084473e+00
6.688902615310095001e-01,-9.813755827490657779e-01,7.456417463426989745e-01,-2.424793000509780760e-03,6.222343909113099703e-02,3.483740154370168485e-03,1.693398356437683105e+00
8.008764033376435387e-01,-1.027221785323539471e+00,7.532699524224814036e-01,-2.843435280094301220e-04,1.312034612164071981e-02,3.208425079239176411e-03,1.804917573928833008e+00
7.663820414353744725e-01,-9.734428588431843776e-01,7.918297968204967008e-01,-2.636824542219153543e-03,9.807878226452921427e-03,-5.149584794377172134e-03,1.752798318862915039e+00
7.799592445134801988e-01,-1.020993220199643225e+00,7.964550035479645018e-01,-6.376951712187681719e-03,1.437681189086019093e-02,-7.030985619924708802e-03,1.809502840042114258e+00
7.810241189944830964e-01,-1.031160495004119548e+00,7.882638156445160860e-01,-4.402719368354012473e-03,8.858341259248010691e-03,-4.673148856948697999e-03,1.815914154052734375e+00
7.595801198678607813e-01,-9.894910336631151937e-01,6.771913843411884182e-01,-9.517389534583739485e-03,5.769614204131962021e-02,4.579310154090236729e-03,1.712382912635803223e+00
7.415053229731940476e-01,-9.761109114352715110e-01,6.270695687335566815e-01,9.192865386156072547e-04,4.195339407224372985e-02,-5.581220895177950664e-04,1.664940834045410156e+00
7.945641243346501792e-01,-1.124173110975503542e+00,1.009824997972701643e+00,-1.680526449986652349e-01,4.243122906598275623e-01,1.769909416451760642e-01,2.204482793807983398e+00
7.808493735261472501e-01,-1.037672588710693233e+00,7.841575083881574537e-01,-1.445326768886451068e-03,3.872235451362138117e-03,-2.467064721277235570e-03,1.820197343826293945e+00
7.818398406511430920e-01,-1.038442443973712548e+00,7.823464266073459905e-01,-2.153772164037526162e-03,1.330052088488337721e-03,5.517955020252399536e-04,1.820541143417358398e+00
1.315245935561901724e+00,-8.806366579919213677e-01,2.002910790920535145e-01,2.106255175224030357e-02,-2.503078465575002062e-02,2.651577148818942686e-01,1.957255959510803223e+00
1.054713558800748796e+00,-1.023585531936329618e-01,1.050482379726417337e+00,6.393873941089760204e-02,8.359662575048765198e-02,-2.687840967217888831e-04,1.169259548187255859e+00
7.111559800047585478e-01,-9.816607888837761697e-01,7.108467582084898595e-01,3.648383896786074488e-04,3.031234249886562843e-02,-2.002773431348708714e-03,1.693479895591735840e+00
7.103341831971224929e-01,-9.817271677305641209e-01,7.163049244250557779e-01,-2.276993975834560452e-03,2.701145490885954042e-02,8.651674088519271597e-04,1.695705413818359375e+00
7.790882556342620946e-01,-1.030880740461811440e+00,7.709371242901330579e-01,1.256141354273076008e-02,-3.164289993161691593e-03,-2.329583168569269688e-04,1.806046605110168457e+00
7.836089471638331139e-01,-1.029782451808245680e+00,7.819757189549312315e-01,4.881082385013850791e-03,-2.845857408721529092e-03,-3.157503549963319766e-04,1.812601804733276367e+00
7.700732927534621464e-01,-9.926009748762791851e-01,6.598050161380690781e-01,2.147924438672591668e-02,4.929123919957142247e-02,-2.239693633485604143e-02,1.713181376457214355e+00
7.731502485605639130e-01,-1.017501634450725501e+00,7.339224756833780949e-01,1.631825048651404375e-02,-1.553315935380637520e-03,4.755813412483227707e-04,1.771591544151306152e+00
6.750438229680348901e-01,-9.804599448201321010e-01,7.391718676713288083e-01,-8.816609041490446269e-04,8.459412960596919204e-03,2.480571209413746751e-03,1.688551068305969238e+00
9.157300649325500475e-01,-9.147934035692392163e-01,6.680752490067359828e-01,1.699812697880641668e-02,4.194084752604536337e-02,6.166431228738310927e-02,1.725213766098022461e+00
7.722859464525306805e-01,-1.030814388917670410e+00,7.700578332907743739e-01,5.407719605940395366e-04,2.705060655964483269e-03,-1.227975022558476514e-02,1.802119135856628418e+00
7.704042051584165662e-01,-1.031294487144878369e+00,7.749618977855616819e-01,4.094203808673098789e-04,1.085973981126059796e-03,4.385161053048707404e-04,1.803983092308044434e+00
5.641493740993797079e-01,-9.918680194546825035e-01,8.328951750446020874e-01,2.894976196709802413e-02,6.536236470911423180e-02,-2.628588013164297882e-02,1.711429595947265625e+00
7.062890085381066108e-01,-9.806441122838316371e-01,7.124810088694204513e-01,4.495990137330481353e-05,7.780676247879883545e-03,-4.166921488770407474e-03,1.690106749534606934e+00
6.986224012395324534e-01,-9.890739756216104794e-01,7.357783419956542836e-01,-9.214719428904919948e-03,1.257452545265746319e-02,1.286616328530057821e-02,1.706936836242675781e+00
7.123671286659705171e-01,-9.821736587538176799e-01,7.081273063260302703e-01,4.215846911083800724e-04,2.873570562491731348e-03,4.008675080563118198e-04,1.692432522773742676e+00
7.585558475440932202e-01,-9.872560491285098383e-01,6.622128034884448011e-01,-9.462197065709554433e-03,1.802652674662880497e-02,5.532080688974795601e-03,1.700082182884216309e+00
6.613659647756463533e-01,-9.798110894474465482e-01,7.459264416713125012e-01,7.632193055018205493e-04,1.643031915942749777e-02,-3.821701271082686511e-03,1.685303211212158203e+00
6.407477768875635693e-01,-9.831434692786922280e-01,7.496757061602250527e-01,-1.985266400743488160e-03,2.808029385787225163e-02,2.589994195154249074e-03,1.681717157363891602e+00
7.334040502694885166e-01,-1.018450271596378576e+00,7.722985690538884951e-01,-9.896518466987625634e-04,3.903377138381996375e-03,-1.693688479731973728e-02,1.771878361701965332e+00
7.566215554744938343e-01,-9.259305913180364556e-01,7.792892485535825031e-01,3.780420231104656727e-03,-7.824957496753092226e-03,-4.487884945940804129e-03,1.694084405899047852e+00
1.058330044097681721e+00,-1.147062284968748402e+00,4.392680926572332112e-01,3.814215350320479536e-02,1.572756125898089608e-01,-7.161183865003929380e-03,1.990086317062377930e+00
7.061465278290002257e-01,-9.831130413095579001e-01,7.216748889923062515e-01,5.729385377838374770e-04,4.207751567477927522e-03,5.041115114842737409e-03,1.697115421295166016e+00
6.545656727171980105e-01,-9.860606550129402681e-01,7.476592301736708635e-01,-8.251491557307909577e-03,2.899944375027265278e-02,1.335231284249205688e-02,1.690063595771789551e+00
7.497074705786916926e-01,-1.508134016256281962e+00,8.075630150970930510e-01,1.215712203257769131e-01,6.140929148866255405e-01,-9.725623664673795077e-02,2.536901473999023438e+00
8.170924297973625183e-01,-1.203466967290574674e+00,8.399240488245013347e-01,-2.209662405217586306e-02,-2.875101888537031081e-01,-2.458118655020140320e-02,2.092983007431030273e+00
7.051406394808601430e-01,-9.886247389984781364e-01,7.137766158072043066e-01,9.206524144496632325e-03,1.860575165065532499e-02,-6.545486397137849181e-03,1.698518276214599609e+00
6.449193704634377244e-01,-1.013611966734826675e+00,7.577580678461195429e-01,-3.265142003022963868e-02,1.366479709009587318e-01,2.758648942908609875e-02,1.735541582107543945e+00
1.215892326496506248e+00,-8.862737029954902424e-01,2.942326715218284150e-01,5.903376893238584944e-02,2.647287854722565198e-02,-9.515584377700894714e-02,1.835973381996154785e+00
7.173779497158090379e-01,-9.887489352569780454e-01,7.154763880023709000e-01,-6.725173897744436170e-03,1.384709464428026445e-03,4.862659896577857174e-03,1.705239176750183105e+00
8.000551108372262465e-01,-1.012459415616164593e+00,6.696564468655580304e-01,2.633521884342477151e-02,-2.564188506952211344e-02,3.510797132687937250e-02,1.753172636032104492e+00
8.263930721736753027e-01,-1.034127662517638990e+00,7.623985299739122201e-01,-1.178311975753121126e-03,1.153546913513606165e-02,-2.057682446286573583e-02,1.829820513725280762e+00
7.021278121190961397e-01,-9.878404729739221901e-01,7.230762812956833541e-01,-5.896000484568003977e-03,1.796123314005696608e-02,7.176846496450646831e-03,1.700899958610534668e+00
7.824478608045786210e-01,-1.033058474506881153e+00,7.925704514018721003e-01,-3.263368233838560492e-03,-7.124995815802607178e-03,1.077276677113778137e-04,1.820639371871948242e+00
8.475299814612625715e-01,-1.021329524293335123e+00,6.186514620680513277e-01,3.482225928138252269e-02,-6.985795042315628978e-02,7.025905062908052723e-02,1.774927258491516113e+00
8.579707463224105490e-01,-1.011972405534543151e+00,5.925010298483175397e-01,1.402220382123506130e-02,4.544015896542866889e-02,-1.965192131517192603e-02,1.754619956016540527e+00
8.288655565652577328e-01,-1.017319400310624955e+00,6.557693627337164433e-01,2.741755391076141843e-02,-1.056443579867823515e-02,2.955039867707898171e-02,1.767485022544860840e+00
7.810729572256307485e-01,-9.641471017679443811e-01,7.575426329161099037e-01,-1.820010635345281104e-03,1.348385679578027220e-03,-1.173563926583058060e-02,1.733698248863220215e+00
7.811982001577673085e-01,-1.020459721810274001e+00,7.814168158424203980e-01,-3.393156770521804817e-03,-6.938942662186075097e-03,-2.796486890875713089e-04,1.801816940307617188e+00
7.814335136476531218e-01,-1.032163950281898668e+00,7.736614627181132020e-01,-7.484658230112688389e-03,-6.561220259319115429e-04,4.318715212619558992e-03,1.809786200523376465e+00
7.780236382189985589e-01,-1.055771755854483462e+00,8.000047303811360644e-01,-3.546481497040615896e-03,-3.946971733877247673e-03,-6.498651389747188770e-03,1.844941377639770508e+00
8.474444667781334539e-01,-1.017550855346447847e+00,6.255694539345831862e-01,2.069345709848327552e-02,-2.267976924578897144e-02,2.282948489911581710e-02,1.765794873237609863e+00
7.062939790323983225e-01,-1.027295528891788212e+00,8.270933265926920797e-01,1.136356494346843840e-02,-2.459907816700998562e-02,-2.139674866593741041e-03,1.797653436660766602e+00
7.789896693780870018e-01,-1.026114104186449438e+00,7.914110173491236688e-01,5.187065897883599321e-03,8.106421980912979579e-05,5.663503572907955738e-03,1.811395287513732910e+00
7.380475624718687566e-01,-1.014781690456733720e+00,7.514105049626691457e-01,-1.084871002381435599e-02,3.477833971868047463e-03,4.684530484143976763e-04,1.759659647941589355e+00
7.756467289732451587e-01,-1.036658855795724143e+00,7.754306729315213476e-01,-1.949641820020442612e-03,8.702784112240436864e-04,3.041830443457759804e-03,1.812209010124206543e+00
7.794030995524344752e-01,-1.030924423098754428e+00,7.851071901091065675e-01,4.724636381621573691e-03,1.852122974126455164e-03,6.120635659400647938e-03,1.813238620758056641e+00
7.714285911413309993e-01,-1.017530557234528121e+00,7.425359450556264784e-01,-9.815315260802023878e-03,3.891984304724036177e-03,1.016981291972249898e-03,1.774784326553344727e+00
8.899505017576609944e-01,-1.005754226412709507e+00,5.697518648973936006e-01,-1.662702441939188092e-01,-3.316419756705586419e-01,-1.235134735630392944e-01,1.883582949638366699e+00
7.789184983735131240e-01,-1.038769211996759090e+00,7.815215239695556537e-01,-1.177685347485308252e-03,-1.357536347551549071e-03,1.115985296309261960e-03,1.818994283676147461e+00
8.460227163126350369e-01,-1.014591971123287140e+00,5.936641885364033477e-01,2.075356499074432811e-03,-1.158912076009769310e-01,4.011849909229374400e-02,1.761012077331542969e+00
7.738509003461275793e-01,-1.037948266857987356e+00,7.746205083398526314e-01,-6.426197796817707114e-03,3.339247229990638670e-04,6.974140796165952810e-03,1.812258601188659668e+00
7.886228758909713532e-01,-1.034354061517043899e+00,7.883271556206775665e-01,-1.928474341965917722e-03,-1.512695118062282358e-02,2.153443318608020719e-03,1.823024272918701172e+00
7.589982047111036856e-01,-1.030623033485952744e+00,7.727811103758737143e-01,-7.601408071563897639e-03,1.100296287678611141e-03,8.895848053310251866e-04,1.796602249145507812e+00
7.668565307684124255e-01,-1.015846430878754481e+00,7.279318037049921086e-01,-1.490729942637891714e-02,1.365908571292107423e-02,-3.471683312850347772e-03,1.763920664787292480e+00
7.441276090993776959e-01,-9.252805035751303642e-01,7.837160900697115462e-01,2.722510739546259769e-03,7.570571750556354812e-03,-6.676818394292715828e-03,1.689647316932678223e+00
7.832608279498068926e-01,-1.031393226114275752e+00,7.714016751270147410e-01,1.180624216969163899e-02,-2.172920593728450145e-03,2.934851721661731281e-03,1.808880329132080078e+00
7.567418661145030034e-01,-1.013457951204881580e+00,7.198422021601894594e-01,-2.405377097586059582e-02,4.067956286380378789e-02,1.687233149072120408e-02,1.754195928573608398e+00
7.282845971771035876e-01,-1.007238590926012423e+00,7.365981604076291545e-01,-1.499357771764056255e-02,9.228042747569571019e-03,9.133606043821193912e-03,1.740033984184265137e+00
7.813806638898405099e-01,-1.032961253791513823e+00,7.746296009728937948e-01,-1.099226472019058584e-02,-3.783177153888201642e-03,5.766710032539475866e-03,1.811115264892578125e+00
7.294334214944757644e-01,-1.008173874005391824e+00,7.065753874163502868e-01,-2.836727263271010199e-02,4.363443101813996999e-02,2.982141481680461795e-02,1.729415297508239746e+00
5.504718307231692975e-01,-2.073654813658004636e-01,7.876158907174553025e-01,-1.399513564747675298e-01,-5.505893719486171928e-02,-1.542384956553942421e-02,9.374639391899108887e-01
7.646696232582053110e-01,-1.027590619945726980e+00,7.557873692186101167e-01,-1.376254887609731567e-02,1.292160746787142725e-02,1.806735243513499234e-02,1.788408398628234863e+00
7.814899644282866653e-01,-1.036076694608629278e+00,7.843506603362075946e-01,3.525963408017718584e-03,-1.298957801119183684e-03,-1.634278895501596347e-03,1.819012522697448730e+00
8.391265585064376920e-01,-1.564765312849978107e+00,7.577294234555247421e-01,-2.794616830575342714e-01,-6.764008085515980095e-01,-3.285646732196977893e-01,2.742328643798828125e+00
7.762277595637284699e-01,-1.009317240612199962e+00,7.953710070055379777e-01,-1.636022538500167198e-03,1.250210273062949285e-03,-1.013266292829259239e-04,1.795196771621704102e+00
7.849674367224924731e-01,-1.027770345206283409e+00,7.794743308740376131e-01,8.251618567613219074e-03,-3.246243847695348163e-03,-4.388612343634116023e-03,1.810078620910644531e+00
1.639621300371181700e+00,-1.801522729736302786e+00,2.647683609708152419e-01,-1.693285602560779812e-01,5.109323532128915435e-01,4.405116605982020150e-01,3.232947587966918945e+00
7.634577428205189253e-01,-9.705140478764525680e-01,7.932341754684553159e-01,-3.039276905935652494e-03,8.558966993719014510e-03,-5.734788991948022198e-03,1.749149084091186523e+00
8.107923356668208514e-01,-1.031480990183566648e+00,7.777089070228226930e-01,7.914708752995285382e-03,4.412033934718971595e-03,7.637910187200665051e-03,1.826071739196777344e+00
7.741834306556159007e-01,-1.023952960388176958e+00,7.514412572659959766e-01,-1.185492142285214830e-02,1.383178569532784313e-03,6.267289539780947043e-03,1.787026405334472656e+00
6.718033086114526542e-01,-1.000019360706603244e+00,7.418320338364235988e-01,3.046431431104461296e-02,-9.029752768881590952e-02,2.745930755204542550e-02,1.716530799865722656e+00
6.858438733065600479e-01,-9.968361512048663498e-01,7.589989130667189610e-01,-7.487494727285403913e-04,-1.862927785503499037e-02,1.624975576857149925e-02,1.720957636833190918e+00
7.273764228305998891e-01,-1.010289489117331962e+00,7.553035103722496313e-01,1.048401882122518801e-02,-6.754690858094008002e-03,1.403775419321652562e-02,1.752098321914672852e+00
7.877572200871159058e-01,-1.027060756322410118e+00,7.688515958814001738e-01,-9.507334702549983998e-04,-1.207865761911327673e-03,2.800006138340591436e-03,1.805447936058044434e+00
6.363559660818367547e-01,-1.021912868087089477e+00,8.193530386032359392e-01,1.676730697960279737e-02,-3.913504763791726682e-02,1.688813124119678891e-02,1.758719801902770996e+00
7.149255949682746802e-01,-9.861859432825202942e-01,7.111607143683597032e-01,2.799761045241459020e-03,2.157270370574286555e-02,-9.118405569818438527e-03,1.699723243713378906e+00
6.851142842830515445e-01,-9.934042616788432145e-01,7.528915221984058270e-01,-1.853863115640532388e-03,6.234103877797037008e-02,1.482006410811954715e-02,1.717006683349609375e+00
8.355209888949938213e-01,-9.060565135629583544e-01,5.496665249250172192e-01,4.726655320231099022e-02,2.071785120261794844e-01,-9.998441505658889339e-02,1.668061494827270508e+00
7.888164221252037533e-01,-1.025774540411024782e+00,7.801640474606212905e-01,-1.210893294674157683e-03,-2.044790448508020976e-03,8.354654112616419215e-03,1.810342788696289062e+00
7.720929632079088778e-01,-1.020357201668376623e+00,7.355321037711797239e-01,2.407038341950711730e-02,-2.231133231703541150e-02,1.898661267527554722e-02,1.775667190551757812e+00
6.984262656528531510e-01,-1.007777140851181752e+00,7.597190264616771049e-01,9.139939677006542543e-03,-2.050773143634109646e-02,1.405300570416877746e-02,1.738266229629516602e+00
7.874082480266688666e-01,-1.000822241925479084e+00,6.724541922148038475e-01,1.947356549966023156e-02,1.207266148909372575e-02,2.428693281926182918e-03,1.734073519706726074e+00
7.276076658877095316e-01,-9.954478974736575836e-01,7.139736217756542658e-01,1.055411959288859829e-02,-1.936359596728326124e-02,8.155945847053492400e-04,1.716704726219177246e+00
7.695271068106330770e-01,-1.026752407504006648e+00,7.689485196221486074e-01,7.528588960544128732e-03,1.185373158634748277e-04,1.166285748828006438e-02,1.796151280403137207e+00
6.990086736484729668e-01,-9.919982429370196586e-01,7.423073539586040326e-01,5.989813507321933676e-03,-5.640997204218804739e-02,1.264599017719052719e-02,1.716021895408630371e+00
7.472563576425936827e-01,-1.012089799727921235e+00,7.521376145182773199e-01,9.879425582495738115e-03,-4.995538445833509755e-03,1.400982658707967086e-02,1.762063264846801758e+00
7.595307284802501613e-01,-9.971077733538754595e-01,6.967738514804086014e-01,-9.518702870012305667e-03,1.213317846087207628e-02,-1.044984875799299506e-03,1.726323485374450684e+00
7.483846144495835961e-01,-9.802498572081761452e-01,6.588851201102611244e-01,-2.354446171392046011e-03,2.058588318488115132e-02,1.148154797737800051e-03,1.686050772666931152e+00
7.448423509221373529e-01,-1.021625266823592781e+00,7.747786405005306909e-01,1.437766880660701352e-02,-2.038271521898455188e-02,2.174593475194074033e-02,1.782546162605285645e+00
7.441405670843570519e-01,-1.012063260631860917e+00,7.534002561588886149e-01,6.576345502135530138e-03,-3.133792273882105017e-02,1.423488926274885796e-02,1.761897683143615723e+00
7.763044540002157490e-01,-1.018079399039211630e+00,6.986264362596992239e-01,2.232821799083819017e-02,-1.059184287508794717e-02,2.511818605476968599e-02,1.757893085479736328e+00
7.531156471577331590e-01,-1.027688290600114129e+00,8.137284935898835281e-01,-1.263286955628016572e-02,-1.330514257070166241e-03,7.739023265284814337e-03,1.812054038047790527e+00
9.117483778766164448e-01,-9.843894471443729310e-01,4.675164241369601514e-01,8.496816755457259384e-04,5.766760964635462422e-02,2.134509260019647886e-03,1.720566272735595703e+00
8.144546973402887469e-01,-1.026573318898825082e+00,6.447205814930719869e-01,-1.551393454422242413e-02,1.026947368304970409e-01,3.701012261437424539e-02,1.772619128227233887e+00
8.412859861070236533e-01,-9.932468300510508552e-01,5.776169296821186405e-01,-2.184342455420708665e-02,5.620395217251917402e-02,1.771365741835223204e-02,1.721386671066284180e+00
7.495231505344558398e-01,-1.028219365975055144e+00,7.729748558108092693e-01,-1.069972466319727387e-02,4.480097946017129809e-03,1.391209580812222818e-02,1.789858579635620117e+00
8.037519627060584204e-01,-9.703215657651198534e-01,7.488885389581620977e-01,6.427020380496859149e-03,4.629768102500643641e-03,3.265048247305638203e-03,1.747350931167602539e+00
8.975049179311280767e-01,-9.959936433819407409e-01,5.008989571689071996e-01,-2.945703799779211644e-03,3.415145821221047401e-02,-7.304656163270786297e-03,1.730706572532653809e+00
7.791733238428883990e-01,-1.029954385892107416e+00,8.005349795653461387e-01,-3.740524609733836617e-03,-6.293689745636038904e-03,9.209179494472836437e-04,1.819947481155395508e+00
9.116565440370381079e-01,-1.002344962949831553e+00,5.045157056033904297e-01,-1.408344861579568542e-02,9.989679293192480283e-03,3.088447590152200092e-02,1.747470498085021973e+00
7.794279610071861430e-01,-1.032596028200468252e+00,7.700102510369062347e-01,-7.032427480994815974e-03,-1.129288388852878059e-03,-1.042201977858406856e-04,1.807375669479370117e+00
8.922576726049775697e-01,-1.047761318920610751e+00,5.851937896848764531e-01,1.320809417601437677e-02,1.240987396740819981e-01,-3.237959482603934569e-02,1.819923758506774902e+00
7.058927113216919569e-01,-9.981022552452454288e-01,7.165422626967634656e-01,2.764177499439774213e-02,6.579271857933088885e-02,-2.489438624066763958e-02,1.714350104331970215e+00
8.271262519442031946e-01,-1.017495814026499801e+00,5.968057995436628627e-01,-9.174469700428872221e-03,1.222868489622239430e-01,2.305987393573580291e-02,1.754290103912353516e+00
7.969108809412647210e-01,-9.958755266985330756e-01,7.204937896301093492e-01,-1.034493543767761939e-02,-6.080898488680863689e-02,-7.462745311451795573e-03,1.759120345115661621e+00
7.696521381833733022e-01,-1.031054007657304261e+00,7.714052657230058285e-01,-1.160483421338168175e-02,1.669160892810365397e-03,-2.271234883036449964e-04,1.801697850227355957e+00
1.411240938069770468e-01,-1.152157501690628916e+00,1.365817428758839602e+00,9.585367290054772060e-02,-1.963220613801440750e-01,1.398037592096667281e-01,2.226690530776977539e+00
7.823972159334664500e-01,-1.032956027726975146e+00,7.822086767070801638e-01,-3.759076539409790356e-03,-6.679033144486906833e-03,3.961072175316389388e-03,1.815320491790771484e+00
7.746198555210046521e-01,-1.030871502149512287e+00,7.597767347470185673e-01,-3.432177925455906693e-04,-6.274539306870817804e-03,1.826159018393759765e-04,1.798148751258850098e+00
7.820143073832264147e-01,-1.030985120789455367e+00,7.921061746348407873e-01,-2.601320070255823576e-03,-4.586485250222014504e-03,2.684843788457693357e-03,1.818095207214355469e+00
8.068149820285852591e-01,-1.014888656593019078e+00,6.981329505978303152e-01,-1.448982850656498067e-02,8.860687631463528072e-04,-1.509276403213408342e-02,1.770238757133483887e+00
1.004056769446042691e-02,-1.156495730449075943e+00,1.243861648884168947e+00,4.062831160432785194e-02,8.175812321177974851e-02,-1.827281476744669481e-02,2.085287809371948242e+00
5.710353607678372301e-01,-9.968060152654092398e-01,8.533293625432853968e-01,2.789955025119536525e-02,-2.245125992923837147e-02,7.878650637576142118e-03,1.727553844451904297e+00
6.936384218936793022e-01,-7.693196832816380226e-01,7.509085613516996993e-01,-1.622464267145829440e-03,-1.708692649696827090e-02,-6.288321443158322900e-03,1.492753386497497559e+00
6.932079637560784047e-01,-7.208517759181516382e-01,7.567215151501900383e-01,-4.039646776065405551e-03,1.023640177797928950e-02,3.237852706870766178e-02,1.448074340820312500e+00
7.818484788899292548e-01,-1.017637168348201060e+00,7.254660904222685058e-01,1.776758091476307241e-02,4.439382617010069303e-03,4.697798099008757347e-03,1.772269964218139648e+00
5.841620904259781089e-01,-9.954372503683345252e-01,8.141533994812671926e-01,1.635437696346955100e-02,-5.674355720612526965e-02,-2.155002706156516120e-03,1.709327340126037598e+00
7.898564847438540593e-01,-1.023978181749389149e+00,7.256114418951731260e-01,1.899238233047319951e-02,4.647494099884401375e-03,4.594134870436770990e-03,1.782920122146606445e+00
6.402481074714626574e-01,-1.014368552716846672e+00,7.859758686199468380e-01,-1.227543217066976236e-02,-1.447113527814049838e-01,-3.365660473229911687e-02,1.751225590705871582e+00
6.676004811542040063e-01,-1.023479805125241171e+00,8.234395434341785780e-01,3.006484719027197050e-02,3.798924357992423256e-02,-1.625695231356740281e-02,1.776347041130065918e+00
7.509055673066487024e-01,-1.016711838215315966e+00,7.535665380120405432e-01,6.643803245671322903e-03,8.358631884025573278e-03,-6.137641751776393845e-03,1.769078016281127930e+00
7.824080834073152690e-01,-1.025341457223583497e+00,7.900782779460654437e-01,1.481997119032681153e-03,-5.258296064975540550e-03,-2.513503008962212314e-03,1.811626791954040527e+00
7.827695860820385043e-01,-1.013009591367746598e+00,7.948930983660204008e-01,8.255605190351927858e-03,-4.233736363509594917e-03,-1.121694873620816650e-03,1.801944255828857422e+00
5.502957709577925849e-01,-9.785751225758357874e-01,8.201591520669428981e-01,-2.338859400246341702e-03,-5.769473401763335063e-02,7.287476026039942101e-03,1.683157920837402344e+00
7.173370173033755126e-01,-1.006629412742241048e+00,5.956121492113122251e-01,1.206379854977359875e-02,2.601163739018861332e-01,-1.600973023419767494e-02,1.726619482040405273e+00
5.208625267944699821e-01,-9.988778225266554678e-01,8.798794813828452188e-01,1.511727426724081974e-02,-4.188890182406857648e-02,9.624335375743454934e-03,1.729261159896850586e+00
4.727066359932671213e-01,-9.876646818122896132e-01,9.004363468336613607e-01,-1.546019788594472531e-03,-3.507014219288542151e-02,-4.920128416497740985e-03,1.715823650360107422e+00
7.192915910739245966e-01,-1.211904606005572482e+00,1.099541049558911077e+00,1.930583812149201384e-01,-4.887749481246602690e-01,3.680914449602364080e-02,2.332600831985473633e+00
7.915656531142947205e-01,-1.011928846096835199e+00,7.794386875964398609e-01,-3.739319595315583025e-04,3.446332029868651690e-03,2.033324730996623891e-03,1.797475218772888184e+00
4.926158875778507973e-01,-9.912577616435997996e-01,9.061307096507374981e-01,3.308489508682570419e-03,-4.143401462467592722e-02,-4.193351453670672753e-03,1.729657530784606934e+00
4.730023002810702648e-01,-9.897629724368530724e-01,9.086746497549641477e-01,-5.520132457764012970e-03,1.338406033482647875e-02,-4.651025037426893653e-03,1.722635388374328613e+00
7.962049537971815916e-01,-9.788955980159737003e-01,7.662938025509800077e-01,-2.977699781305093510e-02,-2.898882046936725968e-03,-9.654166191253640145e-03,1.761177539825439453e+00
7.905334344712413586e-01,-1.031818821017424392e+00,7.701727441984432820e-01,8.718173255404890881e-03,-3.715637282089025249e-03,5.016826446102839836e-03,1.812352895736694336e+00
7.779330453818656954e-01,-1.013107331887291185e+00,7.926234862695398231e-01,7.376611313378034392e-03,2.674807200867893465e-03,5.005231633243286543e-03,1.798502802848815918e+00
9.583798599907156213e-01,-1.126572474778979593e+00,5.710574355704003402e-01,-2.748223684008083839e-02,-2.250938094154081304e-01,1.859322627644622444e-02,1.960816383361816406e+00
8.376465414560347877e-01,-1.013873947780770779e+00,6.235930520779751074e-01,8.679127199730620953e-03,1.780810076261066591e-02,5.091773488546224267e-03,1.754673123359680176e+00
6.406215758902285007e-01,-8.096765710196647259e-01,8.049012226551721660e-01,-6.613742990580001591e-02,-9.114448851140009855e-03,-2.410684513698277756e-02,1.543930768966674805e+00
7.372869903204971598e-01,-9.967988111889707348e-01,6.461767820715519361e-01,1.691809813320125939e-03,1.375796027582176784e-01,-4.484323386519371846e-02,1.708855628967285156e+00
6.848001496989966075e-01,-6.110523150067119769e-01,7.391717516607101413e-01,-1.080941260550117994e-01,8.997193234770009540e-03,-1.180119960319532318e-03,1.337141513824462891e+00
7.719243922966630977e-01,-9.912339190182506421e-01,7.787747608736244054e-01,-1.601161938154086611e-02,8.322799725848562327e-03,7.815165453596947115e-03,1.766921758651733398e+00
7.708413665816342686e-01,-1.016536034567949276e+00,7.389562952945522012e-01,-8.495448259039369010e-03,-6.788926501761308532e-03,-7.206857252336095919e-04,1.771750688552856445e+00
7.861940004523564340e-01,-9.505857264183774635e-01,7.589633997872067273e-01,1.545351134358158816e-02,7.661395942769272036e-03,-1.975473055718624318e-03,1.723588109016418457e+00
8.529617427646920547e-01,-9.850099945409471758e-01,5.423318827836621780e-01,-5.171072474809709427e-03,2.094275701601805081e-02,-2.924667526760697280e-03,1.704442381858825684e+00
7.907337124066755596e-01,-1.015523099245011718e+00,7.908710817498603163e-01,-6.576181287738266761e-04,1.402007428756258615e-03,4.585274065261603707e-03,1.806344985961914062e+00
7.881342045428445520e-01,-1.030142570547231129e+00,7.785974169118099475e-01,-4.653287710054130819e-03,-3.250093995363454759e-03,4.427505371351958714e-03,1.813570022583007812e+00
8.187018604720840420e-01,-1.034382518451591126e+00,6.611011686960048817e-01,7.469671613316730512e-03,1.122495673355021067e-01,-4.285040790593670768e-02,1.791699767112731934e+00
8.236330419893194144e-01,-1.001782727123487371e+00,5.869657720590867322e-01,-1.678848425204468309e-02,6.965242150209423333e-02,8.005967539339723174e-03,1.723870754241943359e+00
7.848714552676001599e-01,-1.037932203065717873e+00,7.810646976889941140e-01,-7.836905903884919949e-03,-6.806621369983394294e-03,5.102398834940000127e-03,1.821013450622558594e+00
7.883988884386776697e-01,-1.013970233544123634e+00,7.779590343242765993e-01,1.515424190720086450e-03,6.354822804490896631e-04,7.322991408776135386e-03,1.797218918800354004e+00
7.673461218026901287e-01,-9.858654446027529383e-01,7.902211570239993099e-01,-5.145874674461067225e-04,-1.225697406814355841e-03,-1.466661008538600042e-02,1.764944553375244141e+00
2.330520269180126058e-01,-1.127942228030751393e+00,1.116048599971510402e+00,2.350102625118360641e-02,-2.154436795981902186e-01,-1.720835218795687543e-02,1.993874311447143555e+00
7.895743527909003801e-01,-1.016465572809018614e+00,7.176097449394299721e-01,-1.763144593755798170e-02,7.612246370113394389e-03,-4.720546934817756134e-03,1.771485686302185059e+00
4.225183182827634276e-01,-1.092949014412240016e+00,1.047830277416286204e+00,-7.650500624779321690e-02,2.186665388249726255e-02,1.177414437564727051e-02,1.911728382110595703e+00
9.981054348315235858e-01,-1.268032926005924654e+00,4.467189015636480187e-01,5.516312602429419842e-02,4.794758918816669491e-01,-9.250406591333419637e-02,2.216840744018554688e+00
7.857794703314978646e-01,-1.032556597850194047e+00,7.685866303501245334e-01,-1.155884011867102344e-02,-6.043354394406134618e-04,-1.579350243189895069e-03,1.809913992881774902e+00
9.444453774739061114e-01,-1.047333102529634630e+00,6.065197662139920620e-01,-1.752506331759699082e-02,-6.957078652453227430e-02,7.051385533601414735e-02,1.854362607002258301e+00
3.385872054177904156e-01,-8.791282604023914482e-01,9.596601210344406496e-01,9.143901617393679349e-02,-1.715309347555658559e-01,-3.819328842866941132e-02,1.656073927879333496e+00
3.539999441568690841e-01,-7.274530382386488192e-01,9.220260210294763947e-01,3.095242123693311281e-02,1.643231622267397052e-01,-8.650129908549990254e-02,1.487553596496582031e+00
5.396414142489844856e-01,-1.084169280166478178e+00,9.823061882926261701e-01,7.072690496280618910e-02,5.187358715789534835e-02,9.757101648795145007e-03,1.890735864639282227e+00
6.183232030504808296e-01,-1.020483096821794611e+00,8.571015080204509307e-01,-1.474091866097208652e-02,2.527284990496916905e-02,5.333026773062303667e-03,1.771063446998596191e+00
7.720219529805989467e-01,-1.010271946921601938e+00,7.983037806941898351e-01,-1.001786050965129855e-03,-8.336706071219624641e-05,2.947911394447565864e-03,1.795587182044982910e+00
4.061716661008470397e-01,-1.094348366971408471e+00,9.781325652332816256e-01,9.699850637258372599e-02,4.272899796910274717e-02,-8.359386532925549076e-03,1.863022089004516602e+00
4.846578613295581817e-01,-1.010871048467437472e+00,8.939637684894760072e-01,4.491782535215517458e-02,-1.337061603719034986e-02,-2.653307845059296993e-03,1.738642334938049316e+00
6.024726543514877797e-01,-1.019508995735225243e+00,8.670955190604549001e-01,-1.048644305554060491e-02,2.892269067751498252e-02,1.725776253654309625e-03,1.770003318786621094e+00
7.734514591175825071e-01,-9.944621801143311846e-01,7.819240237189865050e-01,-3.179076740625493523e-03,-6.853578005371686530e-03,-6.341257307727801891e-03,1.772247433662414551e+00
7.077815532700205692e-01,-1.027057077426229981e+00,8.335284858998497359e-01,-1.302504379990493746e-02,5.876291348787616997e-02,-1.612107225043204681e-02,1.804238319396972656e+00
6.128258565775598354e-01,-9.800737925727835975e-01,8.378623368439768182e-01,-6.782939391512623518e-03,1.299293737147238885e-02,-1.226205986253961662e-02,1.716836214065551758e+00
6.345701950291089410e-01,-1.020761412188108785e+00,8.588188597407733216e-01,-6.001991943664734819e-03,-5.130117913250377241e-03,-6.312856358358438780e-03,1.778179645538330078e+00
8.017565690362467024e-01,-1.026063879678433155e+00,7.429605141325562601e-01,-1.849569385504747088e-02,5.275044635159033442e-03,2.727667876637870567e-02,1.800071597099304199e+00
1.496279380322916630e+00,-1.536022202952776583e+00,3.175171966210889596e-01,9.382156124605936509e-02,-3.232892982028326978e-01,-2.856709432980203967e-01,2.755857467651367188e+00
7.762992018076536604e-01,-1.032560988012542147e+00,7.783180200373576163e-01,-4.916270324909926583e-03,-5.515573476632435086e-04,1.662048437161415529e-03,1.809893012046813965e+00
7.365954555259917047e-01,-1.025463273010136511e+00,7.877456968294138662e-01,1.219284895944638784e-02,-5.048549535919551190e-03,1.689825486355454875e-02,1.788568139076232910e+00
7.838090440063736342e-01,-1.030897524355421480e+00,7.843886693142815281e-01,-1.099927354269966310e-04,8.534698224941747804e-03,2.415597924328064840e-03,1.815061450004577637e+00
7.817314095463460122e-01,-1.024463556519320084e+00,7.861430704419477555e-01,-4.568992438810845318e-03,1.117426394878314952e-02,-4.148428857901158978e-03,1.808539986610412598e+00
7.407659943941458103e-01,-1.024469327806220020e+00,7.775427793921461106e-01,1.301717637352882428e-02,-6.815292342468104794e-03,1.569500460342466638e-02,1.784296631813049316e+00
7.470800280003921934e-01,-9.029147050233268246e-01,7.689968874859030024e-01,-8.750037815145134124e-03,2.161035736472506630e-02,-8.288871313559289383e-03,1.661614418029785156e+00
7.742022752892734339e-01,-1.034103663655294048e+00,7.794643254557683809e-01,4.129804794397822637e-03,-2.004865942220939931e-03,6.329589656942692134e-03,1.810993313789367676e+00
7.780120337127949259e-01,-1.003978208238705427e+00,7.778320270979057760e-01,-6.358575965404698015e-03,8.096042696317973242e-03,-4.732152484238280436e-03,1.782008290290832520e+00
8.088481182030020644e-01,-1.020233514585682677e+00,7.028310946234799239e-01,8.885572392561873201e-03,7.483758066646775849e-03,1.072120659382747032e-02,1.778655409812927246e+00
9.927183392996780098e-01,-1.009937413433833253e+00,4.223453653323399615e-01,7.094831836634021838e-02,1.611480296409091573e-01,-3.082568106486259854e-03,1.812934160232543945e+00
7.699757716534614271e-01,-1.021463590529640753e+00,7.737177735300729831e-01,3.395845099575574115e-03,3.242625960465185856e-04,6.554018890310877102e-03,1.793358922004699707e+00
1.022129474385374825e+00,-7.482292089585838024e-01,2.676573290342463274e-01,-7.614448328660605725e-02,-1.485404197797819403e-01,1.155326390072432263e-01,1.578398466110229492e+00
8.018002919271118856e-01,-1.006325551937689466e+00,7.436066995744174957e-01,-9.081149081109664289e-03,-1.403721859500790294e-02,3.765083079970366932e-03,1.779990196228027344e+00
7.960020321903588103e-01,-1.023086617025735778e+00,7.687535088442442044e-01,-6.771078522480908184e-03,3.870753081975078416e-03,3.196419228558582473e-03,1.805677652359008789e+00
7.353706894876879119e-01,-1.027508226296832916e+00,8.149640233586429305e-01,2.533371659200520098e-02,-9.933713154781372012e-03,1.164967653019351353e-02,1.804721355438232422e+00
6.337002895951705517e-01,-2.223544823664180825e+00,1.557285585619875290e+00,9.077121764196545428e-02,6.199115098799677925e-01,-1.605050037986981148e-02,3.582475423812866211e+00
8.595674409133570171e-01,-9.972795400352346684e-01,7.254701741902505052e-01,7.300891062714992552e-02,-9.200951179603318597e-02,9.763895707044215055e-02,1.812968015670776367e+00
6.859397603671464339e-01,-3.452041580224142758e-01,5.909168560050082064e-01,8.352165636121267056e-02,-1.034115305472554230e-01,1.746121267155455736e-01,1.057725191116333008e+00
6.872736277392600401e-01,-9.795991668078843917e-01,7.206109699295960569e-01,2.377042464452765527e-04,2.083059078342156326e-02,-4.440225632644888634e-03,1.684193134307861328e+00
5.641768914180634864e-01,-1.012023645461839427e+00,8.575388680747875192e-01,1.488613236305899416e-02,1.779249825505282295e-02,-1.919417521985037137e-02,1.742293477058410645e+00
6.881181093500616797e-01,-5.538872955490927730e-01,7.137875843169334544e-01,1.874516640394843087e-02,-4.631863279181925794e-03,1.694143186616076935e-01,1.289317727088928223e+00
8.311697791558974036e-01,-8.252544335433812384e-01,8.377475939044384257e-01,-2.753335998510934857e-02,7.168425190623142762e-02,1.162075753956239993e-01,1.677165150642395020e+00
1.042570611886153076e+00,-1.106533598782067918e+00,6.719641788867313226e-01,-1.229946102702523733e-02,-7.194800570487260016e-02,6.418571107593326608e-02,1.996964931488037109e+00
7.578676100720890263e-01,-1.008991617595975221e+00,7.223049569733656083e-01,-1.550539454382680871e-02,6.007826305326200052e-03,8.863355570959160004e-03,1.749653458595275879e+00
7.881304134705443554e-01,-1.023392592493302500e+00,7.373978215281747906e-01,-1.668921640834845899e-02,7.161171087579749038e-03,1.267007613231893072e-02,1.787108659744262695e+00
8.037995479139355970e-01,-1.023166860515865917e+00,7.136878560407490246e-01,-1.385416769212018118e-02,4.510682049064832291e-03,-6.636460218226126681e-03,1.783834218978881836e+00
8.060226108218694341e-01,-1.013315592870897452e+00,6.648386352391334464e-01,-2.078547919689625184e-02,2.317266499695122550e-02,2.521435646226903929e-02,1.754387974739074707e+00
8.267775578317356766e-01,-1.044028519369822883e+00,6.487391839860487952e-01,7.512439675879541666e-03,-1.670417528961549991e-01,-3.934482204296944376e-03,1.811756730079650879e+00
8.414090321555762753e-01,-1.004159777608187420e+00,6.023109308463706624e-01,-1.868408903122178652e-02,-1.235537310712446768e-01,-1.527866676148414635e-02,1.752017259597778320e+00
8.270184056652769566e-01,-1.056159830020433565e+00,6.541943842039378287e-01,-2.897139393953775122e-02,2.250499034378919128e-01,-6.624850516285545055e-02,1.848890781402587891e+00
8.349605812219685896e-01,-1.007907585884753265e+00,6.420872067044469667e-01,-1.692725919572775350e-02,1.252753014584011802e-02,-9.485796880348158419e-03,1.754857063293457031e+00
7.896662107311754886e-01,-1.013301298050842680e+00,7.896673226432231463e-01,-9.862837572483951903e-03,-2.030847794630894626e-02,-1.394041356077361724e-02,1.803553700447082520e+00
7.983519886999037585e-01,-9.811425799687911731e-01,5.936870059861059090e-01,-3.831993043030980373e-03,-2.983175946539455212e-02,-2.316399925056815672e-03,1.687311053276062012e+00
8.388240878497846831e-01,-1.004585541713335362e+00,6.406229582568762071e-01,-1.304127873635297329e-02,1.054219627253924485e-02,-1.049659488197065074e-02,1.753069043159484863e+00
5.891252129199722187e-01,-9.927442301734181740e-01,8.047435267695531858e-01,-3.348784741396743092e-02,1.342967958153178099e-01,1.442301442904075394e-02,1.716967582702636719e+00
8.267627990216934730e-01,-1.024443938513768471e+00,6.894142987830200742e-01,1.928617030629074802e-02,-5.682990890211190096e-03,-9.515099931541606826e-03,1.786912083625793457e+00
7.852271341204606347e-01,-1.023600428483641300e+00,7.878485746843023607e-01,1.271360603552753373e-03,-3.648231119698043187e-03,-2.009098604265533838e-03,1.810155391693115234e+00
7.907431775908477789e-01,-1.033046140278436331e+00,7.711888783996178054e-01,-9.301534524064462156e-03,-3.708907650924778490e-03,-7.600935562301703100e-03,1.814221858978271484e+00
7.859384313520976217e-01,-9.538081572564428567e-01,7.553125145979525668e-01,-1.135264419765854085e-02,-1.962724661104585898e-03,-1.452941200111878238e-02,1.724936604499816895e+00
7.596105064235892934e-01,-9.937249354347840180e-01,6.687791384158617847e-01,-1.753353922970952300e-02,2.267824591129485520e-02,6.871496524249922494e-04,1.710451483726501465e+00
7.795015376933216444e-01,-1.019472777101865679e+00,7.866868802075941414e-01,1.083841635254149428e-02,-6.002705537649444603e-03,-1.186196821145755684e-02,1.802822589874267578e+00
7.214271880678336801e-01,-7.558239517827471943e-01,7.364361789019642224e-01,8.411380111071037335e-03,-6.700480896144702693e-03,-8.231692557128891807e-02,1.491758465766906738e+00
7.801834314326471231e-01,-1.024246699245729975e+00,7.872213462649183535e-01,-1.563351931000817605e-03,-1.165053898168757693e-02,5.107699356299486709e-03,1.808095693588256836e+00
7.752703175444362049e-01,-9.924394280005399693e-01,7.341924273294004877e-01,-1.072302692785577667e-02,3.984666117558847975e-02,2.572737812202923607e-02,1.749561429023742676e+00
7.933341974611622938e-01,-1.013249914121582940e+00,7.724473643594333971e-01,-1.300180894715568559e-02,-3.778054292636270559e-03,1.318476979703869269e-02,1.796530008316040039e+00
8.171995629600916633e-01,-1.036202789145161729e+00,7.325289311432668926e-01,-1.577112072430276925e-03,7.602339453400063049e-05,-2.108952876917626409e-02,1.812920928001403809e+00
7.552274601917898789e-01,-9.282954519287776041e-01,7.812855779983141069e-01,-4.356491945380723887e-03,-1.830669692333200538e-02,-3.589706278068788281e-02,1.698153734207153320e+00
8.092836323559223777e-01,-1.025992372792801977e+00,7.604011151860680107e-01,3.794524097246765619e-04,9.893034537273028787e-04,1.790854191678433252e-02,1.811596035957336426e+00
4.792073767012142715e-01,-1.042771671578088810e+00,9.720782133828564930e-01,1.056028873083849490e-02,-2.292005449220131663e-02,-8.257142264490834049e-03,1.819779157638549805e+00
7.805268156400273494e-01,-1.013283557993189365e+00,7.764388461011040299e-01,5.898355749451186097e-03,4.177178275529329311e-04,-5.466237269116633150e-03,1.791824221611022949e+00
8.127851349332357866e-01,-6.226626639076914271e-01,4.810182460820134898e-01,-6.861219092784830165e-02,2.042401810909403870e-01,-1.321658650808590074e-01,1.373322248458862305e+00
7.502559554556060828e-01,-8.879040297885654187e-01,7.636023909339403337e-01,1.704054842851147542e-02,1.527573466543554609e-02,2.412131566929218499e-02,1.645881652832031250e+00
8.206126261387199916e-01,-1.062965317551920474e+00,7.620573259092319196e-01,1.282162376654677992e-02,4.007737818858646273e-02,-2.529782962644408495e-02,1.856941819190979004e+00
7.997445587195676220e-01,-1.012933766442867700e+00,6.907799967053236401e-01,-1.687848774703528537e-02,4.838096916182409862e-02,7.475491838976802000e-03,1.763009548187255859e+00
7.924564447788603472e-01,-1.022042099167996154e+00,7.624025429096066286e-01,-6.829766457460905230e-03,2.667523234980522222e-03,1.774653782776648356e-02,1.799967050552368164e+00
8.301985575599564182e-01,-1.204510673280130062e+00,7.532326145090100233e-01,2.850341036855081819e-02,2.709488244963131898e-01,-8.291231062329623702e-02,2.057343482971191406e+00
7.330886216982336334e-01,-1.023314644681076802e+00,8.084071476619211216e-01,4.668208110322309527e-03,-1.068504934182847900e-03,-1.968074390475514548e-03,1.795270323753356934e+00
8.263176888934691267e-01,-1.021421627431335688e+00,6.798794780484045397e-01,-1.435678214034393635e-03,-2.013462731765857262e-03,1.262420443929004356e-02,1.779185652732849121e+00
7.283293564851446300e-01,-9.920057749819576332e-01,7.899265659432411768e-01,2.887930672318660304e-03,1.082314790800771673e-03,7.014050761649911515e-03,1.751996278762817383e+00
9.281300190289240026e-01,-9.957654477953575833e-01,4.455383792325767756e-01,-3.047366437553194335e-03,4.127512485697029318e-03,-2.871299199702322287e-03,1.733757853507995605e+00
7.890280011933050730e-01,-1.014790412000078579e+00,7.792567573258969427e-01,2.381083284677574033e-03,-8.761308123150127886e-03,1.473060538703479605e-03,1.799023270606994629e+00
7.676605821827925391e-01,-1.000157819793463965e+00,6.850309257481124181e-01,-1.620410465515551360e-02,2.123047139863847715e-02,-1.861679328886301421e-03,1.728608012199401855e+00
8.623609837696011304e-01,-1.200947288143866976e+00,6.530475916404041570e-01,2.846574694884998133e-02,-3.237755342572185557e-01,-8.694663678399997681e-03,2.046051025390625000e+00
8.693915690561416776e-01,-1.017485267753771350e+00,5.810684940343017191e-01,-1.437283224089440717e-03,1.272719253060621870e-02,9.670317522283991551e-03,1.760731935501098633e+00
7.832493615802803566e-01,-1.008012553151016455e+00,7.788986191652624846e-01,1.184131969758519393e-02,-5.095827897861858469e-03,9.024345497030461299e-04,1.789230465888977051e+00
7.751281260560027864e-01,-1.004747492632421801e+00,7.872285813285572198e-01,-2.669077176765226756e-03,6.547596126483533861e-03,1.138194571731493236e-02,1.786107420921325684e+00
7.675920301974834548e-01,-1.023844317360858680e+00,7.863111687890556034e-01,-6.433192590196004819e-03,1.502075539953998031e-03,1.445223853257336134e-02,1.801079154014587402e+00
8.259501624492019412e-01,-1.027021281185655610e+00,6.800998461716645238e-01,-1.077609759325216104e-02,-5.102402647848614838e-03,-1.376133581269272342e-02,1.784800767898559570e+00
1.129911941972340017e+00,-9.080309045443513138e-01,5.474058475217127295e-01,-3.484778418267829234e-03,-3.083428847835764097e-01,-1.933724604791423884e-01,1.924279451370239258e+00
8.079803794600384226e-01,-1.026932319259431514e+00,7.218557084903225451e-01,-5.722818602737616070e-03,-5.699515459269288709e-02,3.109925839644330121e-03,1.796152353286743164e+00
7.713192090285060365e-01,-1.032818077906681786e+00,7.924331093699871209e-01,8.193765724405960987e-03,-1.423393924807194594e-03,2.826711347975946215e-03,1.814850091934204102e+00
4.945643841996425483e-01,-1.031109244577010919e+00,9.543500267458121522e-01,2.204453735593167596e-02,1.941407147845081518e-02,-1.317420263061836599e-02,1.801020503044128418e+00
2.270657712344778811e-01,-1.576749949839233444e+00,1.443366932350249598e+00,2.113458025958112607e-01,-1.727120896344171708e-01,9.260194530589735407e-02,2.678868770599365234e+00
4.430572996697672017e-01,-1.123980178337359748e+00,1.036278107727850450e+00,-2.966879980163960803e-02,1.263359590052432757e-01,-6.912845444056080202e-02,1.949865579605102539e+00
5.587372760703492869e-01,-9.820622732190414927e-01,8.181999227400050811e-01,-1.301430355783854973e-04,-6.512181070852975096e-02,-1.147129012209432627e-02,1.689461827278137207e+00
1.146524558498913660e+00,-1.279167398677431233e+00,2.550639245314820780e-01,5.201979173450398813e-02,3.836675504376865775e-01,-3.418432136795043069e-02,2.229237794876098633e+00
2.048230345083251747e-01,-1.204029618738672980e+00,1.224548668574127364e+00,1.153971424686548244e-02,-3.379555442527290218e-03,3.070537469041141609e-02,2.112962722778320312e+00
7.662024754640728297e-01,-9.259707980418756534e-01,7.178520658393287013e-01,3.976628814935150025e-02,-8.843310077632922372e-02,-2.935861301053022815e-02,1.677725195884704590e+00
7.199285612967472048e-01,-9.974806300867666842e-01,7.343817617338632697e-01,-1.542830996589073607e-04,-1.180700012882199106e-02,-7.875356157331056192e-03,1.724856376647949219e+00
2.623785261293850035e-01,-1.173507700590930236e+00,1.170604768941318374e+00,5.087252550188505612e-02,1.891608061996415402e-01,3.075809234511471188e-02,2.075741052627563477e+00
7.820494123266574782e-01,-3.528084706043474461e-01,4.045854396372645656e-01,-6.945020726753846872e-03,1.008511275746327290e-01,-1.383577159197419693e-01,1.044078350067138672e+00
6.805083689685812454e-01,-5.014822112164519785e-01,5.400159172641730843e-01,1.837127540880566061e-03,2.377660334882442106e-01,-5.237402259178536995e-02,1.195247411727905273e+00
9.044041707884472592e-01,-1.010856788790132743e+00,5.504973992655221027e-01,1.645176914563082639e-04,9.981583258796371521e-04,-8.762951983217876634e-03,1.765186667442321777e+00
7.452858752978004375e-01,-9.884153359069280942e-01,6.920859154323359963e-01,9.728861361659315449e-03,6.705852380635760057e-02,-9.541791494491670689e-03,1.711830854415893555e+00
7.145541132137811502e-01,-9.880269876203994217e-01,7.198360211161788369e-01,8.058233100904841489e-03,2.708974605053070597e-02,-9.616168748854776391e-03,1.706012010574340820e+00
7.852670060835473809e-01,-1.022013564268460240e+00,7.925386160094408661e-01,8.528710405083641871e-04,-8.656402966751327969e-04,-4.662959443665353962e-03,1.810946583747863770e+00
7.798217843882386813e-01,-1.017094368401150639e+00,7.878088211289873133e-01,3.502538020218759311e-03,6.809857779755281934e-03,3.653644569614868456e-03,1.800982952117919922e+00
8.101446891438324194e-01,-1.031218894021985744e+00,7.700924983550316849e-01,5.028038738086321988e-05,-4.250006718386527965e-03,-8.764801209774596147e-03,1.821745872497558594e+00
8.347064750678676592e-01,-1.011947956477873056e+00,6.300129739070814416e-01,-7.349500451092633863e-03,-2.223948779808101670e-02,-7.047471355304542329e-03,1.753804087638854980e+00
7.353888310259961703e-01,-1.009600928916244200e+00,7.521987807115049218e-01,7.318874988010538353e-03,9.083531256322770892e-03,-7.276847115143861809e-03,1.753616809844970703e+00
7.808953532160209932e-01,-1.026316271851931194e+00,7.537370860459837729e-01,1.690056620034011137e-02,-7.989695965011485435e-03,1.452655676360465296e-02,1.794255375862121582e+00
7.272581061906303601e-01,-9.951946225041310434e-01,7.210820648950655443e-01,5.886694063980517106e-04,-3.041471380542950902e-03,-5.839660139769383123e-04,1.719381690025329590e+00
6.440755154207058464e-01,-9.805142131901249947e-01,7.487190220160524490e-01,1.258785259204333890e-03,3.217678355840813270e-02,6.317713289510687100e-03,1.680320024490356445e+00
7.672355076635674065e-01,-9.477444467350315538e-01,7.483031074882612321e-01,3.203540010493142760e-03,-7.724302183814911807e-03,7.648250382269999176e-03,1.705705523490905762e+00
7.973988702807004447e-01,-1.029380244462139604e+00,7.720871776845608103e-01,7.260198026273910824e-03,-8.515171042957405192e-03,6.999565433030308786e-03,1.814399719238281250e+00
1.007039339128867894e+00,-8.864248466063650023e-01,3.591366578361933626e-01,1.737792129647068931e-02,1.144256354786981900e-01,3.453837206852296560e-01,1.782206296920776367e+00
8.150614591025504563e-01,-1.027855151533768163e+00,7.525290502414124783e-01,-9.304868863504640181e-03,-1.662922143667384250e-02,1.529976059114263043e-02,1.812953829765319824e+00
7.811180845519943849e-01,-1.023529830336495472e+00,7.906573098089401119e-01,-3.937776748269200544e-03,2.285247229350239554e-03,-7.158562438319501396e-04,1.809453964233398438e+00
7.598620533881547123e-01,-1.095728365226068091e+00,7.719257616358674579e-01,1.294452179701201071e-02,6.196116450910757467e-02,-2.379602916143432750e-02,1.865332603454589844e+00
7.702327455810468182e-01,-1.020803997822700149e+00,7.481681518723318769e-01,-1.720237611386699755e-02,-5.436343570533984371e-03,-1.452341490311637000e-02,1.780558943748474121e+00
8.690243349629346303e-01,-1.095402017151090091e+00,7.322801002651934121e-01,-4.580930879637785946e-02,-2.468692247482966867e-02,-2.795491655128835157e-02,1.902502059936523438e+00
7.922495474191848519e-01,-1.010118020883540524e+00,7.251453331251548340e-01,1.470109724185588926e-02,5.019277887776073949e-03,-1.107150076547220967e-02,1.770078301429748535e+00
7.706394777449087075e-01,-9.897670004428086310e-01,7.845210547551438873e-01,-5.323825535530882572e-03,-1.022000584863599210e-02,5.195937349665751513e-03,1.767523765563964844e+00
6.080946971941219026e-01,-9.814074870552620400e-01,7.902945458621625230e-01,1.545890268386107243e-03,-1.941105686411401243e-02,-8.432132680365770835e-03,1.688393235206604004e+00
7.995817188723935987e-01,-9.955751531774609253e-01,7.679916235678413416e-01,-3.384480557513848929e-03,1.655274992254404318e-02,-5.598534519858003496e-03,1.779839158058166504e+00
7.453424080389647877e-01,-8.729734499145168636e-01,7.702617067418968677e-01,-3.584336658019593273e-03,-1.214890448985300742e-02,3.442772496313270536e-02,1.632155537605285645e+00
9.068807800202061120e-01,-9.846339810168981410e-01,4.565391038537035540e-01,-5.898260316163964588e-03,-1.016966882560021816e-02,5.322721294746791953e-03,1.711521983146667480e+00
7.663064142708128079e-01,-9.811593165024863339e-01,7.974048353649995091e-01,-5.108297859935351584e-03,-1.064550954862270027e-02,-5.917160482430031988e-03,1.763369083404541016e+00
7.834020790183779948e-01,-1.010798321476896966e+00,7.634803874149926894e-01,1.019796786139450309e-02,-5.258304415994939987e-03,-4.458457370978117888e-03,1.784450292587280273e+00
7.697666412251986667e-01,-9.588717470439553914e-01,7.714164806879659775e-01,1.202884314865869039e-03,-1.231252278766079011e-02,7.756171781431241835e-03,1.729648828506469727e+00
7.806034939309778320e-01,-1.017293209855303360e+00,7.792368702290555227e-01,-2.708096119220270489e-04,1.653221708695771629e-03,-3.533968892126476604e-03,1.797226548194885254e+00
7.844108119606888474e-01,-1.018587395747866609e+00,7.256044909321255343e-01,-1.679504607984006262e-02,-6.317878601885812753e-03,2.281605227475798532e-03,1.774602651596069336e+00
3.312366850219533587e-01,-6.664785951024535526e-01,7.932024651586859765e-01,1.648052229692604509e-01,-2.519270641356921026e-01,9.429910999316569453e-02,1.402968049049377441e+00
7.823743026634619735e-01,-1.014502970873738308e+00,7.765595754034353426e-01,2.794879775263228294e-03,-9.319808137153818097e-05,1.069216522363862151e-02,1.794079065322875977e+00
7.929360762387458461e-01,-1.018894365161501003e+00,7.783493786390127678e-01,6.285942541827974073e-03,4.877117858786433717e-03,6.109433050741441482e-03,1.804664969444274902e+00
7.707105603252573101e-01,-9.785892461406640042e-01,7.938481871020487413e-01,-1.389296784876346358e-03,1.405563333122509390e-02,6.335738966254553413e-03,1.761186718940734863e+00
9.228766754305561815e-01,-1.005841156508356482e+00,4.598067023491996252e-01,8.087110697205501450e-03,-2.133262924468039626e-02,1.693247216824742343e-02,1.744613528251647949e+00
8.891063700342155540e-01,-1.191907321528154373e+00,6.083495439243374880e-01,-6.517486205840658520e-02,-2.183242972907695201e-01,-8.822567041090935425e-02,2.001068353652954102e+00
7.829471754463306343e-01,-1.016352180096636415e+00,7.793462317793957705e-01,2.469876804994309248e-03,2.497749788473702624e-03,4.384204352166531232e-03,1.797527909278869629e+00
4.830600050615171392e-01,-8.638165594063750286e-01,8.198929132114650686e-01,2.884541452306305098e-01,3.092127755886771023e-01,-2.374499186228755110e-01,1.756931304931640625e+00
1.136722192597695358e+00,-1.106613772619049918e+00,9.045111261132696145e-02,1.711845175277964051e-02,2.783030714650498449e-01,-7.666119164773121941e-02,2.007727384567260742e+00
7.700427220799012096e-01,-9.883985286193387454e-01,7.892711910062393255e-01,1.171009237445035187e-03,4.604934707009374420e-03,-1.125904574463295130e-02,1.768260598182678223e+00
7.802570174935836711e-01,-1.036699379842291435e+00,7.795651444492950333e-01,-7.673291147866567134e-04,2.881806500501583532e-03,-1.083284152592351628e-03,1.816618919372558594e+00
1.089138093790042339e+00,-1.288659814864667741e+00,6.963488313960068954e-01,-1.123997859484373030e-01,-5.077760591868920592e-01,-1.426675584112691575e-01,2.397228717803955078e+00
7.786685163785529440e-01,-1.017809166506946861e+00,7.956084907442728671e-01,3.502035494339695611e-03,2.274341393767140892e-03,3.652144198033956384e-03,1.805032849311828613e+00
7.972405545847436326e-01,-1.028196166707210146e+00,7.703973808719022376e-01,3.537104456980778855e-03,3.243625429706934946e-03,-7.102336883966392164e-03,1.812225103378295898e+00
7.454012480161492649e-01,-8.593647716235165435e-01,7.653511878485342868e-01,1.540136829236061437e-03,-9.083328658693563123e-03,-3.772328194361680709e-02,1.616233468055725098e+00
7.783915673837485949e-01,-1.012515428768101744e+00,7.974504438036826848e-01,-5.486744865039372594e-04,4.782177624946277322e-04,3.573759352500809061e-03,1.800523161888122559e+00
1.142468150264432047e+00,-9.628061260941231936e-01,1.051246677420899223e-01,1.112211954704874356e-01,-4.341369086409745115e-02,-4.654043745542569416e-02,1.836744785308837891e+00
8.995560694156843340e-01,-1.001184419970978956e+00,5.051578253562472032e-01,1.524094513797953632e-02,-5.113461044984539232e-03,-2.616569316897492635e-03,1.737674117088317871e+00
8.803524090029346549e-01,-9.988688883895437964e-01,4.591128368766753676e-01,1.149610079166776648e-02,-2.227312821749806437e-02,3.569590775581389652e-02,1.709684252738952637e+00
9.116947605423725287e-01,-1.034181064402978301e+00,3.188202346304088719e-01,7.089205733455306024e-02,4.083383058741220095e-01,-1.223829292627010984e-01,1.882685065269470215e+00
7.833650402403536939e-01,-1.025456879082037531e+00,7.898671934714401877e-01,-6.204331638693702088e-04,4.911982518434367985e-03,-2.878578619323298934e-03,1.812108874320983887e+00
8.090374840644496413e-01,-1.030302571751716023e+00,7.673306608946816043e-01,7.589970313525144785e-03,-2.627004621299238677e-03,-8.849047902311415331e-03,1.818963050842285156e+00
8.405300793234514733e-01,-1.028666137058854790e+00,6.792922574937375613e-01,-1.238697951334111723e-03,-3.057219942511506684e-03,-1.332905954152312569e-02,1.794177412986755371e+00
7.795488394539324961e-01,-1.020813918985187918e+00,7.917735345999297181e-01,-1.805240422028814838e-04,3.502613242101692225e-04,-3.962088766681472543e-03,1.806519269943237305e+00
7.779937046519751487e-01,-9.587075473163944039e-01,7.737199405034733690e-01,2.169397408166313240e-02,2.446035448202408397e-02,-7.331562270074727140e-04,1.735492944717407227e+00
6.946744348423341542e-01,-6.725257515377300876e-01,7.320306949764719961e-01,6.639186498091748101e-02,-1.252229026003428003e-01,1.295543490659913366e-01,1.425596117973327637e+00
7.916482041353953836e-01,-1.029129647052391405e+00,7.701442030111771420e-01,-1.285098900124753956e-03,-3.410577351208090961e-03,-8.871707956241113580e-03,1.810197830200195312e+00
7.900385981311376371e-01,-1.022238793841311333e+00,7.952638637361238994e-01,3.173344554453858511e-03,3.790934318190833201e-03,-3.870173457263086959e-03,1.814928293228149414e+00
7.456018645432564984e-01,-8.298916086949047477e-01,7.554831330661307964e-01,-5.121496015212665884e-03,-6.042543940183737333e-03,8.493653105717108298e-02,1.587348699569702148e+00
8.018908151362680314e-01,-1.030016861799603278e+00,7.583981349868974542e-01,1.072852077356800660e-02,-8.796958484649816494e-04,-8.544070109108022060e-03,1.810709595680236816e+00
6.050062143070887855e-01,-9.828509708946083778e-01,7.431373459140936388e-01,1.632616294311601407e-02,1.303546275930045351e-01,-1.636623365094219337e-02,1.676986336708068848e+00
7.523939651101301251e-01,-9.502733119439830123e-01,8.003606964575797900e-01,7.613736256728548648e-04,7.436048129829607792e-03,2.508917912188338151e-02,1.727745413780212402e+00
7.762438863394058863e-01,-1.028905090704324676e+00,7.733941715746739387e-01,-3.814378047399336405e-03,-3.441700004434651767e-04,-2.033035994983671286e-03,1.803741455078125000e+00
7.815626212221202795e-01,-1.033954804745542466e+00,7.718479466611349871e-01,-5.090336572586043676e-03,2.839519822004752010e-03,-7.064101898614326761e-03,1.810749173164367676e+00
4.860718117601375288e-01,-6.118263769882639203e-01,7.516521773011283214e-01,6.788349363365128730e-02,-2.204207234626183176e-01,8.639344171748669643e-02,1.322673559188842773e+00
7.812260799816488355e-01,-1.021542403150175637e+00,7.877748831518526229e-01,8.445198415752561832e-03,-1.271468990568738570e-03,3.231349869384639480e-03,1.806120991706848145e+00
7.861692437803502465e-01,-9.168658470762662827e-01,7.401445595420984569e-01,-8.922571874117688623e-03,-7.743324525581510819e-03,6.609425147944216275e-03,1.680659055709838867e+00
7.194907432262087621e-01,-9.908799209736420810e-01,8.256334343027083023e-01,4.295712125082341154e-02,3.934538662883417526e-02,6.934139274056489929e-03,1.768757104873657227e+00
7.845706523795088483e-01,-1.038911774024576795e+00,7.872017198578875607e-01,-4.601903214543858443e-03,3.259605639540604123e-03,5.212364872325790524e-04,1.824825763702392578e+00
7.741156485064387693e-01,-8.681903499439111993e-01,7.319753496775680546e-01,-2.743194548513864031e-02,1.077325710836687933e-02,-4.941893929178389766e-03,1.622472405433654785e+00
8.586276460071264882e-01,-9.832779842516218283e-01,5.370387713178653710e-01,-1.705097961676388732e-03,-2.362254071924215978e-02,1.938742986245496755e-03,1.704521536827087402e+00
7.718309909910672229e-01,-8.556731713582548249e-01,7.385329921195689096e-01,-3.103428436729911005e-02,-2.140206013892018144e-03,2.356017311102884520e-03,1.612019181251525879e+00
7.231094531627044741e-01,-1.009902431586612304e+00,7.564277079044645635e-01,-1.563926003023892106e-02,-8.373478394238156181e-03,-1.742818794094208243e-02,1.750438928604125977e+00
8.855927547568076541e-01,-1.004473342077266462e+00,5.351817929389306450e-01,3.233946764649627166e-03,-2.051714472209364287e-02,-1.104843100562081983e-03,1.741877079010009766e+00
8.007589323348440757e-01,-1.016073222847306834e+00,7.774160905635578711e-01,-1.343258561490094129e-02,2.173584027749267400e-03,-2.613714485241827243e-03,1.805433392524719238e+00
7.537623079529027770e-01,-1.015562469461419814e+00,7.418571270980029997e-01,-1.736884800515342206e-02,-1.128673291541010260e-02,-8.212706425921438048e-04,1.763767838478088379e+00
7.649232089746507146e-01,-1.029388215644282401e+00,7.973114087431323327e-01,-2.431824688727493231e-02,4.054125416938531880e-03,-1.605686432977426747e-03,1.811228394508361816e+00
1.039463444889463295e+00,-3.695703066771801604e-01,5.516356683301446573e-01,4.342601888765968560e-02,-1.907400186309168855e-01,1.499357870703967865e-01,1.310813188552856445e+00
7.877006996432067698e-01,-1.017571079335331863e+00,7.247476403776795806e-01,-1.447256413980163928e-02,-5.529883686969123274e-03,2.470261548665385332e-03,1.774840950965881348e+00
7.953167676851495838e-01,-1.027235776125754452e+00,7.885860397501576191e-01,-4.253507700785478379e-03,2.628509369529870906e-03,5.991146584209211534e-03,1.819246768951416016e+00
7.849017189748883627e-01,-1.038340878894766339e+00,7.838124264443682154e-01,3.745459798068955567e-03,2.669090403143586053e-03,-1.882052581226765879e-03,1.822718501091003418e+00
7.014032225311452873e-01,-4.436698673694622896e-01,1.077831812417890722e+00,1.591886799415058451e-02,-1.505308930583022509e-01,1.891211281435352734e-02,1.397762894630432129e+00
7.456076511669434970e-01,-9.990819582880053895e-01,6.998441237513128854e-01,-1.819719507572910289e-02,1.310169781663067870e-02,-9.042694177647777123e-04,1.722702503204345703e+00
7.912578131378396051e-01,-9.566392198040041261e-01,7.640060401939132717e-01,-1.394148125697510822e-02,-9.627232913701034428e-03,6.555003582354017658e-03,1.734717130661010742e+00
7.211135762506728497e-01,-1.005942149537965680e+00,7.975587184973719213e-01,1.152580473204550295e-02,-1.014002564775390476e-03,-7.375821763913515197e-03,1.766679167747497559e+00
8.231700283777467764e-01,-1.046783021443819850e+00,7.986242188623637883e-01,3.387067689965697105e-03,-1.526796293244807312e-01,1.065297478720723112e-01,1.885587692260742188e+00
8.978185535644288562e-01,-9.950589450795076507e-01,5.041755995217087616e-01,-1.269486341872489961e-03,-4.279297522778586528e-03,-2.713918626457287146e-03,1.730001091957092285e+00
7.952909153833549460e-01,-9.998514513501872703e-01,6.354172357245559954e-01,-1.807755695784572791e-02,-1.640960597475955157e-02,2.293936094205767211e-03,1.721308708190917969e+00
7.999668392366031666e-01,-1.018222101341846653e+00,7.758756355859940390e-01,-1.016220469322483624e-02,7.213473133120631466e-03,-2.800274401367399118e-03,1.806399345397949219e+00
7.890887048966364059e-01,-9.993398548741843079e-01,7.764364793638250939e-01,-1.085563983745515930e-02,7.239862700645588976e-03,8.277560775303567490e-05,1.782279491424560547e+00
7.934359979972035459e-01,-1.021964501283552318e+00,7.813536766874743522e-01,-1.155517104307258796e-03,7.077473875025560614e-03,2.959446613478777886e-03,1.809439539909362793e+00
7.955339188057117816e-01,-1.026127612787595345e+00,7.802848546356637716e-01,-5.139902719649020943e-03,2.267820562870959296e-03,3.158806023178342172e-03,1.814119458198547363e+00
7.220791514307866032e-01,-1.022329138292100703e+00,8.135879795943912196e-01,1.587762139377709575e-02,-3.585223324667108531e-03,7.462626242802171579e-03,1.792184352874755859e+00
6.990177115668073649e-01,-1.023984901661718627e+00,8.236009911845522113e-01,-6.789387094321390134e-03,-5.429270141277571385e-04,1.153669686133801560e-02,1.788702011108398438e+00
6.927120290551673776e-01,-1.001783793959301949e+00,7.653393142180038300e-01,1.598734503895436754e-03,-2.057629392312099181e-02,-1.480667980769677199e-02,1.732510566711425781e+00
7.945468546116278841e-01,-9.931632442917780468e-01,6.257203258713011085e-01,3.481579267788495642e-03,-2.264409064767207436e-02,-1.284118666544032316e-03,1.710022330284118652e+00
7.213380293836556545e-01,-9.829886817320711012e-01,7.049755426792393420e-01,4.247461027654499469e-03,-5.230381357367653791e-03,3.997354065385402659e-04,1.696244955062866211e+00
7.938229867392558869e-01,-1.023499532896619657e+00,7.860240181835813633e-01,-4.766379793855565761e-03,1.114046868429366876e-03,-1.225161126978879019e-03,1.813456654548645020e+00
8.528824241691634889e-01,-9.972032101067600518e-01,5.677543030443171768e-01,1.808199528415701390e-02,-1.900974797857931872e-02,-2.202350579409522151e-03,1.725886106491088867e+00
7.841486487639952596e-01,-1.001972204843043057e+00,7.818823388343060232e-01,7.212599193321260135e-03,-1.761974446341935466e-02,-1.210753591689679894e-02,1.785416483879089355e+00
6.567153196030381945e-01,-3.877708925823573072e-01,6.557459899376849588e-01,3.590793432614518971e-02,-2.012011075422109191e-02,-4.874787892954075830e-02,1.049834132194519043e+00
7.693716840098689946e-01,-1.031835134030210543e+00,7.859366187345540045e-01,-9.724193895869264956e-04,5.732639771728480259e-04,1.056819764859610357e-02,1.809639811515808105e+00
7.485283449224493513e-01,-3.165878590444590190e-01,5.839803036618962384e-01,-1.660695841965764002e-02,-8.397400841428674656e-02,-1.947783574999540912e-01,1.059284567832946777e+00
7.867598232014105797e-01,-1.031537900519415851e+00,7.907242965760229447e-01,2.457699219736212120e-03,1.627795780939978072e-03,-2.792766116196437800e-03,1.820296764373779297e+00
5.210577917828813632e-01,-1.369555609706896826e+00,1.033042918169778002e+00,-2.847188826097610259e-01,-3.032214366219893042e-01,-9.762312484363055987e-02,2.313466787338256836e+00
6.649152906509167016e-01,-1.575150068186938479e-01,8.049466746892475211e-01,-3.262151728834779968e-02,5.394306469398266191e-02,8.512585572538108880e-02,9.191451072692871094e-01
7.829031752590277504e-01,-1.034821162486164514e+00,7.796476675016617008e-01,2.408569344963713138e-03,4.830543846467649088e-03,5.362077086568818986e-04,1.816123127937316895e+00
7.826524856359851068e-01,-1.020614024762982908e+00,7.325083560854350750e-01,1.730296698936850328e-02,-3.402827801232524534e-03,-3.670055987879630287e-03,1.778998255729675293e+00
7.902314267581402873e-01,-1.027279726590638598e+00,7.726513399218999378e-01,-8.839383817688836048e-03,-4.256697650293557976e-03,-8.765337465235887790e-03,1.808928728103637695e+00
7.913575450442810189e-01,-1.027460117075382762e+00,7.596398014962714162e-01,6.259585254932556637e-03,-1.756920476845882147e-03,-8.457276613741590218e-03,1.803262710571289062e+00
6.750894522810426679e-01,-5.869925880494104575e-01,8.192853278240843640e-01,-1.100518714050778973e-01,-9.659617865426448069e-02,3.806883708946275785e-02,1.365395545959472656e+00
7.810144263087490657e-01,-1.024677479569132243e+00,7.774643414807388409e-01,-1.739669118017177088e-03,6.239071319964267434e-03,-8.094313894944084016e-04,1.803954958915710449e+00
7.822982003086993430e-01,-1.030961344232787180e+00,7.698465131452945087e-01,9.894987168227138002e-03,2.098553865967534623e-03,-1.253261777652857779e-03,1.807152152061462402e+00
7.193136805510516041e-01,-7.880730290536587246e-01,7.604959888184954497e-01,1.716624913618669188e-02,1.268309527868011384e-02,-3.724129459539413101e-02,1.530201196670532227e+00
7.854031758717399114e-01,-1.037233470763415655e+00,7.816746049305738353e-01,2.047246957562236062e-03,1.956135801229058266e-03,3.018927539956520710e-03,1.820789337158203125e+00
8.042170976507811986e-01,-5.840232134468570369e-01,6.814810820528468538e-01,2.716758254615563029e-02,4.513126275736790982e-02,-8.452168563580066130e-02,1.342253565788269043e+00
6.964580306540183452e-01,-2.577535131254777845e-01,7.200081795153809860e-01,-2.363883225618590780e-02,-1.928107948947015019e-03,-1.125575936366655511e-01,9.865298867225646973e-01
7.734341179731996085e-01,-1.033466653928293288e+00,7.784338363192513377e-01,-4.671619337414685720e-03,-2.090121382637214788e-03,-7.813249679961574434e-03,1.809478163719177246e+00
7.821831214471038907e-01,-1.026219686220753102e+00,7.667186966860621844e-01,-9.670662217520688969e-03,1.812208586180370377e-05,2.426110066311703076e-03,1.800803184509277344e+00
7.801574709379901496e-01,-1.030627869185108070e+00,7.632377451108507405e-01,-7.070137120649564767e-03,1.373653636458933370e-03,-1.656015767236520728e-04,1.802428245544433594e+00
7.847028346800862808e-01,-1.028904758311313561e+00,7.669543382927834774e-01,-9.623872539426661654e-03,-3.985879494721848184e-05,2.475288475431659287e-03,1.804880857467651367e+00
1.231463081758779277e+00,-1.660037821308213202e+00,6.768278202608205563e-01,-2.160791507139525613e-01,-6.360814069577065410e-01,-3.378312591447900637e-01,2.959886550903320312e+00
7.770848402586070236e-01,-1.033026948134814438e+00,7.833209202421635986e-01,-6.946698734251318015e-03,1.408164390041810208e-03,-4.299053550199109959e-03,1.813294768333435059e+00
7.352533873382030016e-01,-1.023707775957372945e+00,7.878681796922225589e-01,-1.495946565457489767e-02,-4.753868357546903178e-03,-1.580318898574983866e-02,1.786266565322875977e+00
6.059560462391500035e-01,-9.972460031825929327e-01,8.157038545675091568e-01,1.977398995461451814e-02,-9.627615721211482680e-02,2.074170194330302031e-02,1.726496458053588867e+00
7.100256437542382670e-01,-1.244682884420747371e+00,9.354193619653461411e-01,7.316156701980861335e-03,-1.755118838455105301e-01,5.072739613554061444e-03,2.098789691925048828e+00
6.572631564527281478e-01,-1.025004720542798120e+00,8.312056134136864838e-01,1.492857779819951360e-02,-2.638609611346043882e-01,-6.192364206091368478e-03,1.833725810050964355e+00
5.124711147174649817e-01,-9.288218775682512973e-01,8.364107689526619760e-01,-2.018226624991271700e-01,-3.354788724404369482e-01,-2.143691783411771634e-01,1.801902413368225098e+00
7.455920329882926856e-01,-1.012572314736192469e+00,7.544092290022131886e-01,-1.206376751450604322e-02,-1.624427393630527641e-02,-1.782019000347498383e-02,1.763208031654357910e+00
9.091010959022386428e-01,-1.387096769727317325e+00,7.423165367258577341e-01,-2.989609852060322315e-02,-6.296574911952230735e-01,-6.644637451886652169e-02,2.474409818649291992e+00
7.019553104026352575e-01,-9.796997355896466253e-01,7.120768418960967683e-01,-1.103448544263223655e-02,-2.915102703707342369e-02,4.157466109045470856e-03,1.687617659568786621e+00
7.514295769187671059e-01,-1.013838175268480191e+00,7.393462347793462452e-01,-7.853094658091598927e-04,3.394930228028559573e-03,-2.433966794200880868e-04,1.759267568588256836e+00
6.835393491630586960e-01,-1.019436603925401252e+00,6.676796865490352006e-01,5.274485494630637428e-02,-5.148824456916993864e-01,-7.082699860625313315e-02,1.921477913856506348e+00
5.836778204829004002e-01,-1.014076952629593853e+00,8.674760497456664998e-01,-4.762267024587020503e-03,-1.901671576592371335e-02,4.588647760867281024e-03,1.757275700569152832e+00
6.854692769227003213e-01,-9.939432682809142827e-01,7.549972318938904525e-01,-1.299481233600806654e-02,-6.528953174562970863e-02,-1.242222059236456483e-02,1.719239473342895508e+00
9.017501870672202102e-01,-1.013666376066795660e+00,5.217179864379295484e-01,-1.268022918199549279e-02,-4.841484078793975750e-03,-2.880226809096023133e-02,1.757374882698059082e+00
7.962412033180183979e-01,-9.681278016804366615e-01,7.520891051314708697e-01,-3.524503101915506427e-03,3.119232453721826597e-03,-5.887464984881341651e-03,1.742761373519897461e+00
7.678156207011658241e-01,-1.019809291548612551e+00,7.556520372278293651e-01,1.445672558233402141e-02,-3.812009522635901454e-03,8.003336680618106797e-03,1.781816363334655762e+00
7.729239143083832531e-01,-7.085089440915155468e-01,7.537265183771448829e-01,1.173736152149847112e-01,-3.984914370334582956e-02,1.104137593435477599e-01,1.499746441841125488e+00
7.893305191304440527e-01,-9.979071954062475047e-01,6.591531753742017052e-01,1.623152391861736737e-02,-1.288873776357912608e-02,-9.566326371224682527e-06,1.726208448410034180e+00
7.560313694461950895e-01,-1.022651875743644911e+00,7.581433648670510284e-01,4.861124829341985365e-03,-3.500780310998700094e-03,5.383478778845868576e-03,1.779794812202453613e+00
7.805648050638596125e-01,-1.033254950026377239e+00,7.757089410396006413e-01,5.570507658102514040e-03,1.797938992988669870e-04,3.292233447246864855e-03,1.811431407928466797e+00
7.790878511528340766e-01,-1.030370750711781858e+00,7.676972100259964460e-01,1.011402312734433796e-02,5.792102094042745307e-03,-1.469887524046485476e-03,1.803905010223388672e+00
7.411307705799562440e-01,-1.022010234580633892e+00,7.855027026786958189e-01,-1.072704481359751036e-02,3.301940640459913139e-03,1.685548449422137954e-02,1.786084890365600586e+00
7.768702559572611133e-01,-1.037370984951087260e+00,7.860736267125998378e-01,-4.182714227192228275e-03,-2.915621421808257778e-03,7.802473342132848835e-03,1.818932056427001953e+00
7.936525594548996532e-01,-9.859413496717013281e-01,6.241802077414352334e-01,6.736079518760750354e-03,-2.262286407004983693e-02,-1.439067659156407879e-03,1.701693654060363770e+00
7.799853966513989878e-01,-1.035455309235775001e+00,7.845389763576322562e-01,-5.445703329756628559e-04,-5.542932738297388050e-03,2.542393293428979895e-03,1.817752718925476074e+00
7.419342329485477672e-01,-1.020558021509822222e+00,7.844422003232937035e-01,-1.180794256766791103e-02,4.253539545697017712e-03,1.578765186905539686e-02,1.784468054771423340e+00
7.817710361146277265e-01,-1.038535354438964609e+00,7.850363502784396541e-01,-3.125046892037873503e-03,-6.953967987271337733e-03,8.551088678768701060e-03,1.822049260139465332e+00
7.863276794769165079e-01,-1.038842258629098625e+00,7.849130979346428116e-01,-7.468782468888445197e-04,-1.453783951842018123e-03,4.020126593587878237e-03,1.824478507041931152e+00
7.940382048784820901e-01,-1.039813248743059582e+00,7.857434675733004914e-01,-1.860692216925894510e-03,-7.307856432225064494e-03,4.308037893813589786e-03,1.829779982566833496e+00
7.841119470635197208e-01,-1.030835778970259575e+00,7.869606587422490751e-01,1.525225510217178247e-03,6.023580217149984359e-03,-1.860055956009530652e-03,1.816408514976501465e+00
7.958602853384029174e-01,-1.005752047730704479e+00,7.713960878946293231e-01,8.036228448778874600e-03,6.700156542522830994e-03,5.396805030943295847e-03,1.789621829986572266e+00
7.790805900507559167e-01,-1.037158051892489219e+00,7.825184541288354723e-01,1.483306289676802501e-03,1.977370062400398212e-03,8.620525938842114270e-04,1.817965626716613770e+00
7.824645232389186855e-01,-1.008795687894961546e+00,7.008988955984845060e-01,-1.939674328317502611e-02,3.152999286225728615e-02,5.349897650750958487e-03,1.753099441528320312e+00
4.833396537728210651e-01,-1.069910981470213684e+00,9.514163019610556438e-01,5.782100377824456183e-02,-1.228098107544780132e-01,2.534652063104950864e-02,1.848222851753234863e+00
7.501258457289404769e-01,-1.195827690209776639e+00,9.679227784535802126e-01,-3.312848687105247186e-02,-1.947246145155262509e-01,5.584320521535986528e-03,2.091681718826293945e+00
7.603875389988011824e-01,-1.161279099681660876e+00,8.749401751364739299e-01,-6.132377695923259264e-02,-1.423090293341525703e-01,2.055265557489820150e-02,1.999840378761291504e+00
7.779054527633826321e-01,-1.026979283199754400e+00,7.765694575406809630e-01,-1.045775623782136884e-02,4.698045936580557552e-03,-7.995843269066422662e-03,1.804379582405090332e+00
6.562248860679391615e-01,-1.004934697380245323e+00,8.259580649512304751e-01,-2.412302270935667847e-02,-1.580164818524162906e-02,-2.855859200095826195e-02,1.753612279891967773e+00
7.245531074684232742e-01,-9.979890654410075168e-01,7.417176910060808703e-01,-5.228724691352870050e-04,2.410233668321143993e-03,1.078360893957959477e-02,1.731294274330139160e+00
7.807031549128580217e-01,-1.038004074128855869e+00,7.788080506859385022e-01,-2.119083539385763389e-03,4.025947146576988600e-03,3.739581136132803232e-04,1.817777633666992188e+00
7.013132072322052490e-01,-1.024615096156991090e+00,8.187357698935212591e-01,9.030805233295795265e-03,-1.195965241050210917e-02,-4.431479840651690941e-03,1.787739396095275879e+00
7.497381934398498204e-01,-8.122772496678297705e-01,7.439448167727106265e-01,4.933412313849760283e-02,2.308947789848916216e-02,2.964993472656836035e-02,1.562822699546813965e+00
1.103807379709431213e+00,-1.909816310343639412e+00,8.445040203567196757e-01,1.428183975602484446e-01,8.286196523849490569e-01,-1.290972260180951459e-01,3.246343135833740234e+00
7.419113433548243375e-01,-1.014107280130014832e+00,7.464592480119605078e-01,-9.962990194366288382e-03,-2.846658117813523868e-03,-9.146125900315180872e-04,1.758389234542846680e+00
6.490025710081896992e-01,-1.026645161487914404e+00,8.741465775640346880e-01,2.368447929944543506e-02,-2.298026125508437212e-02,-2.531580545266600910e-02,1.800260305404663086e+00
7.603375995742291948e-01,-1.022137035082444134e+00,7.576294069863985792e-01,-6.401093140716643259e-03,1.150932991104719038e-03,-5.900604158906965109e-03,1.781187057495117188e+00
6.756416399208279300e-01,-8.681267105646865989e-01,8.290419651041056603e-01,6.784426684092580151e-02,1.891133287921605705e-02,-8.726112882361901357e-02,1.637465119361877441e+00
7.699691367993983793e-01,-9.651983462544977410e-01,7.728262092711422060e-01,3.478135034407378243e-03,1.110960515917598299e-02,-6.831255470604279123e-03,1.736755132675170898e+00
7.742298078237526138e-01,-9.716237940397560724e-01,7.713968032043874157e-01,6.199994822941008212e-03,1.481013626820832686e-02,-1.042669838368026798e-02,1.744753956794738770e+00
7.572648884351417253e-01,-9.773047792623433816e-01,7.850986605499550297e-01,5.544679275539923834e-04,-1.707190170509448931e-03,-8.208593225666872481e-03,1.748713254928588867e+00
7.791344178095794826e-01,-1.026657481054119136e+00,7.842363699398400279e-01,1.097948951467361996e-03,4.701350268284520441e-03,-4.194089542135525511e-03,1.808382153511047363e+00
7.721861276588299905e-01,-9.813830453803910059e-01,7.734110367659002838e-01,-4.116808386503603874e-03,9.881460305126200244e-03,-1.302512904628685617e-02,1.754425048828125000e+00
7.846260937772246979e-01,-1.033567408390088982e+00,7.917678279939874830e-01,2.832666714773424219e-03,1.587768451914791518e-02,-1.107938829843153374e-02,1.822090148925781250e+00
7.443624192240742010e-01,-9.846755991967908184e-01,6.737314968915073532e-01,6.482677157990177422e-03,-1.324884057561702064e-02,-6.598388981816903122e-04,1.695019602775573730e+00
9.212361472267783791e-01,-6.142488301790834937e-01,2.536318859019887628e-01,-3.369522768710736527e-02,-1.005263383545875189e-01,-2.047458095474923578e-01,1.392048358917236328e+00
7.674524753996286863e-01,-1.015000575869383415e+00,7.197773557769282515e-01,6.946499233110541363e-03,-3.523271661425220885e-02,1.469532927163460113e-03,1.760201215744018555e+00
7.997424972427403800e-01,-1.006668584986006199e+00,7.249028558787481424e-01,-1.514845950020470011e-02,-4.862745709268361839e-03,-1.504403339685431856e-02,1.770584464073181152e+00
8.494294978789836970e-01,-8.995369007050633137e-01,6.072673920899249733e-01,-6.211938786703169457e-02,-3.588285031982978435e-01,-2.105443431966633472e-01,1.795781016349792480e+00
7.712641327167408800e-01,-1.032878163364306712e+00,7.871717183236959237e-01,-3.820652085111677157e-03,3.190062972137489017e-03,1.597833035829377551e-02,1.812380313873291016e+00
8.445737356764703163e-01,-1.049766171228428968e+00,7.737829697100049309e-01,7.791846655580103934e-03,-1.437569921082251095e-02,-6.021432522174242213e-02,1.863092184066772461e+00
7.755699643703070079e-01,-1.023817513294154491e+00,7.381111891188749663e-01,-1.596823098618840517e-02,-2.180184045155597258e-02,-1.110617976393232266e-02,1.781672358512878418e+00
6.331891882725442233e-01,-8.043587213918831358e-01,7.750689600681588409e-01,8.452725698465568538e-02,3.121716792455146022e-02,-6.041797012652340773e-03,1.521545410156250000e+00
7.435433229161625412e-01,-9.859527274162078747e-01,6.863444519331374227e-01,-2.574151033937926471e-03,-8.287489459951193765e-03,7.718291670560886069e-04,1.701684713363647461e+00
7.058186111865333290e-01,-6.098988328824694882e-01,5.041207085572834146e-01,-1.258847076011092303e-01,-2.292529969256473510e-01,-1.896836657565059703e-01,1.348913788795471191e+00
8.662567627169033280e-01,-1.050818694151869792e+00,6.484475975171524187e-01,1.394741704899793780e-02,-2.941448831084873816e-02,4.467698705327923653e-02,1.820502638816833496e+00
6.785884601255790516e-01,-6.044150599510221822e-01,7.184382215335984867e-01,-1.655781581420330550e-02,-3.966713840049986353e-03,9.188840251643749790e-02,1.313397765159606934e+00
7.238865732772846728e-01,-9.889228920524765210e-01,7.141027149219487669e-01,6.486968220788860359e-03,-2.490876875438786595e-02,6.514202723294600615e-03,1.708557605743408203e+00
5.319768730598214423e-01,-1.018212335285656911e+00,9.033244513659681729e-01,-3.305914152231911873e-02,4.721352906549491912e-02,1.011682446070432534e-02,1.768309235572814941e+00
7.830543691514331162e-01,-1.029221387107604579e+00,7.921970634310797621e-01,8.330568003781020636e-03,-7.819153346683165376e-03,1.864513205990592844e-04,1.816972136497497559e+00
7.599257090976963003e-01,-9.448458267033659208e-01,7.949510075174179846e-01,-5.325085110381750850e-03,-8.326339347516184975e-04,3.096955793081965225e-02,1.723411560058593750e+00
7.230654978788932929e-01,-7.630471266966361021e-01,7.477383772520426186e-01,8.187185933067281027e-03,-1.775932157528353414e-02,-2.839719256937509560e-03,1.498992204666137695e+00
7.786231326148719267e-01,-1.017061555128908390e+00,7.975530456333157492e-01,4.057560518609290914e-03,-4.712243617915362615e-03,4.855303938116756202e-03,1.805275797843933105e+00
7.777729082562205853e-01,-1.013108050216494638e+00,7.891700547134117283e-01,2.366023619438033503e-03,-9.571188751146000873e-03,4.261307494857699725e-03,1.796702980995178223e+00
7.789004948765215763e-01,-1.038375690874204338e+00,7.767414465552797687e-01,-1.228468587711982192e-04,-1.165505270054356972e-03,2.834006007054496335e-04,1.816198825836181641e+00
7.764732695937914819e-01,-1.038366695351714775e+00,7.790874238456833023e-01,-6.350188361424267784e-04,-1.221641171479190529e-03,-2.289186428537537019e-04,1.816150069236755371e+00
7.172835736757026126e-01,-9.965554032861143607e-01,7.364013590157318934e-01,5.871731649971660737e-04,-5.781048652540377204e-03,9.320035695458491962e-03,1.723582386970520020e+00
7.723797521854217640e-01,-1.019100548209042501e+00,7.450131644625221927e-01,1.296003722069183524e-02,-8.112914285042276824e-03,6.629548702226947463e-03,1.778189301490783691e+00
7.810572368726635961e-01,-1.033390694831630707e+00,7.828364190549091939e-01,3.957370909891917005e-03,-5.379748680037362528e-03,5.715690659677751494e-05,1.815375089645385742e+00
7.803094651247000080e-01,-1.033673525489019918e+00,7.874385515599791052e-01,3.609634255355133325e-03,-4.925739172085647974e-03,-2.359010275527992275e-03,1.817593336105346680e+00
7.808673024175399879e-01,-1.026601921762183123e+00,7.743858549837902006e-01,5.119630206842115498e-03,-1.453042011279743941e-03,-7.785842931013385810e-04,1.804261326789855957e+00
7.798551640978433896e-01,-1.027099485933933520e+00,7.852894972090445069e-01,6.974059658955207575e-03,-9.344383065510544414e-03,-3.240330471350149483e-03,1.809799313545227051e+00
7.797000761773790201e-01,-1.020087551878357646e+00,7.834115923450576391e-01,8.708473943811009810e-03,2.228590486553294961e-03,2.752673265746843120e-03,1.801719784736633301e+00
7.824259857492037451e-01,-1.038404202437332335e+00,7.793123411405729062e-01,1.509611252127486970e-03,1.789019952273989029e-03,1.737174139246725662e-03,1.819282412528991699e+00
7.779883395466880014e-01,-1.032963755845696552e+00,7.760101959564393859e-01,6.915812738381058034e-03,-1.365548520088854210e-03,4.644302398750721136e-03,1.810022950172424316e+00
7.809149946008808740e-01,-1.038116176583015360e+00,7.809913120528506614e-01,1.400292490063606912e-03,-4.442902269260096003e-07,-1.362317793772407004e-03,1.819072484970092773e+00
7.792732185804998046e-01,-1.030112221432211594e+00,7.650689797042536933e-01,1.165716131466054684e-02,4.072309950902044257e-03,3.895146435178076835e-05,1.802452206611633301e+00
7.827608373598901048e-01,-1.027167445468280427e+00,7.773856061373654036e-01,-3.434476897861617195e-03,-5.084987353267352017e-03,-4.061926520083681408e-03,1.807291626930236816e+00
7.253481435412119094e-01,-1.005654414108712036e+00,7.391896266759812040e-01,-3.222613273455816191e-02,-2.967105904290695192e-02,-3.009788804394863959e-02,1.740400910377502441e+00
7.574621753745025554e-01,-1.026200943144243816e+00,7.714074630486780215e-01,6.214434418431944926e-03,2.850821708187271757e-03,-1.535864066387464082e-02,1.790913224220275879e+00
6.652911686077744857e-01,-1.012370397803363797e+00,8.106754130846565154e-01,3.077511017745709898e-02,2.975849931004978521e-02,-2.457333482425762619e-02,1.756957650184631348e+00
7.789193856396272597e-01,-1.036302038722701546e+00,7.822267790475588845e-01,-5.819809042272173615e-04,-2.031835366061027909e-03,-4.197203374921794176e-03,1.816895604133605957e+00
7.141960543093162084e-01,-3.800941051439030716e-01,6.377251463175654944e-01,5.209386136450416599e-04,-3.967711460956032526e-03,-1.888423902933424742e-02,1.058657288551330566e+00
7.104378139533336078e-01,-9.167860042578914737e-01,7.848200654464376758e-01,-2.884954557747015230e-02,6.395623825946501750e-04,-1.701659594097246989e-03,1.666413307189941406e+00
7.159419519073220162e-01,-9.895255978858917834e-01,7.226139964210890332e-01,-4.561671125971552415e-03,-1.998109381116159548e-03,-6.058847737707978055e-03,1.708867311477661133e+00
7.604500036220023240e-01,-1.028758220442653748e+00,7.663777708804230260e-01,-7.289616182664754480e-03,5.921532778240214860e-04,-1.802454080261250329e-04,1.792224287986755371e+00
7.748672905202143024e-01,-1.029536462501238869e+00,7.639210270143854675e-01,1.941795301505083715e-04,-6.607344769001903192e-03,-3.668733116395328465e-04,1.798992156982421875e+00
7.741935911538202486e-01,-1.037237070213192558e+00,7.785209370543321183e-01,-2.612039133253947834e-03,5.103745870231547656e-04,1.290326827592720325e-04,1.813604116439819336e+00
7.109752710837349277e-01,-2.273338209803315024e-01,6.283908853150645957e-01,-1.340462308231765154e-01,-1.732762600103012612e-02,-3.437875859467015571e-02,9.317221045494079590e-01
7.969745382211956830e-01,-1.011431716778712575e+00,7.730296159032421510e-01,-1.522544587170630501e-03,1.926342653582759253e-03,-6.688608448890435640e-04,1.796558856964111328e+00
7.662489059448125417e-01,-1.030131702178722852e+00,7.734585373296534172e-01,-8.781338258403151019e-06,2.330654841878988977e-03,-7.151291919256482291e-03,1.800043344497680664e+00
6.552775001709294500e-01,-3.278867650758913732e-01,6.295367803673346252e-01,-9.128424687420157169e-02,1.069617176529743217e-02,-4.069075324187102632e-02,9.860405921936035156e-01
7.129387614464750555e-01,-9.851200753720636971e-01,7.109085608156757718e-01,-2.732613026530665741e-03,-5.767255152401251986e-03,-8.285285421290411283e-04,1.697081208229064941e+00
6.212673184022946549e-01,-2.403112869534984597e-03,6.815351310558519504e-01,1.630419965668512480e-02,1.665245896382614929e-02,-1.918886540531108617e-02,6.579653024673461914e-01
5.709373090820849539e-01,-1.060991811604242718e-01,7.073361966210203189e-01,-9.952871054533216078e-02,2.235246646443958540e-02,6.069540005576470887e-02,7.820477485656738281e-01
7.168321665117384223e-01,-9.939054249785287398e-01,7.311033247700510218e-01,-1.120397088148709919e-02,-7.644394961750185236e-03,-9.154996170800813260e-04,1.718078970909118652e+00
6.230095232817804973e-01,-2.987662131193993265e-01,7.152959420156255188e-01,-1.889311536716354323e-01,-9.479847464595056450e-02,1.406121217965593034e-03,1.037933468818664551e+00
7.306197059328752852e-01,-1.045699872761137739e+00,9.111901156760817688e-01,2.433575113574356491e-02,5.106071285273534183e-02,-6.619761919509442594e-02,1.879205226898193359e+00
7.202070386323639051e-01,-9.967634649456842411e-01,7.401755173281973077e-01,9.706781632144603853e-04,-8.792519650549755067e-03,-2.120054802371578481e-04,1.727109313011169434e+00
7.182021091542447611e-01,-9.837672383071440763e-01,7.095820842257980487e-01,8.304127686013879290e-04,-5.918807243701684588e-03,-8.614684489360573821e-04,1.697708010673522949e+00
1.147856660501914705e+00,-1.171872807170094122e+00,1.313117963049391101e-01,-1.174621992452115106e-04,2.815473786588115201e-01,-4.324203266990977318e-02,2.073599576950073242e+00
3.357037797211139818e-01,-7.210448793015861169e-01,9.516608517023917857e-01,4.246427469590802889e-02,7.401270165518263056e-02,6.019363104734862940e-02,1.476396203041076660e+00
1.591076673658200769e-01,-1.178037100141303029e+00,1.455967187402144258e+00,2.223753140058570832e-02,2.267486415514192721e-01,-4.844137363810321895e-02,2.316604852676391602e+00
7.671476750296870595e-01,-1.028411038046497916e+00,7.782839177774018014e-01,-2.319404260602181715e-04,6.367852575084130941e-04,-1.253483662719390504e-02,1.801283836364746094e+00
3.801459542221902743e-01,-7.703709874234112576e-01,9.371136332071186015e-01,3.215237021063190315e-01,1.679740376017355152e-01,2.206196767361668504e-02,1.634301543235778809e+00
7.294965723542827796e-01,-1.108517417987250564e+00,9.647094666494211435e-01,8.633990540600798569e-02,8.743460512350144376e-02,-4.477405632584301187e-02,1.979206323623657227e+00
7.881628033621947971e-01,-1.031399651932420669e+00,7.836466000829129808e-01,1.212088141567823924e-03,6.494275409782802183e-03,5.963373360149155401e-03,1.817373991012573242e+00
7.130334417627353094e-01,-9.821550208570537510e-01,7.063069555139964706e-01,1.142571286463435649e-04,-3.745618403867888822e-03,3.921086088714820488e-04,1.691847801208496094e+00
7.099382601822226135e-01,-9.981656390180009275e-01,7.575364936276787198e-01,5.049137527097893093e-04,-6.956531973412855702e-03,9.469777429429450735e-03,1.732513308525085449e+00
7.727991920322567765e-01,-1.032601202220818637e+00,7.864978320084260455e-01,5.735923564613210762e-03,3.107851360209094339e-03,8.848003184068052585e-03,1.812388539314270020e+00
7.774307099133157539e-01,-1.032547188289634210e+00,7.846411666838190024e-01,7.049779816917940353e-03,-6.068961794638961073e-04,8.501596351461032305e-03,1.813695073127746582e+00
7.474256099350993221e-01,-1.015927084461377694e+00,7.556521627055347023e-01,6.350033639488991536e-05,1.861521109298500468e-03,9.694469120360045544e-03,1.767562985420227051e+00
7.876838843437627968e-01,-1.030873139386052406e+00,7.837656538108872528e-01,-1.900305888948819640e-03,6.187848991438315259e-03,2.119825087947934620e-03,1.816639423370361328e+00
7.867311174337967561e-01,-1.030539636842096041e+00,7.835300814725603136e-01,4.288042861258968162e-04,1.024825451670154097e-02,5.081060781241493463e-03,1.815780639648437500e+00
7.504806134161664533e-01,-1.013901158761206345e+00,7.552508852328022604e-01,-9.108920638257553964e-03,1.239543660012684331e-02,1.541874985937555058e-02,1.767174482345581055e+00
7.579260539430341392e-01,-9.980434648652580787e-01,6.980650718989021009e-01,1.847667068915511551e-02,-5.087328622268376052e-03,3.868918425257786287e-04,1.727136492729187012e+00
7.260372528706662276e-01,-1.011518588304322286e+00,7.582070416155359815e-01,-9.778432070573578327e-03,6.243849708996340904e-03,1.536768096518245814e-02,1.754179120063781738e+00
7.828811743198733630e-01,-1.033139756977409895e+00,7.783832753644381874e-01,-3.769025948589565037e-03,-5.125857398703500926e-03,6.344799569148265768e-03,1.813842892646789551e+00
7.798794682736837069e-01,-1.036354677373671818e+00,7.746267730819791364e-01,1.349778871606851301e-04,-2.328592466839673352e-04,2.081757593994110027e-03,1.813617110252380371e+00
7.516534501897333964e-01,-1.022691389897192993e+00,7.692752601583284777e-01,-4.275535942593292060e-03,5.050504206481673704e-03,6.051544595310034622e-03,1.783288717269897461e+00
7.062192299178584598e-01,-1.006127883662529587e+00,7.574746162929606452e-01,-1.764029894037403429e-02,1.869502232681233278e-02,1.567246167115526195e-02,1.739323377609252930e+00
7.673538020808626792e-01,-1.030506425828807693e+00,7.781815359081152295e-01,1.544693340757106320e-03,-6.452284472153136871e-03,9.975176583404792019e-03,1.803417801856994629e+00
7.786916292381733662e-01,-1.012011864319554366e+00,7.804462220123379312e-01,-6.000561591060351446e-03,2.759863336766825784e-03,-1.300427226608135301e-03,1.791619420051574707e+00
7.923253753503863850e-01,-9.834610496395375101e-01,7.655272649934774520e-01,1.851828602391780015e-02,4.469310746602991880e-03,-1.548327596478841529e-03,1.762850999832153320e+00
7.910776717494361066e-01,-1.023503283300474243e+00,7.811819842831240202e-01,3.009894401672993849e-03,3.678829625502696293e-03,4.178930047811303715e-04,1.809672236442565918e+00
7.982135496401698838e-01,-1.018823562752945611e+00,7.884442415101556856e-01,9.390801087635547093e-03,-1.063339759658406226e-03,-6.710185484127833763e-03,1.812283396720886230e+00
7.650757160777575949e-01,-1.030295344010067282e+00,7.760547962932945465e-01,-1.000246405805518899e-04,1.433308306262188027e-03,-7.425424865551547016e-03,1.800933361053466797e+00
7.374011858655867835e-01,-1.007448423889897082e+00,7.403074420743797068e-01,-8.416767119511829598e-03,-2.033641265443552650e-03,-6.803069233948930671e-03,1.746408700942993164e+00
7.826420419161361774e-01,-1.036132863408994798e+00,7.835720085196717921e-01,-2.987261575082114044e-03,6.397796392966662547e-03,-3.446753912952573232e-03,1.819290995597839355e+00
1.036672935206433888e+00,-1.237861735548856368e+00,3.200056005823929128e-01,6.297369221312770771e-03,-4.603427824970200977e-01,-9.693266488088558147e-03,2.166375398635864258e+00
1.379406969674101369e+00,-1.342549116219266647e+00,2.348176862827308642e-01,2.830107325346311459e-02,-4.684806186958599405e-01,-4.174505145025698971e-02,2.503929138183593750e+00
7.586109797523585829e-01,-9.938187056002470987e-01,6.855373091254320927e-01,-1.102270922728633418e-02,-1.915391160664040721e-02,-8.026844917112631924e-04,1.717486619949340820e+00
9.700840527697788263e-01,-1.046126437148421573e+00,3.490446112445584337e-01,-3.673988775775061805e-02,-1.596331496386352855e-01,-3.896747377057879075e-02,1.812098622322082520e+00
7.429175345791230178e-01,-1.015410931692538155e+00,7.555319889360156971e-01,8.261202892988467718e-04,-1.796809657509088314e-03,-1.017782822518762537e-02,1.764760851860046387e+00
9.603570895102870875e-01,-1.003419450599654539e+00,3.991078191120195906e-01,-2.070529728851739151e-02,-4.330760800872728022e-02,-3.519715350201243348e-02,1.754958748817443848e+00
7.770837982181088011e-01,-1.034483911084908003e+00,7.967176616115997367e-01,1.663077916826400174e-02,-8.772587951298588282e-05,-4.234409020187981237e-03,1.821706533432006836e+00
6.770260498706066610e-01,-9.824178465356262491e-01,7.446428263112111479e-01,-6.673608634103201081e-04,-1.198163743718408739e-02,-8.622059643832731546e-03,1.694457888603210449e+00
7.414003324176470233e-01,-9.988335039099578427e-01,7.278065804181007570e-01,-2.240997180925911783e-04,-7.633479952433825690e-03,-9.132085010488944204e-04,1.733528137207031250e+00
1.144401638053004433e+00,-1.156817708330853067e+00,3.566427154858549109e-01,-9.532419577168032426e-03,1.622814219116224810e-01,4.942265681876815975e-02,2.046942710876464844e+00
6.814301768790348435e-01,-9.830113005186157382e-01,7.440983822600624187e-01,8.754857184674872837e-05,-1.262553978459438064e-02,3.317901725835794517e-03,1.696794509887695312e+00
7.546720081448446971e-01,-1.025423655936857692e+00,7.717716676932452335e-01,6.595176945517850983e-03,-1.772069389893037809e-03,1.187841828677328911e-02,1.788864254951477051e+00
7.939549055782280096e-01,-1.012893774333351260e+00,7.756881825647701234e-01,-2.274669612268935201e-03,-3.155120012689117525e-03,1.226850559167386471e-03,1.797798752784729004e+00
7.650144073166463832e-01,-9.984895296293908595e-01,7.957902187916383596e-01,-2.047107241063997156e-03,1.170594454806660195e-04,1.935005661354486858e-03,1.779098153114318848e+00
6.832627465237461895e-01,-1.007051786634712842e+00,7.887440469286073341e-01,2.292001161809870298e-03,-1.063666762991536535e-02,-1.881772120529465187e-02,1.745853304862976074e+00
5.317959963248636290e-01,-1.017612904463877754e+00,8.996191993349004212e-01,-1.255893424888188635e-02,-2.621773004687986269e-02,5.771946190589663864e-03,1.763095498085021973e+00
7.295297542151540915e-01,-9.968807695399484192e-01,7.219682037033943178e-01,-8.024357030165462333e-04,4.632477085630306093e-03,-3.370110040644756061e-04,1.722661495208740234e+00
7.102361403455241806e-01,-1.733791903852508476e-01,5.288766884480416985e-01,4.523245700748386444e-02,-4.493777558243562675e-02,1.508013956685224088e-01,8.566414713859558105e-01
6.834680954085931015e-01,-1.002772447408079026e+00,7.818131902055398541e-01,2.336544251453518458e-03,-1.051194627288388334e-02,-1.716270132748261290e-02,1.737856149673461914e+00
7.268693625175159934e-01,-9.933601224328094670e-01,7.152891359856019537e-01,-1.101480192119364335e-02,-2.244752311458553251e-02,-8.271595880627380989e-04,1.715016245841979980e+00
4.540667205418214003e-01,-1.020343694990707428e+00,8.778927314169805429e-01,-1.603646379224560672e-02,-2.922677852587735048e-01,-5.866422689309342721e-03,1.798761844635009766e+00
3.152421787487605376e-01,-1.347216198729270342e+00,1.191097898419722467e+00,-3.407242521968661952e-01,-1.981433589224536607e-01,3.593059604849178131e-03,2.335179805755615234e+00
7.165627351286910640e-01,-9.858001707823363935e-01,7.064720094451621968e-01,9.489868921360241835e-03,-1.682684410198182282e-02,7.865973219429393121e-03,1.697724461555480957e+00
3.441459751594871386e-01,-1.044622345482721260e+00,1.015444364895967011e+00,5.717453221030192878e-02,-5.369672365366270211e-02,1.612631368836361934e-02,1.825057268142700195e+00
5.777819014489392613e-01,-1.781779855274736368e+00,1.378953843874473062e+00,1.108352951733258401e-01,-6.093458587367082124e-01,1.056838877105299168e-01,3.046980619430541992e+00
5.616893745391000614e-01,-1.290800854984908819e+00,1.089570933748513992e+00,2.439096426548056917e-02,-7.879029013359814537e-02,2.283336011939046065e-04,2.169950008392333984e+00
7.111128441487404306e-01,-9.802437293682009223e-01,6.923321923542917755e-01,-1.871300851377797258e-04,-2.193612677624425661e-02,9.048047388559634372e-04,1.682474732398986816e+00
3.596427828990664821e-01,-1.177307656186433960e+00,1.193135827482513012e+00,-2.073402673659951456e-01,-3.226409077059424479e-01,-1.465448012720053650e-01,2.200829982757568359e+00
3.211826894880804861e-01,-1.143883396565505750e+00,1.080519046817022488e+00,7.553314170673920691e-02,-1.485562987714345307e-01,4.496285076429046290e-02,1.981130003929138184e+00
7.631738650549944047e-01,-1.016714494407560121e+00,7.472503770748166740e-01,1.069630922021180645e-02,9.110964597744222217e-04,3.031145216482704764e-04,1.772077918052673340e+00
4.427578865497771576e-01,-9.860412423266381454e-01,9.129995696327327659e-01,-1.422482692033680664e-03,-8.117693056610034846e-03,7.793551724186741081e-03,1.713143587112426758e+00
7.126545333952629679e-01,-9.976722044692947211e-01,7.421303812097794772e-01,6.820302319983971920e-04,-1.151930227411814521e-02,1.768747584562981728e-02,1.725641250610351562e+00
7.063507902003695049e-01,-9.876611799570618189e-01,7.140424766939182932e-01,-5.708086246135973818e-03,-1.656562797244184523e-02,-6.840716038516628413e-03,1.698183417320251465e+00
7.409290585287171549e-01,-8.675368166567667405e-01,7.595005222652214671e-01,-4.280199577398546666e-03,1.259944527687894417e-02,2.905537836768084040e-02,1.618778228759765625e+00
7.990851894638649755e-01,-1.026539214045160353e+00,7.710975413030001224e-01,5.916273759389275959e-03,-7.480437333320972756e-03,2.087360201039131086e-02,1.812228679656982422e+00
7.868356008501745658e-01,-1.028749357654226815e+00,7.772805867319383388e-01,-6.718347244175101526e-03,4.370653229324892794e-03,-6.472183833041714879e-03,1.810914278030395508e+00
7.209323498119921680e-01,-9.885567051434260843e-01,7.148460559572225037e-01,6.226960001170016475e-03,-3.686363651974715328e-03,5.754204894987405977e-03,1.706529140472412109e+00
7.627255356391393626e-01,-1.022232695420860260e+00,7.683315583381311598e-01,7.579511017013904756e-03,-1.319270251842689923e-02,1.384891934299222090e-02,1.788123011589050293e+00
7.835574221338210688e-01,-1.029110352561425801e+00,7.921816882489101097e-01,-1.571286254524381090e-04,6.289642037293628057e-03,-2.241926743263508888e-03,1.817032098770141602e+00
8.155094804171525436e-01,-9.942064729867772233e-01,5.550664140975407612e-01,-5.071998806335529901e-03,-8.042078565495136555e-02,1.149839356189251600e-02,1.700426697731018066e+00
7.498310692260820032e-01,-1.014380616353280473e+00,7.392506227969201094e-01,4.597940103343899423e-04,-2.907200628080246207e-03,1.055300435604325515e-02,1.759047627449035645e+00
9.327187032590785742e-01,-1.012271066123467067e+00,4.587654566457781691e-01,-5.365903819222293293e-03,6.838176275241958368e-02,2.828580752806503923e-02,1.761334061622619629e+00
7.803635473146212087e-01,-1.016267894571486918e+00,7.790059516572653830e-01,-5.595663236804677282e-03,-2.312403596038866956e-04,-7.616633355956382682e-03,1.796027660369873047e+00
7.629168152121160729e-01,-1.023358787231118727e+00,7.579483206000852125e-01,6.165246326825588388e-03,-3.035570536417079614e-03,4.956990853985088034e-03,1.783856868743896484e+00
7.480594415203951630e-01,-1.017245606857283491e+00,7.554954538395253216e-01,2.740042714880048754e-04,-7.756504314553358190e-03,1.834251214407971869e-02,1.769371151924133301e+00
7.746473794000681146e-01,-1.034165431756427056e+00,7.750143420091420987e-01,1.907225428180933224e-03,-7.969920383623621714e-05,1.950848887652588187e-03,1.809002518653869629e+00
3.257995819289906669e-01,-6.755860164583507022e-01,1.242941954284085160e+00,-2.479406819930164985e-01,-2.275338594954376403e-01,-1.462883248643477296e-01,1.779403209686279297e+00
7.833459124443276078e-01,-1.034192353695379651e+00,7.946966995482235285e-01,-5.051667944995149109e-03,4.354141319517798245e-03,6.023318788773847181e-03,1.823306560516357422e+00
7.804337603149668068e-01,-1.026764812280591244e+00,7.935725895173285638e-01,-2.129188889051280252e-03,1.666088242157949539e-03,3.608738405165458699e-03,1.813820481300354004e+00
7.806285990399046693e-01,-1.031983788127358137e+00,7.881760089609048947e-01,5.827039829556949178e-03,8.814372079213294783e-03,6.568981650728966150e-03,1.816525697708129883e+00
7.607634276638028936e-01,-1.035233642079185667e+00,8.268051164098793038e-01,-2.155537765951182419e-02,-4.573700446611165572e-03,7.619010611410819388e-04,1.830310344696044922e+00
7.801371116890172264e-01,-1.030734091803191976e+00,7.812835589028428451e-01,9.819710347929140951e-04,4.289926041824270939e-03,1.508696138812219006e-03,1.811462640762329102e+00
7.760078863798347548e-01,-1.031416827035644967e+00,7.621886250455439660e-01,-1.197969906793483648e-02,4.864790837168850648e-03,-1.112042535394629911e-02,1.800797104835510254e+00
7.831016262457658472e-01,-1.038071710651453206e+00,7.832080595595818373e-01,3.164286138708533036e-03,5.274348614496139620e-03,-6.649691246400303481e-04,1.821258068084716797e+00
7.693310305771337010e-01,-1.029914374063284566e+00,7.684787958433703103e-01,-7.003560364655090666e-04,3.616767230506072895e-03,-6.458376115323760137e-03,1.798865556716918945e+00
7.777436227092118237e-01,-1.025754794395371761e+00,7.811652670779953844e-01,-5.186366138165655545e-04,5.444133826400308733e-03,1.262333711007007859e-03,1.805237889289855957e+00
7.791264603363337038e-01,-1.007113163075318729e+00,7.800039294901293108e-01,-3.678173326703004786e-03,8.717888215582680206e-03,-3.492423587882187951e-03,1.786763906478881836e+00
7.690107262325355242e-01,-1.008020418185336275e+00,7.624956959345267071e-01,-2.909537468395979355e-03,-5.561531650151866138e-03,9.512227632527464269e-04,1.773816704750061035e+00
8.368945544982043794e-01,-1.023148812987537681e+00,6.905517907403897482e-01,-1.660051499427520061e-02,-9.252018484927179015e-03,1.844599572453401587e-02,1.791948080062866211e+00
7.449931719091804627e-01,-9.902138528176205323e-01,7.739645478366417031e-01,7.622268160389272795e-03,-8.594108474349384033e-03,-1.012592990383030626e-02,1.750073552131652832e+00
7.989108640466703326e-01,-9.831108509480395163e-01,5.940400208387933700e-01,-4.557653860303764043e-03,-2.986801963853344399e-02,-1.988959322029027789e-03,1.689745426177978516e+00
6.999093071736803839e-01,-1.029898764399816757e+00,8.135782834193916457e-01,1.034578652928773088e-02,-9.730116494504479491e-03,-1.160399238829386975e-02,1.789634346961975098e+00
7.792553959721019163e-01,-1.035616863856950065e+00,7.752639817690656354e-01,-6.700116360695342402e-03,9.845862697300867585e-04,-4.838332636874208628e-03,1.812937140464782715e+00
6.559572515863620890e-01,-1.020763823503584522e+00,7.282624871552143553e-01,-3.866841262395159795e-02,-1.121341574836144939e-01,-1.388053114277394001e-02,1.726454019546508789e+00
7.723866740423512844e-01,-1.016436200647872656e+00,7.308920548333323053e-01,-1.406566893997081291e-02,-6.817991812812049246e-03,2.280372712346320080e-03,1.768652319908142090e+00
7.199093219852722436e-01,-1.024510433239957496e+00,7.909731154964397826e-01,2.298472497292457402e-03,-4.057089051555213058e-03,-1.725226036096266097e-02,1.781284213066101074e+00
7.269074268536281913e-01,-9.855072544613776575e-01,7.001046246839601750e-01,-1.595834809318632912e-03,-8.587912370843553411e-03,-7.401936778517018178e-05,1.699239134788513184e+00
7.042563159321029165e-01,-1.002227063000931118e+00,7.593549370557801659e-01,9.340665357453403414e-04,-8.977995945796303154e-03,-1.616091301923682291e-02,1.734985351562500000e+00
7.084810303337369941e-01,-3.362250225979303564e-01,1.070484344825924472e+00,4.451897243007380683e-02,9.509514855519937693e-02,-3.033069699941785130e-02,1.279249429702758789e+00
7.844302008912934498e-01,-1.019777073989354133e+00,7.893339990504217862e-01,3.043504415327699577e-03,-5.106027379474646979e-03,-2.138979440506806433e-03,1.806697249412536621e+00
7.211644348943989646e-01,-1.009137508584931009e+00,7.580266242118012254e-01,-1.536713824477191695e-02,-7.634528433926241961e-03,-1.860370849095142193e-02,1.749573707580566406e+00
7.780227073756389444e-01,-1.027613146757585971e+00,7.506343699414277371e-01,-1.414449457029307716e-02,7.099930917108233062e-04,-8.857721398027417273e-03,1.792332172393798828e+00
7.814983220612995440e-01,-1.000041616256453381e+00,7.756644313196358054e-01,2.473535425389059711e-03,5.913116565402437921e-03,-2.777278897422618201e-03,1.778671264648437500e+00
7.343278883318911099e-01,-1.095232249182706896e+00,7.947002167702066355e-01,-1.847625996997707357e-04,-2.441769659508454260e-01,7.002557499814041075e-02,1.911797046661376953e+00
7.861194299412932462e-01,-1.018804188805238820e+00,7.770710984799745757e-01,3.254366487241651396e-03,-1.981888992231066416e-04,-7.113361444644299147e-03,1.800467491149902344e+00
7.207868711790345051e-01,-1.020594114790317919e+00,8.145794319256574045e-01,-1.222661547610148260e-02,-3.553232721557180677e-03,-3.943029676756184751e-03,1.790269851684570312e+00
7.102665987652005963e-01,-6.934399198938229203e-01,7.270052215068856238e-01,-5.760447396001991405e-02,-1.134113897004483500e-02,1.084132510499307561e-01,1.428204894065856934e+00
7.487911311542527759e-01,-1.022649262403101833e+00,7.704137008567339961e-01,-9.472545985811663821e-03,-4.242997198041756693e-03,-1.395032196901218116e-02,1.782604455947875977e+00
6.722448643531473422e-01,-9.832872187163190780e-01,7.463345866956989649e-01,2.357443010372598424e-04,1.171833461366121425e-02,9.931388174657674803e-03,1.694001674652099609e+00
7.356994284803638484e-01,-9.804169023827250529e-01,6.802931620271523983e-01,6.125985436965197773e-04,8.134817132920210345e-03,-2.514330445199873228e-04,1.689154028892517090e+00
7.574129816190996456e-01,-9.705269369978114513e-01,7.829839005680067077e-01,2.483788134147670371e-02,3.933864762081158185e-03,-9.590181355900767764e-04,1.741411805152893066e+00
7.655948739429555561e-01,-8.873830776685942556e-01,7.510381058286604850e-01,2.605638611868515975e-02,1.069167608867132788e-02,3.084201721539609267e-03,1.646479368209838867e+00
7.721548756182522455e-01,-1.045975959848736814e+00,8.175624434288413234e-01,1.096714660308057906e-02,-7.944075698037109112e-03,-1.252618378956800449e-02,1.841531753540039062e+00
7.408964386440544114e-01,-1.018431023626727994e+00,7.707871503015388814e-01,7.393934114383813845e-04,-3.090165503740522138e-03,-1.701099845185696791e-02,1.774714827537536621e+00
7.948686885765262611e-01,-9.636084096185622005e-01,7.628361380608575937e-01,1.727885167645957717e-02,4.163845569772245988e-05,2.861393376879102848e-03,1.742945671081542969e+00
6.278973386866852913e-01,-1.018569281977370178e+00,8.047591173991777147e-01,1.603715647658133419e-03,1.161985184509115032e-01,3.879580918847526372e-03,1.753250837326049805e+00
5.931530843253491891e-01,-1.137253788526592979e+00,9.480457746255284146e-01,2.078978705466385732e-02,2.889060183995211806e-01,-1.217881846846197505e-02,1.996623992919921875e+00
8.625188818529541113e-01,-1.008054620141625835e+00,5.883564363332096647e-01,-1.188152487328355753e-02,-5.553289755275998309e-03,1.041278997910671453e-02,1.749917268753051758e+00
6.234125839117204970e-01,-1.009960314497679201e+00,8.469604005133393176e-01,-1.819299616298428526e-02,-4.053416426891514983e-03,7.254255797687900360e-03,1.756194114685058594e+00
6.508744343235409735e-01,-9.900886397881599743e-01,7.645303704845675119e-01,1.612049637055146256e-02,-2.212251782516792831e-02,2.094274621822667798e-02,1.701689243316650391e+00
7.169468370950656810e-01,-1.021321651023825439e+00,8.303450477103511140e-01,-1.175523841772719430e-02,2.237407920235072456e-03,-5.151211017952444376e-04,1.797771811485290527e+00
7.900036033305941618e-01,-9.876515216321326562e-01,7.695090448016137508e-01,1.113046271745049901e-02,3.978815558113553224e-04,5.215991167845039200e-04,1.767602443695068359e+00
7.465781977886029042e-01,-1.025719671005992373e+00,7.768585905402036751e-01,-1.021045949513933043e-02,4.406305753719273743e-03,1.592200290449860903e-02,1.787946939468383789e+00
6.380109707139174358e-01,-1.194899354144952186e+00,9.079866887680050347e-01,2.711108989522690617e-03,2.302567055574515908e-01,3.055082364186328600e-02,2.022168397903442383e+00
7.539315766997652934e-01,-1.026174830322010401e+00,7.791970765925907427e-01,5.690367210461717493e-03,2.831617259207021547e-03,1.096617910813348432e-02,1.793007135391235352e+00
7.451789811268462183e-01,-1.017457942154728290e+00,7.714216190838872889e-01,4.061932564176181824e-05,-3.028138426558527746e-03,9.730511155245775284e-03,1.775991439819335938e+00
7.546747323502270843e-01,-1.014828801385355694e+00,7.386809063495978211e-01,1.127438898493801980e-02,-4.440978545183698473e-03,-1.533303194884736787e-03,1.761688113212585449e+00
7.555285358430889886e-01,-1.008117532620259382e+00,7.249132204544672664e-01,1.647366241949508800e-02,-7.400399015216017895e-03,1.002105577335418371e-02,1.748905301094055176e+00
7.219308386369336361e-01,-1.018224815701692876e+00,7.886601306314219295e-01,-4.685416985820168093e-03,-5.334154046020973296e-03,1.651481705902728067e-02,1.774734735488891602e+00
7.956665216738880719e-01,-1.023774172541007221e+00,7.399347470378137004e-01,1.143116621053864509e-02,-7.506977551059512005e-03,1.818811497909946645e-02,1.792658209800720215e+00
5.241783628925844596e-01,-9.958706882337787780e-01,8.389268158855857083e-01,-1.712433498821655867e-02,9.410357498713595170e-02,9.422765439415996258e-03,1.707560062408447266e+00
7.767679143358422467e-01,-1.034301067200181334e+00,7.740980648525784824e-01,2.265118474138824549e-03,-9.981359103762143387e-04,1.521516699904859431e-03,1.809742569923400879e+00
6.698124899582058589e-01,-1.020089368448411582e+00,8.058020444060627341e-01,-2.962161275165334576e-02,2.672688333930043139e-02,2.002069321395651830e-02,1.763532876968383789e+00
7.141073338624881472e-01,-1.012581332451067295e+00,7.609048163669952514e-01,-2.852715716882362612e-02,4.352420448259605029e-02,3.206212967627567606e-02,1.753755092620849609e+00
7.603176436494171186e-01,-1.019996194404977796e+00,7.527755978903313272e-01,-7.992939471765405507e-03,4.934874158299238853e-03,1.121433906363037900e-02,1.776735544204711914e+00
7.910658696935547463e-01,-1.030601785408630011e+00,7.822090676121428166e-01,3.543199878657656964e-03,2.457514771105919621e-03,4.462435840292972196e-03,1.817287206649780273e+00
7.830278708613409577e-01,-1.029950011386055797e+00,7.843145970650493570e-01,2.635332141704964382e-03,6.523568395408329765e-03,4.363022238115920465e-03,1.813678264617919922e+00
7.712390187262564423e-01,-1.030256321907143446e+00,7.699776920008705172e-01,-4.951783079630234582e-05,-1.294859331544752790e-03,1.144693594161663892e-02,1.800975561141967773e+00
6.528116985886223134e-01,-9.921199350950664630e-01,7.644214131657933731e-01,-1.612211875836722097e-02,2.004800615117050336e-02,1.960532088773471807e-02,1.704401850700378418e+00
7.805820483724337233e-01,-1.020032163293796312e+00,7.961236065580818977e-01,1.497605562846235274e-03,-4.970349802867942909e-03,-2.547443348915830186e-03,1.808462858200073242e+00
6.459720936708579497e-01,-9.860075069973095463e-01,7.312833473646987992e-01,-1.491550458035394329e-02,1.046145191584115230e-01,1.052787722795697767e-02,1.686325669288635254e+00
5.916964066902556940e-01,-8.265630817660623020e-01,1.160713571308710446e+00,2.501325168608983240e-01,-2.399227157961671131e-01,1.432049454259019527e-01,1.887899637222290039e+00
7.193433260693529174e-01,-1.017767616334435798e+00,7.847564483607234465e-01,2.193474194675102806e-03,-4.169162922859362408e-03,-1.721687827340677088e-02,1.770993828773498535e+00
8.115175893231080240e-01,-1.022594989858751191e+00,6.926406235761621843e-01,1.148943593535883996e-02,-9.040977836445503527e-03,-6.716687455848828134e-03,1.777876138687133789e+00
7.278341985290532890e-01,-9.957188128174614405e-01,7.208671694628017157e-01,-4.680211245476319703e-04,-3.193050497895304207e-03,5.124303375792836710e-04,1.720089435577392578e+00
8.606013532895422369e-01,-2.295963312622445462e-01,1.023038346244773189e+00,1.053885106116713571e-02,-9.132286463942379529e-02,8.957723669680575651e-02,1.200595736503601074e+00
6.612741880823724827e-01,-5.987806790800032086e-01,7.162054221538399768e-01,-8.071341028972348064e-02,-3.754154888544379782e-04,-4.144776782001081267e-03,1.295981526374816895e+00
7.721234838592880845e-01,-1.033009138374701541e+00,7.931037711919901589e-01,1.009615627861626570e-02,-4.250463724785239183e-05,6.993200111824069733e-03,1.815838336944580078e+00
7.771047165113017519e-01,-1.014083334087357402e+00,7.872573722718406719e-01,-3.281528343210478402e-03,2.571101901643048533e-03,2.065225318295351841e-03,1.796303987503051758e+00
6.927134411187108043e-01,-1.067538468661165085e+00,8.192688479476357699e-01,-2.953854325212822065e-03,-8.546655061024088784e-02,-2.374478896843269793e-02,1.833276748657226562e+00
6.229828840179146843e-01,-2.091193695253714124e-01,6.733617703639795948e-01,2.175291866487812434e-02,-1.246671426108523703e-02,1.547049718629509019e-01,9.002995491027832031e-01
4.311038669891064656e-01,-9.845089130046801307e-01,9.162059822220114391e-01,4.074519681045673386e-03,8.460769350965273048e-04,6.511411201544809423e-03,1.710607886314392090e+00
7.439405147623199266e-01,-9.949510872397067107e-01,6.991749331615215723e-01,-1.768954505093844887e-02,1.212391385355604360e-02,8.495007873290219601e-04,1.717348933219909668e+00
7.681943893562219738e-01,-1.033364108675256521e+00,7.999435898552034185e-01,3.000262717234326686e-03,-4.399875710801638175e-03,8.020276308630631262e-03,1.817717552185058594e+00
7.567592959936199071e-01,-6.080917426955469995e-01,6.768720756279418271e-01,-9.110948907990745749e-02,-9.146794842897546657e-03,6.958269419739164519e-02,1.341583132743835449e+00
7.327117061239729612e-01,-1.017360835976085287e+00,7.716627913498392832e-01,-3.454927737648203368e-03,-7.225955592159591379e-03,1.458859380120109024e-02,1.770104289054870605e+00
1.124269065103223220e+00,-1.098807360906562502e+00,5.313364621237073315e-01,2.462894728780461173e-01,5.028354033443001025e-01,-1.632829110402748696e-01,2.235171794891357422e+00
4.290810120752415191e-01,-9.034671185902427570e-01,1.235037711569848318e+00,2.556418918198629653e-01,2.567099949661882374e-01,-6.216020915170825806e-02,1.976000189781188965e+00
7.244387582477518350e-01,-6.159397178436961662e-01,7.909409333908744566e-01,-1.853001338292870892e-01,9.748446889243141816e-03,7.550188841768487591e-02,1.417945742607116699e+00
1.195689688017955499e+00,-1.151523169451874606e+00,1.530396959893999265e-01,-5.606700912776386297e-02,3.059658420285372299e-02,3.603425808023281302e-02,2.040916442871093750e+00
1.040017669974418135e+00,-1.101136361549887921e+00,4.252685615589137935e-01,1.032063542199063676e-02,1.408053861053883311e-02,-9.922735248210694248e-02,1.917455911636352539e+00
2.233523460782602110e-01,-1.270801605475893936e+00,1.461376650271832389e+00,3.107326970548998646e-01,-6.990615008282682202e-03,-7.985733533661776296e-02,2.433914899826049805e+00
9.174602913293873341e-01,-9.857980508618376936e-01,4.549066704201340516e-01,-4.584262200309751614e-04,-9.408286243273956614e-03,5.342404827135667500e-03,1.719401359558105469e+00
6.698519103926232621e-01,-9.990714088668439796e-01,7.912798747219271789e-01,-8.526973016784788811e-04,-1.200639408178309948e-02,1.644122022674858463e-02,1.733190536499023438e+00
9.033512480935373956e-01,-1.040876894616884485e+00,5.644055547976654097e-01,8.574192580926256330e-03,-1.232974913239500564e-02,7.018249734477832562e-03,1.799095273017883301e+00
1.044800423464199435e+00,-1.069550109725062592e+00,2.644677583421512490e-01,-7.615419333890901914e-03,-2.804676221613905951e-01,1.115718427996846424e-01,1.924319505691528320e+00
7.829319596724924057e-01,-1.034648885634461557e+00,7.809613272939828210e-01,1.122301267770792763e-03,-4.823119181083224648e-03,2.397238909795027829e-03,1.816621303558349609e+00
7.817493791024512362e-01,-1.023294115216869526e+00,7.871176614360672064e-01,3.440765540652059723e-03,-2.211572474550456847e-03,5.798645172099211893e-04,1.807747721672058105e+00
1.054688637273961227e+00,-1.125603041000629689e+00,3.583275082993170324e-01,-6.749049015522320949e-02,-2.327168111702696551e-01,7.349805713399082049e-03,1.973985433578491211e+00
6.246000234971240683e-01,-1.037187985685948721e+00,8.688018360026834586e-01,-3.173436351300763791e-02,-9.578820784999381513e-03,-6.550131856138176681e-03,1.797334313392639160e+00
6.193180781333292861e-01,-9.797366504779487784e-01,7.876498406379677242e-01,-1.703849991493932648e-03,-2.451210152783785817e-02,8.000937815082934806e-03,1.690114378929138184e+00
4.820126193565228978e-01,-1.019688549481163387e+00,9.258388462004807362e-01,-3.005566735053163269e-02,-1.712094713512115132e-02,-1.062590679762444312e-02,1.767062664031982422e+00
5.270129987422966789e-01,-1.020677330088672452e+00,9.068977164440324978e-01,-3.588668570336190494e-02,-3.429104347658334939e-02,-2.619218616562094329e-02,1.771172165870666504e+00
5.057183183403806126e-01,-1.018462519069241567e+00,9.066523574092382187e-01,-3.165262184462026146e-02,-1.091069196481213831e-02,-1.259961019783061020e-02,1.760343790054321289e+00
4.799957770184954953e-01,-1.147874286164446422e+00,1.070393409071402679e+00,2.687366510774339551e-02,-1.581983517528717520e-01,6.985860301712562559e-02,2.012835979461669922e+00
7.862069003732931050e-01,-1.030750512947780972e+00,7.882495613013156266e-01,2.207107659849002080e-03,-3.036131743626749660e-03,1.896502533935026181e-03,1.817994236946105957e+00
6.555785583308485487e-01,-1.020421401246135895e+00,8.271938760244867961e-01,2.608878810342547122e-02,-2.797890160770348522e-02,-6.786728394678559484e-03,1.769345521926879883e+00
6.128636493028748466e-01,-1.000488545215494796e+00,8.439512197067045030e-01,-4.366350882102953967e-02,1.541957602692707943e-02,-9.130401410944163909e-03,1.742359161376953125e+00
7.931774627791692289e-01,-1.018423506698342917e+00,7.290871069235371760e-01,-8.857735925434036955e-03,-9.835038386207098360e-03,-1.015548390372015761e-02,1.780655622482299805e+00
1.027922338699521987e+00,-1.172281341508818242e+00,6.104281076883266710e-01,2.977321349457037053e-02,1.274458165295071777e-01,-1.675195566451237461e-02,2.036873579025268555e+00
6.202460063236903132e-01,-1.009485179458723847e+00,8.469869347994890552e-01,-1.778467832393507359e-03,-9.457494930833240665e-03,1.367003842945054004e-02,1.754366040229797363e+00
5.145617445216020824e-01,-9.838497949987675684e-01,8.649488540583754048e-01,-2.940084407939540581e-03,-2.227904397430182162e-02,7.363644218186200796e-03,1.701384782791137695e+00
8.764242982023701112e-01,-5.319044151775164098e-01,3.000362912533628967e-01,5.917876235914228122e-02,-4.461741033629106068e-02,-1.383106324276102972e-01,1.256080031394958496e+00
7.695061596193777387e-01,-1.030281669629337538e+00,7.829901992739354277e-01,-1.214607785633204902e-03,-1.973851864756237962e-04,1.140753438360364580e-02,1.806676864624023438e+00
7.045222782643788539e-01,-6.782453014346484510e-01,7.298836848500565022e-01,-8.102428382216403987e-04,9.791785129570821852e-03,-4.918913666918198896e-02,1.398322820663452148e+00
7.911229452212032998e-01,-1.003312585396332501e+00,7.769714713428896857e-01,3.514008481092687278e-03,1.524139159384971590e-02,-2.647039259832679146e-03,1.787613034248352051e+00
7.866551359693675360e-01,-1.025652467354133401e+00,7.822638028766752960e-01,2.665732975678206280e-03,1.214487165327921871e-02,-1.052256413938897593e-03,1.810244917869567871e+00
7.975058079542063361e-01,-1.022389524689125251e+00,7.802360987049639096e-01,4.038995145154452779e-03,2.031509848671767329e-03,3.943058061657418040e-03,1.811352014541625977e+00
7.838435117541089348e-01,-9.709479519709418582e-01,7.910058874498235859e-01,-9.492064292608480558e-03,-4.822211327578393523e-04,-2.439306818133819138e-02,1.758968114852905273e+00
7.968617908384294513e-01,-1.002464198058960809e+00,7.724709488322198947e-01,-1.866036220932600770e-02,7.281021176341862487e-03,-6.298177524666038335e-03,1.787625432014465332e+00
7.842036396326137471e-01,-1.014397665043076602e+00,7.759207474444069774e-01,6.077141202078714319e-03,-9.408639365491243932e-04,-4.946425502729183757e-03,1.794526219367980957e+00
6.969505275453256044e-01,-1.026423889560266867e+00,8.252714015387057067e-01,9.670132029889292116e-03,-7.112067950610008807e-03,-1.980387562716915545e-02,1.791435003280639648e+00
7.200293939294541978e-01,-1.013794987601389863e+00,8.033944478423933333e-01,-1.250857571725760148e-02,2.287757497990716878e-03,1.148022208315162165e-04,1.777110695838928223e+00
7.903830414227477341e-01,-9.752227941637763298e-01,7.643688057571526029e-01,2.387261662440285162e-02,-1.668551765117371258e-02,4.106931895305861863e-03,1.753483772277832031e+00
7.747691509483607408e-01,-9.935451588027892633e-01,7.899557380999020495e-01,-1.785884563252203294e-03,-4.373966384942629820e-03,1.091405821671953547e-02,1.776075720787048340e+00
7.541952807940432990e-01,-9.572777854073699633e-01,7.778108033952924050e-01,2.967159983310665300e-02,-8.238720406261123425e-03,-5.378649925086739954e-03,1.724252462387084961e+00
7.246572285418881876e-01,-1.019396653664901287e+00,7.850971923542987563e-01,7.493730953728333011e-07,5.542092710351565962e-03,1.813603940929676278e-02,1.775349617004394531e+00
7.677575422363793756e-01,-9.286267184548611109e-01,7.584469148527432925e-01,3.147966583262518103e-02,-1.627472374126564050e-02,-3.805716149977621688e-03,1.692874073982238770e+00
9.188588945671478658e-01,-1.057330394533209761e+00,6.418012256347136457e-01,-2.263599973797440768e-02,1.706795972001660944e-02,-2.793686256753965744e-02,1.854540109634399414e+00
6.789916812683007841e-01,-8.332954650642199201e-01,7.545487754604014441e-01,4.766104600269506497e-02,3.800031199267959320e-02,5.894330626620696012e-03,1.555067896842956543e+00
7.850746059087564399e-01,-1.036060063198425141e+00,7.796152056633400829e-01,2.135391503581003225e-03,8.080757014046291084e-03,1.940763965158497691e-03,1.818471789360046387e+00
7.806837960339259030e-01,-1.037535243954372355e+00,7.790225788874030055e-01,2.279217128116555607e-03,1.855162347945331228e-03,2.500193607593533592e-04,1.817396163940429688e+00
5.950297677550913100e-01,-1.000908987801596428e-01,1.128717260648408161e+00,7.934852974448762530e-02,1.566234866771395728e-01,-1.948704482152157080e-01,1.159912586212158203e+00
7.909470595280700955e-01,-9.887960408721520045e-01,7.684253948848814852e-01,1.248263831749188597e-02,2.172467904521995473e-03,-5.352556481024151568e-04,1.768726229667663574e+00
7.793120093281410421e-01,-1.037750241608538015e+00,7.797104020293189608e-01,1.349829744078788907e-04,-2.328169532308799194e-04,-5.143205833194503594e-09,1.817261576652526855e+00
7.795365916834213760e-01,-1.037609404213359454e+00,7.808339818976784974e-01,1.787374788595520476e-03,2.312805107203792961e-03,-2.418077556578151002e-04,1.817802190780639648e+00
6.236146542439514606e-01,-3.787791860124292698e-01,1.096396169003701182e+00,1.103954146049419549e-01,1.551641057243687283e-01,-1.166549106099564470e-01,1.360824465751647949e+00
3.168421372551578075e-01,-1.120131947673541406e+00,9.928952878376289259e-01,8.182052775166469630e-03,-3.926170680006590419e-01,-1.300627428716980179e-02,1.989111900329589844e+00
5.798082099087926711e-01,-1.017638083295394624e+00,8.944868249427495588e-01,1.213512939737237950e-02,-8.657609986515442391e-03,-1.417330665652121379e-03,1.776010155677795410e+00
6.897666613546538095e-01,-1.017460108576112354e+00,8.193698963883578879e-01,1.423339989743803435e-02,-9.769872251888639912e-04,1.000649981408111358e-02,1.775835990905761719e+00
5.923012151847627527e-01,-1.004361138494249239e+00,8.396575358775164588e-01,1.606609570390928662e-03,-1.988927528817684490e-02,-1.284387309449022685e-02,1.734113574028015137e+00
8.173189589175676728e-01,-7.795711272599599173e-01,5.101652650023433822e-01,5.648994110467083461e-03,2.276817607311836245e-01,-2.687390316598827211e-01,1.589397788047790527e+00
7.117737737112634910e-01,-9.831982041213198631e-01,7.069255770200966182e-01,-3.865136453066820958e-03,6.270512340793994374e-03,2.769795200100975963e-04,1.692601203918457031e+00
7.804391800096379672e-01,-1.037003781419576498e+00,7.798325037435891449e-01,1.369271681962170575e-04,3.735304392885076090e-03,2.082997967922069378e-03,1.817154765129089355e+00
7.763178945284293642e-01,-1.034308203428867312e+00,7.746127327612400970e-01,2.300845124265585382e-03,-9.535377930373154648e-04,1.557109602128355953e-03,1.809781312942504883e+00
6.656503103288133882e-01,-5.494534735570535400e-01,6.923336312122307934e-01,5.818269613124222445e-02,1.231411923791640370e-02,5.727835846052596602e-02,1.236958026885986328e+00
6.956668057243622361e-01,-7.123260250210800004e-01,7.249895592949811007e-01,-4.793906199875986110e-03,2.208700603035079063e-02,-5.285498723668912574e-03,1.423448681831359863e+00
1.052233792496043208e+00,-2.068233440181239224e+00,1.039503372551695559e+00,-1.998630391533548836e-02,-8.025475013652245693e-01,2.246959405933160979e-03,3.410456657409667969e+00
6.228727259048574272e-01,-3.465883824512375200e-01,6.565178713451598203e-01,9.555118312023571129e-05,6.135066818211775894e-03,8.911633244123533248e-02,9.987705349922180176e-01
6.886310996033473408e-01,-3.024959591099800060e-01,6.406409151487844067e-01,3.007224475649795253e-02,1.589609391905699373e-02,5.883133223922011601e-02,9.751543402671813965e-01
7.676393177094922304e-01,-5.441438508007772068e-01,7.473421994340427865e-01,-9.348816045390878626e-02,-7.139137693897640779e-04,1.613649516237749548e-01,1.341230511665344238e+00
6.432625018153736995e-01,-2.915531571289033952e-01,6.728201402225212346e-01,2.007029016565415810e-02,1.375460076043230444e-02,4.164009862852907640e-02,9.536050558090209961e-01
7.671871711621566226e-01,-1.030420853111748691e+00,8.074000582170942630e-01,-6.854503936367691355e-03,4.936334522227056425e-03,-6.369486156989888912e-04,1.818107247352600098e+00
7.871813662923854427e-01,-1.033619381662517211e+00,7.857041156746641386e-01,1.953059125141303181e-03,-6.688415861232090490e-03,-7.730131272118310418e-04,1.820103049278259277e+00
7.403142259784492030e-01,-9.914009289489988941e-01,6.983426426386960539e-01,1.393183467525109867e-02,1.646222632820685747e-02,-8.748648172630447625e-03,1.711590170860290527e+00
7.273190662347821522e-01,-1.030090492708283012e+00,8.083673405941964596e-01,-1.529056025206744496e-02,5.591727812938263910e-03,1.102707847096025089e-02,1.799625515937805176e+00
8.623556086241035423e-01,-9.921693466288625807e-01,5.454293309716669036e-01,-4.177941044288006542e-03,-2.893586175916899178e-02,1.258543518971191747e-03,1.718873620033264160e+00
7.959372826095262310e-01,-9.600541109086829783e-01,7.513358717680734822e-01,4.150951461312678108e-03,-5.793820705292778914e-03,-3.960938056656761533e-03,1.734178423881530762e+00
7.616503054344965218e-01,-9.773637938847183904e-01,7.821226175197708574e-01,9.014232382384997425e-03,1.654028896629940746e-03,8.767540058951136389e-03,1.749477982521057129e+00
7.896249617595273440e-01,-1.029418455818955636e+00,7.861264924694462142e-01,4.346435431152163506e-03,-1.984223189010315969e-02,-5.783531459871614488e-03,1.817664861679077148e+00
7.165544305393667379e-01,-1.006690154398507842e+00,7.978421512159095119e-01,-1.348737745293483378e-02,2.155290165831933444e-04,1.046505090570845099e-02,1.765540361404418945e+00
7.961910422887347183e-01,-1.011985065725064858e+00,7.724875326172935264e-01,3.052216109485825744e-03,4.239600142162602489e-03,1.271128822949093261e-03,1.796465754508972168e+00
7.960741867954088669e-01,-9.839093537447347604e-01,7.701607611003420395e-01,4.739738190040141026e-03,1.142130804762678774e-02,3.144330016134939173e-03,1.767307519912719727e+00
4.658837211733984351e-01,-1.172040827525621998e+00,1.005658466987924715e+00,8.132374659193486455e-02,-1.950679283986545345e-02,1.186076728549388150e-02,1.969687342643737793e+00
4.800463832443290224e-01,-1.010749332612078666e+00,9.136918431164879895e-01,-1.242621670874381051e-02,1.149734725107359051e-02,-3.612167569062179218e-03,1.748684048652648926e+00
6.675361439100955252e-01,-5.675783980272591789e-01,6.979177678688022191e-01,4.039562034465440932e-03,-1.775158876980517317e-02,-6.021581102290732984e-03,1.251023173332214355e+00
4.866360147519577795e-01,-9.890418723204230655e-01,9.091270027960172140e-01,-3.589011485912054107e-03,2.038462147458660126e-02,-4.738604392734341135e-03,1.726539015769958496e+00
5.021077421456363599e-01,-1.020287145293343967e+00,9.313111741610500260e-01,3.791353822492767034e-02,2.872745874921631484e-02,-6.857171276103769635e-03,1.778271079063415527e+00
4.863256772166366648e-01,-1.032030907791886110e+00,9.514963597886469948e-01,-1.576646976832684482e-02,-3.413726796533128605e-02,1.755332472718171971e-02,1.798124432563781738e+00
7.711260321465854828e-01,-1.030928759074524415e+00,7.997212332701980619e-01,-4.141405460509478553e-03,3.998438953056755035e-03,6.091924987648498872e-03,1.816579222679138184e+00
7.826223629525332903e-01,-1.015668728103137353e+00,7.804688247745242835e-01,5.967061160926975805e-03,-3.328052575678080473e-04,-2.330734520309737674e-03,1.797249674797058105e+00
8.894492970979566149e-01,-1.015519068406583125e+00,5.770533048170086721e-01,1.259707670668800002e-04,-2.184201273907838069e-04,-9.851664995668250532e-03,1.769656062126159668e+00
7.746191933635075966e-01,-1.007604415547010746e+00,7.697018009032232655e-01,-5.806473373123584476e-03,2.580528532475289023e-03,7.527120006076446629e-03,1.779851794242858887e+00
3.238055089165423617e-01,-1.005064786976290314e+00,9.808155441526666962e-01,2.288224709297216261e-02,-3.096611947411293322e-02,6.616903255410403265e-03,1.753630042076110840e+00
6.942861065960320710e-01,-1.033960430216228632e+00,8.248174388855009642e-01,-1.951612936087047598e-02,1.519720630955583712e-02,-8.317891190314244398e-03,1.797639489173889160e+00
8.480778392145197353e-01,-1.005120528138729874e+00,5.586007868299229795e-01,9.909340425446734255e-03,1.020590682941584088e-01,-1.867938881592393074e-02,1.736166000366210938e+00
7.030660984630183741e-01,-1.026967580629402299e+00,8.196759849962060862e-01,1.411563899790695131e-02,-6.862951629539084872e-03,3.445177965739655134e-03,1.791403889656066895e+00
7.930360937382210373e-01,-9.238126005911619920e-01,7.565364669435501455e-01,-7.222284930526207125e-02,-2.312794473412615320e-02,-4.897846082995727449e-03,1.703984260559082031e+00
7.469234956231552980e-01,-8.413333271924892109e-01,7.605214295803535141e-01,-3.765386484972823439e-02,-2.561454792903224836e-02,4.404678110008854175e-02,1.598869562149047852e+00
6.331597653499959621e-01,-9.948555338387559122e-01,7.924166649223920444e-01,2.150372392578708478e-02,-1.829491087614386335e-02,2.163418241931172950e-02,1.714311718940734863e+00
7.401601545537448423e-01,-7.455229775012539584e-01,7.261937395336961476e-01,-7.659002331624214892e-03,-3.833279136372172435e-02,3.648891517806444884e-02,1.481647133827209473e+00
6.989743182675236532e-01,-1.034839183038111843e+00,8.534096090799853096e-01,1.423508328991184707e-02,-5.503390904217490311e-03,-1.115732166144142376e-02,1.816258192062377930e+00
6.158688013944247919e-01,-1.236019838567486762e+00,9.101258645696769234e-01,-4.326694832348024905e-02,-2.336670772355918246e-01,4.597599706280827009e-02,2.058341264724731445e+00
7.373902858612197964e-01,-9.878976164830042261e-01,6.819735126862773722e-01,-9.722058972599506577e-03,1.412799648845949885e-02,1.036029444774538106e-03,1.698518514633178711e+00
7.245653536595147992e-02,-9.788272980429610914e-01,1.136600917636593655e+00,1.562982816998415014e-01,-2.133923537947412727e-02,-4.548414606936704990e-02,1.853963017463684082e+00
6.687796365574867341e-01,-3.771043392917540760e-01,8.403245885917361990e-01,-2.041490312671206172e-03,1.435198238073824573e-01,-8.571889371471293206e-02,1.177525639533996582e+00
6.873226851682030514e-01,-9.984537980916869948e-01,7.589834937827312222e-01,7.231315122070704985e-04,1.756347700717923385e-02,1.585687254106315364e-02,1.723212957382202148e+00
5.791884868852172907e-01,-9.866115296581186023e-01,8.139550718197853252e-01,2.632378513113018195e-02,-4.005047910470171252e-02,3.145287593611521132e-02,1.698323130607604980e+00
6.496381772007397970e-01,-1.041732674579681994e+00,8.434258519748299987e-01,3.705094538163353213e-02,-5.470949585902839390e-02,2.887376192244277620e-02,1.800459504127502441e+00
5.448588003450413053e-01,-1.041199939096137506e+00,8.606127402875171084e-01,1.026429968053102146e-02,-2.106920076120530894e-01,3.775350722404181847e-02,1.803843855857849121e+00
5.320121647781193008e-01,-1.011764058043087999e+00,8.804121813923766471e-01,7.212688997492411672e-03,-1.736457183138724256e-02,4.325308270448011139e-04,1.744574546813964844e+00
5.191538453986863644e-01,-9.918823564743690646e-01,8.762096873603232305e-01,2.050435915833590667e-02,-4.362578185015933419e-02,2.321259064919433193e-02,1.720125317573547363e+00
7.835436119945285993e-01,-1.018460455289576627e+00,7.201283176045399914e-01,1.864347075968111195e-02,7.994302263340240244e-03,3.397423124371173626e-03,1.771506309509277344e+00
7.829817173156230492e-01,-1.033809829577552630e+00,7.792460791606361514e-01,4.070917830172176080e-03,6.030863540938017492e-03,3.821347117634147326e-03,1.814982414245605469e+00
7.410595048295762766e-01,-9.987964141474690027e-01,7.244258609867975096e-01,1.030481023593532094e-02,2.219892673914157337e-03,-9.322502142958967019e-04,1.731696009635925293e+00
6.956739915221776815e-01,-1.023064020983047939e+00,8.188021352464083247e-01,-8.950343405084479342e-03,-7.611440524516460563e-04,1.195100366745290715e-02,1.783680558204650879e+00
7.861434719355109291e-01,-1.029232173647958604e+00,7.781482319203565368e-01,6.296261847166501058e-03,3.541993016399243733e-03,5.056019955300676376e-03,1.811455607414245605e+00
4.416073937400316618e-01,-9.872772081271750100e-01,9.208754176048457030e-01,-1.441088272216367594e-03,-1.144785933096320943e-02,3.939699919211675158e-03,1.719498038291931152e+00
6.271369348570178248e-01,-1.016801077379635654e+00,8.339154681343090569e-01,-3.624035575260673575e-03,1.540768815741103137e-02,-1.015045381338256815e-02,1.756781578063964844e+00
7.511614273269178188e-01,-1.034380003902825251e+00,8.096689015823477220e-01,2.232069114216996691e-02,2.122810195042431833e-02,8.394068974065752725e-03,1.816344380378723145e+00
7.824049956964758135e-01,-1.027165460123796281e+00,7.746051637177806537e-01,6.810804285301136178e-03,-1.332360630484121823e-03,4.877229592759057403e-03,1.805742979049682617e+00
7.812274145834818828e-01,-1.035356013826689292e+00,7.831738645440614599e-01,3.385889273588742806e-03,4.600159668775835424e-03,-1.033518024163155289e-04,1.817584395408630371e+00
7.972111898296641019e-01,-1.040613729107546126e+00,7.634503572843573949e-01,1.064875302513780542e-02,1.414257695095265995e-03,-9.741862061911396586e-03,1.821352362632751465e+00
7.916025247567795020e-01,-9.491177293636698931e-01,7.453631600732248952e-01,4.121118744913547516e-03,1.016809485399195259e-02,-3.954998885789569665e-03,1.718186020851135254e+00
7.589563325386607939e-01,-8.350140487400958822e-01,7.413966707994967820e-01,-7.004556648427361608e-03,2.638339073486545804e-03,-8.237826352675749197e-02,1.591724514961242676e+00
7.057637528247968639e-01,-8.514852936335879363e-01,7.808114043320479869e-01,-8.875974185848939380e-02,-5.289460545521702112e-02,-8.914973362005269159e-03,1.606172919273376465e+00
7.943793569525037235e-01,-1.036378502583070293e+00,7.935154914803883575e-01,-2.242207567537792684e-02,-1.253949126122306038e-02,4.210248336352155098e-03,1.830881357192993164e+00
5.854782178616605437e-01,-1.021650176169701885e+00,8.934021293256895202e-01,-4.967940041408845653e-03,2.839922102653208349e-03,1.081247811709148271e-03,1.781194448471069336e+00
6.459630020528122074e-01,-1.021348379663306716e+00,8.536265326248823060e-01,-1.015209457228428459e-02,9.681457760312669244e-04,1.275492150924581675e-03,1.780339360237121582e+00
7.961850363501613570e-01,-1.012874447851935367e+00,7.760731417478216043e-01,2.310950653234554539e-03,-2.386663462060065362e-03,-1.547895464001246149e-03,1.799099087715148926e+00
8.797213097282265970e-01,-1.045553768524686955e+00,6.257624680732928324e-01,3.708941724708116755e-03,-2.187388065937591677e-02,1.857968070597726742e-02,1.812388181686401367e+00
6.712374947668807712e-01,-1.018286710252510163e+00,6.745435038243022818e-01,7.871239954268147501e-03,-2.240572591286212056e-01,-1.858880923837707326e-03,1.735191583633422852e+00
6.534327232730086088e-01,-1.025010134588693278e+00,8.329138080895645002e-01,2.738117821686515338e-02,-1.013394375817168111e-02,2.351385126992125083e-02,1.776189327239990234e+00
8.767585569709955839e-01,-9.957747245934112090e-01,5.440876169296999798e-01,1.685546394054250260e-02,-8.205825178783873741e-02,1.180942990379632920e-02,1.736543893814086914e+00
6.974309696623208765e-01,-9.954666265525442537e-01,7.447657214723415464e-01,1.388007554685368079e-03,8.440540351489769430e-03,1.094240265492347694e-02,1.717222929000854492e+00
7.897801357851328419e-01,-9.603366707544820358e-01,7.610436593283249618e-01,5.128648767681594049e-03,-8.228019648030526420e-03,-2.118311139514275458e-03,1.736012101173400879e+00
9.588491085952079995e-01,-1.731083112796484302e-01,7.651505517788477206e-01,1.076621917194541716e-03,1.143190551078168971e-01,6.386629749620553569e-03,1.067202210426330566e+00
8.459653506003804724e-01,-1.021932970302261934e+00,6.286370732310984089e-01,1.731397115376479001e-02,-1.775463906087246593e-02,2.471734602695323593e-02,1.770312547683715820e+00
6.885800232103796992e-01,-1.144685133395900944e+00,1.023597451272125314e+00,6.292835822177081373e-02,-1.952793671184985258e-02,9.228545025258371240e-03,2.024982213973999023e+00
7.910797112590373104e-01,-9.673689958423991042e-01,7.549908508534138862e-01,-5.809443889639699654e-03,-9.581500465964475077e-03,-2.838127540998296693e-03,1.740800023078918457e+00
1.125925785152910308e+00,-7.633011961849862637e-01,6.672099168381091516e-01,5.817623044996887705e-02,1.651106483823448490e-01,-1.287882860453481160e-01,1.747763633728027344e+00
9.906499415193099622e-01,-1.025787945054617678e+00,4.442965107402019331e-01,3.378936605775545964e-04,-1.375294494600377004e-01,-8.417501844306679235e-03,1.822029590606689453e+00
9.006529240796923297e-01,-1.042218347598144135e+00,6.012442475162838029e-01,9.344358270645444081e-03,-1.244096403303700422e-02,2.462492385196523789e-02,1.812519550323486328e+00
8.085343305426222482e-01,-1.006868934255135795e+00,7.698514985940975164e-01,3.456129560276683527e-02,2.176868265895798261e-04,-3.654240543187375900e-02,1.798485517501831055e+00
9.110174518719557080e-01,-1.010965639622548151e+00,5.356487520247926737e-01,-5.666453181452727958e-03,3.509303319216643124e-02,-7.382611233073666998e-03,1.765622496604919434e+00
7.687598994157232024e-01,-1.030386025031592157e+00,8.080939307002288352e-01,1.078680336984673242e-02,-4.287018635650081261e-03,-2.476279403796673249e-03,1.819248080253601074e+00
7.236365740976002936e-01,-1.018241340665777983e+00,7.890905096916971395e-01,3.267051800054292330e-04,4.128324304415402664e-03,1.535606239026086027e-02,1.775723695755004883e+00
7.691639427440606358e-01,-1.030538702546061280e+00,7.905615289012564162e-01,3.366834393134892668e-03,-1.813003699667162846e-03,1.173989527994875361e-02,1.810622572898864746e+00
8.882879512889756413e-01,-1.001740564926073551e+00,5.341169481980878597e-01,1.362347258807092287e-02,-2.265862404412094522e-02,-1.330268593747080917e-03,1.740791201591491699e+00
9.062742593654818934e-01,-1.006356145290578263e+00,4.579385600153745295e-01,1.648670606035391312e-02,-4.006688905332736472e-02,2.752644498347055560e-02,1.734809517860412598e+00
7.800039443749746670e-01,-1.000507723539666660e+00,7.795074556496661700e-01,8.836479906935120268e-03,-1.394927654900720605e-02,-1.165516912464710161e-02,1.780607581138610840e+00
9.584871354464299387e-01,-8.939990408907887431e-01,4.606665917553212086e-01,-1.036789455016548789e-01,-2.609561156429382120e-02,1.899408304382670457e-02,1.671136736869812012e+00
7.692260672608606242e-01,-1.030205310176478983e+00,7.876507519772799615e-01,2.714958527429266882e-03,-3.133647157759938181e-03,1.043564420862755186e-02,1.808818697929382324e+00
7.074619276509435117e-01,-1.019264332933360384e+00,8.199277039681585055e-01,7.302089345143107126e-03,-7.542547989824441084e-05,1.158899288647253709e-02,1.785775065422058105e+00
4.820326079267253094e-01,-9.812780866767397692e-01,8.724422433393562715e-01,-1.124310302662648309e-03,2.314190686099679151e-02,3.465518631475331991e-03,1.693113923072814941e+00
1.075794793279263084e+00,-1.253274476751276678e+00,4.698247946472339787e-01,-2.078481923858127665e-03,-1.695594460076582932e-01,-9.273530281746297788e-02,2.119547367095947266e+00
7.594852939827898552e-01,-1.002651664243041640e+00,7.087447591175615180e-01,1.708122079902843482e-02,4.128037124947401583e-03,-6.268067656712032407e-04,1.737589478492736816e+00
6.790244516158411292e-01,-1.018251539555101060e+00,8.014925518051898568e-01,1.701406117972762561e-02,-1.498131377392971329e-02,2.162799525078682589e-02,1.762541174888610840e+00
7.859024123907869530e-01,-1.021670768806669072e+00,7.191457932877491910e-01,-1.907691699084321929e-02,9.019716169891802554e-03,-3.136018581816614817e-03,1.775521039962768555e+00
6.712894389979138232e-01,-1.369842888373101752e-01,7.431902901593736566e-01,-3.326961401726342277e-02,-1.835055774733717476e-02,3.467671972511769674e-02,8.511932492256164551e-01
7.360426636053332139e-01,-9.816622295909225304e-01,6.802900817395740596e-01,3.572862749476127860e-03,1.156005049043012239e-02,-8.621520606944010380e-04,1.690648794174194336e+00
6.618820868805354030e-01,-2.006806745451529261e-01,6.253931129181637960e-01,1.193830765813238964e-01,2.136830002849772828e-02,5.087231176095606197e-03,8.706758022308349609e-01
4.211077771762913313e-01,-1.114209904550898189e+00,1.042894395318654466e+00,1.008357370855376689e-01,-1.412540589755268208e-02,-2.738500457601612034e-03,1.931213021278381348e+00
7.411682421520187081e-01,-1.252870838609053017e+00,6.316440822022617585e-01,-2.843754184164850110e-02,5.398583752893026944e-01,6.175749276012443972e-02,2.158240318298339844e+00
6.690071464983616822e-01,-3.379253275697493564e-01,6.299855061955691449e-01,4.391661538495975764e-02,1.415108280013461410e-03,-1.561416017473712947e-02,9.912955760955810547e-01
4.612435475410493479e-01,-9.897024050940332884e-01,9.246785496890637113e-01,-2.361507769329750615e-03,1.122459493583318445e-02,-3.424175456387745960e-03,1.729989886283874512e+00
6.767344658909552058e-01,-4.001171902224474053e-01,6.319657201442603345e-01,6.060650952616836867e-02,9.156847171131818753e-05,1.176459922483730821e-03,1.060390472412109375e+00
4.831529842922169249e-01,-9.834798890827795015e-01,8.687593537888997908e-01,-5.517782425703362690e-04,2.183497663018984722e-02,6.799507807045533474e-03,1.693167805671691895e+00
6.439735503769423719e-01,-9.885972055624934196e-01,7.480438433095333295e-01,1.923171671062486737e-02,9.816623741888956534e-02,-1.574140669232102982e-02,1.696108102798461914e+00
7.958418412015405563e-01,-9.893025674877832243e-01,7.681481449824930641e-01,2.399549697160929199e-03,-1.655315621849848609e-02,-3.967799757797132489e-03,1.771710157394409180e+00
6.161284707838934338e-01,-2.397761030014824435e-01,6.268026265558290788e-01,3.611428375961184961e-02,3.888327126229963564e-03,-1.704942947904753217e-02,8.640907406806945801e-01
7.734264090188323060e-01,-1.029181857873077588e+00,7.905408759449483735e-01,-8.107941473167533386e-03,5.545858487785022524e-04,1.946537051038000135e-03,1.811283946037292480e+00
6.415216679483899398e-01,-1.024833563114857737e+00,8.834560427353967960e-01,-1.022171073693386133e-02,1.461259038784769662e-02,-1.354975185282253185e-02,1.799979329109191895e+00
7.614075131546749198e-01,-1.015962515832370627e+00,7.461184763661192765e-01,1.005217574888444924e-02,-2.704092729547888634e-03,-5.095265897127209840e-04,1.769867062568664551e+00
7.622708607123173108e-01,-9.635518307528355697e-01,7.793309437752994340e-01,-1.777972441428916223e-02,-1.283063646779303811e-03,-2.769953335868021674e-03,1.734697103500366211e+00
7.328723419839970887e-01,-1.012115675660401948e+00,7.288030113080390393e-01,7.499924325545381798e-02,1.433400756630865414e-01,-7.107300529265617173e-02,1.769623279571533203e+00
3.482783763741460481e-01,-1.012909665515854707e+00,9.672177138809721075e-01,3.203463615439948453e-02,9.916323785790820411e-02,-1.605692316554262894e-02,1.764019250869750977e+00
2.849123949062847827e-01,-1.097404029339882792e+00,1.042399879611458635e+00,8.150101207461941943e-02,2.856062102847413131e-01,-8.140193325644942690e-02,1.953507661819458008e+00
6.899534075285385093e-01,-3.864366790914178229e-01,5.470114922609037311e-01,-2.891695152141254572e-03,1.460786172510749326e-01,-1.067742458255520055e-01,1.059920310974121094e+00
7.715153533702848732e-01,-7.565087030447696925e-01,7.469207996403159910e-01,-6.843094776215706554e-02,-2.708607855752537263e-02,1.947460884817963367e-01,1.558174848556518555e+00
6.984434135153259060e-01,-3.523401911791776420e-01,6.491941908531868588e-01,-3.493802833739229757e-02,-8.488891088460823880e-03,4.524247941835352060e-02,1.031911015510559082e+00
7.905723015786592089e-01,-1.025438268731940106e+00,7.830953988820308354e-01,-2.429378816265894553e-03,-5.506222968402351217e-03,-1.037098425373482853e-04,1.812313675880432129e+00
7.042982598069740252e-01,6.104955105804371618e-02,6.719037943366947818e-01,3.360762840682125080e-02,-1.746890609116567850e-02,3.139719780254732195e-02,6.334365606307983398e-01
6.591750353521037553e-01,-3.534577570109125877e-01,6.429198060766130318e-01,-1.750377312081346365e-02,1.561214156618407900e-01,1.417383048861203532e-01,1.069363832473754883e+00
7.820678600204320485e-01,-1.032630582060518609e+00,7.876079352540097389e-01,-1.309364851724436566e-03,-7.888158094446616475e-03,-2.679463615296897618e-03,1.817533493041992188e+00
1.009070362018079869e+00,-3.026171351055327308e-01,6.174084424996921783e-01,-1.497592498562773655e-01,1.565538283564372746e-01,1.248210014308141352e-01,1.244080662727355957e+00
7.659325401624086371e-01,-7.995406835705933801e-01,6.995045614758222952e-01,-5.747594734185391269e-03,-1.624759748700098719e-02,-6.890525972828513701e-03,1.533675789833068848e+00
8.909875778910435473e-01,-7.560825801867050444e-01,7.602671941271930134e-01,4.875651583321002902e-02,-5.181980520617729402e-02,1.211026749450007656e-01,1.604308962821960449e+00
6.663257420524431041e-01,-4.467482855191611257e-01,6.803639783688181231e-01,2.063685508642632699e-02,1.581327711534015728e-03,1.380264006816266098e-01,1.145947456359863281e+00
6.944244697396200205e-01,-1.306962656904118725e-01,5.720211513661449532e-01,8.215965940702017745e-02,1.588429193519053442e-02,7.647781588764278327e-02,7.958413362503051758e-01
7.357771220964187675e-01,-7.863152818273327904e-01,7.583191212126310088e-01,2.654880439362642883e-02,5.923265637298481823e-03,7.843632033481398591e-02,1.540214538574218750e+00
1.209124558671679894e+00,-1.062811652269385787e+00,5.005553379372453815e-01,1.472671908065094175e-02,3.489990920429595356e-01,-1.643315424696174809e-01,2.121557712554931641e+00
7.880886261636371737e-01,-1.036055911428197085e+00,7.837116033159078343e-01,-1.504503308433472256e-03,-2.871234647454930667e-03,-4.451473285879780847e-03,1.821984887123107910e+00
7.914810541120015364e-01,-1.018679395580355695e+00,7.780504107902140865e-01,-2.776568981198741272e-03,-6.881244596364613844e-03,-4.565397317026671092e-03,1.803545713424682617e+00
7.051434077728555572e-01,-6.851504016255700602e-01,7.372405676358573245e-01,8.083664926204131573e-03,-6.660283437738476024e-03,4.401595141439431508e-02,1.408798336982727051e+00
7.724472894281545488e-01,-8.824218932383188774e-01,4.111637234509896710e-01,-1.978527713750330153e-01,4.891839508658215596e-01,2.002870317506485476e-01,1.796364545822143555e+00
7.089410350876038658e-01,-1.024869739373132083e+00,8.870502696084087146e-01,-1.391355832715970298e-01,5.580308206824936557e-01,1.885403582330016925e-01,2.108445882797241211e+00
4.658633181376131693e-01,-9.492300310638480676e-01,8.819367375739218806e-01,-8.880009343585483494e-02,3.894644389713354804e-01,1.748751638020936972e-01,1.826153635978698730e+00
7.541986513955418747e-01,-8.905703805685907248e-01,7.474060867485150528e-01,3.375641060923192244e-02,1.094146552108252006e-02,-1.762195339284913440e-02,1.642817139625549316e+00
8.703936282631956622e-01,-9.957140833431203930e-01,5.048611745702631382e-01,-1.781140968878863751e-02,2.070765161736988838e-02,-1.781036531283491584e-02,1.713779091835021973e+00
9.741251509167828670e-01,-1.058490864734099368e+00,3.890318441733772725e-01,1.489158932816048511e-02,1.071681539581572917e-01,-3.596594559393485185e-02,1.823072433471679688e+00
7.091095350693062960e-01,-9.991251687046732721e-01,7.596362155980804776e-01,-1.230651808212986911e-03,6.175495462377445822e-03,9.046903428693943428e-03,1.734155297279357910e+00
1.357283158860013383e+00,-1.822740050518255162e+00,5.982308210823382710e-01,1.227827640969622741e-01,6.630140860548707771e-01,-1.545528058075203437e-01,3.116176128387451172e+00
4.844992880060366436e-01,-9.904922348264670884e-01,9.021357887624026350e-01,-5.545924085696499195e-04,-1.145215471126102835e-02,-2.482961456608681530e-03,1.722336649894714355e+00
7.758008306859377479e-01,-1.025156292420458248e+00,7.843664350474645053e-01,-6.245474396181852073e-03,-2.092571944690397624e-03,7.661261856689580325e-03,1.805339932441711426e+00
6.304646217172088507e-01,-3.101303569725774034e-01,6.497009229842072298e-01,-3.079488549497080146e-02,2.030342020804997566e-02,-2.956369649309471478e-02,9.538795351982116699e-01
5.192518903741554226e-01,-1.284604009469626718e+00,7.775628644216187046e-01,1.009465919226323477e-01,5.813385947658563646e-01,-8.815482579171851629e-02,2.203253269195556641e+00
9.823407448782158768e-01,-1.283935453324129838e+00,3.555165669365761838e-01,-5.223882902311795251e-02,5.270771022509525006e-01,1.671505102292820677e-01,2.243612051010131836e+00
1.065573058102105897e+00,-1.847081331992448616e+00,6.463004473950018092e-01,-3.453652210823985325e-01,6.069412484950538200e-01,2.293689485446653298e-01,3.009807825088500977e+00
8.093992629449264786e-01,-9.904002884070715051e-01,5.651654707660607180e-01,2.142304983215342212e-02,9.630633661864482220e-02,-2.362201003378153197e-02,1.700068354606628418e+00
7.180161420334273403e-01,-9.885159923178977737e-01,7.033646072043658881e-01,7.289049359310515071e-03,2.010969035723632337e-02,-5.374379437440735853e-03,1.699683070182800293e+00
1.018319934663036275e+00,-1.213085992808188740e+00,5.245851256996216794e-01,1.070151653491239335e-02,-2.728461150063608009e-01,-5.046113696906964763e-02,2.086274385452270508e+00
8.106682441690219454e-01,-1.005383529819771748e+00,6.586360630587909659e-01,-1.744878459419939992e-02,-3.199066213842710615e-02,-1.842197279856300218e-02,1.746442437171936035e+00
8.764350128808913176e-01,-1.007950464098142485e+00,5.149888737880585765e-01,-1.296515696952512536e-02,-2.276196879981235571e-02,-3.794221461233501097e-02,1.734019994735717773e+00
8.730433944831352822e-01,-6.372126160496311975e-01,6.137704728087134409e-01,-8.563499448798847502e-02,2.325129621687828385e-02,-1.678135592573093138e-01,1.436883211135864258e+00
7.933700318248160244e-01,-9.539608659186007422e-01,7.575452119214520774e-01,5.664492894930238560e-03,-3.850935165192825773e-03,2.182929534903984940e-03,1.729741573333740234e+00
8.311035993713473680e-01,-1.023560324524467102e+00,6.565587286029557212e-01,-1.098685403374254251e-02,-5.843796893652304127e-03,-1.453564285252429387e-02,1.774153470993041992e+00
7.053530489394227443e-01,-1.010418373299873940e+00,7.656425292636868107e-01,-3.131315004691994155e-03,2.402661363667775787e-02,-1.600693075175955646e-02,1.747420787811279297e+00
6.227671931614426892e-01,-1.004592224765797015e+00,8.424699625761757904e-01,-3.736099625026654235e-03,1.550921598805743429e-02,-2.127384688535123580e-02,1.748206138610839844e+00
8.594833504946679525e-01,-1.008082467885933253e+00,5.933570831365753140e-01,-7.348918979226834458e-03,-1.937816676863505366e-02,9.526503544939805487e-03,1.750193595886230469e+00
8.173962032652375420e-01,-1.013210726254066607e+00,7.109004221996487738e-01,8.862191636770308523e-03,-4.162853421126230455e-03,9.698079789215687668e-03,1.779910326004028320e+00
7.111847555293971945e-01,-3.235740248614598080e-01,7.750548294458676768e-01,9.099345899891432554e-02,2.065923729550267832e-02,-4.595615355496537185e-02,1.083213210105895996e+00
6.265049703466630815e-01,-2.558306867392469708e-01,9.649094955838257714e-01,1.228634625150491766e-01,-4.993559752123375578e-03,-1.017044681859389718e-02,1.112336158752441406e+00
7.222027816414792190e-01,-2.392580404913348668e-01,9.917098641513735213e-01,-4.444984255204464246e-02,-9.975084271240751421e-02,1.996291147037601230e-02,1.137161016464233398e+00
7.238183865220000346e-01,-1.024224418905467671e+00,8.036107938683769714e-01,-1.559493511005804415e-03,5.412891347098528275e-03,-7.259664190673123865e-03,1.789344668388366699e+00
7.213225043152390326e-01,-1.024376136001625692e+00,8.177647585309875122e-01,-1.553213228921021365e-03,5.344775173135692808e-03,-1.493255208569123534e-02,1.796075105667114258e+00
6.842671309609165142e-01,-1.011552171704917846e+00,7.934344008968965412e-01,-4.810512269789986653e-03,1.286539024473851850e-02,-1.915265572845333691e-02,1.753429532051086426e+00
7.326619284769958496e-01,-2.994986775027932424e-01,7.543898349516537927e-01,1.175662904063031478e-01,3.527603205767614047e-02,-8.968112921900516302e-03,1.064750790596008301e+00
7.740743527623206166e-01,-1.031088001660319886e+00,7.719340138862573752e-01,1.273764550044385402e-04,3.441619118713923169e-03,9.411166379488329538e-04,1.804103732109069824e+00
6.723058682417504262e-01,-2.643790644741284002e-01,6.803749681700261842e-01,1.571926516586284461e-01,3.936107708499854592e-03,-1.932822502097714459e-02,9.799478650093078613e-01
7.828142401389118765e-01,-1.009039206096436603e+00,7.757137814820349586e-01,1.343435458143141768e-02,-7.795726195037660719e-03,3.124749067407627673e-03,1.788524270057678223e+00
1.066646391060389609e+00,8.298102849862765140e-03,7.862796816060888538e-01,1.472624169320966292e-01,2.307577620693673226e-01,-3.365665678095494141e-03,1.061518311500549316e+00
5.721280695891250989e-01,-1.176449339986079590e+00,9.905696605415623690e-01,1.212616147046105715e-02,1.771613624116316621e-01,4.600244367359156150e-02,2.016244649887084961e+00
7.008415013319938547e-01,-1.937458838381545201e+00,1.140834669046236094e+00,-1.990717864137120374e-02,6.050482786546604874e-01,3.698735627350896449e-02,3.068973779678344727e+00
7.149974603624804637e-01,-5.256316593162302375e-01,7.219585192914945715e-01,1.241638725280113514e-02,1.959497897875769543e-02,-9.600704923912482813e-02,1.255831003189086914e+00
7.076203461592601718e-01,-1.144309761212463084e+00,8.379890985598315023e-01,-1.035801753184168728e-01,3.281722198524236189e-01,1.261931626227835203e-02,2.010927677154541016e+00
6.519630860489512569e-01,-1.012170810372414742e+00,7.885892612653153666e-01,-1.122189804602057722e-02,8.811688774013376468e-02,1.239355241095081543e-02,1.743417620658874512e+00
7.627495141023032943e-01,-1.029005558789915398e+00,7.693376294144619321e-01,-9.387422998369520386e-05,2.820671166962827967e-03,1.162259627224316444e-02,1.795177698135375977e+00
8.469151723264328746e-01,-1.027427911940020255e+00,6.963786255570678652e-01,1.317873141242194290e-02,-8.646313227532861564e-03,-1.112293112742749994e-02,1.804101586341857910e+00
6.705300664348669004e-01,-1.043874033403376256e+00,8.560218488501092349e-01,-3.946863187190338684e-02,2.107751111603378691e-01,8.297385880412286308e-02,1.857471942901611328e+00
3.512455023304813517e-01,-1.009552772001484744e+00,9.039201463699978456e-01,9.710552412051959292e-03,2.542334724573745985e-01,1.791593185581447437e-02,1.761944890022277832e+00
6.742387872697116480e-01,-1.004808695182974443e+00,7.848151799760868519e-01,5.404351901968826831e-05,1.344919201076382256e-02,2.114795490857573554e-02,1.737519741058349609e+00
8.456456045213118777e-01,-9.976700749024672854e-01,5.251000630264579527e-01,1.589006518236991614e-02,-9.584347841656563893e-02,6.853838789592755013e-03,1.714103817939758301e+00
7.292242413387994837e-01,-9.952981301625465349e-01,7.118454892050445348e-01,-9.921368454689957414e-03,1.596781284888532798e-02,1.010483966203749992e-03,1.716208815574645996e+00
7.752335925898778957e-01,-1.025921078445545920e+00,7.857698613853909553e-01,6.003299549593731771e-03,3.947800447898666514e-03,1.600485319657448747e-03,1.806490898132324219e+00
5.810184444103020374e-01,-1.086859055864353829e+00,7.732026562045921647e-01,-5.658939758229971501e-02,3.170695710590705207e-01,7.159137410848745442e-02,1.861685276031494141e+00
7.782723329721885630e-01,-1.009366999234261097e+00,7.873542108349764757e-01,1.388128017965000339e-03,7.549478408730236380e-03,-1.119158388564692533e-02,1.792351722717285156e+00
7.801845949172415695e-01,-1.022555353290523605e+00,7.859897153274303383e-01,3.355651254130880695e-03,9.459532356314689222e-03,-2.305052943722129665e-03,1.805737614631652832e+00
7.839663931963554155e-01,-1.030491372746366707e+00,7.859996419088345343e-01,3.397677301119758457e-03,6.129297344759257297e-03,-1.496973600948156655e-03,1.815517663955688477e+00
6.982109626581537443e-01,-9.956893992785137426e-01,7.439597864119196213e-01,1.383219579607771702e-03,9.386691089293287132e-03,-9.807084116323206910e-03,1.717394471168518066e+00
7.395527907703369763e-01,-1.007342963350871479e+00,7.259659098146282741e-01,6.785167524127008222e-03,1.368102576439409260e-02,-4.877947414171711349e-03,1.740363597869873047e+00
9.470410888391673776e-01,-1.021656968692579381e+00,4.924841277991038879e-01,6.360408255147439321e-03,-6.168431028644297265e-03,4.020861881956719341e-02,1.786783218383789062e+00
7.376285239357881496e-01,-1.055171246281748410e+00,7.554564592351080687e-01,-4.100789830132883958e-03,-9.262022279660718505e-02,5.149150302409852276e-02,1.811118721961975098e+00
9.995583602583254512e-01,-1.215441226970542576e+00,6.200782555785139261e-01,-2.210527420295534378e-03,-7.870524776990871219e-02,-4.606829486078561908e-02,2.057825326919555664e+00
6.165906150681401687e-01,-9.828337794458645860e-01,7.889698096950903405e-01,1.149891766033240224e-05,2.246242393681244925e-02,-7.082376893976919871e-03,1.692703366279602051e+00
7.175231785455664646e-01,-9.800106867605126171e-01,6.954390032251858145e-01,1.892545271723091544e-03,1.806131966044187409e-02,3.852100524638409768e-04,1.686893582344055176e+00
1.047016401530731056e+00,-1.089097608808653028e+00,4.473817216698943167e-01,-1.824716107711588098e-02,3.368278329792773196e-02,1.133681914966868515e-02,1.909566640853881836e+00
7.549469416553460377e-01,-9.999287450979978953e-01,6.870144590359550385e-01,1.509741729437265832e-02,2.252397559562456519e-02,1.364482926564227665e-03,1.722556710243225098e+00
7.596737700763009915e-01,-1.022921487926652384e+00,7.584687544517836333e-01,-4.968015359773095101e-03,-1.186597866162232172e-03,3.742519583246835084e-03,1.782026767730712891e+00
8.736312477609404770e-01,-9.976120377855526300e-01,5.193902636712688370e-01,2.865422848692183652e-03,2.751547352360900547e-02,-7.819713675826976901e-04,1.722342848777770996e+00
7.797829647467284797e-01,-1.033422028450541763e+00,7.733599656792746746e-01,-6.449685132791448117e-03,-1.179155640231009791e-03,4.533963494653217921e-03,1.810054659843444824e+00
7.743624807455042891e-01,-1.030238715827650919e+00,7.853990656697638073e-01,6.795280607732243766e-03,-3.931351419719298843e-03,-1.104947296386334099e-02,1.810297012329101562e+00
7.783956537285057209e-01,-1.036558448399948373e+00,7.819154216391674961e-01,-8.319561648341116528e-04,-1.816946346870397695e-03,9.781484046996699079e-04,1.816720604896545410e+00
7.808905066098297265e-01,-1.036015960558904991e+00,7.797496173305231704e-01,-7.045140515774617543e-04,-2.851569595149448799e-03,4.433915962932691670e-04,1.816343545913696289e+00
7.810455621033367546e-01,-1.010349558383326851e+00,7.800765263380183834e-01,4.238677229082945044e-03,-1.128461190568720747e-02,1.394612169150878569e-03,1.791034102439880371e+00
7.158161475792464978e-01,-1.098209138674803409e+00,8.431782658213269332e-01,4.505444927373944419e-02,4.287272040064465245e-02,-2.282930156768839952e-02,1.884440064430236816e+00
7.675117733000378362e-01,-1.012228602952372603e+00,7.144712029882470672e-01,1.230746121384208858e-02,5.269617002595712585e-03,-8.261986337833916033e-03,1.754033446311950684e+00
7.790836223910209135e-01,-1.036678740473389038e+00,7.788037282100560565e-01,5.384527099623499854e-08,1.065167636939186183e-03,3.087314455326655794e-04,1.815623402595520020e+00
7.791015648856687292e-01,-1.039152045999510943e+00,7.739713960722173214e-01,-4.160469803814112466e-03,-5.095652834651094761e-04,6.258719672958478267e-03,1.815740823745727539e+00
7.813019205531916977e-01,-1.037643577716273136e+00,7.798325425260660415e-01,-1.778536872472068599e-03,-1.124228229679030472e-03,1.395831837756592551e-03,1.818216562271118164e+00
6.418862476016286012e-01,-3.079453969076441089e-01,6.402897682376138544e-01,-2.909970861268229569e-02,1.638398117953276598e-03,5.268128956432280297e-02,9.547464251518249512e-01
6.453183989110291563e-01,-2.190445901169095211e-01,6.350897702639961562e-01,-1.310707751898018414e-01,-1.521828336818732003e-02,5.153088536302920242e-02,8.936366438865661621e-01
6.973235078099659923e-01,-3.636177752191454005e-01,6.560368297575804863e-01,7.794323885039556969e-03,-8.284004678285560724e-03,-5.035740255223781353e-02,1.044745922088623047e+00
6.502771218001233144e-01,-2.221986525084743147e-01,6.357198246444750733e-01,-8.723128850382816379e-02,-1.025757169514527126e-02,1.405950030720894695e-01,9.116849303245544434e-01
7.070556209742735465e-01,-1.117164082889653853e+00,9.060321377793056907e-01,2.102597585505954630e-02,2.657157133069807178e-03,6.764378328430775342e-03,1.931794762611389160e+00
7.717514276045778221e-01,-1.028917919494216626e+00,7.606711653901472303e-01,-3.083093080510980227e-04,3.539027195204883652e-03,7.316561927450978067e-03,1.795210123062133789e+00
7.823218137170799835e-01,-1.034184748962050815e+00,7.774173940056758880e-01,8.002626008831621729e-04,-2.354777778531754861e-03,3.041789456217761523e-03,1.814072132110595703e+00
7.641441238733874819e-01,-1.023818870605751385e+00,7.608957680683432478e-01,-6.905989621348081892e-03,8.618680113778568255e-03,3.637325494635097918e-03,1.786454558372497559e+00
7.258377734943226578e-01,-1.015028087501189447e+00,7.725265058608170587e-01,-1.545141064628872442e-04,9.976520098050483537e-03,1.048556997576264443e-02,1.764851570129394531e+00
7.609823436460037005e-01,-1.029906204911045897e+00,7.802198771541584144e-01,-9.339939602578004540e-05,2.817837715649729700e-03,6.121522762835613155e-03,1.800622224807739258e+00
7.861114963022451940e-01,-1.032747913335150258e+00,7.820433663653115763e-01,6.229822605646869772e-03,-8.882934089971280742e-03,-4.509174962870499820e-03,1.816942691802978516e+00
7.809739508494411009e-01,-1.024223901269923243e+00,7.886816622741943394e-01,-1.119096903857284570e-03,-4.478224879686819315e-03,1.018291770670739192e-03,1.809082508087158203e+00
7.635324344234444283e-01,-1.024229315243225802e+00,7.758959898803008404e-01,-9.833306069970362828e-03,5.437365125266260465e-03,1.138044308052341136e-02,1.794189333915710449e+00
7.742880406792014281e-01,-1.034782168544098102e+00,7.805890402660760063e-01,-4.005867695101012101e-03,-2.607070257594956610e-03,4.428112113770413770e-03,1.812264084815979004e+00
7.800060795699794713e-01,-1.030479853880988950e+00,7.860629504607421492e-01,-8.031184818649237181e-03,-6.661337023078338533e-03,1.491250284500252737e-03,1.813613891601562500e+00
7.420573935375643915e-01,-1.014746441885292505e+00,7.548394045425934618e-01,2.276261869065119203e-04,4.214489692287064562e-03,1.078147746600992968e-02,1.763343572616577148e+00
7.401134676268543711e-01,-1.014750656807990925e+00,7.502408515842656778e-01,-9.732493682253812520e-03,3.088914739693501225e-03,4.747811301768405188e-04,1.760038733482360840e+00
6.854280915532056095e-01,-9.957791048428561442e-01,7.633834422369779604e-01,-1.640701561562053074e-02,5.264173398792203890e-02,1.982632227983656403e-02,1.724498152732849121e+00
7.553008846902808937e-01,-1.016603579060568974e+00,7.468666062230355784e-01,-1.760088352489432018e-02,8.494136604628586135e-03,-7.920094839505091014e-04,1.768027067184448242e+00
7.299693295991280806e-01,-1.007511369271504975e+00,7.363354160830182238e-01,-1.473569378244321028e-02,2.256000427960983684e-02,1.281343582300847189e-02,1.741439461708068848e+00
7.123631163504181574e-01,-9.875459587434775033e-01,7.140955775673757389e-01,-1.036865310674950531e-02,3.166940727531138144e-02,5.594410402715219860e-03,1.701782584190368652e+00
7.121675953065123021e-01,-9.992293743178828347e-01,7.432026983686932375e-01,-1.543786634527606139e-03,1.108513245367831121e-02,1.813342288172352379e-02,1.727517962455749512e+00
7.281277701488261256e-01,-1.005489784247761920e+00,7.388061656491374807e-01,-6.725417556588278965e-03,9.749182518366279054e-03,7.962154774171883651e-03,1.739156961441040039e+00
7.240198216846818191e-01,-9.963518353162730268e-01,7.206383329555734463e-01,-8.528394657025060565e-04,5.191397129550248506e-03,9.301810439777898759e-03,1.718783020973205566e+00
7.596805241423183475e-01,-9.847416749728858942e-01,6.261347090700091211e-01,-1.394616679344230954e-02,3.308012771750688114e-02,1.392903717105600445e-02,1.682953238487243652e+00
7.166925536683109721e-01,-9.973799499870013019e-01,7.371243872940930197e-01,-9.942902629035258767e-04,4.623249528793667122e-03,9.537176411828753031e-03,1.724477767944335938e+00
7.803582623564350174e-01,-1.020640931708540089e+00,7.838987769282976803e-01,3.069808574098009408e-03,-9.974441199569954869e-03,6.668545167679463745e-03,1.802899718284606934e+00
7.042072052573697949e-01,-9.820017178322719698e-01,7.136296345797563667e-01,-2.227043645591083253e-04,5.577453908834653813e-03,3.022396760749531189e-03,1.690975546836853027e+00
7.669750880955177319e-01,-9.824308317230685539e-01,7.938779403153565228e-01,4.005156795788025162e-04,-1.734985033178891925e-02,1.253158426252231131e-02,1.763401150703430176e+00
6.796121146900125920e-01,-9.827692855195501176e-01,7.389419432176876912e-01,4.822940534855867556e-04,1.379613797714598911e-02,7.092753188970143605e-03,1.693039655685424805e+00
7.499075579928551338e-01,-8.859801119510124501e-01,7.785493136496275390e-01,-4.404994671131089688e-03,-1.342656587297788237e-02,3.834427814902884035e-02,1.651912093162536621e+00
7.043532679216278902e-01,-9.830205582786650798e-01,7.222295640131620731e-01,3.169296461928664964e-04,5.261376308940646403e-03,-5.019060711238139232e-03,1.696429491043090820e+00
6.725043831948341877e-01,-9.828433464340217141e-01,7.454383193090184934e-01,1.410598925354849273e-03,1.077703747778554003e-02,-6.790259229329627215e-03,1.693138837814331055e+00
6.732680141761651083e-01,-9.818010110143164937e-01,7.398810219677656175e-01,1.505137186237145205e-03,1.235566647710300420e-02,-4.255040212776448234e-03,1.689514398574829102e+00
8.732523728446025535e-01,-1.059469815930532466e+00,7.170456735809996873e-01,2.615022542082965501e-02,7.163679458797106436e-02,5.824527499767315555e-03,1.864258646965026855e+00
7.050059570521736152e-01,-9.849019314365214939e-01,6.976921380081682056e-01,6.997725241820272786e-03,4.942219214276735717e-02,-8.562888973957762800e-03,1.688542842864990234e+00
7.242122097283736348e-01,-9.981823207870043069e-01,7.416570716906252247e-01,7.890400684028110517e-04,2.768233282499652295e-03,-1.034707543837169036e-02,1.731282830238342285e+00
7.606930056170931875e-01,-9.303925458201920407e-01,7.707062793051009386e-01,5.235791488337873667e-03,-1.748088572316256611e-02,2.252229238725374921e-02,1.696857333183288574e+00
7.648001653491411922e-01,-9.490823061987567755e-01,7.724606505639111109e-01,-2.173931100902712701e-02,-1.235815472761496447e-02,3.039494025791408122e-02,1.719077825546264648e+00
7.301439920319143795e-01,-1.005334598440269733e+00,7.370483833746999114e-01,7.573452795304945646e-03,-9.750522490224339603e-03,8.710905662057379095e-03,1.739138007164001465e+00
6.960945605757450361e-01,-9.979473502711094790e-01,7.585620177086095373e-01,1.235511165792196279e-03,5.217459638753835227e-03,-1.669633524887437215e-02,1.726390838623046875e+00
7.414264744199495771e-01,-1.006525533767142822e+00,7.369381394296756760e-01,8.707049348087810003e-03,-3.190872846497171383e-03,7.123893208460735718e-03,1.745829701423645020e+00
7.462633495355432967e-01,-1.016275043888297258e+00,7.616180568409771645e-01,2.752653317279114852e-04,-2.123434541640195801e-03,-9.919425736038108010e-03,1.770352959632873535e+00
7.789771763850221742e-01,-1.033330595960803011e+00,7.845897508918330265e-01,4.420358829308562894e-03,-3.185498462501521605e-03,-1.938592736046270554e-02,1.815455675125122070e+00
7.388526224905830331e-01,-1.014707039525344134e+00,7.549026439534445299e-01,-2.468179318605102294e-04,3.451723803428523654e-03,-9.564238178074134511e-03,1.761727571487426758e+00
7.703191629112434713e-01,-1.024096930368675551e+00,7.580912821283456449e-01,7.476581189656043847e-03,1.199813944444483435e-03,5.362052361927274573e-03,1.788405656814575195e+00
7.541152042168758340e-01,-1.025449088332165193e+00,7.725377186255840689e-01,6.606188604820878094e-03,-1.454180427558319274e-03,1.185572373226087203e-02,1.789002895355224609e+00
7.462176079503430870e-01,-1.015703603352233531e+00,7.605924936023776839e-01,5.265169984272630513e-04,-6.385327440902122641e-03,-4.563100444540165042e-04,1.769187450408935547e+00
7.574159163998360755e-01,-1.023026365920403080e+00,7.604376315474269399e-01,5.290246299695034599e-03,-9.441307626160387340e-04,5.825697199246153771e-03,1.782007932662963867e+00
6.740216208116008856e-01,-4.820505955421040545e-01,6.731840162994369159e-01,-8.213148870239501964e-02,-1.501640686788343823e-02,3.946582584441361841e-02,1.166671037673950195e+00
7.848441901936330511e-01,-1.043931883181065778e+00,8.054780149546773016e-01,7.223113911907119884e-03,-1.754897278487205226e-02,-2.164538576238923817e-02,1.839855551719665527e+00
7.441466114122370357e-01,-8.057413215202373635e-01,7.340510095490101472e-01,-2.841920317975727556e-02,-2.753738307436616808e-02,-4.412991492147124058e-03,1.546403527259826660e+00
7.762119096410382557e-01,-1.031440819391785668e+00,7.707146325090261652e-01,7.436403753235305142e-03,-1.362992532506450329e-03,-4.178607463219293741e-04,1.804957985877990723e+00
7.629740839285743537e-01,-1.033076272984883248e+00,7.810545646260598218e-01,-3.360680652228502114e-03,1.872938702336581353e-04,-1.202133242519867751e-02,1.805287957191467285e+00
7.750945998793667968e-01,-1.013525826669999574e+00,7.838079328454784500e-01,4.444977664717648241e-03,9.978928684716236591e-03,-9.644592399581663339e-03,1.793170571327209473e+00
7.886048649311125924e-01,-9.998098644837991600e-01,7.721421301975130991e-01,-1.735777284459763536e-02,-1.240595646204136274e-02,-5.137005898419241823e-03,1.780646204948425293e+00
9.302792464011079288e-01,-1.207545261237649825e+00,3.507884729219156172e-01,-2.334941885109719298e-02,-5.104342542324074028e-01,-1.226828769426502493e-02,2.109732151031494141e+00
5.705561034640074247e-01,-1.016036159216638701e+00,8.959681708440965231e-01,-7.931464416016933625e-03,6.575610165904748452e-04,-3.637616545772729077e-05,1.771906971931457520e+00
7.086615388582342412e-01,-1.021102473903098495e+00,7.745075947643346170e-01,1.862121092852747628e-02,-3.809592677815723527e-02,2.018702401756318834e-02,1.765484094619750977e+00
5.712238244084046901e-01,-2.164637759244627535e-01,1.006146367695481381e+00,-8.463140984467572292e-02,6.593337747358930800e-02,5.869348320402672375e-02,1.094100713729858398e+00
7.655718423229804781e-01,-8.001043572462520626e-01,6.963504052112245990e-01,7.096652319852111979e-03,-3.100402808123454805e-03,4.745805224190412404e-03,1.532319426536560059e+00
4.749422205041567979e-01,-9.894381092590618376e-01,9.041770738481422764e-01,4.377346776492148199e-03,-1.308410645904294241e-02,-6.891966767027133886e-03,1.719863057136535645e+00
7.808924624463983166e-01,-1.026654224402077986e+00,7.797942475773591564e-01,2.464307218834035310e-03,5.247364733479526269e-03,2.621983495550578042e-03,1.807031393051147461e+00
6.796361696311050693e-01,-6.288156984145059081e-01,7.153437302951524135e-01,-1.025487498120296603e-01,2.974151700764936582e-02,4.030893548339076898e-02,1.341312766075134277e+00
9.604999112248033821e-01,-8.559990115807591948e-02,6.636880676773078136e-01,4.145453060881968549e-02,1.605386653573649958e-01,1.003862400196128685e-01,9.922866821289062500e-01
6.950410010387713111e-01,-7.933991821435149028e-02,1.024090472050540157e+00,-2.570665220579085308e-02,-1.274486741915458743e-01,-4.182021544816913461e-02,1.009310603141784668e+00
9.411084308449385594e-01,-1.034104287455707372e+00,4.888932983869483939e-01,1.586094585330656472e-03,-7.371248951228285759e-03,-5.582264207077829166e-02,1.795065999031066895e+00
1.095106703654763702e+00,-1.101006979735567715e+00,2.203169209473379297e-01,5.540665739159190972e-02,-2.028173470082654528e-01,-2.151717652278246073e-01,1.984576940536499023e+00
7.725017607268209741e-01,-8.555576037161729541e-01,7.388446180181218459e-01,-1.074517914136577899e-02,-2.156350245167410612e-02,9.054024955859227633e-03,1.612110853195190430e+00
7.809079789626787171e-01,-1.026643500159887479e+00,7.804810159452911789e-01,6.546074950695807918e-04,-7.455111882447468773e-03,-1.537198688509832300e-03,1.807386517524719238e+00
8.903836111004492793e-01,-1.020909475684901091e+00,5.862992618740507922e-01,-3.001807575732675943e-03,4.162743495213802256e-03,8.003501049375888465e-03,1.778928160667419434e+00
6.713406457673808392e-01,-1.002318323103037923e+00,7.874421399213578088e-01,-2.145704927439087456e-04,-1.327221947269597267e-02,2.023853153648797615e-02,1.735132694244384766e+00
3.476399617417776922e-01,-1.400070947081924144e+00,1.443523380310080428e+00,2.988802004018037417e-01,-1.678889822278352428e-01,1.031721767710864213e-01,2.560317039489746094e+00
2.055518870144952825e-01,-1.191104728714138528e+00,1.108404184328017017e+00,1.604844687484804355e-01,2.806826603033132916e-01,-6.553294996073464468e-03,2.083389043807983398e+00
6.387263680295909296e-01,-4.409796643718322806e-01,1.172030765733750979e+00,-6.187596182531165945e-02,-4.144838802488668567e-02,6.787385849677309013e-02,1.434033155441284180e+00
7.529812416567480682e-01,-8.108030041265503751e-01,7.372118768221123108e-01,2.614617844543539252e-02,-2.845712068943367229e-02,-4.694007386293910095e-02,1.559519290924072266e+00
7.611025077294559793e-01,-9.870561186701245493e-01,8.383267136160126309e-01,-5.742786317448961286e-02,-2.705410873815801073e-03,-1.739227219807912977e-02,1.791045904159545898e+00
6.195351910571220699e-01,-2.522589060146553375e-01,7.615390390086109740e-01,-6.073892474800166030e-02,-1.308318171498515647e-01,-1.300659111999129813e-01,1.008542537689208984e+00
4.703379521597050861e-01,-1.159542793221640888e+00,1.058818325523952941e+00,2.242534235281545135e-02,1.350053893520292425e-01,-2.921038907712534410e-02,2.005173444747924805e+00
7.427436043239648011e-01,-1.174941959296962324e-01,1.130729122419250610e+00,-1.046852919215048999e-01,7.470539411904023042e-02,-1.329441283310849563e-02,1.128916144371032715e+00
4.290352025475848707e-01,-9.874131853624689148e-01,9.311093695230888700e-01,4.210667949450116153e-03,5.075441651353263840e-03,-4.720803095403131879e-04,1.723281145095825195e+00
7.872577948352490473e-01,-1.064358174496093046e+00,9.326051928194175611e-01,1.293059481300893043e-01,4.248111834870729187e-01,-1.661048625602698225e-01,2.095963001251220703e+00
7.700023187703868288e-01,-8.874340242533034218e-01,7.440452795727718893e-01,-1.215046930437506043e-02,-2.844577658904776790e-02,1.045631929737466000e-02,1.645583510398864746e+00
7.643449690552883702e-01,-7.994041588860918424e-01,7.003029605706462268e-01,-7.048962384697751715e-03,2.201309486489256249e-03,2.057587949639688545e-03,1.532789468765258789e+00
7.800337313238486781e-01,-1.030335371797117983e+00,7.828558153635598593e-01,9.000385172219246095e-04,-6.714311246321305084e-03,2.776166765106061456e-03,1.811826109886169434e+00
5.714892497215815492e-01,-2.688931811055318422e-01,7.478270221883871471e-01,-3.419393551929797437e-02,1.315839938576428558e-01,1.432449819907580524e-01,1.001267671585083008e+00
5.943778256193137377e-01,-3.109779076018064914e-01,1.119390159541800767e+00,-1.654724539343647716e-01,-1.019614297740141923e-01,-6.375514173053598022e-02,1.302365422248840332e+00
8.983858736068717210e-01,-1.018336496534410163e+00,5.761155560811030973e-01,1.447009893543099376e-02,7.976898304205788659e-03,9.323466974015183484e-03,1.777936935424804688e+00
8.051429240519423214e-01,-1.011118074977529924e+00,7.329975252103815286e-01,7.541648256616302615e-03,3.044615845724538486e-02,-5.815850341442586890e-03,1.782141208648681641e+00
7.813874032708220119e-01,-1.030368985622255762e+00,7.988388093131502110e-01,-1.152179054196633646e-03,4.174010246897724187e-03,6.165506447956062286e-03,1.820591568946838379e+00
5.933862453627278821e-01,-1.520969831396927097e+00,1.301580664029264867e+00,2.966635758243490462e-01,4.941226591497354104e-01,-2.304083701910745741e-01,2.761372804641723633e+00
6.547911243341034693e-01,-3.898044625242084726e-01,6.263527150246634978e-01,5.991878662321035998e-02,8.370042556178704934e-03,-5.519574351338438559e-03,1.036028146743774414e+00
7.931377356051769745e-01,-1.021403705779826199e+00,7.271369990743739020e-01,6.407721511378895729e-03,1.619580236909166568e-02,-5.512516675393062948e-03,1.782738566398620605e+00
7.767649466018682336e-01,-1.013954526174118076e+00,7.996724810269637551e-01,-1.319062356414195869e-03,-1.000507150454980811e-03,-1.851470601253553698e-03,1.802287578582763672e+00
4.418092152934702255e-01,-9.886634552169564216e-01,9.212867714150307918e-01,-1.515093611610892699e-03,-1.280405857973586012e-02,-4.961305720922584706e-03,1.721221327781677246e+00
7.789718597218304730e-01,-1.024054909683906889e+00,7.974448471828944340e-01,1.397310477072106940e-04,-2.511024954546285052e-04,3.167783525127068102e-03,1.812342286109924316e+00
7.970827133174066548e-01,-1.018726642612049371e+00,7.765223939942800246e-01,-1.726474001677943786e-03,-6.324442127793405630e-03,3.061495940006971148e-03,1.805660486221313477e+00
7.034509437628228001e-01,-5.825433282911505195e-01,6.795011969845988764e-01,-7.312108176858915509e-02,-1.777183393755858752e-03,-2.527013076102138656e-02,1.281218528747558594e+00
1.015748505290655190e+00,-1.136680388966379240e+00,4.308154409259481454e-01,3.395969376962806874e-02,3.709574631652174520e-02,-1.178416835042534194e-01,1.940442800521850586e+00
2.582616682779145800e-01,-1.144363252577230927e+00,1.125785547832869327e+00,2.421789422278287918e-02,1.760740591468246963e-01,6.277860264681639491e-02,2.010809421539306641e+00
7.856353796072168549e-01,-1.024727578319742705e+00,7.964268308738264857e-01,3.411319308319799275e-03,-3.682309285661469777e-04,3.167963338504079570e-03,1.815800786018371582e+00
7.778571643181745321e-01,-1.010925243868644685e+00,7.891574499053406466e-01,-1.639152226053568933e-03,-1.284743058886639354e-03,-5.972779997230785037e-03,1.794492721557617188e+00
7.657096804836720505e-01,-9.703910914686102451e-01,7.952353364388471402e-01,6.468647330695324101e-04,7.279430983219354386e-04,-7.456605589852900728e-03,1.751098752021789551e+00
7.809064838866621727e-01,-1.030829230827050136e+00,7.999246374676134419e-01,-3.546626138944520158e-03,3.478108849652225901e-03,8.006509339088441549e-03,1.821392416954040527e+00
5.141739885005689459e-01,-4.869578127758076302e-01,9.457741146633928953e-01,-1.425347836422840575e-01,2.910869758198248586e-02,8.608210209052939710e-02,1.306274414062500000e+00
7.146981533547427379e-01,-6.352072102409327403e-01,8.429019089328193548e-01,1.770467901520800802e-01,4.003112440881370082e-01,-1.015100537583643048e-01,1.617850542068481445e+00
7.711542323038739211e-01,-1.034308960805646382e+00,7.975968353597882032e-01,-4.237255773730044112e-03,5.728789145669967598e-04,-3.385596301142039955e-03,1.818853139877319336e+00
2.902689845242719668e-01,-8.790731754654895758e-01,9.855757376479600262e-01,1.332282494959711738e-01,-2.324555358569101449e-01,-4.988533886214586294e-02,1.699024915695190430e+00
7.555448138192456531e-01,-9.684354728215648356e-01,8.969295205829469486e-01,-2.040816818399703858e-01,3.362535640829721756e-02,4.496007439771132486e-02,1.835823059082031250e+00
4.714905140442982034e-01,-9.985566704255084414e-01,9.688642307990713576e-01,-2.293789167740624413e-02,3.122454629390621419e-02,-1.354311528995591485e-02,1.773312091827392578e+00
7.886387024586876127e-01,-1.027465144649938766e+00,7.712013863653255363e-01,-1.294351278401250326e-02,4.152483889853836665e-03,3.309185032145642996e-03,1.807610750198364258e+00
4.788717642982299738e-01,-9.773232631566548534e-01,9.089027841981192068e-01,7.178573328635590167e-02,-3.747865518567562448e-01,1.291374222820843298e-01,1.848924994468688965e+00
7.765263962684211263e-01,-9.997676456544720702e-01,7.875579899137504780e-01,5.042935277564098567e-03,1.373709235945531730e-02,-4.668194260146351152e-03,1.782034039497375488e+00
7.877786754615698772e-01,-9.620819532489268688e-01,7.481802238687358386e-01,1.291362360521346349e-02,-2.336597699868700473e-04,2.697270296403217818e-03,1.730552196502685547e+00
9.033456901280899620e-01,-1.013157315599958253e+00,7.702773101314396298e-01,2.921706506878345763e-04,-2.741650211324338920e-02,9.524440023544872291e-02,1.861487269401550293e+00
7.305869583690589586e-01,-2.318959798455490495e-01,5.403567906305741797e-01,3.680578706315090071e-03,8.435258633435356590e-02,1.856667376273332670e-01,9.509315490722656250e-01
1.209171090537093152e+00,-1.331196916412815456e+00,3.500262661271340003e-01,-1.063575104588360409e-01,-4.873576274488842230e-01,-4.798727926709120406e-02,2.400510787963867188e+00
6.994462615587369037e-01,-1.144432999413656615e+00,1.037555178199573103e+00,-2.946194183450701748e-02,5.146632987247990766e-04,-4.857347211649940336e-03,2.034776687622070312e+00
6.805092318054670741e-01,-6.786377483188488213e-01,4.605379620920905248e-01,-1.226770083558588187e-01,-3.921704545274094511e-01,-1.992592830152121464e-01,1.490754604339599609e+00
7.496970350805798322e-01,-1.003360936608372445e+00,6.916157823889690359e-01,-2.748617754968679661e-02,-3.046394064315046876e-02,-2.175134379024661405e-02,1.726625561714172363e+00
7.535099004433747361e-01,-7.966996825996797149e-01,7.182371523762228760e-01,6.596141246004352116e-03,1.534302262492428723e-02,5.552887836233979038e-03,1.533180713653564453e+00
7.813312775085448081e-01,-1.028450001553611992e+00,7.866832115931885472e-01,-3.029330432543118293e-04,7.863038147024261834e-03,-4.023400977528229262e-03,1.812527775764465332e+00
7.516465451470376591e-01,-1.023177585044397153e+00,7.695568982343528042e-01,4.905987738256264823e-03,-4.269342025344418159e-03,6.770295620598757239e-03,1.783920884132385254e+00
7.153399100617210404e-01,-3.009286807398557917e-01,6.529750957591666793e-01,-1.154031772896241398e-01,5.543844369381401016e-02,9.078776094809745331e-03,1.011302590370178223e+00
3.828157083159569041e-01,-1.001765517682648765e+00,9.812631984741132518e-01,-1.322897358466817996e-02,1.352642276976650237e-01,-3.016462578353417204e-02,1.778186678886413574e+00
5.018243054645187273e-01,-3.200578308306849529e-01,8.001546947318106673e-01,-1.618048977446975845e-01,5.029222026926393613e-02,-4.958955487854993516e-02,1.050329208374023438e+00
7.910032057490710145e-01,-7.223895047509341083e-01,7.243837496609750737e-01,-7.371688716668706176e-02,8.167096445270503186e-06,-1.293715302644704024e-01,1.503491878509521484e+00
1.061815660490023960e+00,-7.547042532657954883e-02,9.796701466406672054e-01,-4.432381733259688900e-02,-3.254789121002688024e-03,-5.849936682114819514e-02,1.105864644050598145e+00
7.818683368181447157e-01,-1.020239570453876254e+00,7.921790270100874665e-01,6.815050328958315029e-03,-1.968182502237330808e-02,-5.070477758491131332e-03,1.807666659355163574e+00
7.455399648919669442e-01,-9.596436007485232844e-01,7.849077171263693087e-01,-1.830601917071477541e-02,-2.131376036050454219e-03,-2.351261529471962257e-03,1.725504398345947266e+00
6.534009545425030208e-01,-1.255776075984459395e-01,6.615311988390436548e-01,-1.510088373443035578e-02,5.159025719964448198e-02,-1.143677380222452300e-01,8.130902051925659180e-01
9.963353926264644222e-01,-1.364052069382500898e-01,9.823623885037937598e-01,1.972242163874944609e-02,2.691461038193767447e-02,-6.351851034309492772e-02,1.132657289505004883e+00
7.861499687714155193e-01,-1.023225441241462752e+00,7.802566430133082154e-01,-7.897886733373295914e-03,1.353851554476714642e-03,5.755643802475860459e-03,1.806516766548156738e+00
1.078592476619645524e+00,-4.584728671751125972e-02,1.077279407849157433e+00,-3.086904482311318351e-02,-2.454669244215678531e-02,3.815453873204559254e-02,1.127795934677124023e+00
4.725532751673313658e-01,-9.930065788824627981e-01,9.218698133906556569e-01,4.136961020885070346e-03,-7.258228142776758547e-03,1.290034324365697729e-03,1.734492897987365723e+00
7.874495021152785323e-01,-1.001629626847393206e+00,6.720725691197855234e-01,1.721595761599391955e-02,-1.242218332839748439e-02,-2.454311272784840108e-03,1.734666466712951660e+00
1.012688848443603185e+00,-6.277079456821110792e-02,7.893910501701011384e-01,-1.837665967198361811e-02,-1.474929740145941859e-01,-6.673395461416622987e-02,1.022723555564880371e+00
8.978460886372653382e-01,-9.489779691210485923e-01,5.426296464002522413e-01,-2.066296963694597491e-02,-1.098709074908380164e-02,6.285688890088605985e-02,1.701297044754028320e+00
7.719660369130127986e-01,-8.957844229882442333e-01,7.425835676610681446e-01,4.109971966808997033e-03,2.172552625469001061e-02,6.027287167027951462e-03,1.653731465339660645e+00
1.044427450049150607e+00,-4.539106878169429926e-02,1.059868951585607899e+00,-3.682415545808382946e-03,-7.932370760969235934e-02,3.666198251592141938e-02,1.108025670051574707e+00
7.725753027546797824e-01,-9.950272637905115403e-01,7.954283033252331769e-01,2.120644119234671443e-02,-1.991790321761044771e-02,-1.788960093555013592e-02,1.780122280120849609e+00
7.537332911733163332e-01,-8.918650193691274319e-01,7.468706350644708225e-01,1.122223807324608871e-02,-2.910002023901866672e-03,-4.248870009843802587e-02,1.643948554992675781e+00
6.819204701713714734e-01,-5.311353644532107454e-02,6.902800742961632263e-01,4.130889695895443442e-02,2.800763422972758331e-03,2.138068002935831352e-02,7.436421513557434082e-01
8.150947700708526256e-01,-1.015583423530738161e+00,6.531681722901594433e-01,-1.714191011204763138e-02,-8.367927806980135497e-02,-2.666032965607264757e-02,1.762154340744018555e+00
8.744107027561451861e-01,-1.277668195561925346e+00,6.651483164627791655e-01,-2.613171204491669397e-01,-5.856725332103002168e-01,-2.305774136564876786e-01,2.370290994644165039e+00
7.358724396932776468e-01,-1.016479899765956096e+00,7.872316059680255496e-01,-2.446675112015478729e-02,-9.023038615854793096e-03,-1.341936318222711373e-02,1.779313445091247559e+00
6.608834704148878192e-01,-4.302707855228989908e-01,6.405301747958429548e-01,-6.600823544267016285e-02,1.739467758038538980e-02,2.113320610489421731e-03,1.087573289871215820e+00
7.963563993935611762e-01,-9.814526669771475031e-01,6.097864530963652552e-01,-6.658017105516767647e-03,-2.357805711877674834e-02,1.381330503032030151e-03,1.692788839340209961e+00
7.185185804832407985e-01,-9.844391342971103853e-01,7.117251952988421504e-01,1.017296250778551570e-03,-5.200244500724801600e-03,-6.167304799047759788e-04,1.699596285820007324e+00
3.854033442085272321e-01,-1.168976290644300420e+00,1.005164609589924929e+00,-6.225517337977851118e-02,-4.141440516314978115e-01,-7.841247611007445828e-02,2.075611352920532227e+00
7.111876622314261542e-01,-9.858398892976784067e-01,7.029274075287432755e-01,6.631782838761788451e-03,-1.698805629705018791e-02,5.861428965893997721e-03,1.693237662315368652e+00
1.640678948263993853e+00,-1.737397331579622506e+00,2.789770719721454406e-01,-1.068489816989751963e-02,-7.711217885198945465e-02,-1.635133352229873049e-01,2.960420608520507812e+00
7.451950357853391882e-01,-1.028878666672340181e+00,7.968661414344959670e-01,9.931059292966223223e-03,6.826584166990293245e-03,1.399358141197364763e-02,1.800749540328979492e+00
7.360794281700373531e-01,-3.075640183615868106e-01,7.202566713569471535e-01,-1.507087408783737148e-01,-1.187906112377716539e-02,-3.590128693112881741e-02,1.070214033126831055e+00
5.744504306919282488e-01,-3.723097615648046643e-02,7.071712057017048858e-01,-1.194063673754935939e-02,-4.549417105520552063e-02,3.282903633382164288e-02,6.948539018630981445e-01
7.039478216432015767e-01,-2.118010346770695107e-01,7.103023495783673535e-01,-3.640515038917514767e-02,1.110776121256174670e-02,-3.752906285083938698e-02,9.235945940017700195e-01
7.349868046372357577e-01,-9.079042387733810004e-01,8.673209984102656644e-01,-1.964324402696311922e-01,1.723851141013127419e-02,5.707534243074220692e-02,1.749410033226013184e+00
1.738951178412304177e+00,-1.910783581012274190e+00,2.608182583472647420e-01,-5.129898264191862234e-02,-1.744927311557902261e-01,-3.029311955991356164e-01,3.238083839416503906e+00
7.740808556014038277e-01,-1.019809642807488759e+00,7.831493110699462301e-01,5.846727692206679476e-03,2.348273214525504679e-03,6.780474809733792914e-03,1.798513293266296387e+00
7.918917405511487484e-01,-9.980376288120276218e-01,6.665810887488184955e-01,-1.609096568923204518e-02,-1.370797932652155493e-02,9.193517706788970837e-05,1.731067061424255371e+00
6.224564526162432720e-01,-1.859855156945301458e-01,7.120733270187737940e-01,-4.646623312522512456e-02,2.079843060089167639e-02,-2.888739617238709340e-02,8.627503514289855957e-01
6.107430530417903292e-01,-1.211543678143479630e+00,1.027010654315371641e+00,-1.802915138471600232e-02,-1.201451956296319401e-01,-4.101546641302781029e-03,2.072895765304565430e+00
7.998509190024485349e-01,-1.022184303175487807e+00,7.133617914368849400e-01,2.020837354513688872e-02,-2.246553350876194857e-02,3.435546910660862083e-03,1.781146049499511719e+00
7.987165485505441920e-01,-1.018486425032310683e+00,7.917164459260663811e-01,1.483972986587031237e-02,6.435336981251750261e-04,7.725371496546300232e-02,1.818824172019958496e+00
5.554863814485521134e-01,-1.079347968673678437e+00,8.893982683437358094e-01,-4.354451075169978730e-02,-1.146662020630788981e-01,-3.385010570267159985e-02,1.838108301162719727e+00
8.354900841294965463e-01,-2.523154255354605469e-01,6.772703146522303097e-01,-1.319270923097245682e-02,-1.905201613776857372e-01,1.076823440350889102e-02,1.070516586303710938e+00
7.886807090413332499e-01,-9.890677770954821035e-01,7.689725068645474337e-01,-9.337711143100588945e-03,1.020948078839269786e-03,1.191279413409159068e-03,1.768052816390991211e+00
7.790507344246233590e-01,-1.007516652333040774e+00,7.801297545560382796e-01,-1.539671990110075142e-03,2.174646771913126431e-03,-1.942804907372344811e-03,1.787116289138793945e+00
5.788858212212422139e-01,-1.011431266596134027e+00,8.654128525195294852e-01,9.772748920978943654e-03,-6.951866879507525090e-03,-1.355558911116030996e-02,1.751530170440673828e+00
5.756745470746338356e-01,-1.017783609818762480e+00,8.914429615663128637e-01,9.231593277132804296e-03,-2.143411988408776823e-04,-2.230604213295706798e-03,1.772640109062194824e+00
6.725449366609935753e-01,-5.081533260327312229e-01,6.819740409412219373e-01,3.497078640152754408e-02,-2.098954631017990388e-02,-3.261306621565471936e-02,1.188886761665344238e+00
6.625514773772580579e-01,-9.995008710351619419e-01,8.001814436502771022e-01,-2.726206591619234620e-02,-2.253763055086065170e-02,-2.817700880622429210e-02,1.736733555793762207e+00
6.048590855724503834e-01,-1.800744843297847897e+00,1.328691119046456759e+00,1.870278923559338113e-01,-5.518414625733200074e-01,1.017348193092428021e-01,3.016901016235351562e+00
5.989243164521417251e-01,-1.031661188687735597e+00,8.644580716172279855e-01,-8.886009708266193186e-02,-1.026340648798397814e-01,-4.218804314805180145e-02,1.795249819755554199e+00
7.778123331724658973e-01,-1.008780480123939061e+00,7.847745755479814678e-01,-8.730068059983450072e-05,-5.562053885866122607e-03,7.162173611355121886e-03,1.790153026580810547e+00
8.470706733263427823e-01,-1.132381613942665011e+00,7.975733989968502025e-01,-1.658094441483855611e-02,-1.465431998798700231e-01,-1.429844600658051849e-02,1.971944928169250488e+00
1.048053653518012940e+00,-1.072109780607275908e+00,3.666094943807896023e-01,1.742861010706701214e-02,2.419900820096599625e-01,-1.627843098286893553e-02,1.921476006507873535e+00
5.448431406598132076e-01,-1.020678056197602768e+00,8.947376254734418222e-01,-6.470024414798884738e-02,-3.084631757442625119e-02,2.543585275128569349e-03,1.771011590957641602e+00
6.388841422339599507e-01,-5.181815743227380366e-01,6.819510532623143106e-01,5.594501976990696665e-03,1.766753618312251126e-02,-2.502118011145362201e-03,1.179633975028991699e+00
1.174650526561297648e+00,-5.811004005206741319e-01,4.693932144504403547e-01,-1.111436427759945195e-01,1.320724411114499244e-02,1.987070160600505897e-01,1.580451965332031250e+00
7.962002887444127319e-01,-9.906241348328294061e-01,6.240840222397900927e-01,-2.281978710934433330e-02,-1.851331720602967038e-02,-2.151206074474823482e-02,1.708450436592102051e+00
6.212476871197044614e-01,-8.278437815916342979e-01,8.567874970149197411e-01,2.376457209203280130e-01,-3.171732081680661564e-01,5.441901782502627655e-02,1.725332140922546387e+00
8.724417595154976279e-01,-9.935775151570094277e-01,5.193083126940207794e-01,-9.590175183217239385e-03,3.007700465120591304e-02,-2.737055130154732001e-03,1.717786312103271484e+00
8.266497359257910515e-01,-1.999885576070526083e+00,1.249538107168151502e+00,-3.034529287902652528e-01,-7.175602965789948939e-01,-1.039814340130022080e-01,3.349150896072387695e+00
6.856420057336850560e-01,-1.013576612769169882e+00,8.433572510070329598e-01,2.166650229714308512e-02,-6.096894332301834585e-02,-3.431088347527693622e-02,1.787820577621459961e+00
2.579324237176180423e-01,-1.646378321732419714e+00,1.651332887860086363e+00,4.038484189532939306e-01,2.373055980918716279e-01,-3.300063404543086137e-02,2.980422973632812500e+00
7.244567983281103851e-01,-7.734710626353998864e-01,7.254961753759479048e-01,6.984653316538706747e-02,6.983451604347958724e-03,5.875321694687278377e-03,1.503406524658203125e+00
8.258910891659174691e-01,-1.025841867748068736e+00,7.011554007570417468e-01,1.542765077341896017e-02,1.176230062096314706e-02,1.007089199648134384e-02,1.793022632598876953e+00
7.512887233693068545e-01,-5.477776820485222853e-01,7.066287467130946132e-01,-1.256642785020046782e-01,-1.630145898867180199e-02,5.092064768114145518e-02,1.299039006233215332e+00
7.706393620506315489e-01,-9.871489625700649029e-01,7.781282199448273929e-01,-8.697762961346618138e-03,8.893669304580270607e-03,-6.811182359686334363e-03,1.761716008186340332e+00
7.100329374387944759e-01,-1.020567170074782481e+00,8.074058825136170015e-01,6.869727467781318840e-03,3.357714126829597530e-03,1.915805439676553784e-02,1.781642079353332520e+00
4.390346805277165476e-01,-1.002068275510801465e+00,9.336115706153691463e-01,1.527257604987158207e-02,5.807918388647459289e-03,1.511971121719573631e-03,1.742104530334472656e+00
5.178941376153936016e-01,-9.837766149177529229e-01,8.578667889155808801e-01,-2.868008720078767029e-03,3.146761283457813474e-02,-5.502759176530320172e-03,1.698296070098876953e+00
9.101260947017673075e-01,-1.010274438246565376e+00,5.015504129274647171e-01,-7.981171759427981016e-03,5.853922925729662663e-02,-1.428813908552287876e-02,1.755370974540710449e+00
5.443467523314227119e-01,-1.430347916601125258e+00,1.337393633364681200e+00,3.267358401299065851e-01,4.529429674940633754e-01,-4.831898552903245159e-02,2.652755737304687500e+00
4.334796235535596232e-01,-1.207435182344182678e+00,1.118905043923288822e+00,-5.733662556430541013e-02,1.154419138738988285e-02,-1.530145470103882327e-02,2.073185682296752930e+00
7.074423925830377602e-01,-1.038709599349638246e+00,8.408544275844833660e-01,-1.560201720925627825e-02,1.075204791102000318e-02,1.091821384361273649e-02,1.816930890083312988e+00
9.505084986379073175e-01,-1.031993690632254213e+00,4.896988109850059501e-01,6.703608821249444974e-03,-3.271062737334074627e-02,-2.576771054488454643e-02,1.798455119132995605e+00
9.224318807213298665e-01,-5.105256378458429278e-01,7.531707873479106530e-01,6.394991079114811794e-02,-2.199770657732177115e-01,2.909041356835765507e-02,1.414019107818603516e+00
8.762863331487068530e-01,-1.005434991463577177e+00,5.198019889440798069e-01,-1.498710549762543101e-02,-4.065932139351517011e-02,-1.981385329610579199e-02,1.733194470405578613e+00
9.644236763735341000e-01,-1.020010695763763353e+00,4.564058822848232611e-01,-1.700208208516954325e-02,5.780136540232989895e-02,2.195908867015688298e-02,1.788930058479309082e+00
1.066938632874739890e+00,-1.051171507398547700e+00,4.005222455351225008e-01,-6.325105948082433878e-03,-1.218287573266355756e-02,-1.647399825095192602e-02,1.876256227493286133e+00
1.133818317792492314e+00,-1.155186693141762699e+00,2.597051746216284540e-01,1.579545200371795799e-02,-7.887741796354375001e-02,-5.232706709130391376e-02,2.007584571838378906e+00
7.677309779593437522e-01,-8.874015931538217217e-01,7.436200431356323470e-01,2.638058452545011257e-02,1.039842731351142691e-02,4.764870338776819141e-03,1.643964290618896484e+00
2.595801260578560754e-01,-2.070843206512291257e+00,1.838415991216106216e+00,2.564310430641232597e-02,-1.853775274743925672e-01,4.941377299105395235e-03,3.421708822250366211e+00
5.147615425823240942e-01,-9.808643443323155076e-01,8.602479221100058915e-01,-2.797990071329321121e-03,-2.192761959684298712e-02,8.410169360972014757e-03,1.695480465888977051e+00
9.872284297256415098e-01,-1.044512712119269660e+00,3.312908264720016427e-01,-6.609518041028910294e-03,1.181636352797588996e-01,2.597666277638481513e-02,1.808196425437927246e+00
7.048904925859302839e-01,-1.621581538122244259e-01,6.206920693404688327e-01,2.804948815619455124e-02,1.012585737897511370e-02,9.366670961421671993e-03,8.299335837364196777e-01
5.880353063532473001e-01,-1.008854293576499472e+00,8.627960326388823820e-01,-6.832246082120888367e-03,-5.905564873438058290e-03,1.154285193159743268e-02,1.750701785087585449e+00
6.708311632614771813e-01,-4.847083589863834252e-01,6.583009832630281055e-01,-5.211094535992884941e-02,-6.515613167882159523e-03,3.966840077039603812e-02,1.154965043067932129e+00
4.634267203348733100e-01,-9.868486375991949444e-01,9.090020115862416095e-01,-2.309079844564700633e-03,1.334676982762385972e-02,3.998539841071328642e-03,1.717160820960998535e+00
6.442591645300874692e-01,-1.025590632453151185e+00,8.380518459867831726e-01,-2.593028106457020282e-02,1.076690758873442497e-02,1.614071158881137322e-02,1.775585889816284180e+00
6.775264264540888925e-01,-1.008465200314206056e+00,8.451983429495493194e-01,-5.186298093428273748e-02,-1.858417138229935539e-02,9.832431425039794143e-03,1.778417944908142090e+00
7.903209308988249360e-01,-9.970224638964054753e-01,6.587614874337747173e-01,1.723188569341754794e-02,-1.317543784317013952e-02,-1.713322411450439616e-04,1.725738644599914551e+00
5.793840331984809744e-01,-1.018955482951719782e+00,9.023119599110769329e-01,1.281591000273738477e-02,3.431586814247768874e-02,7.100261854346705433e-03,1.783058285713195801e+00
4.701648352047359536e-01,-1.008828718369865207e+00,9.379423141727201152e-01,9.200754368271472569e-03,3.354338602384632911e-02,-5.241925829125749538e-03,1.761189818382263184e+00
1.139572020754748616e+00,-1.199662448204404930e+00,2.923117290498367105e-01,-9.846386424836915674e-02,-3.362339784680477145e-02,-3.365154525861007578e-02,2.060049057006835938e+00
6.384292953832644280e-01,-9.799819819357767914e-01,7.483262424319329087e-01,5.448406558419469341e-04,3.295026705689042823e-02,-5.927625225805416634e-03,1.677067160606384277e+00
6.153882726917867529e-01,-9.798929967539011798e-01,7.918362433339983797e-01,6.293487819638622117e-04,2.142328116746263986e-02,-1.020752671488896549e-02,1.690926074981689453e+00
7.804376515726560992e-01,-1.000126921577808359e+00,7.780238913977080006e-01,3.880099533414709673e-03,4.204580950506717034e-03,-8.009925000444723456e-04,1.779386997222900391e+00
6.207992801740710442e-01,-3.069066438515503092e-01,6.334462032822715249e-01,3.601123880436311875e-04,3.847787297064784746e-03,3.190419972444446910e-03,9.341339468955993652e-01
7.405078924219573588e-01,-1.782655324192144342e+00,1.187761421866023515e+00,2.181997675572797668e-01,7.002672265721389122e-01,-1.167754139929491342e-01,3.057735681533813477e+00
7.966378876379184293e-01,-9.839108530322637769e-01,5.943710864220649315e-01,7.432924661645134989e-03,2.691475340588249388e-02,2.060151716935377034e-03,1.689222097396850586e+00
6.524207255717178189e-01,-4.419866635821156353e-01,6.464076662704627552e-01,3.682514143978444371e-02,1.174378774600717650e-02,3.040189059410427358e-02,1.094731807708740234e+00
5.823634360927499865e-01,-9.901920032963977825e-01,7.981137466016998694e-01,-1.458920235304666212e-02,5.260851369664269750e-02,2.036798004202305945e-02,1.693795800209045410e+00
6.988315183896434135e-01,-4.367524752729943227e-01,7.293263706148633840e-01,8.832154385636574803e-03,-1.307366029590743394e-03,1.095664917171150776e-01,1.166774988174438477e+00
6.322002865228735224e-01,-1.857168166008962285e-01,6.196958385931448099e-01,2.799491952623748420e-02,6.865059168752584567e-03,6.178458875573291514e-02,8.202814459800720215e-01
7.942897802029553755e-01,-1.025687065605415782e+00,7.855257787477289977e-01,2.877522116885997822e-03,6.669500642483534121e-04,-1.072894332812365358e-03,1.815618872642517090e+00
1.611579009761996417e+00,-1.985030144202542868e+00,5.138963175843286324e-01,1.088128468837280816e-01,5.703997832383145283e-01,-2.615354727693121051e-01,3.377774477005004883e+00
4.645090948903290440e-01,-1.852543088354819290e+00,1.312215643163614720e+00,-3.311631494423651623e-02,6.209932435771214898e-01,4.917708407695834533e-02,3.036274194717407227e+00
9.271076424346899048e-01,-1.000235870455352005e+00,4.954611223200994230e-01,-5.154454147254178623e-03,3.942342359062501328e-02,-7.085557138547380306e-03,1.753263711929321289e+00
1.022725806137420701e+00,-1.148992297118292871e+00,3.633956221858966051e-01,-2.584309338316180538e-03,1.077266160795038452e-01,2.910725867327405847e-02,1.938188195228576660e+00
7.858203453290566465e-01,-9.821400302835312512e-01,7.669454824757010458e-01,8.029907704952298983e-03,-1.683285699342744121e-02,-3.546260841511595513e-03,1.758906245231628418e+00
6.991463260172168237e-01,-4.276342768618857093e-02,7.798901397864974605e-01,4.165590596140120172e-02,7.298213789330712520e-02,-8.737582764315629524e-02,8.129838109016418457e-01
7.826242231593782961e-01,-1.029323048967184517e+00,7.915608149458359666e-01,-3.741134288713054458e-03,-2.533232324133829431e-03,9.217750812761894494e-04,1.816449642181396484e+00
7.822488486783080175e-01,-1.021070176030972609e+00,7.712930472792293157e-01,-8.382294559463297073e-03,-6.122938632253308380e-03,2.155976606456540354e-03,1.797959923744201660e+00
8.150866273686154795e-01,-1.021102005721955308e+00,7.212428507355462814e-01,7.161996093080015384e-03,-2.180456947816718227e-03,1.936998861875392081e-02,1.791472673416137695e+00
7.942367248853879902e-01,-1.021292133114441336e+00,7.794552468830006076e-01,2.935560020194649591e-03,7.935837176545615856e-04,6.395663525181391593e-05,1.808191061019897461e+00
1.056289540051443376e+00,-4.378910691886466755e-01,6.547059838353079808e-01,1.510160504471886982e-03,-1.658812360449695433e-01,-1.748751641931164669e-01,1.402892470359802246e+00
7.590842037302369949e-01,-9.007889435567713043e-01,7.498690592053154358e-01,6.280175807229925952e-03,-6.071463925862653072e-03,-4.238252588013325522e-02,1.656980872154235840e+00
6.337332617255515554e-01,-4.581441529250728784e-01,6.681518100429078011e-01,9.403829724499682846e-05,-3.700101964347671073e-03,-3.708416201424954159e-04,1.109505891799926758e+00
9.278148924023024158e-01,-9.974992325518778902e-01,4.696518372466966795e-01,-2.220044825594564078e-03,-3.142574272210564568e-02,-3.219144725158727075e-03,1.742885112762451172e+00
6.929149148179492013e-01,-2.866436702172745488e-01,6.564956474021085286e-01,-8.115352922147350823e-02,-6.051157087156175396e-02,-7.156487387349011464e-02,9.855424165725708008e-01
8.430510728640634444e-01,-9.980712238354889632e-01,5.697018488613492249e-01,1.208182937730003723e-02,-2.225118472346678672e-02,-2.668341683539948890e-03,1.721373438835144043e+00
8.052788396685346406e-01,-7.065626237675162180e-01,9.414077209295765858e-01,-5.983091619813470097e-02,-2.503033716804581865e-01,-8.106856219699037913e-02,1.651790499687194824e+00
4.928392063342294516e-01,-1.013547990149027189e+00,8.957670455433567325e-01,-4.217327247550704122e-02,6.344315785807784838e-03,7.958361570764753770e-03,1.744753599166870117e+00
7.356275305349356808e-01,-8.479878322621663411e-01,7.679672138406206106e-01,1.037923249300347177e-02,-1.569076719003529435e-02,1.161294141307948891e-02,1.600488543510437012e+00
7.122436316067758399e-01,-6.690427982648218252e-01,6.939035239522526322e-01,2.668038773712682211e-03,2.755787704611876998e-02,-1.433986560949798489e-03,1.373048186302185059e+00
6.138848526820970264e-01,-3.034471070066916965e-01,6.252761403062192525e-01,-6.245205654605550522e-03,-4.423495515820470916e-03,1.047225892494936831e-03,9.231773018836975098e-01
6.412542250877965033e-01,-3.496470548593406669e-01,6.515362254347425441e-01,-4.187808563780226478e-02,4.969921751483453130e-03,-4.907923379800930436e-02,1.002367854118347168e+00
6.796529831344921835e-01,-6.571627296420892161e-01,7.776724134566920243e-01,-9.493122715179294624e-02,-3.035469126061369084e-03,-1.546790095741383819e-01,1.423572301864624023e+00
1.120871783578499814e+00,-1.586562779016055469e+00,6.184881844709404497e-01,2.996425896918803594e-02,-6.041426511599274907e-01,-7.511261006567504506e-02,2.708690643310546875e+00
5.995047135270854533e-01,-9.853352581918849440e-01,7.932586530944717440e-01,1.235377441242904890e-02,-3.115682981360689413e-02,1.428060930566779803e-02,1.691244840621948242e+00
7.794702056564621895e-01,-1.018543839340922741e+00,7.908310830092284416e-01,-1.010016817043072647e-02,1.500383328407351585e-02,-3.973270655288466818e-03,1.804006457328796387e+00
8.433547116016792966e-01,-1.001948875629767421e+00,6.132367587693926536e-01,1.793806085723529536e-02,1.798372928570915116e-02,1.050651041546199482e-02,1.742334365844726562e+00
5.312510304408387674e-01,-1.016241156516568322e+00,8.784882845985431121e-01,-3.338624647261601713e-02,-3.654996200281161733e-02,-1.069289992848409566e-02,1.749384880065917969e+00
6.634289905266776977e-01,-4.526313405632336750e-01,6.623858797253816544e-01,3.342710035489428883e-02,-2.210542322793899311e-02,-6.189782808904889522e-02,1.122826695442199707e+00
7.708039708586519323e-01,-9.741038052381121304e-01,7.713284163740177224e-01,2.638309140190178616e-03,-9.578544198734410473e-03,-7.112408915676903627e-04,1.745255351066589355e+00
6.828656618679314061e-01,-4.788269862543258482e-01,6.537945633239667931e-01,1.064124548321736599e-03,-1.623348228703729718e-02,-3.144796978887291587e-03,1.147792220115661621e+00
7.366771379220344862e-01,-3.975461003188817677e-01,1.045090778618614991e+00,-4.061056727849278957e-04,1.596159678267100590e-01,4.176139066243325648e-02,1.346497535705566406e+00
6.535393333643442215e-01,-3.874044160827490590e-01,6.632882899994814174e-01,3.592579493492619597e-02,-2.132948105889238832e-02,-5.014995496449251716e-02,1.051945328712463379e+00
6.772504734460759179e-01,-5.718746808155699135e-01,6.873656769642091380e-01,3.265286057266510167e-02,-2.431662040211556366e-02,6.481433480930610426e-03,1.256244301795959473e+00
9.846346703108714848e-01,-3.838706890970945418e-01,7.901116475447631515e-01,-6.413087300296337057e-02,-1.365647875901613850e-01,-2.260097755296513328e-02,1.309297800064086914e+00
7.650008741408278468e-01,-8.283789668482199886e-01,7.220951997122415644e-01,3.157058544190957661e-02,-7.396937683888622078e-03,1.018005245132864132e-02,1.573467612266540527e+00
8.906389350760106627e-01,-9.741332517994557572e-01,7.083219356517406196e-01,1.391543730885756898e-02,2.680168276641115704e-02,9.330147111808183595e-04,1.781396508216857910e+00
5.384520306306875836e-01,-1.108296028455322491e+00,8.612228765672235165e-01,-6.984660321641916747e-02,1.774783491086088238e-01,5.081288177612758306e-02,1.861279010772705078e+00
6.864858353263594282e-01,-6.753758562554500466e-01,7.317496063242007187e-01,5.562485222505592769e-03,1.522214192978416439e-02,-5.348096288590953318e-02,1.388426303863525391e+00
6.463002473247452251e-01,-1.023137008352323019e+00,8.541132932135928613e-01,-1.002011137023323811e-02,3.988777193662588344e-03,-1.114043932249605268e-02,1.782655119895935059e+00
7.792509807626719631e-01,-1.004336352074227223e+00,7.816514671015992732e-01,5.703356676499148070e-03,-1.572311461608780214e-02,-5.308703431360394139e-03,1.785047531127929688e+00
6.220418462047634378e-01,-1.031459936201440275e+00,8.644489110531105025e-01,3.968096485635162762e-02,2.363649720893894711e-03,6.250759261019479297e-03,1.788437128067016602e+00
6.213321245800976778e-01,-1.003409547766117571e+00,8.330246638904487133e-01,-2.562893915652498383e-03,-1.280305678222335222e-02,1.830310476533044892e-02,1.740707159042358398e+00
7.006896328318119593e-01,-1.021003345909822668e+00,8.102496823426756922e-01,-6.958389332432618479e-03,-2.635430202051244897e-03,1.740276974744020544e-02,1.779307007789611816e+00
7.640267606869652894e-01,-8.812113419505323009e-01,7.424846415999822868e-01,8.043433789250752433e-03,2.998805605331044191e-02,6.129380103915886557e-03,1.635492324829101562e+00
6.646934469733463136e-01,-4.168958801861601948e-01,6.460946509157659001e-01,-1.448481713362700929e-01,-3.736973862392485753e-04,9.321439855572957039e-03,1.101485013961791992e+00
9.378191038511739519e-01,-1.016964924414132776e+00,4.219894211137104056e-01,-4.203649371450611863e-03,1.227418692581851850e-02,2.695845421715436369e-02,1.755451679229736328e+00
9.776113832226162037e-01,-1.032624650639945685e+00,4.224496621175757305e-01,1.218286430569304885e-03,-2.677615632796009199e-02,-8.453936743927987357e-03,1.798782110214233398e+00
9.339624360015683635e-01,-1.043626302797781680e+00,4.893446271996975683e-01,-1.540881274564195359e-02,1.202607555819319718e-01,3.990000662885507393e-03,1.809259295463562012e+00
1.101716617968811818e+00,-1.240260249686148120e+00,4.469867290097946921e-01,8.229013295558938734e-03,2.166009768827487081e-01,4.573276443631865869e-03,2.126306295394897461e+00
1.093100148117404746e+00,-1.027819873208847490e+00,2.127703041707403042e-01,-8.771863357444706355e-02,2.563837655501706170e-01,2.269609517085988681e-01,1.944476485252380371e+00
5.336339694590314098e-01,-9.853288415278973478e-01,8.559055410639775374e-01,-1.852805218658627783e-03,2.605613490363726734e-02,-6.821593859363666960e-03,1.703764081001281738e+00
4.416547578808473484e-01,-9.850799181481875166e-01,9.222453653282509656e-01,-6.091247805347871445e-04,1.601519431953455849e-02,6.234339697384789873e-03,1.718459129333496094e+00
6.238131990105248992e-01,-3.467710486814400417e-01,6.485897617577971452e-01,1.898087328617462793e-03,-6.413478175766952442e-03,-6.205151926677595492e-02,9.891313314437866211e-01
1.006040106916979537e+00,-1.035390367520819144e+00,4.118076865596028702e-01,4.214613531932556029e-03,-7.175061523651897477e-02,-5.362670617729905359e-03,1.822923541069030762e+00
9.572946357532665651e-01,-1.030385621351081804e+00,3.691112160146083343e-01,9.372174852450471799e-03,8.060415335060799880e-02,-2.443029959086574082e-02,1.774614572525024414e+00
1.048136790934494744e+00,-1.180876036873590218e+00,3.349937436380179268e-01,4.536288623678194631e-02,4.352346785276717256e-01,-3.087654463858387904e-02,2.113004446029663086e+00
7.857618528041074857e-01,-1.037986325288325018e+00,7.820591405689468756e-01,-1.818808290933205361e-03,1.936884191868125816e-03,-2.574847929652082212e-03,1.821910858154296875e+00
6.199587360331093588e-01,-2.910943325543807747e-01,6.155413998212906357e-01,4.182671058748478415e-04,5.055917933858015273e-03,6.786834085803925757e-05,9.088949561119079590e-01
7.766940102789257061e-01,-1.024652363720589765e+00,7.842122207652661992e-01,-7.390680771433576907e-03,2.561313336329058745e-03,-7.245042431864906832e-03,1.805211663246154785e+00
7.074810305617470485e-01,-8.131197313187934483e-01,7.679949294803223303e-01,4.215523325371300749e-03,1.832922544300748594e-02,9.429215046743029058e-03,1.552170753479003906e+00
7.572885479652131657e-01,-9.316974894435234855e-01,7.805419367706984968e-01,4.136221415807526253e-03,1.802640872325166066e-02,-2.618028088713283963e-02,1.701637864112854004e+00
6.250583670510084788e-01,-3.333925409632206294e-01,6.271745856743757841e-01,-2.713211124582344536e-02,-5.130820228684224681e-03,3.925380149927625126e-04,9.607022404670715332e-01
8.076405941587184723e-01,-1.005264249490273265e+00,6.517738829916470689e-01,-9.288586480822015601e-03,2.268670138875605174e-02,-7.635422083845804647e-03,1.740782737731933594e+00
6.697607400540275258e-01,-5.254098365395046821e-01,7.157425687456091534e-01,2.970892661189990583e-02,-1.237439662076043195e-02,-1.503680317150241363e-01,1.247574448585510254e+00
6.580336604517351695e-01,-3.571347081823629810e-01,6.461244514703379238e-01,8.232975055486133065e-02,4.231877471870590553e-03,4.211214895150004918e-03,1.019343018531799316e+00
9.910416171482505643e-01,-1.405011323228504416e-01,1.046141312496334130e+00,-2.363437706575802211e-02,-4.434621497191417600e-02,-5.353284530775587191e-02,1.167024135589599609e+00
7.369116260672757823e-01,-7.370998853985377686e-01,7.408029149288465343e-01,1.447645803406343856e-01,1.494650481731845315e-03,5.692558642691405296e-02,1.500353097915649414e+00
7.819121753462732194e-01,-1.019647540713600198e-01,6.249372259856550427e-01,7.839892951113390518e-02,9.147206407294318498e-02,-4.058370843342930245e-02,8.459401726722717285e-01
9.767556187545356483e-01,-4.574720028812768735e-01,6.691001584107143518e-01,6.189712865875474090e-02,2.735343791585551632e-01,-1.574924680864039916e-01,1.421541929244995117e+00
6.265244525839350764e-01,-2.679304226993668436e-01,6.995383825019281243e-01,-4.426724820579324045e-03,4.761176475856768175e-02,1.670503652084922436e-02,9.372218847274780273e-01
7.735791976926111868e-01,-1.027960577467006198e+00,7.874741785223623447e-01,8.130124584150751066e-03,-1.107778869894110322e-03,4.288183484194259439e-03,1.808598399162292480e+00
4.685709614472388651e-01,-1.009447523433542937e+00,9.241627351568137971e-01,-2.611134738607910968e-02,7.195691116515975927e-02,1.264377652313454156e-02,1.755999445915222168e+00
7.456314518796157698e-01,-7.303045953313200833e-01,6.961142411952367937e-01,5.756525899697532977e-02,6.667120505200917896e-03,2.018276585658346570e-02,1.455696225166320801e+00
6.935344312873421568e-01,-1.022575753276210531e+00,8.242279270735990426e-01,6.347417360385317238e-03,5.215160311471797941e-03,1.594412246133171396e-02,1.785319209098815918e+00
6.259953599811668434e-01,-3.603160799425701999e-01,6.495229741388592881e-01,-2.936401644313898357e-02,-8.247519367342377034e-03,-6.525737179241798691e-02,1.006049513816833496e+00
6.338869066540999686e-01,-3.933624736662494348e-01,6.324032204157252757e-01,1.118103936533340094e-03,4.662866100409971890e-03,-6.915995108997862253e-03,1.026611804962158203e+00
7.335914079740921689e-01,-8.381891468619222518e-01,7.659409901083353844e-01,-5.943381853954068234e-03,1.888685948227745992e-02,-1.099502296583131609e-02,1.588686823844909668e+00
7.276974834649033719e-01,-8.060421741373015037e-01,7.558938719823914409e-01,-2.152827563918380954e-02,2.138415920452471641e-02,3.496362897646529844e-03,1.548934221267700195e+00
7.418234006365309607e-01,-7.453872938113703661e-01,7.551271715385545757e-01,5.697414140078286421e-02,-3.009347528927753049e-03,1.242271748300602559e-02,1.497326493263244629e+00
7.286986609071859355e-01,-8.199974640082822175e-01,7.628420747046220640e-01,3.880179089421142286e-02,2.391282768289017258e-02,5.390809903773077089e-02,1.570813059806823730e+00
7.702106130252571736e-01,-8.492748248394055288e-01,7.556122915695495657e-01,8.015685656888701938e-02,-1.341765576523623084e-02,4.258991469219562676e-02,1.620049834251403809e+00
5.997261983368613603e-01,-9.829119240773132038e-01,7.987249454289776507e-01,-4.779684959229206238e-04,2.166529801701838273e-02,9.542000601518267622e-03,1.691439867019653320e+00
6.594220945096238573e-01,-1.155173061420299740e+00,7.448032721598468742e-01,-4.425065011366731416e-02,2.248334625087830552e-01,3.236757095315883487e-02,1.901485085487365723e+00
8.059042012847261738e-01,-1.238015311925154238e+00,8.716680888135301952e-01,-3.267606939147408435e-02,2.364808575136381763e-01,-5.536534697203924354e-02,2.120499134063720703e+00
3.004726025394491296e-01,-8.347656426098293281e-01,1.137318069089257033e+00,1.902914299092961503e-01,2.778762511360896581e-01,3.603782925295638540e-02,1.811979413032531738e+00
7.290410662933767272e-01,-6.313226435023753247e-01,6.950217043222337576e-01,1.153154526662161228e-01,3.555467604626012107e-03,2.387312774400014367e-02,1.359083771705627441e+00
1.274124499512460096e+00,-1.021809910820699052e+00,4.455309461115756764e-01,1.193401399348661546e-01,2.855862208344856490e-01,-2.776330355549851414e-01,2.138721704483032227e+00
6.477142810700615705e-01,-3.674607682913903495e-01,6.706606988214159903e-01,9.671541686910374580e-02,6.950088102490840566e-03,9.953749260454590464e-02,1.054671168327331543e+00
7.707877107324679899e-01,-9.819240726384004248e-01,7.883118712696272068e-01,2.311999061112948381e-02,2.573220473423033783e-02,5.065997765995944313e-02,1.764740705490112305e+00
6.916235043178955433e-01,-2.783562032689860244e-01,6.689592075648986835e-01,-7.143353752428820147e-02,-1.615570353038866744e-02,-1.181605927519246979e-01,9.886189699172973633e-01
7.941464682224522731e-01,-1.009601363552599107e+00,7.778068962158337651e-01,4.481041524090342149e-03,-3.908432099795658920e-04,-1.279751391845101972e-04,1.795650720596313477e+00
7.508708669527321966e-01,-1.068030206921644076e+00,6.124519825164752573e-01,-8.463933012208373075e-02,4.183681906051872623e-01,-4.214522702882457506e-02,1.904653906822204590e+00
7.905649374171639376e-01,-9.833577381203385537e-01,6.209667133858686183e-01,-7.811838240128794221e-03,2.298805171010520274e-02,-5.089286358737924940e-04,1.696018934249877930e+00
8.007867970610963448e-01,-1.007950897470569762e-01,8.459062503296670421e-01,-5.175329454130392359e-02,-2.878255837153657071e-01,-1.534308066429357006e-02,1.054910778999328613e+00
6.148825400557513809e-01,-2.584285749677529553e-01,6.190189646902272136e-01,1.214272399962235387e-03,-7.386233413023487668e-03,3.227422502288716799e-02,8.772655129432678223e-01
8.022492475837869064e-01,-9.746730945862519535e-01,7.625283162730482900e-01,3.818811512741776548e-02,-2.051082379150143218e-03,-2.668591166653987916e-04,1.758646488189697266e+00
8.301546139890929599e-01,-1.029261591802426157e+00,6.974646284025338705e-01,-8.906132122755254510e-03,5.950342026965597247e-03,-1.709990918724977466e-02,1.797089576721191406e+00
7.398763752045220965e-01,-8.232671269569770134e-01,7.851137919674254784e-01,5.967243832183784236e-02,3.320990298275311448e-02,-2.336556978897146308e-01,1.641326546669006348e+00
7.568324224954259272e-01,-8.749055825475959836e-01,7.700919330903832627e-01,1.578899049861164083e-02,-1.497058038620850684e-02,-3.884032111875513477e-02,1.640221595764160156e+00
7.908061622751344499e-01,-1.004890359587427895e+00,6.692355922044477268e-01,-1.830662229610477421e-02,1.425399584824775176e-02,-1.841326266274640692e-03,1.738570332527160645e+00
7.892733637497211241e-01,-1.034744272308444124e+00,7.852991256768357964e-01,-4.855897017658651095e-03,-1.230858114782485031e-02,5.798468880426907793e-03,1.822205543518066406e+00
7.882338163393733943e-01,-1.026089162856166359e+00,7.826180942621161485e-01,-2.117920034836711339e-03,-3.452283378883157488e-03,1.682872447283826484e-03,1.811537623405456543e+00
6.349356170324755855e-01,-2.917652739993027988e-01,6.414626448587259500e-01,-6.433052981758252686e-02,-1.290210691198113296e-02,1.783898981937802330e-02,9.374086856842041016e-01
6.889827907535461815e-01,-6.633149003881683159e-02,6.416240403719908336e-01,-9.945790262398765402e-02,-4.870879762922101369e-02,-4.394821511707947687e-02,7.612879872322082520e-01
9.433483531646168485e-01,-3.857335482841894869e-01,5.612837712664122680e-01,-3.984939724699672337e-02,-1.047043744057371273e-01,-1.620654279583207125e-01,1.233322978019714355e+00
7.017674122628239086e-01,-1.191996322633308014e-01,6.959534006011716123e-01,2.581769832289624797e-02,7.501300539730196976e-03,5.477453650739817076e-02,8.248738050460815430e-01
1.143238231687571771e+00,5.480533476356164169e-02,9.955237881748965068e-01,1.119477447807058351e-01,9.307333706417394992e-02,1.200627247475084813e-01,1.073572754859924316e+00
1.297888513860428583e+00,-9.918984356695532689e-01,4.065059432009998641e-01,-1.802315831927644996e-02,1.415185409551527329e-01,-2.842248441623592692e-01,2.073648691177368164e+00
7.417566540295323918e-01,9.039665564958720978e-02,1.142815202744012160e+00,1.884312986963793124e-02,-7.440480720006883986e-02,8.189447904164804748e-04,9.295303821563720703e-01
6.574239495195803862e-01,-4.497164308824463941e-02,7.393734176653112833e-01,-5.392314172176063819e-02,1.929106050588717119e-02,-1.199045212666302040e-01,7.814134955406188965e-01
7.456472736484566211e-01,-9.670688828833942097e-01,7.839057197548090494e-01,-9.301294930230085550e-03,-6.244953654077150390e-02,3.185149331729466432e-02,1.736487627029418945e+00
1.076715489874904730e+00,-4.106819225993529887e-02,6.781365977959497027e-01,4.788631828242727664e-03,3.215366956710944552e-02,1.807360635209677435e-02,9.833264350891113281e-01
6.660967679793483587e-01,-1.549715552869156854e+00,1.202472358568434263e+00,-3.037061923760581705e-01,-5.255559968211127586e-01,-1.615454046023698798e-01,2.751301765441894531e+00
5.218005416645488115e-01,-1.041654736157087147e+00,9.486532075045122081e-01,9.510684347682428139e-03,5.366091701740499653e-02,-5.702027338787931873e-03,1.817407011985778809e+00
7.774703433276461961e-01,-9.577387809497340809e-01,7.713419075795890922e-01,8.826078737576795868e-03,2.428037007379980905e-02,8.960642057463054713e-03,1.732800483703613281e+00
8.056226300556239561e-01,-1.026054711148816967e+00,7.327910018067006481e-01,1.594161054301779928e-02,-4.034083793317058686e-03,1.448871951336193169e-02,1.796770215034484863e+00
7.704961821002805911e-01,-1.031000054993127302e+00,7.774100088786953799e-01,-9.538298598449581516e-04,3.313963649445263258e-03,1.053624506982089176e-02,1.805065274238586426e+00
7.730376082502319335e-01,-1.031447261986331743e+00,7.898729332324663233e-01,-3.873985014227738274e-03,1.055330809485472950e-03,1.171809068209610227e-02,1.813088059425354004e+00
7.874489985931713010e-01,-1.024022502983770178e+00,7.325006951622984319e-01,1.823002642512763435e-02,-3.949101606672374663e-03,-3.415958672352939571e-03,1.784934163093566895e+00
7.788615164998407003e-01,-1.019278763969749368e+00,7.946969775761134613e-01,5.379865079873158602e-03,1.227522050375936917e-02,5.569026067892418608e-03,1.806285023689270020e+00
6.432642594540196601e-01,-2.690288373466194205e-01,6.280491497851412586e-01,-3.781381155271905381e-02,-1.537941382165236917e-02,1.189945541211099612e-02,9.077739715576171875e-01
6.216616617722729998e-01,-2.498312133237132748e-01,6.183553119857129188e-01,-6.380942487351804436e-03,-5.860933368079535195e-03,3.044009685377775318e-02,8.715700507164001465e-01
5.825971427507613543e-01,-8.736845432179295434e-01,6.221870801857927180e-01,-1.250772381791687982e-01,-3.995274009163757856e-01,-6.895630810998241988e-02,1.649255037307739258e+00
7.421934722266170237e-01,-9.955784768612199187e-01,7.003363245753602140e-01,1.107118039662763342e-02,-9.577102539588207980e-03,5.519627037208256698e-04,1.717413425445556641e+00
8.591761164473126211e-01,-1.046979711080882502e+00,8.463064472610848377e-01,-1.556511764543565546e-01,-4.186025284427463689e-01,-1.282364720320270934e-01,2.063192605972290039e+00
7.865852736299201453e-01,-1.026273303528902003e+00,7.862532468547160924e-01,2.272185816806399777e-03,-1.936400099983191445e-03,1.389864140422230471e-03,1.812701582908630371e+00
1.158153504982238013e+00,-4.941066111221595336e-01,5.611917064780739262e-01,3.497793860996840920e-02,-1.036207611913563531e-01,6.633704302878924708e-02,1.465972304344177246e+00
7.455911908073621364e-01,-7.440857547417084605e-01,6.772443724449883629e-01,-9.725691792517787357e-03,-3.031869316653340585e-02,-6.119305445058528803e-02,1.461598157882690430e+00
6.910527347807566834e-01,-8.223745357546078383e-01,7.880761848463145869e-01,-8.463475868659806056e-02,-3.869774299686561808e-02,1.282345740932447353e-02,1.572637438774108887e+00
6.224986964756633601e-01,-1.038162310967051916e+00,8.750189618075794318e-01,3.304452395964315847e-03,7.046317328536649133e-03,-7.787441552713043717e-03,1.800354361534118652e+00
7.697643363949044915e-01,-1.031128790311058641e+00,7.792461339855504265e-01,-4.461074356401181665e-05,1.396194632749298177e-03,6.821631099481576498e-03,1.805693030357360840e+00
7.394687574077465353e-01,-8.621769937775494164e-01,7.667378410888521234e-01,-2.596751500848761343e-02,1.472880904393517910e-02,-2.664383826291529672e-02,1.616938948631286621e+00
7.291183660949043244e-01,-2.567713459874755855e-01,6.250826167540399769e-01,-6.297337964920635134e-02,-4.418267684701533346e-03,8.564401185520884377e-03,9.446744322776794434e-01
6.312719268268095485e-01,-3.751826578836546799e-01,6.612138754438385835e-01,-1.333961782164793178e-02,-6.460772163022847001e-03,6.854829322335490027e-02,1.028950095176696777e+00
4.479443729300357502e-01,-5.965264802499428143e-01,8.519473576808455073e-01,-1.435945856562120537e-01,-1.529802901691931227e-01,2.548933040860039065e-02,1.345408201217651367e+00
6.965090582513460138e-01,-1.862058295926882212e-01,6.083350710182621190e-01,-2.875086046524204242e-02,-6.761856740805984034e-02,8.559250343970832564e-02,8.644666671752929688e-01
3.808154034666240140e-01,-7.522533737492601569e-01,9.216393724155349521e-01,-7.044863089102408604e-02,-1.182763093329264881e-01,4.455086401984554439e-02,1.500645637512207031e+00
5.542334231072152395e-01,-9.904622477936110281e-01,8.354259827047398890e-01,-5.196690710708816788e-03,-6.762029038248330848e-02,1.853439409176476163e-02,1.707143783569335938e+00
1.159105050049265451e+00,-5.229464968814381276e-01,5.672501945058321393e-01,9.223598870712393372e-02,-7.806828101064089420e-03,-1.654525350585846488e-01,1.513898253440856934e+00
7.906113593686395769e-01,-1.018488030002802081e+00,6.882508187107543307e-01,2.445942968677347618e-02,-9.486096934968067662e-03,2.620442287009329407e-02,1.761324167251586914e+00
2.353994652437301494e-01,-1.171684555182176402e+00,1.384882037595118964e+00,-3.948471880711244136e-02,-1.637228715220748754e-01,-5.344873392259333333e-02,2.238811492919921875e+00
6.957093317528724175e-01,-6.807127007576647681e-01,7.139117176640925599e-01,-3.746128453100736055e-02,-1.949114696003729705e-02,-7.051415954906498605e-03,1.387595772743225098e+00
2.297030077368810153e-01,-6.537307560294911557e-01,1.104598867565030229e+00,-2.417094464724855452e-01,-6.240138193482362705e-02,-1.615963773268599968e-01,1.607514500617980957e+00
3.661347137250118289e-01,-1.421699510299115010e+00,1.449159243466554337e+00,-2.870058029481443729e-01,-4.127732790015206099e-01,-2.514504243307948972e-01,2.693233251571655273e+00
4.871762788128133348e-01,-6.934874380330341426e-01,7.367020513096823597e-01,-1.355852127844023314e-01,-2.647918019279618673e-01,-1.261277422453800090e-01,1.436681866645812988e+00
1.408889033850255990e+00,-1.388859718474819260e+00,4.477495110148995705e-01,-4.336980149777656252e-02,4.645503726187106830e-01,2.625294818301349697e-01,2.630967378616333008e+00
1.132510597967150812e+00,-4.422616983587405182e-01,6.259245313318400061e-01,-1.234659643838143944e-01,4.103470305272442081e-02,7.779697502700760881e-02,1.416940212249755859e+00
6.821454068370467194e-01,-9.811047426859992315e-01,7.376326540804082343e-01,-1.637078994076313489e-04,-1.441929362281765478e-02,5.912838221461149020e-03,1.691891789436340332e+00
7.991320076494834446e-01,-1.018067199334376838e+00,7.793834329301756458e-01,-1.893527282424178199e-02,1.761075977758140912e-02,1.008143547680670840e-02,1.808045029640197754e+00
9.802765560461947913e-01,-4.894752625163178994e-02,6.553803671437878897e-01,3.207562813120417092e-03,9.300176934123835504e-02,2.989874207700600819e-02,9.268923401832580566e-01
7.703314367141921304e-01,-1.030192078012431400e+00,7.940446412362500705e-01,-5.391599319754420382e-03,-4.245875120831015415e-04,4.845245120846750769e-03,1.812540054321289062e+00
6.737001453178400601e-01,-1.022862109771589312e+00,8.492470159556936293e-01,-1.349056005459853963e-02,-1.894520240302548231e-02,4.675563645146399612e-03,1.791271805763244629e+00
2.738304207148075098e-01,-2.148805239755677832e+00,1.896575781343829981e+00,-1.054229763345845838e-01,-1.955948932059842771e-01,-7.108896211437812362e-02,3.549233913421630859e+00
5.331789035078551287e-01,-5.267939074222566243e-01,7.577713592458048542e-01,-2.569478596233075174e-01,1.469695047621139006e-01,2.909527748532461655e-02,1.295164942741394043e+00
3.832790495110909301e-01,-7.955607236460906506e-01,1.220595443353321485e+00,-6.142944531109795214e-02,-2.412703435010528641e-01,1.538676623558318107e-02,1.806789636611938477e+00
4.941433192362815197e-01,-1.089671297767697222e+00,9.317929652527209283e-01,-3.770873241343345589e-02,-1.100526659267479918e-01,-3.170966174132523741e-02,1.853855133056640625e+00
6.628400147563939804e-01,-3.060268140814865756e-01,6.869404716802066657e-01,-5.304808435418149892e-02,3.131871504965588748e-02,1.156234900761223261e-01,1.007037758827209473e+00
1.789391537461801684e+00,-1.932674617663322270e+00,2.353293804316254900e-01,-7.308607973763736609e-02,1.826116995273868726e-01,-7.172281180989813210e-02,3.258229970932006836e+00
1.586943499927964130e+00,-1.731030660309726299e+00,3.389604890715686714e-01,6.958972889979818388e-02,4.133479839532683275e-01,-2.155228933205244335e-01,3.015308856964111328e+00
1.617698877873100960e+00,-1.855503243619877507e+00,3.424691461993001340e-01,-1.189971031170676194e-02,-4.726330305406294396e-01,-4.593962900554696693e-01,3.250218391418457031e+00
8.496665620129704166e-01,-1.029591802892876329e+00,6.956266510203237274e-01,2.814262560418530259e-03,-3.288346018871540766e-03,-1.078454846411905019e-02,1.807281017303466797e+00
1.133360166526386159e+00,-1.285686480099498485e+00,5.001697921562607840e-01,-6.141477140248711997e-02,4.060101177630893315e-02,1.570145586446637376e-01,2.193449497222900391e+00
2.085582244982352729e-01,-1.169408121566544834e+00,1.461979909828236002e+00,-3.928292297773603448e-01,-9.777359346217725285e-04,-6.505548206448819037e-02,2.381737709045410156e+00
1.268100520160076128e+00,-1.200434852060126234e+00,7.805242446501997611e-02,-1.083930005589502088e-02,-8.993458274321322610e-02,7.996541396204917551e-02,2.148489236831665039e+00
1.253593817175543190e+00,-2.072028617456767474e+00,8.338462712708326618e-01,-3.959603289203069559e-02,7.888781353112678252e-01,5.060499722301334269e-02,3.423361301422119141e+00
6.527058414683392096e-01,-9.954964375338845040e-01,7.419522234697881746e-01,2.639379899427775691e-02,1.051630166087813567e-01,-2.334415815757437396e-02,1.705442547798156738e+00
9.383794827980318498e-01,-1.056115544359864211e+00,5.549384386134267322e-01,7.075849160107437232e-03,4.520012800950097553e-02,-2.774200671076143196e-02,1.835443973541259766e+00
8.567523337469030720e-01,-9.842426390974894357e-01,5.351896875782712337e-01,5.570234630943807913e-03,2.491641034146198017e-02,2.737465386587764095e-03,1.703715920448303223e+00
9.810748857507439746e-01,-1.101999058155008093e+00,5.283669265511474755e-01,-1.513105506328259013e-02,8.160153738119645117e-02,3.820729849540482198e-02,1.904247879981994629e+00
8.644405813144877548e-01,-1.032836387704841430e+00,6.210516996455147654e-01,4.854978850726763585e-03,4.589107321012501212e-02,-4.654569659521801822e-02,1.791650056838989258e+00
1.108181883371492704e+00,-1.552432490761256556e+00,7.690202368957064216e-01,2.418166454884606853e-01,7.030481472508973706e-01,-3.260103586670414222e-01,2.875521659851074219e+00
1.253070065974297931e+00,-1.971872067413090290e+00,7.988453896251241915e-01,9.767592755509059421e-02,8.293756995962000556e-01,-9.262018617847431190e-02,3.355543613433837891e+00
7.725474100598539451e-01,-1.028775940413433343e+00,7.902467759958844429e-01,1.092834763721794653e-02,-1.204729735324865320e-03,2.514646473646531440e-03,1.810343384742736816e+00
9.482110551741302906e-01,-1.028796641440683945e+00,4.752459288926383363e-01,-8.281759509920434735e-04,2.013846510737490186e-02,-2.853370561033036906e-02,1.789095044136047363e+00
9.368155978163132946e-01,-1.015371457755362972e+00,4.760591878723524073e-01,9.637407462404488576e-03,1.999079261391051299e-02,-2.204813580540838230e-02,1.768271446228027344e+00
4.889526129672109866e-01,-1.026513159710340295e+00,9.273201943316831120e-01,-2.415836814748426042e-02,-6.841913153126071012e-02,-3.377799783059905192e-02,1.781109452247619629e+00
1.265389138811589209e+00,-1.340559792241291515e+00,5.462825281165948343e-01,5.584989756738054784e-02,4.749061461768925296e-01,-3.429668017591598894e-01,2.544203758239746094e+00
2.368032958877399619e-01,-2.059122317071913955e+00,1.857959542760580618e+00,2.068629563245811057e-02,2.060639132416108854e-01,1.243212807412964402e-02,3.427916288375854492e+00
8.451414529098429940e-01,-1.003333701950830381e+00,6.198187557044227969e-01,1.835117817900144138e-02,1.723748038500367771e-02,4.691647009619116446e-03,1.747310757637023926e+00
9.299659434104424749e-01,-9.876498984390965630e-01,4.258179066480941577e-01,6.112584484128978125e-03,5.891221743434524316e-03,1.586411634887883179e-03,1.721881866455078125e+00
1.462598703458833471e+00,-1.205144405985998812e+00,1.381205330808540910e-01,-1.522002840230456400e-01,-3.401116774388583397e-01,-6.716896046909494322e-02,2.401621580123901367e+00
8.952249137490650988e-01,-1.007442912512543032e+00,5.061492765131825333e-01,2.335003131258743883e-02,2.650303110432606149e-02,-3.931692917869045178e-02,1.743451595306396484e+00
9.876120122175120475e-01,-1.165477946414591903e+00,4.656026262660399317e-01,4.722134003576351768e-02,2.303688927104516337e-01,-3.314074358436320394e-02,1.988353848457336426e+00
8.614864361509728674e-01,-9.961889520605605730e-01,5.432553711768706162e-01,-6.361153029654023627e-03,1.929405338020053970e-02,-8.760982822016556660e-04,1.721133112907409668e+00
1.062474617891429940e+00,-1.127739488898874098e+00,4.229326301156091095e-01,9.371409863572691470e-03,-5.445163482115718961e-02,1.743048013652716277e-02,1.953301787376403809e+00
2.496918982626591677e-01,-9.335610124330437909e-01,1.064719281832512632e+00,3.156435708087294845e-02,-3.828718638867841667e-02,-4.529667210587829534e-02,1.744214057922363281e+00
8.463108287767557858e-01,-1.008198220932192024e+00,6.157960357752116920e-01,-1.269639020278347241e-02,-1.003050526230370859e-02,4.872731890809841628e-03,1.750915646553039551e+00
6.818012489453643132e-01,-2.652462226281270263e-01,6.974706984201464177e-01,1.969893527866788119e-02,1.507297638822866805e-02,1.236490810594784717e-01,9.796413779258728027e-01
1.612959456177229356e+00,-2.139247479208824299e+00,5.468064717243921180e-01,9.262255075092987178e-02,6.758640794540138330e-01,-1.088294401371846243e-01,3.556256055831909180e+00
6.522994925122749255e-01,-3.453552052048043386e-01,6.500351369444570260e-01,3.395143979728380834e-02,1.317844269574312182e-03,-1.400888567804868881e-02,9.985554814338684082e-01
6.287299067737061042e-01,-2.045298694460662148e-01,6.279173291126141088e-01,-1.990083274593453661e-02,7.874256004949928972e-03,8.710070701898919507e-03,8.338147997856140137e-01
6.224419466993851291e-01,-3.000593090683520425e-01,6.206260152708307221e-01,-1.232041042807513302e-02,-2.034557384067690183e-03,-7.607350442341725451e-03,9.219425320625305176e-01
8.920634660170158048e-01,-1.023037749484698722e+00,5.162007951746970802e-01,7.791958357148228397e-03,4.968422192535880411e-02,-3.055570760952772136e-02,1.760528087615966797e+00
9.852115279161224315e-01,-1.031761356116324801e+00,3.720236619554311286e-01,3.719241189416907806e-03,4.691505628931472854e-02,-2.365280447593207450e-02,1.793242454528808594e+00
9.551947348395640747e-01,-1.031717478750630690e+00,5.060723461591279948e-01,4.763442508416449242e-03,2.922650382794361040e-02,-2.982825826244195691e-02,1.806229233741760254e+00
9.966502143390719715e-01,-1.077430733474868063e+00,3.650958598068212990e-01,-2.591647079919815258e-02,1.286688031094799789e-01,3.736127408124579469e-02,1.856514811515808105e+00
3.547222111593000271e-01,-1.126847658939808206e+00,1.041485590254396909e+00,2.520694087329083607e-02,-1.952880729393448866e-01,8.505304785707837323e-02,1.955045223236083984e+00
6.820960888341154327e-01,-1.059615770611216590e+00,8.778397185008232073e-01,1.191001770499551700e-02,-1.097701347314758435e-02,-2.597287368081770023e-04,1.847590923309326172e+00
1.060833083944784372e+00,-1.136319595965814333e+00,4.168725805225821368e-01,-2.024666371274760901e-02,1.988801461139781401e-01,3.627475406550977749e-02,1.987743139266967773e+00
9.057808571076130244e-01,-1.005204525971119534e+00,5.003794003259234291e-01,1.229991537840668947e-02,1.242120259403989013e-01,-7.676411350021829401e-03,1.757388949394226074e+00
9.746505756432881640e-01,-1.015008545539990203e+00,3.394375063228254330e-01,1.367172310591003486e-03,3.171540639283357277e-02,-1.415058991284272837e-02,1.761251091957092285e+00
9.891621556777997482e-01,-1.034270597131162539e+00,3.524160929078727356e-01,3.981816285163753940e-04,5.528868630132022927e-02,8.512297794480627386e-04,1.794571280479431152e+00
7.529113015810193765e-01,-1.021799227180377523e+00,7.555744499141952009e-01,6.260786183034322896e-03,7.074254050268300245e-03,-5.752659907110871038e-03,1.776146888732910156e+00
9.795572278053418236e-01,-1.029097728501620734e+00,4.883797997494878640e-01,-4.725321855420340673e-03,-1.439247260615043357e-02,-4.969454608472214339e-03,1.813865065574645996e+00
1.633271035318508257e+00,-2.172827380692504029e+00,5.571530167761230556e-01,2.965387234320823046e-02,6.674605139670299891e-01,-2.438313593204413307e-02,3.590199947357177734e+00
8.156029632588368550e-01,-9.911488629021385499e-01,5.830415289154506908e-01,1.812998863150877549e-02,-4.887064717916379808e-02,2.212547499797649572e-02,1.705249547958374023e+00
9.340756836425080367e-01,-1.006204024833728727e+00,4.342461307264923187e-01,-2.001608130039207907e-03,3.398169080801319124e-03,1.044318376291800479e-02,1.745015621185302734e+00
6.714299673368511190e-01,-6.489582929956163593e-01,7.338534218343297777e-01,-1.632421093640768969e-02,2.223062096675484656e-01,1.292817619586255073e-01,1.424410700798034668e+00
9.980478884564397690e-01,-1.135638226444589005e+00,4.581325115108093593e-01,3.638229514574102541e-02,-6.980378099798574543e-02,-7.186614921103724567e-03,1.926358938217163086e+00
9.374050498648582863e-01,-1.026478630550305082e+00,5.083393928383761473e-01,-2.331342035234537646e-03,3.385105172795701417e-02,-2.569383898455253334e-02,1.789898276329040527e+00
9.181223014687978079e-01,-1.020992148924874332e+00,4.877507731243649336e-01,2.873189530132382388e-03,5.184726253110237375e-03,-2.192787243421881818e-02,1.764197468757629395e+00
8.476994461042584028e-01,-1.029887414880178875e+00,6.831883771659055249e-01,2.652010634088523139e-02,-4.670938215431651164e-02,-1.179306186678729957e-03,1.803377866744995117e+00
9.340499590158898302e-01,-1.010111075410988546e+00,4.859267347765574563e-01,-4.336861401023758486e-03,-7.983742248729277027e-03,-2.248099194697749520e-02,1.763835787773132324e+00
9.207650089111091285e-01,-1.006692551233685284e+00,4.100066897963371426e-01,-1.368001241901345942e-03,-6.996945205706950333e-02,1.710426964142275005e-02,1.734091162681579590e+00
1.036016713785337329e+00,-1.036010243719042601e+00,3.697993745532004439e-01,-1.707436616775566060e-02,1.830461227227555155e-03,-1.826049650906003824e-02,1.832649946212768555e+00
5.506700859925792724e-01,-1.095183290584924585e+00,8.385628541534351221e-01,5.475164626424566805e-02,-2.220648670633621202e-01,-2.516710270049781623e-02,1.850507140159606934e+00
7.820717483612863452e-01,-1.037674438886597938e+00,7.841270150647609016e-01,2.699104765865721449e-03,-4.271565172092807623e-03,-3.747570934370237847e-03,1.820807337760925293e+00
5.607203161899578792e-01,-1.004887567965887296e+00,7.462154929575610662e-01,1.708751103763374649e-02,-2.161292955275065375e-01,1.517119479270085530e-02,1.708113312721252441e+00
7.508699705851937800e-01,-9.865475082044659061e-01,6.785513034042303104e-01,5.279356063012203767e-03,-7.208005739431662395e-02,3.458730314433547154e-04,1.707006812095642090e+00
8.249425616256315097e-01,-9.947584377233664732e-01,5.418257328282715113e-01,-1.914218191152176549e-02,-7.321382080780723667e-02,-2.373585449309768836e-02,1.701513767242431641e+00
7.707383496087826247e-01,-9.872537310770823638e-01,6.196919813901180518e-01,6.217996631111294024e-04,-1.111335601774439130e-01,-1.108253555915016120e-02,1.698597788810729980e+00
6.921031571807291227e-01,-6.085390469644259559e-01,6.123934578236611692e-01,1.841933375552649577e-01,2.621828699425031717e-01,-7.424618133883603699e-02,1.385239601135253906e+00
7.225887669842199212e-01,-7.284304995352649525e-01,7.354679031603774675e-01,7.239618908078006287e-02,2.316318488597744404e-02,-5.829741614437187157e-03,1.463470458984375000e+00
7.163335943750654966e-01,-9.885219616683708077e-01,6.757094207369936933e-01,2.519503215191327625e-03,-1.791830064774269926e-01,-8.640226953888684169e-03,1.713326334953308105e+00
7.702108616185454615e-01,-9.808455215591520560e-01,5.717888468462444251e-01,-7.739940369815654503e-04,-7.165748076208086625e-02,7.474318721173572877e-04,1.665391683578491211e+00
7.522951469060250584e-01,-9.813392685343454991e-01,6.338844156018682563e-01,4.652826980869161490e-04,-3.362957135499529404e-02,3.672877754090372350e-03,1.678589463233947754e+00
1.328469849793588953e+00,-1.339421888268775618e+00,4.556256551287454215e-01,1.155431460598753263e-01,-4.653507112296270676e-01,3.490313518042091889e-01,2.570218324661254883e+00
7.807501501309908054e-01,-9.360115007872387149e-01,7.743312655399570144e-01,-2.976584217572306526e-02,1.319067942965326638e-02,5.916728377848706755e-02,1.717548966407775879e+00
6.702101553782890964e-01,-8.498518189303061465e-02,6.543964871504642788e-01,5.026608221681514582e-02,5.097462679339745568e-03,-1.753179774738493693e-02,7.531319260597229004e-01
1.547015505197669283e+00,-1.263490696541086589e+00,6.385111654587745378e-02,4.897787666488055691e-02,8.702403775433451005e-02,1.241763106640038361e-01,2.450806856155395508e+00
8.629245401901195489e-01,-1.007956239339386162e+00,5.543209126028376676e-01,4.681919604436727764e-03,-1.307317808489063538e-01,-6.216727001943278021e-03,1.752005934715270996e+00
7.481251109850686198e-01,-7.837111960310150227e-01,7.447067098596520385e-01,-4.529841629957424148e-02,-1.448670116168235614e-02,3.556486100777992571e-02,1.533583283424377441e+00
1.618377839989870726e+00,-1.968205656620108268e+00,1.844029734415748023e-01,-1.185314713209267151e-02,-1.783284253767062344e-01,1.043832069110270100e-01,3.147269725799560547e+00
1.064485569356488082e+00,-4.954099337855528140e-01,4.197438493553948269e-01,1.278798934677106702e-01,-2.127219679884408965e-01,1.488320244956803928e-01,1.447239041328430176e+00
1.901990453116932489e+00,-2.088170300553214620e+00,2.443234832640105991e-01,7.404693191957942289e-02,9.937853907414172239e-02,1.539543349552838780e-01,3.488849163055419922e+00
6.595235680557958169e-01,-5.888008334549492684e-01,5.192094181987134682e-01,7.621593454047903560e-02,-2.765333039867783893e-01,1.254312047123240237e-01,1.302644133567810059e+00
1.080795468233217704e+00,-1.284731622580936650e+00,6.410213373863801190e-01,1.629826620054203312e-01,-4.902343027003532860e-01,2.251635906740732107e-01,2.387801647186279297e+00
6.493369688752365088e-01,-9.247741546649412836e-02,9.741144711411083845e-01,-1.105054497846532160e-02,-4.403748642596512497e-02,4.034177998913868884e-02,9.527645111083984375e-01
7.604075111485315563e-01,-3.575334944916095381e-01,3.885678705608872630e-01,5.232882180569612546e-02,-8.215368815795365265e-02,1.630386345182555929e-01,1.039504408836364746e+00
8.207669882978207987e-01,-1.022455868913665578e+00,7.049736773473640472e-01,-1.140073374160075100e-02,-7.334298756458462385e-05,9.823171501840978828e-03,1.788330316543579102e+00
6.994536942132070223e-01,-4.096755296665317014e-01,6.774906698225010571e-01,1.151219089054162370e-01,2.850438141171999715e-02,9.828462432940339444e-02,1.130250573158264160e+00
7.443169528068306340e-01,-7.567807791245849680e-01,7.218028380777842257e-01,-3.554205826080567704e-02,-3.639275252419273132e-02,1.063885599608050819e-01,1.503902912139892578e+00
1.706055886427448431e+00,-2.104427247475726404e+00,3.799715120875029051e-01,1.556906276279127754e-01,-5.707974732381957406e-01,3.676439526303114658e-01,3.561024188995361328e+00
6.965441702228600818e-01,-1.973658324631928362e-01,5.790946382665852488e-01,5.407752517385638197e-02,1.746202498566798433e-02,1.482235800174012963e-01,8.851433396339416504e-01
7.596265661850982731e-01,-1.027520117088010831e+00,7.910047447352546168e-01,7.072322149977511123e-03,-3.951981914242510933e-03,-5.397724935831931491e-03,1.803119421005249023e+00
6.283607494843908015e-01,-1.214325726164458441e+00,9.651830693759329005e-01,-1.460502827319656860e-01,-5.439322373240573771e-01,-3.065235205145953185e-02,2.254772424697875977e+00
3.940931733807034876e-01,-1.162426269305195214e+00,1.002261103103692097e+00,2.891550314567506788e-02,-4.289740893362121721e-01,2.950885194864621280e-02,2.072781562805175781e+00
5.616990949470698213e-01,-7.495278249750354504e-01,6.011970508969235460e-01,2.279386674412702818e-01,-4.543445610781835509e-01,1.034607512892922188e-01,1.606217384338378906e+00
7.162742550202381153e-01,-7.142765486593241064e-01,7.283744774824216783e-01,1.985564606740967963e-02,1.140452819378396515e-02,1.436773733809214582e-01,1.458572745323181152e+00
9.279530025031610396e-01,-2.168300924094979099e-01,1.004218638962245613e+00,-5.412558162260681233e-02,1.008144155679111809e-01,7.363844629927564223e-02,1.207973361015319824e+00
1.071311252617404453e+00,-1.862529860574205998e+00,8.699210836873543240e-01,-2.575389047458561120e-01,8.312478891875338949e-01,3.899854250080039275e-01,3.284097909927368164e+00
7.844475823244871915e-01,-9.741227186202477961e-01,7.642439181798414971e-01,-7.752642547026820236e-03,-1.771310467774513467e-02,5.500785559609683469e-03,1.748902678489685059e+00
7.686152126666476736e-01,-8.475262204333653404e-01,8.154230870973704359e-01,1.038237028075205404e-01,1.003225999589533318e-02,1.275092931429808452e-01,1.664682626724243164e+00
1.002675366877401109e+00,-5.414140434473808661e-01,7.515053257143480270e-01,-8.251510019595141576e-02,1.895167639122808667e-01,6.267602805284937240e-02,1.483047723770141602e+00
7.714433921608816469e-01,-9.987015603179307810e-01,6.835347381768009933e-01,-1.460322890673313584e-02,-5.061924757699649835e-02,-1.582118812167711969e-02,1.730493426322937012e+00
7.393612094944472801e-01,-1.002661420169064899e+00,7.962897555446112330e-01,4.772639557594756526e-02,-4.197393393622318725e-02,8.214409846257697545e-02,1.780285477638244629e+00
7.936793183739935253e-01,-1.023569787237598838e+00,7.812861930295086355e-01,4.303686322396586134e-03,-1.661742455326913233e-03,-1.970081400628452117e-03,1.811105132102966309e+00
7.991273675052723569e-01,-9.782340446426338598e-01,7.660606006980050786e-01,-1.491340060544174041e-02,1.056984171539713038e-02,1.130982871400584280e-03,1.761346578598022461e+00
8.936644370554732708e-01,-1.008332960112663379e+00,5.330842554336499006e-01,-5.840861532508566031e-03,-4.619971572911582385e-03,-2.350468295811300456e-02,1.750318050384521484e+00
1.103894300841517406e+00,-1.108485799830440932e+00,4.890366491666092719e-01,6.657830754860104283e-02,-3.766485967144638652e-02,9.098170380665882018e-02,1.988658785820007324e+00
1.101429942047714050e+00,-1.057882762935199006e+00,2.295871413784313086e-01,2.473779932144963556e-02,-9.333636667289257893e-02,4.810832033521268009e-02,1.890786647796630859e+00
7.973461252861243631e-01,-1.008431440091236864e+00,7.748392494012573684e-01,-3.095515643059419154e-03,-5.935589554941644733e-04,-1.062751017003499320e-03,1.794639229774475098e+00
8.301798484299032221e-01,-1.016364745797291302e+00,7.030116337024652218e-01,-8.692166050232245748e-04,-2.195771922949855601e-04,-8.933438701477027649e-03,1.786426305770874023e+00
7.371402480823874281e-01,-7.931501729065993933e-01,7.623085348890197288e-01,8.792457379718129906e-02,5.001762465498020213e-03,2.334644048113821552e-04,1.550549745559692383e+00
9.709542192956495121e-01,-5.618595862338426894e-01,7.150913395647174875e-01,9.197763592364955124e-03,-3.408226190373615516e-01,-1.403893965745413031e-01,1.559055924415588379e+00
1.131839361267555910e+00,-4.042051033842674612e-01,7.225847276447746603e-01,-4.460353767290773513e-02,-1.017626412145355430e-01,-2.379589211184638536e-02,1.391769647598266602e+00
7.403163468294393645e-01,-8.369791657855145672e-01,7.640251495567316198e-01,1.934713551560879319e-02,-1.892599280579545032e-02,8.459026369913434651e-03,1.590041279792785645e+00
7.686414077145042878e-01,-1.020794929832420594e+00,7.774585891020854289e-01,-4.767767438124291199e-03,-4.251647188753667102e-03,-1.308460396216677962e-03,1.793896675109863281e+00
7.401118583167187737e-01,-9.971635365434281528e-01,7.111622214426023270e-01,1.009583496755884352e-02,-4.218656331995185998e-03,2.175898176887182693e-04,1.723087310791015625e+00
8.745546556365795254e-01,-1.101175752216828618e+00,7.233010944034270473e-01,2.527641273835215530e-03,-5.381725258809305634e-02,1.444246276764599331e-02,1.907062053680419922e+00
7.869582092123017514e-01,-1.015403597571515881e+00,7.660813891497292305e-01,1.188775305890092671e-02,-2.528014377647024523e-04,3.049290369975345572e-03,1.792140722274780273e+00
6.278401456904950662e-01,-3.013110564972803496e-01,9.602050562585813243e-01,-1.270149519390440518e-01,-1.806572442011600832e-01,-7.630582748834162377e-02,1.202656626701354980e+00
9.074662385055891622e-01,-1.008539134033309193e+00,5.100965295238893971e-01,1.481673345589324710e-02,-1.456957945535079096e-02,3.025886399497144941e-02,1.752614855766296387e+00
6.050395184806161009e-01,-9.021269579141113493e-01,8.367562515893246511e-01,-6.448746885156569908e-02,3.079101109740135789e-02,2.996647663364632869e-02,1.640881896018981934e+00
1.115211985984789766e+00,-8.699162994531899340e-01,3.446254553868850490e-01,3.841504555273184129e-02,4.648134767566947101e-01,2.165007789375131830e-01,1.948852062225341797e+00
7.782640103121802877e-01,-9.525304067217750248e-01,7.678918178955616014e-01,-2.437893186559941111e-02,-1.812122029681543373e-02,1.887643002935604844e-02,1.726743102073669434e+00
7.899335370216744590e-01,-1.011606440809824203e+00,7.783375463540388450e-01,6.493721865303752304e-03,9.689338420162684623e-03,-2.402774920680235925e-03,1.795888543128967285e+00
7.823539119235458639e-01,-1.022306879943309710e+00,7.829893043739462044e-01,-7.784152180948090624e-03,-3.607276666760884975e-04,4.599726465317505067e-04,1.805029153823852539e+00
7.203379826900924154e-01,-5.083176423941538902e-01,4.677708039442652899e-01,-1.715197916614285764e-02,-2.427452316462706261e-01,1.381403344495785446e-01,1.223917245864868164e+00
7.932739460699134160e-01,-1.007640907360621840e+00,7.713678067203947331e-01,-2.555146197215478650e-03,4.547702323030608160e-03,-1.544405258122830832e-03,1.790087103843688965e+00
7.582076976502188925e-01,-9.159015765274166609e-01,7.694477440574480909e-01,-1.681832242143685430e-02,-1.888794630869292113e-02,-7.794921403686191040e-03,1.680382847785949707e+00
8.651794893328967895e-01,-1.298531426068878059e+00,5.750105428030363175e-01,1.825635171854224359e-02,5.625486682917961723e-01,-5.464440348460393448e-02,2.257729530334472656e+00
1.055472800146722623e+00,-2.857334752308250403e-01,8.362824320417074908e-01,-3.699049166550982815e-02,-9.009220270869669478e-02,-8.967786005056743379e-03,1.257614850997924805e+00
7.657751700300567954e-01,-8.397303964674269761e-01,7.245599912696136791e-01,3.799756776462834967e-02,7.448870805313557823e-03,6.349985278136114015e-04,1.586718201637268066e+00
7.968030197948445803e-01,-9.861664438997785886e-01,7.663693175897562382e-01,-4.623159497811582704e-03,1.151643038632849635e-02,6.818048876749107506e-03,1.768119215965270996e+00
5.109826868444441450e-01,-1.004548881239859526e+00,9.033335781380714691e-01,-2.015218352170550231e-02,-8.206746480195720866e-03,-6.922493208976730934e-03,1.745554208755493164e+00
1.139065188331512157e+00,-1.301431623492932843e+00,2.506241809612950733e-01,-3.793139819009470892e-02,4.714239564124906856e-01,1.395148591326113019e-01,2.303594112396240234e+00
6.726874931515567368e-01,-6.149925603915612493e-01,7.188244740795430854e-01,2.657957395948284864e-03,-1.108823319665656199e-02,7.575307502667247284e-02,1.318053007125854492e+00
7.828447211040624465e-01,-1.032092934934321748e+00,7.709931973228862923e-01,1.076857900899963819e-02,1.907814817576699781e-03,-3.767048403109012587e-03,1.809151887893676758e+00
7.899403649117477944e-01,-1.028061096369006000e+00,7.781161082852892097e-01,-9.140124316335505872e-04,1.855972376823446365e-04,4.862479742193003517e-03,1.812138557434082031e+00
1.042178116288979162e+00,-1.263686118516996748e-01,1.088855620496585352e+00,-1.498726041243754123e-02,-4.614133647869451266e-02,2.545882775107991686e-02,1.196340441703796387e+00
9.463558818795658745e-01,-8.155360869845014182e-01,5.466714866230681924e-01,5.103463974530313141e-02,-3.969823890071585981e-01,1.558206465821559694e-01,1.764440178871154785e+00
3.453990754790514650e-01,-1.017502202037087633e+00,9.858866291010723870e-01,-3.219560918104186209e-02,-1.466717086880390576e-02,-4.008996158513144364e-03,1.773259401321411133e+00
5.896422112806308791e-01,-1.212895774279935779e+00,1.011363747722439310e+00,6.171321267922481868e-02,1.011739004736842279e-01,-1.091235069468310566e-02,2.056612014770507812e+00
4.607919143667706940e-01,-9.895566191757725338e-01,9.344691511853966404e-01,-3.828810363646870411e-04,3.664174312816727286e-02,9.609823459006350483e-04,1.737500786781311035e+00
3.258430132656932599e-01,-1.017021704848149577e+00,9.920360058823690652e-01,1.709710058074322830e-02,-1.712497063249905638e-02,1.190469286893140050e-02,1.773101210594177246e+00
8.135603078866276983e-01,-9.853509540773537356e-01,5.858524532192108669e-01,4.406778290809907489e-03,2.400542565629365174e-02,4.463410702015464110e-03,1.697101354598999023e+00
8.163838617994212399e-01,-1.489163182107104522e+00,9.974009207840848212e-01,-1.948458274899305676e-01,6.254950169752401257e-01,9.471124682583507981e-02,2.660863637924194336e+00
6.519932955520537643e-01,-1.015144831735436792e+00,8.286516506305610097e-01,3.505546536491364190e-02,1.110289688983932474e-02,-2.071974198905942449e-02,1.763637185096740723e+00
4.855077834638520384e-01,-1.011941816587521137e+00,9.129944990312325315e-01,-3.960918163614621929e-02,9.265393189155243792e-03,1.580825487278527536e-02,1.752413749694824219e+00
3.857442708532459186e-01,-1.145536576631033032e+00,1.011410092391369364e+00,-5.390751615694501508e-02,8.853786399110248617e-02,3.794191168022441329e-02,1.931554436683654785e+00
4.728449272599730691e-01,-1.005566391374088653e+00,9.395027607862974639e-01,7.422903952598121705e-03,-1.773073248261593932e-02,3.504310728041896365e-03,1.759126782417297363e+00
7.735004788079055116e-01,-1.033178347746861014e+00,7.721578219361173723e-01,-2.526588843374605146e-03,2.284020435468810204e-03,1.874141161625571391e-03,1.806020379066467285e+00
7.783937452156812764e-01,-9.951052567389596648e-01,7.745196747896687661e-01,-6.129171353941757078e-03,1.095649962872114955e-02,-3.008514832827574592e-03,1.771706223487854004e+00
4.230820063067602943e-01,-1.014505235326364607e+00,9.350328599463710866e-01,-6.763046123356362960e-02,2.296768303448150084e-01,-2.323523313960201842e-02,1.799533367156982422e+00
8.959306388453202041e-01,-1.155347566271519355e+00,7.015582857341643441e-01,-3.708595314169002566e-02,9.467817380542703498e-02,2.581472248316999361e-04,1.969220519065856934e+00
1.031762006132827203e+00,-2.446517076977980487e+00,1.287934105820918829e+00,-9.589671522774498302e-02,9.623570060651436275e-01,1.624330158199404073e-01,3.992520809173583984e+00
4.987659796248335442e-01,-1.297760017919956210e+00,1.058174097883662457e+00,-3.382044201140257944e-02,5.597403100599827042e-01,-6.718473761919592502e-02,2.345705509185791016e+00
3.822017470329051592e-01,-1.011671733166869869e+00,9.625906953652995091e-01,-7.675565594018197990e-02,1.189020840219512376e-01,-3.741576897556108360e-03,1.774500727653503418e+00
3.921341371261981568e-01,-9.956440686286810449e-01,9.515299511681617473e-01,3.702133364481042382e-03,6.128094772335068718e-02,-4.286491337386308040e-03,1.739692926406860352e+00
7.026593976085586668e-01,-9.895161381786670152e-01,7.279167459130801987e-01,6.617763271109310813e-03,1.498357980615899754e-02,-7.870892915597931666e-03,1.705235004425048828e+00
5.550321419582739946e-01,-2.922762246718199064e-01,7.723436390441247301e-01,-1.838061843349989288e-01,2.943974508156534456e-02,-9.677991861571135987e-03,1.026411652565002441e+00
1.676864452113260073e+00,-2.153852673850884525e+00,4.952913705378138021e-01,1.932012863136663150e-01,6.686811033268140747e-01,-3.728442039514860973e-01,3.662602663040161133e+00
1.987927915208886898e+00,-2.367635831798643675e+00,2.901896947790741366e-01,-1.321389577242349511e-01,4.270629720130600937e-01,3.347481615558927648e-01,3.923562526702880859e+00
7.866758083955058822e-01,-1.027672411052954038e+00,7.830421272046428349e-01,3.493857345865387064e-03,1.159097057140989935e-02,3.703981440369913999e-03,1.812666773796081543e+00
1.241265191058429362e+00,-2.205546498300878344e+00,9.663208593401220181e-01,5.594772887384893978e-02,8.437570459519595500e-01,-1.314229845435062327e-01,3.633924722671508789e+00
8.053223943608989188e-01,-2.898858482362762223e-01,5.503958198941765190e-01,-2.868995520608328895e-02,3.086517206556551457e-02,2.074513742261419602e-01,1.058161854743957520e+00
1.145478702385069658e+00,-1.031331283265243925e+00,5.444687867456898811e-01,1.067697587361064737e-02,3.993016352581805206e-01,2.985851521302372302e-01,2.130154132843017578e+00
3.437266103417635499e-01,-6.484848491245001068e-01,1.065876590598317408e+00,-1.434738560148538233e-01,1.489547775862869461e-01,1.836544996721707068e-01,1.565890669822692871e+00
8.525992625256740842e-01,-1.023498951004099489e+00,6.759536676555549795e-01,1.267100613232615552e-02,8.188664719207664790e-04,9.600864227357071290e-03,1.794520497322082520e+00
5.885556664576211405e-01,-3.063082133195639822e-01,7.703857475290993850e-01,-9.270170449293302362e-02,6.169772661111035117e-02,-6.595799826229202523e-02,1.023136734962463379e+00
6.556170298131072105e-01,-6.383693617070006487e-01,8.175828536436072769e-01,-9.291879483381595972e-02,-5.990803283611984649e-04,4.572023299414065822e-02,1.393696188926696777e+00
8.451484072234034528e-01,-9.045984267009961055e-01,8.001578103839850353e-01,-1.305802570967870835e-01,-4.937335655470995177e-02,-3.141610050656622535e-03,1.744537830352783203e+00
9.494068912619157974e-01,-1.051518096738353059e+00,4.119348522945331381e-01,4.490104405963735688e-03,1.769795363184233916e-01,-1.166466261515266417e-02,1.819771885871887207e+00
7.806710566993437794e-01,-1.031747591940881836e+00,8.016676737563129818e-01,-4.407625101457014749e-03,4.467360753420981934e-03,-5.595497342225063883e-03,1.823065757751464844e+00
3.627193071633889598e-01,-1.375215357564996133e+00,1.081076460434231779e+00,-1.880029133223325433e-01,-4.242502798977190737e-01,-7.261206875923334469e-02,2.333822965621948242e+00
7.609504155160521366e-01,-9.544718406404187894e-01,7.664819074579676261e-01,-1.451410066531439412e-02,-6.411574985686003918e-03,1.037144534367956828e-03,1.718415379524230957e+00
7.993315146501880353e-01,-1.013042763190184381e+00,7.769020466281896242e-01,3.737010115999116807e-03,-8.692511934864431515e-04,7.047617407806749034e-04,1.801276922225952148e+00
7.937105952280258947e-01,-1.022737751067401391e+00,7.790203424941479771e-01,-3.893874214765476530e-03,-6.022582784752689329e-04,-3.897908054686419595e-05,1.809160828590393066e+00
7.932959121128588809e-01,-1.026065685490566537e+00,7.861527457295713894e-01,-4.131349387863181115e-03,-1.476677434000594384e-03,-2.270423655114968929e-03,1.815820693969726562e+00
1.677866660360026962e+00,-1.579428920871540187e+00,2.138227110249309448e-01,-1.310887578220775174e-01,5.010060586739081834e-02,4.557206835064115391e-01,2.943926334381103516e+00
7.170634973165599391e-01,-1.026867784579984955e+00,8.234174047083762105e-01,-1.170756623415577895e-02,4.951450495355441163e-03,2.777575840570172070e-03,1.799608111381530762e+00
7.811983249513210215e-01,-9.673705542403030488e-01,7.712025215671081124e-01,-8.812565705434628749e-03,2.000437876852872998e-02,-7.386201234166531876e-03,1.744050383567810059e+00
6.621926555500228240e-01,-1.115969868889477690e+00,1.004322708622679805e+00,4.304227376677876270e-03,-9.202472582876086715e-02,3.865589858104592075e-02,1.979197263717651367e+00
7.837953908510109091e-01,-1.023076888839742793e+00,7.770327514387178613e-01,9.380233193995324986e-03,3.029420583550660601e-03,5.393546841697975137e-03,1.803605437278747559e+00
7.878342967612053105e-01,-1.025899047396719554e+00,7.775092136097447870e-01,7.697939068419147081e-03,1.074236430838604707e-03,7.075635920035351981e-03,1.808684587478637695e+00
7.758214169546032712e-01,-1.007113983885265851e+00,7.881598835131954361e-01,2.147458914778129207e-03,8.885037578684647219e-03,-9.839639034105248858e-03,1.789287805557250977e+00
7.854739786669397983e-01,-1.027679033898238004e+00,7.814092172461595265e-01,4.436562745915012713e-03,2.264618215339704761e-03,7.648353370931065473e-03,1.811193108558654785e+00
8.599734711850679503e-01,-1.002572047037093794e+00,6.863820560011085758e-01,-2.077862720464181828e-02,-2.574674292477008644e-03,-6.434657530906228579e-03,1.782505869865417480e+00
7.039151091864251919e-01,-9.880689204556223348e-01,7.143246374724550041e-01,6.485789173837643549e-03,1.888075604693295953e-02,-7.940906904330774507e-03,1.697620630264282227e+00
7.760966119918452089e-01,-1.238195162006465955e+00,9.398607521532147402e-01,2.195747614460303310e-01,-4.520769561477671061e-01,1.250166461056780309e-01,2.284448862075805664e+00
7.212577253333023464e-01,-1.149375600650249796e+00,6.838837680304108435e-01,-2.604873543768758057e-02,-3.587319407135147742e-01,1.100996303300186101e-02,1.954281926155090332e+00
1.090620502597296149e+00,-2.242871513944440398e+00,1.121070031155757096e+00,1.096192924084256615e-01,-8.673017154131641426e-01,5.844044253301788894e-02,3.676619529724121094e+00
3.114925560362468704e-01,-1.636416021953073896e+00,1.664264899115539986e+00,3.174840144244109319e-01,-4.593920940319571877e-01,-6.761846386035157142e-03,3.032336711883544922e+00
5.656729986219631856e-01,-1.204353235996326932e+00,9.914397836859908386e-01,-1.312680347839706788e-02,-5.361547318668236778e-02,3.234869608861921930e-02,2.019942760467529297e+00
7.652166902180878028e-01,-1.008294251283541110e+00,7.734521698335864448e-01,2.225069507718630685e-04,-4.446693858021468697e-04,-9.350323617467570791e-03,1.777716994285583496e+00
7.727151354720470655e-01,-1.005819926310852042e+00,6.872684474499235474e-01,-1.990162378403667609e-02,-4.841725392724240823e-02,-1.801464660233128776e-02,1.740032434463500977e+00
7.497027817369850133e-01,-1.147782631050171975e+00,9.406982616511146977e-01,-6.238462568957477139e-02,-2.963027136595722602e-02,1.033550004659511412e-02,2.003489732742309570e+00
1.066953425058314808e+00,-1.270987197370547328e+00,5.305284131622729493e-01,2.344704484278214637e-02,-1.743711562232316548e-01,1.181741613913131900e-01,2.152753829956054688e+00
6.788875468841062411e-01,-1.015868678066662811e+00,7.193483538686591405e-01,-3.440022071836389833e-02,-1.750468964022701690e-01,-4.656112901515467584e-02,1.744816660881042480e+00
3.350957378819482968e-01,-7.982767789871766384e-01,1.233840927924386932e+00,-1.958812740964716859e-01,-1.764822602180602384e-01,-1.245727286284975532e-01,1.834663629531860352e+00
7.218813192181677829e-01,-7.906100031602606437e-01,8.098868303741325603e-01,-1.189101328650500056e-01,-9.470653593081204691e-02,-3.122300475900770950e-02,1.581370949745178223e+00
4.590547464240679609e-01,-1.199242267234832182e+00,1.034037419082912246e+00,-2.091205179277949924e-02,1.210199950218032866e-01,-2.673258174440202792e-02,2.020257234573364258e+00
5.452922983686006031e-01,-5.325485078443294995e-01,7.474992115973111417e-01,-1.929464882209133009e-02,-2.486623022528341165e-01,-1.122304765338903998e-01,1.282566905021667480e+00
5.020519784566890298e-01,-1.023901882049984335e+00,9.152964793302530433e-01,-4.651536516981913394e-02,1.161269879407647934e-02,1.340001838757057424e-02,1.771251678466796875e+00
7.417549777755276796e-01,-9.903947575552622951e-01,6.931659827679470531e-01,1.322130512315413016e-02,-7.800978233134593307e-03,6.668561558974800407e-03,1.708619475364685059e+00
4.557356450803616843e-01,-4.974882219676012296e-01,7.677373296993394991e-01,-7.469438071256435940e-02,-1.465265449578829204e-01,1.564047011993178332e-02,1.176974892616271973e+00
7.615855200189111107e-01,-1.005123484490423991e+00,6.923559598667851089e-01,-2.645206418539807272e-02,-4.864097932666326674e-02,-2.183757383894158535e-02,1.736194849014282227e+00
5.578887474613798414e-01,-9.919324365134755128e-01,8.399965589789212261e-01,5.127158079677013834e-03,-6.977586940626455403e-02,4.200983755561221375e-03,1.712741971015930176e+00
6.765033906921815721e-01,-1.046867692669103622e+00,8.792552460888996002e-01,-7.425461924650635093e-03,5.007069836443573535e-03,-1.095169147492473967e-02,1.833339452743530273e+00
5.685121988366751422e-01,-9.986100017765211501e-01,8.589206541849478960e-01,-3.388637479096147636e-03,6.636117101989771200e-03,-1.243534306024719760e-02,1.730879902839660645e+00
7.809017273085235855e-01,-1.028621399538227177e+00,7.849448598725990989e-01,4.236551829861837093e-03,2.068185454690055734e-03,8.702856531967001182e-04,1.811567068099975586e+00
7.014760807400256537e-01,-1.001879660875770517e+00,8.225087711626392073e-01,-2.593437387197996408e-02,-5.157864286291544142e-02,1.014372695193295482e-02,1.769898056983947754e+00
6.313049651160582698e-01,-1.419604889671944314e-01,6.364542414098447454e-01,7.540956135360804558e-02,-1.564058378400462121e-02,-8.537027387435805470e-02,8.010029196739196777e-01
6.995148175861320983e-01,-5.769322338519614624e-01,7.017138366891028101e-01,6.318429932774320690e-02,3.058349607521956923e-03,-5.122253236876511684e-02,1.285303473472595215e+00
7.170326533878130792e-01,-1.022589040257385395e+00,7.996128836249150051e-01,-1.647706362072170333e-02,2.807635918288272497e-02,2.377962969711868227e-02,1.783714413642883301e+00
5.418309873243585262e-01,-9.675608666220765208e-01,6.633014612736534144e-01,3.298742413757121961e-02,-4.440673585956605995e-01,1.466174679123322978e-02,1.752672910690307617e+00
1.554764789100498978e-01,-2.038695314087270560e+00,2.001965120857626790e+00,1.936467144588716882e-01,-1.519043593155486593e-01,-1.450696265679069473e-02,3.529557704925537109e+00
6.641447313177581968e-01,-3.914759345300732329e-01,6.549105455567649781e-01,4.747599668418880925e-02,-7.503346214870997011e-03,-2.906735022522178441e-02,1.055527329444885254e+00
6.938582253255118903e-01,-6.191945167318111398e-01,6.760315004558705709e-01,9.839135308135243951e-02,3.379372022408232146e-02,-1.081206598049957585e-01,1.329870939254760742e+00
5.633391833275359639e-01,-9.826963049469978895e-01,8.185317124331717986e-01,-1.104689131988988160e-03,4.006205708430816276e-02,-5.524646702674383333e-03,1.689614057540893555e+00
5.923405683091093055e-01,-1.012157081762488975e+00,8.067567254674016253e-01,-3.794912779454583107e-02,-6.520665050306377608e-02,-2.285936588242346371e-02,1.727154016494750977e+00
6.613261613884307000e-01,-4.480014631833467154e-01,6.483095473413452714e-01,4.124688477756371929e-02,-1.607628723651757449e-02,-5.550302090752549933e-02,1.109711050987243652e+00
2.043332027883420499e-01,-9.799212335178957289e-01,1.067170224533370737e+00,2.052963189291384313e-02,-2.224282571175685008e-01,-5.671796568692340917e-02,1.824308872222900391e+00
6.600684535352834281e-01,-4.335489350417587873e-01,6.586558995978262221e-01,7.303912977621329627e-02,-3.417618644495228758e-03,-3.628188013251788802e-02,1.102018356323242188e+00
7.880197060874405413e-01,-1.030582951806365388e+00,7.845015425579506818e-01,3.020578147176255016e-03,-2.642322153096155878e-03,4.450345531097053137e-03,1.816875815391540527e+00
7.754015058324793541e-01,-1.033599146673859659e+00,7.785459025523471244e-01,-6.124413286351632069e-03,5.487656605071514638e-04,8.062504945547648710e-03,1.810660123825073242e+00
7.915630231014215701e-01,-9.662361174328930602e-01,7.657107149263938650e-01,5.268573046127022694e-03,-1.232097139003754740e-02,7.347475018742367914e-03,1.745217323303222656e+00
6.314859058877816400e-01,-1.995998525479139474e+00,1.364803203200192439e+00,-2.465000558525895502e-02,6.690667719848232275e-01,8.168903271773320790e-03,3.273099899291992188e+00
6.374218430466613849e-01,-9.752225393286817479e-01,7.373663913732317887e-01,8.380776720519183751e-03,-5.145780648923806155e-02,-2.324010283408931791e-03,1.667320132255554199e+00
1.682081865813547794e-01,-1.057735361696242160e+00,1.185568669782372409e+00,-6.498213263803202452e-03,-3.953809527201912477e-02,-3.040416038938681051e-02,1.947505116462707520e+00
7.191966880168534360e-01,-1.011452009757977999e+00,7.610332857184267663e-01,-6.679896817928781400e-03,2.788482040973773099e-03,1.490662365345894746e-02,1.752176761627197266e+00
1.190150246646466847e+00,-2.126609687012305461e+00,9.111263218641563189e-01,-2.391602371668011817e-01,8.867033305493658979e-01,3.276798496059408761e-01,3.606347084045410156e+00
8.371385371761417282e-01,-1.179605790865922321e+00,4.821194007844085139e-01,3.524054649242474007e-04,5.684720443227454512e-01,-9.552905318606962418e-03,2.108807563781738281e+00
7.083730672757287961e-01,-1.009599057688557400e+00,7.700092618176890280e-01,2.201195227413283231e-02,4.558558672903634951e-02,-2.624979293443846853e-02,1.752390146255493164e+00
7.797627398132320753e-01,-1.022313241027914543e+00,7.523894759162285117e-01,-1.451635193726912194e-02,8.866391877297655905e-04,3.789611011979885855e-03,1.788735866546630859e+00
7.372208208618848957e-01,-1.017685250650270934e+00,7.716388194443833948e-01,-2.511031722006559427e-02,7.459458666840682040e-02,4.524019052673774327e-02,1.779327154159545898e+00
9.245752828146365232e-01,-1.149237551324477247e+00,5.225660833523014803e-01,-3.587769055003148244e-02,-1.373893768139114457e-01,-5.876295462657275814e-02,1.923400044441223145e+00
8.786119341988050113e-01,-1.269239664191665895e+00,8.626677218653240331e-01,2.653522234861283025e-01,5.830603086515979694e-01,-9.411031218502943774e-02,2.415979862213134766e+00
1.149694050399465262e+00,-1.184573155693608104e+00,2.705045834566882079e-01,-1.594056422288571678e-03,-4.356402235294688785e-02,9.940114903488900255e-02,2.050574779510498047e+00
7.630890253796764888e-01,-1.030385571172410586e+00,7.795769757493549168e-01,4.702639918669108228e-04,3.372745163545794438e-03,1.216011809424252972e-02,1.801907896995544434e+00
5.763547932960140230e-01,-2.124623440633819915e-01,6.076786720059034197e-01,-1.627296477773491346e-01,-1.589453757547796553e-01,-6.503230438703348770e-02,9.032407402992248535e-01
4.814081996875542169e-01,-9.994446999766866124e-01,7.361022256806417641e-01,1.042410056599714779e-01,4.300928794432714586e-01,-6.167696153427046357e-02,1.798307299613952637e+00
1.342896983203087036e+00,-1.180119297051260618e+00,2.033418531729913603e-01,1.061254568594956205e-01,-2.919088021627019858e-01,6.614092284462223803e-02,2.256462812423706055e+00
7.841978153684512343e-01,-1.036408387114998719e+00,7.834323844645436630e-01,-1.834100679738119165e-04,6.532782633232927030e-03,4.503488110922052728e-03,1.820275545120239258e+00
6.996131000053410487e-01,-2.029655077366830707e+00,1.349018395965878137e+00,-3.174614316469002717e-01,6.683617890670681128e-01,1.866547007151253823e-01,3.374910593032836914e+00
2.820608394662207363e-01,-8.316295887429115963e-01,1.033911494276253062e+00,-2.781037173573528420e-01,-1.559770815184165910e-02,1.607650331899783056e-02,1.696008563041687012e+00
9.379507289180899487e-01,-1.040256563267940582e+00,5.307097539862555280e-01,-1.653655244046501726e-03,-1.250532547825611296e-01,-6.795753338855388057e-03,1.822252392768859863e+00
9.057804916923734018e-01,-9.976444455781854348e-01,3.858209148448136783e-01,-5.906085269378969806e-03,-1.368400832972720971e-01,-1.255661526804747151e-02,1.720591068267822266e+00
9.866589698245070705e-01,-1.126774013622895421e+00,3.308052497067795472e-01,9.688161381839746622e-02,-3.897144935611265293e-01,1.133327372380688036e-01,2.008224010467529297e+00
7.861064664935681900e-01,-9.636055939558996197e-01,7.710573690848503414e-01,-2.995480381610584730e-04,-2.665811639740998246e-02,-5.453324309430336234e-03,1.742873668670654297e+00
1.323235355640950406e-01,-2.015855882764891138e+00,1.972178156008968619e+00,6.833773430932288395e-02,-2.194780545451635034e-01,-5.242903896613033965e-02,3.481213331222534180e+00
7.993958734810662214e-01,-9.147824849839520933e-01,6.964043354130530217e-01,2.068767129528451335e-02,1.197576541762322699e-02,4.691605456541780850e-02,1.667569041252136230e+00
1.224677446297753214e+00,-9.230228419756474345e-01,2.869745930258824629e-01,1.965345202437853572e-02,6.289231699976779999e-02,1.632517022530503153e-02,1.868642091751098633e+00
7.156870355945792461e-01,-9.814996102221837937e-01,6.166729389478760037e-01,-2.108997174656153731e-03,-1.377101946766388640e-01,1.971027460850469093e-03,1.667068719863891602e+00
6.951104859944894354e-01,-6.157702130159723453e-01,6.917730220133277985e-01,-4.081538269379596760e-03,2.284136182261140707e-02,4.709003376020914899e-02,1.312368869781494141e+00
7.900408556544105121e-01,-1.023224316971263592e+00,7.567890402637948988e-01,5.409473900993603222e-03,5.369303090659699115e-03,7.002114493435305891e-03,1.796959400177001953e+00
7.361936864441106509e-01,-1.029902322135102910e+00,7.950104868376095535e-01,8.618099077827826374e-03,6.477114164704575461e-03,-7.377048167605336493e-03,1.796369314193725586e+00
6.221024742995586720e-01,-9.934835346799166800e-01,8.015951723487571012e-01,9.197331798898464306e-03,-9.543384593398285265e-02,1.983291405186823897e-02,1.720778465270996094e+00
7.870716012214634683e-01,-1.010527588844196467e+00,7.779068986491095572e-01,-8.978140697483687899e-03,-6.397895123483175739e-03,1.721162200804058316e-03,1.793138504028320312e+00
7.775355178683808210e-01,-1.018139136602175920e+00,7.847167129665667540e-01,4.902981934116149715e-03,1.585339495728812879e-03,-5.809308938335792753e-03,1.799326300621032715e+00
6.963789457958340368e-01,-5.273667414828995259e-01,6.601506499277527418e-01,-6.553136881692457616e-02,-4.903120024983657031e-03,1.730490088354881550e-02,1.211769461631774902e+00
9.079842295677230668e-01,-1.839453402547208682e-01,1.026565543957404625e+00,-8.381860594574183643e-02,7.514984416924978816e-02,4.764946797191389055e-02,1.175025463104248047e+00
7.992010287178397121e-01,-9.993300842491368297e-01,6.399113647515823899e-01,1.702984727969516013e-02,3.401188975596647346e-02,4.256066865278274568e-03,1.725686788558959961e+00
8.169043660560796338e-01,-9.993924741511015508e-01,6.071467099566265624e-01,2.148055914890595330e-02,8.387202596699985802e-02,-1.760226078707521902e-02,1.727821588516235352e+00
9.319927806562453565e-01,-1.239182290911188034e+00,7.329632232080494081e-01,-2.218857945431305656e-01,5.980147621442942762e-01,3.111658756799603465e-01,2.415061712265014648e+00
7.806575300658840089e-01,-1.026633899733988997e+00,7.749971202497645262e-01,1.057002656748045472e-02,-1.425595544696351379e-03,-5.167010522611942963e-03,1.804584622383117676e+00
1.638269826792434491e+00,-1.910208672787847117e+00,4.686963557514959300e-01,-1.514232864212582685e-01,5.916455438452470350e-01,4.813462900264031674e-01,3.409310579299926758e+00
8.423966814864826125e-01,-1.056669117351884069e+00,7.913511199562694998e-01,-5.440042066562880176e-03,-6.907786386926552391e-03,1.130070087468476939e-02,1.874228596687316895e+00
7.528411234856776657e-01,-8.756241088658205385e-01,7.544401062587592355e-01,-8.093864013983308528e-03,-1.708247133131691325e-02,1.154738173621778011e-02,1.629716992378234863e+00
7.839980134110492438e-01,-9.986103772715667626e-01,8.134993064438243993e-01,-4.927950545105972552e-02,-2.517404727503321990e-02,-5.722891792472864503e-02,1.802821159362792969e+00
8.497194521732009953e-01,-1.029589166892801444e+00,6.764566749890226216e-01,1.081977640497429642e-03,9.805851689769751710e-04,-1.373316142152273926e-02,1.799105048179626465e+00
1.078761649988865035e+00,-4.023753131678686756e-03,1.168718246006732020e+00,-5.507640631578215873e-02,-4.917706277560687095e-03,-4.298677336221257139e-02,1.136941671371459961e+00
7.442650757465689715e-01,-8.612923090359694278e-01,7.462092211176853951e-01,1.970663501276097556e-03,1.353393564020577595e-02,3.556377396779856473e-04,1.606705069541931152e+00
7.696762735967683788e-01,-9.893691422200843189e-01,7.900468916960348142e-01,-1.625040489859106742e-03,-8.020535878140568151e-04,-1.333576513830801551e-02,1.769472241401672363e+00
1.896157945689080693e+00,-2.063725902604866214e+00,1.969885863013586536e-01,-4.978340092730181021e-02,2.798251955759832599e-02,8.440975100557965294e-02,3.445359468460083008e+00
8.793301596582426827e-01,-1.010621861834577473e+00,5.219655593029934870e-01,-1.489403196423611832e-02,4.177993406858486469e-02,2.946101336626625461e-02,1.741474151611328125e+00
8.337739563126540521e-01,-1.022230681386261830e+00,6.508496187199925842e-01,2.460417149926302782e-02,-8.347148407990698932e-03,3.144198214831929461e-02,1.773047327995300293e+00
1.445158512316938815e+00,-1.154917971342290350e+00,1.039613509844672795e-01,-1.501816730139547695e-01,1.208347583302264439e-01,-1.388978814029219744e-01,2.289396524429321289e+00
9.278999018753796291e-01,-1.052486925286325814e+00,5.595663055590448520e-01,-1.105268944602858135e-02,3.793225427656653215e-02,2.151706468202745082e-02,1.825987577438354492e+00
1.034361615497293885e+00,-1.134812564600428786e+00,5.537476512548484830e-01,-6.585852511472770066e-03,-7.259163515737408409e-03,9.387374392570978221e-02,1.980024218559265137e+00
1.397598028826407379e+00,-2.164659644519796977e+00,5.261041860400827996e-01,-7.789912507558152677e-02,-5.810257948596386779e-01,3.546798913771002093e-01,3.428274631500244141e+00
1.281972900920116398e+00,-9.272231126617522801e-01,1.861043611097639994e-01,-1.010852745210411852e-01,-1.063724812784241913e-01,-8.450806882547549914e-02,1.935590744018554688e+00
8.223989260883636243e-01,-1.024719315804462960e+00,7.013200303639717248e-01,3.867782449394582584e-04,4.459412041330203420e-03,-1.669444781265218974e-02,1.789903640747070312e+00
8.840155894468384457e-01,-1.027597877120133285e+00,6.164221962627481899e-01,-6.539403627350416463e-03,3.815474550705368582e-03,2.884262515074145772e-02,1.793601036071777344e+00
1.396104136158319964e+00,-2.147335638521916668e+00,7.270987406064329805e-01,-1.897078649434570941e-01,-7.802933135490787153e-01,-1.755674468809206856e-01,3.558084487915039062e+00
1.034025105264344102e+00,-1.120920819350720299e+00,3.749309679869333722e-01,-1.697706290737158175e-01,-3.961854712733051675e-01,-1.200984008301187178e-01,2.063615798950195312e+00
6.996156992354818360e-01,-1.005786017603997218e+00,7.583876429317747414e-01,1.329245376773953782e-02,-2.436055858971433730e-02,1.780420872966263085e-02,1.736473560333251953e+00
1.071430058049014367e+00,-9.870932165192689567e-01,2.525911160104296060e-01,1.075066529286353989e-01,-9.506682077973781231e-02,-4.703023778949582540e-02,1.814066648483276367e+00
9.639280729062015274e-01,-1.269384359598774381e+00,6.242269919118530463e-01,1.938925723747577101e-01,-6.442505134800877720e-01,9.985690049735232443e-02,2.394221305847167969e+00
8.324802059599440973e-01,-1.002995470880533313e+00,6.170660181679983314e-01,-1.771822301055137744e-02,-1.336432541306139914e-02,5.496066535791514426e-03,1.738262057304382324e+00
7.762383017227123538e-01,-9.794999604570381324e-01,7.753643344244451896e-01,3.560974328578276737e-03,1.722925973555865242e-02,-5.250195909907388186e-03,1.755589485168457031e+00
7.493383456751070426e-01,-9.659479000598156784e-01,7.668081710876786250e-01,-6.693643180520049418e-03,-6.429183827247558422e-03,-1.147628807895218449e-02,1.724277019500732422e+00
8.492771883799880017e-01,-1.020898377834950521e+00,6.145924689831081533e-01,-2.088594399237554515e-03,-1.188899247773043399e-01,8.525707058341309638e-03,1.776616930961608887e+00
7.526162945638177337e-01,-8.772960800655222879e-01,7.555488367665850191e-01,6.758635372884364695e-03,1.925728633583658964e-02,1.122334366474602579e-02,1.631879329681396484e+00
9.027685104785376780e-01,-9.868389031774289499e-01,4.857598365757429537e-01,4.246554451958524899e-03,-4.882601818173682579e-02,-1.623472205378934715e-03,1.721552729606628418e+00
7.857433668215813016e-01,-1.035575996328379045e+00,7.834344583378282101e-01,-1.100534696044963871e-03,1.445909696732508706e-03,2.941309273148993465e-03,1.820175886154174805e+00
8.025109877963656491e-01,-1.048859251838127893e+00,7.734665000764986420e-01,-6.779728247962431460e-03,-5.800611777620239690e-03,-2.532185407245464079e-03,1.837090492248535156e+00
8.302179354917644805e-01,-9.840743942126963795e-01,5.677967347317660618e-01,4.307889579128222450e-03,-3.699180961822735869e-02,-7.677022606327809718e-04,1.699580907821655273e+00
8.460114346907773308e-01,-1.077852598220228497e+00,7.975670003692293397e-01,-2.305185625898255319e-02,3.457849044781615734e-03,6.584469060819757302e-02,1.903952717781066895e+00
8.905863357107965950e-01,-7.942536789248904050e-01,7.896738883482136151e-01,1.127029983506899757e-01,-3.346080845612232069e-01,1.218381237946162127e-01,1.759936094284057617e+00
8.723678961718654978e-01,-1.240169682462815226e+00,6.450989684180322703e-01,-2.753079522558537703e-02,-3.372565977023318506e-01,-3.824601395782400298e-02,2.093379974365234375e+00
7.935662113606645196e-01,-1.013759312734498153e+00,7.737235351693403373e-01,-1.771275584061455556e-03,-3.318651670303812175e-03,-1.248066837219910302e-03,1.797499418258666992e+00
6.064205756262559532e-01,-1.020645901753876261e+00,9.323995351548619581e-01,-3.820140699904450710e-02,-1.314814662831229053e-01,-3.208888101674840787e-02,1.828476548194885254e+00
8.131180661232989548e-01,-9.930867871934635494e-01,5.878275150732433785e-01,9.733673107365252083e-03,-5.085460922026666108e-02,1.317114852922649654e-02,1.707270979881286621e+00
9.112779037655345249e-01,-1.023318317040980752e+00,5.181674266888273150e-01,3.269908792707870021e-03,-5.610299702202561911e-02,5.149924307632053680e-03,1.773765087127685547e+00
8.648520093926329588e-01,-9.891813750830238394e-01,5.297104431486306941e-01,1.316162002752719641e-02,-3.482977967417813514e-02,-3.009007161356820875e-03,1.712478399276733398e+00
6.907072602583190779e-01,-5.716450253350715549e-01,6.904594091030589187e-01,-9.199436926148363280e-02,-1.955320543827040666e-02,-3.093150308502261303e-03,1.272707819938659668e+00
7.419877250115050060e-01,-8.944062073747693908e-01,7.931064038121284909e-01,2.352308831131972103e-02,1.679483827636600937e-02,3.887021622788382202e-02,1.664658308029174805e+00
4.984491872442060045e-01,-1.077298525851910549e+00,9.789328614717385246e-01,3.607657720226831177e-02,-1.555296204419562289e-01,-3.002582131515828257e-02,1.884182572364807129e+00
1.040656805558926923e+00,-1.054744405896287596e+00,4.010444038129062916e-01,-8.391404207900767659e-03,-6.492586848754783313e-02,1.948593485848316292e-02,1.863749504089355469e+00
6.919817560028513892e-01,-1.493403909091320259e+00,1.139388427032731466e+00,3.734404087964969809e-01,-6.664818641348131401e-01,1.768748253406182969e-01,2.792608261108398438e+00
1.691507500279941567e+00,-1.973344753315094735e+00,3.658207833117838592e-01,7.059863800587432014e-02,-4.895914646741305609e-01,2.962801060750632764e-01,3.365640878677368164e+00
3.680192512552193929e-01,-9.166967854496936852e-01,9.695746199277169852e-01,6.129451678563743733e-02,-3.601315969290039831e-01,1.876188185071260561e-01,1.814152598381042480e+00
9.098795451197339013e-01,-1.018329761950177881e+00,3.932012012037225945e-01,1.582259098085098820e-02,-1.354187637901536345e-01,2.545585841112066317e-02,1.745392084121704102e+00
5.857049989732731055e-01,-9.860662741957191280e-01,8.057793422536680961e-01,-1.114137346759653570e-02,-1.277427579375221278e-01,-5.292413635418534781e-03,1.707107305526733398e+00
7.588375022142116455e-01,-1.041009475921195193e+00,7.729053321986516512e-01,-2.714005699855225398e-02,-3.096113732875994951e-02,-1.805321039351180656e-02,1.808598995208740234e+00
8.784099124293580640e-01,-9.999617356576351312e-01,5.196657039892630392e-01,1.093836962934459194e-02,-5.874777350155482858e-02,9.741804059016158021e-03,1.730352640151977539e+00
2.868060555892741892e-01,-1.629107455635545376e+00,1.546390436096770626e+00,1.890167775028025465e-01,-2.777078877645963173e-01,4.039343093646556582e-02,2.830896377563476562e+00
8.774807305537596358e-01,-1.003360571042947402e+00,4.815635788874815804e-01,-1.155991820309512814e-02,-1.930235359741955259e-01,-6.427012231345843700e-03,1.749844551086425781e+00
7.314201451139559218e-01,-5.251003213119141977e-01,7.174986115651833529e-01,-1.045801283135812110e-01,-2.315296125076129682e-02,-2.389303845249272223e-03,1.263321518898010254e+00
6.699582343856679278e-01,-5.131544439588375806e-01,7.161922740007835575e-01,2.658651316172996881e-02,1.667806067392221259e-01,5.041207017075883395e-02,1.244903683662414551e+00
7.590773324620585516e-01,-9.082041400439606615e-01,7.850833908986605270e-01,-1.956759108319403584e-01,1.993875996857369728e-02,3.638612811253118251e-02,1.715778231620788574e+00
1.762994668459798353e+00,-2.241596728900444369e+00,4.575257809624089789e-01,-6.878568650155539484e-03,-5.042291859088294803e-01,-4.474749651114247329e-02,3.644450902938842773e+00
7.646765915325322016e-01,-6.721004609413022690e-01,8.145060075553250956e-01,-8.484441716444610093e-02,2.905607251025350488e-02,7.123324867681864181e-02,1.475722193717956543e+00
1.172308381583552217e+00,-1.792316612744768278e+00,5.641520598307094847e-01,-1.019334323075939269e-01,6.183596164095406245e-01,4.734593353314535680e-01,3.034249305725097656e+00
7.894674273926645114e-01,-1.049609723226596403e+00,8.110778495451992365e-01,-1.513835974770135623e-02,2.158042810826946156e-02,-1.749865026221828282e-02,1.850788593292236328e+00
7.524794931733331804e-01,-8.623423580882332296e-01,7.680684425315110753e-01,-1.405350942393424341e-01,-1.349393866068748782e-03,3.130099643020797795e-02,1.641725063323974609e+00
8.639956989256633024e-01,-9.923396010539433654e-01,5.266832986029832409e-01,1.445917064855404416e-02,3.398365598306179319e-02,-5.197662459133016791e-03,1.713991999626159668e+00
9.042268009225001846e-01,-9.922205261708866297e-01,4.693519269985406694e-01,-9.160588634081650791e-03,-4.425228284568751003e-02,-1.209538764187387087e-02,1.722636580467224121e+00
5.547884034677270648e-01,-3.309086283615196855e-01,1.077246207408738776e+00,-1.393898550697495187e-01,-1.297375203583041037e-01,-4.946234759600035003e-02,1.279173254966735840e+00
5.657797646327824559e-01,-4.395191090227673070e-01,9.269212271121998192e-01,-5.361946148222963837e-02,1.245894066883091317e-01,3.522027828214813194e-02,1.250207304954528809e+00
1.875387812254693864e+00,-2.329069096589220678e+00,3.940354644530564832e-01,-7.170469562558547116e-02,5.070911670312813202e-01,3.478625690809591248e-02,3.799218416213989258e+00
5.540454621086243758e-01,-5.968795659440999657e-01,8.595047852506090269e-01,1.363077273792187571e-01,6.379783091035998166e-02,-1.135794234291367250e-01,1.369724512100219727e+00
4.846574323654081473e-01,-5.443459476974404909e-01,8.053859675065432322e-01,-9.105735230946490621e-02,1.283388095602551182e-01,-3.677739699932910944e-02,1.253032326698303223e+00
4.026063495214876609e-01,-1.016245747228037732e+00,9.537212982341093381e-01,-6.849107657797401383e-02,-5.652715162275266658e-02,-1.624016610435768601e-02,1.767277479171752930e+00
4.103236591807205569e-01,-1.355840158109449911e+00,1.229610979071358301e+00,1.348397428365045447e-01,-2.046459439895169374e-02,2.467899537349583367e-02,2.301128149032592773e+00
7.725699151012795918e-01,-9.975512690142186445e-01,7.942300830449026128e-01,-5.397635872645407777e-04,9.299213500253904023e-04,1.694629802596674464e-02,1.781292915344238281e+00
7.708916387822264404e-01,-8.847598382103831760e-01,7.403968464028132246e-01,2.437842820091081983e-02,-7.836609418963750434e-03,4.338436587521265781e-04,1.641216278076171875e+00
4.138976131187404595e-01,-6.636787142476054946e-01,1.227403150853476621e+00,1.566892567651252677e-01,3.805442297751458064e-02,-4.781270801333863119e-02,1.668662190437316895e+00
7.807122096764320673e-01,-1.021837084406089780e+00,7.458582323642213296e-01,-1.743748613173152356e-02,-9.168998602764048128e-03,-1.133231222786152369e-02,1.785811424255371094e+00
7.270360936454356438e-01,-1.007814107988217689e+00,7.561482510987647121e-01,-1.215347785154423550e-02,3.583186397641906912e-02,1.664760413351477550e-02,1.751052379608154297e+00
7.507500937196550650e-01,-1.015653771582543330e+00,7.478472955832219382e-01,-8.612321156228962965e-03,-1.472146929523054362e-03,-4.442588192352102156e-04,1.765019297599792480e+00
7.301420507815563621e-01,-1.086631599650424773e+00,9.028950420053840631e-01,-4.360622393909643901e-02,1.481183695047235682e-01,8.042932490551778918e-03,1.927713394165039062e+00
6.666134087138070319e-01,-6.261159497431303400e-01,1.046389261879362653e+00,8.658308630599469147e-02,-2.008533288321784072e-01,-3.251828097288784894e-04,1.565197348594665527e+00
7.816463212879424249e-01,-1.022063981594874438e+00,7.821909497964869562e-01,-3.217671333164238458e-03,-6.947030048710599662e-03,-2.793119158058602388e-03,1.804037928581237793e+00
3.228772393153458431e-01,-7.456782255384701852e-01,1.410884366635162479e+00,1.469507467572721826e-01,-1.595377512204500803e-01,6.042211237061050760e-02,1.907946348190307617e+00
6.805311055822735877e-01,-6.199173722059718727e-01,7.195784053462996877e-01,1.596567229470898658e-02,3.593245741122661624e-03,7.030374575591377684e-02,1.326311111450195312e+00
7.783462515548482674e-01,-1.036375831048100826e+00,7.797079175533089268e-01,-1.794458900711243515e-03,-3.369177395409734578e-03,-3.165852696574382842e-05,1.815415382385253906e+00
7.900221898235247897e-01,-1.018752578572318601e+00,7.312837471772093423e-01,-1.219837302645134305e-02,1.094570988023156784e-03,1.315044959225387423e-02,1.780404567718505859e+00
8.037520819879379053e-01,-1.008972830907041596e+00,7.194953998417243923e-01,5.816922773459756724e-03,-1.358827781219782219e-02,-2.040725980498361847e-02,1.772636890411376953e+00
6.884357696632847912e-01,-5.601418753886300284e-01,6.697903492338226350e-01,-2.204438543338429774e-03,-1.156689131234733825e-02,8.668849362992560662e-04,1.239528894424438477e+00
7.819160290994924267e-01,-1.037850353796187175e+00,7.832527185163628003e-01,1.065895045932002206e-03,-6.616796024178563107e-03,-7.346268791421621145e-04,1.820472598075866699e+00
6.828528811517315944e-01,-1.944964953097116367e-01,6.665179623777401918e-01,-3.162289766036776532e-03,-1.017813989416150797e-02,1.549315806816796703e-01,9.099612832069396973e-01
9.876976155477962260e-01,-2.047705441662720727e+00,1.057863221771709661e+00,-2.479298673786741458e-01,-8.925526787270705587e-01,-3.463724037819820856e-01,3.516511917114257812e+00
5.003328813519890561e-01,-1.042781013864265249e+00,8.988874338163986843e-01,-5.812497619323855197e-02,-1.682279568371810863e-01,-4.430644181677770299e-02,1.804435610771179199e+00
7.854436621426533760e-01,-1.030657122087992761e+00,7.730122018623848401e-01,-8.926779364136230854e-03,-2.619335602546998820e-03,-3.707784420707457580e-03,1.810000181198120117e+00
6.624678395423906352e-01,-3.424929746318330359e-01,6.592258284075970254e-01,-3.303979627364457550e-02,3.064917020324601279e-03,5.465719752142576826e-02,1.009437441825866699e+00
7.455615465269769260e-01,-9.944350533202948039e-01,6.881033083932275307e-01,-1.854608154739765397e-02,-1.543706210100046980e-02,-4.571507118873893412e-04,1.712501049041748047e+00
7.220303252976101316e-01,-6.310305820934420939e-01,6.787175760636211530e-01,6.419403621832003859e-02,5.157041208606563676e-03,-1.745091799973108636e-03,1.336598873138427734e+00
9.791239170548897697e-01,-1.139222675501555759e+00,5.828468399328107230e-01,3.148175317443788722e-03,2.138379676106440946e-02,-8.682440805107718984e-02,1.956781148910522461e+00
9.498738221947712335e-01,-1.079714816813968081e+00,6.247927460803003319e-01,-4.652710510250483017e-02,1.770610545871012173e-02,1.256457926392023638e-01,1.902609348297119141e+00
8.225338975578346812e-01,-9.403521025918479825e-01,7.068848733420927122e-01,-4.877790285652165714e-02,-3.252718839199931350e-02,8.657191365843575764e-03,1.711082220077514648e+00
9.682052571614953029e-01,-1.083529062863972436e+00,4.849646312011892113e-01,-1.816224684809222140e-02,-8.455478941158467432e-02,-7.150585486202941377e-02,1.868001937866210938e+00
6.780300862386989813e-01,-9.820306845032236165e-01,7.386495451640551213e-01,-6.254095439463164307e-04,-1.373673280105910249e-02,-5.516220001950484543e-03,1.691380262374877930e+00
7.938184941404039519e-01,-9.417258724120145530e-01,7.676190693287978650e-01,3.092720292989885149e-03,-2.856104011754966726e-02,-3.673678384552771237e-03,1.723324298858642578e+00
8.132457825318698541e-01,-9.976790075494789134e-01,6.302472913420049672e-01,-2.249100348583468051e-02,-1.095291790845485391e-01,-6.036111584300387842e-03,1.737572193145751953e+00
1.146589482230990331e+00,-1.906792026280523134e+00,8.568211325621750696e-01,1.960919656493074481e-01,-7.216395646099460492e-01,2.001222334612923759e-01,3.212495088577270508e+00
7.460388843292634631e-01,-1.015359223133986744e+00,7.520522716209337988e-01,3.058946696187370010e-04,-4.104388916363372816e-03,-9.105122709446286655e-03,1.764497399330139160e+00
1.073855433087635536e+00,-1.325211847477637095e+00,6.147083494005529669e-01,-6.160985948649645716e-02,1.355157192706719638e-01,-2.305023386325697268e-02,2.221010923385620117e+00
1.407700177442678502e+00,-1.651807134551283696e+00,4.570016773398755117e-01,2.952011713309686189e-02,5.449181232736597380e-01,2.156561541616935640e-01,2.896323204040527344e+00
1.852351717285060539e+00,-2.002092507678174371e+00,2.507421180086805146e-01,6.261048485129276642e-02,2.753603883883380954e-01,6.105093359691008553e-02,3.391016244888305664e+00
1.309006579237088852e+00,-1.375352603686548214e+00,3.382621438502796396e-01,-6.198009820970393213e-02,2.413447711690073771e-01,2.554637270821527584e-01,2.433999538421630859e+00
8.329461435502502065e-01,-9.838713479633024450e-01,6.990885584220970506e-01,4.114029698017020870e-02,3.419090893439906409e-02,-6.699354713587990506e-02,1.759999394416809082e+00
6.364534579940199777e-01,-1.061170445581434141e+00,8.048941033920022914e-01,1.801363985843327728e-02,3.161488172103852357e-01,3.719762150879841328e-03,1.870056986808776855e+00
1.062594145432367077e+00,-1.182909589010278761e+00,5.772838752062090517e-01,1.411781739682586856e-02,6.423250867707008815e-02,6.548344458321177231e-02,2.052775382995605469e+00
6.626635419276498684e-01,-1.010534080257728951e+00,7.906043782003544518e-01,-2.216444615187370196e-02,2.715758373556249883e-02,1.969904465855688153e-02,1.742090702056884766e+00
9.647039513260219357e-01,-1.469900255057011274e+00,7.768405917582561493e-01,-3.413165415760875676e-02,7.239808298278953558e-01,-1.574259520822349767e-01,2.674977779388427734e+00
2.269801000843782723e-01,-2.068635038952328475e+00,1.659343095478068575e+00,-2.670472352382704390e-02,-2.914553244406656862e-01,-3.336878952892896252e-03,3.296464443206787109e+00
6.580158656502029801e-01,-3.647475099430957934e-01,6.570162522834934737e-01,-2.804958759077573471e-02,-1.617215497874029823e-02,5.678544035036614535e-02,1.028514623641967773e+00
5.547191365097769999e-01,-1.538661423087270164e+00,1.223283122993857885e+00,2.046543562781727166e-01,5.263049983286627320e-01,-1.567072804183427537e-01,2.694270133972167969e+00
3.568914799422222561e-01,-1.115952678491999750e+00,1.338425280102064185e+00,1.958879435979239969e-01,1.969792002672985376e-01,-2.319637561363991143e-03,2.193139314651489258e+00
6.999368494776048166e-01,-7.117923329857326342e-01,7.324815918915743573e-01,-3.639224934004733902e-02,-8.925357861357695322e-03,5.817983409691596802e-02,1.433300256729125977e+00
2.771070325761117448e-01,-2.277651222384532215e+00,1.929458422945741880e+00,-2.033366995871833671e-01,3.867404930202156255e-01,5.308260117731951333e-02,3.749614477157592773e+00
8.644933239163715699e-01,-1.298723473209584922e+00,6.733719994499679506e-01,-7.304627446510562200e-03,3.615903266345847911e-01,6.702526320352114597e-02,2.169902563095092773e+00
7.269869564653002048e-01,-7.743549241514314785e-01,7.495823072714326019e-01,5.575461554158838914e-03,-2.746307792271478546e-02,6.989170185902879306e-02,1.518378019332885742e+00
7.619932112699826510e-01,-1.023790789495221176e+00,7.856848058352586817e-01,-7.796323302643603723e-03,1.165122400386090461e-02,1.203468844976327695e-02,1.798031687736511230e+00
2.163532386768499682e-01,-1.340495367535891491e+00,1.506561488818014771e+00,2.295287874421366239e-02,1.510129098602991382e-01,-1.526369120165706715e-02,2.483499050140380859e+00
7.223412451490922592e-01,-6.297625414381884390e-01,6.769751110518162918e-01,6.359511790248238705e-02,-7.108962321689356117e-06,-3.173316861694861976e-03,1.334565877914428711e+00
7.456646412828030757e-01,-8.519436456251826550e-01,7.623693586110725784e-01,-1.972874803248518896e-02,-2.461043403948333375e-02,-7.292430744651355254e-03,1.607004404067993164e+00
8.022654295532415381e-01,-9.868964375324118521e-01,7.549167785869631553e-01,1.221922526395854101e-02,-1.044459337527338383e-02,-4.594676319173855716e-02,1.767975211143493652e+00
7.831177268991263984e-01,-1.029792398817667376e+00,7.822953955551018579e-01,1.986520286832609613e-03,-2.140385387893179673e-03,2.495132281580417569e-03,1.812511324882507324e+00
2.284466316100911831e-01,-9.438875148849015240e-01,1.494116050844246590e+00,2.874273518834699059e-01,-1.295876237823835042e-01,2.270028146511753747e-02,2.181706190109252930e+00
7.695235369179700413e-01,-1.029972206085410402e+00,7.713204897311320973e-01,-6.567944242104404272e-03,-2.334956816299534055e-03,1.459223659148891987e-04,1.800435423851013184e+00
7.971720141952541583e-02,-2.239485073184631414e+00,2.169592636917209827e+00,3.320732546820526210e-01,-2.013433856677576128e-01,-3.865629577965120842e-03,3.878866195678710938e+00
7.771741761888306677e-01,-9.858552048498481213e-01,7.883740533775400738e-01,-1.555934451640038699e-02,1.397759204928372169e-02,-8.639759140172944760e-03,1.769090175628662109e+00
7.842326290487112717e-01,-1.035111068006417723e+00,7.837910387298822057e-01,2.537952909546952948e-03,-2.090272703749624771e-03,4.293996523808958458e-03,1.819147109985351562e+00
4.936919046241587949e-01,-1.073891447434673019e+00,9.974944949289187290e-01,-1.516340755164284106e-03,-1.824671908661313346e-01,5.817784897943382993e-02,1.900244951248168945e+00
7.797931270987673580e-01,-1.037434309976977165e+00,7.802685152455682838e-01,5.937278380051898199e-04,-4.243033590179075970e-03,1.606331472359973306e-03,1.817482471466064453e+00
6.304681255988853206e-01,-1.016829729958637296e+00,8.311818734431952738e-01,3.349425622025435645e-02,1.166049077335772413e-02,-2.179797347954902723e-02,1.757757186889648438e+00
1.859293540830239122e-01,-8.174597075495638743e-01,1.060174112345399156e+00,-1.856049814420603072e-01,-7.028180986092433247e-02,6.086660694879212491e-02,1.666607856750488281e+00
3.013713856778824085e-01,-6.566047106913622811e-01,8.967856827930192898e-01,-2.115756160752050308e-01,6.914186674035634715e-03,6.616624072730284412e-02,1.410744190216064453e+00
4.761711799020283964e-01,-1.040226453850833899e+00,9.591652437151043653e-01,-3.320001332926750780e-03,1.925769901544214374e-02,-5.671636061981398177e-03,1.807317972183227539e+00
7.216568499487449051e-01,-5.086402185864666858e-01,9.818553542886827579e-01,-4.859469433522919241e-02,-2.092009252433883471e-01,-6.678432491858940501e-02,1.432904601097106934e+00
7.750104371413572002e-01,-9.914715606583995866e-01,6.282577781290484831e-01,-1.958977343876086574e-02,6.636371338701035905e-02,1.131327105826790760e-02,1.702206373214721680e+00
1.851845821238474188e-01,-2.451991762161060073e+00,2.174334960769319203e+00,-1.074153723819081530e-01,-2.207424065670369751e-01,-8.662083945247089911e-02,4.044806957244873047e+00
1.899361228750197084e-01,-2.664803039175401622e+00,2.389979799017313944e+00,-1.902632461168869416e-01,-1.370699793303302993e-01,-1.050206871158795296e-01,4.412293434143066406e+00
6.733213549507661710e-01,-6.313488265095407170e-01,7.203943977376440211e-01,8.643473067489201660e-05,-1.218573627982171698e-02,1.012552383721896931e-01,1.340521693229675293e+00
7.824069632924732787e-01,-1.033009014254713920e+00,7.771795626269029089e-01,-2.755998335955131724e-03,-8.718966100085188270e-03,6.620456188673710593e-03,1.812913417816162109e+00
2.248163769339599494e-01,-2.130443567967701846e+00,1.940942879393780407e+00,-2.592038574261412015e-02,2.434641036107639822e-01,8.471583457740633483e-02,3.568701982498168945e+00
4.914399941511546355e-01,-9.892411029696221991e-01,8.954047874187720524e-01,-4.719566696477769246e-03,3.733279274381585272e-02,-2.546477287177620775e-03,1.719887971878051758e+00
7.817601438021383187e-01,-1.033148307758218643e+00,7.823772363214419601e-01,-3.678893672252202610e-03,-7.275807980010144671e-03,1.826982712797400529e-03,1.815274715423583984e+00
7.760401535589482869e-01,-1.032497048617230906e+00,7.794612953491946161e-01,-4.847911243907231105e-03,-9.956171927489945728e-04,6.349005722244056675e-03,1.810303926467895508e+00
1.879279715822490537e-01,-1.121989865357185368e+00,1.467528534646950655e+00,-1.767070885964263649e-01,5.682788407933746233e-02,-1.336095641233999709e-01,2.277356624603271484e+00
7.824809345142171857e-01,-1.037916463388608657e+00,7.818916612386042075e-01,1.429405304694590000e-03,-1.275481050358550413e-03,2.441644993425110162e-03,1.820110797882080078e+00
7.416046038452434042e-01,-1.054618931650076918e+00,8.559782457596254446e-01,-7.425045493670223706e-02,-1.779541485244844345e-01,-2.774683006195950360e-02,1.886476397514343262e+00
6.189308702246876237e-01,-5.321926230118980694e-01,1.102816660122923231e+00,-1.023952325399208052e-01,-1.323537792018634474e-01,-6.141836388049762285e-02,1.487133741378784180e+00
4.839880112796391964e-01,-1.489419026512986743e+00,1.327412127473131864e+00,-2.501866476303447051e-01,-4.764999726097352006e-01,1.214296916883578215e-02,2.671983957290649414e+00
7.413279940642727439e-01,-9.863862645135405005e-01,6.814675396517423378e-01,-5.056693108467093072e-03,-6.587995508803520806e-02,-7.989982079010873872e-03,1.702482581138610840e+00
6.820437355161996784e-01,-5.370282107216535206e-01,7.532082800165851300e-01,-9.112707794640934056e-02,-1.301576379547036283e-02,1.279930872767221228e-01,1.285504937171936035e+00
4.091090403531565389e-01,-1.078316433376849792e+00,9.169430485504880268e-01,-3.369885628574784131e-02,-3.915446839386785838e-01,-7.016340604002183068e-02,1.924523949623107910e+00
5.106059897546740833e-01,-1.010941869316853481e+00,8.798324917279316537e-01,8.592441832567458693e-03,-7.586334276731079851e-02,1.106069456456591597e-02,1.741001486778259277e+00
9.150907780446253525e-01,-9.774731730964449916e-01,4.412828531504249252e-01,1.778179043768343681e-02,-3.193507098523381410e-02,1.192978939652749454e-02,1.707048773765563965e+00
7.680914929043785033e-01,-8.961258416025961182e-01,7.506812470969277395e-01,4.723439153109189673e-03,2.454146315832480413e-02,4.316719905631096268e-03,1.656163573265075684e+00
7.160667231404898025e-01,-1.029597109675268962e+00,8.179239277952519149e-01,-8.928254513804747064e-03,1.096151709419184274e-03,-1.186429417833621998e-02,1.798941493034362793e+00
1.018385483794962632e+00,-1.093197532554920137e+00,7.296042029691699460e-01,1.578053855695374721e-02,1.662126467919784615e-03,-1.882925328910242321e-02,1.983484506607055664e+00
6.710779844433006902e-01,-1.023879671558383553e+00,8.526601150126843498e-01,-1.401647587357149512e-02,-2.955532330575293999e-03,3.273464955818039535e-03,1.792840003967285156e+00
7.591907673112520127e-01,-9.997648239944451065e-01,6.871518453165930129e-01,1.525521675342443942e-02,-1.807798445297483653e-02,-1.487830391302500917e-03,1.724553942680358887e+00
1.068620700561787151e+00,-9.123379414978527446e-02,9.888218065288296721e-01,-3.498276390495907995e-02,4.475477743539235664e-02,4.405723010829039332e-03,1.126416325569152832e+00
4.863996289559862074e-01,-1.104275974086879053e+00,1.008164033870524889e+00,-3.646970404526802406e-02,-1.403555779955582006e-01,-4.817507737651851446e-02,1.924187302589416504e+00
6.441380556494955556e-01,-4.190929281187906752e-01,6.656236334127375587e-01,-9.963893175947676276e-04,-1.973362825685697625e-02,-8.135329920411663029e-02,1.083878278732299805e+00
1.093492617729895588e+00,1.740629862337494949e-02,1.184493513676768917e+00,2.493882448116892941e-02,-7.795490116700548068e-03,1.891025945681475140e-02,1.125739216804504395e+00
6.178012736308169384e-01,-2.533906957432604523e-01,6.088280717783014495e-01,4.422730647994169845e-02,-1.283551848488156434e-03,1.080553214772606756e-03,8.701236844062805176e-01
6.036892453778764933e-01,-2.556215370516492502e-01,6.179408483216302095e-01,1.874770918198706733e-03,-7.715490305120780616e-04,4.327425027740634117e-02,8.697671890258789062e-01
8.241177049561440038e-01,-6.539341787103812864e-01,8.730427838879292191e-01,-1.190331974367696832e-01,3.255417799114351807e-01,6.102293334351092252e-02,1.622022032737731934e+00
8.388121495364813107e-01,-1.008126270700402838e+00,6.259375979181124316e-01,-3.385253020778874675e-03,3.279035874059738759e-02,2.995796924756782831e-02,1.751937031745910645e+00
5.941780936974268013e-01,-1.001775421949640865e+00,8.370325781944389920e-01,-2.269230117510123018e-02,3.619902040327671600e-02,2.739304751211803918e-02,1.732442617416381836e+00
7.229540685591319127e-01,-6.328665963374877634e-01,6.781892400695261891e-01,-7.733621852232892835e-02,-1.653737000111570737e-02,2.613871588866248982e-03,1.341023564338684082e+00
9.793155276237827112e-01,-1.127262113019441792e+00,4.664919478187288249e-01,4.613343801920854331e-02,-1.416288790322019729e-02,2.381368854515447577e-03,1.904562473297119141e+00
6.562580543418921053e-01,-4.862093348482297572e-01,6.792343510757659075e-01,-1.029718461102045648e-03,-9.044176519959664859e-03,-2.114280072076267763e-03,1.154240608215332031e+00
1.093959093805757066e+00,-1.268140937388513523e+00,5.166680302439056183e-01,5.071582089016312550e-02,7.452881952611828398e-02,-9.156516458318152488e-03,2.138643026351928711e+00
6.271808213361066420e-01,-4.067377706786116098e-01,6.276191974552283170e-01,6.540614998630202293e-02,-1.820252854576419610e-01,1.712781879465738177e-01,1.126802206039428711e+00
1.034395338712131185e+00,-8.487798640443611209e-02,1.163293785419358350e+00,-5.789201351276748904e-03,-2.215028644378785883e-02,-4.800911900311789771e-02,1.192538142204284668e+00
7.536914062295254624e-01,-9.867981476596188184e-01,6.883524986053269901e-01,-4.673694232375798230e-03,-7.934296438052104716e-02,-2.370817418460297726e-02,1.714785456657409668e+00
6.361121529945856778e-01,-4.254894239586973215e-01,6.536481881347380174e-01,3.006111181192339023e-03,-9.552345249870843047e-03,4.521247245894115946e-02,1.073477983474731445e+00
4.438508884655794628e-01,-9.932228543579053603e-01,9.172297039921173401e-01,-2.765813479557293827e-02,-5.490737783503357727e-02,-5.210577426279975818e-03,1.726548433303833008e+00
4.037372104769726411e-01,-1.700858628307682086e+00,1.332217040284855658e+00,9.935400942062035112e-02,-5.219920915571403253e-01,1.331590276763500724e-01,2.854068756103515625e+00
6.827937754649728852e-01,-1.042971779435235780e+00,8.471323140121180817e-01,-1.118653549369200487e-02,2.579595350920107708e-03,1.160535452008156117e-02,1.813748359680175781e+00
2.615018710231316601e-01,-1.368609889841352789e+00,1.221922231228088851e+00,6.787007577892535323e-03,-1.004180646157406681e-01,7.479995822053145393e-02,2.278692245483398438e+00
1.114716157427048771e+00,-1.505073490933238611e-01,8.255085676979099230e-01,-5.582685032319831264e-02,1.898694326029051055e-02,-2.979025291477290296e-02,1.153955459594726562e+00
7.055018375689650068e-01,-7.070556931114400090e-01,7.333818422655598024e-01,-3.878383779415145449e-02,8.306653341060295237e-03,-5.038243337196098709e-03,1.428381562232971191e+00
7.200822538376872028e-01,-7.670319939388544617e-01,7.591651798578473720e-01,-4.894284668583657322e-02,-1.583459215303693185e-02,8.656095153030599065e-02,1.517093896865844727e+00
3.176345424586620170e-01,-1.167389441020002305e+00,1.390965196497377931e+00,-1.303975523653068680e-01,1.817679067438289220e-01,1.976635836931294604e-02,2.258884191513061523e+00
7.928633128709796640e-01,-1.013693125124673244e+00,7.806117407170916067e-01,-4.442861856260033569e-03,-1.153556924768418552e-04,-3.500954502057620002e-03,1.800488591194152832e+00
4.018782018108982834e-01,-1.009309743368061119e+00,9.570668274489149141e-01,3.291731749441463573e-02,-2.514746489411756603e-02,9.579799858997534515e-03,1.757436871528625488e+00
7.658091533111565097e-01,-9.901856546526602854e-01,7.811908075976349286e-01,-7.121233653250989143e-03,-1.165252719098301692e-02,-1.774267813383395564e-02,1.764162182807922363e+00
7.533905900030883895e-01,-7.959341024323121072e-01,7.055600643676536166e-01,7.018918520160097145e-03,6.989804103638669330e-03,8.480001918373555186e-03,1.526138901710510254e+00
7.641064357439694144e-01,-1.031069031306157902e+00,7.903042242424482833e-01,-6.105978910239912710e-03,3.547060647878789996e-03,8.480071715353958844e-03,1.808517694473266602e+00
5.578076985469756499e-01,-7.175963029848291264e-01,1.190931695486638242e+00,-1.108617446700972953e-01,1.663855641861568535e-01,4.302569186886837788e-02,1.720600843429565430e+00
6.911760287847247275e-01,-6.658692181378580432e-01,7.237597078969894016e-01,-3.077477905330609081e-02,1.530214447299625170e-02,-6.823661699354978405e-02,1.379986763000488281e+00
7.789348057620256727e-01,-5.015891864240953346e-01,8.683598099859598518e-01,-1.061499833134846305e-01,2.779600276535140746e-01,-6.406405884327646266e-03,1.424065113067626953e+00
7.810846121319270363e-01,-9.794987026408434883e-01,7.550865866380462865e-01,-1.428451773019487336e-02,1.868423637574902294e-03,1.063234588573160055e-02,1.748004436492919922e+00
7.732583979203515590e-01,-1.017587576652494663e+00,7.919939933778195051e-01,4.203219432641578171e-03,1.092159356844388555e-03,6.301120093845962366e-04,1.800302982330322266e+00
8.295580775624875614e-01,-2.017099880036701265e-01,1.125181100601305939e+00,-4.938939032666501278e-03,1.758177678664082574e-02,1.164371335897821692e-02,1.207137346267700195e+00
5.034509220563299081e-01,-1.203306077141016006e+00,1.062580170380004851e+00,-2.738279639762863232e-02,-9.163801313754628419e-02,2.259543133326068903e-02,2.051564455032348633e+00
5.908366595388390152e-01,-1.733909266121011150e+00,1.347488543321977428e+00,-1.805094275308183616e-01,-4.913502984891412462e-01,-1.221230602644666208e-01,2.933045864105224609e+00
2.471856156970849150e-01,-1.494897983811613207e+00,1.235495502198037832e+00,-2.030336659110625608e-01,4.232295748655877654e-01,1.231408745153805134e-02,2.528798818588256836e+00
4.852146745800008931e-01,-1.137695059172986634e+00,1.036397837949957212e+00,1.325781818815303659e-01,2.734827365234097085e-01,-3.460409937356515725e-02,2.028018951416015625e+00
5.063977586509014195e-01,-1.065833585938390060e+00,9.230078486150362638e-01,-7.245032065280172795e-02,3.797250153643573489e-02,5.297341977618213495e-03,1.822262287139892578e+00
2.185849724723432086e-01,-1.652143411607921442e+00,1.524158013557792124e+00,2.445313333203918693e-01,-3.705528634545467437e-01,-2.423202039028614641e-01,2.900687932968139648e+00
4.648502877476898831e-01,-1.006029747853053546e+00,9.228801818550597114e-01,2.055294092049101198e-02,2.058323927509195794e-01,-1.068691474706195965e-02,1.782048583030700684e+00
2.212222327089554963e-01,-1.916918681273457548e+00,1.552560609464727515e+00,8.753464114382865369e-02,2.673902216319999636e-02,-1.954226462948835397e-01,3.054570198059082031e+00
5.296136592418343447e-01,-1.203328556293253193e+00,9.836545736976920473e-01,-1.301168107362847826e-01,-4.455828299341993426e-01,-1.522056196272444095e-01,2.170712232589721680e+00
7.294085237123406618e-01,-1.185151142083918474e+00,7.475167321385161046e-01,-3.795029918478096120e-02,-4.115128665926035545e-01,2.978812486177766835e-03,2.052537918090820312e+00
4.876589396289965905e-01,-1.026882254471036759e+00,8.961104801197713465e-01,2.210364283853714223e-03,1.169516165843634825e-01,-2.232503881026352670e-04,1.766446232795715332e+00
7.717094805905877486e-01,-1.030599127916727475e+00,7.766675173183066327e-01,-4.203951885764702079e-03,7.262934852055318198e-04,-4.526356385854125169e-03,1.804824948310852051e+00
7.929583214316127115e-01,-1.020032057003633197e+00,6.927983735228024909e-01,-2.394414436306576202e-02,-9.640986309100926105e-03,-2.145176008241430135e-02,1.766000151634216309e+00
1.894751296140798347e-01,-1.250568175637023272e+00,1.148313280918776602e+00,-1.613785581858354912e-01,3.901533013202566069e-01,5.069902050332206200e-02,2.217287302017211914e+00
5.800773878830123298e-01,-9.947061683376698937e-01,8.482133423483140255e-01,2.653424778184910668e-02,1.479292030661542509e-02,-2.060622101391195241e-02,1.725728511810302734e+00
6.808150947587741086e-01,-1.028351660024913627e+00,8.369270582455117236e-01,1.274196053924557190e-02,-3.072271268156612483e-03,6.359039326787097740e-03,1.792506575584411621e+00
1.173360744188673532e+00,-1.440309741613526651e+00,6.373444817547476715e-01,7.379050063167436058e-02,-5.057817271403568515e-01,3.036193107206262565e-01,2.603450059890747070e+00
5.354930300018905243e-01,-1.028724999480450153e+00,9.285424452180695010e-01,4.260966438039475064e-03,8.293745640564631483e-02,-3.446943857764805247e-02,1.800093173980712891e+00
7.526623010032291727e-01,-9.259601416701550569e-01,7.834340145948301970e-01,-4.475990311244474966e-04,2.014720720370393771e-03,-6.308646747586804313e-03,1.694256901741027832e+00
7.930757612609184992e-01,-1.033830695496746221e+00,8.238770228153143860e-01,-3.489867715649874746e-02,-4.120841561011690315e-03,-2.848417333339126056e-02,1.844165325164794922e+00
8.155708983184265515e-01,-1.022577446873370155e+00,7.294400337883730767e-01,-9.830689026518943385e-03,3.466106473983319655e-03,-7.280381847478406944e-04,1.796723127365112305e+00
8.204209827070647609e-01,-1.083594013739359818e+00,7.421017729421943709e-01,1.420811397601712787e-02,6.561733966890608005e-02,-2.785554423396071483e-02,1.870330572128295898e+00
7.785599075954932058e-01,-1.035700513989907368e+00,7.791248147923331979e-01,-3.637264961056893217e-03,-1.442890306050052980e-03,6.117318890596048684e-05,1.814555644989013672e+00
1.560856556836793807e+00,-1.758752920514657703e+00,3.506275914714586106e-01,9.762590074328303391e-02,-3.582073220078538789e-01,3.412632083261366578e-01,3.038072586059570312e+00
1.286620466552501840e+00,-1.853702497219745116e+00,4.888495835898467590e-01,-1.720641392039355677e-01,-5.435473533423473835e-01,-6.611649768001603977e-02,2.996843576431274414e+00
6.448339934397522288e-01,-1.046176372359115314e+00,8.614504326850931371e-01,3.691085315702385961e-02,1.702967817658763983e-02,-1.394170185535183529e-02,1.810602068901062012e+00
6.597335178778964693e-01,-9.862375308463808832e-01,7.550210711214371262e-01,8.544234964684432540e-03,3.521366872561297601e-02,-6.883146226477497923e-03,1.696827054023742676e+00
7.143774561295435088e-01,-9.798991477876410894e-01,6.929322606889705138e-01,-3.080583777388741940e-03,2.423260163355006255e-02,4.964829123879512364e-04,1.684188246726989746e+00
7.836359816110388676e-01,-1.269109436025927407e+00,9.734110271950112692e-01,-2.480469472713299484e-01,-5.638353566464241462e-01,-1.355282612379211105e-01,2.415109634399414062e+00
1.176397295887114725e+00,-1.808359396535513364e+00,7.163912875181931428e-01,-5.224412917439167359e-01,-9.024039991322574394e-01,-3.184606589389421538e-01,3.363548278808593750e+00
7.258762204664426232e-01,-9.850536467417488895e-01,7.063519204956839603e-01,6.379321388722570055e-03,4.733836453042469805e-03,2.460853344997252271e-04,1.701307415962219238e+00
7.615673069992030531e-01,-1.025390138550707597e+00,8.004715331999603389e-01,-9.604271493380457311e-03,2.373678162840921028e-03,1.796476388533677863e-03,1.806807637214660645e+00
1.021807963875732472e+00,-1.359097463567738640e+00,6.822564217949538268e-01,-3.426909403078366445e-01,-7.258967979653180302e-01,-1.150556850168218126e-01,2.635975837707519531e+00
7.647407601666134092e-01,-1.030663448560390938e+00,7.858189341503262204e-01,-2.030673681441966857e-03,8.950172347912870117e-04,1.257033993956144236e-02,1.806170821189880371e+00
7.783158515452209825e-01,-1.013267695103725607e+00,6.951650574117321790e-01,2.403720744057308289e-02,-1.620864422361658133e-02,2.124954054745573778e-02,1.752595305442810059e+00
1.519800897699028708e+00,-2.301510830802234508e+00,7.152162354862516835e-01,-4.803704034129203243e-02,-8.069663337087249477e-01,-7.314020355684937302e-02,3.761883258819580078e+00
6.761805849659521250e-01,-9.950344831077218011e-01,7.568015485014150112e-01,4.780095907159811509e-03,7.089374969749018263e-02,-1.069979035293206968e-02,1.717464447021484375e+00
7.050628840517688678e-01,-9.829328735623761304e-01,7.222092179584329585e-01,2.079187290332614030e-05,8.010762789375963297e-03,1.686547921168743395e-05,1.696690678596496582e+00
1.362922887014172302e+00,-2.319808383890162418e+00,9.294593293631340236e-01,-1.944958464720554503e-02,-8.592406196337926128e-01,-9.011301038682667519e-02,3.794001817703247070e+00
5.910811011065127962e-01,-1.267523185560820442e+00,8.002506476665151025e-01,-1.080473113336888683e-02,-5.975002856168531995e-01,4.666316881117898996e-02,2.228189229965209961e+00
7.120262051359986799e-01,-9.831424439074909483e-01,7.160343991774236194e-01,-6.767451956359995060e-05,3.052827453081796705e-02,1.432079673727309783e-03,1.698001623153686523e+00
1.678605154624940976e+00,-2.083611660998166748e+00,4.519103423316641055e-01,-5.217150311990448319e-02,-5.058720377927576894e-01,-7.208759177721273115e-02,3.440267324447631836e+00
7.558288051298911459e-01,-1.064030048204676282e+00,6.960105906657767516e-01,3.699854271387068017e-02,-1.188805903024022781e-01,2.346426447206361246e-02,1.804095268249511719e+00
1.060997724066685466e+00,-1.938518198901527212e+00,9.895304565305683697e-01,-1.664249816192057141e-01,-8.387341449099499080e-01,-1.516329212032049845e-01,3.324203729629516602e+00
7.881641487277457614e-01,-1.004651162931736286e+00,6.862167980407061219e-01,-1.771105779777760666e-02,-1.413192461489139184e-02,-2.214639441130375475e-02,1.744940876960754395e+00
1.519931547164627084e+00,-2.029903825362514791e+00,5.418338354516850641e-01,-3.266691509191381459e-02,-7.204706740912443230e-01,1.182456701489934814e-01,3.418815851211547852e+00
7.452531609170894855e-01,-9.801676584272350778e-01,6.497103124071758051e-01,-7.342810604555400494e-03,-4.240917124070638089e-02,-5.475175085064968618e-03,1.681368827819824219e+00
7.739418282692926976e-01,-1.026549802768950359e+00,7.830426844526801045e-01,8.427091270318150945e-03,-1.113426681258276613e-03,9.327411819749741040e-03,1.805191636085510254e+00
7.722588903992152476e-01,-1.001442792472958310e+00,7.311661513313261196e-01,-2.145114762877484843e-02,-4.911735387152083021e-02,-2.111397143098978774e-02,1.756352901458740234e+00
2.437671936831676267e-01,-1.129845405461880947e+00,1.096934193541788449e+00,-7.549222609431234521e-02,-2.160531431612379705e-01,1.855928504277439689e-02,1.986150503158569336e+00
7.935604122285151441e-01,-1.036532891164803960e+00,7.840894881659367099e-01,-2.229615629017782851e-04,7.249852502069970873e-03,3.148212561636298291e-03,1.825427651405334473e+00
9.412479268424034373e-01,-1.088731244382816765e+00,6.320061159061820533e-01,1.589398743660561455e-02,-1.443794092552814767e-01,4.443662454322713784e-02,1.912566184997558594e+00
7.538155307235412383e-01,-1.048127778545882460e+00,7.802525884610019835e-01,3.403373906308355956e-02,-7.538787829468900081e-02,3.701582290632725314e-02,1.822079062461853027e+00
6.130296343419502358e-01,-1.032766828908393997e+00,8.672792876170251075e-01,4.321366351785748544e-02,-4.614059086838113305e-03,1.493018208124810391e-02,1.788313984870910645e+00
4.622636310791887748e-01,-2.297131671470262759e+00,1.707558410608671196e+00,-8.105621632655102271e-02,-5.544061680935530312e-01,-7.509612556353805618e-05,3.680094003677368164e+00
5.030755502296002657e-01,-1.722325986033323320e+00,1.302170785128623942e+00,-2.802731329080113687e-01,-6.373962488251350145e-01,-1.801199706498818609e-01,2.986818313598632812e+00
4.855163997786751673e-01,-1.003996413581262237e+00,8.498960309016602155e-01,1.643083977759912662e-02,-2.450319720770138265e-01,-3.852002686470555604e-02,1.754865288734436035e+00
8.046634155853296111e-01,-9.936504246411796970e-01,6.025085211464227264e-01,-2.913118087602320841e-02,-8.128010931840787268e-02,-2.108580579897043061e-02,1.713172554969787598e+00
5.041727117203080866e-01,-9.995734181265800711e-01,7.397678496954431804e-01,2.338555254666475902e-02,-2.649398969906269219e-01,2.606178512372609585e-02,1.698614239692687988e+00
7.687409531693665254e-01,-1.003827761823489650e+00,7.001710478099230084e-01,-1.280762344758724393e-02,-3.045081073867578550e-02,-1.280131801121807585e-02,1.740379929542541504e+00
9.656371010020581291e-01,-1.182922305130908791e+00,5.358800688254325983e-01,1.034744783340159346e-02,-2.879233659186264394e-01,2.614354864539116235e-03,2.031423568725585938e+00
6.147493979656302177e-01,-2.554900052938767763e-01,6.181130766115264796e-01,1.105904660041032682e-03,4.917744998687809685e-04,-4.641394001761093430e-02,8.756268024444580078e-01
9.873798998885379152e-01,-1.166851682306003779e-01,1.142680177602721558e+00,5.101679296516709039e-02,5.070473195255562754e-02,-1.749554969625223902e-02,1.196235299110412598e+00
6.123829575555377325e-01,-2.907088202167879554e-01,6.345150789063142005e-01,1.528922371994623523e-03,-1.340564026531992350e-03,3.248086366378034537e-03,9.143828153610229492e-01
7.239298033352931094e-01,-7.706940042839156568e-01,7.469706739324925016e-01,4.561604786909263798e-03,-1.951319632131509260e-02,-7.160553164158483738e-03,1.506727337837219238e+00
9.617212322671155889e-01,-1.064323199120752905e+00,4.040943841700463390e-01,4.532821123969603926e-03,9.389248342654821222e-02,-1.014730953307463740e-01,1.828503847122192383e+00
7.826705360783480225e-01,-1.030128448010534381e+00,7.829147359992942867e-01,-1.362198208861844714e-03,4.521206682819849977e-03,1.618688864337965638e-03,1.812941670417785645e+00
7.702503779472108514e-01,-1.032665531790707414e+00,7.799427431403654909e-01,-2.117937008159730670e-04,-7.719787318517790358e-04,1.183509573835460522e-02,1.807898283004760742e+00
7.824435739470780860e-01,-1.038467751080785817e+00,7.791376883845657630e-01,-2.884609293172404106e-03,-4.221580658066755986e-04,-4.192623438102925171e-04,1.819267749786376953e+00
7.782680160216211007e-01,-1.015745004684726283e+00,7.934191668798851182e-01,-5.567514715282433080e-03,-1.713186905920433337e-02,5.425058047954681856e-03,1.801931023597717285e+00
4.408977768565519040e-01,-1.093335938583964273e+00,1.018401622031618547e+00,-2.299642619304470906e-02,-1.315128993214311759e-01,7.571421710262728026e-03,1.904482841491699219e+00
8.257716781320876276e-01,-1.030849573256980012e+00,6.442515284729742886e-01,-4.499652916101629097e-02,9.554837071595041753e-02,3.862383560336774685e-02,1.783512234687805176e+00
7.930870273636295709e-01,-1.026684505401189718e+00,7.323363746458818602e-01,1.223624006166420392e-02,-9.843852546778372736e-03,1.247803980907920621e-02,1.790506601333618164e+00
7.784368062324538151e-01,-1.033716635833541009e+00,7.746275963229939387e-01,4.906982125725552202e-03,1.202448923529586848e-03,-2.589849264574128201e-03,1.810278534889221191e+00
5.762423197945238940e-01,-1.033493342816075744e+00,8.887047834425756410e-01,-1.193795351357544374e-02,3.019349896455830046e-02,1.524463934109517201e-02,1.787658572196960449e+00
7.690546837525253920e-01,-9.953170035307344898e-01,7.929721321903692166e-01,2.995836942774725460e-03,2.945252102011478024e-03,2.010167974312947192e-02,1.776807188987731934e+00
7.847167283760192458e-01,-1.024746112060193060e+00,7.802964666585182618e-01,6.550691569291318926e-03,-8.315023331716324059e-03,-6.087004565307599369e-03,1.807380557060241699e+00
5.944544951556374190e-01,-1.016100728435345601e+00,8.752579274542182652e-01,1.446520365180893608e-02,-7.430672472244090332e-03,-3.938959887238123805e-03,1.768001198768615723e+00
6.268811397597826574e-01,-1.026048391744055266e+00,8.449335363261335496e-01,-3.939935640467946698e-02,-4.193144783896148725e-03,-9.362281426658647940e-04,1.773375391960144043e+00
7.913303726321311293e-01,-1.050042662097583124e+00,7.818737409776281844e-01,9.909892980987817027e-03,7.046397002215876171e-03,-1.302676980268767035e-02,1.836922287940979004e+00
3.899736194770360154e-01,-1.044283615629824302e+00,9.133165874394543193e-01,1.945240740416673622e-02,4.056503671134236155e-01,-8.920735531692859654e-02,1.897433996200561523e+00
3.874106697517203934e-01,-1.021454144173071565e+00,9.716118386965031384e-01,-8.435949980709303575e-02,2.293521174265250040e-01,2.671574499672412645e-02,1.824979305267333984e+00
7.398088473368542584e-01,-1.023891387545376341e+00,7.793611539164067015e-01,2.821828423928520596e-02,-1.376654712655640475e-02,2.844499609962675840e-02,1.785313963890075684e+00
1.159131953370414525e+00,-1.066408259653310653e+00,1.894913855150510140e-01,2.971905047363899294e-02,2.031267698181353776e-01,6.663201054332659745e-02,1.968504190444946289e+00
1.051839736502757638e+00,-1.180229849864313341e+00,5.004667718139302890e-01,4.757717924511673663e-03,2.542605769882588240e-01,-7.784573954575654993e-03,2.061465263366699219e+00
9.863128907961885572e-01,-1.023662466742809807e+00,3.140351979230898705e-01,2.241138694189940932e-03,5.485715765370544755e-02,-2.826838064467634970e-02,1.775425791740417480e+00
8.452599839175498619e-01,-1.023616379337378701e+00,4.340030481860008837e-01,-3.042421705222691022e-03,2.324787840239179171e-01,8.877639569424196700e-03,1.748040676116943359e+00
8.445872371522717970e-01,-1.022822571848339912e+00,5.723146024586952541e-01,-8.781132397694287745e-03,3.981101240669825125e-02,4.897488133785422165e-02,1.750739574432373047e+00
8.050325839876157907e-01,-9.740064573096042233e-01,5.430143632343741311e-01,-3.995045605051298146e-03,5.851000916456627204e-02,-1.367167712166646914e-03,1.666678309440612793e+00
9.315998987504476858e-01,-1.012895166119596402e+00,5.112112527808010398e-01,-2.440616785613857961e-02,3.035141756829231457e-02,3.690791687168400864e-02,1.774536848068237305e+00
7.660234551588948060e-01,-8.829492478480562845e-01,7.438412735179039670e-01,1.935938658576760035e-02,1.280012114069909238e-02,1.260114643948455695e-02,1.638632774353027344e+00
7.713083243891974972e-01,-1.019775554891271474e+00,7.368953668154366587e-01,1.791117456812369932e-02,1.431440795517025975e-04,-2.163852540005382387e-03,1.774402976036071777e+00
3.349136375302039781e-01,-1.093657036710780295e+00,1.137089424923741321e+00,5.937553907710147599e-02,-2.341630647760975861e-02,-8.357971312276725809e-03,1.960279583930969238e+00
3.629582374111572363e-01,-1.056532107205899962e+00,1.004961448665411483e+00,4.737675295457762642e-02,1.796871689595938848e-01,-4.573051238733948261e-03,1.855288982391357422e+00
4.728799549986199835e-02,-1.141606648716820160e+00,1.484521070114548369e+00,-1.215014431813665197e-01,2.710004315828240529e-01,2.926040276215173819e-01,2.389412164688110352e+00
7.831471871988054945e-01,-1.038615754856554663e+00,7.795822503055911401e-01,2.035884163628428906e-03,-1.409465313332316843e-03,-1.418755852250534744e-03,1.819989800453186035e+00
7.524746375120421327e-01,-1.019489143189648006e+00,7.557370464835535540e-01,-8.454165186990601419e-03,1.125528104650232522e-02,1.124640407246544141e-02,1.773871779441833496e+00
7.838738379710056270e-01,-1.018694254171789826e+00,7.841580542831569911e-01,5.379944540325628209e-03,1.605551940632044330e-02,5.571632318437378870e-03,1.802974581718444824e+00
2.515650450207831262e-02,-1.333836892738334390e+00,1.409083735898773559e+00,8.427418545895912216e-02,5.842067326322010479e-02,1.142806064148991357e-02,2.382184505462646484e+00
5.388036915341539723e-01,-1.205544680890459519e+00,1.065824000477868072e+00,-4.389697972272917775e-02,-5.418748457348794290e-01,1.336722489818599480e-01,2.275978803634643555e+00
8.407895217685781297e-01,-1.015685093359438129e+00,6.020015814616326288e-01,9.362887422978033100e-03,-1.286268327249679988e-01,2.806627391846180843e-03,1.763557553291320801e+00
7.441762857430722633e-01,-9.779934646184826885e-01,6.398372333961535041e-01,6.947300086267366517e-04,3.670639367958788285e-02,4.158264083815223049e-03,1.673666954040527344e+00
6.987494331746371135e-01,-9.945670112706593846e-01,7.593756902599613223e-01,1.443814603816224659e-02,-4.527647822419665624e-02,2.119803015661584494e-02,1.726782798767089844e+00
7.378102934392000156e-01,-9.892094670962590097e-01,7.049734070298455668e-01,9.703399800963543459e-03,-6.078202600131360489e-02,3.056357752184980098e-03,1.714164376258850098e+00
1.261204836593749379e+00,-1.396771517567429344e+00,3.224039396799657231e-01,-4.424325695500649913e-02,4.466203304911410266e-01,-1.576113648830883007e-01,2.475819110870361328e+00
5.248622399422683271e-01,-1.023782967377945496e+00,8.938745797931018089e-01,-4.502808777321323785e-02,-6.870363972781629025e-02,-3.068597071005892823e-02,1.768900632858276367e+00
6.924717715299952836e-01,-9.908980101794381268e-01,7.441143640353531374e-01,8.360674624352647938e-03,-6.700996861112486734e-03,1.356440545541450632e-02,1.710038185119628906e+00
7.773177997886838719e-01,-1.037768931502520919e+00,7.806629467972853176e-01,8.468292934641313927e-06,1.502045915687834181e-03,-2.586703645089836242e-03,1.816769003868103027e+00
7.622152933805097508e-01,-1.007845165049760183e+00,6.140962735856602128e-01,2.209095650047581197e-02,-1.385135382703396589e-01,4.334643461098052972e-03,1.718124628067016602e+00
7.270201066236268161e-01,-1.030433420175509207e+00,8.202054141673366106e-01,1.918918291678201049e-02,4.621146760887344038e-03,-1.001521728230516696e-03,1.806174635887145996e+00
7.205925365771267410e-01,-1.001500556994181945e+00,8.084854990768288729e-01,5.818296852573502827e-03,2.340306131522859774e-03,-7.545221958344166570e-03,1.767760872840881348e+00
7.820257541750801344e-01,-1.039357559044909340e+00,7.801337865596986720e-01,-1.229632521808921410e-03,1.151564454716930879e-03,-1.554844907314358081e-03,1.820442438125610352e+00
6.579423162367515898e-01,-8.641870564953743061e-01,8.243447929066815005e-01,-6.898738343400930006e-02,7.311144232210240075e-03,-8.515191379954427375e-03,1.616325855255126953e+00
4.790312615935007345e-01,-1.066040264238796498e+00,9.998034132688726761e-01,-4.299437299264628407e-03,-7.168241447518268472e-02,1.471078851173704752e-02,1.865261316299438477e+00
7.252111558287579474e-01,-9.498460501677326029e-01,8.023806299550972909e-01,2.973819834740791881e-02,7.548099198160374002e-02,-4.570970369941126238e-02,1.722512245178222656e+00
7.857891388389555143e-01,-1.031953342018980813e+00,7.797441625554174527e-01,-1.756242822787729965e-03,-4.027297088462332073e-03,1.715602155613544719e-03,1.814745903015136719e+00
7.852563149105167284e-01,-9.605076117366200261e-01,7.740958582426831214e-01,-2.787403487246431846e-02,-2.432514095183676076e-02,1.998407552385342636e-02,1.741733908653259277e+00
7.620020562954267218e-01,-1.038681851569434933e+00,8.083280815144749942e-01,-2.174004514809133037e-02,-5.777414507076703357e-03,-8.481378213318560219e-03,1.824763298034667969e+00
7.839520443303698016e-01,-1.029129345267405959e+00,7.690731225070829291e-01,1.169516596778698639e-02,1.490215297729388265e-03,-1.633063132353874958e-03,1.805805563926696777e+00
7.779456391673303939e-01,-1.038085793186038774e+00,7.815290401310097668e-01,-1.014603499104341179e-04,-1.381929256501012761e-03,-2.467016891573148036e-03,1.817832350730895996e+00
7.751270197933668449e-01,-9.799864217467713079e-01,7.762465501162371107e-01,-1.328672235583027925e-02,-1.603370930043718570e-02,-5.087842184087799230e-03,1.756065964698791504e+00
7.794601733774932928e-01,-1.026142703857641170e+00,7.740884436444663841e-01,7.347990659709433339e-03,6.864600503255777544e-04,4.202092831344705036e-03,1.802983045578002930e+00
7.865458415354866784e-01,-1.020629010031796069e+00,7.780062011399155875e-01,-3.404353358812928308e-03,-1.138389276157503009e-02,1.119453178018882215e-02,1.803141951560974121e+00
6.281016537999611904e-01,-1.016946440857045442e+00,8.629949072777148844e-01,-1.293712497247846704e-02,9.793564072772991888e-03,-5.697162290957969062e-03,1.774445295333862305e+00
4.045225722165974869e-01,-1.065993756601022913e+00,1.007775781866304010e+00,1.154692417945707011e-01,1.033431336410275680e-01,-7.860477957709964547e-03,1.866989731788635254e+00
6.001247520842657446e-01,-9.835620086753741331e-01,7.926398946744798168e-01,-4.034350156893308156e-03,-3.000258719006030500e-02,-1.853549965813032843e-02,1.689316272735595703e+00
4.265413301510209698e-01,-5.737257466202767553e-01,7.196209896174294851e-01,2.848853284960017537e-02,2.883503263912555181e-01,-5.387445360678928818e-02,1.280690312385559082e+00
2.235057098044135049e-01,-1.391758013667349081e+00,1.232921881343984838e+00,2.033885129875631914e-01,3.263374165692829454e-01,-1.176160125343694018e-01,2.396572828292846680e+00
5.429898033177802397e-01,-1.056791495776967738e+00,8.773090945252706163e-01,5.841840304149762547e-02,1.567775942714851323e-01,-5.493872575731954810e-02,1.816297888755798340e+00
7.059332733830203654e-01,-9.969396121740715655e-01,7.429874616808006538e-01,1.446593618188561463e-03,-5.710727062930995128e-03,-9.828002897509523911e-03,1.721813440322875977e+00
7.776877392922323384e-01,-1.007538173025782857e+00,7.805451872950507353e-01,-3.187258485087088658e-03,-7.742809611461251660e-04,-1.540644316826984654e-03,1.786667346954345703e+00
6.894123140857634224e-01,-1.136483494931634031e+00,7.932249426155878469e-01,1.933770121257395377e-02,2.054046493319713618e-01,-3.421882816377999278e-03,1.913623213768005371e+00
5.303142286258468729e-01,-1.083477071525289048e+00,6.876219629714183101e-01,7.320862709890564590e-02,5.249031441634917083e-01,-5.154488320863431089e-02,1.932239413261413574e+00
6.728142742702728496e-01,-1.135404010621213544e+00,7.381329525468739439e-01,-3.835674643043206905e-02,5.108002951638294098e-01,6.284723434546991838e-02,2.047204017639160156e+00
2.768379133642375756e-01,-1.222522257395277867e+00,1.103873503595976802e+00,-3.807777577700068028e-02,1.257570502589119565e-01,1.174779121147169307e-02,2.055310487747192383e+00
4.309207791539071408e-01,-1.094909720126896024e+00,7.960693271450242081e-01,-8.552884972682953113e-02,-5.567678427889027892e-01,-9.998668505946531337e-02,2.000138998031616211e+00
6.265088314566100713e-01,-1.253689110083652025e+00,9.166799490139821982e-01,-5.977006225199595069e-02,-3.577078119013160640e-01,-6.115350615797905676e-02,2.137925148010253906e+00
7.830667650370259913e-01,-1.036892729407805414e+00,7.817216202633070488e-01,3.010405148557288284e-03,3.463043698638473313e-03,1.512639550839483919e-03,1.819306492805480957e+00
7.756008836609752377e-01,-1.034187666058844712e+00,7.799852883141712434e-01,2.713412124765546968e-03,-1.443794774711732679e-03,4.605221015342530685e-03,1.812010049819946289e+00
4.533822592584796363e-01,-9.942430794729899546e-01,9.062240494557810555e-01,-3.647668954345502975e-03,-6.849162578061945839e-02,4.433183366546630984e-03,1.723485469818115234e+00
5.615699863758034649e-01,-9.813926838719417844e-01,8.029583384330114537e-01,5.166670837875470337e-03,-7.908468724583705978e-02,-1.185741746815879849e-02,1.682474493980407715e+00
7.965279615601177365e-01,-1.020267929690563014e+00,7.090413516728646393e-01,8.411825156561742248e-03,9.356359911452408196e-03,1.442276690261961453e-02,1.774980187416076660e+00
8.272541848407448661e-01,-1.021251446673334007e+00,6.799215882294112889e-01,1.565601567990705656e-02,6.193027408081075262e-03,9.722545167450163950e-03,1.779738426208496094e+00
6.202134997982040598e-01,-9.969546734972010160e-01,7.934290832441588392e-01,-9.543718750335883350e-03,-3.118312454480624829e-02,-1.668965302240858067e-02,1.711543560028076172e+00
4.792882205269117790e-01,-9.957267205507263075e-01,8.517015260152992484e-01,1.316068379940220009e-02,-2.263688222586777710e-01,-5.747269620515240048e-03,1.737245917320251465e+00
7.730233917113265019e-01,-1.027845867812566372e+00,7.715800038022432306e-01,-7.128443196808046355e-03,-1.154021765428187062e-03,-1.286878345499713194e-02,1.800329446792602539e+00
7.836628189639736064e-01,-1.035403197766214811e+00,7.938072519525860571e-01,-4.721586546591795969e-03,2.886509417034804469e-03,-3.906169059928658524e-03,1.824197173118591309e+00
1.034192016606142461e+00,-1.415746350938383857e-01,1.010931954956136636e+00,1.033348275052702915e-02,-4.334272100182088444e-02,1.244961270633438560e-02,1.167065143585205078e+00
7.881289706452604404e-01,-1.020518515631649192e+00,7.198132824217210457e-01,2.013013877819223169e-02,6.880748968730575690e-03,3.676859056121087148e-03,1.775869369506835938e+00
7.744111964248265867e-01,-9.153452589411987805e-01,7.706365801778415348e-01,-6.130922165073683650e-02,-2.720801273326525077e-02,1.174320500191145845e-02,1.691988110542297363e+00
7.227457822323425374e-01,-6.746717535905277785e-01,6.981463741887858898e-01,1.004345055052066893e-01,2.176420586217811537e-02,3.712781515103415197e-02,1.398149847984313965e+00
6.947592911006948979e-01,-2.006319902955778223e-01,5.957117746655160584e-01,1.268409725007123290e-01,-9.027541962714008550e-02,1.045681546580091992e-01,9.101472496986389160e-01
6.619950897021231739e-01,-3.692632925173805480e-01,6.480800393816289473e-01,2.043834340209383857e-02,-1.148659042470173870e-02,4.071860304612481135e-02,1.027599334716796875e+00
6.533425798668738294e-01,-4.460033391012216963e-01,6.651056691476920912e-01,2.938292444283284455e-02,3.446775930567996370e-03,8.248930118512634579e-02,1.115648150444030762e+00
6.833462762647291022e-01,9.317989899877865412e-03,7.307891941601252217e-01,5.110253942039304220e-02,-9.211062087831763459e-03,-4.818524751197417015e-03,7.047705054283142090e-01
5.126430370030662376e-01,-1.007346209396013492e+00,8.727512708224612892e-01,4.542921752522192241e-02,5.200978552614056449e-02,-9.441058512965200267e-03,1.732622265815734863e+00
7.646007370066372211e-01,-9.807264182973065569e-01,7.905117109330421776e-01,-8.130966609042008554e-04,2.597288909214296414e-03,2.260563369166554426e-02,1.758867979049682617e+00
6.835107669166058386e-01,-9.799753758962798100e-01,8.295277178291540210e-01,2.300662457451200377e-02,3.910859870646880843e-02,-7.105802233059493184e-03,1.742909073829650879e+00
6.338459148490300787e-01,-3.586351275735681354e-01,6.264533728063607088e-01,-5.531739088537071525e-02,6.153055667378310757e-03,2.452268122669366487e-02,9.944013357162475586e-01
5.236003229039896123e-01,-2.362361624723184894e-01,7.585900867978307982e-01,1.624952348564246973e-01,1.148645063002362715e-01,-7.457554088139678461e-02,9.729366302490234375e-01
7.049717309265554066e-01,-2.001338468844156560e-01,7.541007109082709103e-01,6.821809404603611238e-02,-4.797814820003065694e-02,-5.539617930593710576e-02,9.466624259948730469e-01
5.263809122036104959e-01,-5.863385542354071500e-01,1.220609777635536686e+00,6.802326936022823345e-02,1.082486361259471508e-01,-8.252291025014454884e-02,1.600638985633850098e+00
7.639082282912073030e-01,-1.029635576650437034e+00,7.710767803988887170e-01,-3.312780702840172758e-03,4.554683642335169338e-04,-8.278050667087182707e-03,1.797205328941345215e+00
7.893676582595307023e-01,-1.009348371860551818e+00,7.763154866291543943e-01,-8.484709057925528958e-03,-9.925624104272499568e-03,-2.516558174029921019e-03,1.792373538017272949e+00
5.732635749166805628e-01,-9.878168681041675780e-01,8.182614327031625390e-01,5.478550176469695193e-03,-1.436624195295665984e-01,-4.031662008284156440e-03,1.715083956718444824e+00
6.730806620364350179e-01,-7.609304560772034431e-02,6.864875977696396347e-01,-6.723609760569788929e-02,2.081324951926449493e-02,-2.706473356996273727e-02,7.671663761138916016e-01
6.201644772409866668e-01,-1.117885276795386185e-01,6.124799303069284884e-01,2.511097921077194012e-02,2.012356634137428199e-03,-1.710921035657898825e-02,7.300490140914916992e-01
5.283730869061940005e-01,-1.178082889349520546e+00,1.012261248210938547e+00,2.537838983840295937e-02,-1.976237372030034412e-01,5.425585358910581940e-03,2.022636890411376953e+00
6.773057034362671702e-01,-2.742018484828648295e-01,6.878969264599323896e-01,8.595825892029824652e-03,3.103304287417790047e-02,-1.393116385578129501e-01,9.883776903152465820e-01
7.333556807400627431e-01,-5.381811676156396107e-01,7.673750419486375929e-01,-7.144341714097626750e-02,-1.174130267599977039e-02,-1.163770971221880779e-01,1.310563683509826660e+00
6.249463578551260889e-01,-1.011212279821074311e+00,8.474962060350530457e-01,3.767811109042945930e-03,7.931311312449874917e-03,1.331956399892401076e-02,1.758247375488281250e+00
6.658585497054920754e-01,-4.530140028228796800e-01,6.713805063984956689e-01,-9.762937241400019076e-03,1.732941474381739094e-02,-7.810172695495885831e-02,1.130296945571899414e+00
9.542570254702493759e-01,-6.400504696362074863e-01,3.771350299901815584e-01,4.801404301080976211e-02,-1.843615978112656817e-01,3.081116575474419639e-01,1.532468080520629883e+00
1.204439659176866240e+00,-1.655664355257580933e+00,7.641407949446067382e-01,2.212426618127438238e-01,-6.313058506661730629e-01,3.104937497141111447e-01,2.957442045211791992e+00
1.230660543959134712e+00,-1.480738046050618095e+00,4.414391170050213642e-01,1.291295810285208318e-02,-6.847608970134303474e-01,1.589337634857106440e-01,2.705111980438232422e+00
7.992942323562330920e-01,-1.001238894220565445e+00,7.740938857729218192e-01,-4.961880138492925571e-03,1.082991767216448867e-02,-2.904352777361345669e-03,1.788192272186279297e+00
1.153803268373853719e+00,-1.716828278566527199e+00,7.501839359854718392e-01,7.981358874350330534e-02,-7.405947996912500830e-01,2.030183359510876473e-01,3.005493879318237305e+00
7.813258744657083366e-01,-1.030913297506361959e+00,7.805037876079350401e-01,3.456281846218813730e-04,4.778045471940736352e-03,-8.372057450484403059e-04,1.811847805976867676e+00
7.166550227744877821e-01,-9.872733834433532474e-01,7.198229937247951904e-01,-3.818910715485814272e-03,-8.740446312739254221e-04,-3.688555676345647502e-03,1.705540060997009277e+00
7.400864748460358467e-01,-9.969989993328463029e-01,7.201013097253602391e-01,3.236606800135043019e-04,-9.969912531367808306e-03,-6.336335431423336089e-04,1.727266430854797363e+00
7.621751003439740657e-01,-8.094126144204344397e-01,7.031257151421491658e-01,6.968673112238978409e-03,-1.513669789780099778e-02,-2.088330609562510497e-03,1.543184876441955566e+00
7.220153865220371170e-01,-6.230717987203753250e-01,6.943396757354785009e-01,6.245729572789628439e-03,-5.153106438686671370e-03,8.600737706772809688e-02,1.339846134185791016e+00
7.661600208985505089e-01,-8.089730684413692918e-01,7.208209381792697323e-01,-4.848810542455683770e-02,1.977204614643750594e-02,1.287617305845654286e-02,1.555766105651855469e+00
7.944539184198134985e-01,-1.014254552495216677e+00,7.778491274455850979e-01,2.451697493063762206e-03,-2.152884471821968088e-03,-1.360577516498428412e-03,1.800473928451538086e+00
6.562409600029965873e-01,-4.447108583774541102e-01,6.744206143946767096e-01,3.620575562897425381e-02,1.002209600987717837e-02,9.230075862953310284e-02,1.123491168022155762e+00
5.962575587760390317e-01,-1.006928028829849442e+00,8.493494716348481965e-01,-9.539016697182167021e-03,1.389234616562913527e-02,-1.455876399476240673e-02,1.743989825248718262e+00
7.188062251231900346e-01,-1.028641645059109155e+00,8.352917699394536433e-01,2.182046189077620213e-02,-3.097213825142962774e-03,6.414420136827317376e-03,1.808943271636962891e+00
7.707171699535307896e-01,-1.025458422916976975e+00,7.072513052744099360e-01,2.797240935107601911e-02,-8.239482245868159915e-02,3.892639218287177738e-02,1.773002743721008301e+00
7.669948225636404882e-01,-8.638004678190862595e-01,7.347087450595382041e-01,-2.513696514920644304e-02,-1.520977971018024587e-02,2.310207432302589098e-02,1.616191387176513672e+00
3.955353589596748431e-01,-1.047176340003966200e+00,1.004515491312791164e+00,-3.286659508609541258e-01,-2.346587448471641468e-01,-5.604540125729776112e-02,1.956920504570007324e+00
6.783810837759488566e-01,-1.018264034709920107e+00,8.130828986625531218e-01,-1.037563988153438095e-02,1.246988770589767053e-04,8.598394221151120509e-03,1.768003225326538086e+00
7.263477802856551646e-01,-1.015499292766133266e+00,8.032732646435222224e-01,2.824554731328322160e-02,1.349851185236103368e-03,9.977955057660794699e-03,1.782312750816345215e+00
4.792718088480606986e-01,-1.020947955160190990e+00,9.524142417796073179e-01,3.826253216615699282e-02,9.041130736990476979e-03,-7.616305455785092257e-03,1.785819768905639648e+00
7.790760037635402480e-01,-9.746106000611901576e-01,7.690489544712023617e-01,-5.943001790378982588e-03,-8.175715458794991647e-03,9.910581986370743668e-03,1.748866558074951172e+00
7.167204509425881831e-01,-1.024085001584252863e+00,8.067003979703818439e-01,-9.711205099945319913e-03,3.904708900568975953e-03,-1.527207174699753665e-02,1.787782430648803711e+00
7.303199756909329876e-01,-1.018532904940491424e+00,8.026312177261284431e-01,1.004475405943686638e-02,5.127497158716551144e-03,-1.241868328946700573e-02,1.786342978477478027e+00
7.977047541308611434e-02,-1.496477853072083475e+00,1.687959968423703216e+00,-2.572384417094786269e-01,-1.745206431659767354e-01,-2.028053594969703166e-02,2.810135126113891602e+00
1.906754773714828266e-01,-1.779169949314116206e+00,1.798737624651551625e+00,-2.482395296094901671e-01,-1.316839653049280690e-01,-6.046341450680529223e-02,3.143508672714233398e+00
7.787607495945095826e-01,-9.360697976481692217e-01,7.582603872370612397e-01,-2.677877660398575443e-02,2.251058680544811008e-02,3.367919310087704680e-03,1.705759286880493164e+00
4.920400396585841718e-01,-9.919004911030973037e-01,9.089236807123286521e-01,-6.163459213106123498e-04,-2.794795610485609205e-02,6.634751742053716581e-03,1.731178402900695801e+00
6.168952993301881627e-01,-1.035329910059957781e+00,8.668941778397476483e-01,4.489265384767014699e-02,2.765455927035301818e-03,-6.464881293929309290e-03,1.792092800140380859e+00
-1.458655906150643777e-02,-1.573130475188939448e+00,1.837424343399749471e+00,-9.081319906586113322e-02,-1.826922746649158880e-01,1.280084099054963898e-01,2.986548662185668945e+00
1.027420130601949921e+00,-4.648416506413908800e-01,7.559032871045037183e-01,1.217951803870599564e-01,-2.029755892935730388e-01,9.640373966267218320e-02,1.446157932281494141e+00
7.867871777926411792e-01,-1.030526303292053969e+00,7.838963936316178938e-01,1.402864454740248689e-03,5.357491838040451086e-03,-2.024415256262041864e-03,1.815898537635803223e+00
7.676484528772264948e-01,-8.970624496646579793e-01,7.510634602140897620e-01,-8.637366460300952356e-03,2.199932342858431852e-02,-5.051138281094284289e-03,1.657009482383728027e+00
7.859146967567007813e-01,-7.171577857869948502e-01,8.922525934930713998e-01,1.577819263053923671e-01,-2.693581221313138263e-01,2.784223254895036234e-02,1.650769710540771484e+00
7.745009287063595593e-01,-1.033592681571329219e+00,7.845832913841065404e-01,-4.739608675483851334e-03,5.581850398249114421e-03,-5.592719786413667162e-03,1.813226103782653809e+00
7.721445228304461006e-01,-1.030925482156574535e+00,7.720423558375600903e-01,-5.505982643462843315e-03,2.673573839910620923e-03,7.382886877591659461e-04,1.803050518035888672e+00
7.880248339059908735e-01,-1.031140233525039918e+00,7.811575733763053142e-01,-2.899474957760028813e-03,8.921272300793080604e-03,-3.143190179841051906e-03,1.815822005271911621e+00
5.967278121230693566e-01,-1.023005464199061354e+00,8.947875580821894603e-01,1.069474160460050748e-02,1.027723430057078668e-02,1.177681610846879195e-02,1.787799954414367676e+00
7.238928700854621034e-01,-1.008596804318118378e+00,7.586139676866471282e-01,-8.756891493764696818e-03,-3.501984639099763215e-03,-1.409659330440030285e-02,1.750355124473571777e+00
1.718666426574842754e-02,-1.382707690842276849e+00,1.468772539302580782e+00,3.872883668882728947e-02,-3.522493459500251889e-03,1.044254975039851131e-02,2.470574140548706055e+00
6.427021991464916262e-01,-2.225724770124674734e+00,1.500260911333253899e+00,2.364710346909196584e-02,-6.641028600699536710e-01,5.795843785019225147e-02,3.571831226348876953e+00
4.353480297288638279e-01,-1.138140838176753267e+00,1.051246713769192320e+00,-6.180549643626680190e-02,-1.152084987790783777e-01,-1.144532743255202191e-02,1.968750834465026855e+00
5.994928231186811285e-01,-1.013052883793722270e+00,8.629474994382864139e-01,9.202417669404262118e-03,-3.469366107386906428e-02,-1.225866445701485896e-02,1.760358095169067383e+00
7.830101884627850284e-01,-1.034747533187991841e+00,7.803778473094902246e-01,2.178130291837810772e-03,5.994000860903414725e-03,-8.197896464574673308e-04,1.816477179527282715e+00
7.678269571449716224e-01,-1.032042425801819263e+00,7.790703657106287094e-01,7.400022575109571968e-03,5.639737228792175879e-03,8.092736814263675642e-05,1.805589318275451660e+00
7.380886031844280382e-01,-1.026181427109405409e+00,7.980606697734926591e-01,-1.232547269889224320e-02,-8.887529775924862688e-04,-1.429150910420246348e-02,1.795305848121643066e+00
2.128981704077382298e-01,-6.245518665861673480e-01,9.994190559885236524e-01,2.477688380734456852e-01,-2.226566558054371980e-01,-1.035614635740828710e-01,1.530908465385437012e+00
7.367285091869710811e-01,-9.137896196220944844e-01,7.827318360068522551e-01,4.143760678571260792e-02,-5.350629648782649107e-03,5.040659590093628933e-02,1.677830576896667480e+00
5.911961478154925675e-01,-8.822934814140923621e-01,8.594995375794884929e-01,-6.231995747625156384e-04,-1.732593707577385900e-02,-5.203822012398621284e-04,1.624624013900756836e+00
7.615654404157161661e-01,-1.004205067907947058e+00,7.511566306483232758e-01,-2.377202065686736393e-02,-7.124770898110632800e-02,-1.466395490920734818e-02,1.765571713447570801e+00
7.690392403955639278e-01,-9.264585282709877356e-01,7.617241456682153355e-01,2.539442252838899905e-02,1.143316291242542707e-02,-7.123810884933236666e-04,1.692540049552917480e+00
7.753925627241891050e-01,-9.732843779271540541e-01,7.830136049391560604e-01,-1.576853081142434720e-02,-2.024560565245827823e-02,2.559020777379213823e-02,1.753623723983764648e+00
7.537669403485500741e-01,-1.012319687792353484e+00,7.269232374682480513e-01,2.235597621205698965e-02,3.159837994123667476e-02,-2.586046159678515727e-02,1.754672408103942871e+00
8.431470645861942614e-01,-1.033323087031714493e+00,6.876676768753229307e-01,1.097721383328053262e-04,1.201914319180706105e-02,2.541088388970225327e-03,1.803888678550720215e+00
1.341396391882975658e+00,-9.076275750093317773e-01,2.271194527434150512e-01,-1.938212882596227205e-01,1.032615810110814880e-01,2.055137924232502689e-01,2.016205072402954102e+00
7.484495939497808337e-01,-7.684159409130165708e-01,7.703225891108574919e-01,-9.427331506923677246e-03,-1.034648773166881378e-02,1.383297887203333021e-01,1.546780824661254883e+00
7.182522879025121654e-01,-7.417555759942043858e-01,7.224972163225372723e-01,6.829203492816136693e-03,-2.376969430880420883e-02,-5.532901795174498955e-03,1.462793707847595215e+00
6.619405202990926718e-01,-4.665015851605698871e-01,6.732841985488215997e-01,1.145628466457652012e-01,2.622945159557282802e-02,-4.624158767276747087e-03,1.152307629585266113e+00
7.723118655447369640e-01,-9.971569452722468530e-01,7.839670741119428854e-01,-2.653519714990748221e-02,-9.896820782075054640e-03,7.904507261224429093e-03,1.776055455207824707e+00
7.728257966773425247e-01,-9.850093212524272390e-01,7.821842595260513065e-01,5.502490147560955280e-03,-1.240476954298537493e-02,-6.445415353911535840e-03,1.762724995613098145e+00
7.630653211288497273e-01,-8.500457724006845739e-01,6.798509273217290261e-01,2.173143442692888547e-02,7.929735414555973139e-02,9.785458102353372656e-03,1.579679131507873535e+00
7.696200317232975152e-01,-1.031115759338062654e+00,7.709851223671050358e-01,-1.230116461385314525e-02,2.689183208683818861e-03,2.511228020202379272e-04,1.801550745964050293e+00
7.661850896903381614e-01,-9.398954386399678285e-01,7.604150741155399906e-01,3.936945797766967792e-02,-8.338375793716714182e-03,-2.466839868597672444e-02,1.705163955688476562e+00
7.912055442556209517e-01,-1.010391100354728122e+00,7.737193677988656315e-01,-1.673001831553339730e-02,-7.905551628188706159e-03,6.467105397221985241e-03,1.793238878250122070e+00
7.835053791034281012e-01,-1.030339091013046993e+00,7.720302137525849595e-01,-9.905688703036008916e-03,-6.107217838300621048e-04,-2.732157474583734105e-03,1.808222055435180664e+00
8.150279308905302722e-01,-1.217942748920028739e+00,8.291598562500560599e-01,-1.514381036191516511e-02,1.901398028410750118e-01,-1.057161534791423163e-02,2.066732168197631836e+00
8.933536915947818402e-01,-1.030142691569951641e+00,4.710739386523741246e-01,1.238562168121244353e-02,-3.146770988518698409e-01,-3.310946892920289125e-02,1.834862112998962402e+00
6.909836285739392459e-01,-9.798046145148145980e-01,7.145633510375531960e-01,9.388773808904490262e-04,2.068202201146939617e-02,-2.019337970441032609e-03,1.683087706565856934e+00
6.873640792115383036e-01,-2.861863723787189118e-01,7.039537876036886521e-01,1.457486538821524957e-01,-2.163759660081038608e-02,-3.466917381377720986e-02,1.016348838806152344e+00
7.902287003422361344e-01,-9.986851080462285646e-01,7.766488591388115426e-01,1.008535473158286323e-02,-5.015085176417103871e-03,-1.820418692356923825e-03,1.782272219657897949e+00
7.484872486749413190e-01,-9.984707110614077230e-01,7.821844508026967180e-01,8.630501898057965290e-03,-1.714427251177168959e-02,-2.049363624539921047e-02,1.764718174934387207e+00
3.698885110046230551e-01,-1.190940007447494509e+00,1.141177608137533550e+00,-8.710545625778491619e-02,-2.219801032279233866e-01,-4.767701892128254487e-02,2.100554466247558594e+00
8.109300063799368408e-01,-8.183321016815419124e-01,6.396369296780403113e-01,-2.997682148166901789e-02,2.754586462129294741e-02,-7.369332999389244243e-02,1.557568430900573730e+00
7.697880405971408990e-01,-1.030578899675574256e+00,8.082300473558813314e-01,1.091188836766595824e-02,-6.284127360116893365e-03,-6.378389881019507282e-03,1.820056676864624023e+00
7.744832596947845982e-01,-8.955597831165917899e-01,7.482995804801135797e-01,3.053088069055473475e-02,-9.204896649983142567e-03,-8.465814237960538752e-03,1.658091425895690918e+00
8.637567074779994858e-01,-9.415517397532746635e-01,6.744507138880082575e-01,-8.218185095502181237e-02,5.211962863140497809e-02,2.187570134028251345e-01,1.767821907997131348e+00
7.952347983761749450e-01,-1.036275274607799890e+00,7.815812102905290715e-01,-4.243419623121925596e-03,2.531074837465798009e-03,-9.865767765640114789e-03,1.824821710586547852e+00
6.992030816789324144e-01,-5.789085912957770974e-01,6.693275386445096675e-01,-5.000239190274700582e-03,3.763521839481878250e-03,6.631388095485492122e-03,1.263537526130676270e+00
7.875191907999988805e-01,-1.021790213790670032e+00,7.377249076765187707e-01,-1.649530295157239715e-02,-5.350997916803535565e-03,-9.378991871958074905e-03,1.785259842872619629e+00
7.709809323203744569e-01,-1.017751343215176352e+00,7.303102091922479833e-01,-1.585514145968718730e-02,-1.576086436726423668e-03,3.531234728587914675e-03,1.768973469734191895e+00
5.985311897033083195e-01,-1.110247776890076254e+00,8.907147867027591648e-01,-6.232142628753280234e-02,-3.281074736431481564e-02,-3.090556648562575118e-03,1.876028776168823242e+00
7.662759785972661497e-01,-9.958696029299445307e-01,6.758730507391805808e-01,-1.673831829430509968e-02,-1.457265391259104925e-02,3.651741823368451234e-04,1.719158172607421875e+00
8.689988955337575316e-01,-1.007440582127357098e+00,5.170909758123485300e-01,-1.517125915763048276e-02,-3.199640868550568396e-02,-4.185000181614066672e-02,1.730186820030212402e+00
1.183316524674793202e+00,-8.980458586782871233e-01,4.864605042303618010e-01,1.150613405651208232e-01,-2.757759074343404393e-01,2.714594794870427985e-01,1.963724255561828613e+00
7.445388781298523106e-01,-1.027157431196833226e+00,7.875695233646853310e-01,-9.764559676559167109e-03,4.428185593927587080e-03,1.500152608780189883e-02,1.793883085250854492e+00
4.696713475039210328e-01,-9.733848828053723867e-01,8.962610246104251166e-01,-1.316549764184868528e-02,-3.297781321205067034e-02,-8.201852727725313097e-04,1.698165893554687500e+00
6.824990940347255286e-01,-4.646643873433725647e-01,6.515174813681958721e-01,6.733384400389312574e-02,1.128332078722874172e-02,-8.717559063314413159e-02,1.148122429847717285e+00
6.904909600215553001e-01,-4.181194307469601190e-01,7.895675162488344778e-01,2.174989759198867334e-01,1.455838480573423341e-02,7.566911096176616100e-03,1.221227049827575684e+00
7.895423681768454216e-01,-1.031141414341953055e+00,7.730234747074687940e-01,-1.138701409412086821e-02,-6.405785389266044523e-04,-4.937114327429116198e-03,1.812608599662780762e+00
7.988590821619386828e-01,-1.029893619497915136e+00,7.710206671301448322e-01,-5.690728611866751642e-03,-3.474515781415178292e-03,-5.330740417799826464e-03,1.815053820610046387e+00
7.704169251582040356e-01,-1.029273747459465316e+00,7.984238071662292935e-01,2.004938468028807236e-02,-1.686943638037187313e-03,-8.971471373195715610e-04,1.814191699028015137e+00
7.951679448317496846e-01,-1.005347549286426112e+00,6.407347314838156560e-01,-2.155533783574520648e-02,2.090689844338775027e-02,-3.992141241523318104e-04,1.729263424873352051e+00
7.765072059879919442e-01,-1.030240235768480117e+00,7.863114332867938705e-01,-4.775034540942196468e-03,-9.627472458940107905e-04,6.669659647894638638e-03,1.811725974082946777e+00
7.873124648828866423e-01,-1.022064175183268198e+00,7.819854800771375292e-01,-4.698700017284610474e-03,-6.462111134073567770e-03,3.316046842382981957e-03,1.806781172752380371e+00
7.841027429899187773e-01,-1.023850115954900719e+00,7.707331236015853015e-01,-1.235029397638156418e-02,-1.955480047587413502e-03,4.309848556914915030e-03,1.801450967788696289e+00
7.811754030804963778e-01,-1.011145367477309431e+00,7.797180322197623248e-01,2.529996425299877415e-03,6.796110880809920398e-04,6.469837713707128971e-03,1.791633367538452148e+00
5.185653865468492496e-01,-1.192215808057287996e+00,1.005070329312046429e+00,3.317811221444327829e-01,3.326624269629820940e-01,-1.166994439754235335e-01,2.167682647705078125e+00
7.814770481184928341e-01,-9.785347148330224565e-01,7.583314580460563947e-01,-1.032936978729426941e-02,-1.236459828376058152e-04,-5.365078524763561285e-03,1.748670101165771484e+00
8.246801828795620182e-01,-1.028084914142817663e+00,7.094518538582594847e-01,-1.123792808143794439e-02,-6.428957409449467721e-04,-7.988560193338961612e-03,1.798081398010253906e+00
6.814616076310322512e-01,-9.894839677028599567e-01,7.475997222884134263e-01,-9.355681223960760767e-03,6.471991538727574211e-02,1.327414522133847814e-02,1.708889603614807129e+00
1.846935025034579236e-01,-9.889839170008223324e-01,1.080572631948611306e+00,-3.019837087681314161e-02,5.577456951291684395e-02,4.190379566377487597e-02,1.802478075027465820e+00
8.214112305024898752e-01,-2.428950468716700062e+00,1.486309627128950428e+00,-1.300213737608929832e-01,8.125579441661185953e-01,1.118541526847609824e-01,3.903473138809204102e+00
6.224844260610084001e-01,-9.838144228434799743e-01,7.880754476928043539e-01,1.344084129230651518e-03,2.164169633887300451e-02,7.532363066241773604e-03,1.695637226104736328e+00
5.355952774168540875e-01,-9.975366636967105682e-01,7.502521406968029050e-01,2.715392641257617819e-03,2.398555317384775676e-01,1.889116681683907645e-02,1.702748656272888184e+00
2.259789518838660194e-01,-2.000280219295532458e+00,1.822496200653772158e+00,-3.178777004108346294e-01,1.755850782467970328e-01,2.155397913844598126e-02,3.384727716445922852e+00
2.268511961535378263e-01,-1.961839993065953358e+00,1.824038919175938744e+00,2.152465750480448137e-01,2.277726906525967543e-01,4.665537094529284556e-04,3.336429834365844727e+00
4.298519695988438083e-01,-9.906837361456233282e-01,9.509623194957106396e-01,2.379884718284914265e-03,-5.306922895047873866e-03,4.234664643622232730e-03,1.740657567977905273e+00
9.522702351642380325e-01,-1.271397757814584084e+00,6.925187519052049545e-01,3.858211414058606431e-02,1.823816133359298930e-01,4.543845710533735149e-02,2.131904840469360352e+00
7.929323801648275882e-01,-9.944031813604523595e-01,6.337453673368869111e-01,1.112928445852228235e-02,-2.188548845621226396e-02,9.801005759943645992e-03,1.713909268379211426e+00
7.712117855049355208e-01,-9.451056824460178918e-01,7.683231574501631078e-01,7.205557039751869786e-03,-2.370175382362705099e-02,-8.712859290774407905e-03,1.715478062629699707e+00
8.299873627403873133e-01,-1.020635231932866871e+00,7.223057634844811670e-01,1.546234317706757667e-03,8.451071449284058845e-03,-1.882546187938905630e-02,1.799557209014892578e+00
7.831504495087660001e-01,-1.034495079382706351e+00,7.832849609149409309e-01,2.320936544309984677e-03,-2.414813825381979806e-03,5.730409175629018817e-04,1.817722320556640625e+00
1.188313716275577026e+00,-1.167747139476436935e+00,1.540778623869604735e-01,-1.988403629614607093e-01,2.814233739354278230e-01,2.713313120720387550e-01,2.181975126266479492e+00
7.822841498450079367e-01,-1.036829529886902135e+00,7.833894860127234017e-01,1.294658630859231354e-03,-8.383781727161691844e-03,-1.462773575819931128e-03,1.819727659225463867e+00
7.774632017771876402e-01,-1.024748605505525267e+00,7.877121930592264620e-01,4.046712069600482548e-03,-8.187663628866619775e-03,-3.495718984021411319e-03,1.807437419891357422e+00
7.775980204597904288e-01,-1.027846624423456978e+00,7.800384562317844717e-01,6.018084651071810981e-03,-2.326657169310226200e-03,-1.760315624927217323e-03,1.806703209877014160e+00
7.823066058894242447e-01,-1.031539241495465609e+00,7.917132545023285450e-01,4.628414767352359571e-03,-2.561018969063123991e-03,-4.764879623489911252e-03,1.818609237670898438e+00
7.705592523401447735e-01,-1.030918246154862494e+00,7.796075323704025895e-01,3.955097029005980752e-04,-1.218770744877124650e-04,-7.122239550111300090e-03,1.806060910224914551e+00
9.417666677169601597e-01,-1.027843723093686323e+00,4.964758519806892201e-01,2.309716796070139522e-02,4.038586931585037149e-02,1.098478943338906770e-02,1.790936946868896484e+00
8.686913548767516424e-01,-1.014904769693501407e+00,5.851736144375854209e-01,4.744078060563528682e-03,3.119813145831010909e-02,8.219166579350159832e-03,1.759964227676391602e+00
1.167310282423729140e+00,-5.667065118616052555e-01,5.586831259661676485e-01,4.285733924408454548e-02,-6.703752769261370204e-02,-1.180821584071505975e-01,1.543597817420959473e+00
8.228032059854665237e-01,-1.027418695565213591e+00,6.896839897701229072e-01,-8.164693646277872521e-05,-6.943152060458882002e-03,-1.228379944422685818e-02,1.787551164627075195e+00
8.725012334251165402e-01,-1.021748273321292810e+00,5.983176452871237228e-01,1.101959494238494153e-02,1.182795932246538152e-02,-2.796056445481373900e-02,1.774011015892028809e+00
6.699025732478305351e-01,-5.936733581604440868e-01,7.069302723427751678e-01,-2.909190295913735916e-02,1.944087826196729679e-02,-6.402008316564139490e-02,1.288701295852661133e+00
7.469954719029141543e-01,-8.907938247698873324e-01,7.681246828869480181e-01,5.709337237773222211e-03,2.962626404695885285e-02,7.243737016167609878e-03,1.649331331253051758e+00
7.712939327604728668e-01,-9.890904992535561879e-01,7.963973953336731526e-01,4.494321187711555407e-03,1.095968549254812061e-02,8.385118210739332667e-03,1.773247599601745605e+00
7.787698846966693011e-01,-1.010064276336976707e+00,7.855492134185496633e-01,5.591089097948284507e-04,6.355385551132363559e-03,-7.966020648784660416e-03,1.792320609092712402e+00
8.227616380634410476e-01,-1.026041080308769837e+00,7.194644864675239226e-01,1.301049627589292643e-02,-5.252738563827716138e-03,1.428377864015720373e-02,1.799713373184204102e+00
7.773658240159208033e-01,-9.886410806676543261e-01,7.736858213148795071e-01,7.275849642643107164e-03,1.090705998217460920e-02,2.700338266365696904e-03,1.764322161674499512e+00
7.788009285270465210e-01,-9.862301890161434548e-01,7.634242800028664400e-01,-4.379827106464059122e-03,6.464149822781937831e-03,-1.468712437311064586e-02,1.757629394531250000e+00
7.788568503337529592e-01,-9.511996794037134162e-01,7.778377396467532900e-01,2.395875109420507465e-02,2.432103691611663815e-02,1.883762380832738198e-02,1.730865359306335449e+00
8.173265172939867540e-01,-9.796471364503530621e-01,7.738355573859876380e-01,-1.576302440384839271e-02,-1.248857126803343542e-01,5.111266104889247014e-02,1.791152119636535645e+00
1.114228086367072823e+00,-3.798745011673443361e-02,1.067625770047631040e+00,3.275547282137653698e-02,3.896382325411339165e-02,2.281437881695831324e-02,1.133759856224060059e+00
9.742198370820578379e-01,-1.209226489567790663e-01,1.015377500674414790e+00,4.942564598196347997e-02,7.450010068728413204e-02,4.284640207981396144e-03,1.127004504203796387e+00
6.846013429117728810e-01,-5.451777375853326113e-01,6.665097388092783293e-01,9.039978028156005208e-02,2.488128406308372405e-03,-2.548000754993376762e-03,1.230849146842956543e+00
7.299874630814505716e-01,-6.688368277160815500e-01,7.060386692239746242e-01,7.520278631499394129e-02,1.643020393856108735e-02,1.846117738780286149e-02,1.393765211105346680e+00
6.535713186172220635e-01,-3.525205428663810148e-01,6.245913158679010646e-01,8.096127385179950620e-02,-7.334847342701097776e-03,1.016011350806912206e-03,1.001864671707153320e+00
7.991736115225696047e-01,-9.867084623495292472e-01,7.645577544371495726e-01,-9.520472754834734957e-03,1.443290197869350963e-02,-8.144577883303256993e-03,1.769137978553771973e+00
6.563383422224512431e-01,-3.655731295736401321e-01,6.254247632746708918e-01,-1.032264383362732768e-01,5.741335412084446616e-03,-5.891981579684986425e-02,1.027690768241882324e+00
7.333185907007877535e-01,-8.305929907778291099e-01,7.680323739205374700e-01,-1.980003115943455155e-02,1.872296093037650877e-02,9.496652848065575622e-03,1.582343816757202148e+00
7.243944854822623736e-01,-8.065786216104041673e-01,7.685185811402700518e-01,-1.239652620544017805e-03,2.999310976740970913e-03,1.245413368471021132e-02,1.553665161132812500e+00
7.555970981845804291e-01,-9.034407341320801477e-01,7.565678955018574348e-01,3.707117050308461181e-03,1.763686615393707550e-03,-3.517646813983556220e-02,1.660656690597534180e+00
7.738325904136627020e-01,-9.842971493663248417e-01,7.545817400110603757e-01,5.694943480339074993e-03,-1.694284405031424093e-03,6.384797547742387253e-04,1.748614430427551270e+00
7.614511235383738530e-01,-9.955608512983249447e-01,7.792246868259634640e-01,-1.755598957381367467e-03,1.076638661551498682e-03,1.058815727738689205e-02,1.766064643859863281e+00
7.863245750839376047e-01,-1.025674693725847852e+00,7.946904021098140092e-01,1.660519579949883964e-03,8.270434891996437552e-04,-3.760209870050037692e-03,1.816211104393005371e+00
7.737624839280273781e-01,-9.912456495751775787e-01,7.891877447002556556e-01,6.329016283089637261e-04,2.210552645309469232e-03,-9.147392352085486483e-03,1.772846341133117676e+00
7.770450945241136331e-01,-1.013614269914891564e+00,7.982744675763457920e-01,1.016736347075048027e-03,8.948023472423912968e-04,2.514131227405995254e-03,1.801374673843383789e+00
6.683250939873246477e-01,-1.000573327450920313e+00,8.644940539903633869e-01,-9.852669357752011706e-03,-3.748361064835926959e-04,-1.391541755696717314e-02,1.775376796722412109e+00
7.536569707374615179e-01,-7.960209979780751288e-01,7.293113629715622936e-01,4.570539810266033981e-02,3.419091834290664128e-02,-3.216029966935612331e-03,1.540834784507751465e+00
4.689389402719220112e-01,-4.215605100449826281e-01,1.108009633330315769e+00,4.417616570377475710e-02,2.487919649106698217e-01,-1.067502554674073650e-01,1.412878751754760742e+00
6.576138428659447088e-01,-3.985787033908421151e-01,6.528031893297653321e-01,5.841764735455327179e-02,-2.578715305514865663e-03,-4.171718903748615481e-03,1.058676004409790039e+00
7.462951942413469375e-01,-7.546242423754956352e-01,7.197621179797686342e-01,1.270064387787514168e-02,-3.605540101701541073e-02,1.356023321259179626e-02,1.489488005638122559e+00
6.999417864343053797e-01,4.226727169830984954e-02,7.135361056875912933e-01,1.338580833154227531e-02,3.753383026682978203e-03,9.499072871987863931e-02,6.850625872611999512e-01
7.826006705536354691e-01,-9.740663354927208140e-01,7.698247060387557461e-01,3.574982596360447989e-02,-1.632814497307713900e-02,-1.827071586891437435e-02,1.751923084259033203e+00
7.703501713966499631e-01,-9.615634440727579557e-01,7.665375192795440551e-01,5.230838657089176280e-03,-9.771791740533598142e-03,-8.850083992678107699e-05,1.730116963386535645e+00
7.720836377795354810e-01,-8.798495506069445860e-01,7.463022014757101363e-01,-2.510114807823352751e-02,-2.337213345935799935e-02,-2.536280076013340285e-03,1.640276551246643066e+00
5.668110389711448205e-01,-1.003380290694833032e+00,8.571504669129914600e-01,-4.418320143034187852e-02,1.864775608481315100e-02,1.008799767137247110e-02,1.735768198966979980e+00
7.677287722242527312e-01,-9.833904452521504691e-01,7.779535661034975291e-01,1.556897058134700668e-02,-1.182333434306132719e-02,4.304773158890535731e-03,1.756596207618713379e+00
7.800120222018727123e-01,-1.021987634355651542e+00,7.851597361970037436e-01,-1.768329067769134396e-03,-1.100886525591725403e-02,3.351235686187531860e-03,1.804691672325134277e+00
5.905685404793881155e-01,-1.006799245003287213e+00,8.524562550386096671e-01,1.739098426794081966e-03,-1.678568906819151441e-02,-1.874936149238533301e-02,1.743676900863647461e+00
5.105927917955408457e-01,-5.753253740365558144e-01,8.830585574420650730e-01,1.504702326946446012e-01,9.064224060387437998e-02,7.771201184300502440e-02,1.353922367095947266e+00
5.950228749389701033e-01,-9.964239687274066837e-01,8.115923545919583315e-01,-2.026624964613533281e-02,-4.137125107127712087e-02,-2.272735218880393010e-02,1.712361097335815430e+00
6.206356524482867787e-01,-1.146496844389062408e+00,9.020871506555225849e-01,9.622388792436539773e-02,-1.838715484121570820e-01,-4.921227904591393004e-02,1.958520650863647461e+00
7.515129496682368959e-01,-1.008437960059850758e+00,7.313421631809031709e-01,-8.002867773004211302e-03,-1.379844120609553457e-02,-5.119537581536793072e-03,1.750193238258361816e+00
1.371186502249516437e+00,-1.153150354599585814e+00,3.620627264464414963e-01,-7.906753852412941319e-02,-3.334964920970427960e-01,3.253046617498054904e-01,2.348004102706909180e+00
7.874499251564590629e-01,-1.017849225150342374e+00,7.848430111878801352e-01,1.915821850324770856e-02,2.046736655471050048e-02,-2.798785702445454916e-03,1.804656982421875000e+00
7.884977940109462180e-01,-9.173601052750937068e-01,7.458506586356000723e-01,3.125907463037041339e-02,1.266417527201552616e-02,1.138138083983830096e-01,1.697437286376953125e+00
8.063530004896866110e-01,-9.969636317693362226e-01,7.109080866048449465e-01,-3.622712518316676625e-03,-1.026068795809064078e-02,-9.782550906901294613e-03,1.757721662521362305e+00
5.682913153196250677e-01,-9.229620454974846178e-01,8.483254175002110653e-01,6.868555990947429468e-02,-1.755736345014442812e-01,-2.404688256731216112e-02,1.681732296943664551e+00
7.978293080087588418e-01,-1.025103553814668444e+00,7.913451326471343528e-01,2.671687464656785985e-03,-7.931409891572933912e-03,9.133695427931579763e-03,1.819825887680053711e+00
7.604073313786851029e-01,-9.255881161893265707e-01,7.651015030421309815e-01,1.795103176028249245e-02,1.451548750999435977e-02,5.875070757834480531e-03,1.688851475715637207e+00
8.846088580119211287e-01,-1.020062071956737926e+00,5.859661218771708979e-01,5.087869531098536749e-03,-1.454057917717565549e-05,1.603519932772359130e-02,1.774539828300476074e+00
7.564540860732834604e-01,-1.004630827014558969e+00,7.122023051259684934e-01,-1.785500906700802221e-02,-1.174021136999769954e-02,-1.209422280829344949e-02,1.739901065826416016e+00
7.672431545802165243e-01,-1.001835454086173138e+00,7.011427251302218000e-01,-1.263124350919699740e-02,-3.121836636193300180e-02,-1.434703712020320154e-02,1.738128662109375000e+00
8.016899089233543441e-01,-1.014985247256454670e+00,6.770807972113926931e-01,-1.910585975029728892e-02,-1.766256806469263321e-02,-1.401688872305700481e-02,1.758431792259216309e+00
7.691534142106768446e-01,-1.028487940241672449e+00,7.683295082811782972e-01,3.984924759195522677e-04,4.574482759572183303e-03,-3.954758371823876434e-03,1.797260165214538574e+00
1.737945461153917570e+00,-1.893774476965340847e+00,2.128267355297186192e-01,2.823794026923101552e-02,3.150661512120488117e-02,8.787698127639088919e-02,3.163085460662841797e+00
7.801986349169723889e-01,-1.031029137882087277e+00,7.713237028590814726e-01,1.043753734834559910e-02,-4.173996691149591681e-03,1.708932520434010586e-03,1.806913971900939941e+00
7.804860486248617057e-01,-1.027618504815980049e+00,7.802539482364432288e-01,1.715227764966385099e-03,-4.281020233678367419e-03,1.221590683339190834e-03,1.808007359504699707e+00
7.783282212125991473e-01,-1.023776050718845365e+00,7.915272937063286829e-01,-2.161551661515314152e-03,-1.072708910592402518e-02,-4.507712063775978079e-03,1.808856129646301270e+00
7.608693748774705279e-01,-1.023355125888955941e+00,7.600731453895813727e-01,-3.353382721259847224e-03,-3.609242516718553552e-05,-5.833144584791100269e-03,1.783864617347717285e+00
7.605665801505847590e-01,-1.016434105063778626e+00,7.504344450552372647e-01,1.783468175094006319e-04,-3.592218831021059579e-03,-7.280112778228463050e-04,1.771967768669128418e+00
7.263529849128687044e-01,-1.003640537278780664e+00,7.334382882758347932e-01,-1.378184299553476648e-02,-2.513891183549723379e-02,-1.396362086598209630e-02,1.734426736831665039e+00
7.565481331026902012e-01,-1.005150711481127113e+00,7.171487289411957455e-01,-1.840902850965949952e-02,-7.856764763558028025e-03,-1.390721369255980104e-02,1.742844581604003906e+00
7.276070286387453789e-01,-1.004427013193903928e+00,7.381643805632555067e-01,-4.058848850544347076e-03,-8.481570877872924435e-03,-8.575103243460772962e-03,1.737476587295532227e+00
7.722908701709613188e-01,-1.031658528136441877e+00,7.782369084976282769e-01,5.120763748989680788e-04,3.524771772676841240e-03,-1.001306340487045574e-02,1.807023525238037109e+00
7.323042758405183816e-01,-1.016866376079631706e+00,7.711438387352833601e-01,1.443623104066266236e-03,-7.860158638310181523e-03,-1.570403742554291743e-02,1.769173502922058105e+00
9.463915400605443784e-01,-1.024113856414596624e+00,5.309543474489721859e-01,5.189159842872546544e-03,-3.054256768355014667e-02,-2.232032664727546557e-03,1.799931287765502930e+00
8.219656421054595263e-01,-1.023128450440397907e+00,7.392527713308408854e-01,1.884628234153412629e-02,-1.939698370341443826e-03,1.908705085783176172e-02,1.805760383605957031e+00
1.751670140468038817e+00,-2.068671327900459378e+00,3.439705563523689502e-01,7.877591833511675412e-02,-4.045323077645657794e-01,7.967825683228870609e-03,3.421765804290771484e+00
1.701450119570321995e+00,-1.697389569609613513e+00,2.348303181687534935e-01,-3.914903294536109524e-02,-1.804641927160539061e-01,2.861904749391836478e-01,3.011028766632080078e+00
1.065358605647821699e+00,-1.111039074842014696e+00,3.983523968448936525e-01,-3.796151846142348241e-02,-4.130352674031029930e-02,1.634634355630157354e-02,1.933953523635864258e+00
8.468930815378672428e-01,-1.008849521261311333e+00,6.123057599092769365e-01,-1.957087805716089049e-03,-2.200723873326111864e-03,-3.577327820212443388e-02,1.751383304595947266e+00
1.295981232532454896e+00,-1.065160235911703168e+00,3.404405166733317500e-01,7.574895780804488665e-02,1.426496103832771145e-01,3.764327407819765270e-01,2.176061868667602539e+00
8.540496893350106866e-01,-1.011403923965680018e+00,5.754032134809208276e-01,-1.756280667897907460e-02,1.521880235497837137e-02,2.937899659978746372e-02,1.744124054908752441e+00
9.229849763819120145e-01,-9.984621792163703713e-01,4.469943878969540041e-01,-7.543650087315141063e-03,2.301622122353481209e-03,-3.605124474841278626e-03,1.733251571655273438e+00
1.004664556375715945e+00,-1.221237498284191147e+00,6.638164330577416283e-01,3.045702392711559930e-02,-3.037159269523711722e-03,7.286273948020173530e-02,2.081071853637695312e+00
7.706573394837237245e-01,-1.021398652472345514e+00,7.481374351851782789e-01,-1.320611678712299564e-02,-9.779820252889105323e-03,-1.019118941962462652e-02,1.781217694282531738e+00
7.485329908743985072e-01,-7.954643877374045768e-01,7.319853978573136466e-01,3.994131801297236273e-02,2.321692473893674155e-02,-3.553899907289815013e-03,1.537885904312133789e+00
7.660261648670374512e-01,-1.011674914767089817e+00,7.808874569607843208e-01,-2.242327237089031689e-03,4.289367096836588754e-03,-1.096337307958070682e-02,1.785298824310302734e+00
7.481791306493428273e-01,-8.230202416360583584e-01,7.422745931382364049e-01,8.394119555265193433e-02,2.822367632651924876e-02,-4.512709831498535988e-03,1.575758337974548340e+00
6.045307073988832602e-01,-1.050890229274928922e-01,6.099248217491946011e-01,1.369003372242121319e-01,-6.463302743180088239e-02,9.770136149100135114e-02,7.776960134506225586e-01
7.759554422955254882e-01,-1.024018523564215633e+00,7.817244975788446570e-01,-3.680831843919995378e-03,4.498986333751390197e-04,-7.788368733222688668e-03,1.802927374839782715e+00
7.806942648029415732e-01,-1.034617805682299219e+00,7.733450340867991102e-01,-5.674607515571214976e-03,1.961979443667468629e-03,-4.252965639194391037e-03,1.811693429946899414e+00
6.935163927632492786e-01,-1.013474839747716238e+00,7.885770823624735915e-01,-1.352900659553662489e-02,-9.239451968465983711e-03,-2.297396326774397632e-02,1.757131695747375488e+00
6.842856393556834282e-01,-1.013157091681612831e+00,7.971822002464991064e-01,-6.793830771263047186e-03,-1.132907684161925388e-02,-1.467071632914518711e-02,1.756946802139282227e+00
7.488840391003295238e-01,-1.014570824786136027e+00,7.437076772808116631e-01,-9.169190403431864977e-03,-1.610137810573060262e-03,-3.755884001139117253e-04,1.760946393013000488e+00
7.571477812077515024e-01,-1.023605610597683846e+00,7.277211611940050950e-01,-2.805074634467710423e-02,-4.845689212256074768e-02,-2.479865449586836010e-02,1.769405722618103027e+00
6.322679363077650105e-01,-1.058879000424654881e+00,8.135315338376309935e-01,-4.058063826337476865e-02,-3.016370391378958571e-01,-4.453395329650744472e-02,1.866339445114135742e+00
7.618466539179234998e-01,-8.195334874686985849e-01,7.581348935191783989e-01,-1.605051417862775331e-01,1.758254719192929236e-02,-1.233735364910417409e-01,1.618265628814697266e+00
7.607981555240919125e-01,-1.102408845330034470e+00,8.232639345221978155e-01,8.556310774254158313e-03,-3.210548563319639420e-02,5.564142896275993747e-03,1.896110177040100098e+00
8.077618119682068443e-01,-9.985788006529299210e-01,6.365336660554509196e-01,2.218068964624922770e-02,-6.442318644363451141e-02,1.211812754497266185e-02,1.731258749961853027e+00
1.261417484363322572e+00,-1.148360545922818332e+00,4.812037365019479207e-01,-4.191400402556615112e-02,-4.326457526769549866e-01,-2.727298947101357007e-01,2.307722568511962891e+00
8.421803235925486852e-01,-1.008751661386145138e+00,6.280759711686594304e-01,1.984355490328700011e-02,-1.595099926378132707e-02,-5.784905787321918506e-03,1.754292488098144531e+00
7.868968774740215943e-01,-1.029463904947618191e+00,7.697497694034848292e-01,1.215087354443556041e-02,-6.086745559352000658e-03,-1.211151760996617872e-03,1.808002710342407227e+00
7.525265051812470851e-01,-9.446138711572724667e-01,7.890391809805104018e-01,-4.380278764822274559e-03,8.276733934893358569e-03,-1.577103430902949271e-02,1.715982198715209961e+00
7.746200448659017468e-01,-1.017556720611212384e+00,7.316389598037085218e-01,1.593134748304924839e-02,-5.102303537315069047e-03,-2.104015891528978124e-03,1.771318197250366211e+00
6.562444436678671611e-01,-5.587806280757701138e-01,8.449827100819394810e-01,-9.367120097777856258e-02,-4.028704065856023586e-01,3.197594280247280374e-02,1.502509117126464844e+00
7.268125210505849143e-01,-9.927634027019893725e-01,7.099452925114835278e-01,-1.017395250421457981e-02,-1.755784884775330595e-02,-1.284914661291068193e-03,1.711567044258117676e+00
7.448334019419354801e-01,-1.010330311350225552e+00,7.537307521647567121e-01,-8.688150605038254259e-03,-6.682220329092863204e-03,-1.422517453193095777e-02,1.759904146194458008e+00
7.238887642927743782e-01,-1.008418346513189512e+00,7.574192265888765041e-01,-8.564739815442205112e-03,-2.922227520102819217e-03,-1.445059914359957641e-02,1.749562621116638184e+00
7.257321583288196543e-01,-9.871488249139683813e-01,7.014817410608431558e-01,-3.672216255077740028e-03,-1.307454403289430925e-02,-8.835794904977576497e-03,1.701116919517517090e+00
7.376610618071665071e-01,-1.009371531595871563e+00,7.532665582774171753e-01,-3.170338995179373780e-03,-3.269587933262369656e-02,-1.308570057243789095e-02,1.755955815315246582e+00
7.249250451887480073e-01,-1.004122364773240683e+00,7.375971773768164041e-01,-1.434373308385699167e-02,-1.205567580445188365e-02,-1.117585917189311065e-02,1.735829591751098633e+00
7.019480056444479255e-01,-9.889652916648051795e-01,7.325090012296927577e-01,-9.707126322756330292e-03,-1.478554432915877431e-02,-1.498227188367759997e-02,1.706871271133422852e+00
9.388583122255034219e-01,-9.076115409554086355e-01,2.907665820717021954e-01,-5.756582198542584128e-02,-3.204311349168898482e-01,-2.710336554635663919e-01,1.780769348144531250e+00
1.001853285778221636e+00,-1.495859455984082098e-01,6.850623474732867590e-01,-4.813723730344544871e-02,-1.202081263894267393e-01,2.795887027678331874e-02,1.055485606193542480e+00
1.034409806689607914e+00,-1.135333892944220713e+00,2.337558666944431485e-01,-2.560079596131446811e-02,-3.495863400685152445e-01,-8.091874542617316646e-02,1.999965548515319824e+00
7.921283684775266565e-01,-1.000195384038601309e+00,7.553421499840951014e-01,4.079998020308530510e-03,-9.950924640971074708e-04,1.045820218100996504e-03,1.774232506752014160e+00
8.466667311253863737e-01,-8.143866832768331676e-02,5.625153128690636439e-01,-1.270085428564679264e-01,-7.737191595873482708e-02,-8.326787339006970490e-02,8.749586343765258789e-01
7.670950529762778913e-01,-9.585280946908747435e-01,7.607114942735443419e-01,2.996936045236609121e-04,-5.050210787916141475e-03,-1.478703328062061506e-02,1.722652912139892578e+00
7.579222855749506715e-01,-5.784583855726310730e-02,8.820845507732049118e-01,6.615575046671759440e-02,1.234496431277829764e-01,4.679516176927372983e-02,9.206519722938537598e-01
6.714185754996518929e-01,-9.805717625638638024e-01,7.374545908549340334e-01,1.313361996582932583e-03,-1.796779892962444350e-02,4.474706498368496814e-03,1.686285138130187988e+00
8.550722652501754339e-01,-9.824371319849867223e-01,5.269845625090503471e-01,2.439827685581548444e-03,-2.590503747243962096e-02,-2.639884076999381157e-03,1.698019504547119141e+00
7.391096902469944663e-01,-9.807320872855891380e-01,6.741396894917801585e-01,5.249654869295011274e-03,-1.671294878870486014e-02,1.214444237946138557e-03,1.688568592071533203e+00
6.054091328001058869e-01,-1.000786669635558512e+00,7.406494799691039077e-01,2.568398684659246867e-02,-1.455719173886479145e-01,2.753561945980278688e-02,1.698000192642211914e+00
7.907330890068074991e-01,-1.013827762875788130e+00,6.858499682932113206e-01,2.422625010077376559e-02,-1.051264295466816656e-02,2.076503095502847326e-02,1.755436778068542480e+00
7.850319178158328137e-01,-1.026483572265566968e+00,7.876676418236004951e-01,2.992495874458267046e-03,1.514906185023420782e-02,-6.920953550126649834e-04,1.813032507896423340e+00
7.069163087212610996e-01,-1.059714495248703647e+00,8.274972683659271855e-01,8.360873021875128014e-03,-8.230555702404095120e-02,2.144677066035812624e-02,1.835880875587463379e+00
7.507201728388593898e-01,-1.016861144364080705e+00,7.237086568174149193e-01,2.269732204997670227e-02,-3.205186290155614265e-02,2.267139192506540876e-02,1.755989074707031250e+00
7.523894739754222183e-01,-7.692819790996316964e-01,7.016545840558463532e-01,5.387341810847376400e-02,3.288180540049738792e-03,6.675515108805410783e-03,1.499909758567810059e+00
6.253616375057193810e-01,-1.004081098736182120e+00,8.061121071915353653e-01,1.930878376798387652e-03,-4.755719593782470334e-02,-1.927741082641386966e-02,1.729215979576110840e+00
4.992293071279905181e-01,-1.008080111923313593e+00,8.830858456366235121e-01,-9.899338076295284908e-03,-9.099867364664344926e-02,1.314386398136980875e-02,1.738842368125915527e+00
4.745990441284804184e-01,-1.009911166848393993e+00,9.435034561642425821e-01,3.211771779203995147e-02,-1.342088425038992158e-02,1.504500203723014087e-02,1.767498016357421875e+00
8.855216684865588883e-01,-1.063385946774196400e+00,6.491083032033961864e-01,1.610065592706485388e-02,6.540652363550291531e-03,-3.602649913054877667e-02,1.843416452407836914e+00
3.590766919892056097e-01,-1.050368341373708159e+00,1.071386953336896486e+00,3.886774801279560456e-03,5.662900470219351529e-02,-2.015016852770049050e-02,1.873170375823974609e+00
4.113177056551914346e-01,-2.223938077089993914e+00,1.819501567417056265e+00,-5.774876629403247197e-02,-4.434108541817137761e-01,-3.991453818383085272e-02,3.639107465744018555e+00
4.262814987615138884e-01,-9.972556976798945261e-01,9.030615466640756761e-01,1.309591034961377900e-03,-9.275265714078288759e-02,2.247311603850985808e-03,1.719977021217346191e+00
5.177182040904934057e-01,-9.845484426622581609e-01,8.644985303283706513e-01,-1.781980243304171580e-03,-2.261118655997395449e-02,-7.277388146223268822e-03,1.702856540679931641e+00
5.029908774180791298e-01,-1.743660532211245950e+00,1.331889022262029876e+00,1.125949440953374903e-01,-5.821340507523782293e-01,9.604310434736418323e-02,2.946032285690307617e+00
8.386333598981867699e-01,-1.059668917360629070e+00,7.458018366613645700e-01,9.707244431722990979e-03,-4.150413854505655142e-02,-2.112581761003913539e-02,1.855461239814758301e+00
8.447473620302893282e-01,-9.965634547052383274e-01,6.030739309663495362e-01,3.285991271739437808e-02,-5.274091631478445841e-01,2.058162428537482491e-01,1.992143869400024414e+00
7.852259805655079639e-01,-9.831424272241877649e-01,7.795258440422234703e-01,1.012730198104164030e-02,1.234750325399592598e-02,6.209526359201798448e-03,1.765774607658386230e+00
8.533659713143579850e-01,-3.532241082775431917e-01,5.977887206369093542e-01,-3.243516406190623952e-02,-1.158266176801306391e-01,1.531639253427943270e-01,1.151774048805236816e+00
7.237590764885986072e-01,-1.003226103063339592e+00,7.323438706145880550e-01,-1.622960257416722341e-02,-1.872765605479281836e-02,-1.265816368434090344e-02,1.731964349746704102e+00
7.622895400196229021e-01,-9.142687673124020309e-01,7.731256600069954521e-01,-1.860974004772236387e-02,-8.512828389381702290e-03,2.545143157434769446e-02,1.682953476905822754e+00
8.559365410664196983e-01,-1.006335185505682794e+00,5.664872804975944476e-01,-1.952749571861548544e-02,-1.698148325851899995e-02,-2.307885150832136856e-02,1.736781716346740723e+00
6.251785739744771808e-01,-5.686389527027736479e-01,6.591693572382296695e-01,2.309616414804623874e-01,-2.181536465542344982e-01,1.682298798069663537e-01,1.361852169036865234e+00
7.478447830856783662e-01,-7.628342710063955590e-01,7.228171828574164737e-01,3.655032150000358387e-02,2.258652050150201929e-02,1.085185362822382524e-02,1.500286817550659180e+00
7.229683226871311819e-01,-7.186912516207295543e-01,7.391818294141889734e-01,-3.467830237857555398e-02,-2.575918662331818168e-02,5.472334919485484506e-02,1.454854607582092285e+00
7.902944853817546189e-01,-1.016659822063061380e+00,7.838342366856814181e-01,1.746156600879321787e-03,-1.703959240306143416e-02,-2.585600642052075099e-03,1.803982377052307129e+00
7.712599748967834401e-01,-9.817956766007998048e-01,7.816543086658793715e-01,8.099280024982991738e-03,-1.361520765623309634e-02,-6.886315898270721318e-03,1.758530378341674805e+00
7.695525267767209243e-01,-8.240832621762451682e-01,7.634797088039180224e-01,-6.727488468976094982e-02,-1.931144197854038971e-02,5.275329610166230171e-02,1.597835779190063477e+00
7.900456110714055846e-01,-1.021640977059286248e+00,7.789835298319596202e-01,1.064775060581066302e-02,-6.860229435659677411e-03,-5.188258042527488755e-03,1.806336522102355957e+00
1.001147630985262937e+00,-8.571195185021547314e-01,6.847969168804637352e-01,-4.066381364140751742e-02,3.516387238745158905e-01,1.140015641045837025e-01,1.838550925254821777e+00
9.026369225820314313e-01,-9.967522617717501365e-01,7.469588706098236885e-01,1.342344948823834955e-02,7.782029556276172377e-02,-1.537585374302677943e-01,1.850906610488891602e+00
7.823305431990869030e-01,-1.024468203484462103e+00,7.822592202570087805e-01,-4.810845117622126674e-03,-4.762617034985215485e-03,-2.869377640012084341e-03,1.806807994842529297e+00
9.172940176500448128e-01,-1.043062387951575021e+00,5.374157478975506441e-01,9.450627606113133281e-03,-2.614828850088007830e-03,3.839183276917292054e-02,1.802031636238098145e+00
7.414842245909192275e-01,-7.742721691011444918e-01,7.528912542905690231e-01,1.193939269196451075e-01,-1.392841188199810294e-02,-1.227944028752110672e-01,1.550328969955444336e+00
6.958259050889872288e-01,-7.176057571319196526e-01,7.436015881377968650e-01,2.284538128463413711e-02,-8.422796897557699794e-03,-6.562108463416474469e-02,1.443016409873962402e+00
7.918008830912749429e-01,-1.037762537164219623e+00,7.699573687609920780e-01,-1.620934366647602126e-02,-1.871563440551508601e-03,-4.146774047426471377e-03,1.818973779678344727e+00
7.021333516968444322e-01,-1.010750466928984403e+00,7.830574247429039625e-01,-8.738065769963856500e-04,2.266390370742418781e-02,1.844418523203236737e-02,1.755476355552673340e+00
7.099222021953184303e-01,-9.218429143106294799e-01,7.818943059516301197e-01,2.617242099718525977e-02,1.182148536801181510e-02,1.180774822402581511e-02,1.669781804084777832e+00
5.961937319071894947e-01,-1.193262143234073980e+00,9.847538224844578636e-01,7.403368355369559228e-02,5.491362695380561654e-01,-4.149612449449639751e-02,2.230404138565063477e+00
4.958969322644736222e-01,-1.698903682159633499e+00,1.240914831204961821e+00,1.687917115733066353e-01,5.241686811507616506e-01,-4.902950297323326219e-03,2.813746452331542969e+00
7.902174472013123729e-01,-9.892207994415147532e-01,6.149912293700610100e-01,-1.439013377947034183e-02,3.405463775544686350e-02,1.081634779866260179e-02,1.699926972389221191e+00
7.954132954491291985e-01,-1.018547750045892375e+00,7.786989709804198467e-01,3.015938591296421674e-03,-1.412699843118739871e-03,-3.208476319896957051e-03,1.805679678916931152e+00
3.596765474740475366e-01,-6.837867358892145697e-01,8.402750782738240831e-01,-2.218847595342571533e-01,2.293574051358257537e-01,1.933245325540369070e-02,1.458736300468444824e+00
7.709662103045794579e-01,-1.022815355907388035e+00,7.530980250861391001e-01,1.285564275947579695e-02,2.439481060110710968e-03,-7.322886266955302287e-03,1.785103440284729004e+00
6.405298579355432897e-01,-9.959730170864101728e-01,7.900001555195264036e-01,-2.107837474905146016e-03,1.980166995657328677e-02,-2.064232968059433182e-02,1.716845870018005371e+00
7.264139636341075956e-01,-1.002689116790195456e+00,7.651154768296742903e-01,-8.130272294384288667e-03,-2.923021930187345852e-02,-1.646521014743075606e-02,1.749796867370605469e+00
7.812343315536158794e-01,-1.038887711278090320e+00,7.842328106860656511e-01,-4.639441509188419951e-03,6.120516569380477119e-03,-4.868670383529626750e-03,1.821691274642944336e+00
7.907330571278019526e-01,-9.637514292164186536e-01,7.569900992087255087e-01,2.115547447219821853e-02,7.306520846499102093e-03,-3.576148058853843587e-03,1.738302111625671387e+00
6.811521848586434835e-01,-1.023294758835241236e+00,8.505367339845305574e-01,-1.454801722374439443e-02,-8.552796619322675098e-02,8.838690071177849814e-03,1.801486015319824219e+00
7.787614513409841788e-01,-1.043251709791436888e+00,7.835500123182009835e-01,-1.029649888969481550e-02,2.986728602209841148e-03,-7.066179138765765928e-03,1.824547648429870605e+00
7.709636993375318381e-01,-1.029497651493915367e+00,7.982344816108452035e-01,9.357833010402365898e-03,4.524672423575031152e-04,-9.094162438486049589e-04,1.814323663711547852e+00
6.576504320300120554e-01,-4.376300064845397575e-01,6.469169358978323903e-01,5.206637941898254601e-02,8.064894734731313519e-03,1.703769567437370125e-02,1.094164967536926270e+00
7.890830193639474244e-01,-9.949634641819591341e-01,7.730834106598410971e-01,-5.352011704220121721e-03,1.292047235684121338e-02,-4.885829989129530405e-03,1.776286005973815918e+00
7.882360801837402509e-01,-1.035065486149950642e+00,7.838664808488211566e-01,8.391751205794686658e-04,1.168648600861662418e-02,-4.459560684690205140e-03,1.821250200271606445e+00
7.831526691369641302e-01,-1.004849667524446710e+00,7.769171382068555953e-01,2.807453708338932766e-03,5.036630378514355549e-03,-4.519210718338186744e-03,1.784937858581542969e+00
7.964329195569497255e-01,-1.000654743582206851e+00,7.743598963420357251e-01,1.208282427105510787e-02,7.782983846909695413e-03,3.235655282496980277e-03,1.786335706710815430e+00
7.848402816442643370e-01,-1.017741068741242261e+00,7.808900723519782705e-01,-4.071472265389506837e-03,7.941965875440304065e-03,6.936476953821136887e-04,1.800676226615905762e+00
7.776896819969807417e-01,-1.022509383434137220e+00,7.452038279982462488e-01,1.680866059050423189e-02,-4.800606258881112524e-03,1.173724356025184976e-02,1.784550666809082031e+00
7.789498818673896707e-01,-1.018138510814239561e+00,7.634327503103827128e-01,6.709405100129892108e-03,-1.709982973307701227e-03,4.969705189105553741e-03,1.789441227912902832e+00
7.646870677622240597e-01,-9.840501181552603338e-01,7.962640098411688516e-01,-2.020708831518101822e-02,1.859980066069397142e-02,-1.646615499627595430e-02,1.765608906745910645e+00
1.329523180772318680e+00,-1.229498348820223796e+00,2.657014412260091385e-01,4.403616641283689126e-02,-2.492116011096958128e-01,8.870746794120852943e-03,2.269435644149780273e+00
9.563974495227850481e-01,-1.001197134239902864e+00,4.338184714098195505e-01,-3.527571471378490586e-02,-8.327994578442679541e-02,-7.509660290655526156e-03,1.762661814689636230e+00
7.790100771788718292e-01,-2.072155989050222802e-01,6.972395434392466562e-01,4.722419813803900579e-02,1.143601581903393692e-02,-5.355574104421415016e-02,9.562273025512695312e-01
8.935104289554141044e-01,-1.033674293574042835e+00,5.998971050812297312e-01,5.783588213058249092e-03,-3.062834004939506138e-02,6.642138978933916083e-02,1.802928924560546875e+00
5.319072338032220237e-01,-9.085350882428212538e-01,6.240339849026179664e-01,-3.635648028257735392e-02,-5.673027203171652211e-01,9.138439590564495507e-02,1.791809320449829102e+00
4.800160554399521828e-01,-1.096276228064801517e+00,7.603806626363374122e-01,-8.794838245655356435e-03,-5.010409166012308457e-01,-9.535470471222697031e-03,1.938780307769775391e+00
7.581605404649989222e-01,-1.007849970067338008e+00,7.050834118618323210e-01,3.469424646535542583e-02,-5.049726739102165796e-02,2.811398119591823272e-02,1.743991851806640625e+00
7.899970108159435345e-01,-1.027735865623466749e+00,8.246475998429083631e-01,-8.723159025786703102e-02,1.899743986133951802e-03,-8.558270104922877097e-02,1.847471475601196289e+00
6.189890240714444047e-01,-9.815994982980026373e-01,7.918945466936054833e-01,-1.447893262962167676e-03,-2.346447372077676077e-02,6.603869801865197564e-03,1.694201707839965820e+00
6.314825872074716351e-01,-9.966222677180123224e-01,7.903216699857674721e-01,-2.697417661993754129e-02,-1.432778638365021437e-02,-2.119850236569102708e-02,1.714266300201416016e+00
6.475379379350592046e-01,-9.979072073686383604e-01,7.730552629101283824e-01,-2.464674218372570058e-02,-2.207834033313521224e-02,-1.627515230498065638e-02,1.712850093841552734e+00
6.660491229952429926e-01,-1.008272075152126357e+00,7.530641314047027413e-01,3.460382609381214020e-03,-1.218181610364574285e-01,-5.886424427902843710e-04,1.732388615608215332e+00
7.462021815574705341e-01,-1.063269134338262090e+00,8.055936014369653453e-01,-2.140016409568835931e-02,-1.766775377985239578e-02,-2.880344644091125186e-02,1.841189861297607422e+00
8.263372585674386706e-01,-1.026841973810875386e+00,7.054494743385872901e-01,-1.525060320545121827e-02,-2.259724391674930444e-02,-2.071276796659784949e-03,1.796413898468017578e+00
5.927184264975648986e-01,-9.992681774808783723e-01,8.238095959399145407e-01,-2.347665788805447518e-02,-4.364205623885397678e-02,-1.663862600951655779e-02,1.721602916717529297e+00
7.579257710170564932e-01,-1.444876319055677705e+00,8.021976188221310311e-01,3.851497891936955797e-01,-6.129208123959775101e-01,8.252335322835521736e-02,2.558180332183837891e+00
6.067725051107935030e-01,-7.818441202590009631e-01,8.470810340302337149e-01,1.594223027390042069e-01,-3.237620231626969769e-01,1.059514067550374333e-01,1.656529426574707031e+00
5.971881844240018999e-01,-9.942056336628815050e-01,8.029064726770840377e-01,-1.601928307796058465e-03,-8.654961262499674679e-02,-2.269529613058192397e-02,1.710631012916564941e+00
8.705693819612327911e-01,-1.127544662447804935e+00,3.237807250350195343e-01,4.339571722490388056e-02,-5.159322768052523323e-01,6.403778118788618079e-02,2.003846883773803711e+00
7.785915366384169589e-01,-1.026191298934758356e+00,7.811027116921532842e-01,-1.318635439524176462e-03,6.382684767625666604e-03,2.721910677730580118e-03,1.806081175804138184e+00
7.808063199263004517e-01,-1.036990502874760800e+00,7.859442951920734277e-01,-3.506550482124390963e-03,2.606042802453465909e-03,-2.461117623980994991e-03,1.820392012596130371e+00
7.852027997275334847e-01,-1.037641364578303582e+00,7.853113485508715907e-01,-3.002044373559705891e-03,3.040773940150009146e-03,3.626403160747639503e-07,1.822913408279418945e+00
7.817592033220844838e-01,-1.030763455641088955e+00,7.696647702144320258e-01,-1.119764913183458541e-02,1.010134279758014919e-03,2.163766243625070331e-03,1.806614637374877930e+00
7.763438379528919686e-01,-1.019060313584579935e+00,7.315789589183820940e-01,-1.609425324215069120e-02,-2.211603167084048860e-02,-9.503626412619627095e-03,1.774154543876647949e+00
7.786238391708942830e-01,-1.033691911327107693e+00,7.659194642831338440e-01,-5.606466216348591873e-03,-9.587243321554899528e-03,-1.907113572061147622e-02,1.806401610374450684e+00
9.139967410304548068e-01,-1.003494492819927197e+00,4.774042818762248008e-01,-7.186577756124339772e-03,1.098321008352390327e-02,-3.578289083182296937e-02,1.742004990577697754e+00
7.837935445193575656e-01,-1.036771572861335589e+00,7.810150063820139321e-01,-3.039426199946250982e-03,3.938154572713122720e-03,-1.520033260617540197e-03,1.819199800491333008e+00
7.875309324923943644e-01,-1.001688387114576528e+00,7.738984477948828156e-01,1.039000059029355702e-02,-9.404569675274782048e-03,1.824834767690185948e-03,1.782610297203063965e+00
7.926454248698611149e-01,-1.011849634113104024e+00,7.786093972637652127e-01,-3.151509449814228654e-03,1.289753907229123503e-02,2.897219168580897211e-04,1.797665357589721680e+00
7.012024594861906435e-01,-5.953679772530211523e-01,6.752289260616179956e-01,-4.070338044765656194e-03,5.398348914356514844e-03,-1.799235180078299651e-03,1.283837914466857910e+00
3.488412954286003176e-01,-4.823074934831321769e-01,8.897428047963144015e-01,2.746667066156044945e-01,-3.898522360528854092e-02,-1.791550680965779685e-02,1.290271401405334473e+00
7.434794648669416084e-01,-6.799140294669248075e-01,6.919519086458978396e-01,8.105507317118441912e-02,-1.284351477764705818e-02,-1.993562686207066975e-02,1.405971884727478027e+00
6.936614718320381900e-01,-6.412060843387531461e-01,7.235912923573342148e-01,-5.233383041991653516e-03,1.255532246437770713e-02,6.254678550372699819e-02,1.354625701904296875e+00
7.912926515631186763e-01,-9.698873960469742705e-01,7.646279091259173821e-01,-3.906245168673476691e-03,-7.304564439905948843e-03,1.110892354947107339e-03,1.748060107231140137e+00
7.097170278289215428e-01,-5.392938510604639024e-01,7.335478266080615040e-01,1.262383055947453314e-01,4.937967777813023762e-03,1.107000677137570388e-01,1.294220209121704102e+00
1.097219565436868827e+00,-1.342155780491864014e+00,5.866982555243686059e-01,9.800620489757594367e-02,3.181937604693347854e-01,-3.679922778316788157e-01,2.388439416885375977e+00
9.168699424299679990e-01,-1.012431124296624851e+00,4.996982041288333121e-01,1.989195606390796109e-02,1.327319182315752147e-02,-3.225262697230556197e-02,1.759608268737792969e+00
7.617498273526858155e-01,-9.884430051283694674e-01,6.592171869191723044e-01,-8.201715511421115573e-03,1.329622257657680530e-02,-4.757624212084958330e-04,1.701460838317871094e+00
8.880386984886285973e-01,-1.019231567538343208e+00,5.745822688464363726e-01,-1.181790249620037411e-02,9.474995632059288186e-02,-8.771164296234129631e-02,1.785642862319946289e+00
8.210602485808939921e-01,-9.920065969064985056e-01,5.923925408437800133e-01,-5.975251267314819585e-03,1.197989404988111795e-01,1.398651931250790084e-02,1.722979903221130371e+00
3.829183299149551134e-01,-1.503546627072097408e+00,1.186281355487163847e+00,2.989225631054719390e-01,-3.599850316120575267e-01,4.831608716124615593e-02,2.526557683944702148e+00
8.001133144992335078e-01,-9.879873942170350753e-01,5.763994478886508288e-01,-2.100909660592605727e-02,-6.010258710871749233e-02,-1.457426761986193968e-02,1.691191077232360840e+00
7.999498039226152768e-01,-9.799892816423377839e-01,5.655760662442368414e-01,-5.879989946634566270e-03,-6.475678025575738739e-02,2.477018845941822769e-03,1.678882241249084473e+00
5.957098974559553728e-01,-9.794504249137597762e-01,7.270105615227301366e-01,9.507501377480355800e-03,-1.552450158800229296e-01,7.685604053650365794e-03,1.666715621948242188e+00
5.395800357030753336e-01,-1.027616844241067806e+00,9.082743020301027315e-01,-1.298331423947154256e-02,-2.283726622155284741e-02,-1.043572465417122105e-02,1.781082510948181152e+00
7.368186691679911027e-01,-9.818427205669594260e-01,6.793177605732781954e-01,-7.637937965310655219e-03,-1.415265791519018136e-02,-1.123100373320353070e-03,1.690875053405761719e+00
7.824882422464793930e-01,-1.019362493066917619e+00,7.900920220924213533e-01,-8.282041685208543086e-03,1.702221702410536622e-02,-4.412536098771049388e-03,1.805978417396545410e+00
5.839675144865534850e-01,-1.204326911097527208e+00,8.954155333272368900e-01,-4.579018668347541177e-02,-2.585357035873050435e-01,-2.151250113389283417e-02,2.014983415603637695e+00
9.674636152191310456e-01,-1.113977444273615003e+00,5.030002001593728567e-01,7.514492746136168695e-03,-1.113958581293782724e-01,6.681301629514571627e-02,1.905822277069091797e+00
6.190548311855663677e-01,-1.006059084989346486e+00,8.403662752610120412e-01,4.098196349642183392e-03,1.765653749403579484e-02,1.774149627914596572e-02,1.746871590614318848e+00
5.859385544632857989e-01,-1.216365776898461482e+00,9.052199460627959882e-01,7.796977144981485919e-02,4.045672868374801112e-01,-1.039154096005089761e-01,2.113608598709106445e+00
1.930421027263803657e-01,-1.102286428148056885e+00,1.175667892836423034e+00,-1.008491387474314861e-02,-1.408555545472407917e-02,2.414581216036065792e-02,1.979621648788452148e+00
5.824548869746170032e-01,-9.871766360061841050e-01,7.983145600513865681e-01,-1.476730867576831439e-02,6.574664813331920765e-02,1.366556777978931124e-02,1.692140936851501465e+00
6.930293802279661186e-01,-1.027316912737056498e+00,8.284944028004894712e-01,1.261486636753950466e-02,6.672179555421325122e-04,1.815556220105410097e-03,1.792059540748596191e+00
3.342126484780995610e-01,-2.513432460372595489e+00,2.115993177557611737e+00,-1.283356552700708197e-01,2.668035843798304274e-01,7.286658318887384578e-02,4.078798294067382812e+00
6.844716124540398683e-01,-1.219721903573344646e+00,8.977410384219258743e-01,1.296723189850831209e-02,-1.187794345077711755e-01,-2.610966275931279196e-02,2.030374050140380859e+00
6.151501615060673833e-01,-7.851431321819093423e-01,8.214523146886023586e-01,5.806413923842039526e-02,1.188895014048419949e-02,3.186228547295801017e-02,1.518502354621887207e+00
6.670289283819546000e-01,-6.067003029289274041e-01,7.176787050415767144e-01,1.996675266395497948e-03,1.562546015991297596e-02,-8.062404052527342990e-02,1.307559132575988770e+00
7.538602617352966329e-01,-1.009795181124872210e+00,8.002246268359132220e-01,1.000152471565400603e-02,-1.855423026872123375e-04,-5.552438692837382769e-03,1.787398576736450195e+00
7.846475281621341225e-01,-9.505737435748209396e-01,7.665318445116038326e-01,2.515984626380267028e-02,2.341943739354622120e-02,1.699284485164476860e-02,1.727511763572692871e+00
7.304076884142783888e-01,-5.336191516203270258e-01,7.248232017188560583e-01,1.655164298720632754e-01,-7.576285260149218451e-03,1.487605399175789822e-01,1.318895220756530762e+00
7.343248107083801823e-01,-8.048382006197964955e-01,8.355643788190081356e-01,1.048665691855797250e-01,3.992805190871713712e-03,4.198883193265946778e-02,1.604189634323120117e+00
7.653087747563881438e-01,-9.095826051406684654e-01,7.599574829081710003e-01,-6.828922013971909857e-03,2.246067641168797077e-02,1.635970355416457162e-02,1.672956466674804688e+00
8.714168271638798036e-01,-8.960923434496648188e-02,7.496458454667682680e-01,-8.726520333086429382e-02,1.463959258603016733e-01,6.294820430225438190e-03,9.532229304313659668e-01
9.366138415498787007e-01,-1.194152251861307690e+00,8.137867777653465806e-01,2.811667530537873341e-02,-1.255414281495976225e-01,6.096490298240225120e-02,2.086705207824707031e+00
7.559659986974843759e-01,-8.458081094915217424e-01,7.453344375197807903e-01,2.849663258613937666e-03,2.102358441491874660e-02,1.492606937633258676e-02,1.597116947174072266e+00
7.120674566311089304e-01,-1.615155575628054452e-01,7.611226900068379653e-01,8.292707305770266601e-02,3.031193340453147353e-02,-5.679328490343910768e-02,9.173173308372497559e-01
7.829009847741402739e-01,-1.030637046756823771e+00,7.935217641787182252e-01,-3.936780688566462495e-03,4.298517236392541789e-03,-7.614193523399662156e-03,1.818947553634643555e+00
6.494548124914130138e-01,-1.017991805498088764e+00,8.296682886627404496e-01,-9.485860853530368383e-03,1.242873814214523129e-02,-2.002923850029386275e-04,1.764677047729492188e+00
7.861561270422058323e-01,-9.152428291323539966e-01,7.495830996654284650e-01,-1.173370844294252882e-02,-1.407294912818532473e-03,2.105745522896510392e-03,1.683538794517517090e+00
3.131718226375119762e-01,-1.249916771075421540e+00,1.393196566299430339e+00,-3.915493581373003518e-01,2.064611007318339353e-01,1.373807078647365509e-01,2.437684535980224609e+00
7.682241185813445394e-01,-8.706435883128478270e-01,7.460592418971271345e-01,-3.033209797121586351e-02,9.376210563912603518e-03,-3.235032830467718563e-03,1.628836631774902344e+00
7.435082097766980702e-01,-9.884753609588412537e-01,6.920818034817237674e-01,-9.547701644555537867e-03,7.389423248211649149e-03,5.608116762495661892e-03,1.707007288932800293e+00
6.660138629618688189e-01,-9.946938058105402325e-01,7.559441742610267800e-01,-2.125507891766590155e-04,2.825766092279238112e-02,-1.526178012566543722e-02,1.708355903625488281e+00
7.726745846130926854e-01,-9.928023529758583932e-01,6.691523033052381164e-01,1.035301421647140396e-02,5.661542457024293373e-02,-1.167741483176698916e-02,1.719071269035339355e+00
6.256082149430477468e-01,-2.101599819296766647e-01,6.463522271100259342e-01,-4.377193379824626668e-02,1.706090458842002971e-02,6.118621479963088673e-03,8.502996563911437988e-01
4.889437719392003556e-01,-1.141619048868944608e+00,7.388735506160489797e-01,-7.667458119429780561e-02,5.893026065213327058e-01,9.738106872462563846e-02,2.053447008132934570e+00
6.994603172262615631e-01,-7.401903478837135175e-01,7.452694791610440239e-01,6.302637684048423630e-03,2.003413896844998768e-03,-5.485452172814768435e-02,1.466219663619995117e+00
9.698414160014707797e-01,-1.319338173946720261e+00,7.301602150136935476e-01,5.526702002795541580e-02,2.624537812947602133e-01,-5.081044168737128275e-02,2.229948759078979492e+00
7.651616426028056139e-01,-8.303887952885665724e-01,7.336215775424402841e-01,7.144158896452584839e-02,-1.016321436837510327e-02,-5.402527888536777859e-03,1.584979891777038574e+00
7.943221403652533930e-01,-9.687040208336072933e-01,7.641479257909722378e-01,-5.398362159625932563e-03,8.400440181512865406e-04,1.298001774188175802e-05,1.748160004615783691e+00
7.725149692830033388e-01,-8.619167443751121205e-01,7.394539938742799023e-01,-1.190742710827070658e-02,1.797734260785516583e-02,6.211355927058948706e-03,1.618621230125427246e+00
7.181765137530894405e-01,-1.018724665942243757e+00,8.252141456860702107e-01,-1.210142940257653149e-02,-4.384565162641635393e-03,3.546203104258901367e-03,1.792967200279235840e+00
5.762701546958265419e-01,-1.010891724298032202e+00,8.651114233551562283e-01,3.694616559637165995e-03,4.265210977580760621e-02,-2.171375855350648192e-06,1.751127839088439941e+00
7.242792397647098701e-01,-1.023571730675765901e+00,8.208882247660896914e-01,-1.717260722312632590e-02,3.169710586191628395e-04,-1.521661784905400244e-02,1.798542261123657227e+00
6.377430078663155477e-01,-6.720908565553285197e-01,7.291823405125723578e-01,1.459227059058673670e-01,-2.793659817660597289e-02,7.185395471277404578e-02,1.387626290321350098e+00
6.823560693025861879e-01,-4.688011130017172290e-01,6.624584689451598063e-01,5.260224106356591045e-03,1.689145169600532459e-02,-6.238743181185928133e-02,1.146851778030395508e+00
7.676262460749680994e-01,-1.038108157920700325e+00,8.251748447227551519e-01,1.791527998980384576e-02,-5.468228750658681372e-03,1.389682642627902438e-03,1.835473895072937012e+00
7.562445385617750926e-01,-9.219086653583763447e-01,7.730244504563450469e-01,-4.440780720791073603e-03,-1.585619452276500196e-02,-1.752204635370964089e-02,1.687119841575622559e+00
7.329824487566883873e-01,-3.218908099503258735e-01,6.451585954949879964e-01,9.643545420615948216e-02,-7.800048134220105914e-03,-1.292320577317460084e-01,1.051671147346496582e+00
8.008948977681390469e-01,-1.010941674221501829e+00,7.916999140539996427e-01,4.131406048598568886e-02,-5.497169431550911339e-02,9.414502119871079322e-02,1.818502783775329590e+00
6.904148967744330179e-01,-5.679213882884122100e-01,6.809011612856346041e-01,-7.128633728249159432e-03,-1.934287313231189756e-02,-2.506681036034101584e-02,1.254866242408752441e+00
6.900804846413335358e-01,-6.720246485177783224e-01,7.243027174929440593e-01,-4.808374543434251053e-02,1.317137683678789445e-02,-7.276865610308490273e-02,1.387969136238098145e+00
7.580229361592532022e-01,-9.123759639064006333e-01,7.714236226311876887e-01,1.541704516054807558e-02,-2.560421329730788731e-02,7.100161533248548415e-03,1.677983164787292480e+00
7.926385205275244816e-01,-1.010234567411367523e+00,7.148800779607601408e-01,-2.367495682437000329e-02,-3.471724787458393274e-02,-7.392710428332096607e-03,1.766824960708618164e+00
7.936791893904421302e-01,-9.967710948069917754e-01,6.340769021763807967e-01,2.630032428779214768e-02,-2.202514240577937293e-02,1.704284585405531002e-02,1.717506051063537598e+00
6.340591264885536704e-01,-9.849790780888856290e-01,7.580662567422228326e-01,1.274103811233807081e-02,-5.557983935110227813e-02,1.404981382191401035e-02,1.687537074089050293e+00
8.038544141844916613e-01,-1.000711148386446814e+00,6.430103016834747276e-01,-1.225687420577385202e-02,-2.470203551383329948e-02,5.069320508251071861e-03,1.730442762374877930e+00
8.003987617134198373e-01,-9.798013107938587929e-01,5.579077831604833948e-01,-4.097430835291885134e-03,-6.121950770964741662e-02,-3.334903967867611750e-03,1.675577163696289062e+00
7.814441281687333207e-01,-1.035748713392677711e+00,7.814454557554851855e-01,3.487705126463196918e-03,-3.328699108622302193e-03,-1.857467128199334844e-03,1.817215561866760254e+00
9.613202650930383619e-01,-1.136737216167689191e-01,8.144007649697058149e-01,1.521017446895029518e-02,8.533182163461033864e-02,-7.101582191067428752e-03,1.020759344100952148e+00
4.188110255904323731e-01,-9.998173859653801676e-01,9.422521643267541824e-01,-2.163048495947065414e-02,-1.393143119141089514e-02,-2.341061032788322154e-03,1.740996241569519043e+00
7.893065857328026569e-01,-1.005887883795062887e+00,7.770116792453510834e-01,4.813857424792466339e-03,7.782590156664407829e-03,1.181056211053501488e-03,1.789150118827819824e+00
7.253184772604790442e-01,-1.020564786215282238e+00,8.131200688892292749e-01,-1.934695619827921792e-02,-1.447574587308555517e-02,3.309822806887445555e-04,1.791887521743774414e+00
7.513008750980187944e-01,-8.619824235251204447e-01,7.595212410557311555e-01,3.855605619381842486e-02,-2.608910022532977529e-03,-1.664213941130373827e-03,1.618796110153198242e+00
7.896884819672915778e-01,-1.018123232961970492e+00,7.785087146569796834e-01,-8.949103551630337031e-04,-2.646423868054257559e-03,3.162560569854745447e-03,1.802262663841247559e+00
5.670480188910761443e-01,-9.974220426407599538e-01,8.242452118758866186e-01,-1.634062472781222519e-02,8.611695309580591484e-02,8.408253681389655718e-03,1.714455008506774902e+00
3.590894291970048724e-01,-1.065383026118419840e+00,1.050220269547548879e+00,1.325172423460558788e-02,-3.851663262734644766e-02,-1.459005575209079177e-02,1.869999051094055176e+00
7.846425865788606568e-01,-1.054160173433910108e+00,8.001110033464065019e-01,1.610637826043594817e-02,-2.069509143079262172e-03,-2.672725198947404485e-03,1.846805572509765625e+00
7.788670714600802736e-01,-1.033674929723225944e+00,7.745848600767979431e-01,-5.658295297083427988e-03,-3.375356873391061226e-04,4.179899256654068598e-03,1.810445785522460938e+00
6.509770212254185617e-01,-1.242224915229717119e+00,9.906045386339324965e-01,6.787898012545423576e-02,2.085980386849072554e-01,2.863576870949974262e-02,2.118812322616577148e+00
7.156676003922652907e-01,-7.961776874844261886e-01,7.608553152325303603e-01,-1.040886605735830139e-02,-2.336899710208122267e-03,-5.026736470997170483e-03,1.535073995590209961e+00
7.504558894182200568e-01,-9.808354615084819983e-01,6.363926167198670214e-01,-6.514791019210604273e-03,-3.574789906039699261e-02,-1.049788513207012761e-03,1.678352713584899902e+00
7.836889606275536657e-01,-9.427171349540883760e-01,7.666991857840692592e-01,-2.157772754097289289e-02,-5.015733813926798873e-03,5.222476994983953763e-02,1.720781803131103516e+00
6.673451500181772911e-01,-4.680150875373439989e-01,6.786609978532052168e-01,6.213758240792698062e-02,1.962058286268003951e-02,4.035982208721099196e-02,1.148757338523864746e+00
6.766986178998164458e-01,-5.223019213539437100e-01,6.845685490540405205e-01,4.588609068210205977e-02,2.232382995836090095e-02,1.156456995892866588e-02,1.206363558769226074e+00
7.884425315697890513e-01,-9.919470313352422020e-01,7.723102019637088089e-01,1.498683008624808553e-03,2.017060412992122045e-03,2.317371416826532853e-03,1.772388339042663574e+00
7.653080666800176068e-01,-1.030395803309357206e+00,7.776705263052107187e-01,-1.532188880404643586e-03,3.601883244098608248e-03,1.015613267979001769e-02,1.802015542984008789e+00
7.803390685782998215e-01,-1.030709497308528899e+00,7.828293001171431342e-01,-1.192347399925898239e-03,4.946940430356372431e-03,1.520746700257056237e-03,1.812318325042724609e+00
7.821288316232443139e-01,-1.036217386989609857e+00,7.867067905458383636e-01,4.260447017682447192e-03,5.186461668501556044e-03,2.160396562911035684e-03,1.820680499076843262e+00
7.818703355552528711e-01,-1.033601997589070010e+00,7.860688681864459459e-01,1.663787961247594231e-03,4.485474048159292237e-03,2.389547148898569801e-03,1.817598819732666016e+00
7.807161421096926457e-01,-1.023120612022160536e+00,7.753677873269039234e-01,8.118671878710070899e-03,-5.338501607600282207e-04,4.320748462940293862e-03,1.801239252090454102e+00
7.807814554071660362e-01,-1.032245512740564086e+00,7.746395640285601569e-01,8.984705550345358643e-03,4.670265019584307641e-04,-2.178091339566617067e-03,1.810034871101379395e+00
7.624509427330543598e-01,-7.894575125956864170e-01,7.231269589574871315e-01,-5.149706038488542637e-02,3.125636992288689103e-02,-4.604910478235501453e-02,1.538241624832153320e+00
7.495705523933944292e-01,-8.414840252130375564e-01,7.520796081023606305e-01,-4.581174892623965378e-02,2.314687163312854207e-02,-5.423704919650072787e-02,1.597554802894592285e+00
7.477394621909545513e-01,-1.009522751312130318e+00,7.449070007973863650e-01,1.060925294805299332e-02,-1.568745971458494412e-02,7.746764794168584795e-03,1.756205320358276367e+00
7.690929923314183680e-01,-7.988903768358895929e-01,7.097076326248071831e-01,-3.496774435075502771e-03,-1.068614276943273544e-02,-6.232871860839163912e-03,1.539311170578002930e+00
7.735087278341647998e-01,-1.008859885426921732e+00,7.043198293936498988e-01,-1.680037259061040872e-02,8.351049592593050297e-03,1.092924951242785561e-02,1.749205350875854492e+00
7.854335906071133744e-01,-1.024643771365873146e+00,7.671163164390003564e-01,2.186163226156119174e-02,2.249185596431713119e-02,-3.116190632492072884e-02,1.802616000175476074e+00
6.394965357966726494e-01,-1.016737614723313365e+00,8.039168816198309919e-01,-4.796987347415412190e-02,9.311812160923482740e-02,2.789730835569259604e-02,1.754341840744018555e+00
6.592346361737227989e-01,-3.496310513436154399e-01,6.476268756893635015e-01,9.196977518039088639e-02,5.340638060066905425e-03,-3.527764382786213737e-02,1.017560005187988281e+00
6.663730595434091963e-01,-4.637080541482485052e-01,6.874314872777931296e-01,2.205275195592800441e-01,2.006813949031117095e-01,-9.133713205293272908e-02,1.262168049812316895e+00
7.056363950572162036e-01,-6.999643278339313657e-01,7.217604900808046731e-01,3.199012355608243235e-02,-2.668350805431294465e-02,-2.960100119452741679e-02,1.416499972343444824e+00
7.716195635010391074e-01,-1.029123968017970681e+00,7.594106477880505635e-01,5.506004807417815006e-04,-2.755763912345808760e-03,7.377235239915044644e-03,1.794722318649291992e+00
7.691723272983644888e-01,-1.030866926513472670e+00,7.751564353576777533e-01,5.497338436507403624e-04,-2.752046124557290443e-03,-3.480840534105226103e-04,1.803045392036437988e+00
7.762720369310451840e-01,-1.030293054755111015e+00,7.692101826403535680e-01,7.059658968562718649e-03,4.579717503420220950e-03,5.999879414359139945e-04,1.803103804588317871e+00
7.738789559887633285e-01,-1.033213111494678316e+00,7.790305587826416023e-01,3.347944120545211667e-03,2.085083863930580557e-05,4.448281630670718884e-03,1.809699058532714844e+00
7.832607874443221485e-01,-1.032523374307525277e+00,7.955523340942596278e-01,1.355111902538743904e-02,1.632921840595425930e-02,-6.537808985010371866e-03,1.822366833686828613e+00
7.814323036866482886e-01,-1.034337920979775394e+00,7.779402768082440689e-01,-2.088232754499104015e-04,1.266168017611755611e-03,3.372867560253520539e-03,1.814037442207336426e+00
7.956489996732951653e-01,-1.022544404439527987e+00,7.823812420279827595e-01,-7.435297046727072298e-03,2.138298154148864094e-02,-8.669324033674126809e-03,1.812082529067993164e+00
7.498263104831480730e-01,-1.017865591164078598e+00,7.561119813925322175e-01,1.343695236307913474e-02,-7.865589699960210540e-03,8.623289789803461475e-03,1.771111369132995605e+00
7.743281951100531302e-01,-9.692017951642493134e-01,7.890137757720829814e-01,-1.168267328531999091e-03,-1.067466178836504014e-02,6.787639629727944962e-03,1.751057267189025879e+00
9.400421727811670847e-01,-1.186578634763073792e+00,4.171213581462779874e-01,-1.270445064011031799e-01,4.997850476316811896e-01,3.272597666275446349e-01,2.191570520401000977e+00
6.866741194391023928e-01,-1.100513780990803658e+00,8.142068557119449546e-01,-6.988076856545511134e-04,2.779722404788061985e-01,2.131461375646536739e-03,1.915737748146057129e+00
1.193971188573848652e+00,-1.834251114844907882e+00,5.871578974280776686e-01,1.406594875869325301e-01,6.498922416920854817e-01,3.718025777953763017e-02,3.005223751068115234e+00
8.179097869668214837e-01,-1.040150593495861919e+00,7.157898003942491094e-01,2.348693184633566730e-02,2.675253521322326286e-02,-1.913016527189195098e-02,1.810516953468322754e+00
1.050263184123269689e+00,-5.879019039591943940e-01,6.499908075532689899e-01,-3.464445866805881263e-02,2.240679008076415513e-01,1.140038847617092371e-01,1.543146491050720215e+00
8.178066372279894081e-01,-1.052123809123502118e+00,6.714733879628881352e-01,1.038141717994618511e-02,-2.877453472129238351e-03,-4.530010881319060378e-02,1.803032159805297852e+00
7.963205523225045379e-01,-1.017515204027867881e+00,7.797876032512986999e-01,2.804559338233529597e-03,3.876438770773565912e-03,1.345399968418684597e-03,1.805646538734436035e+00
7.720270504428319303e-01,-1.030937579946428873e+00,7.864741328536994924e-01,-2.883027671137767135e-03,3.934433758073715981e-03,9.733637516995147926e-03,1.810329675674438477e+00
7.913486159433387179e-01,-1.031265630408414014e+00,7.836196331714200269e-01,-3.642100593832323704e-03,2.869549103055009289e-03,4.659067766497694552e-03,1.818797707557678223e+00
7.899035329143417883e-01,-1.026064707156701061e+00,7.820984919509194055e-01,1.657842249696242064e-03,5.640042218997962618e-03,1.660304840810819874e-03,1.812109231948852539e+00
7.580420531344282953e-01,-1.029227204201717871e+00,7.610071810975620465e-01,1.506894397911433259e-02,1.884616883706055276e-02,-1.905067649294061097e-02,1.789546132087707520e+00
7.814118321259115874e-01,-1.026966806265157128e+00,7.871640187529659327e-01,6.584982319286862215e-03,-1.112681721244824628e-03,7.936770479399833308e-03,1.811350703239440918e+00
7.718603482472192745e-01,-9.085750650170036913e-01,7.520250546757411003e-01,-2.044098514907293981e-02,1.609070624243057537e-02,4.333858219150342299e-03,1.671230435371398926e+00
8.496297222696171936e-01,-1.024073368734464529e+00,6.763659214977247869e-01,1.224528462586270839e-03,3.455677370941732073e-04,1.308185742115293600e-02,1.793504118919372559e+00
6.833458741658420266e-01,-5.641777501483904445e-01,7.911989983958238604e-01,1.530159241099987577e-01,-2.859626730159895991e-01,4.302342687511960528e-02,1.422538399696350098e+00
7.560444527923270153e-01,-5.985163471611739672e-01,4.144711098485972522e-01,1.504697406008404792e-01,-2.775417623692303937e-01,1.481168973499650543e-01,1.361489295959472656e+00
8.771122866171319199e-01,-1.003651986124286744e+00,5.096935976257939149e-01,1.059674482282207042e-03,-1.196878448085790352e-02,-3.757701324962222939e-03,1.726765275001525879e+00
8.552988520316764376e-01,-1.006270944792064137e+00,6.191915940825947207e-01,1.827965391069658052e-02,-6.958576733762829314e-03,2.934315674683472125e-02,1.756527662277221680e+00
7.429642638947049349e-01,-9.423310566240477026e-01,8.614980515437884456e-01,2.469362373672469857e-01,1.067425188757996010e-02,4.580234907774675956e-02,1.801000475883483887e+00
8.917936435270684692e-01,-9.760734122881161712e-01,3.482745750539065210e-01,1.771425491808976960e-02,3.716996333908303418e-01,-5.245244651489324589e-02,1.786839604377746582e+00
1.350841529793692652e+00,-1.649080779627425164e+00,2.786253684472451697e-01,2.301029731767437192e-01,2.004236497703548725e-01,-1.309773736414726331e-01,2.695075511932373047e+00
9.093359288831002196e-01,-1.023082455482298592e+00,5.365699820859893832e-01,-2.278801013981548301e-02,-2.291316612212059012e-02,5.237877083899750152e-03,1.776533365249633789e+00
1.245050632715668293e+00,-1.202469427033483473e+00,9.110808990734703405e-02,-5.221838289145730276e-03,1.946113289587716455e-01,1.388026338254150227e-01,2.160819530487060547e+00
6.558983340349131552e-01,-2.769110835149179994e-02,7.041368903328140139e-01,-5.921154342988352304e-02,2.605575038477401031e-02,-7.761832521311362587e-02,7.302228212356567383e-01
6.749929208346155951e-01,-9.868888096923598141e-01,7.525143414801636066e-01,-2.007891404674630453e-02,-7.142433533697026271e-02,-1.737325069874016970e-02,1.707076787948608398e+00
8.641115728327695145e-01,-1.040037478591323117e+00,6.240102043875327409e-01,2.712823819455655733e-03,-9.547630080080153972e-03,2.238482529894110853e-02,1.796675324440002441e+00
8.562487007323688060e-01,-9.962646775238629404e-01,5.669417511896979178e-01,7.317741849068242800e-03,-1.473879668491028319e-02,-3.434735938459115498e-03,1.726385593414306641e+00
9.325780699949952623e-01,-1.011038508864786856e+00,2.998243063999820324e-01,6.036083023387627672e-02,-4.800965630743138091e-01,2.188816360789761217e-01,1.947903513908386230e+00
1.302978125254542707e+00,-2.129843120900798414e+00,8.201456128471492635e-01,1.667685442935711859e-01,-7.870804394529753445e-01,7.293683524918784244e-02,3.509671211242675781e+00
5.372849554056695620e-01,-1.155887068551198826e+00,6.950966948916612598e-01,7.118213955002493376e-02,-6.051204161330582254e-01,8.780250007250831046e-02,2.072626113891601562e+00
8.471101114032051349e-01,-1.040626175752666915e+00,7.340244581008728009e-01,-4.142078650376123175e-03,-5.288114046788981726e-02,-1.325409176585282470e-02,1.836253881454467773e+00
7.973171447630658104e-01,-9.831118414142387962e-01,6.018542136088285144e-01,9.034257250088025340e-03,-2.491100488746473413e-02,1.071477968171838380e-02,1.691914916038513184e+00
9.046254786629094324e-01,-1.012800724274027786e+00,5.080803587763136342e-01,-2.054380228729168686e-02,-1.299494135465232778e-02,-3.618133850502017190e-02,1.754743695259094238e+00
1.259983883817390238e+00,-1.289562746768474710e+00,1.951388656618636419e-01,8.298898402246854267e-02,-1.466769384966835552e-02,-1.237827278591149271e-01,2.233043670654296875e+00
1.201372027620819960e+00,-1.073986900839952963e+00,3.053698092897711991e-01,6.226694348180310257e-02,3.516506509118578205e-01,-7.223825324925357838e-02,2.083173751831054688e+00
1.009826019469794556e+00,-7.946298116591171690e-01,2.441089917431054634e-01,-2.131506207969232833e-02,-1.234147697143115480e-01,-2.830760892502943160e-01,1.657749533653259277e+00
8.894766620029194160e-01,-9.906886680158806247e-01,4.780183443850311020e-01,-1.004040557021829323e-02,1.136613890618622391e-01,3.490832154789510339e-02,1.724362134933471680e+00
6.611260861733527783e-01,-2.450977680431959405e-01,6.741240173687763626e-01,2.274146869884489247e-02,-1.561830465270992209e-02,-7.125722482403477887e-02,9.223371148109436035e-01
9.449035965568596263e-01,-9.991506145602504496e-01,3.550693352710134754e-01,-1.063535623472604275e-02,5.590311900171274218e-02,3.736795121047876284e-02,1.730458140373229980e+00
9.729089550443139611e-01,-8.950655427549862875e-01,5.801112804654630084e-01,3.072600804705091782e-02,3.493681668045936495e-01,-1.365081756905464627e-01,1.826141476631164551e+00
6.356419933735661942e-01,-1.949704627087692765e-01,1.181764648830479381e+00,-2.674954828982061689e-02,1.847128487946532102e-03,-1.051653256220210914e-01,1.215368032455444336e+00
9.462780563839384707e-01,-1.167053244280303659e+00,3.631787241941870081e-01,8.094760115154059354e-02,-3.352427153105608237e-01,1.895631606214280909e-02,1.982874274253845215e+00
7.952295403180489330e-01,-9.859900826653650308e-01,7.374040470433211869e-01,-6.690305776813232515e-05,-4.868733716022073665e-02,4.655731511116276145e-02,1.756901025772094727e+00
7.692230406109337171e-01,-8.880182280845452247e-01,7.844020423022115551e-01,-3.243297266625308484e-02,1.374639253652234008e-02,-3.936411748356719725e-02,1.667394876480102539e+00
6.771526975951531746e-01,-1.010193218519649161e+00,7.916432420052361696e-01,1.460447331552109339e-02,1.344554834293055535e-02,-2.363407626356158961e-02,1.748224020004272461e+00
6.669990506144626297e-01,-9.904986356128363534e-01,7.577810928690117409e-01,-1.880597443752880273e-03,4.219880516304178042e-02,-1.685575111473457816e-02,1.706521630287170410e+00
4.943068499403223681e-01,-1.014450913509501229e+00,9.118886311066322081e-01,3.509889674946663207e-02,1.191298491114529089e-02,-1.083106750050844870e-02,1.756481647491455078e+00
7.545372181384200072e-01,-1.021779059950815860e+00,7.604423493791823141e-01,8.733224629941060621e-03,2.086064127227776812e-03,-1.158419586803496361e-02,1.779457330703735352e+00
7.052279269667528494e-01,-1.008156799608393994e+00,7.651056960643304317e-01,2.317848129961475739e-02,1.898213298267844434e-02,-2.764504637745513610e-02,1.745523333549499512e+00
8.255358264508816379e-01,-1.000323305233002502e+00,5.899210701595902773e-01,2.071910652694591154e-02,4.775507277465480122e-02,-3.187983925408111735e-02,1.723442792892456055e+00
2.114347252535238864e-01,-1.148449692802653965e+00,1.185580438017182159e+00,6.246691528881404692e-02,1.944137984666141905e-01,5.993327340076388954e-02,2.063696622848510742e+00
7.131719091053458914e-01,-9.788431846209115772e-01,6.976669445177302586e-01,-1.087032242016599181e-03,2.194533044762538715e-02,-2.617504066992169722e-03,1.684752106666564941e+00
8.187533347642893533e-01,-9.905489448398019370e-01,5.858466539750255553e-01,8.602350873658235961e-03,5.296985014112333412e-02,-1.512391943536503525e-02,1.707555890083312988e+00
5.716861367092591628e-01,-1.007446338807365782e+00,7.986432090261483818e-01,-2.748475678925432764e-02,1.550216868302437268e-01,3.865774327372095004e-02,1.726965188980102539e+00
7.784501870823630210e-01,-9.925667570184295574e-01,7.762847047657356336e-01,-1.445779380473204319e-02,-1.193101049732324739e-02,7.520096547104462847e-03,1.770280838012695312e+00
8.106220476522278950e-01,-6.968036718738299662e-01,7.039832485367379933e-01,-6.478205467803754836e-02,-3.546686131097371852e-01,-1.449935573577485759e-01,1.604986906051635742e+00
7.627154177681054747e-01,-8.010806162675967457e-01,7.173105560221917365e-01,4.218569617961615177e-03,6.491161661624188228e-03,1.194568927559422084e-03,1.541654825210571289e+00
8.702538151610231809e-01,-1.126888481910519157e+00,5.088155580941441380e-01,-1.857548387315040295e-02,-4.487296183726479093e-01,2.808271577832723714e-02,2.001211404800415039e+00
7.659528956646159958e-01,-9.214220760123390530e-01,7.815237370844985154e-01,-4.995901126063134051e-02,1.157433681958224686e-02,-2.378758184834865036e-02,1.698039412498474121e+00
6.436589322695830395e-01,-5.494444699254394937e-01,6.108383806771927604e-01,-1.687250654288535712e-01,-2.126636667736837294e-01,-7.643559709812787484e-02,1.274371862411499023e+00
7.420091246254332251e-01,-8.257957641107394053e-01,7.420121033243254338e-01,-6.651008325727009174e-02,-2.827788667952981297e-02,-1.720712437803204389e-02,1.573078155517578125e+00
6.778387722376850721e-01,-4.860195811498798646e-01,6.727212427311044518e-01,-1.479825594451167348e-01,-2.128617962130884694e-02,-1.575868174540155098e-01,1.220734596252441406e+00
7.153407131287563558e-01,-9.808134231654191959e-01,8.771690922681990576e-01,-1.677513165236735049e-01,-4.907869861259477051e-02,-1.324877253752823059e-01,1.822613477706909180e+00
7.696761502187803305e-01,-1.004831261434605993e+00,7.818743355480231028e-01,1.652620851854054137e-03,-7.301972601673934957e-03,-9.080809913981443063e-03,1.780754566192626953e+00
7.961799242554609135e-01,-1.018642396478461221e+00,7.133847110337192543e-01,-1.078834581612394400e-02,-8.794820451053876609e-03,7.298378754661591361e-03,1.775082349777221680e+00
7.865478366001328325e-01,-1.027581342375874174e+00,7.435776432502075872e-01,-1.054352913417358310e-02,-5.169082489634520966e-02,2.156763907417440229e-02,1.795745611190795898e+00
6.873196974167542495e-01,-5.843718279858313158e-01,7.741989095336443416e-01,-5.216402710547997368e-02,-1.862479568900952953e-02,-3.843904646394075142e-02,1.322447538375854492e+00
9.085602855950829504e-01,-7.345216933453264652e-01,5.458348906005638934e-01,1.033062151906392473e-01,-3.743330500913712999e-01,8.996424382171691603e-02,1.646807074546813965e+00
7.910916064507519385e-01,-9.998681474778696732e-01,7.948219743794916470e-01,1.990205474346729356e-02,-1.030776802593069350e-02,-3.504999898376674056e-02,1.794275403022766113e+00
8.298879550300566343e-01,-1.031471861597168305e+00,7.271779803527017583e-01,-9.475654180532687779e-03,-4.761890321149923888e-03,-1.810902373558353692e-02,1.812553644180297852e+00
9.581805086136881977e-01,-1.066946692048376999e+00,4.966021018354389582e-01,4.095351923282969375e-02,-2.764568464945544868e-01,-1.381037719766736380e-02,1.901138782501220703e+00
8.079536453348035163e-01,-1.179638689907305471e+00,7.472713781996176419e-01,-6.752236254244587191e-03,-1.510722800172699110e-01,-6.775048578908342278e-02,1.978880882263183594e+00
9.890889401492520827e-01,-1.207006571178762533e+00,4.489990599342408295e-01,9.103652834432679475e-02,-2.994450793843169700e-01,3.345466587268426384e-01,2.134964466094970703e+00
7.841340642670672212e-01,-1.019149884248275795e+00,6.369616142424251448e-01,-1.389844566508013045e-02,1.442477957811783007e-01,4.067895031775320414e-02,1.753871440887451172e+00
7.629493111490225354e-01,-1.021785392253277580e+00,5.579938903349620505e-01,-1.692511737591953502e-01,4.222572717537305120e-01,1.309002393814014953e-01,1.879824399948120117e+00
7.945663916643059821e-01,-9.991957511253652946e-01,6.420210509635110308e-01,-1.937737536749778097e-02,1.491437037391399670e-02,1.808126731729182285e-02,1.723367929458618164e+00
6.736029794986876373e-01,-9.813864722445315714e-01,7.363941831610054667e-01,4.014689953370606415e-04,9.030233215575977565e-03,5.414247392405735146e-03,1.687360286712646484e+00
1.376590084433160888e+00,-1.672317545573130282e+00,3.316733875212562466e-01,1.125740553609832495e-01,4.641189691908318427e-01,3.508104385984505552e-02,2.808872461318969727e+00
1.019445471958822846e+00,-1.210379563554115023e+00,3.038199787242855665e-01,-2.716822711243119942e-02,4.604735687407804368e-01,1.175268266655909444e-01,2.137353420257568359e+00
6.321664420907913140e-01,-3.409596343790325390e-01,6.353078447392539463e-01,-6.599627652695623514e-02,8.683466815570247549e-03,-4.009168114137144634e-02,9.839491844177246094e-01
8.400812755531149589e-01,-1.335112692179683203e+00,6.470051876569172800e-01,-3.794820269226610865e-01,4.129202135754332925e-01,1.590860923933921367e-01,2.316942691802978516e+00
7.349787390118059927e-01,-1.803227997266280358e+00,9.190231503298200710e-01,-4.040185087846235312e-01,7.740412361220687654e-01,3.792813871112875601e-01,3.108405351638793945e+00
7.756940485151032627e-01,-9.951955803140648538e-01,7.905884903971837074e-01,3.855213339661578507e-03,1.580775200144655598e-02,-5.650702108810062158e-03,1.778633832931518555e+00
7.781712155225302130e-01,-1.016466378619179434e+00,7.907555699443868935e-01,-5.742866464435603807e-03,4.454321405513789883e-03,5.841939252957766698e-03,1.801035165786743164e+00
8.572136382369578422e-01,-1.025846242979261635e+00,6.067650193439040329e-01,-6.001548509897375837e-03,5.977122407278120594e-03,-4.306270673214666195e-02,1.772796630859375000e+00
8.099945701459946301e-01,-9.734841086286835088e-01,7.192694761813061000e-01,-9.858262483353351716e-03,-7.139451978233597729e-02,-4.416769391943142081e-03,1.744380235671997070e+00
7.681921896272184691e-01,-9.882195493849262879e-01,7.898680044302406333e-01,3.175339695175397070e-04,2.400941679543205746e-03,-1.405428865911394383e-02,1.767521977424621582e+00
7.934072447545219564e-01,-1.019937533127977636e+00,7.797323995752838410e-01,-2.321734747012356697e-03,-1.817359816281546641e-04,5.861061578788649695e-03,1.806579232215881348e+00
7.862974289463093847e-01,-1.021576232317654265e+00,7.921577440751041976e-01,1.087745990726731327e-03,-1.061798641264858787e-03,-3.930428128815176975e-03,1.810825586318969727e+00
7.733803068970908079e-01,-9.891827091476810274e-01,7.927255496393301737e-01,5.754479396180981528e-04,-2.317068627069963048e-03,-1.517562902102648562e-02,1.772514581680297852e+00
7.799768314104190692e-01,-1.016595094334532989e+00,7.946693112971742190e-01,-1.824172841529483023e-03,-3.713944970588370365e-03,2.477638767365664824e-03,1.803982377052307129e+00
8.785348063064151169e-01,-1.038547647834895615e+00,6.131882743253108670e-01,-4.507564344999704514e-03,-1.447528103534360087e-02,-2.653176396926729824e-02,1.799923300743103027e+00
8.084304342774317753e-01,-1.029935446589620218e+00,7.681995026209673672e-01,7.135801900012911196e-03,-4.243154910348078887e-03,-9.266632027403092289e-03,1.818711876869201660e+00
7.810928630855007437e-01,-1.024469060297199308e+00,7.938378876828728892e-01,-3.136916555926537453e-03,-1.860393685579917172e-03,-4.229785095608589417e-03,1.811993837356567383e+00
6.985812108374629403e-01,-6.078651529465729508e-01,6.859547301393227325e-01,4.951800057752775777e-03,1.843155828064047333e-02,-4.156341768827043204e-02,1.302590131759643555e+00
7.305870532076146340e-01,-8.500290251680056031e-01,7.628791420320046868e-01,-1.111202669984840113e-03,-8.505706186157011711e-03,-3.191352911378774609e-02,1.598032355308532715e+00
8.586779044357513158e-01,-1.184896640017926606e+00,8.110016349471723673e-01,-4.022983173011666913e-02,-1.078033562065328077e-01,5.718280468916637355e-03,2.029989719390869141e+00
7.706230136878685633e-01,-1.013659185249070394e+00,8.463510230919161215e-01,-6.862016422186194287e-02,-7.003443556380897772e-02,-1.082749970235418330e-01,1.840795755386352539e+00
7.476641996267980872e-01,-7.682007818970040258e-01,7.451600156642879114e-01,-1.271113340692480581e-02,-1.363076567271332405e-04,-5.894223519144459189e-02,1.518210887908935547e+00
7.639027874217350078e-01,-9.153869040663509260e-01,7.711745054949981082e-01,-2.056028185491123178e-02,2.749642557924732167e-02,6.584996612080711714e-03,1.684026241302490234e+00
7.910669298804260396e-01,-9.596613624195864389e-01,7.609157670629143055e-01,2.055747124877157356e-02,9.213111238924372864e-03,4.307062644750612665e-03,1.736303567886352539e+00
6.886164146993918322e-01,-1.023697776676388171e+00,8.348147385949584720e-01,8.274133052624720042e-03,-2.689047407515660288e-04,-5.632098906105850386e-03,1.789981007575988770e+00
3.328545960982352003e-01,-6.520339151482608120e-01,8.404845146359143371e-01,1.363193236468758784e-01,2.884478374646156085e-01,-1.272321746365831230e-01,1.442765355110168457e+00
7.363989741568008895e-01,-1.007777776301936656e+00,7.389687931866775195e-01,-4.250572711425822971e-03,-2.286768937923000511e-02,-9.929636019491861615e-03,1.746012687683105469e+00
8.393273926789410755e-01,-1.246608440915125016e+00,6.437291648065418537e-01,1.993764641135998272e-01,-3.952558281781498595e-01,2.447559894070279740e-01,2.179227590560913086e+00
8.076026604888797422e-01,-1.033887205049185409e+00,7.750393878664785241e-01,4.647167503487452389e-02,1.334977021762624207e-02,7.789900172873444328e-02,1.832320570945739746e+00
7.469696586711644937e-01,-1.022830485821442092e+00,7.700062327522655403e-01,-1.431859182335589765e-02,-8.731301453805790161e-03,-1.565028673289717634e-02,1.781873106956481934e+00
8.519206423298166797e-01,-1.076406089081617168e+00,7.465997134619248854e-01,-3.388069201302765232e-02,-2.390831353598629749e-02,-3.303305304109566826e-03,1.879264354705810547e+00
7.838454158365812940e-01,-1.042253138297171811e+00,7.963686727591245962e-01,-1.228531514612630181e-02,2.957811838480677545e-03,2.594954226731446996e-03,1.832528471946716309e+00
7.222360021902765048e-01,-5.421654869526391085e-01,7.017961156703289571e-01,1.084337166627094284e-01,-1.577145352258879293e-02,1.122158933704635320e-01,1.283386826515197754e+00
5.283761068212244894e-01,-8.606609050597489041e-01,9.836006511381625295e-01,-3.557151914120737501e-02,2.980226663727650882e-01,-2.072932973755358954e-01,1.779926180839538574e+00
8.756145090224500827e-01,-1.058466685375290872e+00,5.807003701101645099e-01,5.247761422417748095e-02,1.895265376577749683e-01,-6.097624116969953961e-02,1.839682936668395996e+00
5.598140861206806207e-01,-1.439592188343797652e+00,1.128138414257549016e+00,1.230754855771067358e-01,5.851066106094762187e-01,8.151291854883259413e-02,2.559170722961425781e+00
8.842727221095627588e-01,-9.886343071577907704e-01,5.764787119018901507e-01,3.910602610070652158e-02,4.184188033181135413e-02,-3.758749118760753433e-02,1.743595957756042480e+00
6.248210048719330389e-01,-3.301770799849453875e-01,6.424726904355029244e-01,-4.436491192257385752e-02,6.839976733473025587e-03,-6.135206171092168898e-02,9.728964567184448242e-01
6.046523334774538405e-01,-1.008091604101773342e+00,8.317758604388441057e-01,1.719986132448471849e-04,1.116238950503306571e-01,-4.942065881753013963e-04,1.748199224472045898e+00
7.850397685590118080e-01,-1.030085210105394555e+00,7.845371887665433253e-01,6.856631000950554056e-03,-1.046691077341796797e-02,-3.154516550798348775e-03,1.815011382102966309e+00
7.844395329953088858e-01,-1.015908196111401152e+00,8.068176542506886317e-01,-1.094695951302730175e-01,1.541517013759771959e-01,5.536280007859705615e-02,1.843495368957519531e+00
7.001425451342104811e-01,-9.984157351048239537e-01,7.671654174821591621e-01,1.769052818449640477e-02,1.964202862280088613e-02,-1.713944086907223316e-02,1.733900785446166992e+00
6.947081685311357058e-01,-1.087552903577432062e+00,8.704438065556211468e-01,9.222804025103328515e-03,7.879552754068970197e-03,2.718953363966268577e-02,1.877019882202148438e+00
3.355639183473060339e-01,-1.211740458684637423e+00,1.228897782208274503e+00,9.469150016472593911e-02,-5.903262192634392861e-04,-6.710968924228203833e-03,2.145108699798583984e+00
6.750035068338560151e-01,-1.014757764143946916e+00,8.019271504905738368e-01,1.668654944186908490e-02,1.780640446410181738e-02,-1.884180166232746201e-02,1.757476925849914551e+00
7.687066450151607278e-01,-1.032306795298322255e+00,7.905618992671545886e-01,-1.808835088250250163e-03,-8.867079982574835664e-03,-4.026257934277454112e-03,1.812121152877807617e+00
6.235410573170039328e-01,-3.634242686577380810e-01,6.361587185917743081e-01,2.912714379457289650e-03,2.033358162119182355e-02,3.282601145916701473e-03,9.939875006675720215e-01
7.384276290005881149e-01,-9.973393015603916334e-01,7.249387986291510044e-01,1.452374697450354506e-04,7.253233099550669347e-03,1.173547097478468268e-03,1.729108810424804688e+00
6.667389975755142473e-01,-9.816903305358966048e-01,7.410637955581040881e-01,-1.592878323251683496e-03,8.642386666971224596e-02,5.457068307070891099e-03,1.693477749824523926e+00
7.515763673146815815e-01,-1.014559608765659648e+00,7.409734863729041665e-01,2.476989129825273332e-04,-4.670804854085554639e-03,3.968142042462384110e-04,1.760877251625061035e+00
7.167428357627531055e-01,-9.956923460839421924e-01,7.285537092015910154e-01,-1.090268927696032633e-02,6.239496955855089282e-03,1.167066689968792193e-03,1.718510031700134277e+00
7.831768428479558564e-01,-1.009061701504987862e+00,7.723247857870453315e-01,9.053551035436246952e-02,6.292303025666379224e-02,-1.364585310652007832e-01,1.812489509582519531e+00
8.030329489304812718e-01,-1.019251752281544965e+00,7.265916114579296092e-01,1.521143903072414913e-02,8.177007411618803304e-04,-1.267858567580161175e-02,1.785621881484985352e+00
7.869958617283596691e-01,-1.024434262798688433e+00,7.415501311358660974e-01,1.861969355007173088e-02,4.774298904791913004e-03,-1.184780576643168493e-02,1.789567589759826660e+00
7.774177717404318066e-01,-1.001028499780446168e+00,6.877016837841642971e-01,1.533068794537192567e-02,2.349662001428352506e-02,6.716716011016614883e-04,1.736009120941162109e+00
8.048226968797216330e-01,-1.019245161576117109e+00,7.228916955118298571e-01,1.328832807815332091e-02,4.989033109341569142e-03,-1.164589816033880648e-02,1.784796833992004395e+00
7.588982541148069361e-01,-9.335538419598465865e-01,7.783006083742770587e-01,-3.596628077576160057e-03,-1.816629912263675178e-02,3.419371364802827745e-03,1.702548742294311523e+00
7.786807278058289761e-01,-1.010022326421960548e+00,7.947332858259934518e-01,5.694124513209154704e-04,-1.509057116503919813e-02,-5.276595939522047210e-03,1.796996712684631348e+00
5.871993645702230369e-01,-1.288343238439437544e+00,1.026501619772863805e+00,1.460418202298477686e-01,-6.212706643548487895e-01,-8.595818383340214641e-02,2.403884172439575195e+00
8.508279257065884948e-01,-1.162417716275959467e+00,8.046519021543061534e-01,-4.676163021166820921e-02,-1.109850709768999688e-01,5.982338399494743081e-03,2.001486063003540039e+00
7.598216731883669084e-01,-1.010006193455059265e+00,7.367730410260273644e-01,1.630095816347199023e-02,-2.836441841625013394e-02,7.072978479770690788e-03,1.759372234344482422e+00
7.729423559080881301e-01,-1.081482830346996327e+00,6.453682077620510604e-01,2.835728548094808635e-02,-3.402707279621521863e-01,2.659046689773912273e-02,1.889570713043212891e+00
8.472751678678873688e-01,-1.073257233073628303e+00,6.772801778223200841e-01,2.416794758085928294e-02,-6.011837133824457502e-02,2.761479899545058944e-02,1.845466017723083496e+00
8.120298431828295582e-01,-1.021349979637135252e+00,6.736754768567823071e-01,1.845265741812025795e-02,-3.068354854749823918e-02,3.482600295275148361e-02,1.770381808280944824e+00
8.028194571087063913e-01,-1.023546696064999262e+00,7.100941728593133107e-01,1.244914484157933279e-02,-2.287078953731924366e-02,-6.428361476024474670e-03,1.782419443130493164e+00
7.443277410865164478e-01,-9.834669925161115822e-01,6.545601968089139744e-01,-5.302618123491138584e-03,-4.067835804353004542e-02,-6.823607593454911711e-03,1.686244726181030273e+00
6.964243668278445876e-01,-1.001265281420343545e+00,7.708040968244006530e-01,-1.622195165994314014e-02,-5.023046911580366508e-02,-1.961566806896184248e-02,1.738812565803527832e+00
7.301351619251859049e-01,-1.046614377593890310e+00,7.700985610435618911e-01,2.278698245017724347e-02,-1.127681745739189945e-01,-2.875266631917180321e-02,1.808764457702636719e+00
5.620746411989493430e-01,-1.002630041559393614e+00,8.510417861814695284e-01,-3.544945936415083015e-02,1.741735455491832951e-02,1.773886225884188303e-02,1.729038834571838379e+00
7.280767841472063351e-01,-1.003594329927332662e+00,7.271314929309981023e-01,-1.078812905092063450e-02,-1.842343379154675470e-02,-5.673962304641764348e-03,1.731621384620666504e+00
7.897854540317732486e-01,-1.010681028201919185e+00,6.866308750745626632e-01,-2.387233276411457675e-02,-1.281918948440500389e-02,-1.958460075945411827e-02,1.752126574516296387e+00
8.193773434735549532e-01,-1.001999022629235014e+00,6.253499345805010323e-01,-1.439760149611885726e-02,-1.847343141934698618e-02,3.973475277393036242e-03,1.733018875122070312e+00
4.962133020898576996e-01,-9.847282450815144639e-01,8.704433167722523956e-01,1.674157859989664973e-02,2.195227263475631185e-02,6.548833337468627043e-04,1.699922561645507812e+00
5.266408209984809741e-01,-9.838294168005787821e-01,8.175531080774999237e-01,-7.824972672945417623e-03,1.039122070388012464e-01,4.379735003245410936e-03,1.684695601463317871e+00
6.392046717792995159e-01,-9.899186832469247799e-01,7.899461444304541891e-01,9.585688871945462208e-03,1.714216982864166100e-02,-1.422045250833879095e-02,1.710001826286315918e+00
4.983410631755642584e-01,-1.003036581503385261e+00,8.499654466902401007e-01,-2.158171633430327249e-03,1.506957488368821374e-01,6.906727550261825346e-03,1.724523186683654785e+00
4.500973195471837940e-01,-1.328466365216163236e+00,1.001666142705169182e+00,1.296055563378785414e-01,5.051865669820292393e-01,-9.145281459208433328e-02,2.299921989440917969e+00
7.097874691184049567e-01,-1.024121652503705349e+00,8.151286477764581040e-01,-1.297049399804634830e-02,8.464197345940942252e-03,5.329325808860611510e-03,1.789132356643676758e+00
6.153652046269487697e-01,-9.894911529544507811e-01,7.957235687707600036e-01,-7.204652673796999723e-03,1.224322502309039690e-01,4.510881821910923441e-03,1.715438127517700195e+00
6.162506536780420346e-02,-1.195291491631140124e+00,1.247013194152158500e+00,-4.970453702218488590e-02,7.108142291499892906e-02,1.320334720778252799e-02,2.120851278305053711e+00
7.355586544229516521e-01,-1.014325337167270469e+00,7.723707637480126120e-01,1.682665235319719837e-04,-1.726566096858597223e-03,-1.929840870393662033e-02,1.768895745277404785e+00
1.469014080886880791e+00,-1.807346795373425685e+00,2.599948254278587889e-01,-5.626458529766076300e-02,4.648955587015555224e-01,3.170861529204044293e-01,3.032259225845336914e+00
5.387898140315241502e-01,-9.967611377506313541e-01,8.784165430220618465e-01,3.118400724786663664e-02,9.888585975694566543e-02,-2.159596728518505676e-02,1.740238189697265625e+00
8.126102180215533100e-01,-5.003218755912308691e-01,3.388438385427972044e-01,-3.389290651455661996e-02,-1.744954579282703699e-01,1.747054243258399087e-01,1.229870080947875977e+00
8.860303129565588742e-01,-1.125054368716361441e+00,8.049610338488739636e-01,3.903035733542187247e-02,-1.122098769026960291e-01,4.397084663083274808e-02,1.983970880508422852e+00
8.308862191253781893e-01,-1.003577085795992918e+00,6.910472919691218463e-01,-1.394008195718297871e-03,-2.291886376131966642e-03,1.149763507840565607e-02,1.768813014030456543e+00
1.278648162670356081e+00,-1.079954147964160338e+00,2.494406152900743023e-01,7.460920243423506404e-02,-4.271735195946806396e-01,1.524452570332886503e-01,2.197414875030517578e+00
3.749471992880619720e-01,-1.000403299450589811e+00,9.834856895022665579e-01,-3.273907152778075119e-02,1.260098640698160688e-01,-2.886804955669180009e-02,1.775447249412536621e+00
7.356927122515499740e-01,-1.018578653850553462e+00,7.861840361803177357e-01,1.141095349647547851e-02,-5.499603403035414548e-03,1.603877163696150812e-02,1.780406117439270020e+00
7.288005499388220398e-01,-9.963905237996114606e-01,8.055275134483317334e-01,-2.329123521752929013e-02,-5.866496213877749055e-02,1.602725713541425234e-02,1.768406867980957031e+00
6.295132314909637206e-01,-9.753384772664155378e-01,7.330497435141395401e-01,1.878522424060602046e-03,-4.833250112799569037e-02,2.423207415204603910e-03,1.661164045333862305e+00
7.828206396380341658e-01,-1.039187400469739009e+00,8.144322560795285160e-01,-4.428969456172920927e-02,-3.312047088872417666e-02,1.422355492995793641e-02,1.840677022933959961e+00
6.910319092289481935e-01,-1.004040599422466151e+00,7.427207440543028838e-01,3.617879689937623933e-02,1.624562688721423453e-01,-2.472607012871236992e-02,1.745994210243225098e+00
1.095582359315017351e+00,-1.225843346294180902e+00,4.725121873190299970e-01,3.920561168705814087e-02,2.072593697692996784e-01,5.245828100722629839e-02,2.114842414855957031e+00
6.908870333008699793e-01,-1.030963321132859933e+00,7.053015180419240915e-01,9.775704355160817066e-03,1.963206535064220271e-01,8.563926074364491478e-03,1.762364387512207031e+00
7.734655645253916134e-01,-1.030126550700984023e+00,7.731636611010636040e-01,-3.524015178753811366e-03,-6.651941975417336502e-04,-4.373563451970968047e-03,1.803467750549316406e+00
5.811397822288122406e-01,-1.044001037272088928e+00,8.577793862318268125e-01,-1.206275139855566940e-03,-2.254204185789239201e-01,2.534301044248588042e-02,1.822516083717346191e+00
5.976753721766813188e-01,-1.009173448590440003e+00,8.588836880374751681e-01,-5.853969595014946702e-03,-1.977513364023561482e-02,8.974195712050783702e-03,1.752550363540649414e+00
7.878028012861351126e-01,-9.208404420255875689e-01,7.438865431511197945e-01,-9.237784126934359477e-03,4.549425039089277124e-03,-4.615813791005110231e-03,1.687227010726928711e+00
6.644195489518636144e-01,-7.641864178617749914e-01,8.152965708331496586e-01,-2.020067299081362289e-01,2.571004960750443158e-01,-1.326878353913979458e-02,1.612598180770874023e+00
5.052594333453304110e-01,-1.041268827064287805e+00,9.081931244189050956e-01,8.565974691335867530e-03,9.691160855347141778e-02,-5.597968820176252476e-03,1.790458917617797852e+00
5.059376634579368925e-01,-1.006775220709436702e+00,9.058251774991833427e-01,3.385298127002863561e-02,-1.588492290421430336e-02,1.897237443886579805e-02,1.748828291893005371e+00
5.802807120414341657e-01,-6.664111164171142576e-01,1.082062608637401890e+00,-2.080902792634615750e-01,2.700344754278874437e-01,1.644104308877613052e-01,1.691551327705383301e+00
3.934876527701224314e-01,-1.238599307774322478e+00,1.048746767331734109e+00,5.959655149808530672e-02,4.374063156630542126e-01,2.544836405964055748e-02,2.179239034652709961e+00
4.873437235077087148e-01,-1.091712317024931433e+00,9.185217752447720763e-01,-2.319296432268704716e-02,2.921464659074871628e-01,2.905894827142836354e-02,1.902730226516723633e+00
6.789331926472343959e-01,-3.678111980821596738e-01,5.267724806264690862e-01,-1.231366754100490443e-02,1.612698531502355093e-01,-9.560453982909747350e-02,1.032207727432250977e+00
7.855222036468973990e-01,-1.024811883434620707e+00,7.669675677710927619e-01,-4.549767126414520045e-03,-2.732130020459142342e-03,3.664681723560284966e-03,1.801163077354431152e+00
7.696087999829688275e-01,-1.012436833428935312e+00,6.856359040903011737e-01,1.318628753669500164e-01,2.562587707566092998e-01,-1.599975904637617741e-01,1.832774281501770020e+00
1.067877587580056131e+00,-8.029968533295488431e-01,4.817950595558848637e-01,1.027324550921475399e-01,3.404567944038776051e-01,-1.960689807004998286e-01,1.800527811050415039e+00
7.538028085978241144e-01,-8.910353925338230230e-01,7.751799105102969989e-01,7.727326742053969993e-03,-2.394138170638436536e-02,-3.176424021229275890e-02,1.657117128372192383e+00
7.213300753624301009e-01,-7.346714921447090596e-01,7.216714956480067000e-01,4.265680376822304776e-02,-1.360659458897049354e-02,-8.911868972282072435e-03,1.458317637443542480e+00
6.457513888799937263e-01,-1.177069450679436580e+00,8.675565186239225790e-01,-4.293218241316063000e-02,2.613772188829157073e-01,3.402170530765917522e-02,1.997533559799194336e+00
7.852980179408862726e-01,-9.900081804077569547e-01,7.796581988088924220e-01,3.273246791570734449e-02,-8.898968054874016945e-03,-9.841646081783497410e-03,1.773548364639282227e+00
6.933572762259085920e-01,-1.256071284885983186e+00,9.117760232673164378e-01,7.062477500888202607e-03,2.758469792823288191e-01,-3.128464908532100752e-03,2.121844530105590820e+00
5.328329542911267591e-01,-1.193793567684868773e+00,7.722908225370211932e-01,-2.864934296839630190e-02,5.124788482161358738e-01,1.693747794989586969e-02,2.059917449951171875e+00
9.447536216193335168e-01,-1.002249516936944307e+00,4.608426245566420443e-01,-1.192224697748143093e-03,6.762129070147567846e-03,-5.498500702795382569e-03,1.755860805511474609e+00
7.446769788295257708e-01,-1.015802843119988141e+00,7.438823664349114573e-01,1.670537955680725245e-02,1.420901901128522257e-02,-1.477733046870114905e-02,1.760678529739379883e+00
7.964746645243698797e-01,-1.023223081697644421e+00,7.118883407403002739e-01,6.967313172506114580e-03,1.515696665982219776e-02,1.204899646127234256e-02,1.779270529747009277e+00
6.352270088457299124e-01,-1.009923117391190672e+00,8.131110856204353254e-01,-4.847586280540810977e-02,1.001672129819195234e-01,4.980624088881140110e-02,1.753681778907775879e+00
7.687339040344861596e-01,-7.810113847545873123e-01,7.224807166967491812e-01,-3.804996131104448898e-02,-7.626790308664034915e-03,1.281391052036885969e-01,1.544650793075561523e+00
5.835218329444955554e-01,-1.001862274735967118e+00,8.422986840332484793e-01,-1.208363223435828838e-02,1.134537797522492952e-01,1.172796467660469286e-02,1.740728259086608887e+00
9.133880065701402984e-01,-1.003210699767601355e+00,4.843366725975121190e-01,1.148718839090552210e-02,5.221594695918748384e-03,-5.024546501641620477e-02,1.744467854499816895e+00
7.216363335724322869e-01,-1.196055127509944582e-01,5.510194322395514099e-01,1.058156431700280238e-02,7.505571887858356050e-02,1.048274083302017379e-01,8.021659851074218750e-01
8.865112690189868028e-01,-9.958162399295426015e-01,4.995808053428677509e-01,2.603137744498203870e-02,7.539435739048684637e-02,1.369183097125423751e-03,1.727319836616516113e+00
8.520151393905202042e-01,-1.039839378684200177e+00,7.029584547630634006e-01,1.239631303536195897e-02,1.234680901827453665e-02,-1.748719351912969913e-02,1.822408676147460938e+00
7.460603800075270575e-01,-8.371985279659274193e-01,7.586994158186030068e-01,1.095042226377784672e-01,-1.010627121089384449e-03,-6.640264970719000903e-02,1.605018377304077148e+00
6.734650173245775306e-01,-1.045050428984634072e+00,8.742887581082234849e-01,3.003700840907320285e-02,2.359383889194439227e-02,-2.952514760191881846e-02,1.829135298728942871e+00
7.309152440519983696e-01,-6.480003180707032406e-01,6.960118625615273613e-01,7.864948473656084571e-02,-4.807135679331701709e-03,1.605344061968489453e-03,1.368624091148376465e+00
6.306993585413441794e-01,-1.022706749114607572e+00,8.321228001211056213e-01,-3.257121967596966761e-02,-1.103679458025134431e-02,-4.924448323584657873e-03,1.763796687126159668e+00
7.575208294094744055e-01,-8.125999608815438480e-01,7.227654134202697866e-01,1.939972239121732361e-02,-2.939733207624232840e-03,-2.467282334162480828e-02,1.553994297981262207e+00
7.243575148084016035e-01,-8.263331852241511122e-01,7.544487369840249258e-01,7.372072818970820673e-02,-3.067175064514350135e-03,6.852292048365124684e-03,1.571204185485839844e+00
4.073246558067937229e-01,-1.043432691713362281e+00,1.023529049291432846e+00,5.706974969303699186e-02,-1.302635967406947370e-01,3.466067453861857578e-02,1.855437517166137695e+00
5.752936405358176630e-01,-9.921217982418273351e-01,8.159693271996483199e-01,8.559318646799563349e-03,-1.404009692686430111e-01,-7.587354993758958083e-03,1.717988491058349609e+00
7.269517902680249222e-01,-1.002161114379294560e+00,7.052448506457351662e-01,-2.499476327444222212e-02,-4.250852284419229243e-02,-2.660451333645566518e-02,1.721100687980651855e+00
6.313749886101795994e-01,-1.024945493963543397e+00,8.216889451783200293e-01,-3.721863795273883807e-02,-1.160302794591746567e-01,-4.321035463542337307e-02,1.773410320281982422e+00
7.473233831973278285e-01,-1.014672038901779372e+00,6.437398053264946629e-01,-3.317637637116002680e-02,-1.094188509201620974e-01,-3.014514634836724938e-02,1.724757790565490723e+00
7.079915492921330378e-01,-9.936624954540926868e-01,7.226570895451336352e-01,1.271368233313207446e-02,-3.505868328329062034e-02,1.266606696361038606e-02,1.710394859313964844e+00
6.920480928860485159e-01,-9.891626138217212150e-01,7.431535869945734563e-01,-9.066101018869423406e-03,-8.113445191791194416e-03,-1.543667626020292158e-02,1.707676529884338379e+00
6.831532023483464222e-01,-6.348765356887386968e-01,7.036049878627459453e-01,-2.776334120036227232e-02,1.823126461502184992e-02,2.578279021060113085e-01,1.402608990669250488e+00
7.075739760760544339e-01,-9.817885946545135134e-01,7.145239983647349025e-01,9.973160124744759238e-04,-6.437052051899507660e-03,5.825160402494297023e-04,1.692886233329772949e+00
6.818652835376297627e-01,-9.977175535256617156e-01,7.608042655248175024e-01,-5.799347099152238772e-04,-1.693658141108762144e-02,1.521683816170039602e-02,1.720863342285156250e+00
7.355638381372404666e-01,-9.972493483123521241e-01,7.166450113755860052e-01,9.480008069036621743e-03,-8.807840068533833930e-03,5.270368310809994163e-04,1.723577618598937988e+00
4.118089066017946442e-01,-1.120510148405621242e+00,1.064489332009853628e+00,7.295982915186829953e-02,-1.361403602515663114e-01,4.328641005993844743e-02,1.962473273277282715e+00
8.157310222060628613e-01,-1.018054222472075665e+00,7.205863935136743725e-01,-6.381539585467325970e-03,5.375873485649150865e-03,1.500335435617608862e-02,1.788359642028808594e+00
8.400966421839979326e-01,-1.011748651814435629e+00,6.439561592288276515e-01,-1.921126342347341878e-02,4.346950614627578813e-02,-8.679748395460089305e-03,1.763967752456665039e+00
7.967909900250149668e-01,-9.858190556757775447e-01,5.810658813676841117e-01,-9.639658167318151255e-03,7.028686745644210920e-02,1.349715281543502690e-02,1.689771652221679688e+00
6.841222148619225951e-01,-6.038154371361315054e-01,6.946665679707489938e-01,-3.144558017876370598e-02,1.853412613356225647e-02,6.657350905421229557e-03,1.294837832450866699e+00
7.052157606769611231e-01,-7.002175211459160664e-01,7.385568674867579730e-01,-2.949165309020857200e-03,-3.282716820052889589e-02,-9.485147902948358467e-02,1.432990670204162598e+00
7.735504649994995319e-01,-5.493414119711629295e-01,6.778717483976908209e-01,-9.045441923951998142e-02,6.730621176251836042e-03,1.222614664354866182e-01,1.304664850234985352e+00
8.289518324170801478e-01,-1.036964840028394175e+00,7.735203698657153737e-01,-2.911958394864854003e-03,-7.272086199862838607e-03,-1.640412062293631484e-02,1.839097261428833008e+00
1.281560251231455005e+00,-1.474114676930137868e+00,3.064972788949312243e-01,5.946533870788454738e-03,-1.510453668771957469e-01,-2.541422898171278866e-01,2.473833084106445312e+00
1.192665970850551815e+00,-1.176711923547940852e+00,1.698947790449125694e-01,4.490076434572792125e-02,-5.209636608858361209e-05,-8.307746496893347182e-03,2.059839010238647461e+00
9.903200284120281527e-01,-1.202663656312932927e+00,5.477676418625283539e-01,-5.465950865060314329e-02,2.395905855792280770e-01,3.229500014472368868e-02,2.053977251052856445e+00
8.664295402402554247e-01,-1.001033688721468806e+00,5.383476441841208437e-01,-1.431098039247843609e-02,7.952732897741968121e-02,-9.451179749345192324e-03,1.732694983482360840e+00
1.276292316144228556e+00,-1.244756460521416530e+00,6.935236604431574414e-02,-5.884035567110513371e-02,2.661446231271163976e-02,-1.032368733974455832e-01,2.194110631942749023e+00
1.072930232022434982e+00,-1.434769882489416837e+00,5.212171993921153046e-01,1.154657013165273916e-01,-5.807356050540328773e-01,-9.403375775731959152e-02,2.507529020309448242e+00
9.125305128779248598e-01,-9.937515150796263352e-01,4.814120838306228389e-01,1.139610667010141840e-02,-5.329062775046122802e-02,3.162915844615647037e-03,1.734035849571228027e+00
7.028988946180348973e-01,-9.776085628853894427e-01,6.787899705640553227e-01,-8.229226520230187997e-03,-6.163837235907893009e-02,-3.760230393075962661e-03,1.672068953514099121e+00
7.096134527592748986e-01,-9.836809270960854557e-01,6.604386525002564623e-01,-1.404859979800119826e-02,-7.001687553006764875e-02,-1.508377738747877957e-02,1.674030542373657227e+00
8.558814757889801061e-01,-1.006259851645650016e+00,5.668367504318414518e-01,-2.476241134518037887e-02,-2.467563482780657860e-02,-2.910518572348319219e-02,1.737550735473632812e+00
9.630393082095451973e-01,-1.017480656636743808e+00,4.041486787284416238e-01,1.379293456078955864e-02,-2.589387089769583372e-02,2.028467554380031929e-02,1.769672513008117676e+00
8.890470202961537893e-01,-9.822417839882982005e-01,4.437526198882246753e-01,1.783839015754841092e-02,8.306446079789966963e-02,-1.540599313485088197e-02,1.699735403060913086e+00
9.904421203663558160e-01,-7.461760524193896682e-01,2.816734184660568130e-01,1.322369356868882406e-01,1.654882857174787281e-01,-1.174715181004777342e-01,1.569507122039794922e+00
6.778254744773779539e-01,-5.545226728764919288e-01,4.980593695204796889e-01,-4.699752023245526433e-02,-3.184647347269446427e-01,-1.101681032915053093e-01,1.294897675514221191e+00
1.234544057529320282e+00,-1.336698480867515304e+00,5.119619704859619258e-01,1.181275530953206261e-02,-5.831835402910671151e-01,-2.545328361998586142e-01,2.547659397125244141e+00
8.012362358843184706e-01,-1.025927745096196331e+00,7.308475801467529953e-01,-1.451712330755781759e-02,5.432297513082614583e-03,9.357539611606504812e-03,1.793280363082885742e+00
7.919610836940461640e-01,-1.029290647865961805e+00,7.726464135189867743e-01,-5.879453411087493669e-03,1.226085489031675095e-04,-5.151113935881098879e-03,1.811722278594970703e+00
7.975986798856514737e-01,-1.016074528168822599e+00,7.230886103668207054e-01,-6.074075349647455047e-03,2.945974432081819726e-04,1.532034373743517384e-02,1.777819037437438965e+00
8.116310162234445791e-01,-1.122319503619847225e+00,5.876174746906410729e-01,4.155833686868631860e-02,4.982547999797434235e-01,-2.061746363464023735e-01,2.057812929153442383e+00
7.804544171791829577e-01,-1.027982146243052286e+00,7.796503577158264697e-01,-1.507614368208698018e-04,-4.722515248646803714e-03,1.531623227200584704e-03,1.808055162429809570e+00
7.813323826486529011e-01,-1.020313950957497884e+00,7.928692921149937956e-01,-4.473163077086139174e-03,-6.786006661606080494e-03,-9.571506010893401223e-04,1.807497978210449219e+00
6.387152812245202593e-01,-7.676870845834510293e-02,6.217681393126111011e-01,-3.680959220145520183e-02,6.052048114791808153e-02,3.113149173140933659e-02,7.197497487068176270e-01
7.803867221099279883e-01,-1.026785797116907872e+00,7.841523452012048034e-01,-1.600562873533179528e-04,-6.142113836193137562e-03,-3.099732877165938850e-03,1.809097528457641602e+00
7.803454720917851750e-01,-1.018011037818906450e+00,7.820990643983937174e-01,-1.121605277734006277e-03,-5.861201248110120901e-03,-1.267026234149533619e-03,1.799265027046203613e+00
7.867614450142390581e-01,-1.023695547454491983e+00,7.935076923868874532e-01,-6.734357027549006322e-03,-4.353279577702214888e-03,-2.567679905945479454e-03,1.813898205757141113e+00
7.375265329862930042e-01,-9.790580036938758557e-01,6.736269481029193429e-01,1.723953064678719485e-03,1.077671331670320733e-02,-7.123224279049841443e-03,1.685694575309753418e+00
6.956734501995089914e-01,-9.894654991733287108e-01,7.168283596712581307e-01,-6.035176097812094097e-03,5.655110500425025721e-02,8.350868300033014932e-03,1.698735475540161133e+00
7.782315462757095625e-01,-9.982142319543062525e-01,6.589550810281387117e-01,-1.690474340478999998e-02,2.826733225494573731e-02,2.100229121655273340e-02,1.721242547035217285e+00
7.235563233112336512e-01,-1.019946196677387729e+00,8.001396003883938235e-01,1.651238435735038687e-02,-3.643873833748397743e-04,6.459541337194760029e-03,1.783292651176452637e+00
7.365116616695277507e-01,-1.005836916319876151e+00,7.333758544737607465e-01,-1.541830670490592498e-02,2.710423926629738911e-02,2.085853376747649757e-02,1.741995096206665039e+00
7.426814798223769776e-01,-9.986689467748891547e-01,6.884638602149995013e-01,-1.823471823174800319e-02,2.481264751779437006e-02,1.676521653070440002e-02,1.715959429740905762e+00
7.194948193918011548e-01,-9.877697472030946280e-01,7.160860767623431489e-01,-5.054399972323531803e-03,2.423448644722445058e-03,4.340436326881979417e-03,1.705606937408447266e+00
6.898955450555381841e-01,-9.891617463917443676e-01,7.447148858816659001e-01,-8.727637577407718755e-03,6.071704149473251301e-03,1.383970042349666127e-02,1.707394838333129883e+00
7.558530582097889861e-01,-1.011973330681876559e+00,7.131183173860078384e-01,-2.090526860636161832e-02,1.993456819725543047e-02,1.672182358534310409e-02,1.747807502746582031e+00
7.269140449086148870e-01,-9.873760560801985164e-01,7.051629423976732980e-01,-5.678158830088221240e-03,1.185735618814328166e-02,4.016260452190967625e-03,1.703685045242309570e+00
7.209212258427719622e-01,-9.983140254171882777e-01,7.399851034979322284e-01,-8.287936680814652355e-04,8.597116602829815712e-03,-3.189717769934935585e-04,1.728910803794860840e+00
7.405726970334056691e-01,-1.006837000773971758e+00,7.366941278586471853e-01,-8.222065653529243498e-03,1.631952277481684647e-03,5.681368042094670640e-03,1.745561718940734863e+00
8.691485753704175643e-01,-1.004242818605810994e+00,5.232609670256969103e-01,-2.084834397299272640e-02,1.995480203369809358e-02,3.821747474963908126e-02,1.728621125221252441e+00
5.684540368873824967e-01,-9.974373788709351984e-01,7.083757194828212977e-01,4.800818974677224446e-03,2.493928547535932683e-01,-8.414752514749794174e-03,1.696339607238769531e+00
7.873936261684800764e-01,-1.346833072636960615e+00,6.631208455522635825e-01,9.072432730789276034e-02,5.125546551074863233e-01,-1.318399064698021206e-01,2.273788928985595703e+00
8.006499863131580907e-01,-1.004845205923519558e+00,6.432369801131507803e-01,1.351164349415283177e-02,-3.505902852167851885e-02,-4.382561552104131605e-03,1.733400106430053711e+00
8.960436262230827564e-01,-1.017097459554992200e+00,5.762421420149793638e-01,1.234127602764734447e-02,-1.258773765202824205e-02,-1.054546864708593400e-02,1.775337219238281250e+00
8.080017450890701891e-01,-9.955240767646686972e-01,6.078351921063067653e-01,2.152420795627704025e-02,-3.659424496318329501e-02,1.479947296984074519e-02,1.714010119438171387e+00
7.973022284594323272e-01,-1.018713063598936319e+00,7.044984991912629502e-01,1.478946881527166794e-02,-1.504512408926350978e-02,-4.402778587072916743e-03,1.771830797195434570e+00
8.958561134841338536e-01,-9.942308058915330093e-01,5.033844691746139910e-01,2.629513319763657816e-03,-4.914631372191913261e-02,6.138140626669244537e-03,1.729750514030456543e+00
8.370192829030667081e-01,-1.028219349990157960e+00,6.980503985621351326e-01,1.445544347630497301e-03,2.559865324723144351e-03,-9.625330304108165383e-03,1.799867033958435059e+00
8.165787785780465047e-01,-1.013918073423272004e+00,6.353508648013098670e-01,2.389755785895564255e-02,-8.208394621990919293e-02,3.164115238164268151e-02,1.754068255424499512e+00
8.042471281896310664e-01,-1.018995917674603513e+00,7.259965217728385767e-01,1.482479892940600022e-02,-5.632982154555182808e-03,1.577637126224944869e-02,1.785824656486511230e+00
7.860843602375515715e-01,-9.549655569708778158e-01,7.122954076865700701e-01,1.258551037446829085e-02,-1.208208053631673433e-02,-7.012412344709453675e-03,1.705664038658142090e+00
1.040808068854087720e+00,-2.040321532405221516e-01,6.206111307152860634e-01,2.750867728972372639e-03,-1.428667009878826499e-01,6.968162342786235475e-02,1.130900740623474121e+00
7.905284497558733303e-01,-1.012780098757653402e+00,7.785462458198773028e-01,-2.798120062619063875e-03,7.754123333645279725e-03,-1.131140947031189677e-03,1.797405123710632324e+00
7.868089903488482140e-01,-1.026273372691510755e+00,7.808799997466312481e-01,-2.033083674830621270e-03,1.090898891716808941e-02,7.216848552322990395e-04,1.810227632522583008e+00
7.760603580740716989e-01,-1.397073579407481558e+00,7.687066322744195990e-01,-5.274662645329789012e-02,8.237300986314488593e-01,2.443646192540767648e-01,2.632426023483276367e+00
6.822331335200495506e-01,-9.884596953355486715e-01,7.468957049330273712e-01,-7.613443880058389131e-03,6.140163767015004853e-02,3.574595326647241229e-03,1.707322359085083008e+00
5.896099294266525792e-01,-9.620297743296692961e-01,8.162812403724508670e-01,6.527958987037475735e-02,1.085828639221619041e-01,-3.807091259480141487e-02,1.692093729972839355e+00
8.069703971599260228e-01,-1.151560475337165546e+00,5.186226338382707857e-01,-6.857395499095782221e-02,5.812091657669909983e-01,1.634466854920873721e-02,2.093458890914916992e+00
7.016230003645861357e-01,-9.859650098254926220e-01,7.168820043842774048e-01,-3.684784029317998526e-03,1.906178660285370863e-02,4.600851530434865722e-03,1.695621252059936523e+00
8.994025459235686082e-01,-1.017410716094497403e+00,5.786832246544050262e-01,-8.763141429008199090e-03,-2.118440414450670911e-02,1.507404109908958359e-02,1.778913497924804688e+00
7.238677964990474223e-01,-1.010235064897459845e+00,7.581389609317870093e-01,1.002656953606176002e-02,-3.773489920857228674e-03,1.495339712191611631e-02,1.751779675483703613e+00
7.234352387730790257e-01,-1.020627248048693314e+00,8.058327267868572452e-01,1.668529541069532079e-02,-4.685304772958769418e-03,1.367060041189702320e-02,1.787095785140991211e+00
6.951970666734270665e-01,-1.009970292881998466e+00,7.786950692856015044e-01,-2.076007472059328285e-02,-5.962688956690921638e-03,-2.130497801465152524e-02,1.749201774597167969e+00
7.570381111960430287e-01,-1.007459862167275233e+00,7.366593573131183792e-01,-1.942527516643556551e-02,-2.909603251622643744e-02,-6.167568334879816594e-03,1.755475997924804688e+00
6.933679316776280022e-01,-1.011031435474011086e+00,7.898415381547927439e-01,-2.043349496879786481e-02,-8.620745060682404384e-03,-2.239252953818602482e-02,1.755475401878356934e+00
7.019829658670178052e-01,-9.958834071678439592e-01,7.492647877708149551e-01,1.343197332239185263e-02,-4.412457430032525746e-02,1.020432122984481216e-02,1.723936915397644043e+00
5.564055959067013557e-01,-9.788297779103678486e-01,8.018160383918963019e-01,1.516043589071093241e-03,-7.568313087463787725e-02,-9.018967746637313737e-03,1.676714539527893066e+00
6.024447355276338900e-01,-9.814583135226326860e-01,7.909732498362918029e-01,-1.079735140943124949e-02,-2.871916340568798215e-02,-1.217341311019877297e-02,1.687059998512268066e+00
6.745350677731621891e-01,-9.792281438286647433e-01,7.364848000148376261e-01,-2.345245381040511785e-03,-1.384935177312849458e-02,-2.364077412653496461e-03,1.685772657394409180e+00
7.255243119243095506e-01,-9.879325694402310010e-01,7.109886650527730279e-01,-5.789937938011984267e-03,-2.969709629239115217e-02,-7.144825946426049124e-03,1.707084894180297852e+00
9.300669268660690658e-01,-1.084759436562733992e+00,6.783420947035082582e-01,5.942929860821977855e-02,-6.190619738362359570e-01,-7.096908660009970584e-04,2.185410499572753906e+00
8.326846090272863599e-01,-9.953694078286520197e-01,5.817609004870256673e-01,-1.153801035244589887e-03,-4.424280161837643166e-02,4.256929887759816622e-03,1.718130588531494141e+00
5.809665406953162803e-01,-1.047468620112217419e+00,7.823833437582272676e-01,8.300817257583166867e-03,-1.987095249792894536e-01,9.724395483090090761e-03,1.771810054779052734e+00
8.548403629720515706e-01,-1.154661903402109058e+00,7.193878756496507876e-01,1.228877290575915507e-02,-2.455842993447812095e-01,5.749968577047482460e-02,1.993880987167358398e+00
2.121707692044738358e-01,-1.205433419571985798e+00,1.076898628904150224e+00,9.484516597966791140e-02,-3.384886308398825094e-01,6.731212885344681207e-02,2.089856624603271484e+00
6.927563813369974621e-01,-1.020258576224632563e+00,7.927436999495909298e-01,1.777571072088636461e-02,-8.768888580176463152e-03,2.285553866018441571e-02,1.765911459922790527e+00
7.778435713322073841e-01,-9.697565073176547257e-01,7.647155038294594087e-01,4.691643395866112141e-03,-1.674953845019890031e-02,1.611171151837099622e-02,1.741557359695434570e+00
7.976704767537474705e-01,-1.105888999433606079e+00,8.640521513029690848e-01,-1.919524322002111871e-01,1.040531530995163489e-01,7.074274602669401724e-02,1.977963209152221680e+00
7.850724053612250231e-01,-1.000615305225158069e+00,7.879687314861705261e-01,-6.959370247999781267e-02,3.819146474994964194e-03,1.297951921764768472e-02,1.791351437568664551e+00
7.639462504156424583e-01,-9.665506660633889080e-01,7.731640492928235631e-01,-1.928707531249234872e-02,-7.931186175365029581e-03,2.249735637162828678e-02,1.735937476158142090e+00
8.446521131811925986e-01,-1.065578155650481529e+00,8.117540698793608289e-01,-4.701126743013650522e-02,9.675632727692952406e-02,1.679342668085969659e-01,1.925237774848937988e+00
4.742931347177984369e-01,-8.468409173834079429e-01,1.042963885833140480e+00,1.947619753768493889e-01,3.281519978809149807e-01,-2.011679416891299851e-02,1.805030107498168945e+00
7.280240955611163578e-01,-1.020489166204151754e+00,8.039861434464055101e-01,-1.249044157304065976e-02,4.942905837474585382e-03,1.614044806779718622e-02,1.788075089454650879e+00
6.932558203725520674e-01,-1.018194759853617626e+00,8.227867375387781790e-01,1.298606466190427300e-02,8.564348893228910381e-03,5.406582337873733386e-03,1.779983401298522949e+00
5.945198562778141183e-01,-8.970798226351862636e-01,8.317579378236538146e-01,1.252211485681239793e-02,-5.088724755411740130e-02,-2.198841011858630387e-02,1.626254916191101074e+00
4.867181039038052659e-01,-1.022742522494269446e+00,9.340911109300344961e-01,-4.532475051871899530e-02,2.732444125624214262e-03,1.506107208158440763e-02,1.777855992317199707e+00
4.722476513813761434e-01,-1.021585069719159744e+00,8.453906810812582551e-01,3.802264589331116190e-02,1.709421274665923474e-01,-1.265204282652640164e-02,1.738006353378295898e+00
7.362898014459240414e-01,-7.973232134584704589e-01,7.494178411710130661e-01,3.296461890486067792e-03,2.515626011767030379e-02,2.183422371209689516e-02,1.541309833526611328e+00
7.334923131912581828e-01,-6.940558482285437147e-01,7.045891407892684866e-01,6.634039913945601052e-02,-1.782630637995357564e-02,-3.987263770047740769e-02,1.419998049736022949e+00
7.643900842520866545e-01,-9.982812281578141711e-01,7.763397663825122308e-01,4.879370280093054714e-03,3.871336944841007152e-04,-9.836338622137388073e-04,1.768697619438171387e+00
7.275378049127012581e-01,-6.699299898545916232e-01,7.054415568522780511e-01,4.486655330561609839e-02,-1.603655655309478220e-02,7.372606051060816464e-03,1.389064192771911621e+00
1.094085682528493697e+00,-1.309689887619447157e+00,5.218835954015711431e-01,-3.456007000685040742e-02,-2.440961085348820631e-03,-2.631578814216764539e-02,2.176186084747314453e+00
1.070887340823332146e+00,-5.615868970163284679e-01,3.845959170659369319e-01,1.102793676649035243e-01,1.889710047513453450e-01,-1.914485613777099915e-01,1.506382226943969727e+00
8.011626920999143087e-01,-1.009231799890007997e+00,7.281792509671332070e-01,-4.281197795357485208e-03,1.130648264407862862e-02,1.632033367763732062e-02,1.775377035140991211e+00
7.811724750679506224e-01,-6.366197067246914809e-01,7.295422061570030481e-01,8.134553318773146691e-02,4.895385673007960903e-01,-9.237218131975270807e-02,1.644382119178771973e+00
7.420374828174810533e-01,-1.009862412454998859e+00,7.370199834946485895e-01,7.394582936858742732e-03,-1.910387786046659556e-02,1.153779334435774996e-02,1.749870419502258301e+00
7.905183031082023692e-01,-1.032820583081297983e+00,7.694806426164375601e-01,-7.761139795889470880e-03,-5.033420067926243011e-03,-6.061590783065411506e-03,1.813012838363647461e+00
7.910646996042253187e-01,-9.821422348370386635e-01,5.544713628386729320e-01,-2.454507328035312325e-03,6.683105826761720492e-02,3.367607656702251498e-03,1.671574592590332031e+00
1.437216034167020595e+00,-1.930957398535925185e+00,3.538988182374718239e-01,3.012188602367235069e-01,-2.383514524351971753e-01,-2.172347101940775294e-01,3.074666500091552734e+00
7.967835374231192480e-01,-1.041531138043965798e+00,7.846532743178620262e-01,-6.369674115660387166e-03,6.861232774815622347e-03,-5.118620258874360257e-03,1.832372903823852539e+00
7.478902702871543795e-01,-1.022680323972405159e+00,7.600016611162588864e-01,7.819937768043181900e-03,-5.032568445474968483e-02,1.368394435905951473e-02,1.779003739356994629e+00
7.872592301681298199e-01,-1.026665987947354752e+00,7.822762402282462668e-01,-8.717631725270039763e-04,5.979202159673702513e-03,8.022844759924319114e-03,1.811522364616394043e+00
7.750239154333098401e-01,-9.979028678476067338e-01,7.875261766850426559e-01,-2.889800989683043945e-03,1.277216754773206550e-02,4.420079290793938777e-03,1.779371857643127441e+00
6.742993266925338958e-01,-1.025509426329249907e+00,8.264699555786578777e-01,2.058819151469206896e-02,-1.608220413118794517e-02,1.367792203064819440e-02,1.781509280204772949e+00
7.112507195195052478e-01,-1.023467853558146734e+00,8.183648174989205382e-01,-5.516780073510696436e-03,-1.738087569854561421e-02,1.180317558350351889e-02,1.791075229644775391e+00
6.791482854589838691e-01,-1.154753884566860900e-01,6.659313608778030247e-01,-1.230602063531107543e-01,-6.426375901183802031e-02,-9.140229171040729905e-02,8.390370011329650879e-01
7.825182187327048844e-01,-1.010174920893985639e+00,7.780303946119797587e-01,-7.501330164505302239e-03,4.645878772047662766e-03,4.590303872466766481e-04,1.790518879890441895e+00
7.757682904339260332e-01,-9.121299857350138041e-01,7.519213961042021666e-01,-2.485459014668146838e-02,-1.820588637430390483e-02,-2.186877747183959501e-03,1.676955580711364746e+00
7.640129722171198345e-01,-8.979504219247713692e-01,7.628362352172672889e-01,5.708523911003838408e-03,-2.425407108884604715e-02,1.607042767240808578e-02,1.662168860435485840e+00
6.886661237857121254e-01,-1.023588159119237284e+00,8.338806098600108907e-01,7.860440083377957105e-03,1.751450940853463163e-03,9.215796786555775430e-03,1.789412021636962891e+00
7.147953655191554567e-01,-1.065543099996089760e+00,8.550577692817102893e-01,2.211938843728306937e-03,2.487880017990463932e-02,-4.310735209158918051e-03,1.854971766471862793e+00
7.717603450722322345e-01,-1.028455418244981212e+00,7.934486869546429899e-01,5.887025412382654657e-03,-1.723488710416153438e-03,8.773059612458902756e-03,1.811252236366271973e+00
4.091566520151971309e-01,-1.269151654427190135e+00,1.183163220327410059e+00,-1.191800318525215729e-02,7.429204294407073823e-04,4.049710292499954234e-02,2.172596216201782227e+00
6.916008455334979876e-01,-9.814100276733355166e-01,7.983809223390355703e-01,-1.386079662730163933e-02,-1.198470713711372038e-02,9.528033775955038059e-03,1.729245901107788086e+00
4.792386770741396962e-01,-6.442231075343922697e-01,7.657599119919336061e-01,-3.933190805276227942e-02,3.441879255780525004e-01,-1.170975484617226281e-01,1.437820911407470703e+00
7.578086511321133756e-01,-1.023061043514660540e+00,7.674862618702721351e-01,-3.528997118503796483e-03,-3.707639398319448267e-04,5.738262724960422473e-03,1.785766363143920898e+00
7.634628790454145442e-01,-1.023581215825849045e+00,7.726523882762003081e-01,-9.481625803901334859e-03,3.398474471161139904e-03,1.146908168811531722e-02,1.791851520538330078e+00
7.374923924270436748e-01,-1.006917003014024425e+00,7.391347872588103218e-01,-6.854679772977427532e-03,1.105095449176776452e-03,6.956512344570038933e-03,1.745314240455627441e+00
7.607668740396315021e-01,-1.022681439446486484e+00,7.610639906056907433e-01,-3.547214362589532974e-03,1.482126874811984414e-03,5.466937443952844811e-03,1.783634424209594727e+00
6.938497814121172835e-01,-1.013006307223552227e+00,7.752351165629834950e-01,-2.020001897362700555e-02,5.348937918878763492e-02,2.164999389017801049e-02,1.752172350883483887e+00
7.812246543086482919e-01,-1.003626889009641143e+00,7.683270272147564306e-01,-6.449221471802157879e-03,-7.213367197258508182e-03,1.531442252469379433e-03,1.778518795967102051e+00
7.733862924012053774e-01,-9.569895092793190283e-01,7.617277188187573378e-01,-5.400212028482813051e-03,-7.253925885993146513e-03,-2.494595971742576482e-02,1.725188374519348145e+00
7.899273036155340932e-01,-9.756929748204634656e-01,7.897806540916521012e-01,5.705895043677072266e-03,2.475656312479660934e-02,-1.256076574413040048e-01,1.779444932937622070e+00
7.913959371195455894e-01,-1.027007803100276728e+00,7.724855667541804527e-01,-5.919891154746089248e-03,2.228456031798417818e-03,-9.230229874129719514e-03,1.809126496315002441e+00
7.491712995526951246e-01,-1.018368394949843214e+00,7.613691844673494691e-01,1.337898201402875839e-02,-1.811824436371227203e-03,8.547682469697328797e-03,1.773886084556579590e+00
7.889781346212288993e-01,-1.023049136843622087e+00,7.801647749232052398e-01,-6.836583471942773299e-03,-4.607250342078196190e-04,5.145146851892024552e-03,1.807697653770446777e+00
6.669625794260620744e-01,-1.018566589880620876e+00,8.055950842247427968e-01,2.269694649073932327e-02,-2.422088160702043705e-02,2.038998462728441874e-02,1.760241270065307617e+00
7.927362480464509309e-01,-9.603769735838233457e-01,7.631319953280497614e-01,-1.376581999850476877e-02,-1.178703667663759391e-02,3.743920337631843356e-04,1.738783597946166992e+00
7.886163027956281102e-01,-1.003030123707483678e+00,7.762105204863470886e-01,-1.323304499791723259e-02,1.058139729742860018e-02,2.760602403143044142e-03,1.785723447799682617e+00
7.785617150054798818e-01,-1.026091256847530442e+00,7.842621001977247985e-01,6.341346749721126635e-03,3.262317915345879209e-03,7.772428109388013900e-03,1.807602286338806152e+00
7.814107250969618557e-01,-1.037404049695376251e+00,7.824467151835994283e-01,-2.089505298661992129e-04,1.266702963441296986e-03,2.428358601931989314e-03,1.819339156150817871e+00
7.919328128863709626e-01,-1.024061252202795425e+00,7.821132647128318238e-01,-4.331596335775552385e-03,1.132878305320701891e-02,2.550761355451348390e-03,1.811231493949890137e+00
7.852734853617953092e-01,-1.035504430526306585e+00,7.845292712121340051e-01,-2.031575324316090784e-03,2.345270629149185868e-03,4.371223040384696057e-03,1.820429563522338867e+00
7.843857469029884566e-01,-1.032949613649611909e+00,7.811048988870158416e-01,6.468966892138390979e-04,3.578382147446789764e-03,1.225417095021463267e-03,1.815709352493286133e+00
7.914168888532139290e-01,-1.019893411347692069e+00,7.811210680424515163e-01,-9.914553958662610661e-03,1.159196356723975196e-02,-4.276649369039098314e-03,1.806392788887023926e+00
7.875353522260987171e-01,-1.033493923701862771e+00,7.841329318283835059e-01,-3.439880844125601644e-03,1.040642781412503409e-02,-1.819693332831301847e-03,1.819432258605957031e+00
7.706807469662353416e-01,-1.030277757422586316e+00,7.707232194699991101e-01,-2.859240607704568383e-05,4.406482727044559733e-03,6.793303880204592041e-03,1.801034331321716309e+00
7.864755515996648683e-01,-1.026585557478896016e+00,7.830538442693002477e-01,2.408150790388136411e-03,7.885840401537513172e-03,7.628444237024020920e-03,1.811457157135009766e+00
7.321496144694099595e-01,-1.020463929403856884e+00,7.983780614869400161e-01,1.789376244571083338e-02,-1.304702834203652455e-02,1.198584063283503892e-02,1.787180900573730469e+00
6.212315112246281634e-01,-1.032940191707292898e+00,8.565025126526282229e-01,4.139266455385458982e-02,-6.616681481613883448e-03,1.172997610822691661e-02,1.785076856613159180e+00
9.296510255806908485e-02,-1.455216267127426688e+00,1.435785585187911106e+00,-9.898840300437716788e-02,-1.505444549359549467e-01,1.266477305711818380e-01,2.534653425216674805e+00
5.084411070542509403e-01,-8.764636093324792432e-01,7.989224581737101039e-01,-2.166552703942962732e-01,3.302467909834498894e-01,2.055332017655298604e-01,1.731868505477905273e+00
1.558008756970185038e-01,-1.692044052810824484e+00,1.537356282347844161e+00,-2.100089317410616663e-01,6.187588254149718747e-02,-1.306236495383794605e-01,2.840970039367675781e+00
5.769429212757369863e-01,-1.006589285359533292e+00,8.589980112232744602e-01,2.695919309626143914e-02,-2.125054278106436670e-02,1.110561706606757147e-02,1.742893457412719727e+00
5.361620563842227627e-01,-4.916489317833832029e-01,8.211902141712223990e-01,-5.995491183682039038e-02,-6.219500246560669826e-02,2.687440449807524528e-02,1.206294655799865723e+00
6.079743315707507589e-01,-1.077425612966428581e+00,9.645459479750386755e-01,5.084267855004122316e-02,3.088834773011634241e-02,-8.724010560504164707e-03,1.891963958740234375e+00
7.934739331196287715e-01,-9.787250349931752025e-01,7.602091453918939923e-01,-1.696199629069461770e-02,-1.958582733394472961e-02,1.831049458961215431e-02,1.756662607192993164e+00
6.947812936266002382e-01,-9.901412030768077521e-01,8.419223205775182572e-01,6.438956947543936563e-03,-1.951694636382025894e-02,4.397333989570257132e-03,1.763479709625244141e+00
7.747190908770718032e-01,-1.026529154239061770e+00,8.044307303706869083e-01,-5.052490145084720038e-03,1.072700804199503734e-02,-9.364199667411369360e-03,1.816474914550781250e+00
7.046763463229975821e-01,-9.082715613954157607e-01,8.890254414144941331e-01,-2.476060653122215682e-01,-3.297647832073397067e-02,-1.026493194947763893e-01,1.775311350822448730e+00
7.784807779505036329e-01,-1.034658210018661872e+00,7.891567157070412675e-01,5.689693483873890616e-03,4.758790973490552648e-03,1.855088431173497476e-03,1.818548679351806641e+00
7.647433007698284380e-01,-1.095521820716571559e+00,9.338720911001818781e-01,-2.705444620412212481e-02,-5.714953754453977464e-02,-1.519971935311251188e-02,1.953587055206298828e+00
7.150423891911915630e-01,-1.029423850551416386e+00,6.527968048984905680e-01,-6.714335474605996092e-03,4.916877904159268065e-01,1.339737142686157068e-01,1.928134918212890625e+00
8.664405401925148187e-01,-1.028344053114552237e+00,6.154066764434125147e-01,1.000280924472190559e-02,2.923568570056873581e-02,-2.597401922286096676e-02,1.783945083618164062e+00
8.846278815064705370e-01,-1.096642418774300687e+00,6.454309404348212986e-01,-1.205747828122438470e-01,6.163772562747898975e-01,1.379365534786270997e-01,2.179263830184936523e+00
9.073861655883596056e-01,-1.272463908471472172e+00,6.558047394707353650e-01,7.575748695298531454e-02,7.294250077704182988e-01,1.245472747275412073e-01,2.434453964233398438e+00
7.803788740734387552e-01,-1.035461686274451676e+00,7.729622441745855888e-01,-1.939130616372930624e-03,3.666009869349273580e-04,-2.743304564598844468e-03,1.812153100967407227e+00
6.871958696254156784e-01,-1.039907299453469713e+00,7.709778207248947357e-01,-1.655754707526127523e-02,3.238288583032192802e-01,-5.000709981164078166e-02,1.859442114830017090e+00
7.556564925384476883e-01,-9.985630854177123261e-01,7.027233038291875733e-01,1.615157348874309354e-02,4.874544577324153166e-02,-7.322424784516706059e-03,1.730694532394409180e+00
8.128701892428180642e-01,-1.024733567985476768e+00,7.054815813592738571e-01,2.088152470042611494e-02,6.481534688196687738e-03,1.511787347672876973e-02,1.786925315856933594e+00
1.092893612321515384e+00,-6.172322028335099908e-01,3.488671173213036547e-01,-4.096746024619098495e-03,1.007152527258405872e-01,1.769538633707629094e-01,1.526481509208679199e+00
8.388551984168199915e-01,-1.028127561000542478e+00,6.887912999973048178e-01,3.444629494501799151e-03,1.134305029358380172e-02,1.745188537042750843e-02,1.797028779983520508e+00
7.220885283672161536e-01,-7.549199036086922110e-01,7.338412924042289065e-01,5.430031108918275534e-03,-2.560502171185675621e-02,-7.137520489129789251e-04,1.483613133430480957e+00
8.609970900021874929e-01,-1.043535849349179090e+00,6.352481924808744962e-01,-1.144006496814647771e-02,-2.346360567569961628e-02,-3.576569636033172239e-02,1.803924560546875000e+00
8.628021333461672882e-01,-1.019081182542795894e+00,6.162732730472333387e-01,1.825534652504088792e-02,3.666961760919564169e-03,-3.562575184113028759e-02,1.772898912429809570e+00
7.564397797834305770e-01,-9.482089070299597466e-01,7.981493711921814338e-01,3.212110579359932216e-03,-2.560618452646263102e-02,3.323155902067918832e-02,1.727419495582580566e+00
7.054505679817533181e-01,-1.003145491955609092e+00,7.737336718212965980e-01,7.991479298409502954e-03,-4.613383323486618809e-02,6.870854801665072890e-03,1.745665907859802246e+00
9.876021965811984105e-01,-1.174492250291036433e+00,6.476027992468870176e-01,3.451900301504239738e-02,-2.001654776404174774e-01,-4.458788980897884779e-02,2.045697689056396484e+00
7.955537754044474941e-01,-1.011435995708051205e+00,6.706118550482851326e-01,-1.262953987977486099e-02,5.866825316349923158e-02,-8.126220416542510525e-03,1.751015782356262207e+00
7.584484962740106750e-01,-9.772640102550992358e-01,7.796697147790122573e-01,1.202552747221620304e-02,-2.697493535960241058e-03,2.355701598508243809e-03,1.746555089950561523e+00
8.310219630299823246e-01,-1.027966940319817724e+00,6.886310226983438643e-01,9.696308119269624395e-03,-5.791704824091361290e-04,-1.122529781332021366e-02,1.792225718498229980e+00
7.687652815682786134e-01,-9.717873022596446031e-01,7.917994687053493408e-01,2.574430389309814802e-03,-1.533910088985278135e-02,8.498920338129045682e-03,1.752452135086059570e+00
7.662320586567914482e-01,-1.011133657958906529e+00,7.736036524944517323e-01,-4.383848867043091055e-03,7.292223672078018692e-03,2.271991584767466335e-02,1.781558632850646973e+00
9.750052048648989445e-01,-8.248376582782859234e-01,2.469689424174776882e-01,2.957315553610727690e-02,1.871727327118032358e-01,-7.144574900380851190e-02,1.606909513473510742e+00
8.628757700519920082e-01,-1.029002909832254398e+00,6.100323176123672031e-01,-2.605683178025679399e-03,3.721703719879242405e-03,3.953535979645052961e-02,1.780319213867187500e+00
8.307980090250373095e-01,-1.135252002739029598e+00,7.338124640295056178e-01,7.588887425436433021e-02,1.821724509985579166e-01,6.180988819909476184e-02,1.952531576156616211e+00
9.589072988463225311e-01,-9.007355094361233494e-01,2.951687484919207627e-01,-9.572995425149280480e-02,2.684930891329622704e-01,1.318366636483783993e-01,1.720582604408264160e+00
8.078762885588114395e-01,-9.998689941018565897e-01,6.408831672289349024e-01,1.215842007915656463e-02,3.265091391033664997e-02,7.359144695978401401e-03,1.731402039527893066e+00
6.784912920279483339e-01,-9.828856360827896710e-01,7.451906676330152246e-01,5.766164338615780219e-04,1.194053980662485547e-02,3.706579988806634439e-03,1.695849299430847168e+00
7.028442048766532224e-01,-1.008660438787869928e+00,7.595390246237794241e-01,1.766855910699386550e-02,4.653228853471429866e-02,-2.730403695320279822e-02,1.743319988250732422e+00
7.210426296576496474e-01,-9.899440800038376009e-01,7.141727195774928427e-01,7.680431494815911052e-03,4.116294388377335876e-03,-5.550205289897526886e-03,1.707655906677246094e+00
7.112257820832121880e-01,-9.810501303622418678e-01,7.068628300328714253e-01,1.057325966992488054e-03,3.389325799867990308e-03,-5.477353843994025402e-04,1.690110087394714355e+00
7.057254393176111140e-01,-9.819027524157554199e-01,7.133130759025537726e-01,2.621113384587642550e-04,2.733755521967060325e-03,-6.919563245899451728e-04,1.691441893577575684e+00
7.485851359529827054e-01,-9.749455532091149124e-01,6.253551735740698891e-01,8.740101627852745608e-03,4.607549437382191942e-02,-3.046688955284988678e-04,1.667318582534790039e+00
7.176371254141211686e-01,-9.812504548053136988e-01,6.954871442838168605e-01,4.874034085972192218e-03,2.143865530338170608e-02,-2.176779912856805443e-04,1.688351154327392578e+00
7.666906929493599865e-01,-1.008844188669419495e+00,7.116402326862494299e-01,-1.352123395646598163e-02,7.339443716428094983e-03,6.899788297149968275e-03,1.748903512954711914e+00
8.139796998209571921e-01,-1.004070350869165962e+00,5.997098813638880310e-01,2.170349135976585089e-02,4.757118931851330584e-02,-2.201529914198882554e-02,1.723751902580261230e+00
7.807773097143713148e-01,-1.035314325170790140e+00,7.858998060906963179e-01,3.929891313779671977e-03,-6.183471890299899187e-03,-1.130529148081373808e-02,1.818807959556579590e+00
7.836290852751179870e-01,-1.032012353020869577e+00,7.827533290268968713e-01,1.909106757662274584e-02,9.566585905978688617e-03,1.650473213765182856e-02,1.815805554389953613e+00
7.529143555764626905e-01,-1.022612696365320595e+00,7.475652509167931559e-01,3.932282747394865233e-03,-1.421291576211816503e-02,7.813965882847700301e-03,1.773094177246093750e+00
7.296256858604728279e-01,-7.251961666233388559e-01,7.195002667392120799e-01,-1.916735125162390488e-02,1.380584232779726375e-02,-4.410976246230594033e-02,1.452373743057250977e+00
7.735652747533117157e-01,-1.035218830862551620e+00,7.817882059923503268e-01,4.902303864621714719e-03,-6.191564892870668555e-04,8.045939688590094882e-03,1.812983274459838867e+00
7.825315672489450147e-01,-1.027964141657807362e+00,7.916806135986675930e-01,9.697455344032900049e-03,7.953892543484948618e-03,-5.596465614475202612e-03,1.815243363380432129e+00
7.388402552328565687e-01,-7.734491056268072429e-01,7.196866676972532018e-01,-1.999875780457925634e-02,1.720970843074004497e-02,-1.295332438401762369e-02,1.503666162490844727e+00
7.825081312887902651e-01,-1.034163631885898438e+00,7.816801851228207809e-01,3.927367493928692402e-03,6.646616906620066503e-03,4.992426739345891262e-04,1.816307306289672852e+00
7.766542594791313592e-01,-1.017979326638953630e+00,7.936978693906903137e-01,1.772725980407730863e-03,-2.546458042784472287e-03,-5.595065065608600778e-03,1.803249835968017578e+00
7.770987447256553216e-01,-9.718128601616659035e-01,7.795496427228562064e-01,1.336301375129444243e-03,-4.173489585028855933e-03,-8.691761026134340457e-03,1.750219583511352539e+00
8.885082141329894156e-01,-1.342965586605019856e+00,6.391165360761705827e-01,2.869537388694369251e-01,4.662285444797124034e-01,-3.178698465174227272e-01,2.384830951690673828e+00
1.024902565984725067e+00,-1.224013953118293641e+00,6.554593481134403099e-01,5.284679406208152991e-02,9.778932860169300967e-02,6.290187626076360061e-02,2.100524663925170898e+00
6.285251010382058023e-01,-5.076333438838527279e-01,5.799510908530643993e-01,1.743151296561991914e-01,3.111191583248484327e-01,-9.887685302962564982e-03,1.272738695144653320e+00
7.840769233181970055e-01,-1.037625531136539880e+00,7.744983036856356584e-01,-3.200455036922335468e-03,-1.686154011470132174e-03,4.383912549055035170e-03,1.816958785057067871e+00
8.318795572539897654e-01,-9.738856386807295262e-01,4.787509698925454527e-01,3.890196545580738852e-02,4.182847352856704504e-01,-1.721215586880621776e-02,1.810562252998352051e+00
1.120392924472260354e+00,-1.154052217575929795e+00,5.362176044947298825e-01,-3.123410998747033762e-02,6.014635468662805629e-01,-5.243262241277417413e-02,2.298289775848388672e+00
6.717928100395640367e-01,-4.670815092831080984e-01,6.791663962617869865e-01,8.705963523466686560e-02,-1.214769184233030312e-02,-1.099555324686945640e-01,1.168305635452270508e+00
7.551053692776539261e-01,-9.299071620717528353e-01,7.600025442808824305e-01,2.401541639443209586e-02,-5.552096427713279145e-03,-7.328307240358957614e-03,1.688054203987121582e+00
7.599753781681690690e-01,-9.210429098701047312e-01,7.680723568506464538e-01,6.870163063439710394e-03,-1.825117908006696626e-02,-2.372162782699691053e-02,1.685920596122741699e+00
7.920795509362160702e-01,-9.749313138073968377e-01,7.674372328060329318e-01,-5.227317243651423244e-03,-1.037722896120144359e-02,-2.085387816218885193e-03,1.754938602447509766e+00
7.702217760203171615e-01,-1.025898575179688299e+00,7.863711586509993801e-01,-8.657974706618640909e-03,1.504681933525709543e-03,1.443381075725115245e-02,1.804486632347106934e+00
6.296983000773607175e-01,-1.027808352380907175e+00,8.524811659181467105e-01,-4.861328702851814426e-02,5.148243887915718298e-02,3.794126330936098412e-02,1.784820556640625000e+00
7.802811124799047260e-01,-1.030714829711345093e+00,7.901592031664963489e-01,-3.158282483364211607e-03,-2.745023339631935504e-03,1.200407911418842691e-02,1.816088676452636719e+00
6.767195916390194022e-01,-9.867334679076589232e-01,8.286922480332550300e-01,-2.210189644317886361e-03,1.152416075679504187e-03,-3.615393442318047372e-03,1.744428038597106934e+00
7.307606282762431071e-01,-7.866117739754434623e-01,7.470851633924293633e-01,7.612113175341181370e-02,-6.611377648969865573e-03,-1.134593888491463058e-03,1.531330823898315430e+00
6.399124873286359261e-01,-9.938230525281834815e-01,7.884850412239703399e-01,-1.520429258619311955e-02,1.380432779280215370e-02,2.162215778899748142e-02,1.713639855384826660e+00
7.185184360363796596e-01,-1.017431115899786409e+00,8.138982312390022900e-01,-1.257440746174221316e-02,2.715728856587474715e-03,4.150486938628955916e-03,1.785704612731933594e+00
6.258248798753316411e-01,-1.019925924063021627e+00,8.545228478946403916e-01,-3.273545946619160762e-02,1.611287438989297697e-03,1.213139773028581829e-02,1.772242188453674316e+00
6.954538311222151492e-01,-6.439515713329788671e-01,7.737382008535649280e-01,5.678103786615475157e-02,9.175169665330594818e-03,-1.602341724311159288e-01,1.411360859870910645e+00
6.912462664091185705e-01,-5.005652618809753873e-01,7.145848529861387188e-01,1.654551339983671154e-01,-2.551950748002948955e-03,-4.207243090482161094e-03,1.237325072288513184e+00
6.831504672098120956e-01,-4.714420240956712638e-01,6.670561774773093866e-01,6.903122244963130760e-02,-1.825783372595807946e-02,-6.107247659882261703e-02,1.158121705055236816e+00
9.196433770017136133e-01,-9.638458657334614266e-02,8.000226351079423592e-01,3.709806218655822829e-02,-1.536530485651360078e-01,8.945246199049518634e-03,1.000140309333801270e+00
5.614783816224322432e-01,-3.049084781836685076e-01,1.068444590842806630e+00,1.244266260595599666e-01,-5.852024948654858255e-02,5.392179413884937850e-02,1.229761123657226562e+00
7.411631941834400106e-01,-7.988931601103398394e-01,7.322313818497420135e-01,-2.925393650314693852e-02,-2.960722970759428752e-02,-4.762292234682603863e-04,1.537301421165466309e+00
6.361507295242412319e-01,-2.036831104466150788e-01,6.377631801373181419e-01,-1.939965875113110472e-01,1.276242826574556233e-01,3.694448333730228351e-02,9.340986609458923340e-01
6.605460265436946532e-01,-4.533219640122178595e-01,6.769849691563265548e-01,-6.459870061619035764e-02,1.737796455067721832e-02,-2.078199448704246693e-02,1.128717660903930664e+00
7.623144690151775205e-01,-8.270945033557333126e-01,7.284519341351757271e-01,7.670491011252786664e-03,-1.775311230915530350e-02,1.444459270257704257e-02,1.573306798934936523e+00
7.886771377649746118e-01,-1.012660911098277161e+00,7.791065392091567343e-01,-1.859856703986919550e-03,-1.064426415753125937e-02,5.950413461392787574e-03,1.796698927879333496e+00
6.862561544535397129e-01,-6.565395100271448348e-01,7.310585295633164060e-01,3.596401241513943331e-02,4.613829322114675058e-03,6.204805604238033262e-02,1.371408700942993164e+00
6.426835623660669405e-01,-2.620162425804218320e-01,6.450170912098339704e-01,-1.069988409527993477e-02,8.160709056521473631e-03,7.216010515806614567e-02,9.147474169731140137e-01
7.025247334612383376e-01,-1.829633019971493857e-01,6.877603958577778176e-01,-2.761336808459301587e-02,1.552119869504308032e-02,-9.740216809832367983e-02,8.959381580352783203e-01
6.845415221755735136e-01,-3.054728401784431169e-01,6.615686334165242766e-01,-1.045742199962473445e-01,5.883746453560042416e-02,1.008847901566482450e-02,1.000705242156982422e+00
6.594019887259290336e-01,-1.030283797189369688e+00,8.337600205546292775e-01,-2.916394155467834023e-02,-9.239781025504011092e-03,-2.373033040573064092e-02,1.784529685974121094e+00
6.927808575512105493e-01,-6.014032615650173330e-01,6.948692383652789184e-01,2.319506243811161883e-02,-2.564019918916846108e-02,-2.111198986579362197e-02,1.297128796577453613e+00
7.311188471140495082e-01,-3.795471034006547839e-02,9.603574273140027540e-01,-1.718314169188612031e-02,7.331060135371753224e-03,7.316102223057703580e-02,9.151122570037841797e-01
6.494003522187672406e-01,-1.308854978842766137e-01,6.253169605567390210e-01,-4.551322546548364212e-02,9.189513377350105872e-02,-7.522373616758723514e-02,7.994738221168518066e-01
6.568185248409257326e-01,-4.031361018186399026e-01,6.489543697047444049e-01,3.536942949148793452e-02,-1.895861409177097140e-02,-3.533446502224697056e-02,1.060097575187683105e+00
7.330018034669290028e-01,-5.952990142158236520e-01,7.200422623598637939e-01,6.833419419911930526e-02,-1.743003362591347138e-02,-1.634197479651716689e-01,1.357341170310974121e+00
6.827619737649972542e-01,-6.677146478259343709e-02,6.020830774841562372e-01,-3.348019030934518830e-02,3.313603114532027560e-03,1.350053707740193204e-02,7.153882980346679688e-01
6.376242716522569909e-01,-4.435214752030892660e-01,6.659925671246094137e-01,2.575689418765937655e-02,-1.838419146134414022e-03,9.062300965781152040e-06,1.096517920494079590e+00
8.734254194368862301e-01,-1.741982974814827445e-01,1.062771319745658527e+00,-1.016120343359689553e-03,1.561741450479547377e-01,7.294543123493570959e-03,1.185354113578796387e+00
7.077965136605965935e-01,-4.532678215798905397e-01,6.786278178792581883e-01,2.679673901081288181e-02,-1.520570347283413393e-02,-8.833413164107653537e-02,1.158149838447570801e+00
6.669161979137691043e-01,-4.623787060213446765e-01,6.481218055189896798e-01,8.184673437881664904e-02,9.082681825588327304e-03,-3.662255729959735563e-03,1.129079341888427734e+00
4.023192888304762960e-01,-1.585687029710237228e+00,1.426051928997217555e+00,1.568417854376312759e-01,3.605897102977586588e-01,-4.020140218463182091e-02,2.739362239837646484e+00
7.403517807673739570e-01,-1.012258996112689324e+00,7.463510027485894538e-01,7.472405978313074158e-05,2.486274391589294100e-03,5.365477213176058626e-04,1.755623579025268555e+00
7.612264300121712735e-01,-1.016028912154330666e+00,7.434684890467878615e-01,9.606293216972341259e-03,2.482955591753319754e-03,5.358234705489354783e-04,1.768527030944824219e+00
7.302366069538493987e-01,-1.017937751031390503e+00,7.705402245675272432e-01,-1.835157077647965769e-03,-8.187069035297735164e-03,1.522970594731105042e-02,1.768926978111267090e+00
7.775845333432878093e-01,-1.031965566283109315e+00,7.686528970673154326e-01,8.084657488099120451e-03,2.817704658647337060e-03,4.887999721854681357e-04,1.805161952972412109e+00
7.596313390255345910e-01,-1.029762836194236808e+00,7.713814275180993496e-01,-6.100598236647635994e-04,5.969885958504329154e-03,4.324339322081342243e-04,1.795328259468078613e+00
7.446783621496134709e-01,-1.020408077862734464e+00,7.675729562770350345e-01,1.737779943758522780e-02,-2.354606867400571221e-02,2.340480019599101846e-02,1.777829527854919434e+00
7.636571697716775242e-01,-8.934341715600936373e-01,7.503981871120560809e-01,-9.003645525082579204e-02,1.555653668881784059e-02,-1.000396061092437422e-01,1.667101025581359863e+00
6.576257194616227375e-01,-1.058479234564550175e+00,6.637030325587425228e-01,3.804056250110979948e-02,-2.798612397912525473e-01,2.959066180718476768e-02,1.788132429122924805e+00
5.677861456765529446e-01,-1.020734894538923632e+00,8.062639439899732530e-01,7.763499844396662061e-03,2.955415026863649763e-01,1.008611527515723694e-02,1.794886708259582520e+00
1.212215151220661091e-01,-1.151227672910232869e+00,1.455404611473583243e+00,7.521463328730784714e-02,1.622848017815286537e-01,-5.481488598787599698e-02,2.280755758285522461e+00
7.724653420078601007e-01,-1.037888553361385746e+00,7.825622200136469475e-01,-1.309428716889517435e-03,-5.648036203874871354e-03,2.598521327732804774e-03,1.815456748008728027e+00
6.256560914468618506e-01,-1.003159129128613269e+00,8.139841427964085163e-01,3.571640098373024194e-03,2.071461886411484279e-02,1.552843467090533891e-02,1.731273293495178223e+00
7.050732129101380252e-01,-1.014458823839870405e+00,7.844135873461085540e-01,-1.232924991920236919e-02,7.723807276810819994e-03,1.972614535179655071e-02,1.761055350303649902e+00
7.164032365864948515e-01,-9.963462616683332884e-01,7.344002017570010477e-01,1.011967042515545185e-04,1.695273293576271198e-02,9.424192298950213181e-03,1.722146272659301758e+00
7.339449366140553543e-01,-1.007310295754985319e+00,7.505960923552912334e-01,-1.316876973563566033e-02,2.382262213160779227e-02,1.228751289439236616e-02,1.750404715538024902e+00
7.024200636308497447e-01,-1.138856164384092429e+00,7.869900425897620178e-01,7.887678775466595849e-03,3.122250033363057065e-01,7.604610961830045313e-02,1.965491294860839844e+00
3.651991420539327793e-01,-1.083064715659519450e+00,1.047777781673106867e+00,6.444231979873722704e-02,2.215343694850903655e-01,-6.799263117762379544e-03,1.926594257354736328e+00
7.512601203414972506e-01,-9.979214184158379242e-01,6.690000517438471350e-01,-2.042719752247161916e-02,1.580326996821060370e-02,1.402516976688526242e-02,1.710294127464294434e+00
7.898445701420089282e-01,-1.014177202668510303e+00,6.929271602754332182e-01,-2.230791373792662818e-02,1.018921246919257499e-02,1.520258957599074021e-02,1.758278727531433105e+00
7.695819987726356670e-01,-1.015241407693487474e+00,7.285697356998465102e-01,-1.396394032283530991e-02,1.008623307780142156e-02,-2.681966804231912874e-03,1.764933109283447266e+00
7.228611275217331489e-01,-1.005178437593909013e+00,7.318607673403183522e-01,8.948847334378496471e-03,7.812977449055016899e-02,1.559240703695282358e-02,1.738112688064575195e+00
1.882914065526331893e+00,-2.180228945907845439e+00,2.758047530221796051e-01,-2.297199530842673060e-02,-8.358228706991918666e-02,-6.245007998285404330e-03,3.547488451004028320e+00
9.115568479746419817e-01,-9.858643463763289150e-01,4.577022598286208943e-01,4.969593901792477078e-03,-1.327020509147690958e-02,-1.920528707739746054e-03,1.716289997100830078e+00
8.555672725202141393e-01,-1.014517156391834041e+00,6.141096133014307679e-01,4.885981153853486553e-03,-1.565383746825020975e-02,-1.228729303549676646e-02,1.762166619300842285e+00
9.112283206074625053e-01,-1.022631621629682463e+00,5.126383618998169300e-01,-5.946813865939779746e-04,-1.451612212298256793e-02,1.517329138573641004e-02,1.768953084945678711e+00
7.380403856738502189e-01,-1.195609110491594684e+00,9.404644798674289818e-01,2.795156117932730451e-03,1.690041522506971483e-01,1.836780138557274908e-03,2.063277482986450195e+00
6.909531697983241072e-01,-1.027732925151318977e+00,8.352363336013508555e-01,1.549707366286490196e-02,-6.674720584886985504e-03,5.082631605140401979e-03,1.795441031455993652e+00
1.243056028586369877e+00,-2.043183254975337704e+00,5.917862277633574308e-01,-5.161708754899500817e-02,6.415213534426950082e-01,-3.726739857036823200e-01,3.277589321136474609e+00
7.960964061367425959e-01,-9.879279009772014009e-01,6.034669317938209376e-01,2.072932016842656683e-02,1.674400094289511115e-02,-4.924709052359041439e-02,1.698705196380615234e+00
7.769153582070380537e-01,-1.022417913114306964e+00,7.680974167263637797e-01,-1.431094127925425924e-02,1.090122784674287578e-03,1.199416184387459665e-02,1.795232892036437988e+00
6.097637992623538006e-01,-7.465218900021093340e-01,6.444836114268509553e-01,1.107953652031485985e-02,3.190935094475819134e-01,3.509009377992379497e-02,1.482339501380920410e+00
4.601937674416055613e-01,-1.052342437662148855e+00,9.310111155163504071e-01,-8.183779638574761872e-02,3.378013278902910477e-01,-2.479067112493822320e-02,1.893628358840942383e+00
6.880240747890149500e-01,-4.373821169685363497e-01,6.853386877310552183e-01,3.110259762695952515e-02,1.187063323361372408e-02,-3.419014555302611613e-02,1.127100706100463867e+00
7.628047832608436662e-01,-9.266542017871562953e-01,7.613981748378488845e-01,-9.513914148426335510e-04,-2.227743515166507454e-02,-2.028336647065600781e-02,1.689562916755676270e+00
8.017508358012689351e-01,-1.031394762097488371e+00,7.758766844925448769e-01,-6.000368560833546985e-03,-9.768998620220323541e-04,-1.566021865904039176e-02,1.820578932762145996e+00
6.940492728323555127e-01,-6.127770828708150042e-01,6.954085696929914739e-01,-6.762024314854887114e-03,-2.192070151085401958e-02,-3.484023341150877667e-02,1.309501290321350098e+00
7.681778672053773960e-01,-8.743718713322701230e-01,7.491992583215255630e-01,-2.613015295507229233e-02,-1.188629749068726392e-02,-6.643453617619728482e-03,1.633940339088439941e+00
7.638762459224469614e-01,-9.702829221333882925e-01,7.992139332587760991e-01,1.192879099778765620e-02,-1.408704107956081672e-04,-1.364733739705771901e-02,1.752376556396484375e+00
6.947329130263927288e-01,-7.048008514229824328e-01,7.456459442003180449e-01,2.938948825024009781e-02,-1.153667608320712787e-02,-8.445670892261221419e-02,1.434200406074523926e+00
7.255634396550767473e-01,-1.017625196723279224e+00,7.906477441832600039e-01,-1.193992977815038631e-02,1.458305585678699307e-02,1.208261871612387357e-02,1.777048230171203613e+00
7.801681485552400819e-01,-1.028709145489056453e+00,7.520018781824984178e-01,-1.137963173628029658e-02,-2.068805017979471160e-03,7.122641837137670684e-03,1.795114040374755859e+00
9.562248363721128630e-01,-1.179394771870051928e+00,7.147791765770561412e-01,-3.998917294360373152e-03,1.587405509576572948e-01,4.824206596095265143e-02,2.046010017395019531e+00
7.534312092921420234e-01,-8.811862925229698718e-01,7.596867195297511977e-01,-1.858462054343623313e-02,-2.065185660269669779e-02,2.200849853054821781e-02,1.638904452323913574e+00
7.766117741149818343e-01,-9.569338823428589214e-01,7.382494742416206845e-01,2.587293228992391253e-02,-3.247664034664289601e-02,1.022248750593302176e-02,1.716285347938537598e+00
6.302108156442015607e-01,-9.929110951853082900e-01,7.685369949257172539e-01,3.010782871339746924e-02,1.839145492482195388e-01,-3.952236717796034013e-03,1.726968169212341309e+00
7.876275603400204606e-01,-1.027490405883646485e+00,7.713981059002169571e-01,6.109585519319815292e-03,-1.694324608908491427e-03,6.948876682658520522e-03,1.807131290435791016e+00
7.731906871597602482e-01,-1.031646766772206680e+00,7.752867147918088842e-01,4.040050963139159464e-03,4.389480179993095752e-05,-3.511456300285775451e-03,1.805910229682922363e+00
6.235621522054386467e-01,-1.026187706673908684e+00,8.476718310653509336e-01,-4.059802032812376976e-02,6.914570840997272781e-03,6.683245387381874826e-03,1.773935317993164062e+00
7.571814733404745867e-01,-9.121182266427596552e-01,7.684441107447078645e-01,1.504232276035713523e-02,2.093889706427920494e-02,-8.118273266478888070e-03,1.675613641738891602e+00
7.288033164800366004e-01,-8.103746769116652038e-01,7.577083518820697527e-01,-1.995108458253352143e-03,3.389459218523611927e-02,5.524674363204304384e-02,1.557886242866516113e+00
7.722106207353545138e-01,-9.951237079510275585e-01,7.866218876922834724e-01,2.738869602354310640e-03,8.042202556379137238e-03,1.252009889151381450e-02,1.774777293205261230e+00
6.462050662721638972e-01,-2.921763259941499991e-01,6.393053406621649337e-01,-4.663803034029715550e-02,-1.080635905457715462e-03,5.479100027460195865e-02,9.432219266891479492e-01
7.680441564781874675e-01,-8.579541174038951556e-01,7.314371594775495034e-01,3.707360685236395920e-02,7.770669715074438912e-03,-1.815101361058939862e-03,1.609348297119140625e+00
7.037456769312735450e-01,-4.642304115227511296e-01,6.996636837304054390e-01,6.797181399216800646e-02,-1.910523970938613966e-02,1.764587080429514121e-01,1.211522102355957031e+00
7.590925055668455990e-01,-9.776857394984207472e-01,7.853381183001886257e-01,-7.517167636332719102e-03,1.488829728757087509e-02,-2.918665698493087563e-03,1.750294327735900879e+00
7.598143266258072792e-01,-8.463247687369218619e-01,7.591957314608909213e-01,3.865012884197088078e-02,3.427510154561314720e-02,4.288653690648872724e-02,1.610035181045532227e+00
7.164032763090222300e-01,-1.019384768934522345e+00,7.957652800675688587e-01,5.234404575798423491e-03,-2.789096525741645294e-02,-1.532659989800348038e-02,1.777676820755004883e+00
8.272075438381781831e-01,-9.154934536134741174e-01,5.844323148979357896e-01,8.301179928163766875e-03,-1.069757350354170883e-01,-3.379656871206888208e-02,1.646458864212036133e+00
8.219431353881802016e-01,-9.799636726735453385e-01,5.366906397544087826e-01,3.249603836111168015e-02,-6.615200765039112862e-02,2.490378100803290751e-02,1.682972192764282227e+00
8.895861928121219231e-01,-1.010412672853561178e+00,5.765625010288348840e-01,3.016033056079699473e-03,1.045953554901890136e-03,-7.870778725024710556e-03,1.764497399330139160e+00
8.546704315251344442e-01,-1.011655903725240169e+00,5.716402584788505825e-01,2.621212809400520066e-02,-2.109909055583296389e-02,3.523647593405121459e-02,1.744183182716369629e+00
1.015795868535949387e+00,-1.175495898396170746e+00,5.488277989904215559e-01,-5.041114809235978933e-02,-2.107247086571549521e-01,-5.029716551459059715e-02,2.035923242568969727e+00
6.838096116005621949e-01,-6.338565172838767081e-02,6.338511236544117633e-01,-2.761696419586966850e-02,-4.158009360310498809e-02,9.730646415555925521e-03,7.288530468940734863e-01
6.135373150497145378e-01,-3.000048626780507655e-01,6.267832512734490269e-01,-4.544103946100646468e-03,-1.268600613372925477e-02,-5.382474125682553713e-03,9.205797910690307617e-01
4.768157160065097377e-01,-9.917029533912150585e-01,9.013463124204141863e-01,4.727466786612266256e-03,-3.727110647284510858e-02,-5.850246580695704114e-03,1.721784353256225586e+00
7.602882698308426335e-01,-1.017329667728186227e+00,7.354259418202684362e-01,-1.852765852789844264e-02,-3.449561041200256695e-02,-1.701603070607233745e-02,1.766866207122802734e+00
5.946350604241238402e-01,-1.001142936907085446e+00,8.210580421668917106e-01,-5.048186610693623788e-03,-8.831740758351473708e-02,-1.497325292459262408e-02,1.727207183837890625e+00
5.270180565407901474e-01,-1.005300364537020208e+00,8.946352214158256322e-01,-1.941937500374314035e-02,-2.560538719337513563e-02,-3.915665834550148203e-03,1.746308326721191406e+00
5.637343026171183213e-01,-1.000884710331146898e+00,8.562094198545389112e-01,-2.388570573580084400e-02,-1.436418068360209577e-02,-1.478193455878421686e-02,1.730367779731750488e+00
8.856511094967867148e-01,-1.379656738010704320e+00,6.706931821478950839e-01,1.773756170921822473e-02,-6.468403223317800155e-01,4.142416912829063186e-02,2.439708948135375977e+00
7.414520351875454329e-01,-1.029949124009805761e+00,7.930010380488976551e-01,-1.361574049547034128e-02,1.464500796748916932e-03,-1.482446475890628404e-02,1.798069834709167480e+00
7.007565168048559556e-01,-9.796131818505895428e-01,8.054421666210901387e-01,-4.440954974500872093e-02,9.798600727967385349e-02,9.482846544422308954e-03,1.745136737823486328e+00
7.676072756080862813e-01,-8.413615242878564882e-01,7.495372693050719182e-01,7.024245758814785801e-02,-3.080994740555382735e-03,-1.227839704858535441e-02,1.604779005050659180e+00
7.633128131721538256e-01,-1.018165286355111387e+00,7.836017869607960762e-01,-9.494876723453336484e-03,-4.411651594879709669e-03,1.002875656896575970e-02,1.791884660720825195e+00
1.548432289640749415e+00,-1.919317113246131079e+00,2.412761791089464980e-01,-3.822124577355647257e-01,3.303191468506889716e-01,2.402931796011375798e-01,3.184315681457519531e+00
1.443707897879661139e+00,-1.354720335782191754e+00,1.687183615984958751e-01,4.211722702656258040e-03,4.628650701599474337e-01,-2.575225020998837822e-02,2.556092262268066406e+00
7.148128879224305843e-01,-1.325208415578309484e+00,9.208422830291107530e-01,-8.896248981977826487e-02,3.567620059070669702e-01,-4.483679976240711323e-02,2.244114637374877930e+00
9.436597871360076217e-01,-1.018069313779129459e+00,4.573182191288982512e-01,-1.718581669198787631e-02,4.142794115112704428e-02,2.454200109629513238e-02,1.771632194519042969e+00
7.427914627930585212e-01,-9.856089933006574322e-01,6.557641921380600314e-01,1.409474028091757189e-02,3.204571443152386817e-02,-5.941103827765218878e-03,1.687692642211914062e+00
1.020615216395566183e+00,-1.240679597990981264e+00,4.951623299804406853e-01,-1.104490771160155094e-01,3.667860460601524153e-01,2.710010630315280444e-01,2.204964637756347656e+00
5.871025771964532014e-01,-1.000383014894311584e+00,8.669750733642153095e-01,2.333794357172054926e-02,-7.081974740162252924e-02,7.827914928693708793e-03,1.749170303344726562e+00
8.128980310850155711e-01,-1.171984385915318505e+00,6.004006633416325567e-01,-3.538987786552967585e-02,3.050212817084893557e-01,3.586724390209371227e-02,1.962106466293334961e+00
7.217799221027589862e-01,-1.023210302314107034e+00,7.958558690751124098e-01,-6.341908785972017772e-03,5.388022658696834180e-03,-8.178401925097838684e-03,1.783297061920166016e+00
6.899616932350937093e-01,-1.128232124785559565e+00,9.602799078924483256e-01,-6.119602767388981901e-02,8.397832488078882385e-02,7.704437827371007907e-02,1.980048298835754395e+00
7.700636134630244323e-01,-1.029665154204035815e+00,8.100412815387757481e-01,-8.367606986258957838e-03,6.253530040134789789e-03,-8.418962085398769973e-03,1.820195317268371582e+00
4.014131231492872320e-01,-1.014944659829365214e+00,9.565396486126797049e-01,9.701339199241446054e-02,-2.183222408261764336e-01,2.590241159407716265e-02,1.809346318244934082e+00
5.923469701620345251e-01,-1.021298010868292083e+00,8.869139178470260010e-01,-1.173620368385218556e-02,3.794989409060842405e-03,-6.226078025829046708e-03,1.779471516609191895e+00
6.284376818866965753e-01,-1.023148130230086661e+00,8.589010695849927934e-01,3.927585764410854163e-02,-5.431328298541027860e-03,1.227477218419353866e-02,1.779507637023925781e+00
6.954099547318544072e-01,-9.802952635979763629e-01,7.969184877464824401e-01,1.209453300396089517e-02,-1.158577122881281063e-02,6.737986834178566996e-03,1.728978872299194336e+00
8.039798716517869703e-01,-1.020397244120670566e+00,7.297642244182944715e-01,-1.359910053640942494e-02,5.603618095924892475e-03,1.240301871816839631e-02,1.788735032081604004e+00
8.052561031331215702e-01,-1.016178757595250115e+00,6.627445314568833901e-01,-1.848772616038706768e-02,3.493436326085411214e-02,1.512650602507145843e-02,1.756055831909179688e+00
8.355451420879257407e-01,-1.019691213959728504e+00,6.419525228015320328e-01,-1.904100580365099965e-02,6.999819971844021063e-03,2.941580791465648118e-02,1.767498373985290527e+00
7.796602568925862231e-01,-1.000256798293194471e+00,7.613718244437249760e-01,-8.882618399252011770e-03,-4.676981277506398805e-04,1.549252379422434104e-03,1.770912766456604004e+00
7.760951119429806422e-01,-1.008844796792258469e+00,7.857761412741499640e-01,-6.697563640880211874e-03,-1.225898112927586645e-02,-4.976865922102479680e-04,1.789963841438293457e+00
8.199116508570594153e-01,-1.026883311522618802e+00,7.034066562844536463e-01,-9.112833718585790568e-03,6.925955613754991406e-03,-9.924253544446906897e-03,1.791578292846679688e+00
7.152233558495140198e-01,-6.884517920782913247e-01,7.412760312865549484e-01,2.788974036419125321e-02,-2.185279251483491364e-02,-6.374744162568303507e-02,1.422501087188720703e+00
1.053895398106763359e+00,-8.981446798537668919e-01,3.880806108896112661e-01,1.704183508894888677e-01,5.641618904409729796e-01,-5.206625064311361240e-02,2.001041889190673828e+00
8.738477048520961743e-01,-1.006015892377224663e+00,6.390502916382480025e-01,2.931686539769578007e-02,1.657980510785565520e-01,4.595971096129913142e-02,1.799725532531738281e+00
1.278486546221530240e+00,-1.487994427591889934e+00,3.108246017678474860e-01,2.815720602766691449e-02,4.015370888761075202e-02,-2.400992140011360132e-01,2.468385457992553711e+00
8.157297895612047878e-01,-1.007033186934072289e+00,7.028059237496141476e-01,-2.505328367865603326e-02,1.681513259259644413e-02,2.041541524781131586e-02,1.770131349563598633e+00
8.213264504729507198e-01,-1.022502900740059006e+00,6.948506692125537842e-01,-1.705828234096068430e-02,1.929094692097633318e-02,-5.296797391562249428e-03,1.784538149833679199e+00
7.058966695101871469e-01,1.193243178168901242e-02,7.082559832220580720e-01,-5.977656146148712518e-02,7.145969858534706280e-03,-1.193507542848789259e-02,7.032278776168823242e-01
8.811734221649327736e-01,-1.012559351508515171e+00,5.362902552556920721e-01,9.548526113872794763e-03,1.321169277404712350e-01,-3.132739294169257366e-02,1.762848258018493652e+00
7.881703858578061883e-01,-1.016960218473625499e+00,6.917875571960343528e-01,2.501727813474377560e-02,9.946900549935791189e-03,-2.116554783160883718e-02,1.759920716285705566e+00
6.346751752501559318e-01,-1.039949481247074869e+00,8.460343270330861198e-01,-7.995058229613945244e-03,1.923049182359226061e-01,-3.327343192399972310e-02,1.821385264396667480e+00
8.794630300329435713e-01,-1.004979678722896397e+00,5.145661511703887303e-01,1.818947237739527295e-02,4.994308994346512154e-02,-3.160843924256735021e-02,1.734393119812011719e+00
7.566202966086110759e-01,-9.381568680810600247e-01,7.849604411099290191e-01,-1.430227453511585291e-02,-1.368357645414198381e-02,1.297136608508970244e-02,1.709614872932434082e+00
7.401797390568211066e-01,-1.014353819052687511e+00,7.866250401987905372e-01,1.779285976218472620e-02,9.592131347932675300e-02,5.244349747167375425e-02,1.788529634475708008e+00
5.987155023381978136e-01,-1.011421788677065114e+00,8.653301418613567053e-01,9.146249405276149838e-03,2.518280188073502776e-02,4.817618282908481438e-03,1.759299516677856445e+00
5.533755575405387983e-01,-1.209083143272594363e+00,1.061929293977737165e+00,7.082808001808466036e-02,5.061479645062222366e-02,3.837017800216119268e-02,2.070832014083862305e+00
5.738714683777786929e-01,-1.007559871641386717e+00,8.785019004960780142e-01,1.838203516731279135e-03,2.765899862783547866e-02,2.123152284029478781e-02,1.754746198654174805e+00
6.465466871074363464e-01,-1.020902523117833693e+00,8.323344450069241063e-01,-3.115449902345438990e-02,1.041932449196822721e-02,2.245038495733840678e-02,1.769023776054382324e+00
6.455658803623138819e-01,-1.004763291869556374e+00,8.066693847339003742e-01,3.260481845121868290e-03,2.190871922780739112e-02,1.747429838986290507e-02,1.737182378768920898e+00
5.682111283109816391e-01,-1.017287825388221378e+00,8.522092346791652062e-01,-5.102438484750099201e-02,1.383804136346302727e-01,1.813601279428514457e-02,1.763798475265502930e+00
6.590720758974452087e-01,-1.228627524515589986e+00,9.837684225435195939e-01,5.310657699384561253e-02,1.675262340244820514e-01,-2.196201809064294349e-03,2.091515541076660156e+00
6.836009192946262969e-01,-1.025721043359745233e+00,8.089859841080996317e-01,-1.612314475665477254e-02,5.226950319559986458e-02,1.938882604706418725e-02,1.778181791305541992e+00
7.392498765733631627e-01,-7.589735335759755230e-01,7.205175146325502045e-01,-5.512662580242286281e-02,3.068513706634870900e-02,4.689325668020178500e-03,1.492972373962402344e+00
6.693267804617806238e-01,-4.920187916705439646e-01,6.714517129711470300e-01,-6.384566818307953195e-02,2.489184924340288180e-02,-6.003042622962658338e-04,1.168453931808471680e+00
7.566781744996292636e-01,-6.625720290410354041e-01,7.646036933393225432e-01,-9.986845857456583264e-02,-4.082021438941116007e-03,-7.027892223566183094e-02,1.438878297805786133e+00
7.630390532661821545e-01,-9.241284476468556441e-01,7.667913868143187983e-01,-1.150407950132853810e-02,1.902072817739747235e-02,-2.473164479433490048e-02,1.690028548240661621e+00
7.610495376348425101e-01,-9.987289550541478267e-01,6.999971170988903424e-01,2.499325125573564899e-02,-4.976181308779538404e-02,2.142091561309182254e-02,1.733144044876098633e+00
7.374497605156884461e-01,-1.020655693985467627e+00,7.901741780741733390e-01,1.086234018669671696e-02,-2.161029414344285086e-03,1.505472145420966995e-02,1.785345196723937988e+00
7.582753655965568385e-01,-7.533993777681172732e-01,7.078375824778500025e-01,-5.362235288445446613e-02,9.406505966617073611e-03,-5.820290442313206559e-03,1.490118145942687988e+00
7.670035468358721298e-01,-9.076186728072868082e-01,7.623048275186385947e-01,7.116302106613596121e-03,2.685262838968466639e-02,-2.201251830376205545e-02,1.673404216766357422e+00
7.606249953628112515e-01,-1.117486391857883010e+00,8.741576519180089822e-01,4.259934739748030830e-02,-1.378298669244710783e-01,1.135699214321696238e-02,1.953520178794860840e+00
6.239571452443615218e-01,-1.028147615275093241e+00,8.480569694727998487e-01,-2.466533321300613119e-02,-2.730421360710745537e-02,-1.748015980599650424e-02,1.776199817657470703e+00
8.432909493074884910e-01,-1.047602810687070285e+00,6.576105559110415610e-01,-1.709002326564432878e-02,1.253029115461725546e-02,1.996048688581242292e-02,1.805933833122253418e+00
9.707428391322661110e-01,-7.072667757623882778e-01,1.977196517491025818e-01,-1.992780244364166300e-02,1.740227623047300165e-01,-4.697110706852233863e-02,1.488221287727355957e+00
6.679385955875014602e-01,-6.147422074063813024e-01,7.329636414052489446e-01,2.210544786474900013e-03,-8.198873625892668174e-03,-8.784405542906750797e-02,1.325243592262268066e+00
7.350047038345159933e-01,-8.536406360161491458e-01,7.648149511793411737e-01,3.282812233965683602e-03,2.981440570537743917e-03,-3.438358987843778691e-02,1.604882001876831055e+00
6.646009109628018274e-01,-4.663432364153918264e-01,6.516919609669702407e-01,-4.664684176254409870e-02,1.656524901192837906e-02,-2.428010657193670555e-03,1.127816796302795410e+00
7.664450816196939353e-01,-8.425379084154968057e-01,7.371304749559222103e-01,8.812233262542667339e-03,2.002441286097666334e-02,-1.277267706458554489e-02,1.595131397247314453e+00
7.459080781605997856e-01,-8.028132080068934862e-01,7.508694622717680955e-01,-7.116080177482894675e-02,8.898319087803512745e-03,-4.577814783076784161e-02,1.558191895484924316e+00
7.231946734195677795e-01,-4.967470594919876081e-01,6.739613868180405198e-01,-2.046511186483590539e-01,1.100339309947520432e-02,-4.781197058149340429e-03,1.247677087783813477e+00
6.508242696749282352e-01,-3.711373641877341312e-01,6.886445234193080411e-01,-5.941999141968210690e-02,-2.995524972844567160e-02,-5.045745087466753376e-02,1.051384210586547852e+00
6.068835933912656300e-01,-1.631906144273358450e-01,6.728000673100938966e-01,1.320893931911771256e-02,-2.072655244705524577e-02,1.159109304671907675e-02,8.064335584640502930e-01
7.109884379880377914e-01,-7.115545925269217697e-01,8.135508126412502872e-01,-1.501611764701478446e-01,-2.926093171826383427e-02,-1.192143475526179497e-01,1.514231443405151367e+00
8.951675646248877793e-01,-7.630166091984820209e-01,3.084070516779199855e-01,6.044355513294664278e-02,-2.095930104398928961e-01,1.003370387162738631e-01,1.514548182487487793e+00
8.262336474420728383e-01,-1.002837188665779200e+00,6.457817684326947472e-01,-2.106246257832999208e-02,-1.158903485116840812e-02,-2.902581563086520378e-02,1.747073292732238770e+00
7.865261543616424156e-01,-9.967693819161267399e-01,7.696520274538023454e-01,1.178336744532915495e-02,2.474519366101545891e-03,3.416866512810791401e-02,1.776027441024780273e+00
7.752772659178739367e-01,-1.018327539519792380e+00,6.998809117442699179e-01,-2.323767492539494106e-02,-1.042136528332916756e-02,-2.251589206115764755e-02,1.758106470108032227e+00
8.690591632902554542e-01,-1.022725503936281033e+00,6.282859679176504564e-01,1.327904718817404621e-02,1.414253817529937188e-02,-3.414080468335874141e-02,1.784924626350402832e+00
1.331704604489952537e+00,-1.590755509462162376e+00,2.660409636520812970e-01,-5.541684824611770033e-02,3.486068824317818393e-01,1.082666423200920602e-01,2.640267133712768555e+00
1.455688504857794108e+00,-1.009719488363865381e+00,1.423628236856257501e-01,2.362214081382848496e-01,2.471063722987970612e-01,2.455101037667424269e-01,2.257562637329101562e+00
7.956272030657995931e-01,-9.800527866055963599e-01,7.680495161470388688e-01,-5.590457165303034347e-03,1.303329704803173755e-02,3.455994980422116315e-03,1.762234330177307129e+00
8.522544068526719530e-01,-1.024365559306046780e+00,6.072609574933219845e-01,6.880021559234767055e-03,-2.603031152657264658e-04,-4.311719778914210877e-02,1.768525958061218262e+00
8.581408280941844602e-01,-1.036593850414113227e+00,6.128034411374871926e-01,-1.347711350455841131e-02,-4.995060357493266712e-02,1.077762860176589843e-02,1.787103533744812012e+00
1.038519015563547310e+00,-1.232284191540619522e+00,4.543455568476112427e-01,-2.106378364521142854e-01,1.962873955281759786e-01,1.232897000943792981e-01,2.113185882568359375e+00
8.478772771045064438e-01,-5.332768718748075454e-01,3.711793063126617165e-01,-8.996867447120870942e-02,1.624639779098689396e-01,1.287069886660184848e-01,1.276556968688964844e+00
9.663342270340955498e-01,-2.125874456084766440e-01,6.677148171988083192e-01,-1.209346848657668200e-01,1.116516305617079943e-02,1.263860486840336951e-02,1.082455396652221680e+00
8.760420907657568979e-01,-7.516591538157932906e-01,7.153786657397507298e-01,-9.696221726504866689e-02,-5.171021388236701072e-02,-8.846583864156155885e-02,1.572710275650024414e+00
7.323018141429458172e-01,-1.423535221211842949e-01,4.992021942557709480e-01,-8.873059291630615297e-02,3.243384508952928957e-02,-1.460513607033015471e-01,8.403831124305725098e-01
1.097329322649007954e+00,-2.836885581517851751e-01,5.215809377662664614e-01,1.041510298102094473e-01,1.457835144868182067e-02,-1.424406645641818625e-01,1.240010380744934082e+00
6.208443471974367522e-01,-5.537325282853533537e-01,8.115909994007055595e-01,-1.391791042058936612e-01,-5.224174760089455444e-02,5.890899045883686569e-02,1.310256719589233398e+00
7.257379289994631000e-01,-6.632857252070047949e-01,7.019196294984815232e-01,-7.573618314665696294e-02,-1.458636186528648043e-02,2.090886023869313257e-02,1.384206533432006836e+00
7.728658508237340463e-01,-1.008968545315596543e+00,7.871692232223947983e-01,-1.099595693645403788e-03,-6.930472335780125297e-04,-6.177294907887445619e-03,1.789062380790710449e+00
6.509898914189946595e-01,-8.940411059707711328e-01,8.840571899202085415e-01,-3.690455732183358512e-02,7.003975031417553065e-02,1.339303168079576667e-02,1.679546952247619629e+00
6.805564825539935914e-01,-4.806532062730352051e-01,6.707471800449801291e-01,-6.116379512247187289e-02,-2.019289129062095192e-02,5.041470105758599080e-02,1.164982676506042480e+00
7.362003186002779032e-01,-7.598499588818978800e-01,7.186660167630952722e-01,2.646621361848715270e-02,5.508016111257251803e-03,1.117934350176829489e-01,1.500642299652099609e+00
1.168969116265272001e+00,-9.861785932505962027e-01,3.788708370856579410e-01,-4.920891370570155965e-02,3.394780143520015891e-01,1.764408652616786533e-01,2.003130912780761719e+00
8.371517878059810958e-01,-1.030250549775818980e+00,6.500543359715929004e-01,1.745875871120199443e-02,1.366250195445212895e-02,-2.216196387843373874e-02,1.782065868377685547e+00
8.181767943733532222e-01,-1.017756070904573207e+00,7.174633814734887594e-01,8.856678101831267800e-04,-3.828335811742339563e-03,-1.801878607368517099e-02,1.787990450859069824e+00
1.147434347044818725e+00,-1.134037943863106968e+00,3.225492328212173354e-01,-6.092451241270468998e-02,-9.293052920307603992e-02,9.084396055036474127e-02,2.016283750534057617e+00
7.054586553715528341e-01,-9.820867351402636780e-01,7.135882819162244761e-01,5.277799054724730725e-04,-6.871090358177511792e-03,3.491128741587337138e-03,1.691677808761596680e+00
7.284746185836403765e-01,-1.006508888034964189e+00,7.378167491564656677e-01,1.555543459776950223e-02,-1.014076339485564526e-02,1.049422481901191029e-02,1.740065574645996094e+00
5.703989695854347897e-01,-9.929407836934704967e-01,8.524520495498033590e-01,1.931308207477666627e-02,-2.254363010972541825e-02,2.623425409294197208e-02,1.723147749900817871e+00
6.943845360601730299e-01,-9.799490029905204569e-01,7.107275032828046513e-01,5.643954325627862419e-04,-1.750172609051155875e-02,-2.144921300793631476e-03,1.682842016220092773e+00
7.065184050121962045e-01,-9.818604976347998781e-01,7.133229365021717117e-01,-2.893805960701127536e-04,-2.555285324410963826e-03,-1.254749055455185898e-03,1.691798686981201172e+00
7.081237662381647535e-01,-9.830720740729850249e-01,7.133325797346374841e-01,3.451788907566463347e-05,-1.201888161381258315e-03,-2.904946301391156315e-05,1.693807482719421387e+00
6.435821011469752273e-01,-9.882382632189163907e-01,7.409173457819745456e-01,1.052457872537159930e-02,-1.024109260084063722e-01,1.613246250721672714e-02,1.692253708839416504e+00
7.043291610394902813e-01,-9.827824551261583608e-01,7.206103494312593449e-01,5.224650558291882296e-04,-7.809316682807941438e-03,-1.009039968225242291e-05,1.695365071296691895e+00
7.158573653096064193e-01,-9.866319240423474524e-01,7.141770151565559610e-01,8.961772346676727050e-03,-2.854619902291990335e-02,8.334017024947014060e-03,1.702499866485595703e+00
4.983293675641418119e-01,-1.185844880435158011e+00,1.047924829812056480e+00,8.465488202210355584e-02,-7.976649573264878168e-02,2.947795370358081458e-03,2.026012420654296875e+00
7.482883859415216943e-01,-1.006856428430830341e+00,7.328603888303892866e-01,7.481702977140026675e-03,-5.362800690002295784e-03,6.533950531611844130e-03,1.747591257095336914e+00
7.892621996527297012e-01,-1.190722165625376139e+00,7.778919688695296042e-01,-6.495311299256895099e-02,-3.307701679555928864e-01,-2.664418937892781142e-02,2.059360980987548828e+00
4.832963946404099653e-01,-1.018575800259661657e+00,9.977091590036769597e-01,8.872806614926750371e-04,-5.844158274246694096e-02,-2.053466069140104377e-02,1.817783355712890625e+00
8.321986666676588484e-01,-1.096086181725017816e+00,8.624869620345643195e-01,-8.670755501624324846e-02,-8.946467250490169887e-02,-1.051775842366895614e-01,1.964015722274780273e+00
7.103506178735705667e-01,-1.021116121760806017e+00,8.031174447123770044e-01,-6.133403761270234296e-03,-1.306710273931035657e-02,1.550776388225103691e-02,1.780042648315429688e+00
6.403823624750721866e-01,-1.001733536171486749e+00,8.060676494886356291e-01,-2.329237683671544351e-03,-2.542524632561439860e-02,1.783717804309502969e-02,1.731756567955017090e+00
6.343463821160288951e-01,-9.874828784862266229e-01,7.887613340344254986e-01,9.425449319332023304e-03,1.723119330588164869e-02,-9.407463989099595220e-03,1.704708695411682129e+00
5.681877810150635089e-01,-9.906394720028415257e-01,8.129587563335471945e-01,1.714177105953135910e-02,7.846561401231980093e-02,-1.239606205853690385e-02,1.700359940528869629e+00
6.492719506443473954e-01,-1.001304608989847855e+00,7.920661756779154850e-01,-1.201015478627625102e-02,2.486833557376963433e-02,2.664286307705670404e-02,1.727687358856201172e+00
6.332688658484806332e-01,-9.898466434282735538e-01,7.939248398204890034e-01,-9.880543246071543662e-03,2.040222659455857152e-02,1.057774702677645277e-02,1.709665060043334961e+00
6.809362276802597425e-01,-9.936167042446368836e-01,7.474372446075533416e-01,-7.909797636968451603e-03,1.047792702466959769e-02,1.300200356783009874e-02,1.709073901176452637e+00
6.720953401312852460e-01,-9.857288157190323696e-01,7.499073875613223583e-01,7.501191294226069659e-03,7.185439658356010395e-02,-1.550214249386570008e-02,1.702883839607238770e+00
6.894136958290759676e-01,-9.851017476666861228e-01,7.419916004159703427e-01,1.435655982668505685e-02,1.238069412214806361e-02,-7.546558538464834438e-03,1.701780796051025391e+00
7.028397233294428892e-01,-1.026900108599275052e+00,8.204888094583371316e-01,-1.971896784236917832e-02,-2.982549399885446248e-02,-2.227575973619630098e-02,1.792949318885803223e+00
6.895322401647916433e-01,-1.027247337557405826e+00,8.326272334389865915e-01,1.663435708050187145e-02,4.924064101210503218e-04,-2.191244927494979435e-03,1.792851328849792480e+00
7.257627758902218673e-01,-7.324177394896008719e-01,7.148015298526547712e-01,-3.817801583328442327e-02,2.981576153626786310e-02,-2.099665306610572491e-01,1.499908208847045898e+00
7.548397800680239911e-01,-1.004571824987838369e+00,7.166067212851424673e-01,1.899608766745855548e-02,5.994873599782692131e-02,6.742328030699772275e-03,1.744053840637207031e+00
7.891940358490570073e-01,-1.033004511763699673e+00,7.692719852582624585e-01,1.005162232640803566e-02,-6.945463544897455960e-03,6.714814942979957513e-03,1.812480449676513672e+00
7.838314419946079692e-01,-1.012239304289642483e+00,7.549286271565399664e-01,1.607306871454433281e-02,1.428942976193342844e-03,6.160356902709098956e-03,1.782046318054199219e+00
7.904949097229672095e-01,-9.658052945025745739e-01,7.528905632505422663e-01,-8.024470040279720441e-04,-9.450390893918166405e-03,1.539682459918292196e-02,1.738085389137268066e+00
8.080786721465507139e-01,-1.016125211967568553e+00,6.589238829814805243e-01,2.019515765981500649e-02,3.080366927505522046e-02,-1.059614997731732865e-02,1.755643844604492188e+00
7.867885935714553636e-01,-1.013733385270463749e+00,6.968468272248797835e-01,2.556042385748477641e-02,1.153888976654528047e-02,-2.077824952988737567e-02,1.758317828178405762e+00
7.376047429568287628e-01,-1.217043638492752988e+00,8.485823079781744660e-01,4.517238392899650123e-02,1.065035579677640343e-01,6.300979207852155928e-02,2.025326967239379883e+00
7.858833889047537324e-01,-9.944565091525378042e-01,7.767100553102631588e-01,4.995068334760962951e-03,-1.426994175486468938e-02,1.458092334706764066e-03,1.775965929031372070e+00
7.806445015884001526e-01,-1.039181887325080877e+00,7.789758074679108413e-01,1.027009392425377313e-08,1.816144614639501409e-04,3.456921119296265743e-04,1.818992733955383301e+00
7.746350344060994875e-01,-1.037649272575375647e+00,7.796784276082341369e-01,-2.519575870866003469e-03,1.970257437888953611e-04,3.439859049256820166e-04,1.814816594123840332e+00
7.806333718966249613e-01,-1.040428326286640948e+00,7.808183732577800296e-01,-1.835194484600785234e-04,-3.999473559644936053e-08,9.363613152805589594e-04,1.821154952049255371e+00
7.810127056556134262e-01,-1.040007292975222430e+00,7.804602465751541152e-01,1.290955142444762897e-04,-2.333833901743901339e-03,2.477017691041073083e-03,1.820753335952758789e+00
7.813512752297413488e-01,-1.034590232489553507e+00,7.726198385295370841e-01,-5.801112325615813588e-03,-8.772339826319155553e-04,3.062597771925589223e-03,1.811627864837646484e+00
7.737146343424121664e-01,-1.037093723922343225e+00,7.747509060615556109e-01,-6.453042893633622375e-04,9.689545396691570797e-05,2.198549713612667385e-03,1.811331033706665039e+00
8.660769770617480212e-01,-1.135402623005820066e+00,6.508069768943183231e-01,-5.042746026021661943e-02,-2.452458701347749737e-01,-6.435071830896693656e-02,1.954965949058532715e+00
8.221817346101912838e-01,-1.306896953311093901e+00,5.081502073168359113e-01,8.321664280033400085e-02,-5.539480342287063097e-01,7.988705511425811534e-02,2.218894004821777344e+00
8.582779838523897364e-01,-1.339428165343100385e+00,7.021140720256325851e-01,-5.592017329792894204e-02,-6.637517458165049788e-01,2.024078019303448828e-01,2.442352294921875000e+00
7.912627752529599601e-01,-1.139572687225755665e+00,4.982942939468300581e-01,-1.508399651746358990e-02,-4.873013152909528856e-01,-2.835602450061656954e-02,1.990920543670654297e+00
7.960563251340706525e-01,-9.837328848369830681e-01,6.084507030378502046e-01,-5.709365551499293381e-03,-2.165275051962236436e-02,-3.775126200097217184e-04,1.694240808486938477e+00
1.687834502476897258e+00,-2.045909600607800805e+00,3.649409680235609632e-01,-2.710421009406412812e-02,-4.161547718034643295e-01,-1.338990114022184374e-02,3.357654333114624023e+00
8.877428644349363296e-01,-1.029902892958554972e+00,5.983394206577197227e-01,-1.453985081054958578e-02,-6.234426632206285963e-03,-3.158505650797571035e-02,1.791616559028625488e+00
1.377497452168745751e+00,-1.193974812756703141e+00,2.620612632682179921e-01,-7.089491903103162240e-02,-1.901062391271939878e-01,-1.141885761803690044e-02,2.261027336120605469e+00
8.906967412772857084e-01,-9.912174870419783179e-01,5.856832223233503498e-01,2.500791013273109820e-02,7.951569620448442621e-02,-3.777058604598684810e-02,1.756630182266235352e+00
1.028647578295468490e+00,-1.027660925149614268e+00,6.420224522591031491e-01,-1.196866920998835605e-02,8.816162916872860578e-02,1.167188382724616003e-01,1.909837722778320312e+00
8.836696296603490097e-01,-1.015324729777677293e+00,5.701617346724348057e-01,1.789531564567444985e-02,3.290644584463412597e-02,-1.905584607216224014e-03,1.764465093612670898e+00
6.832209355204885703e-01,-6.358620075447285469e-01,7.301182935437680044e-01,1.698625862846948192e-02,1.467696146503291808e-03,-8.211967663848038224e-02,1.350978732109069824e+00
9.455295241746127788e-01,-6.210203548204377144e-01,2.263920790695949092e-01,5.719479385309592101e-02,-5.736265140205627777e-02,2.323152816601544990e-01,1.423470735549926758e+00
1.173131640163192824e+00,-1.179562872793582073e+00,4.001851729853281858e-01,8.765947302648749440e-02,1.004256545604119422e-01,1.387829677772141612e-01,2.103616237640380859e+00
8.068626857014102871e-01,-5.326507654489123222e-01,2.717284534529688100e-01,-6.941071771222361020e-02,2.424734629078096615e-01,2.439737433527132127e-01,1.316529035568237305e+00
1.125179659220945094e+00,-1.353316438595840721e+00,3.538436547779993946e-01,8.462764634563059440e-02,-2.692341403065413585e-01,2.560227018387544184e-01,2.293848037719726562e+00
1.031370229818722173e+00,-1.014135549099869138e+00,5.167505410492172491e-01,-3.455048940336086227e-02,2.883123690309694065e-02,2.908678582918210187e-02,1.845232486724853516e+00
6.602210672861446028e-01,-4.693782737159939433e-01,6.611636853080393728e-01,-2.880878043345209971e-02,-1.701424118113909270e-02,-1.566216695235680967e-01,1.163619160652160645e+00
7.207020915075935674e-01,-9.951296895631306372e-01,7.250796816965418001e-01,9.169158822428701483e-05,1.179192083350568115e-03,6.841811890436874568e-04,1.718026399612426758e+00
7.235713410024018355e-01,-9.954638475852215507e-01,7.202987241046165945e-01,9.109412021116984354e-04,-5.212480964699056987e-03,1.002861009897869013e-02,1.717513561248779297e+00
7.419813993017658760e-01,-9.978177528067236901e-01,7.218236179434505129e-01,1.039231583858423943e-02,-1.655380612235696084e-03,7.447012228933009952e-04,1.729904890060424805e+00
7.231900209235959665e-01,-9.928126026052799258e-01,7.316665807669948673e-01,9.875128412717662507e-03,-1.787915922326134555e-02,1.254859296634775953e-02,1.720757603645324707e+00
7.417975691902592983e-01,-9.868887499005600805e-01,6.903169818463035234e-01,1.018662428182955451e-02,-9.030642236983766127e-03,7.435005414370087461e-03,1.703741312026977539e+00
7.654393114208229987e-01,-9.969398878455884017e-01,6.785004151238421821e-01,1.724186023614234647e-02,-1.364201438812519089e-02,-8.471042303807598244e-04,1.720979928970336914e+00
7.467486787341018895e-01,-1.018286373060265149e+00,7.693813481273256150e-01,1.188916230991547869e-02,-8.494833452848658123e-03,1.337980195812863912e-02,1.776790976524353027e+00
7.163034132734327208e-01,-7.484019088347315662e-01,7.226625593752239451e-01,6.691188773129921885e-02,-1.951621725350848047e-02,1.407082246196155080e-02,1.473052859306335449e+00
9.202995290569155884e-01,-2.082378162433976554e-01,7.334591351617708588e-01,-9.699885552064388405e-02,-1.980720216737367201e-01,-1.319564743319933120e-01,1.138336896896362305e+00
6.135053801758312275e-01,-5.322680357703263310e-02,6.715130462352078000e-01,2.374690144416803650e-02,1.933303571084754938e-02,4.487168521865830123e-02,7.038648724555969238e-01
7.497885283200371731e-01,-8.434099436004118822e-01,8.184718840950673258e-01,1.613348253952048283e-01,1.765908940137653552e-02,-7.787418882632146655e-02,1.658203959465026855e+00
7.872139204168999704e-01,-8.693276551608601910e-01,8.203259166875405128e-01,1.631906417301171586e-01,4.149674428761783440e-02,-1.378839141897508225e-01,1.715276479721069336e+00
8.116162445933244873e-01,-4.710473189659312721e-01,6.850106642991988792e-01,1.770174278305820526e-01,1.153222983179263139e-01,-1.322761667797404672e-01,1.298174381256103516e+00
9.011269312225475003e-01,-1.200131354931526007e+00,8.234097747146625901e-01,1.100248753156098450e-02,1.234727820007213706e-01,-7.300207925607746229e-02,2.078487396240234375e+00
7.884597207167680644e-01,-1.032644259967083089e+00,7.868906597667256753e-01,-1.790284675452369009e-03,1.654172555776536532e-03,1.570400814259267442e-03,1.820326924324035645e+00
6.516925417502481555e-01,-3.400988776183615503e-01,6.370403052381709008e-01,-6.880620052631719608e-02,1.712535734062551468e-02,-4.129019645094559460e-02,9.947513937950134277e-01
7.899100760019741596e-01,-1.019332193824868948e+00,7.794854758133065165e-01,1.833094577016291908e-03,2.549025802316991392e-03,3.696593819409000475e-03,1.804072141647338867e+00
7.886616392402634457e-01,-9.971607718160764300e-01,7.762015240991992915e-01,-6.525427219113685839e-03,3.426500855230692547e-03,5.407948434827376891e-04,1.779671072959899902e+00
7.836320633402323876e-01,-1.037704698011781224e+00,7.788346543568428482e-01,1.812894612440362320e-03,2.556460413702486313e-03,1.241902755600376562e-03,1.818952202796936035e+00
7.992383434868137737e-01,-1.016117153635543779e+00,7.791091189961567576e-01,5.829963196985697357e-03,5.092514385438340341e-03,-2.741188410791992416e-04,1.805424928665161133e+00
7.577783816095344793e-01,-1.026259404416180576e+00,7.974782943047945549e-01,-9.628309927875581750e-03,3.729309238432161155e-05,1.170673669392420513e-03,1.804293513298034668e+00
9.468396880363172396e-01,-9.322485154604592816e-01,3.881657988849397944e-01,-3.638660600532796913e-02,-2.274964844488316373e-01,-7.833935648484090242e-02,1.723641037940979004e+00
1.276215404662746522e+00,-1.352907656507736700e+00,3.114382745123219220e-01,-2.104801135639507159e-02,-2.054208217623706978e-01,2.302597305521087434e-01,2.365067958831787109e+00
1.363682536837227399e+00,-2.035094676769383160e+00,4.960993270370411823e-01,1.200976927026854713e-01,-4.423008044914679138e-01,-9.605302644852962285e-03,3.160079479217529297e+00
1.157295586595364023e+00,-1.150080858018087016e+00,3.085368189752544232e-01,1.887992724071408529e-02,-8.781350449533908975e-02,-8.741831795986532150e-02,2.033002853393554688e+00
8.413911186741426240e-01,-1.033339304409079951e+00,6.877460171573158698e-01,3.076714267416880665e-03,-2.438005862490001327e-02,8.338725386919206700e-03,1.803385138511657715e+00
7.600238258363114507e-01,-8.260445485293090861e-01,7.407966330659208065e-01,2.383422582728290939e-02,-5.174449265508179047e-03,4.587130177614857918e-02,1.579108595848083496e+00
7.909282639076243848e-01,-9.839512449874083799e-01,7.748075047430308393e-01,5.892946507237400555e-04,3.444228923946037434e-03,-6.412912544563612038e-02,1.770372509956359863e+00
7.928054446697453406e-01,-9.868909194471542357e-01,6.144178616383368929e-01,-3.603647927962737654e-03,1.852964325941208051e-02,4.953972061999283374e-03,1.697883486747741699e+00
7.730541936003293424e-01,-1.223173491364394572e+00,7.517780774699892588e-01,3.607105584651932456e-02,3.131464769639443757e-01,8.749389239668337037e-03,2.059422492980957031e+00
7.891578533952136043e-01,-1.021440211180616897e+00,4.866947010098369164e-01,-3.972677046077443055e-03,2.576569053765546680e-01,1.693356659319869215e-02,1.738441467285156250e+00
8.659835368265355049e-01,-9.971524386540816520e-01,5.247989888869152297e-01,-2.365351769043322339e-02,3.811565648751306240e-02,9.671750440283871653e-03,1.719978690147399902e+00
8.275309191448095847e-01,-1.139045298551922381e+00,6.519394123763267990e-01,-5.916934744705943522e-02,1.536332292144504674e-01,3.365840975490604070e-02,1.907262802124023438e+00
8.510492923435619694e-01,-1.130450371446073410e+00,6.217668533783794471e-01,-1.055974242086472371e-02,1.620477626383988179e-01,1.043006715533893181e-01,1.906918168067932129e+00
6.172368528123598486e-01,-9.870809937318438809e-01,7.503188753827381152e-01,-1.298265195557369092e-02,1.513789246811866329e-01,1.014866692280752894e-02,1.695468664169311523e+00
8.789868732511639804e-01,-1.045076409009514373e+00,5.729298308848753685e-01,7.757977714147080983e-03,-1.139660463049523564e-01,4.649558111098037877e-02,1.803454518318176270e+00
1.168855125455021460e+00,-5.465789648766778974e-01,4.133945007661886661e-01,1.376324448520140353e-01,-5.869073499325277998e-02,-6.821276627274064364e-02,1.516117691993713379e+00
1.003552750108139380e+00,-1.005644666008399302e+00,3.910775004075398575e-01,-5.354995220121990668e-02,-2.176941888796975755e-01,-2.846113536328505056e-01,1.890820622444152832e+00
8.812261769090006247e-01,-1.012739327801309486e+00,5.215569270014572822e-01,1.765029009220853151e-02,-4.793138681362480585e-02,2.636868425189086568e-02,1.745044112205505371e+00
7.875185149432815113e-01,-9.930068499526478742e-01,7.968954579617905098e-01,1.908946306842955465e-03,-9.043044142754818465e-03,-3.137894756813385672e-02,1.786131143569946289e+00
1.512376027238073517e+00,-1.326647290590114769e+00,5.200713457069308654e-02,-8.450614447658442996e-02,-1.244819018196179072e-01,-5.893160094659473380e-02,2.474881649017333984e+00
1.109951493051864357e+00,-1.200920869261596025e+00,4.263819089586056155e-01,-3.802387625672395965e-02,3.155689366510042171e-02,7.530429178523230516e-02,2.062060594558715820e+00
8.180534540088728601e-01,-3.991422419333299776e-01,4.183743892867087255e-01,-7.050159226597525752e-02,-1.879305607028051717e-01,-5.521948422056885408e-02,1.133505105972290039e+00
7.974985579134508118e-01,-9.991195110954222969e-01,7.159897875096163933e-01,6.808165419773234972e-03,-1.471658388636806151e-03,1.027488858031046920e-02,1.757413506507873535e+00
3.471853907254134342e-01,-6.587365302395953304e-01,1.092121171161201332e+00,2.468493960672769050e-01,-6.824643630189598797e-02,-1.186557580857628968e-01,1.598489761352539062e+00
6.161354314336819904e-01,-3.598813730504785147e-01,7.006826564610808550e-01,2.031905342693748340e-01,-1.436695738279434309e-01,8.133806591830122779e-02,1.117097258567810059e+00
6.529197632574300636e-01,-6.586729527846755250e-01,8.323052540627778884e-01,1.363049564408715941e-01,-3.773197367686610404e-01,2.043353968480647164e-03,1.571812868118286133e+00
2.701639250741341147e-01,-6.962537835594347913e-01,8.976868759418982213e-01,2.453672821155091777e-01,-3.062252158818025705e-01,4.423841671031636391e-02,1.549840450286865234e+00
7.233271686709612514e-01,-1.021518774355404835e+00,7.997543794293779928e-01,3.137918957202762323e-03,-1.247678260373025552e-03,-1.596980420834330505e-02,1.784511566162109375e+00
5.145786291808259749e-01,-1.113211843140723634e+00,1.067665641323518599e+00,5.338172811087722042e-02,-1.698362570199835747e-02,5.051075644811942739e-02,1.967990040779113770e+00
7.040541417801446933e-01,-1.008674936895794794e+00,7.795772003450215371e-01,-1.290565473362535395e-02,9.970223092073573004e-03,1.762946795547569098e-02,1.752205848693847656e+00
7.193054699350601711e-01,-1.009985682640244464e+00,7.992777273312444697e-01,-2.723270725021156857e-02,2.270109736014419219e-02,3.191501685824265494e-02,1.772558927536010742e+00
7.123291978293528892e-01,-1.006197731557108899e+00,7.809279791133109105e-01,-2.734018029906937208e-02,5.059949234615382894e-03,2.641684219386299104e-02,1.755090355873107910e+00
7.062198005387340105e-01,-1.020446851828997747e+00,7.963048953398090823e-01,5.815657917439315608e-03,1.800823522419856687e-02,1.418945398957923223e-02,1.773899197578430176e+00
7.722304561058872530e-01,-1.033937898220801177e+00,7.918113758755679354e-01,2.759277058613493917e-03,-4.453119077347880012e-03,3.946603114690266749e-03,1.816073536872863770e+00
7.078893448681895517e-01,-1.005579471846961281e+00,7.609994705636212720e-01,-1.535975283387931364e-02,1.197465063041346957e-02,2.289317294204423411e-02,1.741410017013549805e+00
7.293290678553860928e-01,-1.010810387948881006e+00,7.594438301925654500e-01,-8.003916298351126599e-03,3.397934043446528517e-03,9.305893734812682033e-03,1.755529165267944336e+00
7.885293604228416076e-01,-1.010815376955390699e+00,7.795807925946118822e-01,1.202788910467156129e-02,-8.809989575403671599e-03,-2.570995535630069342e-03,1.795078516006469727e+00
6.190171157973127780e-01,-9.858900233545038194e-01,7.892993215792138972e-01,-1.661086175061485259e-03,1.725013119106334758e-02,3.370212651486213969e-03,1.696745395660400391e+00
7.607697063760812117e-01,-9.947306748940738519e-01,6.722367616412321389e-01,1.790397056530248707e-02,6.944632038959253073e-02,-2.315273520556651241e-02,1.717916846275329590e+00
5.695259103460151850e-01,-1.250325017702081931e+00,9.901841137416571570e-01,1.152826981292753503e-02,2.412950527063954520e-01,-8.064273342241577366e-03,2.104663848876953125e+00
7.628910987766663876e-01,-1.013812119213129526e+00,7.288877262333300910e-01,1.690745041752039768e-02,5.078489499279993657e-02,-2.316198639248344751e-02,1.762844562530517578e+00
7.470906058449594545e-01,-8.614052046138235275e-01,7.458151739096386956e-01,5.466733407848498039e-02,-9.888652338097006500e-03,4.544644822404651785e-03,1.610754370689392090e+00
7.655265678700059473e-01,-8.870916162247252101e-01,7.473303388901096911e-01,2.119184936054994972e-02,-1.495812484815169617e-02,-5.600728137927661610e-03,1.644238114356994629e+00
7.707037661211989521e-01,-8.626429139755192876e-01,7.416847392885740353e-01,-8.506769319745397656e-03,-1.844750739554896352e-02,-1.388008672737680270e-03,1.619416356086730957e+00
7.394008640426441570e-01,-7.585150205001431889e-01,7.174602188803527181e-01,3.894778360298676440e-02,-2.678136843893044391e-02,4.683163834152818603e-03,1.489340901374816895e+00
8.606244093825847763e-01,-1.024148160704496435e+00,6.211965990301075990e-01,-8.591674205766810374e-03,-6.771408414747087830e-03,-3.223350854400720139e-02,1.778173923492431641e+00
8.796129779256763870e-01,-1.028533045597984197e+00,6.081577950266978672e-01,1.703194522011449233e-02,-2.291660174708875022e-03,-2.730480619862862141e-02,1.788814067840576172e+00
8.787121497397734071e-01,-1.015588152490144669e+00,6.073655428622144470e-01,4.162890191691239958e-03,-6.502790555453484035e-03,-3.438551849341092703e-02,1.775307416915893555e+00
8.317862126089876629e-01,-1.022854663800682573e+00,6.494830882263297189e-01,-2.251320734503214557e-02,-1.085039543548076309e-02,-2.472618673478051143e-02,1.771589159965515137e+00
8.739214657415523835e-01,-1.009747879092006473e+00,6.037131704205829230e-01,-4.245568721963128081e-03,-9.421513708931572584e-02,6.342788631157800228e-02,1.775103569030761719e+00
1.316017863050307657e+00,-9.988059016196462192e-01,1.846477715372364936e-01,-7.592955222466717113e-02,-1.841721979911716267e-01,1.636800350171903617e-01,2.053999185562133789e+00
1.079652352086970302e+00,-1.096246958608134925e+00,3.843562610729114315e-01,-2.645775730037565679e-02,-8.232058971959010235e-03,-6.327157058920492017e-02,1.928572893142700195e+00
7.144906136024827825e-01,-7.390166285246725364e-01,7.354018148536465294e-01,3.522848188610524199e-03,2.229401006084674036e-02,-2.036075326652463449e-02,1.465021252632141113e+00
7.102098686459650256e-01,-6.185829982353516776e-01,6.692729920099489416e-01,5.992688321012129560e-03,-5.098498395631302811e-03,-4.466381252252937112e-02,1.311159729957580566e+00
7.131691852344098637e-01,-5.393158116777786448e-01,6.647431851896749011e-01,-3.607056972911121262e-02,-1.438559823807304336e-02,-1.862124339173433529e-04,1.230826973915100098e+00
6.281031751566461541e-01,-1.510016388661922226e-01,6.250988228698384219e-01,2.374701354735537367e-02,4.098619079813703783e-03,1.569627758134047729e-02,7.792007923126220703e-01
1.076484462735083802e+00,-1.770706217227214774e-01,7.939279460771997421e-01,4.420971349695800023e-02,-9.865627338386553924e-02,-3.294705638604562142e-02,1.155576705932617188e+00
6.212885626681285967e-01,-1.006698173943764152e+00,8.632065109564810435e-01,-2.499387490960556721e-02,-1.951993214359293294e-02,-3.048371631487912722e-02,1.763096451759338379e+00
1.210463427061821418e-01,-1.497334613888436250e+00,1.671816020012404591e+00,2.111793686885174159e-01,-1.737472651911280697e-01,1.543691781302074795e-01,2.798146486282348633e+00
8.956227656893239741e-02,-9.844077988847859118e-01,1.446559957692108878e+00,1.845264174917682076e-01,3.999996952955540280e-02,1.246725137866066535e-01,2.146114826202392578e+00
2.360373280293468212e-01,-1.808541477278850396e+00,1.728112886482890742e+00,3.051332130850714641e-01,2.424664043193640039e-01,-7.788863771070821118e-02,3.151372194290161133e+00
5.150246031741192443e-01,-1.106090116402155488e+00,9.525361921557897738e-01,2.112793016657790388e-02,-4.195350395017833911e-01,1.341571863263760489e-01,2.027818679809570312e+00
1.077582345205267744e+00,-1.182773842084515081e+00,4.132747275762167494e-01,-1.541166764590379788e-02,1.836241284756446324e-01,2.827175376902078038e-03,2.037359237670898438e+00
7.542670071593137182e-01,-1.022025712533159103e+00,7.555003444710056693e-01,-4.492005761168546031e-03,4.503295297654313564e-03,3.344588173920353714e-03,1.776953339576721191e+00
7.680705792553341738e-01,-1.023535164479459691e+00,7.543742818057501687e-01,-8.544326513999788569e-03,3.740595891861131159e-03,2.660129103724208702e-03,1.784876108169555664e+00
6.958200844076971592e-01,-9.838748952065956566e-01,6.927931878658495357e-01,-9.415431295816704613e-03,5.843680212364896209e-02,4.630419935570607298e-03,1.681331276893615723e+00
7.356939922118272968e-01,-9.816615300874937944e-01,6.076109250514014626e-01,-1.138930886917985039e-02,1.286501421356462671e-01,1.632329396903705807e-02,1.672301411628723145e+00
3.427727230976265194e-01,-9.879945776570839833e-01,9.685142725252227081e-01,-2.675101098233894845e-02,5.220817280140012395e-02,5.442657924225960571e-03,1.733673334121704102e+00
8.246225952457116870e-01,-1.008772581773079269e+00,6.393468095398531226e-01,-7.084728405951522603e-03,8.486559934291921029e-03,-7.273510692386724735e-03,1.748286724090576172e+00
2.751939738768360844e-01,-1.170258953974168348e+00,1.195842834179316805e+00,8.854941318641390557e-02,-1.339621358244617588e-01,3.045897021581453132e-02,2.085144281387329102e+00
7.837119797728722137e-01,-1.684091346974321723e+00,8.948040308360549755e-01,2.804748390400034763e-01,6.291556111962884890e-01,8.040111982614905894e-02,2.796327829360961914e+00
5.765689921498118320e-01,-9.989959183966947709e-01,8.186828069176381728e-01,-3.405845014847709573e-02,3.392469709475530448e-02,2.804358022675886714e-02,1.712244629859924316e+00
5.764035760113821460e-01,-9.826162317769637777e-01,8.082456053274063024e-01,3.982195742494517264e-03,4.450735133941780691e-02,4.563662526942947190e-03,1.688725113868713379e+00
4.914585955535807349e-01,-1.022919405141856197e+00,9.081907520665017941e-01,-4.719452491830930518e-02,5.281836143955874821e-03,-5.436157809790994298e-04,1.762062191963195801e+00
7.570011762924776511e-01,-9.895843178731736911e-01,6.707006123879711845e-01,-1.258540747375208602e-02,6.730046099732057974e-02,1.453969181048542225e-02,1.709378480911254883e+00
8.404235009459691819e-01,-1.024445969818492008e+00,6.828439434370758843e-01,3.842205548111109464e-03,6.066227442441367822e-03,3.447088634048033062e-02,1.792323470115661621e+00
7.931138802010146982e-01,-1.020255678500322727e+00,7.830846341284543044e-01,-4.020922994379628676e-03,3.777475068957181735e-03,-7.813012911108996664e-03,1.808451652526855469e+00
6.719767464505521648e-01,-5.092719636432561092e-01,7.089112175135336980e-01,-2.911016709180413303e-02,-5.076117460847868329e-03,1.683715834012308177e-01,1.236126184463500977e+00
8.745687270456341533e-01,-7.636086780157016474e-01,6.480148247509915915e-01,3.352695510303761728e-02,2.263491027922586579e-02,1.574100262479097290e-01,1.563028931617736816e+00
8.373258950935283940e-01,-1.021587798748611275e+00,6.780559597428357232e-01,5.574053013976483853e-03,-2.071700781819642116e-03,1.759008027575118330e-02,1.784906744956970215e+00
7.691792137572183163e-01,-1.010216481691626145e+00,7.720326939422653689e-01,-9.175654825964181917e-04,-1.044996515890058721e-04,3.038168306786061886e-04,1.780824899673461914e+00
8.152701419263415072e-01,-1.017746762491619217e+00,7.215535565357120706e-01,8.393274604862391991e-03,5.713668015189350517e-03,-1.823376142066516006e-02,1.788366913795471191e+00
7.994181298547304859e-01,-1.017883299019672894e+00,7.815217173962240027e-01,7.355259907841724815e-03,-4.346432924596989149e-03,-7.587777110660257410e-03,1.808527946472167969e+00
7.798986548906827743e-01,-1.037652862627262751e+00,7.826017505327994561e-01,-3.062113053283098624e-04,2.369875844616816177e-03,-4.830790914321276414e-03,1.818928480148315430e+00
7.823529490053680036e-01,-1.038435357193862929e+00,7.810085909067612242e-01,-2.803877146537451202e-03,1.346482510852405490e-03,1.009566451370478906e-03,1.820125341415405273e+00
7.681126827675058832e-01,-1.026902003403953989e+00,7.854667268393635826e-01,-7.232764543956906461e-03,-3.142587221111904899e-03,-1.574368015604711568e-03,1.803808093070983887e+00
7.786304099978534898e-01,-1.037601301759492056e+00,7.814724113446865905e-01,-4.420263807095295774e-03,2.269092954421863921e-03,9.283170680411680867e-04,1.817675471305847168e+00
7.860859871784209307e-01,-1.025811143335614073e+00,7.816653720361493862e-01,-3.125734363493253964e-03,1.128108716688709309e-02,-4.413375611691743543e-05,1.809804439544677734e+00
7.807209677794322289e-01,-1.028430858563927464e+00,7.873540404528378556e-01,-1.013495523042193432e-03,1.088871418985079900e-02,-4.022876406953923567e-03,1.812589883804321289e+00
7.725253383868675439e-01,-1.034261741288200254e+00,7.794296554842916613e-01,-4.685960163975984132e-03,7.418559329589385432e-04,-4.684114174188640581e-03,1.810285925865173340e+00
7.854623838602520225e-01,-1.039211432179265371e+00,7.838609222590833259e-01,-7.694665668117826310e-04,4.554839757152262525e-03,-3.386478935413159315e-03,1.823900580406188965e+00
7.534750105858307734e-01,-1.022770112142366461e+00,7.681164300752343355e-01,-1.104309154307332730e-02,-7.851285072925744818e-03,-1.412093747321417972e-02,1.783932924270629883e+00
7.248806097549900240e-01,-6.432742041935418653e-01,6.776429260929440757e-01,-7.446386799470347539e-02,-1.199080503416511193e-02,-3.440719913629467289e-03,1.351499915122985840e+00
5.255700427464836677e-01,-9.927133617487412520e-01,8.677669833418625300e-01,-6.538085506887669762e-03,-2.346778759430187544e-02,1.642408229992760229e-03,1.715699195861816406e+00
6.696724437863861290e-01,-3.558982897657541611e-01,6.433786502782552486e-01,-8.709733943119803146e-02,-4.406867617190089910e-03,2.467492799175770302e-02,1.024774670600891113e+00
7.085280099205474302e-01,-6.204825100236031066e-01,6.862187971629787331e-01,5.897544528814243486e-03,2.119857439390838115e-03,2.445780814222891716e-02,1.318722844123840332e+00
7.230973653940064860e-01,-6.307378681739250759e-01,6.919632762485634636e-01,-6.249483818602343671e-02,1.310500742553778568e-02,-2.015070598611036490e-03,1.343105673789978027e+00
6.661820966417840717e-01,-5.104524492579889383e-01,7.147108227940135450e-01,-9.084436667067576077e-02,3.452644027247775372e-04,-1.024200292613974134e-02,1.212022066116333008e+00
7.245877998773293527e-01,-6.302558015521972923e-01,6.793569701986226228e-01,-6.201700941582612148e-02,1.310206722981107665e-02,2.894528570934413406e-03,1.337327480316162109e+00
7.857621457849259805e-01,-9.100402867188898126e-01,7.459959444086966540e-01,-8.576594181798860572e-02,4.446291122945766200e-03,-2.142971541739645790e-03,1.682864308357238770e+00
5.367537894063235671e-01,-1.021647373820308013e+00,8.938012746514353291e-01,-2.108614052622609925e-01,-3.394528157948910607e-01,-1.117594539247928620e-01,1.905009984970092773e+00
6.084284543856648408e-01,-1.072491554849274831e+00,6.234252187275088897e-01,5.712636448546472290e-02,-5.198526518026680421e-01,2.319938123213239473e-02,1.916525602340698242e+00
4.608342916117105226e-01,-1.070641702920706484e+00,9.221354460675961207e-01,5.775633251650833661e-02,-3.401657588181178915e-01,-2.664529940807840516e-02,1.903671383857727051e+00
4.857267042547573355e-01,-1.024473443436218156e+00,8.968145316510883758e-01,5.574312161971951146e-03,-1.110623216183254103e-01,1.205440416605806780e-02,1.762968063354492188e+00
4.933170135516000698e-01,-1.003380178821480229e+00,8.375544755931205732e-01,2.655740025638251428e-02,-2.002966492013416588e-01,2.903224764419855969e-02,1.731710672378540039e+00
6.050628316082991009e-01,-9.765834609266199617e-01,7.066598111520997483e-01,-1.611576850769596767e-02,-1.546387551090577794e-01,-1.427887736681809384e-02,1.657029747962951660e+00
5.596794210403323033e-01,-9.820469973494049265e-01,8.198787627881204410e-01,-1.341158187981794257e-03,-6.213099425051708813e-02,8.295963944913348903e-03,1.690435767173767090e+00
9.214970163038832540e-01,-1.104282073345488557e+00,5.108748533989929674e-01,-7.977982711166068525e-03,-2.271082213090427904e-01,-6.181793128395871723e-02,1.899197578430175781e+00
4.180470270347130812e-01,-9.940959082777000022e-01,9.345255348468710643e-01,-2.510001814008226695e-02,-1.726350040052024998e-02,-7.567374699104710729e-03,1.730085253715515137e+00
4.623962420456191880e-01,-1.100905460420575910e+00,9.317088907008491683e-01,-7.571765285346068741e-02,-1.088224146555326899e-01,-2.653298574619041700e-03,1.857576727867126465e+00
3.897723286213443661e-01,-1.210376224859270877e+00,1.007891999729476185e+00,-5.009881393821001561e-02,-1.282674921190916639e-01,-2.995462520301018366e-02,1.997801184654235840e+00
4.876384369060431934e-01,-1.022203902885481019e+00,8.925893816151281301e-01,-1.955035448830447133e-03,-9.656808949529419039e-02,-1.406871822041131682e-02,1.756018996238708496e+00
3.480938513100817477e-01,-1.260558713852198531e+00,1.161417248075660380e+00,-3.490993940192153172e-02,2.260421399841379408e-01,5.770597789592262156e-04,2.171302556991577148e+00
6.167205662289205748e-01,-1.072756620422769425e+00,8.851390713975657576e-01,6.659245498809204800e-02,-3.108647123172041810e-02,1.975948033941228588e-02,1.843161106109619141e+00
4.279415956902262730e-01,-1.016215022080028119e+00,9.749017215054995855e-01,1.593251214300863208e-02,1.106226299435773136e-02,2.209291574162763720e-03,1.782075524330139160e+00
7.618915605269858116e-01,-8.853727169325633639e-01,6.362446798694945116e-01,-2.516623044677143012e-02,1.126714143996614126e-01,3.656597154180756676e-02,1.601964116096496582e+00
6.021735809358607083e-01,-1.003633851538211275e+00,6.269213180793188345e-01,1.892048537638433281e-01,4.638667887048659733e-01,-1.057807847467678586e-01,1.845386505126953125e+00
1.056111995244903623e+00,-1.219996577847610730e+00,5.462446885122536067e-01,6.782070907169030285e-03,5.598265603582692346e-02,-8.491577977897699168e-04,2.071150302886962891e+00
8.505118267588447356e-01,-1.025814133038348341e+00,6.280630112877743088e-01,-1.403873991284704595e-02,-2.222186348323593880e-02,-3.981991720592549522e-02,1.777505517005920410e+00
8.716982307235608962e-01,-1.020317557521709384e+00,5.883045773687575197e-01,1.195220168936074294e-02,5.745527299715916247e-02,-1.952403178487840257e-02,1.770685195922851562e+00
5.285841316393635747e-01,-9.965345637169050752e-01,7.841126730421140723e-01,-4.961773030796494399e-02,-2.020056720396791461e-01,-2.371887071646521655e-02,1.706600546836853027e+00
8.334118142904646254e-01,-1.015953831576368316e+00,6.415300650524391468e-01,2.419687041797412286e-02,1.115587700651966829e-02,-2.581114768904400197e-02,1.762453079223632812e+00
8.761187728422860088e-01,-1.011994628383618755e+00,5.703713919745223571e-01,1.269339674032572002e-02,3.849515345598785582e-02,7.773048192376941917e-03,1.756780624389648438e+00
7.119126055207183335e-01,-5.488068168072000041e-01,6.651398770755021506e-01,6.733578162568738812e-02,-4.058900035668051680e-03,-4.160723066374067336e-04,1.243497490882873535e+00
6.567600208258093097e-01,-3.456524784447624898e-01,6.870351083553686289e-01,8.976367024685831530e-02,9.899322899575211093e-04,-2.288783944838759452e-02,1.030457496643066406e+00
7.110199944706117048e-01,-4.938749260343932024e-01,6.604032945719445769e-01,1.672555441855768377e-01,1.146078953563926979e-02,-2.157593777271416685e-02,1.216166019439697266e+00
6.916637090024786438e-01,-8.945691570989500185e-01,8.963698932059458446e-01,1.247828812442307728e-01,-3.061242515615008458e-02,1.060011789784790215e-01,1.722203016281127930e+00
6.833013079752060515e-01,-9.194770343891988107e-01,8.039820124485208552e-01,1.740738305000323963e-03,8.975013563711684017e-02,-3.349555388942591916e-02,1.674642324447631836e+00
6.718013217447027507e-01,-6.859050419482265459e-01,8.347712444246530028e-01,2.859186504516992855e-01,9.737881843999889389e-03,-4.513046031358564775e-02,1.530632019042968750e+00
7.621457883060914762e-01,-7.923460024036672600e-01,7.225216223192637566e-01,4.856635958464713271e-02,1.232935492668582773e-02,4.092826535931166562e-03,1.537531018257141113e+00
6.637475737854814373e-01,-3.766225104990844619e-01,9.016392836472923999e-01,4.045437076796375153e-02,-1.983299384770643159e-01,1.211073330982600088e-01,1.246343731880187988e+00
6.103595053014829741e-01,-2.214715287754386308e-01,7.144809114345923584e-01,1.301563268511228277e-01,-8.299218446828623974e-02,-2.437147254409257474e-02,9.287962913513183594e-01
6.711026791508266642e-01,-1.562826629892528629e-01,7.777150370838835647e-01,3.870206094334957547e-02,-1.952685765655478786e-02,3.325156591479797724e-02,8.905597329139709473e-01
7.723627338954570654e-01,-9.459618253344808103e-01,7.913349352317329277e-01,9.994396158116331669e-03,1.678401492392208975e-03,2.156900869080529554e-02,1.728381752967834473e+00
7.327147068626856941e-01,-8.672962978564061620e-01,7.744647738912138202e-01,-1.072175223569370997e-03,-5.744042960867080765e-03,3.362466722626833437e-02,1.622366547584533691e+00
7.782989097650643284e-01,-9.903674567688223185e-01,7.883462398445519881e-01,-6.047696205102140107e-03,-6.607866895540420900e-03,1.853161366440093244e-02,1.774069666862487793e+00
7.334213157548588047e-01,-6.545632707718848087e-01,7.945893643205657053e-01,-1.310976094384049551e-01,3.420341127237462586e-02,5.981486709468580854e-02,1.442548394203186035e+00
5.339681050280663532e-01,-1.250627053674389977e+00,1.146463965657703143e+00,-2.364444043813488522e-02,-9.659776977862366554e-02,3.445137272265241801e-02,2.164767742156982422e+00
7.825581521822400077e-01,-9.585877010440537749e-01,7.540389795185412636e-01,5.415572611228645342e-05,2.446913639286414383e-03,9.053861143832355601e-03,1.727139234542846680e+00
7.659016341282608442e-01,-9.596826025812773553e-01,7.859740376662943673e-01,-5.720457138594122262e-03,-1.238155031551944202e-02,-8.961846616305484819e-03,1.735937595367431641e+00
7.723623083418351687e-01,-1.010448594020002977e+00,7.972492850244712326e-01,-2.276630374207612786e-03,3.670759840949422079e-03,1.445560240245824871e-02,1.795573949813842773e+00
7.399519737253803520e-01,-8.828208198736289258e-01,7.852098407167156235e-01,6.495833638302367895e-03,1.095065522361011318e-02,4.257206033179927740e-02,1.647667050361633301e+00
7.596635904503633574e-01,-9.596977545384712815e-01,7.895513265025517757e-01,4.681411719256945575e-03,7.364768513139384118e-03,-6.355650360032388466e-03,1.734599113464355469e+00
8.000892695443015956e-01,-1.017123169897155455e+00,7.221545244022862242e-01,1.371512958954777990e-02,-9.589832572130584185e-04,-1.651348234531498441e-02,1.779914617538452148e+00
7.882636878151837445e-01,-1.036814217408273731e+00,7.830920745925433746e-01,1.203345579026925127e-03,3.695378033683475311e-03,2.946900508207417248e-03,1.822517156600952148e+00
7.629787046034749443e-01,-1.031048168193838821e+00,7.906182502593396277e-01,-1.211597916181540030e-02,4.610337383024568384e-04,7.517483651753429155e-03,1.808173894882202148e+00
7.871592157821771796e-01,-1.032003015452280126e+00,7.822534923894272074e-01,1.431520913816881251e-03,3.706775842906933315e-03,4.847249418894123037e-03,1.816746830940246582e+00
7.809709220180860445e-01,-1.038672499875108901e+00,7.799255357651325715e-01,-3.530703384483677805e-04,2.524453611811339291e-03,1.746005431606365140e-03,1.819128870964050293e+00
7.920617575619993689e-01,-1.028873257135340724e+00,7.812962879487663770e-01,2.406146437786616486e-03,3.235800588826685375e-03,-7.339387189781351717e-05,1.815589666366577148e+00
7.758779736772947189e-01,-1.034787114287846421e+00,7.826515644947161787e-01,3.032972722074408611e-03,8.567133496316600445e-04,2.894606975617977120e-03,1.814076542854309082e+00
7.394118280060082427e-01,-1.026978661725077790e+00,7.923255662242909558e-01,2.484613684036228801e-02,-7.610821851440803532e-03,1.718891750282484226e-02,1.794244647026062012e+00
7.828132001715208954e-01,-9.821520499294389417e-01,7.733100403382935362e-01,4.041074066233172994e-03,1.697556630678799874e-02,5.174349471655813326e-03,1.760515213012695312e+00
4.424735362776339720e-01,-1.000308849822139523e+00,9.168985368875539610e-01,3.676269773029125498e-02,-5.567124689798218229e-02,1.458130981966871027e-02,1.733546137809753418e+00
4.157463328946550685e-01,-1.001892071823077490e+00,9.377182409344100300e-01,4.015645193534157775e-02,-1.786170572524352351e-02,1.258719179252011655e-02,1.740227222442626953e+00
6.498165418819266126e-01,-1.025756943764623452e+00,8.338466899208516470e-01,1.435831068034227297e-02,-7.126739299369059047e-03,1.676393488677554652e-02,1.775213718414306641e+00
5.109480686203697886e-01,-1.019793177335724499e+00,9.056343471678722779e-01,3.259783051566099432e-02,-8.118599840868918546e-03,7.163101409961698980e-03,1.762568593025207520e+00
3.520877379154843667e-01,-1.033176058705162381e+00,9.865746477642022283e-01,6.942592968546348886e-02,-2.407355192639427932e-02,1.675312839741169985e-02,1.793739557266235352e+00
5.950219431708554385e-01,-9.927362131725750993e-01,8.048378208099596920e-01,1.869883085497527422e-02,-4.847368646060638830e-02,1.580953365870892829e-02,1.704987764358520508e+00
4.418655165412200825e-01,-9.923503192051346122e-01,9.314266909506879744e-01,-3.913614361976452440e-03,-2.486274103363247598e-02,-6.121631710917511265e-03,1.732280135154724121e+00
5.722117528405040732e-01,-1.015457872402576456e+00,8.910790203844882740e-01,-6.914811831664131533e-03,-2.214974155643902084e-05,-2.975555007735085529e-03,1.768840551376342773e+00
6.139483077749303686e-01,-1.040617592528057633e+00,8.898713944348181082e-01,4.639861335379558138e-02,-8.596489005950462038e-04,-9.648785638910716000e-03,1.810247182846069336e+00
7.335357282510665544e-02,-1.210278399158905893e+00,1.290700027323043786e+00,-2.148160616970192990e-02,-2.214114246586414980e-01,6.249348567610052418e-02,2.202825069427490234e+00
7.878423593918787438e-01,-1.020517146521854990e+00,7.820151263196938318e-01,-4.549122389925148655e-03,1.899450385911120778e-03,7.126508444423983006e-03,1.805515289306640625e+00
7.252231100489683335e-01,-8.135878497586574998e-01,7.667197983299165465e-01,1.621364419739926765e-03,-2.697716003208949775e-03,1.231815052482458650e-02,1.560128688812255859e+00
6.950761240973090116e-01,-6.847012246930004320e-01,7.419510539907405722e-01,-1.829510049737493541e-03,-1.677748146020939871e-02,-5.679160968579526764e-02,1.407547593116760254e+00
7.738906600776047640e-01,-9.802248260922853396e-01,7.645477761825341112e-01,-6.177184098456309572e-03,-3.473747541357278894e-04,-7.353225479334733923e-03,1.749541878700256348e+00
6.665493661708817852e-01,-4.983770893100059052e-01,6.829348117140032759e-01,4.836740133102451072e-02,-5.843109976281748996e-03,6.259765305332934751e-03,1.176285743713378906e+00
7.505475751244145011e-01,-7.818099391271503551e-01,7.317777063295561879e-01,8.262421860492287495e-03,-1.241303401882450736e-03,-7.653859704593171664e-02,1.528886437416076660e+00
6.397158889705770735e-01,-9.817250368152392603e-01,7.568678034072739980e-01,-3.726216569037083386e-06,4.610898279319577964e-02,1.040380571612808253e-02,1.685067653656005859e+00
7.377848457602609322e-01,-9.968324852035562733e-01,7.177624818964201125e-01,-8.348409257230965039e-03,1.206316229094802316e-02,1.157405709636162707e-04,1.724880456924438477e+00
7.544769290967572317e-01,-1.016117049543569406e+00,7.470522087438804526e-01,-1.088417295851248738e-02,1.234786592148429552e-03,4.895749055463965473e-04,1.766995429992675781e+00
7.647846913277429604e-01,-1.024798173502721399e+00,7.675516767829659859e-01,-1.590778704376271530e-02,1.284662619168766909e-02,8.878794499545704030e-03,1.791384100914001465e+00
7.803843938452414974e-01,-1.019393217229343396e+00,7.972375410559446873e-01,1.023166470671311003e-03,4.779644524699858642e-03,-3.130214328515910742e-03,1.808291077613830566e+00
7.577110233376882498e-01,-9.268682479364718230e-01,7.699063141059321325e-01,-4.880023229705012650e-03,1.639986289099374869e-02,1.392701838531293888e-02,1.691141724586486816e+00
7.665825404474715388e-01,-9.765162720567543975e-01,7.942089246939887381e-01,6.829792381040907055e-04,1.105861797138001784e-02,-6.845144670283997632e-03,1.757219672203063965e+00
8.239168955478488598e-01,-8.789751423583382905e-01,6.620938168831539405e-01,-3.651950088723884824e-02,-1.395485388149776988e-03,5.673243939261893298e-02,1.632214188575744629e+00
7.866038171119140721e-01,-1.028169139024319945e+00,7.775386433323328017e-01,-8.216168921786511092e-03,3.483768909822997258e-03,-5.346467758609483104e-03,1.810347080230712891e+00
7.831372972368019214e-01,-1.031605258410681181e+00,7.910332441020339056e-01,-5.100639894304095749e-03,3.628963984119847920e-03,3.029821907575344989e-03,1.818743228912353516e+00
7.753849082475815502e-01,-9.851164408764844227e-01,7.769607746855801134e-01,-4.436421927177962299e-03,1.586178157316316464e-02,8.559987752385016940e-03,1.761583209037780762e+00
7.832167620633636584e-01,-1.028531519365185165e+00,7.836860041644768682e-01,-2.759411742547158552e-03,6.963984518363804457e-03,-2.371286605880085601e-05,1.812029361724853516e+00
7.881571707146471928e-01,-1.023189393888849441e+00,7.637432625964545307e-01,-8.829889798507503662e-03,-6.244423752205623991e-03,-1.815782294725840681e-03,1.799364089965820312e+00
7.240410381531364736e-01,-2.124116919653193936e+00,1.135747788106129086e+00,2.453861292260439350e-02,-6.571565859989538794e-01,9.469475768515914216e-02,3.283045053482055664e+00
7.717633584453591489e-01,-9.964870126443483578e-01,8.022464031883242974e-01,-1.368300803416439308e-03,1.314994415734047073e-02,-3.658204474227739339e-02,1.784959197044372559e+00
8.456203589924318198e-01,-8.329040787033461513e-01,7.428477691099749647e-01,-7.081336470158258733e-02,5.965795562799480062e-03,-1.192223749527427379e-01,1.647207498550415039e+00
7.310281407717578173e-01,-8.501320088958005394e-01,7.640699810140634263e-01,3.384101536875282982e-03,6.277490345758559090e-03,-3.658290090720397320e-02,1.599240779876708984e+00
7.478750180760266320e-01,-8.658313197379998716e-01,7.659140023314029433e-01,-1.336772182117313204e-02,1.045609308453510598e-02,-3.992777343491950293e-02,1.624539971351623535e+00
8.453165801066957474e-01,-8.174216850047728578e-01,7.735004553041686659e-01,3.526783417141754473e-02,1.647318998207789043e-02,-2.193194003614694076e-01,1.673108816146850586e+00
6.340996243661172205e-01,-3.669019455128177398e-01,6.820208633902020701e-01,-1.673310748776297291e-02,1.347547686001285099e-02,-2.384872724321632567e-02,1.027307629585266113e+00
7.815956853099994550e-01,-1.039135859250175820e+00,7.824155645399684111e-01,-1.644287522416702048e-04,-5.044009776583714775e-04,2.883916124227410734e-03,1.821148753166198730e+00
7.833755831880936382e-01,-1.038518371123941630e+00,7.830549751709787731e-01,-1.018327473797678659e-04,-4.313287476495208592e-03,4.072035859066583385e-03,1.821762681007385254e+00
7.821920311321836072e-01,-1.039735190378799690e+00,7.800196541931821992e-01,-6.594419587718388081e-04,-1.080616687378781670e-03,1.285455523976882300e-03,1.820844650268554688e+00
7.753634298006439884e-01,-1.036462199707339771e+00,7.740264411022483859e-01,-2.084151956294764962e-03,-2.982519673070497005e-04,2.918122437759252882e-03,1.811168193817138672e+00
7.644453167531286564e-01,-9.059472404623831743e-01,7.648071126362913086e-01,-7.272200535452767560e-03,-2.584531136507196153e-02,-1.955660852005851325e-02,1.671563863754272461e+00
7.707294728490152735e-01,-1.033052395594488804e+00,7.829084974160728239e-01,-7.250866204377569464e-05,-2.801941691323173687e-03,1.155490067837608437e-02,1.810019254684448242e+00
7.720192875846881853e-01,-1.031960339941619287e+00,7.733782689427013413e-01,5.911475870646549558e-05,-1.045585072664802261e-03,7.047166357047359234e-03,1.804701685905456543e+00
7.801687989358284669e-01,-1.015892753943880678e+00,7.770080114906032787e-01,-3.767505849824627322e-03,-1.258925884016547179e-03,4.319634516421037049e-04,1.794496536254882812e+00
5.765308311617033388e-01,-1.087809914891196161e+00,1.039857559628975636e+00,8.388777839653477342e-02,6.197725125535005763e-02,-1.783663281506648116e-02,1.946644544601440430e+00
5.938778728628389958e-01,-9.839370102008282437e-01,7.918423600460674505e-01,1.336966296991642239e-02,5.881111208745967017e-02,-7.426087820984336556e-03,1.688821792602539062e+00
5.781400842190020928e-01,-9.956079689600905169e-01,8.365333372714522930e-01,2.287787197099211411e-02,1.091059929213342578e-01,-8.644816912497951811e-03,1.728468298912048340e+00
5.805710210999670551e-01,-1.013297973822196996e+00,8.712778556010585262e-01,2.096841545617173994e-02,4.121433275763394105e-02,-1.274649305671386214e-02,1.759312272071838379e+00
4.169593784155160021e-01,-1.198405927536009496e+00,1.025235104796452967e+00,-4.083625632275684298e-04,4.504275607615935983e-02,1.511544022946434071e-02,1.992175817489624023e+00
7.834883613745347031e-01,-1.025819402106319389e+00,7.658623280994530935e-01,8.436366741665122376e-03,1.948853261010791496e-02,-6.790303791155941245e-03,1.800973534584045410e+00
7.850855638854186136e-01,-1.007034008089236377e+00,7.638491503834576868e-01,7.144318226690174641e-03,1.138430306292779505e-03,-9.257037379203502878e-03,1.781712532043457031e+00
7.838924718222619603e-01,-9.975278238589353474e-01,7.759448411227647391e-01,1.088586401559538119e-02,-8.839413848047390082e-03,-1.202795702443564462e-03,1.777626991271972656e+00
7.897870491065042131e-01,-9.718428400364526043e-01,7.691372819269394201e-01,-7.764697357203333844e-03,-1.186839669330893091e-02,2.555996623307553190e-03,1.751574158668518066e+00
7.677792888769694457e-01,-9.046547501418203963e-01,7.505601644651316295e-01,4.311697579275448194e-02,-1.430026807776653419e-02,6.694988168667068834e-03,1.665790915489196777e+00
7.223748047603533173e-01,-6.179446037496247879e-01,6.727556679449151478e-01,7.495501375057470050e-02,-1.875194496373261670e-03,2.905036297514553955e-03,1.322612285614013672e+00
7.602315109306938545e-01,-9.756916878727508458e-01,7.862010093442759473e-01,7.124781523784073575e-03,-4.979661657662145038e-03,-2.204861286046754312e-02,1.749534249305725098e+00
7.232482094265590966e-01,-6.273703220182742513e-01,6.770616215849363240e-01,7.176170843581963776e-02,-2.370881272491106966e-03,9.127672374667876454e-03,1.334031224250793457e+00
6.825490267179064041e-01,-1.090005878986777699e+00,8.675252536324187247e-01,2.804765880480943659e-04,-8.883598374561404998e-02,1.293174131565594936e-02,1.878357052803039551e+00
7.260750026430089488e-01,-6.936117312638474530e-01,7.220810517612031854e-01,7.139527086381959597e-02,-3.127212455030041471e-02,-6.737397056400212803e-02,1.428880572319030762e+00
7.711808233898269638e-01,-8.962363688584693566e-01,7.493939076067512861e-01,-1.126153128332362148e-02,-1.853502971379230452e-02,-2.109254924237837295e-02,1.657459735870361328e+00
7.827961965013534584e-01,-1.035681933558739276e+00,7.845890258263150674e-01,2.064063660422064354e-03,2.423828453910932546e-03,7.979913908561206458e-04,1.819384098052978516e+00
7.831611583664770393e-01,-1.030312754103299255e+00,7.831239062678861940e-01,4.894608861396410743e-03,2.668442276261186706e-03,1.354674288615899782e-03,1.813482522964477539e+00
7.823366736250109144e-01,-1.026057391224450388e+00,7.896722215894387276e-01,4.810988519360755123e-04,4.832163049010298854e-03,1.946525083172744464e-03,1.812095642089843750e+00
4.825586168871732751e-01,-1.016355116476400200e+00,9.090529874860774351e-01,4.803264644753138524e-02,4.662242566872625699e-03,-8.329773132956064946e-03,1.753600001335144043e+00
7.726697243375031388e-01,-9.581292466194988311e-01,7.859898020914435346e-01,-1.595425386571075466e-02,2.350398376312463553e-02,-3.023631424416768632e-02,1.738982558250427246e+00
7.856525375632208430e-01,-1.023236198731209745e+00,7.409095117470541059e-01,1.584867825378244097e-02,-4.746170867058244723e-03,1.067173218957721305e-02,1.787262678146362305e+00
7.973559811409446363e-01,-1.029863101922567914e+00,7.710105176464928656e-01,-7.127274484875132082e-04,7.289451584530110689e-04,-8.389877170067576787e-03,1.814248919486999512e+00
6.969074166618198785e-01,-1.017965605853021982e+00,7.808261654760501047e-01,1.979204456884604835e-02,-8.401254518928261833e-03,2.066833094095009773e-02,1.759093642234802246e+00
6.926026129300923984e-01,-9.904941810621250564e-01,7.454688722905973286e-01,-8.895103066137010489e-03,-6.895535056426471687e-02,-1.528207264960784045e-02,1.714581966400146484e+00
7.656528725280935532e-01,-9.892980397326192055e-01,6.466793843360865157e-01,-2.038428326607856500e-02,-3.207428105483002556e-02,-2.115916556741214219e-02,1.700261950492858887e+00
7.594145219121898327e-01,-1.040260841705315853e+00,7.765604310752931561e-01,-1.939110053015407828e-02,-1.687844069397625990e-02,-2.873181115126066665e-02,1.809541821479797363e+00
7.944863640032997498e-01,-9.256994046436111123e-01,7.028088308217118607e-01,1.450825530262087326e-01,-1.405725208997858910e-01,1.050999663249856109e-01,1.722007036209106445e+00
8.024215697658325652e-01,-1.023817763152015559e+00,7.286115078041056625e-01,-2.253458478145695804e-02,3.918704963357264037e-03,1.529442482256802415e-03,1.790915846824645996e+00
8.158613001699809297e-01,-1.000982262551932456e+00,5.788634212493325437e-01,-2.241103307223982904e-02,-3.814561867812349405e-02,-3.131483564405494746e-02,1.713275909423828125e+00
4.941847332818098959e-01,-1.059868729600548232e+00,6.837172313060156936e-01,1.499963403582595667e-01,-5.138384073476494063e-01,6.940581858214472932e-02,1.902521014213562012e+00
6.519010307188072284e-01,-1.018947619573196794e+00,7.287580799732421566e-01,-3.520852622908604568e-02,-1.213706826246299664e-01,-2.451376111793241580e-02,1.725042939186096191e+00
7.350757323962913148e-01,-9.881256635484989559e-01,6.665974791514275299e-01,-1.916536384532463791e-02,-9.138026219899576807e-02,-1.309201659034818499e-02,1.697874426841735840e+00
7.437462490299279194e-01,-9.919061993950673006e-01,6.439556687491204690e-01,-9.690517724566635044e-03,-1.033344309663491167e-01,-8.563754309550029517e-03,1.697581052780151367e+00
6.543151176154201609e-01,-9.943798338225493527e-01,7.235684856058375303e-01,-1.264049986555078504e-02,-1.153579672340053763e-01,-1.206789674139681703e-02,1.696469068527221680e+00
8.025447037090281954e-01,-1.044503492578487069e+00,6.918440870386924901e-01,-4.599202987018973648e-02,-6.416362964922889267e-02,-3.581535046668013478e-02,1.800532460212707520e+00
8.724699326864181481e-01,-9.944296592235162269e-01,4.244192098192891560e-01,3.470743555748869585e-02,-3.546634302960549046e-01,-1.632503900097631577e-02,1.797601103782653809e+00
7.752196190232335526e-01,-1.019256669727503617e+00,7.812136250855985509e-01,-5.167921276081178551e-03,-5.478789019552187528e-03,1.078686935023700708e-02,1.797625184059143066e+00
7.367808128927475497e-01,-1.005398438746740952e+00,7.313552494707495910e-01,-1.326027487928340375e-02,1.075120114530557155e-02,1.158812542783608374e-02,1.739839911460876465e+00
7.771300355165212670e-01,-1.030392103251948299e+00,7.708472643202988195e-01,-1.137170409400233700e-02,-2.703195161748893826e-04,-7.996697894462872352e-04,1.804497003555297852e+00
7.457431926079445272e-01,-1.016365745153135824e+00,7.577699729657824124e-01,-8.811752864148548244e-05,4.333942745370846124e-03,1.065145394430624601e-02,1.768265247344970703e+00
7.329686858610311440e-01,-1.004950487973802931e+00,7.313381891522107159e-01,-1.639376924174973382e-02,1.340462452956459050e-02,2.145968305359052808e-02,1.737889170646667480e+00
7.590314658235128853e-01,-1.004927116755241157e+00,7.106926219883755724e-01,-1.762997172968290907e-02,8.509123142022704742e-03,1.438274829752500886e-02,1.740801215171813965e+00
7.693209881277374151e-01,-1.013018847602430217e+00,7.052941625520958713e-01,-2.133812517968618552e-02,1.385251973105249348e-02,1.563925473642712588e-02,1.751968145370483398e+00
7.876304662389743694e-01,-1.019931199821148882e+00,7.330075225307092213e-01,-1.851246507258402091e-02,7.090938534036575133e-03,1.182161178607341739e-02,1.781327247619628906e+00
7.836136767547698945e-01,-1.030929617722884828e+00,7.837557764098267432e-01,-2.122222302736624395e-03,5.733680740523951734e-03,-4.098022871657243556e-03,1.814659118652343750e+00
6.596898294331272616e-01,-1.153751053613134347e+00,9.594953088477800041e-01,-1.294951274938140745e-02,-1.294144354719674594e-01,2.404049037075189823e-03,1.993212342262268066e+00
7.869510313243671673e-01,-9.958187231879546131e-01,7.678118299359336651e-01,1.551275890516536950e-02,9.445692246015576291e-03,3.421215535485798431e-02,1.774546265602111816e+00
7.696229009798249976e-01,-1.037162959866933409e+00,7.955699670299468673e-01,-4.129894471058582171e-03,3.941719762670243578e-03,-1.211775338054155507e-02,1.820046067237854004e+00
7.830350537535561983e-01,-1.034516293385468799e+00,7.819404014281707838e-01,-1.974158133789290139e-03,6.032816326948941751e-03,4.134177950925700326e-04,1.817037701606750488e+00
7.760402523654741369e-01,-1.033073905050762242e+00,7.839872046010755158e-01,-5.236811934174108799e-03,2.369102429588510698e-03,-8.850587441017417067e-03,1.813192844390869141e+00
7.902480278124442981e-01,-1.031501133327789699e+00,7.823121690681706930e-01,-2.877284068256490655e-03,2.174787154349506341e-03,-4.145166661887600759e-03,1.817819118499755859e+00
7.019564571079184301e-01,-9.850611223469728506e-01,6.918297566130927612e-01,-9.692647754183743650e-03,-6.455992803157784010e-02,-1.286978631680967336e-02,1.685920953750610352e+00
8.028247027342996223e-01,-1.034527889313117788e+00,8.015725089128566960e-01,-2.970185166991482634e-02,-1.010555682597672339e-01,-7.402624855624188871e-02,1.850213050842285156e+00
7.175199602931654486e-01,-9.967933697350215283e-01,7.367026120387534238e-01,-4.594230602003693568e-04,-4.276094036265625301e-03,-9.585309766240165258e-03,1.724080681800842285e+00
6.959894941544965130e-01,-9.899348656361790511e-01,7.509566757774838175e-01,7.152422295214598720e-03,5.204653799612048160e-02,-7.343150516105661357e-03,1.716529846191406250e+00
5.030994084744210282e-01,-1.014933188511359941e+00,7.879266507993507584e-01,-2.286048971937498439e-02,2.147086665977567532e-01,1.716686785923337427e-02,1.720080733299255371e+00
8.420080703940185929e-01,-1.204249851230754009e+00,7.127661193929321071e-01,-5.975768937332759378e-02,2.981247224095307513e-01,6.052158315762930230e-02,2.056149005889892578e+00
8.636479095671408812e-01,-1.651663483733298854e+00,8.653419354078394354e-01,5.257058278328196471e-02,7.833557040238616764e-01,-1.476412883124630926e-01,2.871528863906860352e+00
7.751228607665243686e-01,-1.028245295855942709e+00,7.580159954237091213e-01,-7.983117782088372874e-03,2.758320301754670599e-03,-6.905865998364323251e-03,1.794975280761718750e+00
7.544410685249385295e-01,-1.022369210426538277e+00,7.572172403887723613e-01,-3.825112003604538846e-03,-6.818642679194814732e-03,-6.249072020891558929e-03,1.778284549713134766e+00
7.390802921766244094e-01,-1.005332968227087287e+00,7.371177449832488904e-01,-6.700265547746265399e-03,-2.164753194582823542e-03,-6.218439532150660427e-03,1.743508696556091309e+00
7.474763728474960178e-01,-1.014983058326143217e+00,7.529852129208699507e-01,-5.889549346735779411e-04,-9.746680177648718623e-04,-1.027909211111521434e-02,1.765311241149902344e+00
7.485544129881824826e-01,-1.013805290405307646e+00,7.416715219370422219e-01,-9.790237962485655657e-03,-8.805309784678458374e-03,2.710256612189281770e-04,1.759076237678527832e+00
7.746457644473694337e-01,-1.012020748424243166e+00,7.652987705089896453e-01,-8.856851375408238136e-03,-4.753964236698205587e-03,-2.028899066555467541e-03,1.782099962234497070e+00
8.328687809456404301e-01,-9.916122068264360268e-01,5.316589481043106913e-01,1.378598608923988292e-02,-8.233729489717403482e-02,1.780300901601584648e-02,1.700519323348999023e+00
8.783723006662988997e-01,-1.019341015478483881e+00,5.559179126321461828e-01,1.797815938033538175e-02,-8.074741708707827703e-02,-6.319214069383969137e-03,1.764657616615295410e+00
9.541148532439092111e-01,-9.920423219954366267e-01,4.043276444850980034e-01,1.149236883301000232e-02,-4.427151437334919670e-02,9.718760328736437927e-04,1.739569067955017090e+00
8.828887192637394632e-01,-1.003371101610096128e+00,5.191217101325343863e-01,5.107259637154481363e-03,-9.894647588809936389e-02,6.043470620143775313e-03,1.741752743721008301e+00
4.987516076522636732e-01,-1.004264006788992303e+00,8.830693136329191839e-01,-1.387266433102524697e-02,-9.013243775643353661e-02,5.183698110573889059e-03,1.734768271446228027e+00
6.970659420165148390e-01,-6.551779191702320482e-01,7.166877087154359671e-01,2.796576280594489233e-02,2.727029340054308582e-02,7.887430014592582139e-02,1.370665073394775391e+00
7.309974396344791625e-01,-6.588371260709292576e-01,7.043780943586626098e-01,9.054972884925596710e-02,-1.602851524970155123e-02,-1.428735464986934274e-02,1.386121630668640137e+00
6.921027982789806909e-01,-5.439651421854725388e-01,6.675398186241612297e-01,-6.372457044563742228e-03,-3.710541568294541560e-03,7.056293632155339300e-03,1.224098920822143555e+00
6.643481233748260717e-01,-4.500453271200131056e-01,6.747136522894340294e-01,1.485595348372134930e-02,1.192440103357694098e-02,8.880708326606022440e-02,1.130610585212707520e+00
6.872140898085179472e-01,-1.947326640062462255e-01,6.309828498167018296e-01,1.339434931493324044e-01,-5.361842692631105245e-02,-3.017405025582618836e-03,8.909959197044372559e-01
7.006935746149108857e-01,-7.144399746897298620e-01,7.247351558583500220e-01,5.742414619816237770e-03,2.076181174019064990e-02,-5.192451293371249006e-03,1.427822113037109375e+00
7.420567880549222561e-01,-6.778749910939241285e-01,7.032997175978586979e-01,8.273454519146922204e-02,1.558200773884916776e-02,1.206383240849816935e-02,1.408678770065307617e+00
7.832803980167897251e-01,-1.030833535448001603e+00,7.938656002205752849e-01,-2.160193668709496292e-02,2.577071203979259921e-03,-3.224512702390587657e-03,1.819828391075134277e+00
7.313161598800215213e-01,-6.737565721085314596e-01,7.014275367758870949e-01,-6.706260612459967463e-02,2.131949816664762548e-02,-4.444894113062094337e-02,1.397823214530944824e+00
7.741330208195005280e-01,-9.731598498839343359e-01,7.645952092711337800e-01,-8.024361451679161775e-03,5.177973897450225673e-04,-8.495377205344805532e-03,1.742661356925964355e+00
3.750479656914412763e-01,-1.073969531366589347e+00,1.290635423149800065e+00,-1.223047961863804323e-01,-1.982192042095143880e-01,-2.133096845076685663e-02,2.104463577270507812e+00
7.744978156031612215e-01,-8.171717111622038843e-01,7.271214720908349971e-01,-5.074801070572745182e-02,8.077007864957757091e-03,9.416508200055467934e-04,1.571042180061340332e+00
7.140368084932050552e-01,-9.860871861137229244e-01,7.988169897393259111e-01,1.049397970089251640e-02,-1.275471136171262010e-02,6.865212567755512620e-03,1.744335412979125977e+00
7.642122401219476613e-01,-9.755706051171759707e-01,7.744187664773977131e-01,-3.727682986979866716e-03,-7.371642358482179136e-03,1.429382770186179681e-03,1.744968891143798828e+00
7.651169179977893586e-01,-8.548379577738536295e-01,7.347222738424721289e-01,-3.928777963584857702e-02,-1.208927241482333007e-02,-3.652318850273324723e-03,1.606564283370971680e+00
8.520278668385394827e-01,-1.004331532062643362e+00,6.574141793720729154e-01,1.900870335976397735e-02,-5.366991551429887986e-02,-7.641530944370934775e-02,1.774799942970275879e+00
9.021058463544382455e-01,-1.108073933150863333e+00,6.699559067183863403e-01,2.463215315939352654e-02,1.156444689263136372e-02,-7.681318383967360858e-03,1.905374407768249512e+00
5.168514879438624865e-01,-1.003497783153354472e+00,9.002910210248993295e-01,7.997222814693210474e-03,-3.401611802638159626e-02,1.575261442779530381e-03,1.745027303695678711e+00
6.208022746816653781e-01,-9.148179892341763431e-01,5.840345767597949767e-01,-1.180406010229619329e-01,-4.449112606791592039e-01,-1.405385823943458568e-01,1.731448054313659668e+00
8.743011044391511000e-01,-1.182453784212510683e+00,7.682327646647539865e-01,3.148756443653735748e-02,-2.435298503116974933e-01,3.347266452521908964e-02,2.051241159439086914e+00
7.790229358760513145e-01,-1.038012856856411759e+00,7.423303150432801756e-01,4.636815410607818266e-02,-6.936957546368807681e-02,3.871414310160272571e-02,1.806011199951171875e+00
9.621691704318494631e-01,-5.898879462342488944e-01,5.545849869339526395e-01,-8.042352810342663638e-02,-2.931790677652735266e-01,-9.406401897436034165e-02,1.498740196228027344e+00
1.089295079323586934e+00,-1.033384614203844309e+00,3.580946966798943532e-01,-2.534268467608983069e-02,-1.630972985361654470e-01,1.655564027575372188e-01,1.911092519760131836e+00
1.187408067610061790e+00,-1.548494689926076973e+00,3.700029854211124292e-01,-1.589289674738950664e-01,-4.135192366112114826e-01,-4.358503239911833416e-01,2.660007476806640625e+00
6.028754965191822635e-01,-1.022130606287025900e+00,7.607681282575884385e-01,5.362234729674968114e-02,2.434011282775794816e-01,-2.774813823365117338e-02,1.763751626014709473e+00
7.026307313572794921e-01,-6.023128148750780397e-01,5.014857272533146393e-01,-1.336179410382347665e-01,-2.322284890475103947e-01,-1.920016018577922479e-01,1.344172358512878418e+00
7.383074692052948862e-01,-8.253700628821150076e-01,7.346891733556790705e-01,-2.427605839148537850e-02,1.934481564187206029e-02,-6.187948573237821853e-02,1.566467523574829102e+00
1.191782818247142384e+00,-9.249572809172729171e-01,2.582617622092737153e-01,6.042009345386857230e-03,-2.467363866969565500e-01,-2.490279270362547037e-01,1.935153603553771973e+00
7.919247562297481169e-01,-1.022893307777959837e+00,7.595613063128215936e-01,6.967726778630928437e-03,-4.578741158255936888e-03,-2.571241176370876388e-03,1.798918128013610840e+00
8.213641871363079883e-01,-8.329028098925472801e-01,7.446694944657412663e-01,-8.248646249581179091e-02,-3.198423809902606330e-02,-1.205173038724373646e-01,1.637883424758911133e+00
9.006151111906687268e-01,-1.295337985274983783e+00,5.204979334065317209e-01,-1.044063108820925297e-02,5.284579923118541966e-01,-4.015787781960621777e-02,2.230459213256835938e+00
3.843214400501842043e-01,-1.051124860326048793e+00,9.534842991736010021e-01,7.754170253914970112e-03,3.414240526705346057e-01,9.109803070630959065e-03,1.884567737579345703e+00
7.190143290730979242e-01,-1.014142633039813113e+00,7.803815547024615107e-01,-8.722726880750413664e-03,3.856446896242353428e-02,1.969304379742612895e-02,1.766298770904541016e+00
7.294813795963218661e-01,-1.023956288441833395e+00,7.508665446830009582e-01,-3.792006172256125185e-02,6.011736422911366506e-02,4.089562196237014891e-02,1.769935607910156250e+00
8.423547072570618521e-01,-1.080053137636645788e+00,6.830155581134886855e-01,-4.238544324540279018e-02,2.250820489841143801e-01,2.842164109292255950e-02,1.890641331672668457e+00
7.048725182613509999e-01,-9.793908682684150380e-01,7.011131292735631737e-01,1.056991596354269966e-03,-1.477864205529185598e-02,-1.402818231323590178e-03,1.682584285736083984e+00
5.044258769724383473e-01,-1.584681532991785158e+00,1.114070176112828658e+00,1.040181494140049873e-01,3.701863046141039004e-01,-2.824476048922885396e-01,2.586996555328369141e+00
7.132634760695368836e-01,-1.144867553330701782e+00,6.611519144573905216e-01,2.519456204476173966e-02,5.344320253196167547e-01,-2.139433029074804538e-01,2.086769819259643555e+00
9.471340275833470823e-01,-1.995677321940787063e+00,9.009516131665490368e-01,-1.737941030066722514e-01,6.623441281923556634e-01,-1.972162866870239839e-01,3.170135736465454102e+00
5.802183858734607513e-01,-9.949919570358773946e-01,8.471057862055844101e-01,-9.863751125196353747e-03,1.171887395933234322e-01,1.829836688139195242e-02,1.736495375633239746e+00
7.810512191734859666e-01,-1.021687866551477031e+00,7.936872874491706087e-01,-5.595964607279493765e-04,-1.644566192752887086e-04,-3.921199941197801332e-03,1.809103250503540039e+00
7.916139042871691567e-01,-1.017445415228024341e+00,7.792002202394124888e-01,3.219455097625318826e-03,2.337937421579313561e-03,4.034633686296699301e-03,1.802911281585693359e+00
8.175816407317415546e-01,-1.019524588096288209e+00,7.128965399882067899e-01,-3.637694873712138573e-03,4.797285506206422719e-07,1.657307015310040266e-02,1.787306427955627441e+00
7.740315816980757324e-01,-1.016274949496376756e+00,7.675442360853981238e-01,-6.095094586714865613e-03,8.276837437503855623e-04,-4.692142743253162307e-04,1.787103652954101562e+00
7.932876136263219413e-01,-1.027336355856603767e+00,7.702098383892915789e-01,-6.166328969775450482e-03,-3.830863010255655156e-03,-6.092854207072890063e-03,1.809269905090332031e+00
7.632445064337796126e-01,-9.669515214411532611e-01,7.956025353912081766e-01,-1.434405085129082094e-03,-3.795607187471045085e-04,6.741073549649631569e-03,1.746640801429748535e+00
7.814410393870440119e-01,-1.021543428624986705e+00,7.969967503130342967e-01,1.724455916277256064e-03,5.314202319347836011e-03,-4.015203760352018501e-03,1.810851693153381348e+00
8.166048257935942800e-01,-7.471887565524613084e-01,6.292186426822650169e-01,1.879360963306408311e-02,-3.591514207720020863e-02,-1.128227179294868932e-01,1.493535041809082031e+00
7.794339983113257597e-01,-1.020179430914986973e+00,7.979394954396833439e-01,1.157261534600981896e-03,-2.868918436767561170e-03,3.850153100384156105e-03,1.808957457542419434e+00
7.760815803246464695e-01,-1.010443998084589179e+00,7.960171312303383484e-01,-1.905894820624517549e-03,-1.303537911138209597e-03,2.544929488713315938e-03,1.796586155891418457e+00
4.157567338381238375e-01,-1.027159978234093662e+00,7.828986674379762034e-01,-2.317522146087993076e-02,4.157099876216544532e-01,1.925532015772949551e-02,1.807685017585754395e+00
5.946734251141256866e-01,-9.939025617328615114e-01,8.012206563523593950e-01,-4.044034810810753777e-03,6.568611875145255463e-02,-1.721873896331452616e-02,1.705354452133178711e+00
7.695318886232545008e-01,-1.032253637243117028e+00,7.894465532994854318e-01,-1.927423789313695941e-03,5.227089067392882808e-03,-7.364646905335435825e-03,1.811895489692687988e+00
5.214015219080077035e-01,-1.014076212410744748e+00,8.927973230265918714e-01,3.147565244289296515e-02,4.891898384443117698e-02,-1.235384696810124319e-02,1.753997087478637695e+00
5.171843657316534948e-01,-9.908770513662081836e-01,8.269329266749033680e-01,1.983683840599688442e-02,1.365910861912778551e-01,-1.307849709288690272e-02,1.701463580131530762e+00
5.394913755333118344e-01,-9.859713043632997165e-01,8.605462070006794084e-01,-2.767429658250985906e-03,4.277059484257886984e-02,5.813744571651719047e-03,1.710404038429260254e+00
4.966197072738894325e-01,-1.022897830645870254e+00,9.061914277452991495e-01,-4.428106867937520869e-02,2.231610581454673142e-02,1.047167816902620091e-02,1.762594461441040039e+00
6.269821060420739389e-01,-1.038813052657926894e+00,8.646167554286765533e-01,-4.152297257651672152e-02,4.523294168531472384e-03,1.536054760005526806e-02,1.798092365264892578e+00
6.178911450116062465e-01,-1.025488595745032816e+00,8.616397385597831526e-01,-2.882576438803587104e-02,-6.874003405371497712e-03,-1.352037552171517915e-02,1.778725624084472656e+00
5.027273668808907026e-01,-1.041242722757752315e+00,9.100783129639357094e-01,2.765613004452097123e-02,6.629195212399368112e-03,1.340673112885004160e-02,1.783726930618286133e+00
1.785857226656814012e-01,-8.028051334163124331e-01,1.028750367369057228e+00,1.641865273904508371e-01,1.254061919753630683e-01,7.589351696140530026e-03,1.627413988113403320e+00
7.832958759639068180e-01,-1.015341798103383208e+00,7.781893076089227979e-01,-3.150584169131489740e-03,-2.787576537654319446e-03,3.868047491631810240e-03,1.796117067337036133e+00
7.852838845654415145e-01,-1.013579491518760145e+00,7.802733462522521979e-01,-1.088498991292618330e-03,2.458323637958556096e-04,4.676608823822263512e-03,1.796382665634155273e+00
7.419414266792436763e-01,-8.526214882261330397e-01,7.649296693107311418e-01,-4.246684054597751911e-04,-1.456251515288007128e-03,-3.174404700935320317e-02,1.607123374938964844e+00
7.717836412321670281e-01,-9.843981691888148422e-01,7.896008117187054420e-01,-3.277972396891722269e-03,-3.231250787469891125e-03,-1.377503431978183146e-02,1.765337109565734863e+00
7.783164270470688262e-01,-1.014150900065248884e+00,7.952279010658716007e-01,-1.294844796772581580e-03,2.463605454168355923e-03,-3.532592231169512549e-03,1.800999402999877930e+00
7.747989727496298329e-01,-1.013502382709898786e+00,7.953360980279788883e-01,-3.460986838145489308e-03,-8.122926969522433621e-04,-7.025264703982368741e-03,1.798709511756896973e+00
7.808273779084666799e-01,-1.013030807610401096e+00,7.802136939324493259e-01,-2.126339985816490166e-03,2.439673268519952642e-03,5.220404215858605833e-03,1.793582916259765625e+00
8.302860994790812743e-01,-9.968208871381791791e-01,6.836710540391226498e-01,-1.679515115163559766e-02,-2.074227788849505524e-02,-2.702615493495744495e-03,1.759003520011901855e+00
7.943525844284036186e-01,-1.039748017872629493e+00,7.945713064660042679e-01,-3.640313576948286077e-03,8.550057545105505669e-03,4.061845083901427164e-03,1.834294080734252930e+00
7.982306012812565577e-01,-1.029353298032544828e+00,8.047760743054221955e-01,1.602756021496565958e-02,-4.669553654451723642e-05,4.729562040627956210e-02,1.832907319068908691e+00
7.718169203886213747e-01,-1.015188353364785634e+00,7.982989951797281325e-01,-5.036970981570569172e-04,3.415051730469312319e-03,-4.621192203708486372e-03,1.800420165061950684e+00
7.767151693426838088e-01,-1.015960343762850604e+00,8.007285907349471765e-01,-3.838455452854218591e-04,-1.589594476246247463e-03,-4.692038307638041715e-03,1.804822564125061035e+00
7.969146009523286889e-01,-1.028360083538437664e+00,7.736620251332814169e-01,-1.548007912365532415e-03,2.337718951817960734e-03,5.175537557352992771e-03,1.813788890838623047e+00
8.154137173334803368e-01,-1.016066572346065344e+00,7.132410774060264913e-01,-6.591003395220481134e-03,-3.599902468199410108e-03,-1.442322502765809068e-02,1.782813906669616699e+00
8.229223528881585148e-01,-1.003290304004007982e+00,8.460217753852673495e-01,-6.246660352653705950e-02,8.986199067850435263e-02,1.137150515451418042e-01,1.858089327812194824e+00
8.144961081397709135e-01,-4.422007670394395018e-01,6.420013326443367863e-01,-8.131181610790624154e-03,3.228785456188339870e-02,9.260258636596446769e-02,1.192191004753112793e+00
7.498678302670268581e-01,-1.015068370919236962e+00,7.383784909223305437e-01,-1.395422440425175825e-02,-2.168250564365503674e-02,-1.171365414055003558e-02,1.759903430938720703e+00
7.875279726436634764e-01,-1.031476620955281476e+00,7.601244883284975495e-01,-1.516277714647211450e-02,1.234069431182998125e-03,-7.590418389952122494e-03,1.805698990821838379e+00
7.990786101324598434e-01,-1.034040722020922010e+00,7.684010035079387180e-01,-2.003910119878988746e-02,2.329886733141817851e-03,-2.557970926032249702e-03,1.818315863609313965e+00
7.758730568132297112e-01,-9.838251520383607396e-01,7.761579498680049038e-01,5.687707738251584176e-03,1.522857353453546322e-02,-5.181005005739237890e-03,1.760088801383972168e+00
7.842537007251204617e-01,-1.037518475341049795e+00,7.793940127594318756e-01,-2.462231508482791084e-03,4.859198364605299414e-03,-6.418734079836414981e-03,1.819405674934387207e+00
7.798548744736301108e-01,-1.035842298851992194e+00,7.768700391590100951e-01,-1.631429237724154376e-03,3.314998959569897923e-03,-2.507696445815717472e-03,1.814223051071166992e+00
7.860499479069050777e-01,-1.024250539543198890e+00,7.815885553095490712e-01,4.534015181963708604e-03,8.659646468070754041e-03,-2.938268641172853916e-03,1.808160305023193359e+00
7.687195278802442244e-01,-1.023941748177897182e+00,7.567775005524643994e-01,-1.521344294231270072e-02,-2.341631332457921270e-03,-8.564699055882040585e-03,1.786980628967285156e+00
7.273484807324392953e-01,-7.843297597267239185e-01,7.267896655392620531e-01,6.560076318145049122e-03,8.092473979826013061e-03,-1.006605421170898851e-01,1.521528840065002441e+00
6.989438412981096027e-01,-6.554096787797953905e-01,7.208417652910061868e-01,-3.161446649219312732e-02,2.002892010055463273e-02,-6.878161552158981729e-02,1.372153520584106445e+00
9.150644982421869411e-01,-1.256761907334522865e+00,8.479754854768331018e-01,-7.594083273079407781e-02,-1.454429589539624756e-01,-9.441646724180245698e-02,2.164054155349731445e+00
6.189764604021836814e-01,-2.993758048985588616e-01,6.310014800921379674e-01,-8.343721982234951267e-04,4.286468102045854281e-03,-2.070275122624964936e-02,9.251495599746704102e-01
7.770573559187983204e-01,-9.864078667906200915e-01,7.751371070854486955e-01,4.757290004461159696e-03,1.452368540489339457e-02,-5.500562757815174834e-03,1.762730360031127930e+00
7.529629033109682679e-01,-1.034477741153294827e+00,8.305005328180363744e-01,-1.308752830298922157e-02,-4.546547475181328922e-03,6.112859887194707458e-03,1.827631831169128418e+00
5.163862324062054032e-01,-9.883594354166557183e-01,8.659013130897382782e-01,-4.628650994214817890e-03,-1.961229371392017584e-02,-1.742156534320701312e-03,1.706920862197875977e+00
6.780756424285774298e-01,-4.044372708776914904e-01,6.299123014894205674e-01,7.033497286653053737e-02,-1.477316654702141158e-02,4.126931493512894962e-03,1.066566109657287598e+00
6.257860406641559958e-01,-4.005941103624133248e-01,6.562345288717718050e-01,-9.674558981257757218e-05,1.098835594196586815e-02,-3.743732446736483532e-02,1.044127345085144043e+00
6.602722231968558564e-01,-4.161222984783938816e-01,6.368442104411458082e-01,-7.933611468090920327e-02,-1.477675675526738362e-02,-2.323789836187882974e-03,1.074015855789184570e+00
6.555379776935517100e-01,-4.421569629370467602e-01,6.615984609865859234e-01,-4.820035792770844402e-02,1.848912275177223147e-02,-2.759571712754172595e-02,1.105397343635559082e+00
6.683036578063374922e-01,-3.439756168709369732e-01,6.540575644619248674e-01,-9.093099436316956496e-02,-1.473022228797255927e-03,-1.851630396412807036e-02,1.018003821372985840e+00
8.739531054623397299e-01,-1.190504120625461293e-01,6.965559196004520448e-01,-1.518038800890047536e-02,3.358236060312908000e-02,1.717638080992586833e-03,9.194853305816650391e-01
6.619772694539740598e-01,-4.812798364883130731e-02,6.831020866571462236e-01,2.499194124804293704e-02,1.079518767817246039e-02,3.980421195566342246e-02,7.257224917411804199e-01
7.103143787192218728e-01,-5.127725170841301860e-01,6.755925861387019893e-01,-1.266476772336894152e-01,1.601214656192943842e-01,5.984873827749065400e-02,1.261134624481201172e+00
7.899804392675279230e-01,-1.025948538485342398e+00,7.722918637072971881e-01,-4.077680357157176423e-03,-2.201179447680127934e-03,5.471967920323571148e-03,1.807192325592041016e+00
5.527181128448437342e-01,-1.448515101051237042e-01,7.062119500048087417e-01,-1.242038990497061901e-01,-6.351640281917059205e-02,3.617594557090922890e-03,8.219844698905944824e-01
7.768844640603691509e-01,-9.850450013654907799e-01,7.819990830342498089e-01,-3.022411906969212081e-02,-3.423599138558498095e-02,-5.566692364840377348e-03,1.766290783882141113e+00
6.915090696020409489e-01,-5.316212042585528597e-01,4.728028662281853478e-01,-9.153168617889771708e-02,2.765946396107897831e-01,8.556506431692967318e-02,1.246188521385192871e+00
8.916893535841915464e-01,-1.035841532873510440e+00,5.893583888662334846e-01,-2.168913967655882943e-02,-6.713792532184821582e-02,-6.530507717342937113e-02,1.803262352943420410e+00
9.000835912881202105e-01,-1.063626943684007786e+00,5.997241319330701703e-01,-3.275164422695430594e-02,1.780875974585564570e-01,3.254640171460129131e-03,1.858749866485595703e+00
6.963973222754386017e-01,-5.790644246617417945e-01,6.828189989082260603e-01,6.578176259962365685e-03,-2.064947102790561095e-02,6.199059215696635372e-02,1.273815512657165527e+00
8.552745611103067525e-01,-1.033241565310246246e+00,6.184916965773488151e-01,9.370842769361819799e-03,-4.150777432243405590e-03,-2.407059137080479541e-02,1.782538771629333496e+00
8.432123983572819004e-01,-1.022090123831304931e+00,6.598393648782214793e-01,-2.190779182656562435e-02,2.604688836485662823e-02,2.368662573775798946e-02,1.782159209251403809e+00
9.836713111085860772e-01,-1.134543215583605491e+00,4.365466112953383382e-01,-1.316593451659271025e-02,5.863409921328321950e-02,5.505557713208625303e-02,1.909758567810058594e+00
5.138348785000164121e-01,-9.990555113475579896e-01,8.734917916184984366e-01,3.779504902017169488e-02,-2.769625578956911791e-02,1.654422986127008013e-02,1.723287463188171387e+00
9.518355468704498001e-01,-1.442299356592007920e+00,7.279582136578361951e-01,-8.337731885474339300e-02,-7.145513237737253220e-01,-1.779526040138739579e-02,2.607597827911376953e+00
9.604526175009214795e-01,-1.025836680471615692e+00,4.094427970595269084e-01,-8.707319444465452980e-04,-4.320777876320451572e-02,4.154495190418999381e-03,1.777680158615112305e+00
8.097757903634754673e-01,-9.458466153629291329e-01,7.652839319950066610e-01,3.286554405184226313e-02,7.752637100151349436e-02,8.123112333990523126e-02,1.745607495307922363e+00
9.930152157430118809e-01,-7.224627104703793545e-01,1.997896936808465918e-01,-3.202656788870072296e-02,-2.186518203875260132e-03,-1.649969089259898658e-01,1.515280127525329590e+00
1.301361723716013330e+00,-1.494641750286847648e+00,3.198910428992910449e-01,9.343050791113993725e-02,3.371426218574370415e-01,-2.287970601040429930e-01,2.561435461044311523e+00
1.145940943934941281e+00,-8.962527839621182713e-01,2.759908738767258840e-01,9.270018255092802445e-03,2.056175124070842020e-01,-1.090858757683181024e-01,1.820317149162292480e+00
8.408729778774239882e-01,-9.702806433466777403e-01,7.119112360822750230e-01,-4.931957630125248515e-02,-7.277135872329934529e-02,-3.192864896789714135e-02,1.757720589637756348e+00
8.031111298788626840e-01,-8.984743720347334595e-01,6.412860161021384231e-01,-2.249719419366114428e-02,-8.609009276666725052e-02,1.931321010325291396e-02,1.634347915649414062e+00
1.792863030747464670e-01,-1.122064479772596712e+00,1.359257482901507386e+00,-2.079335547893908509e-01,-1.765649578683707588e-01,-3.430892707540539321e-01,2.279861211776733398e+00
7.858596937161250739e-01,-1.030136260535577275e+00,7.597348594886832451e-01,1.465764168349518309e-02,-2.138322663615761690e-05,8.816208311335102521e-03,1.803318858146667480e+00
6.157108260589639892e-01,-8.494567217424908723e-01,7.890887500213086270e-01,1.134654388347274348e-02,-1.055562886528942368e-01,-2.790093988959517143e-02,1.570653200149536133e+00
7.721134771711825051e-01,-9.206785772420694736e-01,7.566513927545527318e-01,2.131603416378242272e-02,1.512352864005016458e-02,-3.941361866192556046e-03,1.685735940933227539e+00
4.999684268871015802e-01,-5.405461308848321655e-01,1.121101204986611588e+00,-1.602204797716528725e-02,-1.052704194359338208e-01,-5.443505893485394570e-02,1.468904137611389160e+00
7.267073788311750882e-01,-1.020006403187794897e+00,8.069450212597198968e-01,3.272293202290234813e-03,-2.335202293064875603e-02,-5.569661114247258411e-03,1.788675665855407715e+00
7.855506668462505226e-01,-1.020335230459773923e+00,7.814858919171211449e-01,3.243631943330517291e-03,7.000006530992110981e-03,-1.788469401053672527e-04,1.803906440734863281e+00
6.101055050782500100e-01,-1.026621705834105391e+00,8.761036029411733983e-01,-2.697829785332154368e-02,-3.572818493239275119e-03,-1.118022093419410515e-02,1.785383462905883789e+00
3.978709436312857228e-01,-7.643522711987082996e-01,8.851009462946113349e-01,-2.141658022408115258e-01,-1.870131568621504203e-01,-1.583981682498623866e-02,1.548451304435729980e+00
9.703234233010704646e-01,-1.114883009966627592e+00,5.248078359900762990e-01,8.111414025357432944e-02,-2.582940037507415187e-01,5.610398383336644840e-02,1.961353302001953125e+00
8.454226504131381326e-01,-1.042610606479539292e+00,6.881758969153558558e-01,1.995626792035846281e-02,-4.439074841975478025e-02,1.218576982290088323e-03,1.816485524177551270e+00
1.070434161420240393e+00,-1.025835050256916681e+00,4.684692555104874589e-01,-2.246238126144017161e-02,-4.990198758082101671e-01,-2.632244015326839492e-01,2.109801769256591797e+00
6.340576746672073050e-01,-1.917778818985133027e-01,5.969842571021346522e-01,-1.313192609450811732e-01,-1.659491552847495166e-01,-6.495356298634444303e-02,8.942990303039550781e-01
7.696381215263417008e-01,-5.353960445929017986e-01,6.111157887347983264e-01,-7.437029509925646709e-02,-2.291812004393873614e-01,-1.892525131722767595e-01,1.342751264572143555e+00
7.071683820279786037e-01,-9.810475521215658024e-01,7.144065719513625901e-01,8.504113559008400760e-04,-3.974474713088727365e-03,-1.542744343730683212e-03,1.691863417625427246e+00
7.233659408037187433e-01,-9.908638965277953847e-01,7.285540526067021405e-01,-1.081759716339529900e-02,-2.320129043098405341e-02,-1.492237781558809068e-02,1.717596769332885742e+00
6.496466745109313878e-01,-9.850231217735099243e-01,7.423578347459587334e-01,-9.458924564481996367e-03,-3.892201300948881781e-02,-1.545524041787431704e-02,1.684583783149719238e+00
6.403191258118094975e-01,-9.776917991939826358e-01,7.449302301521725234e-01,7.030608317086680086e-04,-4.037708855098760818e-02,-5.864949859644200819e-03,1.674264073371887207e+00
7.051083124534260893e-01,-9.848969740435487008e-01,7.104656799963335878e-01,-7.272651927239867121e-03,-1.747535546614028060e-02,-5.426028380458320505e-03,1.693033933639526367e+00
6.273516107116730023e-01,-9.791770378645561212e-01,7.482793085581168624e-01,-8.005796894104312209e-03,-4.059265530762361240e-02,-7.222332743868933175e-03,1.671862363815307617e+00
7.691188048478947437e-01,-8.668084584124386982e-01,7.430921484044630265e-01,3.786849738029361701e-02,8.892536518038712118e-03,4.603674775459093080e-03,1.624487757682800293e+00
5.079678576471493567e-01,-1.019620302840392956e+00,9.060311192778066625e-01,3.191049355732656495e-02,-1.010309716239197672e-02,6.431041829722593771e-03,1.761687159538269043e+00
4.961876941774930883e-01,-9.779703702176537616e-01,8.908386629233885357e-01,-3.467694819398929595e-02,2.652170959873788314e-02,-1.556207574023939916e-02,1.707955956459045410e+00
4.279710126859153085e-01,-1.096555029869611175e+00,9.428025268493380739e-01,7.216359352199391841e-02,-1.565165897298292919e-01,3.944679419866941456e-02,1.862226724624633789e+00
6.208213304694496504e-01,-9.987683433260186039e-01,8.149538203964135086e-01,4.309609149208207257e-03,-9.837313452474670539e-02,3.802173865324366252e-03,1.733292818069458008e+00
4.821626651194528268e-01,-1.013731059023742942e+00,9.293607024941197281e-01,4.869461615682414701e-02,-2.308984835614369749e-02,-7.925778286663510280e-03,1.765090942382812500e+00
5.170876745887553749e-01,-1.016936243822280650e+00,8.818591205188264226e-01,3.375615543709569594e-02,-9.875206422255825012e-03,2.151476021556374997e-03,1.746304869651794434e+00
6.949466342293517673e-01,-9.375427404715784840e-01,7.082023538717607813e-01,-6.513266062451382454e-02,-1.543697950801994345e-01,-3.427659198938597107e-02,1.665706634521484375e+00
7.121078581687232401e-01,-1.022033775509638032e+00,7.962147667179010346e-01,5.589206724477029792e-03,-2.659358157836039238e-02,2.127517173603805933e-02,1.778692722320556641e+00
7.890201141317885192e-01,-1.026969812073214916e+00,7.825719177975032359e-01,-1.553179911269361637e-03,4.408579405522820328e-03,-1.198576903732483621e-03,1.812793731689453125e+00
4.746984826410581837e-01,-9.897854728385090395e-01,8.964173666291170850e-01,-3.665094341232210708e-03,4.830866631700259095e-02,-4.643584763775563274e-04,1.716741919517517090e+00
4.481117035815402327e-01,-9.955764219852534236e-01,9.492955989996265664e-01,-3.616182069266426699e-03,1.980873859994581460e-02,-3.489564825943968721e-03,1.749350428581237793e+00
4.291220079902772211e-01,-1.004272222249653179e+00,9.559162253689456046e-01,1.380863974567734555e-02,1.541685987611508823e-02,-1.377975732833669215e-03,1.757420182228088379e+00
2.913270117928079550e-01,-1.005315924466774202e+00,9.913511260957579285e-01,3.333659629294474791e-02,2.914013161819967862e-02,-4.344381335348330292e-03,1.756398558616638184e+00
4.809708165768102894e-01,-1.020493984249549513e+00,9.560514524796852598e-01,-1.971670243253937846e-02,7.805836660525204002e-03,-1.252022246022968695e-03,1.787391662597656250e+00
2.308119223363300221e-01,-1.228894769164018408e+00,1.242991625597553051e+00,-6.147026817699257142e-03,1.939242555794198908e-01,-3.506566436014641602e-02,2.179302453994750977e+00
4.746162423601427705e-01,-9.979858498915690213e-01,9.015907260220574759e-01,9.564006106247623443e-03,3.367187785826350477e-02,1.133983090815411481e-03,1.727225303649902344e+00
3.384815172373060732e-01,-1.075715218457761413e+00,1.027352231354915713e+00,9.071198685705876563e-03,2.347781959181425779e-02,2.051691527362948728e-02,1.857917428016662598e+00
7.797098792299559378e-01,-1.034577559706883365e+00,7.968437705202078281e-01,5.514384030234526467e-03,1.211529100479715945e-02,-6.843784093106664197e-03,1.823099136352539062e+00
7.807793499871726883e-01,-1.034973921390564211e+00,7.753007169761219064e-01,3.491205870715134371e-03,2.688641995205133875e-03,2.887871513218622302e-03,1.813043117523193359e+00
7.657246882856720838e-01,-1.016462367360814634e+00,7.744901115125953917e-01,4.672074147905942720e-03,-2.789661800763877653e-03,9.937596060257158567e-03,1.786693692207336426e+00
7.814328266725769634e-01,-1.036892887603543478e+00,7.825839325781533962e-01,2.047592322609106518e-03,4.061486457985456419e-03,3.019163990785676648e-03,1.818926095962524414e+00
7.695435045983690658e-01,-1.029377446282064845e+00,7.678385399897298402e-01,6.351804881658418972e-03,-9.951129222241571030e-04,-1.100507181680854171e-04,1.798103570938110352e+00
7.491257254942339516e-01,-1.014867625331850487e+00,7.447249777459884479e-01,9.094884993640174609e-03,-9.226958361335274583e-03,-4.410532597369766711e-04,1.761940121650695801e+00
7.632183995412664679e-01,-9.293888385897783877e-01,7.691794918805425763e-01,-1.117652318291784304e-02,-2.166692704439342546e-02,-2.582727109526658515e-03,1.696127295494079590e+00
7.472252701111664619e-01,-6.942163885497115716e-01,7.283801812338965842e-01,5.062660639323984108e-02,-8.685340427126899548e-03,-1.124241799573076489e-01,1.448025584220886230e+00
7.397715120507252218e-01,-1.020256659791589193e+00,7.706552232689283244e-01,-1.950500232053644853e-02,1.903849736665740380e-02,2.337599234170939511e-02,1.776760339736938477e+00
1.059364038963894306e+00,-1.197099351165608727e+00,6.452337414889454115e-01,-4.803304955744749916e-02,2.776949773589306586e-02,-8.366856662375377410e-03,2.082812070846557617e+00
7.843309507872500141e-01,-1.913646506449669937e-01,5.269553458653700728e-01,-1.234081345211818781e-01,-9.162244902251983139e-03,-1.374073866645798558e-01,9.325699806213378906e-01
7.304091731395555565e-01,-8.063198412648083790e-01,7.378244211249470608e-01,-1.465295140516529454e-02,1.014390400271828960e-02,-6.654794024912223660e-02,1.545064687728881836e+00
8.374645912546716531e-01,-1.035449602994017226e+00,7.874292111587715137e-01,-8.625959368756506984e-03,2.398772361303340081e-02,-6.633873049919712661e-02,1.852498650550842285e+00
9.194730996043549709e-01,-1.074955765358866833e+00,6.077508632227183183e-01,-7.738792503377239611e-04,-6.854740394389137459e-03,-7.395615437387085232e-03,1.858363866806030273e+00
7.045270984495498601e-01,-6.907305959704826970e-01,7.376517600899554772e-01,3.860565503768606955e-04,-1.006844905455208869e-02,-4.833678762663197459e-02,1.414698719978332520e+00
7.346707304911828107e-01,-8.541637845572053189e-01,7.639458095082812816e-01,-2.120378236199394265e-03,-1.019508685127606907e-03,-3.052985847044180009e-02,1.604549169540405273e+00
1.000576955444166805e+00,-3.671162362139064883e-01,5.474576515759381756e-01,9.841756077382260437e-02,6.038934757466980774e-02,-1.347561337978265550e-01,1.245250940322875977e+00
7.187813621260995545e-01,-7.768168716520176265e-01,7.495096678665666978e-01,-1.387438488905595214e-02,-9.126353759594803966e-03,-1.893808050502799462e-02,1.511826276779174805e+00
8.298343451835993312e-01,-9.934400020851709145e-01,5.328266855572555416e-01,-1.540256468385053923e-02,-7.511090549866200616e-02,-2.036935147444282959e-02,1.699970006942749023e+00
8.851159412944900051e-01,-1.015394901681726081e+00,5.248168084603928030e-01,-1.305945429365072512e-02,-6.831885081235615498e-02,-1.237326077697567875e-02,1.752705812454223633e+00
9.132169874668792930e-01,-1.006236954473371359e+00,5.037935378536410047e-01,1.391647822382152374e-03,-1.057629110086952609e-02,3.783516947552469003e-04,1.751114845275878906e+00
1.438899469228089423e+00,-1.599956691626847505e+00,2.288352033328139301e-01,1.308008057608341101e-01,-3.935483170797834246e-02,2.082708673939112354e-01,2.684733629226684570e+00
8.719252386301570290e-01,-1.052540723850927895e+00,6.810290178314086784e-01,-8.538383768111780861e-03,-1.389876949258975203e-02,-1.363314296062082334e-02,1.836843252182006836e+00
8.145066801215561370e-01,-1.022970144901196976e+00,6.682040316063497798e-01,-1.760338117795365309e-02,-2.871755508599156334e-02,-2.602943950626086800e-02,1.770405054092407227e+00
1.201338270268488495e+00,-1.159552527264844590e+00,2.298056281092792918e-01,1.404078714535310080e-01,-3.145121233417927376e-02,3.069606636529884081e-01,2.137471437454223633e+00
8.779429480836342670e-01,-1.226834729143644553e+00,7.089322768882243553e-01,-5.421090763703834137e-02,-1.315745732591754036e-01,-2.506253800614142990e-02,2.040970325469970703e+00
1.151180427219719027e+00,-1.096606946760412704e+00,1.652010889368177304e-01,-8.856339894193207551e-02,-2.252232493781598510e-01,-6.442227733509366117e-02,1.999147057533264160e+00
6.892928528836671509e-01,-9.429555111335787831e-01,8.455336548804909258e-01,6.092812647138944743e-02,-1.884691345867648901e-02,-5.830688292195450317e-02,1.722228527069091797e+00
5.136962152460322617e-01,-1.002683654556268955e+00,8.802885129928013086e-01,-1.689188918602652772e-02,1.336283689580896050e-01,9.846948568126822829e-03,1.744823098182678223e+00
6.059100193812120283e-01,-9.743020274184084339e-01,7.208316844373305887e-01,-6.469035340053412575e-02,3.836414690172398889e-01,5.444518497307447580e-02,1.776194691658020020e+00
6.909931020975605964e-01,-1.006007287243329218e+00,7.003054202378916626e-01,-2.564219205820171543e-02,7.802703062299110037e-02,4.000529199248397533e-02,1.709016799926757812e+00
6.382211146103753396e-01,-1.040030310233353017e+00,8.611690071280382330e-01,-4.213179884046782536e-02,2.715865703190481484e-02,1.014266791718091906e-02,1.802288293838500977e+00
5.524642339138324809e-01,-9.793786440833009976e-01,8.031550233291907537e-01,-2.063305951430310925e-03,5.855712068646287682e-02,1.148614919653582166e-02,1.674545526504516602e+00
7.940584522860618666e-01,-1.015714072297943638e+00,7.786633068917685474e-01,-2.412030487017469658e-03,4.342363870540223367e-03,-1.715236098190541989e-04,1.802144885063171387e+00
8.099320400303781087e-01,-9.291614277851989456e-01,7.304880539271186857e-01,-4.960523973013704346e-02,3.970890935034459071e-03,-2.866478526045181802e-02,1.703669905662536621e+00
6.778266951001470364e-01,-1.331548312906057241e+00,1.029549919052142437e+00,1.871670124410499542e-02,1.643004789057378456e-01,1.603008434581196934e-02,2.225049734115600586e+00
6.733485478548041359e-01,-9.957391996547785284e-01,7.658332113309589406e-01,1.728956496516648785e-03,4.961715921492766690e-02,1.835957056288585118e-02,1.719644784927368164e+00
6.603968944785997275e-01,-9.879177221251008723e-01,7.558829064522416541e-01,-1.046003718118781317e-02,3.222489879107474919e-02,9.478036411370203973e-03,1.699165344238281250e+00
6.652760647728512833e-01,-1.020243683063204454e+00,8.086223108865389086e-01,-2.989477282263485955e-02,1.340314623023321564e-02,2.298741145351619261e-02,1.762935996055603027e+00
8.059524625866368863e-01,-1.046143003340346711e+00,6.246615184942743149e-01,1.257305940314522655e-02,1.298484408377368338e-01,-3.542002209923487271e-02,1.783865332603454590e+00
7.814677391730385780e-01,-1.033003567680752965e+00,7.827186516044601916e-01,-7.383456687316096445e-03,-7.690546869477853792e-03,4.385673658346909629e-03,1.815206885337829590e+00
7.781952898546283803e-01,-1.034994135778119384e+00,7.799840556919899193e-01,-7.789272970134456355e-04,-2.442329217154510547e-03,6.388765075524108260e-04,1.814090251922607422e+00
7.822496310547044640e-01,-1.036845937347132152e+00,7.800022771287153933e-01,-2.530699102599760254e-03,-9.268898318535216891e-04,-5.615930714327535805e-04,1.817979216575622559e+00
7.787078250428868254e-01,-1.032245130357259733e+00,7.721365998834686106e-01,-9.970207031091821853e-03,-4.372605081259773978e-03,-2.071208451818324237e-03,1.807778239250183105e+00
7.768086414124195649e-01,-1.032655301028003070e+00,7.829808117965244563e-01,-4.267432039425899000e-03,-5.309371632452675530e-03,2.202855531700571683e-03,1.812600374221801758e+00
7.742475498620924323e-01,-1.031632071102732473e+00,7.671792900010332428e-01,-3.829593342934224480e-03,2.747214264949889712e-03,5.435567405007515895e-03,1.802398920059204102e+00
7.695418407097093239e-01,-1.030991517783344413e+00,7.756082888545697829e-01,-3.797622956342906623e-04,1.196520006152359834e-03,1.978612450571228096e-04,1.803575634956359863e+00
7.753415552825639878e-01,-1.033332433019128915e+00,7.746405013792437844e-01,-5.807547717567180731e-03,-1.934799857737187767e-03,8.943616644697244961e-03,1.808421015739440918e+00
7.680476660441304393e-01,-8.538307165337832849e-01,7.415387915533909746e-01,8.272203369262700820e-03,-2.028430004905407841e-02,1.112275851756220485e-02,1.609350442886352539e+00
8.367337517719227735e-01,-1.021953328359053170e+00,6.899380236981585979e-01,-2.268111170280296979e-03,1.451311238046281912e-02,-1.424011627131568578e-02,1.790160655975341797e+00
7.139994152970255969e-01,-7.599804377137863165e-01,7.543519296184255651e-01,-1.324192478259550720e-01,2.498575796093362861e-02,-1.937149419488241875e-02,1.513052225112915039e+00
7.329094840625796081e-01,-7.353637810589001012e-01,7.266449289544465451e-01,-1.007165096542346309e-02,-2.025238224151881469e-02,2.347993366637254886e-02,1.466238856315612793e+00
6.408753872735614143e-01,-2.179820357063944058e-01,7.799622938709457332e-01,3.529237545204309823e-02,-5.017393412642491557e-02,-4.531487748267398752e-02,9.454556107521057129e-01
2.822586365567248401e-01,-7.517039341541555952e-01,8.551095671583419655e-01,-1.358163183633614712e-01,2.467695308318347824e-01,2.444281117782079460e-02,1.493103981018066406e+00
7.861622750456459530e-01,-1.031019956856208397e+00,7.886888124523732113e-01,2.607489262603921842e-03,2.617816987898953420e-03,-8.761345558282339005e-04,1.818458676338195801e+00
7.815120278239890972e-01,-1.025051628464485054e+00,7.879765025614771101e-01,3.007776877445001405e-03,2.158642357497531257e-03,-3.897883757870423960e-04,1.809816002845764160e+00
7.805112447376936213e-01,-1.018553335437382357e+00,7.959600280893224244e-01,-1.454983133199319384e-03,3.910103465847781200e-03,3.784592356851185137e-03,1.806864857673645020e+00
7.712694854051153071e-01,-9.730927064704989471e-01,7.744223026982494096e-01,-5.924883913644558809e-04,1.062229622818314928e-02,-1.217416180923186833e-03,1.746039271354675293e+00
7.571505517657728390e-01,-9.299972340584188313e-01,7.710428726788437492e-01,4.369686060462048792e-03,1.603587595263934740e-02,-1.556927198025263859e-02,1.694595813751220703e+00
7.954397284346697017e-01,-1.022421423564972454e+00,7.806617505831260351e-01,-3.900634342891129164e-03,1.836802463439222337e-03,-3.574211057464676128e-03,1.810543417930603027e+00
7.717498957963462303e-01,-9.927041250209546197e-01,7.854934553909515005e-01,-3.971598763636944272e-03,9.232612891983835168e-03,-1.221054644735124380e-02,1.771577596664428711e+00
7.616737419505321682e-01,-9.646526122831435845e-01,7.959256989820009398e-01,5.892448598303476668e-05,1.656224602067306144e-03,6.121638271220256750e-03,1.743739247322082520e+00
7.726882668937049559e-01,-9.719600770611072083e-01,7.756010418013767893e-01,-7.660308210066138317e-03,1.625930065292541249e-02,6.373267229095713055e-03,1.746418952941894531e+00
7.779323925583021548e-01,-9.324899717301935453e-01,7.953862234735120662e-01,-6.054527459493252300e-02,3.024891405195049426e-02,-2.660438164782702800e-02,1.723823785781860352e+00
7.852779956289234198e-01,-1.021775468424934941e+00,7.817962775896563077e-01,-5.280941443885293907e-03,9.343040465357752705e-03,3.240070544849247593e-03,1.805419564247131348e+00
7.746114014829343919e-01,-1.033080135152031342e+00,7.771699516331076474e-01,2.433353666782016832e-03,-7.527199983551603702e-04,3.534436839747271894e-03,1.808987855911254883e+00
7.820633466152950852e-01,-1.033307067259802592e+00,7.836577780457443243e-01,5.966141709346329397e-03,6.651461712568274356e-03,8.887498755533620662e-03,1.816299319267272949e+00
8.041215456907303549e-01,-1.046320397280389836e+00,6.254015119721721971e-01,3.589355906208552272e-02,-3.035076575079940220e-01,9.420845177976623630e-03,1.845493793487548828e+00
7.745070686323418663e-01,-1.033135192710009420e+00,7.806053691688171758e-01,6.615949052387628398e-03,5.556145005634138302e-03,3.881066353279726509e-03,1.810773372650146484e+00
7.858706889159282616e-01,-1.017961401062866589e+00,7.762004280139535028e-01,7.015003413922533959e-03,-1.001217905803460009e-03,6.636300225867609696e-03,1.799095034599304199e+00
7.740133490008189732e-01,-1.034044749676537700e+00,7.745808058408583108e-01,1.609339802747738069e-03,-8.149912775162000602e-04,1.652924430877310887e-03,1.808346867561340332e+00
7.836427484958048417e-01,-1.033859880892003202e+00,7.757269162979328891e-01,3.483766693599277525e-03,3.752127880910288357e-03,4.305907678549577081e-03,1.813594698905944824e+00
7.400619581587821738e-01,-7.696974178329205607e-01,7.723025970406334206e-01,-1.403489113014857667e-02,-1.827192654583210257e-02,1.375247480178452275e-01,1.545127868652343750e+00
6.984265749493886455e-01,-6.778178592214261222e-01,7.306414499728562939e-01,4.068839228189054247e-02,1.348616418752712418e-02,6.842704368724163155e-02,1.399636030197143555e+00
7.725428681601796965e-01,-8.497678936794869076e-01,7.444506180897471070e-01,-6.523222852374691016e-02,-1.730589696042746095e-02,1.438891545328980781e-01,1.631834387779235840e+00
7.254305538602243697e-01,-8.500973948804737557e-01,7.713611324064342245e-01,-1.074284362671241479e-02,-3.691571307933813259e-03,4.130802179274034591e-02,1.600708961486816406e+00
7.308119679598749086e-01,-8.388158089040269605e-01,7.665088204329627564e-01,1.128753696857212087e-02,2.171344822139812183e-02,-1.101682205676391552e-02,1.588457465171813965e+00
6.329463569057480754e-01,-4.005660142679756119e-01,6.634143079912193652e-01,2.433037253233826577e-03,-5.933168854272526799e-03,6.085874903113647899e-02,1.054419159889221191e+00
8.715477574519518988e-01,-1.024777603257577940e+00,5.886224156465373891e-01,9.479049831475409166e-03,9.855993736044084408e-02,-9.434315686719738775e-03,1.780240654945373535e+00
7.040022962953926822e-01,-1.000704385501287375e+00,7.733947207074411967e-01,1.667100656076959259e-02,4.622480087702175722e-02,-1.232037476641784611e-02,1.742651224136352539e+00
6.694871664660773103e-01,-9.865391776378120703e-01,7.489290834712627465e-01,-1.255144641889309421e-03,6.160544482570880220e-02,2.822813549095025496e-03,1.700501799583435059e+00
7.998656674808234390e-01,-9.909859477517904969e-01,5.882908043132402121e-01,1.517669531240715096e-02,1.790619732525034272e-02,8.768184291404565456e-03,1.695552349090576172e+00
7.787032077801153696e-01,-9.945003077439324990e-01,6.698236595291080508e-01,1.632514027805997275e-02,5.205952360285564379e-02,-1.696164061126002182e-02,1.724190592765808105e+00
5.887825102375832120e-01,-9.966464996208218574e-01,8.242879286077297030e-01,8.301276492743057955e-03,5.586322786507753879e-02,-1.558668179993978522e-03,1.718138933181762695e+00
9.809850506318374963e-01,-1.181268597241321272e+00,5.134943583424186331e-01,3.994663334982259673e-02,3.057737410353145169e-01,-1.559395782126733222e-02,2.041828632354736328e+00
6.882993219740942692e-01,-1.016501064787851405e+00,7.910346560737568922e-01,2.100728332088932018e-02,-1.153706613179248178e-02,2.579866881555288594e-02,1.759477734565734863e+00
5.618712928919393779e-01,-9.895179634233682853e-01,8.303309877315520060e-01,-2.122711201693769541e-03,-6.960503350962640723e-02,1.599182376398309430e-02,1.706071496009826660e+00
6.016266959316662888e-01,-9.861199057548777347e-01,7.924737373931505235e-01,8.955146763110224950e-03,-3.006533552603285475e-02,1.360676071360011549e-02,1.692302107810974121e+00
7.227151502266787597e-01,-1.007829640195969212e+00,7.557371877370492319e-01,1.013612052255148319e-02,-6.452719711063079067e-03,1.771388586474850757e-02,1.747683167457580566e+00
7.117215140864926459e-01,-1.081550390080083357e+00,8.826916516285809866e-01,-3.549063548248208161e-02,1.746976803976267589e-02,-1.016144060328138914e-02,1.885909557342529297e+00
7.995310361610088457e-01,-1.025068060385110780e+00,6.972427696993614976e-01,2.471275958634242681e-02,-3.905562389828148157e-02,2.292749743184760089e-02,1.777913093566894531e+00
3.343230609861685410e-01,-5.630563793418195129e-01,1.109098142633963446e+00,1.600601594123956251e-01,-9.519831739699621820e-02,3.584132410046484557e-02,1.486180782318115234e+00
6.615332770582043054e-01,-9.242037337274713327e-01,9.086514983830116243e-01,1.566187291995921327e-01,-5.343322698597012879e-03,8.163751578235986517e-02,1.749617576599121094e+00
7.558445914112543740e-01,-6.142395217772902427e-01,8.614544999472836251e-01,1.265418090860410405e-01,3.688302253842492551e-01,-1.285752592276136475e-01,1.593335747718811035e+00
4.954367509416012783e-01,-2.937467832470377349e-01,1.071677368819702103e+00,1.008293288401887339e-01,1.612804531875370317e-01,-2.007887998822143194e-01,1.280275702476501465e+00
3.480055457088009341e-01,-3.991343984069376516e-01,8.787904966104475024e-01,2.498944981840333646e-01,-1.930614673652192650e-02,-5.951325748604817389e-02,1.198168158531188965e+00
1.446024804460737112e-01,-7.148883705290682844e-01,1.039386552934942864e+00,1.193437661282155254e-01,5.534252665669875393e-02,6.817840148555473490e-02,1.540871143341064453e+00
6.698954193421431391e-01,-5.919070577318413795e-01,8.123751067837308160e-01,1.630044980227638995e-01,-7.836147356570016473e-03,-3.306149787622491426e-02,1.369453191757202148e+00
5.827562502343724971e-01,-9.892984010693306463e-01,8.175925243162006639e-01,1.689488716636585591e-02,1.043484701828145123e-01,-1.489320228109678942e-02,1.711685419082641602e+00
5.397239310913045651e-01,-9.980024229332145058e-01,8.410625458572215107e-01,4.497343281148628857e-02,1.382751310042507897e-01,-9.309709511345213781e-03,1.726983308792114258e+00
7.728896766685946496e-01,-9.955464861848125624e-01,6.665493793456369609e-01,-1.535842878109027268e-02,-2.730955393947743712e-02,1.217084935701800551e-03,1.718594789505004883e+00
7.407295786660863524e-01,-9.851073771118459277e-01,6.805050819374582893e-01,-4.562913347024194141e-03,-1.449701286858482568e-02,-2.788210916948889381e-03,1.696737647056579590e+00
7.564261181580216320e-01,-1.003818666349295397e+00,7.111721210690780115e-01,-1.724116583801941355e-02,-1.187070466946950516e-02,-9.604736544273802246e-03,1.738517403602600098e+00
7.182204993993883679e-01,-5.168539412978835346e-01,7.391681319900693659e-01,7.461154904109365549e-02,1.989692060819538144e-02,-3.845270254100435769e-02,1.254608988761901855e+00
6.220589095131230373e-01,-1.116197623217417001e-01,6.185714627178133806e-01,6.583504068690691812e-04,5.424076558124144888e-03,-1.659310444382741667e-02,7.325663566589355469e-01
6.324285319211292444e-01,-1.953497346961355907e-01,7.019731729341160964e-01,-3.721497645160870560e-02,-2.756253158952790341e-02,3.333487249448394141e-02,8.702806830406188965e-01
5.810639393217844617e-01,-1.825419826890730679e-01,7.140105999589166919e-01,1.337600446869269544e-01,9.238149707402476540e-02,3.657456272910192957e-02,8.863289952278137207e-01
6.905340761180966958e-01,-5.487005628115657618e-01,6.780506663175164261e-01,4.500243613178211977e-02,-1.881651561713260784e-02,-4.404550531386367679e-02,1.238283634185791016e+00
7.241193809840962281e-01,-5.744032920275995435e-01,7.840505748052726265e-01,8.787443588633450653e-02,-7.309101795085775136e-03,-3.930151641389327544e-02,1.339975595474243164e+00
7.514554416036921536e-01,-9.845923658186933602e-01,6.081423764197106951e-01,2.261624363262246945e-02,1.273901423525446441e-01,-2.451705398623785226e-02,1.684525132179260254e+00
1.021277170279295099e+00,-6.037428405550904209e-02,7.012110085605989251e-01,3.233740441473689775e-02,-4.296312418786965570e-02,4.286448894197657233e-02,9.697416424751281738e-01
6.023676298164728493e-01,-1.950007517612218910e-01,6.495446990415354449e-01,3.518812436460364013e-02,1.483851191965359362e-01,-1.525113409972120582e-01,9.028774499893188477e-01
6.948290349101936547e-01,-8.110442813520657435e-01,4.727749026791632780e-01,-1.675385350434596965e-01,3.923802742222819440e-01,1.346179680222150954e-01,1.607183098793029785e+00
4.657476552360613198e-01,-1.428938069581044967e+00,1.145374944384309757e+00,-1.310489334536225903e-01,6.688164035141467290e-01,5.003152196019201858e-02,2.596225023269653320e+00
7.704058036052685576e-01,-1.083785309122923701e+00,7.969195847946393130e-01,5.367290501022657645e-03,1.394202561515748076e-02,-1.757805933343066507e-02,1.868016600608825684e+00
7.093830333296327062e-01,-1.008953564639475386e+00,8.147781261433599820e-01,7.780252453573464899e-03,1.237512018933865053e-02,-8.318674457515492365e-03,1.773623824119567871e+00
7.123304581464371399e-01,-1.093586018680939187e+00,9.206718289898072616e-01,-4.218762828328505299e-02,7.512715603510497497e-02,2.434887040586475315e-03,1.924390077590942383e+00
7.473938415614294062e-01,-1.026078820896592303e+00,7.919985973277821056e-01,1.653797672639704605e-02,1.065452845450030189e-02,-3.117911171846344739e-02,1.797325134277343750e+00
5.028551658958042569e-01,-1.234799905673112264e+00,1.082797364786685979e+00,4.041738897907699857e-02,1.551394469473301729e-01,-3.729693378594612502e-02,2.108268499374389648e+00
7.800805697701216346e-01,-1.035410583027613241e+00,7.793282420746225903e-01,-6.015788338069111979e-03,-2.720729618228210234e-03,2.059614236063267434e-03,1.815154671669006348e+00
7.830580842090013594e-01,-1.033832104114861261e+00,7.851549274541551604e-01,-3.525787101057078782e-03,-3.370329373317384851e-03,-1.653859945381818981e-03,1.817961454391479492e+00
7.830499764360646653e-01,-1.032242828253202793e+00,7.847232228835095968e-01,-3.254740565497557091e-03,-2.166227172781601262e-03,-1.204126649765245099e-05,1.816142678260803223e+00
7.841566549992813329e-01,-1.036389691059717455e+00,7.856066087031738920e-01,-1.824975223780929499e-03,-4.936037963580832202e-03,2.363904044475468452e-03,1.821299195289611816e+00
7.848564043567533011e-01,-1.033041551290916127e+00,7.742215547920326957e-01,-7.863289013908425495e-03,1.531177228010081404e-03,4.035909057774690264e-03,1.812670469284057617e+00
7.776556878916972559e-01,-1.031783111662001762e+00,7.699538216837408244e-01,-1.068470001858155306e-02,-2.846436670943393223e-03,-1.140115881200624761e-03,1.805702805519104004e+00
7.815069884063257089e-01,-1.023555425277737685e+00,7.911110636589320233e-01,7.725088225983815391e-04,-3.333400248379161240e-03,-1.513796361969296095e-03,1.809895157814025879e+00
7.812936831485199907e-01,-1.019675048697008313e+00,7.909629546820423629e-01,-2.775274662987220562e-03,-1.146950392576180471e-02,-2.942749920192899889e-03,1.805945634841918945e+00
7.649565724632586550e-01,-9.338084946334456182e-01,7.680604081987524312e-01,1.714368721176886753e-02,-1.723850268808338471e-02,-1.357291306829956981e-02,1.701002955436706543e+00
7.747067078421249198e-01,-9.786217094206658418e-01,7.768283404376694623e-01,-5.551498820481004515e-03,-1.618346881655507649e-02,-7.597653214975071817e-03,1.754689812660217285e+00
7.815407170686056171e-01,-1.033011791400526125e+00,7.846499966327468156e-01,-1.524284596058136758e-03,-4.564047476717365999e-03,1.248078047938628666e-03,1.816129565238952637e+00
7.837687791925871394e-01,-1.022313524859056688e+00,7.769596707223462850e-01,-7.814031040080327006e-03,-3.083617509736574867e-03,5.296674397264020638e-03,1.802769422531127930e+00
7.704266049195734878e-01,-1.023204985254968280e+00,7.512513997341373484e-01,-1.895887728051572074e-02,1.790156560048758450e-02,1.265283545586854026e-02,1.784827351570129395e+00
6.456746646157116576e-01,-1.006353220399099024e+00,7.142289259021605830e-01,-1.314205227740953934e-02,1.958413962528402219e-01,5.220081174103517740e-03,1.721281766891479492e+00
7.731179090458453196e-01,-9.899338456393800278e-01,7.758356192122967121e-01,4.345466346427830084e-03,-9.717810095497115760e-03,-1.410590754538055408e-02,1.764677643775939941e+00
7.841284292086661001e-01,-1.035140763457883750e+00,7.852226237588612046e-01,-4.224560173411709939e-03,-2.561517826243072359e-03,-1.789613990804063588e-03,1.819839239120483398e+00
9.631372404462592574e-01,-1.015850251416531513e+00,4.489782688754594964e-01,-1.222841630987481134e-03,3.218227074640839236e-02,9.852005930337439515e-03,1.779505372047424316e+00
8.730293079373815379e-01,-1.017280515473681257e+00,5.648623112025789039e-01,2.748363641602572698e-04,1.358110390989133998e-01,1.411552579085862107e-03,1.772300004959106445e+00
8.874183611417325590e-01,-1.015951746908537734e+00,5.042172428724556177e-01,1.632859204389679880e-02,6.751303223134443032e-02,-6.680151107624638859e-03,1.747825860977172852e+00
9.568280059502014545e-01,-9.931591434595743451e-01,4.411895588957545078e-01,4.477849612086644282e-04,3.462992282468243394e-02,-2.996873697348853734e-03,1.751133799552917480e+00
9.099754644703497153e-01,-9.950593888211305416e-01,4.475445930602772737e-01,1.938135333660762419e-02,9.083193756031043842e-02,-8.329169781140328618e-03,1.728623628616333008e+00
9.125837242777465885e-01,-1.019060706423463358e+00,4.906780477873858293e-01,8.498603177085329446e-03,1.284532885938239645e-02,-1.004388027146354764e-02,1.759345650672912598e+00
4.970965515200974627e-01,-1.043788832545254008e+00,9.676361884561379689e-01,1.468222043312498656e-02,7.161381971669583679e-02,-2.077279575041886955e-02,1.827049493789672852e+00
6.993828766949689024e-01,-9.798634673685558960e-01,7.125384242632455400e-01,4.225011052426183925e-03,-1.953217900655233180e-02,-4.576288169354322637e-03,1.686236500740051270e+00
7.780908577684898519e-01,-1.037572414415374844e+00,7.819565124951858293e-01,1.220014896156280644e-03,1.757967066791654492e-03,6.966458412398845242e-05,1.817602992057800293e+00
7.806850014526798276e-01,-1.037141926446129014e+00,7.863127412015933348e-01,3.365795604550703320e-03,1.946955053604326486e-03,2.415209707058368210e-03,1.820664525032043457e+00
7.808853144242301481e-01,-1.035346382774373630e+00,7.858048143619298376e-01,2.344775058821994048e-03,3.281294327592291105e-03,1.345772849091964778e-03,1.818711400032043457e+00
7.728920721815664141e-01,-1.033815094778139265e+00,7.803843538684361869e-01,2.675112926822327108e-03,4.291883591934366566e-04,4.927102179353308291e-03,1.810491085052490234e+00
7.250854963883397453e-01,-9.902681903105140515e-01,7.060180849818527005e-01,1.772302383751355251e-02,-3.342006460550609598e-02,1.501957778658274956e-02,1.707355976104736328e+00
7.808180347093010010e-01,-1.035019281534525382e+00,7.746606514540426147e-01,2.694917777204265154e-03,1.751840710094585730e-03,2.500497392746286844e-03,1.812780141830444336e+00
1.062165874698115964e+00,-1.036688333829054010e+00,4.496947670830750976e-01,-1.645390121701422598e-02,-9.547768933990732898e-02,-1.797637166364644823e-02,1.877219200134277344e+00
1.003697940087526108e+00,-1.113562202618201047e+00,4.954526867758755060e-01,3.019742695660895121e-02,5.291185410272337963e-02,-3.321327917558923593e-02,1.918191909790039062e+00
8.909181598052657858e-01,-1.031962426186162407e+00,6.093057434183080101e-01,4.025212794311845699e-03,-1.015042515565040514e-02,3.769369747222703348e-02,1.799968957901000977e+00
8.543230693645954554e-01,-1.087836704537364474e+00,7.297545381404464404e-01,2.434788754648660111e-02,2.433589996028132432e-02,2.381083017570223906e-02,1.884363532066345215e+00
8.834972641375810065e-01,-1.008871183982971154e+00,5.804574022911368480e-01,-2.583461935222358327e-02,8.967710892321355265e-02,6.022300079878562494e-03,1.767955183982849121e+00
1.012220288277506874e+00,-5.951158756883025980e-01,4.094795241110609219e-01,8.978087706491964803e-02,1.920070896737387234e-01,-1.866519769386571215e-01,1.489066123962402344e+00
1.102892858717825053e+00,-9.493266662359352015e-01,1.513757390063154573e-01,-4.178595531371941812e-02,1.326538410436497173e-01,-1.822717603491789129e-01,1.822626113891601562e+00
7.190358535470448009e-01,-1.001597683958085128e+00,7.473820922484653018e-01,5.572439458941325259e-03,4.966222098356322390e-02,-9.893900458263382713e-03,1.737222671508789062e+00
7.372983077329904322e-01,-9.837603953438390780e-01,6.814334344324435300e-01,5.929767527960939574e-03,1.322730415110966867e-02,-8.950691594010909240e-04,1.694004178047180176e+00
6.945502470995902344e-01,-9.855408626454902343e-01,7.011507753563437362e-01,-9.696603778800480522e-03,6.290618645973278245e-02,1.247922473290492655e-02,1.687145471572875977e+00
5.995087403826520056e-01,-9.932188545287508052e-01,8.193047038106786584e-01,2.545415685652223370e-02,2.902547244686886144e-02,-1.664153080660867381e-02,1.714779496192932129e+00
7.248872808364095199e-01,-1.001240642007801052e+00,8.047512103417191476e-01,6.694010336245413695e-03,9.785501453868881983e-04,-7.802696727154134239e-03,1.767504215240478516e+00
6.953320320733518134e-01,-1.036035085053561566e+00,8.423357731415611616e-01,1.378991527748651188e-03,1.485803962800989232e-02,-5.944950173094985454e-03,1.809567213058471680e+00
7.981017998207107222e-01,-1.022080688503761436e+00,7.860558960279020457e-01,-1.191668952997754043e-02,-1.809185196960180417e-03,-4.963779183995055931e-03,1.814329981803894043e+00
7.914653600462258076e-01,-1.021843395572621382e+00,7.850159326935139958e-01,-3.543033753922726452e-03,-1.414587671236877415e-03,-6.846457228574650763e-04,1.810105085372924805e+00
7.969654589704401326e-01,-9.668015436038096544e-01,7.577480888463090647e-01,-1.913393154470095087e-02,3.903811474163618178e-03,-2.071780150527783877e-03,1.744820475578308105e+00
7.732740090049298187e-01,-8.494727283003231655e-01,7.263886999357808127e-01,-3.555083569586523634e-02,5.978448914282652113e-03,1.874836988674923348e-03,1.601040720939636230e+00
7.289526368096106435e-01,-8.499386727126908569e-01,7.738976455180989200e-01,2.000763379058155924e-04,2.335114930122084067e-03,4.520664844920559144e-02,1.603754520416259766e+00
7.237092027101689196e-01,-8.080442776057407128e-01,7.704233762610913638e-01,-4.132764665053752554e-04,8.614101913601795654e-03,6.896177869057115717e-02,1.560287117958068848e+00
6.886961600600253197e-01,-6.163864592442872548e-01,7.207038875627139740e-01,1.422774909829597860e-03,-2.265229515922057794e-03,7.566375383331323812e-02,1.327868342399597168e+00
7.015882378282549681e-01,-6.585721928134187220e-01,7.254024314382407912e-01,1.041075825781993119e-02,1.476717987492352085e-02,7.680490821710189708e-02,1.379010915756225586e+00
3.871556448195941913e-01,-9.934741492095431337e-01,9.621299730338140899e-01,-3.367184365958952874e-02,4.591346156793495864e-02,-4.450257274100199133e-03,1.743658661842346191e+00
6.142781382672879431e-01,-1.040791697758216339e+00,8.858904196868734315e-01,-3.929308409036010724e-02,2.756545099370022629e-03,1.303395234595931818e-02,1.807686686515808105e+00
7.174402457916484455e-01,-1.006558219557083023e+00,8.850982387353950598e-01,-1.936994410673605754e-02,3.979124730209698813e-02,2.874966368417357018e-03,1.815274715423583984e+00
2.971121509019129525e-01,-4.773853879074638762e-01,9.327049180717505994e-01,1.169297208587982972e-01,6.763058410873073155e-03,7.977456685770296929e-02,1.247532129287719727e+00
5.629890750638814056e-01,-4.869558628610347051e-01,9.173352628322446467e-01,1.367309247698521857e-01,4.815230800079223911e-02,7.809225152393223408e-03,1.289656758308410645e+00
7.622424664238562908e-01,-1.480513002926871491e-01,7.767747926790883328e-01,3.764546655289052746e-02,-1.967130683116257925e-02,3.326605783358870666e-02,9.223919510841369629e-01
7.821820583687766337e-01,-1.012678655053210974e+00,7.889414287704688000e-01,3.332835841463499538e-02,-7.441641217638562261e-03,7.260503484422684874e-03,1.799266338348388672e+00
4.218116999648812149e-01,-5.261160160205688996e-01,9.162877800664561700e-01,-4.363402337369847936e-03,1.155260033815278670e-01,7.212484147695466530e-02,1.291318297386169434e+00
7.631398604592047885e-01,-1.006776105053246884e+00,8.284574517863573240e-01,-6.049230784166850783e-02,3.290117348787972851e-02,2.334164131001703613e-02,1.807853817939758301e+00
3.282147912484834062e-01,-8.860544571250427159e-01,9.500400789983985961e-01,-3.260909854940039487e-01,2.989118950178745182e-01,9.389363493246109804e-02,1.797130703926086426e+00
3.866183358164569928e-01,-1.143712009266968810e+00,1.046691730927521213e+00,5.076316897446573467e-02,9.485643772455784606e-02,-4.986275796303650705e-03,1.955130815505981445e+00
4.533302858244407929e-01,-9.996151188049575698e-01,9.242752134309315526e-01,9.531533300441158083e-03,1.238670056794038098e-02,-1.932512408926051386e-03,1.737193346023559570e+00
4.564034635546580509e-01,-9.854304706747447629e-01,8.584365873316414097e-01,-1.208275038917559600e-02,1.257105172227879208e-01,4.052192816984601098e-03,1.693539857864379883e+00
4.658197526142059397e-01,-9.740749442963709814e-01,9.075504897032833362e-01,3.332068423878922769e-02,-1.081124718696956089e-01,3.747089294753915695e-02,1.716705083847045898e+00
5.118758104421672339e-01,-1.014745403253163980e+00,8.993999841329809453e-01,4.260242572090031099e-02,2.885081816737846555e-02,-1.352263719722551077e-02,1.755232334136962891e+00
5.876687774883397886e-01,-1.010801687861472731e+00,8.819571736438891474e-01,-9.726529234753044512e-03,2.069085553739014732e-02,-1.360465157165399210e-02,1.764723300933837891e+00
6.391771301212664236e-01,-1.057410259185045387e+00,8.663006000942183871e-01,-2.945997484493486154e-02,5.632820194544022052e-02,2.676878348054978485e-02,1.824719309806823730e+00
5.539067943671263095e-01,-1.028036828511368128e+00,9.411936258971176361e-01,-2.880855497384130284e-02,1.869209271444804699e-01,2.659540812411411576e-02,1.837017297744750977e+00
6.588768864880751863e-01,-1.022784000615174493e+00,8.311613282733504304e-01,-2.906813977817792466e-02,9.935705310764084142e-03,2.439381845845421670e-02,1.775388836860656738e+00
5.147812248184749917e-01,-1.015688132956791501e+00,9.034054037394494419e-01,-1.567490572041956368e-02,4.090442897648256804e-02,3.854274208672669837e-03,1.758960962295532227e+00
5.323892856414764729e-01,-1.023618930610888267e+00,8.950962898616695584e-01,-4.334750342488728758e-02,5.553604772644020471e-02,1.285223515255434247e-02,1.769880890846252441e+00
4.868854564697162046e-01,-1.010392642144950948e+00,8.851354526271556500e-01,-3.234255461916088481e-02,1.526429340812877622e-01,2.085982474949443430e-02,1.752449393272399902e+00
6.109376920312552528e-01,-1.089259458306893524e+00,8.780306825318637820e-01,-6.909311062372741619e-02,7.949842819156070772e-02,1.103294943379177009e-02,1.857354760169982910e+00
8.419210419423825975e-01,-9.084219518808513971e-01,8.078651197084323332e-01,5.964442478032433437e-02,-3.436646860182880625e-02,1.045533911709528585e-01,1.747071981430053711e+00
8.470314605824592613e-01,-2.927251425477734870e-01,6.416603651162332556e-01,-5.718777481612906388e-02,2.026717413637442733e-01,1.010477026852204807e-01,1.127306580543518066e+00
6.818068684725649975e-01,-1.399482830277637979e-01,6.500189961856608356e-01,2.283029852660765219e-02,5.928027427415210639e-03,1.135138161887655484e-01,8.309605121612548828e-01
6.729878340157755545e-01,-5.843383863731299588e-01,7.175009670244245630e-01,5.086021463311116847e-02,3.566762640586486430e-05,9.217307292018178666e-02,1.293083906173706055e+00
6.623076640450962227e-01,-4.368429446165258967e-01,6.585063476232894120e-01,-5.113578389290752285e-02,1.133239559689873518e-03,1.797162932688082249e-01,1.143988847732543945e+00
9.851023996038188457e-01,-1.848766317522732572e-01,6.952033615251109744e-01,2.413486542582011715e-02,-1.192125625518588028e-01,9.365829332925315609e-02,1.088308095932006836e+00
7.416261294669130866e-01,-7.153120487013049367e-01,7.350594874311195959e-01,4.196144719336431655e-02,4.043773181389129917e-03,6.376260182232393325e-02,1.459682583808898926e+00
1.182315914789873634e+00,-1.848957067999329018e+00,5.748952012638325337e-01,-1.258999620474834380e-01,6.129955473004796707e-01,-1.435223850972868198e-01,2.992149114608764648e+00
6.861208804200158440e-01,-9.882870527126625948e-01,6.954874977410157033e-01,4.516781351154364361e-03,7.035356669715447930e-02,-7.748337786664352689e-03,1.683598399162292480e+00
7.406218763404555094e-01,-9.621130578639931485e-01,5.673547165907979473e-01,-6.816890026476248032e-02,2.752948614844886732e-01,7.992526407843886238e-02,1.701401352882385254e+00
9.807082487950542493e-01,-1.199870123179044068e+00,4.391820330987771248e-01,1.748504263994173358e-01,5.272989253865116854e-01,-7.992036765776826257e-02,2.193705797195434570e+00
1.097980675805644069e+00,-1.370462866078977937e+00,6.090425257998107744e-01,2.385844532911229332e-01,7.090827686520301265e-01,-4.574004808807972944e-02,2.609750270843505859e+00
7.994323201808348767e-01,-1.016455391402215414e+00,7.747687278712434011e-01,-2.696110391437741421e-03,-2.191731789085974227e-03,1.147146093802995249e-03,1.803693532943725586e+00
7.967514481361059886e-01,-1.015131264783359466e+00,7.786037382320256661e-01,9.887055604084976981e-03,-5.358763261749618402e-03,7.317707445633703234e-03,1.803027153015136719e+00
7.877407250860581911e-01,-9.803154008147864085e-01,7.673580444088912156e-01,5.028865066355432852e-03,-1.829965864811684134e-02,1.156813796483774359e-03,1.758261799812316895e+00
7.777411529767583875e-01,-1.045052192803609614e+00,8.171141293103958425e-01,1.140722656428549628e-02,8.693945272462977325e-03,5.686461182913230862e-03,1.842989087104797363e+00
7.133919095174783287e-01,-1.007618504576812901e+00,8.121149310831559109e-01,-1.317187721935404038e-02,3.185318541436836254e-03,6.547861572851870413e-03,1.772626876831054688e+00
7.152234168647183532e-01,-1.020778823293242876e+00,8.165723175255170663e-01,-1.474913582070874057e-02,-2.279716165935956156e-03,-8.766970975554630799e-03,1.789082527160644531e+00
7.962459260730744282e-01,-1.016431254668854978e+00,7.778650133023212732e-01,-2.378700733977881163e-03,-2.141063547254337673e-03,1.454132481018878065e-03,1.803567290306091309e+00
7.853618426301181010e-01,-1.036746760793855637e+00,7.865183718723096629e-01,-1.935733797944672388e-03,-8.095241911924620434e-03,3.989560598116303515e-03,1.822757244110107422e+00
7.807543319706010676e-01,-1.021393524768024363e+00,7.874765955407095896e-01,-8.748698506532081101e-03,-1.561167230948546335e-03,2.824601067483695216e-03,1.805590629577636719e+00
6.931061006581991091e-01,-5.995663598240108527e-01,6.933033261788981161e-01,3.738224972281037426e-03,2.023232455879554054e-02,-3.800469177620126315e-02,1.294936299324035645e+00
7.775436812418449195e-01,-9.966440343498342846e-01,7.773523095475552980e-01,-4.413286959147735833e-03,1.164383820616049503e-02,-7.117973001651739171e-03,1.774266004562377930e+00
7.258611682475565319e-01,-7.231023763333322973e-01,7.448970812519873919e-01,-2.220635171644509340e-02,1.416900793087110672e-02,2.464474720509144540e-02,1.459912300109863281e+00
7.589525360255863218e-01,-8.287285400813653169e-01,7.284617133096931152e-01,7.280487600266538281e-03,1.720058397790753812e-02,-2.061832102518651455e-02,1.573395371437072754e+00
7.023843791412873738e-01,-4.289905806900977669e-01,6.936568223832412228e-01,1.178321335680570896e-02,-1.891369544439676018e-02,-1.674770640522659226e-01,1.164408326148986816e+00
7.637226288944005681e-01,-8.324414687924910350e-01,8.542003801704685095e-01,-1.563117196482954885e-01,-3.264587427037728140e-02,-1.170247630462259714e-01,1.678667664527893066e+00
7.722946082715357319e-01,-9.229505973546892061e-01,7.638493519027473866e-01,5.031927975740678634e-03,2.564204101712282483e-02,-1.861186316183240791e-02,1.691951155662536621e+00
7.157612926200037640e-01,-1.990740286130676662e-02,9.735296608956441888e-01,-2.939939467575085775e-03,1.381596765003464955e-01,3.459666990901903022e-02,9.263725280761718750e-01
8.082359435457165953e-01,-5.763002171078749347e-01,7.347533592236549227e-01,-7.473540504818822205e-02,-5.534397618522941820e-02,-8.686616993137270815e-02,1.367180705070495605e+00
7.793719444770703664e-01,-1.037939450652335616e+00,7.803292282727954943e-01,-9.873692095534233187e-04,3.088939321862597174e-07,-1.343184421685110746e-03,1.817792534828186035e+00
7.799388659940873492e-01,-1.038289858042955816e+00,7.777405700926824927e-01,-4.333757106283353227e-08,-1.159597434671491567e-03,2.283447658625424462e-04,1.817131757736206055e+00
7.810026559859528650e-01,-1.038193001596904308e+00,7.809440306009787225e-01,-1.426107836889178426e-03,1.545314490700367598e-03,-1.564726813788442673e-03,1.819172024726867676e+00
7.741570598605024278e-01,-1.033479087065206192e+00,7.733977963005157497e-01,-5.171514663597979837e-03,-8.547070546761360290e-04,-4.045887771257470830e-03,1.807293057441711426e+00
7.725938791765639690e-01,-1.033888824405928553e+00,7.756053441963159933e-01,-4.532977908335317219e-03,-9.937332051918306569e-04,-4.270763025022661363e-03,1.808023333549499512e+00
7.805920114706026425e-01,-1.035343156271602671e+00,7.782969797052506911e-01,-5.533196198277331827e-03,2.801862633713649714e-03,-5.198685883095376103e-03,1.814842820167541504e+00
7.616650332715526606e-01,-1.013824437724280880e+00,7.328513383901229528e-01,8.049477786726450673e-03,-5.775743627210977015e-04,-4.666425914668770173e-04,1.761315107345581055e+00
4.915993472452072077e-01,-9.862658545694145129e-01,7.751463114701656609e-01,2.211486931327166436e-02,2.209417787654167353e-01,-7.054738277338915356e-03,1.682733178138732910e+00
7.393266576960362269e-01,-1.006773108916041881e+00,7.300835480310277070e-01,1.685482216369105224e-02,1.464473576196546889e-02,-1.658331634350316067e-02,1.742162823677062988e+00
7.740922989244863883e-01,-1.016615404466746364e+00,7.001181295565914731e-01,2.106399943521067644e-02,1.163244035877354643e-02,-2.294698042088393064e-02,1.755835056304931641e+00
7.698609653091886829e-01,-1.016660948741956227e+00,7.298482514004359656e-01,1.409880754307141042e-02,3.532339891125031630e-03,2.693167400809000789e-03,1.767040848731994629e+00
7.847120602745378815e-01,-1.023201254809306349e+00,7.401124003258987560e-01,1.765253715487918873e-02,2.456287652302443104e-03,-1.238669958197288756e-02,1.786426782608032227e+00
7.887668538574184041e-01,-9.735336655576474207e-01,7.030405673296442615e-01,5.598887698399996130e-03,1.925090173946264124e-02,2.330665553867436110e-02,1.721862912178039551e+00
7.441257241934959854e-01,-1.011038513495629676e+00,7.380466270911901772e-01,1.334823916343653473e-02,2.268908377401206850e-02,-1.690196216653249220e-02,1.752970218658447266e+00
6.783017374791746601e-01,-1.021792521867362913e+00,8.378842846091374419e-01,-1.572880655266476954e-02,-8.768265331362504189e-03,-9.673717585557484525e-03,1.785593986511230469e+00
5.380335425280177164e-01,-1.169830436024070552e+00,1.035378576605549883e+00,-7.527063922398814777e-02,-8.656734303068276681e-02,-3.234594104723553538e-03,2.013221025466918945e+00
6.232506574058618298e-01,-1.034487086892381225e+00,8.978062185330637490e-01,-1.753960074343803577e-02,-4.095783249890827191e-03,2.055191596199866001e-03,1.810967206954956055e+00
7.587196283058041946e-01,-7.819954488007581084e-01,7.136202126031392368e-01,-6.028727474831369060e-02,-5.428983168851786792e-03,-2.774498885750455862e-03,1.522289991378784180e+00
6.107612952500971470e-01,-1.001279914945941041e+00,7.863200725844363692e-01,3.474841478877708362e-02,-1.537127540855595664e-01,2.845505815779335312e-02,1.728999733924865723e+00
6.875102079224247875e-01,-1.010113660192742735e+00,7.991204488658144589e-01,-5.574477959165176529e-03,-4.209360205105038694e-02,2.242840514849108596e-02,1.758059620857238770e+00
7.303320515658167089e-01,-1.003055530296219855e+00,7.059754717273032387e-01,3.150480106611668746e-02,-3.937231308409822050e-02,2.890956357613347696e-02,1.724280118942260742e+00
9.999659677873609098e-01,-5.598464467705258629e-01,4.632651164051184156e-01,1.357469705345469742e-02,-3.062663314106293111e-01,-1.050941922290578451e-01,1.482900619506835938e+00
8.015553768687553315e-01,-2.408180019239372638e-01,5.225461465177809739e-01,-8.115591370424082851e-02,-1.671288307256682884e-02,-1.907645722476488670e-01,1.001662015914916992e+00
6.502932569454519252e-01,-1.078897135638994254e+00,7.496565214478476680e-01,1.984363700035713871e-02,-3.330320743666127514e-01,4.442762813155998192e-02,1.873932838439941406e+00
5.656621541873364523e-01,-1.186098079145760931e+00,7.441512535318526300e-01,-5.048949620227200646e-02,-6.228711364259557071e-01,-3.956205959142163053e-02,2.142297983169555664e+00
1.027123725451124514e+00,-1.132266384216602528e+00,4.776567879249749016e-01,3.029099118618275993e-02,-1.266909144717635050e-01,8.954198061917467699e-02,1.962988495826721191e+00
5.375456409161322169e-01,-1.093762617907205748e+00,7.411668152042867330e-01,-1.211914678285069824e-01,-5.019721568219357444e-01,-1.231863740973862392e-01,1.969850778579711914e+00
5.128729246590639779e-01,-1.139990180489015348e+00,1.001745420016804333e+00,-8.308361450996981645e-02,-1.889831214194583053e-01,-2.983538380464282897e-03,1.976580739021301270e+00
6.190563068151540005e-01,-1.183772816793202676e+00,1.023227309387767958e+00,-6.462160622323116776e-02,2.128266258009525042e-02,-1.498845640483820185e-02,2.038813114166259766e+00
4.749748521036377125e-01,-9.921552395159782822e-01,9.107346448020954277e-01,5.801961680256938897e-03,2.691785499805535165e-02,-1.017597259864722048e-02,1.727500796318054199e+00
4.435474134278122316e-01,-1.000755566269785346e+00,8.704526360831108533e-01,3.571357020155131734e-02,1.791076907517935302e-01,-3.632283197504000694e-02,1.728832721710205078e+00
5.731882891242826572e-01,-9.806963071223888662e-01,8.791876235877977841e-01,5.551608790087266682e-02,9.458350932401529687e-02,-4.993373836168658181e-02,1.739897966384887695e+00
2.702489082210085547e-01,-7.993774145044376667e-01,9.306676859950138159e-01,-1.524342925920272318e-01,2.671214292602762663e-01,5.162663320757553825e-02,1.605746150016784668e+00
9.546125655538556520e-02,-1.362087117048612850e+00,1.458590949152186234e+00,-5.732388114471687057e-02,2.847606353118189437e-01,-3.318402138774905613e-02,2.495160341262817383e+00
4.127476795053238168e-01,-1.656021369216309935e+00,1.221424262627538893e+00,-2.257253912995696998e-01,3.400438811879433754e-01,1.276354515717426363e-01,2.674947977066040039e+00
9.478054641867390551e-01,-1.038928614048199250e+00,4.676515604263397075e-01,-7.584366485756031256e-03,2.185085813648068864e-02,-4.441020318329120392e-02,1.797566056251525879e+00
1.106827351289464856e+00,-1.250759882135689560e+00,5.585892953185399579e-01,-3.063227432941273767e-02,1.421813497725566977e-01,5.600274540209857453e-03,2.151701450347900391e+00
8.915966147238028050e-01,-1.016283990895622491e+00,5.800142450948555517e-01,6.054966576469330772e-03,-3.708029778513264544e-03,1.518579736035974292e-02,1.772984266281127930e+00
8.611416349081992827e-01,-1.019069405178224086e+00,6.264307944441604992e-01,1.477913558824605483e-02,1.918203069495004855e-03,-3.722045309499805166e-02,1.775893926620483398e+00
8.618409128617314785e-01,-1.026528906462250923e+00,6.206128356727742545e-01,-1.968349579443458980e-02,-6.337839788696996227e-03,-3.882409012827060107e-02,1.781687021255493164e+00
7.420911054349843550e-01,-1.007429841157413852e+00,7.361612334164341354e-01,-9.346674068648436889e-03,-2.347520772742074831e-03,-6.037189542044804971e-03,1.746674656867980957e+00
7.612326756694335339e-01,-1.015368845749776261e+00,7.432062555228042822e-01,-2.401838926308775261e-05,-5.917683530376093709e-03,-9.678166575995740019e-04,1.767687797546386719e+00
7.481245572019228351e-01,-1.016615482772122547e+00,7.611288177763374518e-01,-7.970090850758712597e-04,2.789508001605582425e-03,-1.075705616642240806e-02,1.771383047103881836e+00
6.577903143327004098e-01,-9.900752083761014122e-01,7.548027136170513129e-01,-1.082486590746413110e-02,-3.374069312836799894e-02,-1.137480629964951993e-02,1.699673652648925781e+00
7.486960347645439384e-01,-1.020947838306813793e+00,7.570015081517874611e-01,-9.037274710801224825e-03,-6.146751802194233560e-03,-7.811746944955098165e-03,1.773963809013366699e+00
7.293359833837880224e-01,-1.006449008847619897e+00,7.351309063472550864e-01,-6.569629149657527263e-03,-1.377735011742338075e-02,-5.046436723767718131e-03,1.738912701606750488e+00
7.301521445726972814e-01,-1.017847387573198148e+00,7.754943574206353274e-01,1.437036756862610822e-03,-1.544346917978316365e-02,-1.545203510488681736e-02,1.771511912345886230e+00
7.775827180038377140e-01,-1.012481747733759097e+00,7.805931396639214093e-01,5.663654156179233345e-03,-2.072308468058424620e-03,-2.839107556418348464e-03,1.791608810424804688e+00
7.703297109176003854e-01,-1.025879848132166261e+00,7.920123443638992233e-01,-6.090465553754116114e-03,-1.282754348767816159e-03,-5.365024521597887633e-03,1.807204484939575195e+00
6.033545488735354567e-01,-3.387204505338477500e-01,7.843520150232810018e-01,-2.160585557518663324e-01,-1.108542823008068223e-01,-7.040457706660594372e-04,1.125917434692382812e+00
7.775431234382969015e-01,-1.022628972781368217e+00,7.832202484692560862e-01,5.206666036368952540e-03,-1.035931229942867616e-03,-3.546646610700733126e-03,1.803051233291625977e+00
7.908839086936356733e-01,-1.040680309010714399e+00,7.885659228441128654e-01,-2.282692710173101110e-03,-1.483246507750709924e-02,-6.857206038333357560e-03,1.830629348754882812e+00
7.916562150124772934e-01,-1.021613020031219898e+00,7.802209199503289394e-01,-2.630765239875193246e-03,-2.064524625624975743e-03,-1.275497824139914735e-03,1.807589292526245117e+00
7.963040672640078199e-01,-1.001403142127409662e+00,7.764430176238181769e-01,-3.075401904352237717e-02,-1.396256058199064204e-02,5.610469990629378748e-03,1.788842678070068359e+00
6.315811367662258480e-01,-1.039812795194072326e+00,8.816398345037319562e-01,4.471117165575461128e-02,2.291083547327893780e-02,-6.671763878582908508e-03,1.811557054519653320e+00
7.410676748896003474e-01,-8.760822842795992216e-01,7.748099128308281180e-01,-2.886779333008927112e-02,1.046181869943341950e-03,6.356234712877480153e-02,1.638750314712524414e+00
7.720493419329392815e-01,-8.753987443098197874e-01,7.357381129958651123e-01,-2.634961611588327451e-02,-9.375544552395049386e-03,-8.457260288158179908e-04,1.630316376686096191e+00
7.726631869226125993e-01,-8.871078933177611869e-01,7.498030562331559068e-01,-2.854334898183358282e-02,-1.101724548358028535e-02,8.918161539932823248e-03,1.649383783340454102e+00
7.066928280321179701e-01,-1.022199545813653243e+00,8.331625668833136933e-01,9.156485421177282952e-03,-1.450508038765962104e-03,-3.709168505574303660e-04,1.795542836189270020e+00
7.645243145245834704e-01,-8.726597893146593732e-01,7.440402230191852651e-01,-2.351666538338756732e-02,1.494395440671782149e-02,-1.448651372633059584e-02,1.627947688102722168e+00
6.598688355781545667e-01,-1.020473889686152713e+00,8.686087069650262338e-01,-1.952051146910184845e-02,-6.107347678256851153e-02,-1.025762341824775241e-03,1.797279834747314453e+00
7.346675661267463298e-01,-7.208978642091659061e-01,7.178049265255460609e-01,-4.572915858688549051e-02,2.268580913748694666e-02,-1.975986208200203667e-02,1.450309991836547852e+00
7.168074132395192422e-01,-2.433618935222803259e-01,6.872707274169426173e-01,-1.363226224916496421e-01,7.381758451460935892e-03,-2.232332304242249169e-02,9.756266474723815918e-01
7.464589746240642976e-01,-1.005617161789383207e+00,7.310334408198185807e-01,-7.292815056596330288e-03,-3.690455434339575194e-03,-5.186903680513634679e-03,1.744495153427124023e+00
7.400345722765084844e-01,-1.255654303680657780e-01,9.861495166513691846e-01,-8.616329080015065756e-02,-4.328651390387732584e-02,-1.269224868027119587e-03,1.025071382522583008e+00
7.709514705038138516e-01,-1.020554621864670830e+00,7.368224732485895156e-01,-2.467326913359708593e-02,-2.172219239479697070e-02,-1.628964429347312323e-02,1.775825023651123047e+00
7.463127805271262405e-01,-1.005734281961893739e+00,7.351919779961548773e-01,-6.835283726613325221e-03,-1.125217570232846936e-02,-8.128927784825474775e-03,1.746718764305114746e+00
3.345032217532522556e-01,-2.730561071891772218e-01,8.094385293755637090e-01,-4.783439791347831455e-02,-5.894449255969606838e-02,-4.834732620874424014e-02,9.526507258415222168e-01
7.688707568944401771e-01,-9.155791043566450238e-01,7.607080418266207733e-01,5.246023209943118278e-03,-2.252460889030621916e-02,1.655193414411570627e-02,1.681105256080627441e+00
7.781223749890824326e-01,-1.018331935490739859e+00,8.010920221002902908e-01,-1.809325328649611514e-03,-1.138355712297820736e-04,-4.044272765975543207e-03,1.808064818382263184e+00
6.859804183433001468e-01,-5.040927856137932261e-01,6.549082071925457216e-01,3.314836660962126435e-03,5.843621050585113587e-03,-3.122355823430306848e-02,1.176146984100341797e+00
6.526380382451018036e-01,-3.938911114072243813e-01,6.231225679625598257e-01,-5.276920576370579263e-02,-2.610608883006151643e-03,1.862396285079535711e-04,1.036136984825134277e+00
7.916186502301001404e-01,-9.033380036880289676e-01,7.635913657860475823e-01,-1.519253106648785767e-01,6.309468705073700834e-02,1.209236761949680217e-01,1.717909455299377441e+00
7.664834441018462119e-01,-8.256410103273202905e-01,7.219337946123042249e-01,-4.222909832013678824e-03,-1.466942341738488448e-02,6.717188512987939258e-03,1.570589303970336914e+00
6.179445255065423304e-01,-1.030218814493717439e+00,8.696181191442865499e-01,-1.264419557066686836e-02,1.656836517915708656e-02,-4.533307438935931313e-03,1.787720918655395508e+00
5.876813016469140116e-01,-1.179198136630310145e+00,1.061878648487508237e+00,-6.555204261129736476e-02,2.602215685136321545e-03,-4.349549974208608179e-03,2.048790931701660156e+00
6.427515428277642551e-01,-1.207875981185706493e+00,1.057244573020263534e+00,-5.456681093210985489e-02,7.656307308150477053e-02,3.276519914603968908e-02,2.096052885055541992e+00
4.788200529575554198e-01,-1.112145989133767277e+00,1.045156417235598711e+00,6.904695646589413538e-02,1.459158554556856391e-01,-4.266494160744542519e-02,1.958716273307800293e+00
2.625012506422856329e-01,-1.712561524412076208e+00,1.652302458741587543e+00,-4.972986743418897904e-01,-3.028606524218558915e-01,-8.339145108767365144e-02,3.100857734680175781e+00
2.058331247577642187e-01,-1.031045655486791279e+00,1.328006188033107327e+00,-5.947533195802390260e-02,2.079002641585417643e-01,-2.262246273682193970e-02,2.078207969665527344e+00
6.801306008129908154e-01,-4.927566175742369992e-01,7.254362027748744168e-01,-1.768413479948681144e-01,-3.311667313294437698e-02,6.997743654792804024e-02,1.242036461830139160e+00
3.153778823896063455e-01,-1.108113636352851650e+00,1.198191481657426616e+00,-2.388630294958001832e-01,-1.992411642258953286e-01,2.794742185511272375e-02,2.086855649948120117e+00
7.794285780011303011e-01,-1.038139216409753374e+00,7.792385720461124654e-01,-2.304925073277377858e-03,-2.428533277044593076e-03,1.609546475806238270e-04,1.817482113838195801e+00
7.800915539786049679e-01,-1.034875798996049090e+00,7.831262769811299096e-01,-1.439556027408851920e-03,-4.501838645083535394e-03,3.026403035088114698e-03,1.816512584686279297e+00
7.985112735631880732e-01,-9.921830395543105308e-01,7.274576264439678308e-01,1.708350166889526910e-03,-7.764339482385763588e-03,-1.542418377659259161e-03,1.756301879882812500e+00
7.771706476488176030e-01,-1.033885825426957616e+00,7.819351857382190740e-01,-6.380335039378261068e-03,-1.356423861232273261e-03,9.040996105694533783e-03,1.813546180725097656e+00
6.901356647068506156e-01,-6.539063477462085938e-01,7.204902825934633714e-01,4.489976438659405711e-02,-2.319768456850462499e-02,-5.295182696996009186e-02,1.365372538566589355e+00
7.781573948627382720e-01,-1.034799193047157839e+00,7.792873420100548953e-01,-1.425694295273393763e-03,-1.888446192004119423e-03,-3.139908046422095183e-04,1.813526511192321777e+00
7.790223109498227716e-01,-1.035473151573474526e+00,7.796413349218382915e-01,1.280951302721403074e-03,-1.459409636764889351e-03,3.227447645777134933e-03,1.814816832542419434e+00
7.356429889183033755e-01,-8.243881088589806172e-01,7.498025389571973953e-01,-2.959515370548215785e-02,2.603415645970710846e-02,-5.691998384064074490e-02,1.571740269660949707e+00
7.301461990035338356e-01,-8.647112869571665916e-01,7.728246530464039088e-01,1.686644330371232488e-03,8.909748114375334177e-03,-3.360780425643782043e-02,1.617743134498596191e+00
7.730322027961846754e-01,-8.568137052510776952e-01,7.372166267416730978e-01,-1.072474893074927549e-02,-2.140171660900636735e-02,-9.308894217594988751e-03,1.612850189208984375e+00
7.836008609345785914e-01,-1.013382798724117073e+00,7.766010760351262920e-01,3.726381813514632576e-04,3.615046681829392657e-03,-2.629600318684583576e-02,1.794083237648010254e+00
6.470728755724386438e-01,-3.709749577526817443e-01,6.601659434288993378e-01,2.453911881865831340e-02,-1.826321821907429810e-02,-7.310062979112151582e-02,1.033808708190917969e+00
7.180489081222203307e-01,-8.127700798348914679e-01,7.675908679604345197e-01,1.139358468863553922e-03,-5.502327704953322712e-03,1.272875593699614519e-02,1.556368112564086914e+00
7.434269043750554307e-01,-8.769417149458188510e-01,7.691631567585920370e-01,-2.262889058722468080e-02,2.527022218060203523e-02,-2.278883257693597314e-02,1.634921669960021973e+00
7.514086355005299422e-01,-9.034597237569788053e-01,7.684666651361407030e-01,7.146640147545000633e-03,2.332202544523096291e-02,8.322339781691244498e-03,1.664061784744262695e+00
8.310369635203463945e-01,-9.575573042651369660e-01,7.061187315737447179e-01,-1.151988125680978615e-02,-1.970021575566287958e-02,-1.799615734727816200e-03,1.729976296424865723e+00
6.891927746097867846e-01,-6.322683822028618561e-01,7.284044134838580931e-01,1.052594619934439819e-02,4.052770861386042681e-05,-8.224216147389672160e-02,1.349161744117736816e+00
8.089312896424041277e-01,-1.165579678412959952e+00,9.142303413120536071e-01,-8.232913715738712779e-02,-1.202940001275409759e-01,-6.289171822381502824e-03,2.044886350631713867e+00
7.837798000709352841e-01,-7.521173345273123312e-01,7.919415844231268986e-01,-8.980027497870719799e-02,4.092854372587050558e-05,-8.375576271829845987e-02,1.554612398147583008e+00
7.212270976719348248e-01,-7.235678148264139686e-01,7.189492192673772042e-01,-2.990981704646792499e-02,2.363535398278764771e-02,-4.364605986037619484e-02,1.447142362594604492e+00
7.751221616356012145e-01,-1.009961787185712279e+00,7.787129833986299321e-01,9.183680770500518911e-03,-2.270627708247044234e-03,8.518096689729073509e-03,1.787018060684204102e+00
7.572010377844927698e-01,-7.181209767368744723e-01,7.170992701763657662e-01,-8.751548838988190693e-02,9.214893368479838698e-03,-2.408053558150998613e-02,1.464237451553344727e+00
7.716742307986312888e-01,-1.017795217163434129e+00,7.388126868749800291e-01,2.382787518929910600e-02,-2.170648119933096462e-02,2.052627185302012200e-02,1.774501919746398926e+00
6.972839681240621257e-01,-1.014710751465573990e+00,8.485833770342897653e-01,-1.162315630258541066e-02,-1.549059727702656146e-02,-2.720753405796637412e-03,1.792760014533996582e+00
5.436382007828225449e-01,-4.690227213704662446e-01,7.043749013940152626e-01,-1.033640794707763738e-02,-2.464318670596867267e-01,-1.073298094096324234e-01,1.196309208869934082e+00
8.114410293523390827e-01,-3.914610786496451333e-01,3.825760698456399100e-01,-8.047012897209354643e-02,-1.652477288647627995e-01,-4.745369382693446353e-02,1.105946779251098633e+00
5.329484423570113316e-01,-1.013584003111238419e+00,8.849696455510320803e-01,-2.661003749607911834e-02,2.854841669011101701e-02,1.232824700740615259e-02,1.750748157501220703e+00
6.150991983420025511e-01,-1.020464952173582462e+00,8.653752501505486139e-01,-3.209722541115844763e-02,2.630212438571802834e-03,1.151184873365168095e-02,1.774981617927551270e+00
6.241713231836050202e-01,-1.030835344143245402e+00,8.670585161233118621e-01,-3.382359548772886915e-02,-7.498568265286497357e-03,-1.360264499651151100e-02,1.790021538734436035e+00
6.169065292156339364e-01,-1.039698590764453812e+00,8.903552096491660350e-01,-3.062714737652863853e-02,-1.676100203193968408e-03,-6.227247613840168790e-03,1.809709906578063965e+00
4.655687835372187555e-01,-1.035503969658388090e+00,9.490655792907002342e-01,1.344870998532155838e-02,-1.921317045383970357e-02,7.505531287113149409e-03,1.792922616004943848e+00
6.330274551962661311e-01,-1.024981068295297115e+00,8.620854986384276497e-01,-3.471327222787673472e-02,1.591845532989377698e-02,3.005133883200161553e-03,1.784836769104003906e+00
6.179360092282404349e-01,-1.031558098094893516e+00,8.714483796517382697e-01,-8.510698574766116520e-02,5.640097090954793863e-02,3.390874462450246124e-02,1.799441218376159668e+00
5.050080651169467361e-01,-9.991035886838720570e-01,8.723625997277107968e-01,-1.458172098374389131e-03,7.941870412156806780e-02,8.777962690741977769e-03,1.723079562187194824e+00
1.166633165799189631e-01,-1.024773409975268779e+00,1.123814303565417339e+00,6.152161930558705527e-02,2.371371920019675270e-02,-1.419665844649794020e-02,1.865603446960449219e+00
3.151440781286177772e-01,-1.329758191214619689e+00,1.171161330699233449e+00,2.979365847343811713e-01,1.496962865215374361e-01,-5.865693946909393552e-02,2.278240919113159180e+00
4.358763521444782296e-01,-1.130792048468576283e+00,1.007404048251980822e+00,-8.892365135489038730e-02,2.242166503497850238e-01,1.170457638948904644e-02,1.962508797645568848e+00
4.027344195548964167e-01,-1.639423898606507723e+00,1.275891148304646894e+00,1.447742305514873040e-01,-2.704295180802311904e-01,-1.421941967285294817e-01,2.656853437423706055e+00
6.001227867726344201e-01,-1.061767026620561882e+00,8.749270796606717360e-01,7.358315040693336195e-02,-5.433762660662427857e-02,4.936705393597497216e-02,1.823870062828063965e+00
4.928942931689057616e-01,-1.028798485299765808e+00,9.165354016189914965e-01,-2.391318739253836772e-04,-1.680903100889837715e-02,-1.024911673812139642e-03,1.772152185440063477e+00
6.158774763258317853e-01,-1.033739539211398828e+00,8.848825064864338508e-01,3.828093091648319957e-02,-7.685637889268058867e-03,-2.742626025914203687e-03,1.800541996955871582e+00
6.377158458716108980e-01,-1.024320250547573474e+00,8.553054383271280203e-01,3.833771992977966919e-02,-2.065914696009590878e-02,9.692171795382925614e-03,1.782504558563232422e+00
6.866765438181184900e-01,-1.017964392254981920e+00,8.051035887240050037e-01,5.975044419848110589e-04,-3.470010596772384048e-02,2.074856656687768669e-02,1.768221139907836914e+00
6.960883727056318415e-01,-1.023537659851362136e+00,8.224441367135572056e-01,-8.354358819333147432e-03,-3.697892263802060424e-03,9.505631568649553290e-03,1.786305069923400879e+00
6.810258541504550234e-01,-1.016186713581161971e+00,8.446317907404917724e-01,-1.331947395509730687e-02,-2.685655087990928419e-02,1.086239989075809056e-02,1.785503149032592773e+00
6.238150208504101846e-01,-9.804443082568616852e-01,7.539437244353437428e-01,-1.131624438599263330e-02,-4.640308957538843981e-02,-2.314372510898794755e-02,1.675646901130676270e+00
6.367230663116388856e-01,-9.920034089164626590e-01,7.913749371269065414e-01,1.547478461080332643e-02,-1.547434307607709753e-02,2.248582669428614289e-02,1.712164282798767090e+00
7.224576232409833931e-01,-9.883901834389220431e-01,7.047539355992983312e-01,-5.619936736757539381e-03,-1.345961115851273052e-02,-6.709274100453735054e-03,1.702292203903198242e+00
7.699230245594779198e-01,-8.935273739122817638e-01,7.527109898073880423e-01,2.932249322762842461e-02,-8.113661132482349186e-03,-5.189607135691651219e-03,1.655774712562561035e+00
7.468218562959112461e-01,-9.820287460415437764e-01,6.422281275360230968e-01,5.898995750100380006e-03,-3.599206207910228550e-02,-1.185314258858478518e-03,1.680188179016113281e+00
6.285236816812087568e-01,-1.005806863516213401e+00,8.256039359947955347e-01,4.799151239932979499e-03,-1.018766663637208081e-01,4.448482826086379120e-03,1.750210404396057129e+00
6.955166419258964616e-01,-9.816703380374121046e-01,7.189549137650708133e-01,2.796194566789171696e-04,-1.786500857278111587e-02,2.940992613580290221e-03,1.689319252967834473e+00
7.009509905766000415e-01,-9.908407121700200104e-01,7.356235222785243444e-01,8.882956056456614569e-03,-1.310933664157949187e-02,1.252184368981836340e-02,1.709749341011047363e+00
7.418053572393767947e-01,-9.830265187809856808e-01,6.489709266029293211e-01,9.568133736793929187e-03,-3.912433791839305813e-02,5.479701317457031165e-03,1.681813359260559082e+00
7.340196495366210216e-01,-6.597422923650045901e-01,6.938494612801133776e-01,-7.541036308128286347e-02,1.771878106769027295e-02,-1.424779157033697480e-02,1.380872726440429688e+00
7.673243043480448833e-01,-8.370517148693195075e-01,7.231515505566802338e-01,9.007665230468317810e-03,2.072547663079792393e-02,-8.870663240613342604e-03,1.583310484886169434e+00
7.035236198294405607e-01,-8.432286148118628422e-01,8.596268368024529982e-01,-1.265686394071356136e-01,-3.884505780980499791e-03,4.936796049774443140e-02,1.647324919700622559e+00
7.394491235786916361e-01,-7.856268809281962140e-01,7.654349057773316423e-01,-1.909480160747652755e-01,1.944369849465855254e-02,-6.229160826922598704e-02,1.577441215515136719e+00
5.793312729923997262e-01,-8.082810406862110941e-01,8.419797945648090920e-01,-7.491276920887993129e-02,1.995268231029406064e-02,1.369211773368048633e-02,1.541914105415344238e+00
7.712972877123963622e-01,-8.505121628190217553e-01,7.263902369216178601e-01,-3.270865032997900129e-02,4.883363539882913489e-03,4.424596292956871476e-04,1.600854039192199707e+00
7.682307708544603431e-01,-8.534693497758807368e-01,7.283495284597137909e-01,-2.733561103663203692e-02,-1.053061523426164839e-02,6.422193846558624936e-03,1.602973699569702148e+00
7.108581581011833572e-01,-1.015816189164147509e+00,8.265218343682481095e-01,1.313022805824233009e-02,2.767744091195945694e-03,-2.689178201204036039e-03,1.787472486495971680e+00
7.982533858551726924e-01,-9.617682285040340950e-01,7.759878797791591731e-01,-4.968331615706093191e-02,3.573164735510389774e-03,6.014027922318001401e-02,1.754217267036437988e+00
7.627070461905716137e-01,-7.919976360784024561e-01,7.187030918432681936e-01,-5.393285215409802241e-02,-9.734593295869480977e-04,1.359311722027205759e-02,1.536200881004333496e+00
7.415839460326121291e-01,-4.983658187913022619e-01,6.840683262852809143e-01,1.366354729386526912e-01,-9.212945959237535051e-03,1.308588039394796010e-01,1.255826950073242188e+00
7.479880726051432172e-01,-7.734755431871910281e-01,7.211361296811285015e-01,5.065457183872528607e-02,1.059955769319811426e-02,8.008878897810756819e-03,1.510941863059997559e+00
7.254815857292005177e-01,-9.909077230409635284e-01,8.541650901729633816e-01,4.513477209899560000e-02,-8.593307451457790624e-02,-2.476193882606862046e-02,1.792631268501281738e+00
7.379283622939143417e-01,-7.463830762143111031e-01,7.263412838191296572e-01,1.189541795940543024e-02,2.342413912188562319e-02,-1.062708654600326083e-02,1.479366540908813477e+00
7.028766981782217371e-01,-5.408103295009640821e-01,7.179195263868138888e-01,9.817511826546383713e-02,-5.672200103055581068e-03,-1.082214842271723987e-02,1.262954950332641602e+00
7.447423386168496862e-01,-7.045412631395945313e-01,7.013231853010311045e-01,6.975539845840733610e-02,2.112834594435809149e-02,4.870880093521592208e-02,1.436118364334106445e+00
3.203565718926407735e-01,-7.561089595091600168e-01,1.158031639496920118e+00,1.281901512292820955e-01,-1.440284632297218759e-01,1.918557286449542321e-01,1.727472901344299316e+00
7.069557048696557544e-01,-7.315578445303400068e-01,7.445556867934008949e-01,2.888026050554649490e-02,3.280628662115277205e-02,5.564273315862831165e-02,1.462820053100585938e+00
8.769484454788439853e-01,-1.047768271521358763e+00,6.840796030928625315e-01,-1.430647090992556193e-02,-3.130056946644547977e-02,1.728543963601152089e-02,1.837107658386230469e+00
8.146174195150988062e-01,-1.040783202758535753e+00,6.032321006169851785e-01,-1.914147487495385450e-02,-3.227780149492304740e-01,-2.279735375543723297e-02,1.846674323081970215e+00
8.049570392681369979e-01,-1.032082878214596322e+00,6.271666098246385657e-01,1.480396758563303460e-02,-1.970340634931603829e-01,9.750209400977753738e-03,1.788051128387451172e+00
1.116709737298847926e+00,-1.276791054356401167e+00,2.854994968686573875e-01,-3.576293921421715150e-02,-4.013690186355132195e-01,4.630221881564076936e-02,2.218966960906982422e+00
9.511278279847708017e-01,-1.117962397880360337e+00,5.969046628522342024e-01,5.950172726256886674e-02,-1.698285389972937209e-01,7.539340815665250897e-03,1.941907763481140137e+00
9.173911386041034843e-01,-1.008624513267169176e+00,3.818897780627272809e-01,-6.867022882319156508e-03,-1.276391094289527073e-01,-2.398179110406334011e-02,1.736564397811889648e+00
7.327522620832266353e-01,-6.373856227664984608e-01,6.752801896653188862e-01,6.829535306902417835e-02,1.428348802285763939e-03,1.496961503659186834e-03,1.347531795501708984e+00
9.112681295215752098e-01,-1.011588040555883250e+00,4.844082539356197037e-01,9.797279392894736594e-03,-5.465705589715458279e-03,-3.587235774001089339e-02,1.750152349472045898e+00
7.510761740940885556e-01,-3.966366383890164715e-01,7.362228901220475574e-01,1.699411959191861055e-01,2.856269898480214356e-02,-1.610359945049605612e-01,1.211322903633117676e+00
6.611619744544060540e-01,-4.553174650193573259e-01,6.624968255367906789e-01,4.099504642591685760e-02,-1.997795894382912302e-02,-7.209468485449742337e-02,1.126876473426818848e+00
4.919811519580090664e-01,-2.714247078851665385e-01,7.515155710851333382e-01,1.947023426836905768e-01,7.574050905141070655e-02,-3.810900105953821115e-02,9.917511940002441406e-01
6.264872278862769761e-01,-2.714719461982043058e-01,6.198011516231942686e-01,8.090858450047658246e-03,2.331940496617454853e-03,-2.083737362441485594e-02,8.954813480377197266e-01
6.223598693806930982e-01,-1.672759765698891288e-01,6.252581242447442511e-01,1.197589622682099057e-02,-1.395674215384940138e-02,1.011450470928100661e-03,7.917319536209106445e-01
6.572195590970593138e-01,-2.204009636859133869e-01,6.983927424638984860e-01,1.561939143762829940e-01,-2.990420534917367056e-03,3.505977337436388258e-02,9.407185912132263184e-01
6.237020221151214905e-01,-3.268787999340402872e-01,6.220730728240323471e-01,3.841816703340634066e-03,7.422032596222138782e-03,-1.227779008363082125e-02,9.501157402992248535e-01
6.432224703397050325e-01,-3.261962003186922310e-01,6.253990561856830332e-01,-8.790992797506166218e-03,-5.551839955976612360e-03,3.099812000946912220e-04,9.607999324798583984e-01
7.559379653201420135e-01,-7.759516477194149386e-01,7.366184911034090455e-01,-6.311733148823449324e-02,-1.295088471705795399e-02,9.452552759126263068e-03,1.526494741439819336e+00
6.908068744850381915e-01,-1.458820338895067126e-01,6.695538264766072167e-01,-1.777559068841794848e-02,-2.311632386021340510e-02,1.064733965466133948e-02,8.280150294303894043e-01
7.621083243946238373e-01,-8.173574702160943950e-01,7.602153958810429213e-01,7.873619712710450136e-02,-2.238185814166766818e-02,-2.474845529236078395e-02,1.585453987121582031e+00
1.080507410198781937e+00,-1.035286502605105241e+00,3.304178080801604134e-01,5.971788012502941834e-03,-7.237777726972075346e-03,-1.336025082815790396e-02,1.858220338821411133e+00
7.954901672489729236e-01,-9.757454319280444155e-01,7.680033791493641182e-01,2.148002515829829095e-02,-1.069565526459819588e-02,1.918492264338309862e-03,1.758147835731506348e+00
8.541580343445210888e-01,-1.002566478643827752e+00,5.687185215962693441e-01,2.771848153698202970e-03,-1.313795028672697963e-02,-1.507769862557422789e-03,1.731896877288818359e+00
9.477363596424193126e-01,-9.890949289438424330e-01,4.298314889343167744e-01,-3.602203513245780947e-03,-1.520030057320420104e-02,3.033075172863667485e-03,1.737010717391967773e+00
6.272453202153307483e-01,-2.989316419246828005e-01,6.157275352561775161e-01,-1.283739131469946622e-02,-3.215195430156501683e-03,-1.698710834821495763e-03,9.207621812820434570e-01
6.476190768455943880e-01,-3.384957570212290268e-01,6.232636829276201329e-01,-7.337429965525842090e-02,-4.607755214179788325e-03,3.710950787092297254e-02,9.845530986785888672e-01
6.527677394439340697e-01,-3.998678150291419264e-01,6.413406437342479283e-01,-4.648835156382571943e-02,1.142322515405919982e-02,-1.247600239447350587e-02,1.050469160079956055e+00
7.732143657740471188e-01,-8.618394107963640582e-01,7.347865910905968523e-01,-1.189881427722330222e-02,1.756406675291708949e-02,8.923860830936112057e-03,1.616674065589904785e+00
6.236089620680440593e-01,-2.781706798384767088e-01,6.252124618791728983e-01,1.300055624266974359e-02,-8.052311120237612765e-03,4.075611070187644576e-03,9.029986262321472168e-01
6.181010638239483601e-01,-1.350477557217911739e-01,6.181627504677963403e-01,3.223467469137249186e-02,-7.134096307373617371e-03,8.334080111384692055e-03,7.554851770401000977e-01
6.648675063024893639e-01,-5.150266015421849364e-01,7.012378524865534590e-01,-1.194486204957143360e-01,-1.634658832437645842e-02,-3.817555179626994089e-02,1.218344688415527344e+00
7.220182248256583613e-01,-6.053158680826076221e-01,6.652080976022798353e-01,-6.827772606214602136e-02,4.290096902621369328e-03,-1.273471242718610466e-02,1.305436491966247559e+00
7.239763096580642543e-01,-2.394580335238976621e-01,6.679389907558869188e-01,-6.160017311535782858e-02,-3.482566805111906270e-03,3.034072912420296073e-02,9.442136883735656738e-01
7.828384654785358610e-01,5.443916754997096819e-02,7.362571807413236247e-01,8.046489851799665249e-02,5.052087102137288455e-02,6.125153520220490838e-02,7.328995466232299805e-01
7.606451663351925241e-01,-1.023575770592610290e+00,7.601189425498959817e-01,-4.432210878050647611e-03,1.346018236898172344e-04,-5.015450445650090038e-03,1.783995509147644043e+00
7.450753496374016294e-01,-1.014676061867232582e+00,7.576067200553485703e-01,-7.959176467958111595e-03,-8.530137284993320745e-03,-8.809570153665069459e-03,1.766232013702392578e+00
7.757926328062854093e-01,-1.035571388197410680e+00,7.756813629139613919e-01,-2.998181359210802532e-03,2.381659156155186601e-04,-3.190255820124612667e-03,1.811324357986450195e+00
7.754678233817540178e-01,-1.031710362237965528e+00,7.711644794922238866e-01,-2.519085270789573580e-05,-2.067278620443634054e-03,-1.029615133353839907e-03,1.805034756660461426e+00
8.028706603910797934e-01,-7.562625106894882432e-01,7.366071229690025479e-01,-6.248727701578484645e-02,-7.049948751043704984e-04,8.407447942453546985e-02,1.537821292877197266e+00
8.210808684854680184e-01,-3.237248428575105752e-01,3.568586727432906391e-01,3.031726663271608335e-02,4.875058152134564837e-02,1.342458785979055991e-01,1.028878688812255859e+00
8.836987705497967305e-01,-8.471397796271520342e-01,7.561962464303830789e-01,4.825478163567096732e-03,-1.125850923191167550e-02,1.973205301517821086e-01,1.705470323562622070e+00
1.003162444522367691e+00,-8.191801217151141179e-01,1.829850073669007371e-01,2.717898151159172521e-02,-5.477217113607701915e-02,1.548649891981050963e-01,1.606905341148376465e+00
9.247776224336541340e-01,-1.100389407568150624e+00,5.872320016939739373e-01,-6.297134583969913463e-03,4.508888040998620950e-02,-1.002449067570041485e-01,1.888919591903686523e+00
2.415800167459178915e-01,-1.945370396939738455e+00,1.551789844866271917e+00,-2.242864476231996584e-01,1.797316771836891813e-02,2.810271611933904956e-01,3.123071670532226562e+00
9.663317175661154668e-01,-1.232476812995883408e+00,5.763350483393011592e-01,1.729255578666273260e-02,3.953850015990861833e-01,-2.684354642105779912e-02,2.145081520080566406e+00
3.245544114497522226e-01,-1.150406144280835097e+00,1.141752658055667613e+00,6.532845929797721773e-02,7.426949711465780091e-02,-1.990199224075949597e-02,2.019701957702636719e+00
5.192060773967557274e-01,-1.034266696813117337e+00,8.110954028026847729e-01,-4.357836731636852146e-02,-2.211807053811516433e-01,-2.992193894098856694e-02,1.762686848640441895e+00
1.126734772761541992e+00,-1.262647284361860134e+00,5.559790938928234061e-01,-4.899526236142112690e-02,3.047937964244596953e-01,3.599020028063005389e-02,2.227316856384277344e+00
4.466198556687672183e-01,-1.110774195501579076e+00,9.787240993457464455e-01,3.010559461451411956e-02,1.928129352428199494e-01,-2.893377965453610562e-02,1.911561727523803711e+00
4.249595459334080116e-01,-1.590167922014554369e+00,1.130977151862728736e+00,1.147535130695612332e-01,-3.843159783298431553e-01,1.410010986777117115e-01,2.554243564605712891e+00
4.848213387797237761e-01,-1.017240841395658624e+00,9.412138820003111972e-01,-1.253157057571900428e-02,-1.093768677428776093e-02,1.109220271708666805e-03,1.775063037872314453e+00
7.123068332469826291e-01,-1.625051445697860419e-01,1.058241174543693042e+00,-8.573011342089265074e-03,-9.120174222700506983e-02,4.075537648034307375e-02,1.103517532348632812e+00
7.213161764084203842e-01,-5.977097081942833734e-02,6.969569540272607666e-01,-4.535031431708945460e-02,-8.705459409294027950e-02,1.035510410662182287e-02,7.879663705825805664e-01
7.445060444101219144e-01,-7.746560085592970601e-01,7.133858768516598836e-01,3.769211666145873968e-02,1.649971933579361810e-02,3.358991974076046966e-02,1.506654858589172363e+00
5.626050358072938185e-01,-3.205232634897706157e-01,7.207189371321738314e-01,1.119799157323732447e-01,-1.223447031997309531e-01,-4.551772329716002180e-02,1.016508340835571289e+00
8.158876368976631932e-01,-9.964232085138732264e-01,5.956078792868596539e-01,-1.511604260813055600e-02,4.096897422290851631e-02,2.279152971815021425e-02,1.714951157569885254e+00
7.294561764390381509e-01,-6.804228179889315609e-01,7.041611939762136840e-01,5.094664818677330231e-02,2.044606137431853946e-02,3.952563696799928777e-02,1.402306437492370605e+00
6.685963445062883537e-01,-5.537452019420361360e-01,6.896703424061767507e-01,-2.699377712575353611e-02,-7.677293357973150219e-03,-5.387120149554485565e-03,1.234006643295288086e+00
7.072914532022875900e-01,-6.476434880468213695e-01,7.009464915457930267e-01,-6.591670817672786245e-03,1.884912480171935939e-02,3.746056250084913580e-02,1.353771805763244629e+00
6.645521046237539142e-01,-4.579364532188763826e-01,6.476362428506090563e-01,4.449527972410519810e-02,7.518582704004214516e-03,-3.650505834905077868e-03,1.116883158683776855e+00
6.762554331595247437e-01,-9.123120677794487321e-01,7.751849724044652667e-01,-9.747372880817608762e-03,1.072948415073662898e-01,3.598631237110197501e-02,1.652028083801269531e+00
7.427095118310421684e-01,-1.022848081224470684e+00,7.919483290940158016e-01,6.031180296095362339e-03,1.278601425817669189e-02,-2.150818650069774920e-02,1.791239619255065918e+00
7.633081187639476628e-01,-8.956858259417042056e-01,6.514728547427965921e-01,-1.764896801676146126e-02,1.069027293426947633e-01,2.235524261923717282e-02,1.617390632629394531e+00
6.932957397765885377e-01,-8.434572479535497047e-01,6.996154483209497954e-01,-1.810320942015752332e-01,2.251701851151442779e-01,9.053144459220995033e-02,1.626767396926879883e+00
4.610843543438484793e-01,-7.329105894253495901e-01,8.222568590337401284e-01,-8.633173393399901085e-02,1.923559118629347420e-01,1.401983997047583259e-02,1.456454277038574219e+00
5.463670321382106954e-01,-1.377236945023330161e+00,9.946112807282202484e-01,-1.444763867332934104e-01,4.325480931744447588e-01,7.430495133006907726e-02,2.324628353118896484e+00
8.864222458500512491e-01,-1.173984455586132514e+00,4.901838975399552267e-01,9.395406917406814995e-02,4.689178962177303345e-01,-9.143545632450354732e-02,2.072940826416015625e+00
8.374648002703055649e-01,-1.051017344445937196e+00,6.012401188224101301e-01,6.654886012760073861e-03,6.092599533103187914e-02,2.311067577643676277e-02,1.785758137702941895e+00
9.062190824405875755e-01,-8.767350180284690930e-01,2.713513193448134908e-01,6.010941915590096996e-02,3.379100505940624277e-01,-1.268363608453834113e-01,1.688695907592773438e+00
8.833625219567786679e-01,-1.013585691640331410e+00,5.431860847116678492e-01,-2.928353015277170707e-02,9.694799120531978620e-02,2.126009180860449765e-02,1.760954499244689941e+00
8.176289703049332003e-01,-1.077203574840312816e+00,6.261683783380321833e-01,-2.338579666165643833e-02,2.562341521896011054e-01,5.786167310123370433e-02,1.863575696945190430e+00
6.333749118321538862e-01,-1.042964094466866110e+00,8.668111879873905412e-01,4.021871013813001910e-02,1.680466620593600025e-02,-2.054347885867698065e-02,1.806346893310546875e+00
5.956994355146928433e-01,-1.075399905295938652e+00,9.026175379079520722e-01,3.875156257730286158e-02,1.711396733819534749e-02,1.487363100936473165e-03,1.845278501510620117e+00
4.980572094321685794e-01,-1.040746166667655181e+00,9.389195656984147265e-01,1.466820142079439462e-02,-3.599532631182542075e-02,-1.065963018223446690e-03,1.801447153091430664e+00
1.018691965893495421e+00,-1.055894084687711398e+00,4.109993201047386080e-01,4.242509168297757885e-03,-1.584580988344221619e-01,2.558220155594859158e-02,1.868108987808227539e+00
1.079430947194635948e+00,-1.179036822370956861e+00,4.103065518980117954e-01,2.903715584546097059e-02,-1.683719881032015031e-01,6.783128368751492610e-02,2.034352064132690430e+00
7.465150358410967968e-01,-9.785090149885009581e-01,6.344177561444208635e-01,-5.140235331287952743e-03,-3.605289544298143078e-02,-1.359739552134727695e-03,1.672987580299377441e+00
7.813691556716361175e-01,-1.205796636061700511e+00,7.791788140792458295e-01,-3.484787140585144521e-02,-3.045443999100856391e-01,-4.419233144343373901e-03,2.055826663970947266e+00
8.117759722940767197e-01,-1.020140505867668246e+00,6.741919181157765006e-01,1.798203916379696038e-02,-1.680932837917144956e-02,2.245923338894088156e-02,1.768088221549987793e+00
9.226286674776017493e-01,-1.507561817219334577e+00,6.945895316351710091e-01,3.567152137106411464e-02,-6.452312733074450080e-01,2.480209087133617915e-02,2.580364704132080078e+00
1.271334871104443209e+00,-1.879746775750610777e+00,4.785270678102309105e-01,-3.034058310318293872e-01,-5.451995495321327878e-01,-9.113593359683967721e-02,3.041786909103393555e+00
6.466473388415309165e-01,-1.260658323273584625e+00,7.249215817703121845e-01,6.685114176866213676e-02,-5.163111237838698964e-01,7.045295906287733778e-02,2.149712562561035156e+00
9.986817228561065685e-01,-1.111406871081586312e+00,3.351471746410829566e-01,1.416633311195449052e-02,-3.693378307756847168e-01,5.041104196211387140e-02,1.977395415306091309e+00
7.734007552504333916e-01,-1.015201900328071449e+00,7.384755790854078406e-01,-2.437817829677715875e-02,-1.967381450925885164e-02,-1.728531839254274227e-02,1.772482037544250488e+00
7.689270529410946464e-01,-1.003292984301399571e+00,7.767748453851222035e-01,-1.368043922001215603e-03,3.668545589977532592e-03,3.666667972431253766e-03,1.776181221008300781e+00
7.800951493567518380e-01,-1.037160439920622457e+00,7.843041424386145710e-01,-1.318969538529856040e-03,5.322444032179182022e-03,-2.984998062559300613e-03,1.819395899772644043e+00
7.697866649735647382e-01,-1.035129376958531688e+00,7.891125282254061180e-01,-3.359446819967227237e-03,7.415574922592507246e-04,-1.470575902195707906e-02,1.814844727516174316e+00
7.786551255737849120e-01,-1.037809755890087393e+00,7.796824604912778733e-01,-1.898221077703694646e-05,2.734511988840927776e-03,-2.643716247125339671e-03,1.816990733146667480e+00
7.802515396260180092e-01,-1.036660370342747939e+00,7.793123329547750888e-01,-4.885284210952644613e-04,3.052998030023666622e-03,-1.368622544583519667e-03,1.816451907157897949e+00
7.772904444750943220e-01,-1.038675587896010333e+00,7.863904177560647746e-01,-3.599192376148643239e-03,4.624471604453846141e-03,-5.286732864208820541e-03,1.820584416389465332e+00
7.052045840327315629e-01,-1.023334669453639378e+00,7.943750826724381708e-01,7.777797718027656786e-03,-1.394669554677394757e-02,-1.052339287640818334e-02,1.775114417076110840e+00
6.217181134530930242e-01,-1.039280367057378474e+00,8.691119897920746018e-01,-2.181094082252540631e-02,-3.071536765208610770e-02,-4.582341376980502562e-03,1.798710942268371582e+00
7.950877965039189199e-01,-1.005159987370004337e+00,7.672671879754491275e-01,7.551458071709067112e-03,1.614592942563636627e-02,2.332303993604980738e-02,1.787223339080810547e+00
3.450834840128788050e-01,-3.375645709691681984e-01,8.265097397129017587e-01,8.431986676820921178e-02,3.953807037043584327e-02,-5.212631081059852789e-02,1.029851913452148438e+00
2.269862878131843620e-01,-8.779426932861065236e-01,1.096807333631437897e+00,2.913596794393241707e-01,2.732213134446972655e-02,-3.530723565773798839e-02,1.788630127906799316e+00
7.767454683186408859e-01,-9.922542462444096101e-01,7.894966527096983766e-01,-1.059281778461672319e-02,1.892424574419113159e-02,-1.125945447115352278e-02,1.775914072990417480e+00
7.837453603868225205e-01,-1.029703777664056297e+00,7.872822837107960048e-01,3.826156598676881335e-03,1.021714345605547955e-02,2.083785730308346240e-03,1.815322160720825195e+00
7.780264333775779306e-01,-1.006427511809246056e+00,7.823431071752324772e-01,-4.191027924645250938e-03,9.887379256634647520e-03,-4.314895024009945089e-03,1.786728620529174805e+00
7.764118931150879588e-01,-1.023768528093773167e+00,7.766521358851401491e-01,5.662652965066413725e-03,1.289819311699367914e-03,5.920951191115428856e-03,1.800357818603515625e+00
7.874722792455483011e-01,-1.029674119926701659e+00,7.428151719023269317e-01,1.635514853612125841e-02,-3.550703940638806101e-03,1.273846368935646969e-02,1.795603990554809570e+00
7.893900615476652227e-01,-1.028297703718882516e+00,7.387586651219326672e-01,1.447384855899293971e-02,-1.035341261608716847e-03,1.308644976656163014e-02,1.793227791786193848e+00
7.868539221081494173e-01,-1.027120522102384692e+00,7.902230449686933333e-01,6.499516288115724308e-03,7.804651347375779306e-03,-4.683529527506208497e-03,1.815764665603637695e+00
8.138650037933280457e-01,-1.011009664484994852e+00,7.149871145810661188e-01,-2.136867246733590675e-04,-7.582818310456308081e-03,7.030169817976462780e-03,1.777589797973632812e+00
7.762196227410635974e-01,-9.918518036912669089e-01,7.800140422809593854e-01,-8.965055171072516815e-03,-1.629010250559385226e-02,-2.918260007370612145e-03,1.770271897315979004e+00
7.492620683690385253e-01,-1.013032640995014111e+00,7.408328502806973415e-01,1.886732480318593073e-04,-4.261938431845365728e-03,-1.789302817903583233e-04,1.758110761642456055e+00
7.653521703642152119e-01,-8.840622014798692474e-01,7.482091900612921620e-01,-2.253855741764781290e-02,-1.597374496112178438e-02,1.448621694896929518e-02,1.641799211502075195e+00
6.914552618430824804e-01,-6.672868847498654166e-01,7.373167706536312149e-01,-3.925923087039910608e-02,-7.882747216791528150e-03,2.077249799145987341e-02,1.384450197219848633e+00
5.831513225248898813e-01,-1.059110068589505405e+00,9.133897774675097114e-01,6.786494381482066629e-02,-5.777435912105870208e-02,2.947107062409138126e-02,1.837077617645263672e+00
7.859459735900449218e-01,-1.017389430594817457e+00,7.825053138421651511e-01,-1.029197435738108367e-02,-1.409512824117169563e-02,2.278792804579320673e-03,1.801875472068786621e+00
7.763725278654876050e-01,-1.040572866975180144e+00,7.918814853691078515e-01,1.327258500688966933e-02,-1.398079228861926794e-03,-1.315937918831865637e-02,1.825038075447082520e+00
7.809567972093904853e-01,-1.023311796532864859e+00,7.843593636641597033e-01,7.429326130007735465e-03,-3.013482202672486919e-03,-4.974682902471417277e-03,1.806046247482299805e+00
7.742765215031304216e-01,-9.286683321712968509e-01,7.571604268111119529e-01,-2.485317101916711263e-02,-1.758274507457719543e-02,-3.057877430847884791e-03,1.695280194282531738e+00
9.358972371805938106e-01,-1.020877875588811268e+00,5.124546915391962054e-01,-5.987355275506650240e-03,-3.132341034270940544e-02,-1.333261411254140459e-02,1.784173488616943359e+00
9.918248795492128345e-01,-1.132484535877556153e+00,4.359124257283239490e-01,1.598124756393925691e-02,3.368477057250895274e-02,-1.151198107433481221e-01,1.919564247131347656e+00
9.099506896374504050e-01,-1.022759914336325071e+00,4.908963838947725256e-01,-5.906805765653648987e-04,-1.471122917143610786e-04,-5.552532374315898023e-02,1.763608932495117188e+00
8.885997586076087584e-01,-1.020568467670257995e+00,5.850663471746819777e-01,-7.158810562900024162e-03,-3.281212219107702832e-03,1.536044783337029047e-02,1.777203798294067383e+00
9.361154084813173570e-01,-1.021768018161798963e+00,5.073667609220409158e-01,1.707979043281885462e-02,3.404246553744354892e-02,-4.013292614146925230e-02,1.785182595252990723e+00
8.901686672351208918e-01,-1.005293901987518002e+00,5.064474011208208726e-01,-1.806750278687864128e-02,4.666923942869895259e-02,6.198019918956406121e-04,1.737873911857604980e+00
7.706893029769680270e-01,-9.963198267397337382e-01,6.508239933415448375e-01,-1.774846783053089794e-02,1.511503042670790664e-01,2.151660188708721597e-02,1.730826139450073242e+00
1.082581489322144819e+00,-1.177431426584104379e+00,4.738334644918734684e-01,-2.659490328126945871e-02,1.411603176006455407e-01,5.314463680419113933e-02,2.042750120162963867e+00
8.177733798730435488e-01,-9.827254747002902580e-01,5.702158200790470310e-01,-5.158878544136089039e-03,4.438221298518987834e-02,-2.896770881604445163e-03,1.692148923873901367e+00
