sxx,syy,szz,sxy,sxz,syz,smises
-2.812504635337080908e-02,-2.967286895761712673e-01,2.767277382118991658e-01,-5.697659775510973898e-03,4.107328035871800689e-03,2.302593709082994405e-02,4.987046122550964355e-01
-2.856179871228966410e-02,-2.648492554901064056e-01,3.028321147553701964e-01,6.658728694512125804e-03,1.096541504892697668e-03,-6.698470071863876600e-03,4.941954612731933594e-01
-2.115802308367694881e-02,-2.327651123948678569e-01,2.655702714260111952e-01,-3.944247744077957786e-03,1.207508561353022591e-02,-3.223113618510524588e-03,4.337968230247497559e-01
-2.593137805072376692e-02,-2.454523728731568544e-01,2.620872877596678863e-01,7.935533061570059638e-03,-8.689919335529761035e-03,2.989300431620504211e-02,4.443721473217010498e-01
-2.944760498539525720e-02,-2.956441196136305183e-01,2.846216288730785693e-01,-7.339165645680293878e-03,3.979531638211956934e-03,1.984722090988142590e-02,5.044749975204467773e-01
7.091595836811880223e-03,-2.867344184928985462e-01,2.966452092567491983e-01,9.523431843943374123e-03,1.121236754586469285e-02,4.231553340715946300e-05,5.058681964874267578e-01
2.199350944041290543e-02,-1.888369974276961627e-01,2.999757644996067785e-01,3.837243326591465581e-02,5.083544456673305678e-03,-4.737805999873321607e-03,4.299918413162231445e-01
9.358190396048404747e-03,-2.531179688397429128e-01,2.934480127252546144e-01,4.608649773048113102e-02,4.946066507969591568e-03,3.051358374120501440e-02,4.831211864948272705e-01
9.544143966780689950e-03,-2.709128859841186676e-01,2.887694219074153912e-01,1.455918470021051389e-02,8.084995941909556630e-03,2.843765527308320107e-03,4.855819940567016602e-01
8.130338207063433215e-03,-2.562720842232952267e-01,2.915625843254753824e-01,2.642835882057643568e-02,7.794861489011900568e-03,1.851593485689468797e-03,4.769387841224670410e-01
4.130473002620441147e-03,-2.729298107825849362e-01,2.938453195157227360e-01,2.938461229286369603e-02,-2.705994477340436036e-03,-9.891709439087917766e-04,4.935390949249267578e-01
5.051589853673718947e-03,-2.841521300870903377e-01,2.971494902957832474e-01,4.778672793956970782e-02,9.558593802557111690e-03,2.410216210959468044e-02,5.121555924415588379e-01
6.657452941328174598e-03,-2.785119146671279355e-01,3.191443595656228704e-01,4.751575733054897582e-02,4.929198397892172422e-03,1.817435283456676071e-02,5.252793431282043457e-01
2.246020827213211085e-02,-2.796095925233745283e-01,2.850207469847285680e-01,4.084833036407782558e-02,1.989619004283112690e-03,2.116247553886299159e-03,4.944965839385986328e-01
1.505232518806051169e-02,-2.713740652006049747e-01,2.901798095482212014e-01,1.846248130597291648e-02,1.070369278205280175e-02,4.497919188043924578e-03,4.878175556659698486e-01
-5.775748790773753590e-03,-3.081897455448484591e-01,2.969754565821935977e-01,-1.521053797506870513e-03,1.159647524588345614e-03,1.825508330584708905e-03,5.241084694862365723e-01
2.010604126683364357e-03,-3.084349673110862167e-01,2.993260139255367602e-01,2.902688480159899310e-03,1.040183533971985631e-02,6.493440821602970182e-03,5.268297195434570312e-01
-1.857097316493802781e-03,-2.798230535196317703e-01,2.964940912317666211e-01,-1.609996463015422874e-02,7.632020502565647728e-03,-4.424163083282577069e-03,5.002210140228271484e-01
5.278385644420504827e-03,-2.960733547618202843e-01,2.949302597199784381e-01,-1.195935618455696257e-02,5.587174212153296973e-03,-1.051999755180369920e-03,5.123711824417114258e-01
1.993390311519402987e-03,-2.903731103142876413e-01,2.913835327567109168e-01,-7.828667779817392175e-03,1.479001446488906191e-02,-1.050670024073112156e-02,5.049793124198913574e-01
2.250169380346949896e-03,-2.871121325629129029e-01,2.959474093444853793e-01,-7.235019106663383506e-03,1.067978871569484449e-02,2.327733642815064865e-03,5.054591894149780273e-01
-2.513800662065903899e-03,-2.831205777464266826e-01,3.016458240940326219e-01,-1.327220435776907230e-02,8.857172477633620117e-03,1.949515496000791843e-03,5.073240399360656738e-01
-5.528825576665181984e-03,-2.821718546814372397e-01,2.940735260071066226e-01,-1.391322594478544040e-02,4.359193462474867352e-03,-5.694966124954716153e-04,4.998145103454589844e-01
-3.532408310521539807e-02,-2.764744605408473999e-01,3.096913912867910734e-01,-1.397076536898305722e-02,6.594475293072553888e-03,-9.564827876664660708e-03,5.112535953521728516e-01
-2.031980028651095976e-02,-3.172206991876260207e-01,3.122830227303244333e-01,-3.913253500923031571e-03,7.132555907769067656e-04,-8.475107115732320381e-03,5.456993579864501953e-01
-2.748110580795842806e-02,-3.214076494610472179e-01,2.878454057174986702e-01,8.640550869961932017e-04,1.018630181063887551e-02,9.400306144794649127e-03,5.282850265502929688e-01
-1.416236539860674278e-02,-2.904008096788228688e-01,3.058747008923586308e-01,-1.345401679978413916e-02,8.808883463455785892e-03,-4.379796889796129522e-02,5.231333971023559570e-01
-3.539182040009585667e-02,-2.651483121342814164e-01,3.030298024721402861e-01,-3.307399347466901101e-03,2.371979004016799668e-03,-4.889485416218010416e-03,4.951698780059814453e-01
-2.865795220376703145e-02,-2.425234466767537955e-01,2.690076785134151161e-01,-2.802491348230409449e-02,1.233105798602585762e-02,1.032806143953622635e-02,4.484819471836090088e-01
-2.493790773678433714e-02,-3.170615177852381672e-01,3.068733687430427737e-01,8.770358807926113397e-04,8.658632888369480933e-04,-1.881137543224422433e-03,5.407217741012573242e-01
-2.106574680734735888e-02,-2.821914129595227694e-01,2.941138263344116877e-01,-2.037983345229528800e-02,1.046409682074487049e-02,-4.321853848012692512e-02,5.069559216499328613e-01
-2.196471632496543175e-02,-2.294174413330434537e-01,3.084212314493106621e-01,-3.808966517109336797e-04,-1.604842414784096597e-04,-4.980062603571070584e-02,4.776733219623565674e-01
-4.660740101266583335e-02,-3.147448309253030874e-01,2.642519855106153503e-01,-7.245077011422699532e-03,2.759155788031917439e-02,1.287042081404950536e-02,5.047995448112487793e-01
-4.340171958086492393e-02,-3.107609486897842666e-01,2.829568705821695618e-01,-5.284666912374728215e-03,1.681535555492287559e-02,9.440020373226536837e-03,5.161833763122558594e-01
-3.959950248559905572e-02,-3.113306828223221800e-01,2.465972426796709804e-01,-4.224827621479722295e-03,1.359751693467704282e-02,1.200752533267448671e-03,4.838672876358032227e-01
-3.520819092147831064e-02,-3.108823843781856056e-01,2.473718260840311878e-01,-6.840861970383993809e-03,1.105688078632434228e-02,4.380297669709778095e-03,4.840583205223083496e-01
-2.822441366270428409e-02,-3.220783053426426457e-01,2.384541335438979393e-01,-1.007542043796089658e-02,2.756616831557547054e-02,1.547343080823812035e-02,4.890139102935791016e-01
-1.284579498543636858e-02,-3.119948296967346435e-01,3.101704179077321433e-01,-1.022777675202961572e-03,-5.454964683852141227e-03,1.304568350658890632e-04,5.390288233757019043e-01
-2.622774174383579390e-02,-3.217508359318862476e-01,2.608533862816397875e-01,-1.105255852982176164e-02,1.683848493761741505e-02,4.738554071299843490e-03,5.058389306068420410e-01
-1.761371719220222731e-02,-3.114731399470342943e-01,3.058831387008223990e-01,7.573324531637059881e-04,-5.948258487998593462e-03,5.838344530954235742e-04,5.349533557891845703e-01
-1.583480971277980570e-02,-2.856427837774776490e-01,2.870562495095240196e-01,2.177695691196510183e-04,-1.907137591412356959e-03,4.933253149209230332e-03,4.963323771953582764e-01
-2.185726286439016591e-02,-3.203615093389834967e-01,2.987009902213380586e-01,-1.056125403369815837e-03,-1.452944681313105934e-04,-1.164915090930508006e-03,5.362442135810852051e-01
-3.675959898132850900e-02,-3.136726546339304589e-01,2.833574080641703685e-01,-6.241075058995292600e-03,3.485409265814908789e-03,4.277763225609508904e-03,5.176953673362731934e-01
-1.961808243202910543e-02,-3.155052028861131674e-01,2.723714238989263237e-01,-2.676080105408450149e-04,3.097654441116338476e-04,-7.918250705102904824e-03,5.093050003051757812e-01
-1.970379588932778467e-02,-3.190870055359415480e-01,2.903446465555178935e-01,1.325006434722611742e-03,-5.248259080403943830e-03,8.645973717258089233e-03,5.281058549880981445e-01
-2.022994503235868435e-02,-1.780995011016792418e-01,2.888690451979212259e-01,2.139192121762563056e-02,8.805315648629775949e-03,1.874434590085288094e-02,4.146345257759094238e-01
-1.258073577518927649e-02,-2.111461766926471806e-01,2.867238166335849825e-01,2.774870347267598385e-03,1.087867290029625664e-02,1.136433711803850471e-02,4.349811077117919922e-01
4.041344681581078568e-03,-2.122381736896783722e-01,2.893441002682041741e-01,1.920848139441273805e-02,5.322884622979282693e-03,5.148361221520867358e-03,4.372082352638244629e-01
-1.867453793520516825e-02,-1.309122444687114417e-01,2.807496888758981290e-01,2.644374229289150197e-02,1.143430022464547117e-03,-3.943601804733259768e-03,3.714932799339294434e-01
-1.376540621882728355e-02,-1.765984403171061146e-01,2.728395094497901852e-01,2.922778488007544539e-03,-2.315885152986949663e-03,-2.330374332919338438e-03,3.941874206066131592e-01
-3.533405240319263674e-02,-3.164206336333371117e-01,3.005558465992884121e-01,-4.177152552967136438e-03,5.814952477266388054e-04,-1.021253340425328079e-03,5.350722670555114746e-01
3.122630962963293677e-03,-1.457621718967768154e-01,2.867929637189687853e-01,3.052760536849409914e-02,-1.195168344209016249e-03,-5.779627132943485068e-03,3.844086825847625732e-01
-1.716266162634365322e-02,-1.363659630307695048e-01,2.864489922077765316e-01,3.042215444551151643e-02,-2.564039730592834656e-03,-7.147776195022099814e-03,3.814845979213714600e-01
-1.703050576392993454e-02,-1.696628034225236559e-01,2.804602326020295688e-01,1.946885879842436733e-03,-3.169563354736107050e-03,3.726434083910430076e-03,3.965945243835449219e-01
4.201510497673336883e-03,-2.799574197240712325e-01,3.006601810724176538e-01,-1.903456778439731323e-02,4.266853985744717762e-03,-7.073561329996033882e-03,5.041498541831970215e-01
1.212920038022638480e-02,-2.637586971132860891e-01,3.157333460423725757e-01,-2.503175043869777100e-02,-4.532924846307351263e-03,9.775600521474680019e-03,5.042602419853210449e-01
-4.118570964062664985e-05,-2.842650604915366586e-01,3.077928304497729028e-01,-1.394191217619313548e-02,-4.408218987811884579e-03,1.590404858090391227e-02,5.142363309860229492e-01
5.397263623505583335e-03,-2.567589759073817812e-01,3.152316127995066775e-01,-5.345148284998470223e-02,7.624750423798088220e-03,8.821780964502113145e-03,5.049032568931579590e-01
5.549003665421395337e-03,-2.216029513036015253e-01,2.881541987802724303e-01,-4.942032274219379517e-02,-2.911705729723943273e-03,2.395392306686303791e-02,4.524731338024139404e-01
-4.200659106759531587e-03,-2.828653086313956400e-01,2.915204311833569095e-01,-1.761911694326590699e-02,-7.486016816733953756e-03,-2.607306780803610342e-03,4.986298978328704834e-01
-4.631112853377460092e-02,-3.089354993685353712e-01,2.820992584379152790e-01,3.290160709831421379e-03,-4.617380167026994588e-03,5.490690393300745598e-03,5.130890607833862305e-01
-1.477460171845903711e-03,-2.705375391943802277e-01,2.976244956912358908e-01,4.626072681913866690e-03,-1.452639197788505379e-02,-5.038912670999937463e-03,4.930569231510162354e-01
2.598374772047157971e-02,-1.982320520974052425e-01,2.918970999263908461e-01,3.968137748030894224e-02,-7.958473169078378665e-03,-2.840697273761131378e-04,4.307188093662261963e-01
-6.362178143634591651e-03,-2.910198898337366669e-01,3.057469726300367507e-01,1.882812937969311276e-02,-1.335367316394269789e-02,-1.043041476940778992e-02,5.188556909561157227e-01
2.023937755162556404e-02,-2.635375615687318152e-01,2.924551277712783559e-01,1.564745901911339734e-02,-8.827476245396636070e-03,-5.626788845858719627e-03,4.826412796974182129e-01
-4.936766636958507537e-02,-3.063344885720542532e-01,2.673025713202586973e-01,-1.678142556514625053e-03,-8.122246660811485025e-03,-1.994588460146698786e-03,4.978996217250823975e-01
1.444398484917312417e-03,-2.705390958382720146e-01,2.952555101346418520e-01,1.361757645691748231e-02,-1.375064073309862668e-02,-1.132358405847765093e-02,4.916502833366394043e-01
2.039571988348204933e-03,-2.912280650628372713e-01,3.078526445523593336e-01,7.077041172751072189e-03,-1.756822607241084050e-02,-6.795300207613748887e-03,5.200262665748596191e-01
1.365451957966827556e-04,-2.569102758888646698e-01,2.980858709307608323e-01,1.590661498642913924e-02,-1.080626731656775773e-02,-6.135119017573261932e-03,4.823443889617919922e-01
-8.788711157087023343e-03,-3.140854792434491505e-01,2.982352373002053469e-01,-2.973673353822632693e-06,-2.857823548092549432e-03,1.410317637451565399e-03,5.303147435188293457e-01
2.074547974502715872e-03,-2.936065253600348424e-01,2.972893548654137463e-01,-1.182644464735742480e-02,-1.101502317834845111e-02,7.216560370909560346e-03,5.126483440399169922e-01
-6.361523555381092682e-03,-3.000158790128111819e-01,2.951409164930725582e-01,-5.011883748035649878e-04,-7.763213599679156737e-03,2.303126282814853525e-03,5.156273841857910156e-01
-9.724298351222565931e-03,-3.090045299515430388e-01,2.944644058415297194e-01,-3.950480629196240386e-03,-6.848199591576990646e-03,5.220800851823169560e-03,5.228827595710754395e-01
2.539585165242649011e-03,-2.925977535402960461e-01,2.960260168163231231e-01,-6.950549091443910046e-03,-5.058603588424172293e-03,6.491594820931301073e-03,5.101051330566406250e-01
3.913631916433981534e-03,-2.652698021745534818e-01,2.985755103855658454e-01,-2.326225328918489835e-02,-3.468623745085789613e-03,1.755147793908197300e-03,4.901756644248962402e-01
-1.210889180720877215e-02,-2.288997415604840657e-01,2.534056943930087513e-01,-4.101315979493030950e-02,1.646000414181297833e-02,3.566657868335802728e-02,4.298054873943328857e-01
-3.866456275337022686e-02,-3.100563432571672440e-01,2.693071933485829961e-01,5.784105552963541598e-03,3.407833936508424390e-04,7.290323193472092759e-04,5.021786689758300781e-01
-8.381623272470349606e-03,-1.081273617997458025e-01,2.387923263651908490e-01,-1.164969497434381260e-02,7.653462995951756595e-03,-2.068765710666735369e-02,3.123548030853271484e-01
-1.859925181158433513e-02,-2.780414552134570227e-01,2.936436320129353628e-01,-9.333815109304945817e-03,2.673309466229086169e-04,7.361586361066796945e-03,4.962247610092163086e-01
-1.604107037032323144e-02,-2.928668892689558767e-01,2.787429857627922725e-01,-2.220497851183957181e-03,7.710607962855668153e-05,2.168340406174865467e-02,4.965474009513854980e-01
-2.345843218161713234e-02,-3.031840955377773650e-01,2.952955198954290150e-01,-1.245944614644817726e-02,-1.234000533567547421e-03,-7.228997521926741870e-04,5.191204547882080078e-01
-2.045098765563978932e-02,-2.928722593616535086e-01,2.879130204852082819e-01,1.620375378371645934e-03,-1.067824555850150400e-03,1.143104249437965070e-02,5.036962628364562988e-01
-1.108466769727572271e-03,-3.125266674161792380e-01,2.966495828648484379e-01,-3.791472820161898190e-03,-1.622037995288667456e-03,-1.366757102253077878e-03,5.276599526405334473e-01
-1.715063019232181477e-02,-3.287308873232276940e-01,2.877711228769183061e-01,2.772053302013161892e-03,5.525055920892568001e-03,2.080919131390497498e-05,5.340241193771362305e-01
-2.001945711825270369e-02,-3.281997163238454251e-01,3.081156415470041599e-01,2.082202974184004744e-03,3.841976070186210995e-03,3.634975398986631853e-03,5.512434840202331543e-01
-1.769018388193577263e-02,-3.106366083222897867e-01,2.859784906803169990e-01,-4.858995359173168271e-03,-9.513616632102124028e-04,2.613457563046652291e-03,5.168026089668273926e-01
1.319117404748647998e-02,-2.780812043883746365e-01,2.818207978626173227e-01,2.559399304307150014e-02,9.547122915956014061e-03,2.624406356684026720e-02,4.894391894340515137e-01
2.762273527943925541e-03,-2.751041895309541685e-01,2.948442058376061214e-01,1.797901691556244574e-02,1.105991939993957417e-02,1.398942101716979525e-02,4.955857396125793457e-01
1.636243072737537246e-02,-3.009823309601926677e-01,2.913224276864256335e-01,-4.748799550324385617e-03,-3.652879774242916242e-03,1.081163861765561257e-03,5.134968161582946777e-01
-1.670723478447672106e-02,-3.188067443346367935e-01,3.164097762572797290e-01,-1.024114384159657007e-03,-2.375297191716642300e-03,4.342931782618986614e-04,5.503509640693664551e-01
-2.039006414927205593e-02,-3.322169965851561879e-01,2.897845451107934345e-01,4.014017178709008461e-03,-1.294934997735698590e-02,1.025118039203892426e-02,5.394735932350158691e-01
-9.344425217749264753e-03,-2.973713558197149109e-01,2.767231848478202694e-01,1.070316029787667100e-02,-1.249859635007614283e-03,9.266552008859446979e-03,4.977904558181762695e-01
-1.196345980092987024e-02,-3.059556088469339019e-01,2.883042166521644356e-01,5.107957912627959958e-03,8.468370278927977958e-04,3.354015964488685653e-03,5.147646069526672363e-01
-1.608130254236165083e-02,-3.154827512652808030e-01,2.884709970921001121e-01,-7.874377154280427522e-04,-8.774311421140622942e-04,-5.585595122949520847e-03,5.231390595436096191e-01
3.528600553096075676e-03,-2.203097261804317641e-01,2.775159730455478146e-01,-3.917415115370394274e-03,5.126594187578575011e-03,3.141479396513230642e-03,4.320370852947235107e-01
1.978042511008500093e-02,-2.838018366589632469e-01,2.847496096564107182e-01,2.900209978142271553e-03,3.352775720815187165e-03,3.760362725918829337e-04,4.928186237812042236e-01
-2.447761263788010219e-02,-3.133820817773943501e-01,2.847763426769976958e-01,-3.721431841559993004e-03,-3.317574089711423837e-03,-4.270386470700096235e-03,5.182450413703918457e-01
-3.651122321320103559e-02,-3.200387563359091136e-01,2.679433638975113885e-01,-8.090959784950484818e-03,-2.644269307450200154e-02,-1.387721561350436714e-02,5.121264457702636719e-01
-2.107572882572031348e-02,-3.213404031155067120e-01,2.881167178206894830e-01,-6.241566563220404817e-03,-7.237555357085307837e-04,-4.684237635276537921e-03,5.279987454414367676e-01
-2.607132687257651682e-02,-3.092711128673297227e-01,2.832294673896209036e-01,-4.267523771346116816e-03,-8.729600499657753226e-03,-6.013772011843930912e-03,5.136679410934448242e-01
-2.988863200499235206e-02,-3.060526916288834887e-01,2.881197511982832582e-01,-7.102975667881998925e-03,-8.247046039349026705e-03,7.224357819544328929e-03,5.154904127120971680e-01
-1.137579468375203573e-02,-3.029532123674338329e-01,2.894920862069902401e-01,4.702268279473243925e-03,9.872232363094990588e-04,1.620045498203179094e-03,5.131688714027404785e-01
-6.060613264832906757e-04,-2.921306674165980444e-01,3.003157459948747054e-01,1.253062489325019839e-02,1.072620113937041396e-02,1.499074415846707656e-02,5.145454406738281250e-01
-4.054626668322982436e-03,-2.631176259636796022e-01,2.929309945879243204e-01,3.094735702505251734e-02,-1.137273293539133598e-03,8.932035351559067943e-03,4.851479530334472656e-01
-1.791687468336048902e-02,-3.059672122977985520e-01,2.866283632891570843e-01,-3.593499372053697528e-04,5.411477501049147092e-03,4.083533496360864171e-03,5.134037733078002930e-01
-2.413173986540779331e-02,-2.738612818477900723e-01,2.588867551381865972e-01,-7.347608219496792534e-03,6.746515503716829336e-03,-9.216223435312423861e-04,4.619994163513183594e-01
-2.446103057251231699e-02,-2.958550023430210896e-01,8.565889303079704531e-02,-2.913721450918747499e-02,2.951363358868299910e-02,9.506227844235126678e-02,3.846265375614166260e-01
-1.615311126394945382e-02,-3.082429968797089637e-01,2.440017698655754241e-01,1.388035040695994454e-03,-6.313096435756180951e-03,-3.810210264061953799e-03,4.787009060382843018e-01
-2.925631044564487582e-02,-2.701605712405135695e-01,2.267951624505433195e-01,-2.569585564358733629e-02,2.127434421381783555e-02,2.639238568342601454e-02,4.367028772830963135e-01
-8.652188828408687027e-03,-2.709768211380226277e-01,2.592544606674107022e-01,-4.727192746381812111e-03,1.229956150291452175e-03,4.641882703393302757e-03,4.593505263328552246e-01
-1.342169703795386901e-02,-3.111878162355923294e-01,2.907792246191413521e-01,9.254508418654591511e-04,-3.906947742585517407e-03,1.175037094524724289e-03,5.213790535926818848e-01
-1.541302977427559846e-02,-3.134124451553554902e-01,2.567095679778883532e-01,-1.489341000042146337e-03,2.446600867297444963e-03,1.360018754802604047e-03,4.939401745796203613e-01
-2.138248641573039024e-02,-2.808669929561144474e-01,2.474030968518767248e-01,-1.790810008496289407e-02,2.105781122986471673e-02,-6.064378901161139243e-03,4.601372778415679932e-01
-1.529448460087349908e-02,-2.867327423078882553e-01,2.876283626022372308e-01,-8.567451057170888049e-03,-9.767957173245364144e-05,3.362649070544343911e-03,4.979156255722045898e-01
-1.451069372555923234e-02,-2.874347690066570982e-01,3.052403368438504350e-01,-1.169790951652189062e-02,-1.438520371178063709e-02,1.125156474563069817e-02,5.151768326759338379e-01
-8.558012647110648310e-03,-3.151510007360744936e-01,2.954440218178603361e-01,-1.521313306348368553e-02,-5.535065636741891455e-03,-7.167252919737565446e-03,5.296807885169982910e-01
-3.835656679544104802e-03,-2.514837395503796147e-01,2.910678537322636261e-01,-2.743173851311084266e-02,6.734926488759884582e-03,6.100532882905533930e-03,4.731122255325317383e-01
-1.206553201242669543e-02,-2.917902842396969398e-01,2.399755786236716926e-01,-2.738815684197855402e-03,2.853618986275863103e-03,2.392723046435544024e-02,4.626416265964508057e-01
-2.689119170056008395e-02,-2.715731698345590917e-01,2.616470840575019774e-01,-8.147603738694633030e-03,3.250143596209841088e-03,1.923692786183481881e-03,4.625642299652099609e-01
-1.071879169821360681e-02,-2.349364704043236662e-01,1.797355802618408604e-01,-4.145684458541480655e-02,4.418779047130741433e-02,3.575404332241365751e-02,3.796029686927795410e-01
-3.671273743637038650e-02,-2.715736047936899711e-01,3.053623556821508100e-01,5.194556617040027927e-03,3.205882583670691816e-03,-6.171143067602326976e-03,5.027335882186889648e-01
-3.386588665449773855e-02,-3.142365456359830778e-01,2.652140659163392811e-01,-1.617733127979372951e-02,3.242016870348329773e-03,-4.385862758965837147e-03,5.027764439582824707e-01
-1.991055670504901856e-02,-2.455383955317326505e-01,2.569896385241888792e-01,-3.470142828876293835e-03,5.923168922260138407e-03,-2.504940621024576587e-03,4.361401498317718506e-01
-1.954226660818061262e-02,-3.119358446312844868e-01,2.763598128161592338e-01,-2.483637327120062285e-03,7.742398294992439492e-04,-2.029689266094536915e-03,5.095140337944030762e-01
-1.707680247120520883e-02,-3.022053531563380635e-01,3.054815959906626022e-01,2.316221104516243568e-03,3.186123566690814840e-03,-4.411007863067680033e-04,5.266497135162353516e-01
-2.055418904455368068e-02,-3.116091621792517197e-01,2.761974941457397414e-01,-3.171883759314625406e-03,9.475018077340753575e-03,1.371378844102970861e-02,5.099111199378967285e-01
-1.790122540242783389e-02,-3.163931347311906284e-01,2.995155124545932912e-01,-4.393409023792713489e-03,6.709618789789148670e-03,-1.851971367653257447e-03,5.336669087409973145e-01
-1.551593685005893744e-02,-3.056281293422064005e-01,2.994936045784906686e-01,-1.355234543862820096e-03,6.737733718644983889e-03,1.617412055210586249e-03,5.243412852287292480e-01
-1.574848197472386579e-02,-2.870620082050647226e-01,2.934564650418998721e-01,3.590713543343502286e-03,6.227222195107486730e-03,1.327775222646476565e-03,5.032598972320556641e-01
-3.566744862162522095e-02,-3.110885226138793702e-01,2.808225667883740839e-01,-4.026383620588831758e-03,-3.774275236669618911e-03,-2.876383213623142764e-03,5.131344199180603027e-01
-2.398096559109066245e-02,-3.121396983718924267e-01,2.839505738956278891e-01,-3.264756116338392647e-03,-5.177010181578512761e-03,-9.327971823313704544e-03,5.166854858398437500e-01
-2.798426769374614057e-03,-3.551520318968908185e-01,3.730798619514442138e-01,-1.433356879344242600e-02,-2.789839008177896068e-02,-1.280837364094098568e-03,6.331160068511962891e-01
-1.221152015206053952e-02,-2.910062851175501675e-01,2.931082269863808376e-01,7.598670034384586401e-03,-4.238270469052647670e-04,-1.227207440999067249e-03,5.062079429626464844e-01
-1.896888738603882962e-02,-3.101268526816237658e-01,2.412750206813183418e-01,1.593317984134519708e-02,-1.316538433391215186e-02,-1.122396160046035436e-02,4.795116782188415527e-01
-1.574946535209105838e-02,-2.983437782326698873e-01,2.906418699661910132e-01,1.758036025214332679e-02,-1.018098901206372121e-02,1.889700578622972166e-02,5.124735236167907715e-01
-1.637012405044568908e-02,-3.073442245630112479e-01,2.988069899688260422e-01,-2.812520328811620503e-03,8.630165506562629055e-03,-2.708638250596710675e-03,5.253380537033081055e-01
-1.401923983369110158e-02,-2.725695562878308054e-01,2.965438312926203523e-01,1.193350556355044639e-02,1.282326955865649779e-02,2.866933183852100539e-02,4.969710111618041992e-01
-2.269450871575038470e-02,-2.852374514037575581e-01,2.865864089049957597e-01,4.856926003034592668e-03,9.919208590595083794e-03,1.968173790838415510e-07,4.961340129375457764e-01
-2.123700725315326096e-03,-3.567561592501226619e-01,3.404525192501540176e-01,-4.643217564792314483e-02,8.241763795864952280e-02,-4.018237358996430697e-03,6.257040500640869141e-01
-1.904056132097802292e-02,-2.845991175001060247e-01,2.946090208863110793e-01,5.940171035383959817e-03,1.634968546809156429e-03,2.071367862251884216e-03,5.023111701011657715e-01
-8.539995819315514616e-03,-2.701752532461492717e-01,2.804490113021664843e-01,1.422035896504096446e-02,8.071483117620346578e-03,2.187127157257473531e-02,4.793897569179534912e-01
-1.582613277656313641e-02,-3.018145721019735994e-01,2.691713252002058687e-01,-4.041753677085687356e-03,-1.963224055858929420e-03,-1.846345018230739505e-03,4.945601224899291992e-01
-4.386684347117784932e-02,-3.146887923625497629e-01,2.842822561506652690e-01,-3.556733419867554209e-03,2.920888198957778681e-02,7.349609624408896986e-03,5.221645236015319824e-01
-3.085333396403735010e-02,-3.231000917854680021e-01,2.482342942907477812e-01,-5.809752045014004301e-03,2.731766833089056823e-02,-7.593784848776727412e-04,4.971944093704223633e-01
-4.553046022042332719e-02,-3.174194886254603776e-01,2.694705878924178455e-01,-3.178017858786837211e-03,2.306604072693846721e-02,7.175671959832962028e-03,5.104659795761108398e-01
-3.554127680222552571e-02,-3.223626058910387115e-01,2.817935346431191812e-01,9.796505380476296793e-03,-1.483364867379681831e-02,1.328007429550592464e-02,5.248460173606872559e-01
-3.210151550297763584e-02,-3.196262827668359674e-01,1.983826819587825585e-01,1.176552646822440901e-02,-3.164500644879964658e-02,1.781961890946468646e-02,4.543517231941223145e-01
-2.363044307049015982e-02,-3.353162821319331521e-01,2.891197694572569810e-01,8.566073500412246799e-03,-4.269959648563938052e-03,1.249119987541312017e-02,5.414642095565795898e-01
-2.771214344975048149e-02,-3.288079101868828791e-01,2.693691107285399178e-01,5.614245114425321995e-03,-1.714777878535370115e-02,1.837734432498111872e-02,5.199574232101440430e-01
-2.864177326007486327e-02,-3.270565222557518248e-01,2.307268603913878446e-01,1.697990819548840166e-03,-2.233516596061087961e-02,1.319191610816202072e-02,4.855411350727081299e-01
-3.200113365412277783e-02,-3.168255860304390326e-01,2.742820177941483473e-01,1.343517870574018405e-02,-1.141077849020415320e-02,1.882241075856860499e-02,5.139710307121276855e-01
-2.443687567227811885e-02,-3.210740353084379217e-01,2.923189174934052170e-01,7.383886952513110148e-03,3.734608528633710637e-04,4.090978747606530824e-03,5.315106511116027832e-01
-2.199231287468180612e-02,-3.303636499071485599e-01,2.715920999590212270e-01,1.073978232709163483e-02,-2.018290228030675260e-02,1.732564180321692626e-02,5.237234830856323242e-01
-3.058453962846567967e-02,-3.281305116967094260e-01,2.722796823719622061e-01,9.819190662531087493e-03,-1.051388082214920264e-02,1.305483324890838355e-02,5.210648179054260254e-01
-2.908636316668446534e-02,-3.196030900128076224e-01,2.248277728466784309e-01,-6.561027521635114969e-03,-2.181161612965914348e-02,-1.464725651494223208e-02,4.741715490818023682e-01
-3.036589285564180937e-02,-3.204247639320617069e-01,2.501946163404760726e-01,-5.761471521181408574e-03,-2.174778222252497090e-02,-1.226847370958178939e-02,4.961828589439392090e-01
-2.566190075665980563e-02,-3.048965494760785266e-01,2.220102250346256412e-01,-4.719031874438706607e-03,-2.128382076894661662e-02,1.016337557604654260e-03,4.581495523452758789e-01
-3.381857608247149094e-02,-3.229281359381993566e-01,2.652801081870737043e-01,-1.442633767519329972e-02,-1.808134252365556360e-02,2.531980677223413280e-03,5.110195875167846680e-01
-2.635697057802179055e-02,-3.189009912661455171e-01,2.693759449177433041e-01,-5.199065884394914183e-03,-1.878770329046439277e-03,1.720339859624516734e-03,5.095639228820800781e-01
-3.113005817589339225e-02,-1.806430755637231933e-01,2.956641848061726252e-01,-1.369710511448599729e-03,-8.004646871792728963e-03,4.139930828771876126e-02,4.281917512416839600e-01
-2.987318899088751978e-02,-1.398043221318959195e-01,2.953703143926728059e-01,2.117454393462536591e-04,-6.124361558256534790e-03,3.289128160741353057e-02,3.962079584598541260e-01
-2.012066581865582654e-02,-2.118088067121700335e-01,2.958181970931554883e-01,6.789523110795378513e-03,2.946799975026068077e-03,1.943967980161609432e-02,4.454452693462371826e-01
-3.722413769979801557e-02,-2.686524640730919566e-01,2.952783489968990871e-01,1.687388229862278946e-02,1.640510374018662107e-02,2.427946971220366716e-04,4.926755726337432861e-01
-2.652050122780585245e-02,-2.561539570425449552e-01,3.107938642437415022e-01,7.114372366062202135e-03,6.037079102979254347e-03,1.959527042010696454e-02,4.953627586364746094e-01
-1.605887695571102045e-02,-3.008703362813813786e-01,2.644479773691228441e-01,9.074095257759078742e-03,-9.249822755014770748e-03,7.089747229444653791e-03,4.902527034282684326e-01
1.899365629904523805e-03,-2.913450049626864491e-01,2.923664474937054392e-01,4.846245337982391099e-03,7.851912160919452197e-03,2.899828460419777085e-03,5.057883858680725098e-01
1.342217535411211089e-02,-2.772892210045940775e-01,2.947826791998534035e-01,1.594730305751595675e-02,1.167777607129694009e-03,3.829444189333723386e-04,4.962247908115386963e-01
3.363365787551455145e-03,-2.960161309983883604e-01,2.945678994671888096e-01,1.804543838677622261e-02,8.453689393133038618e-03,4.126677226488735355e-03,5.126901865005493164e-01
-1.645384490198102678e-02,-3.089883876998701373e-01,2.916321192829874343e-01,2.305093865103944022e-03,3.268870568879742467e-03,3.503111876400940693e-03,5.202922224998474121e-01
-2.171911024494290257e-02,-3.121900638968032049e-01,2.933129429341088112e-01,-1.832702920996933087e-03,-7.387224428225818915e-03,-7.419465797184114815e-03,5.248477458953857422e-01
-1.078805990310325626e-02,-3.051482718685317730e-01,2.919462399353778270e-01,6.476119627227423445e-03,2.074911126813203197e-03,8.671296740122513835e-03,5.174680948257446289e-01
-2.186936290916188450e-02,-3.011617437708219991e-01,3.036950311439883810e-01,1.771866225310916865e-02,6.956573688735008879e-03,-8.240890012183069505e-03,5.255614519119262695e-01
-1.603913193331005238e-02,-3.086270584773372350e-01,3.275962523636812285e-01,6.929391873751389840e-03,-8.560079759310496375e-03,-1.426869179952757263e-02,5.524592399597167969e-01
-1.323070190137315590e-02,-3.045667074390064344e-01,3.091803566987861851e-01,2.260594587699670498e-03,-1.800924838110567680e-02,-1.010787204901267625e-02,5.329637527465820312e-01
-1.161289070220795569e-02,-2.614893155439943495e-01,2.965494783782602894e-01,1.310481018416151215e-02,-2.071006836981759136e-02,-2.502086734617892452e-02,4.879393875598907471e-01
-1.976221409977929611e-02,-2.612976318296438283e-01,3.218771978134113976e-01,1.481750137205216540e-02,4.260756479480455432e-03,-3.152673692039120734e-02,5.111455917358398438e-01
-2.348929129949488964e-02,-2.527702183792563395e-01,2.998939228381978239e-01,5.113419145860587621e-03,-1.792344746506691761e-02,-7.702406961245155705e-03,4.821951985359191895e-01
-2.868735940622856376e-02,-3.254820147461262025e-01,2.929580747956385678e-01,9.191234812749892943e-03,-4.255041304956293929e-03,1.027157791524921718e-02,5.363112688064575195e-01
-1.968988074037535119e-02,-3.220069277100312544e-01,2.976301261106332752e-01,7.409516231616548529e-03,3.308456364840133782e-03,8.987072049436011303e-03,5.370835065841674805e-01
-2.541514767515255444e-02,-3.230843255198140307e-01,2.850875426385026112e-01,5.412267353133395041e-03,-4.604929921334969048e-03,6.122623513130548249e-03,5.269818902015686035e-01
-9.654456251779457154e-03,-3.221541205281837073e-01,2.846296815218391507e-01,-8.246607936421388330e-04,1.179691833367637992e-03,7.385847277404060732e-03,5.257306694984436035e-01
-1.304663886333676942e-02,-3.020302058645809029e-01,2.892209507788113809e-01,2.112453673432299756e-03,6.643214926863032221e-03,2.147758524148734010e-03,5.122374296188354492e-01
-9.615610876224738729e-03,-3.083806965190728500e-01,2.967077347962903122e-01,7.064233456094952011e-04,6.748270663795433340e-03,-1.804829029074187050e-03,5.241766571998596191e-01
-2.407398903638462845e-02,-3.047008645640373881e-01,2.994872176736391722e-01,-3.999489309799054634e-03,-5.564359343193124585e-03,-2.197140675701478047e-03,5.238307118415832520e-01
-2.250659704259283869e-02,-3.075065269580501415e-01,2.567002553642672158e-01,-1.536430507294827977e-03,7.010399845886513236e-03,-8.059937414148740133e-04,4.887860715389251709e-01
-2.141223467801862262e-02,-3.132583607303182638e-01,2.945162700622809826e-01,5.297152629881083340e-03,-3.712492148049403862e-03,-5.121830292642132708e-03,5.266798734664916992e-01
-1.726482439455119533e-02,-3.000270521612916075e-01,2.931491515549824456e-01,3.441182786048318110e-03,-4.232637203767381472e-03,-5.726611896443205632e-03,5.140742063522338867e-01
-2.342967646604009538e-02,-3.035826042098916933e-01,2.972375125791596462e-01,2.675420094678895334e-03,-8.216793544255739448e-03,4.737261302011790999e-04,5.209353566169738770e-01
-1.862687167900558757e-02,-3.018988650960489628e-01,2.933486479302971905e-01,-1.791099300932556425e-03,3.452144826080960020e-04,9.652931215826028935e-03,5.159798264503479004e-01
-1.732010995659391886e-02,-3.003707141600012731e-01,2.991786078119194059e-01,-3.299131574021359377e-03,3.121839998185722831e-03,-7.946183436154363386e-03,5.197360515594482422e-01
1.733032989783982181e-02,-2.645674330283238618e-01,3.337990561176895077e-01,4.468604104684954781e-02,3.960737705508471720e-03,-3.371010802147627206e-03,5.243112444877624512e-01
-1.468083885798859151e-02,-3.098545314150902841e-01,1.685842106342207714e-01,1.200239843158913515e-02,-3.104057971737298610e-03,1.844980619873352184e-02,4.198700785636901855e-01
8.235769043307127404e-03,-3.038709983496344913e-01,2.940211319090735298e-01,1.010492914038540330e-02,1.116544034299459236e-03,-8.838069712442195996e-03,5.184822678565979004e-01
1.073675434321755273e-02,-2.310530741857624304e-01,2.948299875553614946e-01,4.619605971695034397e-02,-4.275959180182629417e-03,1.265994736415094806e-03,4.629514217376708984e-01
8.948711365620783467e-03,-2.618965533578586080e-01,2.837714110100481024e-01,3.883824407510018395e-02,-9.913572858074110733e-03,-4.169796625031468450e-04,4.776397049427032471e-01
5.536957651731996399e-04,-2.904065350686373392e-01,2.953612424761252742e-01,1.751786581331903764e-02,4.002390637059101419e-03,-1.916441811170228708e-03,5.082581043243408203e-01
1.274856465636987728e-02,-2.936016147582526381e-01,3.085730148088580149e-01,1.427345043544680191e-02,7.975484841691726431e-03,-4.848755874317977124e-04,5.222941040992736816e-01
9.008571821073339467e-03,-2.909116919055209083e-01,2.938700975412847360e-01,2.948026459768120569e-02,1.027438669076081654e-02,1.346708460083292751e-02,5.099039673805236816e-01
-4.128518598643961257e-02,-3.103931093957360554e-01,2.321056952421715613e-01,4.471399847646692453e-03,-2.632284597633477788e-02,2.364087132762560019e-03,4.721109271049499512e-01
-4.413863523793711691e-02,-3.045516146458640550e-01,2.455672233822357442e-01,1.655779277428568418e-03,-8.174825633914464471e-03,3.265675161282796473e-04,4.768612086772918701e-01
-4.176939139279822050e-02,-3.129810230230333223e-01,2.373741455811331225e-01,-5.914506985637637410e-03,-4.430169522389494630e-02,-1.766424550494266610e-02,4.838520288467407227e-01
-3.645063611964036859e-02,-3.102983018175649588e-01,2.327701289554121034e-01,-2.432240688788454234e-03,-2.466778449184929903e-02,-2.556108466574487023e-03,4.722930192947387695e-01
-4.680822922413906129e-02,-3.051340844410368458e-01,2.733394501308091806e-01,1.668939175845634637e-03,-1.606768113518867655e-02,4.970612642394896946e-03,5.027784705162048340e-01
-4.154290791998127563e-02,-3.038272413615121792e-01,2.790333278179043530e-01,-4.608844119789725843e-03,-1.209581322060429391e-02,-3.574170700636805295e-03,5.061475038528442383e-01
-4.321132649101007417e-02,-3.070878067504911324e-01,2.583299194855454561e-01,-4.222072614579928072e-03,-1.130256674214429394e-02,-4.995372667644467149e-03,4.905498325824737549e-01
-9.828426947608815550e-03,-3.123431728528253681e-01,3.043851013528013905e-01,-1.808862528908233890e-03,6.967078982760667796e-03,-1.165502417294594396e-03,5.342836976051330566e-01
-4.772553216490562494e-02,-3.100028814962619284e-01,2.541474380946703859e-01,-1.347159161740818989e-03,-3.322978481859772959e-02,-1.363515187502195884e-03,4.923563897609710693e-01
-4.601871833568035863e-02,-3.037317476290144480e-01,2.829041941459258247e-01,1.082292711604452336e-03,-1.490488691856989116e-02,3.094244903313348935e-03,5.099732279777526855e-01
-4.411737651341755828e-02,-3.098153937676589309e-01,2.529707759948857104e-01,-1.695757022274045015e-03,-2.380050059346215316e-02,1.155964072151638390e-03,4.893920421600341797e-01
-2.654735168364624059e-02,-2.010126281089880396e-01,3.027625111061758578e-01,-5.258178425585435453e-03,-2.035020070386554455e-03,9.638864874096975816e-03,4.435203969478607178e-01
-1.230132087412696626e-02,-3.446804486692476854e-01,2.352406403831431847e-01,-9.877853948654490707e-03,-1.216812849841473684e-02,4.484345585029596987e-02,5.106862187385559082e-01
-2.026494881280704874e-02,-3.313547755493530533e-01,2.992950472220618496e-01,5.210871549347083180e-03,-2.536753564059746491e-03,1.944524419081409064e-02,5.473046898841857910e-01
-3.484514687552082296e-03,-2.513857147865320996e-01,3.021858385927410073e-01,-2.483425930145259641e-02,6.066347544501371654e-03,-2.267375360776006585e-02,4.839094281196594238e-01
-3.226376603235891344e-02,-3.586297870191637038e-01,3.076287876598698956e-01,1.159412277784866059e-02,-1.153758206015929877e-02,-9.907955996379202643e-03,5.779863595962524414e-01
-1.861994933618996151e-02,-3.297165663096962573e-01,2.816161060419670736e-01,7.908626017683816414e-03,9.457277219070660962e-03,-5.096162974300516568e-03,5.299614071846008301e-01
-1.755568072130017296e-02,-3.340766588250080882e-01,2.939069009374107866e-01,-6.456382355378161887e-03,3.848044328298186496e-03,1.316204602942992394e-02,5.444888472557067871e-01
-1.049686010341446471e-02,-3.169689674441327765e-01,3.193387526929857834e-01,-1.061067310966854089e-02,1.588282332637395988e-02,-8.282813931269152052e-03,5.523608326911926270e-01
-2.063551006572791890e-02,-3.176458481669741096e-01,2.997587787737783782e-01,2.411934153820800408e-03,-1.229492466980992718e-03,3.545638655426952015e-04,5.348368287086486816e-01
-2.398280284530286688e-02,-3.089659604641291080e-01,2.692304595592983074e-01,4.938341671505351929e-03,-1.623202717535319334e-02,2.858671540610476999e-02,5.040490627288818359e-01
-1.610376689503517644e-02,-3.105055023784201729e-01,3.212686567770758339e-01,2.181321922656060883e-03,9.993908219310641827e-03,-1.128783304720180902e-02,5.481894612312316895e-01
-2.623366366852875747e-02,-3.218206464532063493e-01,2.989226899032915719e-01,8.780165604078718836e-03,-9.275762766462761211e-03,6.221804633202247629e-03,5.383454561233520508e-01
-1.695284790055386070e-02,-3.172167229565396318e-01,2.998669944712486490e-01,1.841395480469600532e-03,-2.680824777047907410e-03,1.156388280754610479e-03,5.345077514648437500e-01
-1.329940451007293432e-02,-2.987976301529766676e-01,2.982471494706999682e-01,-1.144798064386456709e-03,-5.565861582875700035e-03,3.110396164979413892e-03,5.173416137695312500e-01
-1.805476856271819378e-02,-3.144338884482182905e-01,2.998119691988808122e-01,3.170186493565924969e-04,6.167965856623175468e-04,-1.527891346958163993e-03,5.320689678192138672e-01
2.041450121497988095e-03,-3.096339578567888773e-01,2.914204601802871109e-01,-4.370151923079174799e-03,3.192753782777889814e-03,-1.156483580777787224e-03,5.207359790802001953e-01
-3.647982505553898358e-02,-3.172205839157248852e-01,2.728575668378061536e-01,1.507517502785635753e-02,-1.630154881424101740e-02,2.526237269837170590e-02,5.145310163497924805e-01
-4.018259717324756258e-02,-2.398038327726511043e-01,3.088720114374498560e-01,-6.024665401449056518e-03,-5.006703941276744417e-03,8.044170344459970756e-03,4.813986718654632568e-01
-6.970187214024134437e-03,-1.753341284970810487e-01,3.153965901874827837e-01,7.990153269519326140e-02,-6.533334262442316853e-02,-1.802672520878697768e-02,4.684812426567077637e-01
-2.491759366629772710e-02,-3.106461283466788181e-01,2.840887920844661352e-01,3.355788460977957369e-03,-6.212771028048867661e-03,4.130882071803720738e-03,5.153818726539611816e-01
-4.032728408378307566e-02,-3.126859612540651701e-01,2.869970998357962433e-01,2.264053876298945112e-03,-2.899408524371353650e-03,5.484982694167363573e-03,5.201932191848754883e-01
-3.699517952789067865e-02,-3.170718206476472179e-01,2.927722893934163184e-01,4.379738885324528305e-03,-6.466198315720937066e-04,7.106462422517664107e-03,5.289233922958374023e-01
-4.404055670595176386e-02,-3.118853822135780329e-01,2.443654971946230825e-01,1.632115142571507940e-03,2.386289040516835491e-02,-5.498451181237692074e-03,4.837085604667663574e-01
-1.829776010586567359e-02,-4.078493874867468172e-01,2.192938303930004329e-01,-1.242534701003209820e-02,7.562560365666504136e-02,3.633743666623280577e-02,5.677468776702880859e-01
-4.672120434594594085e-02,-6.254348918838577298e-02,2.894884818394368731e-01,1.729642382174234085e-03,9.467377499576445227e-03,-1.927826366156577473e-02,3.464097678661346436e-01
-3.901009353770083787e-02,-3.124872135951993202e-01,2.343453254353036197e-01,1.761551807231909444e-03,2.007188994454007711e-02,-4.852402992035501940e-03,4.749294221401214600e-01
-5.715786964507127421e-03,-4.221885371589849667e-01,2.342831234598770074e-01,3.621706403643181610e-02,1.027898161674453831e-01,5.027567612685200638e-02,6.117329597473144531e-01
-3.579602586351579574e-03,-3.744178640097654553e-01,1.592647735891814798e-01,-2.660563984418562629e-03,8.882529124668576970e-02,4.261985373772445018e-02,5.035559535026550293e-01
-2.840775145003889696e-02,-3.117408187351060622e-01,2.295954952892229617e-01,-4.968459220352623891e-03,4.359785983638838486e-02,-2.672635157972963731e-03,4.751231074333190918e-01
1.232188152759114939e-02,-2.890657782040297330e-01,3.065520237178678276e-01,6.393704009103270969e-02,-5.337716408473891158e-03,-2.053290767132975175e-02,5.288642048835754395e-01
-3.705393025417199476e-02,-3.200670133647087745e-01,2.488492867433645950e-01,-7.214787799825746716e-03,4.247214491259139468e-02,2.781893558693200250e-02,5.006405115127563477e-01
-2.323506756069489837e-02,-3.075428144710066203e-01,3.052942110264553199e-01,1.007586207743276343e-03,6.649771648141903496e-03,1.153818567979184332e-03,5.313242673873901367e-01
2.696310793446815568e-03,-3.227826777554205773e-01,2.387984998117679836e-01,3.336105029977478632e-03,-1.091606502334269320e-02,-4.403929087164618408e-03,4.888519048690795898e-01
-1.746857888530189279e-02,-3.197226119993208382e-01,2.733065760882997242e-01,2.702139785323191129e-03,5.118514700470849083e-03,-3.242212689953329237e-03,5.137389302253723145e-01
-1.473211121954650163e-02,-3.250285365720494424e-01,2.488938659655832164e-01,2.248311477133217284e-03,7.790061976400232402e-03,7.200412006923500620e-03,4.979332089424133301e-01
-1.249193299838414692e-02,-3.241821395015611618e-01,2.398663599095403609e-01,2.024599397997458965e-03,-5.775699557566642403e-04,3.637672173731391467e-03,4.894344806671142578e-01
-1.833397442451777104e-02,-3.131517358130901374e-01,2.050397103233215224e-01,-2.608055047543919071e-03,6.680688159243327456e-03,-3.084842954324467854e-02,4.535162746906280518e-01
-3.057747219706689196e-02,-2.612358513144938943e-01,3.061843443963159772e-01,-7.819739894391552169e-04,-5.901706951025403880e-03,-7.017555321382686062e-03,4.945127069950103760e-01
-5.646867578794751569e-03,-3.186051171096043189e-01,2.211662982241171527e-01,2.322439275496097636e-05,8.627977207025997256e-03,-2.446006709988277419e-02,4.715806841850280762e-01
-1.442939160635275248e-02,-3.391676632745692088e-01,2.132413736235905244e-01,-2.388640181316193864e-03,3.475071952019688493e-03,-1.810056999156448021e-02,4.819321334362030029e-01
-5.214397369061089804e-03,-3.343280170938497387e-01,2.173500026700642684e-01,1.166887261848806876e-03,-1.902904631270134874e-03,-2.046772136631455977e-02,4.820491671562194824e-01
2.019096503985363597e-02,-2.639679784516477667e-01,2.808247672268774364e-01,1.367008465584327237e-03,3.517609522236792106e-03,2.173473216630563733e-03,4.720112383365631104e-01
2.125265760652933489e-02,-2.695126184786408863e-01,2.803942977566394879e-01,6.108304170576456769e-03,3.630426304457869905e-03,2.157287492476036867e-03,4.766693413257598877e-01
-2.193697357899637712e-02,-3.225346930006606772e-01,3.021545410636906071e-01,-1.294618207082408063e-03,2.094481908075083044e-03,2.663918469718774221e-03,5.411607623100280762e-01
2.940490964851096012e-02,-2.220483393135689321e-01,2.858585991593954323e-01,3.411835007546139276e-02,-1.599912197996357366e-03,-7.078399261417386845e-03,4.439972043037414551e-01
2.342688382433504371e-02,-2.394384630805738157e-01,2.803853924422570754e-01,1.471252599144463880e-02,1.157150097836004291e-03,9.104294275556720425e-03,4.511910974979400635e-01
-6.400985812682591022e-03,-2.794127644573066727e-01,2.947699509859886269e-01,8.534217015204650231e-03,5.676233238395529158e-03,5.068373073608211689e-03,4.978501796722412109e-01
1.958799424494272329e-02,-2.840449184302135111e-01,2.784702562472514131e-01,8.417171524752666001e-03,3.821503192608747927e-03,-8.934013181120331821e-04,4.879312515258789062e-01
7.068790504788142852e-03,-2.781649400577713704e-01,2.931515960446130498e-01,9.630288628966247877e-03,1.255416399090326061e-02,8.524090415231036846e-03,4.957531094551086426e-01
2.602085276756532090e-02,-2.606302708926134248e-01,2.902535590611824423e-01,2.264370062053878974e-02,4.388158131484173885e-03,5.793944078435337743e-03,4.789854586124420166e-01
-1.316920187685073976e-02,-3.109878047517540822e-01,3.040554921897796192e-01,-1.190752211065539655e-02,-1.057409456720622906e-02,9.914610938643753785e-03,5.337213873863220215e-01
-4.644484233425684103e-03,-3.021666773556079821e-01,3.309871527264351965e-01,-1.937328843103590381e-02,9.566752511227562001e-04,-5.869493953042308199e-03,5.497799515724182129e-01
-1.279660110151777802e-02,-3.063139340725657411e-01,3.296939192294467968e-01,-1.061418762276849365e-02,-1.294082004382772662e-02,3.103085011139269586e-02,5.547145009040832520e-01
-5.537400524379785735e-03,-2.823646855060436556e-01,3.087498071746833661e-01,6.760617706243515074e-03,-9.770117250897823388e-03,-1.476688200086925112e-02,5.133134722709655762e-01
7.338636672685625029e-03,-2.643743705395747989e-01,3.028699140189092809e-01,2.678245132624897454e-02,-4.073607803465797289e-04,-7.296228337515412408e-03,4.937392771244049072e-01
-6.248473141083243226e-03,-3.404636017508334001e-01,2.969938500876765919e-01,2.329395067067864880e-02,-4.623427224314566428e-04,-1.701488231100315926e-02,5.545275807380676270e-01
-1.116751987844634419e-02,-3.321687046102085872e-01,2.231081310458232769e-01,2.852920418851477916e-03,-1.738362982351529138e-03,-2.875623976175911700e-03,4.828953146934509277e-01
1.874283879160447419e-02,-2.825760298664701242e-01,2.883930510862861563e-01,3.627411389156785099e-02,-8.926236067240061328e-03,-2.573098079508765249e-03,4.989602565765380859e-01
1.646807346687935089e-02,-2.344796614529976453e-01,3.426270263075056333e-01,4.017979076503198910e-02,-1.073069417367755393e-02,-4.015846059307849603e-02,5.111067295074462891e-01
2.161518477244273734e-02,-2.486684718346181544e-01,3.098365312068028787e-01,4.268323386047560147e-02,-1.463750363937972067e-02,-1.423787380711127176e-02,4.906554818153381348e-01
2.025117134781566006e-02,-3.116094587379203973e-01,3.059639841763487356e-01,2.614769314449306645e-02,-9.348456179926332293e-03,-1.080312831290684665e-02,5.378136634826660156e-01
-2.389252049227310812e-02,-3.014556162317927335e-01,2.871915863058207563e-01,-8.447545685048040744e-04,-1.366875424368254547e-03,-7.043452212396499219e-03,5.102123618125915527e-01
-2.575955358913224053e-02,-2.320496076420199005e-01,2.995165779171000686e-01,-1.651678762016283147e-03,-5.684943712787558605e-03,5.388979254713378332e-03,4.643852412700653076e-01
-2.000839033562499744e-02,-2.561521041760892459e-01,2.971475105028898445e-01,4.054674716877434450e-03,-2.417305818999862087e-03,1.426384230449325406e-02,4.815841615200042725e-01
-1.410193412204572942e-02,-3.053797467466135562e-01,2.458371700397212201e-01,6.284493594792484516e-05,3.752327764196875231e-03,3.227075236717009098e-03,4.777018725872039795e-01
-3.061461464521391534e-02,-2.964095869097236324e-01,2.705074495938510348e-01,1.199714071157512510e-02,-1.160973292229130691e-02,1.749307410361863185e-02,4.930642545223236084e-01
-2.361191979838343433e-02,-3.344650251144086206e-01,2.910555622792496688e-01,-4.207952574437885326e-03,3.787749819141015845e-03,4.422628446112302110e-03,5.418629646301269531e-01
-1.601971843977922569e-02,-3.119350496882755119e-01,2.960613326701370673e-01,-9.657841074326098136e-04,-2.939161948486694164e-03,1.699672087946959773e-03,5.266378521919250488e-01
-2.458870256797917458e-02,-3.077203544760679921e-01,3.045649605871034171e-01,-2.034984260977028281e-03,4.041175091489801127e-03,6.724489069255762744e-03,5.309393405914306641e-01
-2.076033909770789998e-02,-2.869337348997463844e-01,2.894667656415432777e-01,7.616464023707002814e-04,7.819348187098451586e-03,6.763646654296321878e-03,4.999857544898986816e-01
-9.128445060902908373e-03,-2.977963165990657468e-01,2.935369733425352567e-01,-5.073968016473041562e-03,7.623446518374198469e-03,-1.114165302064037445e-02,5.127663016319274902e-01
-8.043838506483345918e-03,-3.314539007112188296e-01,2.356785501835646501e-01,-1.122758947908278305e-03,3.387910533308888207e-04,9.001731724785848321e-03,4.930153787136077881e-01
-1.096362267371776833e-02,-3.016038438526439380e-01,1.968095144971816479e-01,5.224823615408703131e-03,1.453872081750436779e-02,-1.130545468584795432e-02,4.348886013031005859e-01
-1.912993228796219802e-02,-3.143858786451008136e-01,1.996411259256939408e-01,-2.350503611906728293e-03,1.043621579683536894e-02,-1.692501295505965606e-02,4.481439292430877686e-01
1.169662571081406255e-03,-3.285308846918086889e-01,1.217238718844212975e-01,-7.039987695301988882e-03,6.467415572705594549e-03,2.463703955616899574e-02,4.062975347042083740e-01
-8.462709194371857702e-03,-3.230367636058961711e-01,1.234482970594175388e-01,-4.508861911934036390e-03,8.475599703825619641e-03,2.072128689392597339e-02,3.992715179920196533e-01
-1.121035697980729377e-02,-2.878025393475510119e-01,2.369257405576671305e-01,-2.386025940026212031e-02,3.435443937117325236e-02,-7.278820213194781355e-03,4.605592489242553711e-01
-3.352238995612592809e-02,-3.134121064809728407e-01,2.954243717532538116e-01,-1.964248037383878581e-04,3.197234614648348898e-03,-2.532449789263558466e-04,5.278674364089965820e-01
-2.940174869248824915e-02,-3.263514604493232829e-01,3.091257607351324821e-01,-1.726616818122955928e-03,-1.608151681463355518e-03,2.140540508101031105e-03,5.507595539093017578e-01
-3.205498828721608379e-02,-3.369527602065126026e-01,3.125052044921841632e-01,-3.056355219760536991e-04,2.528954158300089974e-02,-3.927143180847617390e-03,5.645398497581481934e-01
-5.195441782793036589e-02,-3.588897567913060249e-01,2.749336402052138251e-01,-1.905429942627142811e-02,3.654787037150507983e-02,9.490740054213879159e-03,5.538639426231384277e-01
-4.319433750069907874e-02,-3.165258197178387745e-01,2.991908848990337266e-01,-3.306563195634476277e-03,1.668148082301330534e-02,3.499508620688556674e-03,5.351884961128234863e-01
-1.402309341190447964e-02,-3.141374806492703842e-01,2.571933367863284414e-01,5.592905239747698702e-03,3.544375392039152768e-04,-1.365642404021418475e-02,4.956578016281127930e-01
-1.080500506761569723e-02,-1.853864687322848703e-01,3.007447999043432740e-01,3.261053032093785831e-02,5.090439527763879896e-03,2.525521315801659145e-02,4.325671494007110596e-01
-6.792500040075401257e-03,-1.530558474926399792e-01,3.079278782956026417e-01,4.855219343121235098e-02,-1.265064168759326597e-02,1.035025769492870645e-02,4.175492525100708008e-01
-1.332597206973400866e-02,-1.555938941957611676e-01,2.994611234453985471e-01,2.787397352281965543e-02,1.123605810999025664e-02,2.202415027161388691e-02,4.083384871482849121e-01
-2.312132881675535434e-02,-1.107520371501562462e-01,3.292887636688117681e-01,6.122381150810598388e-02,4.172588613998450685e-03,3.281333107261074494e-02,4.210479855537414551e-01
-1.565202564407412733e-02,-3.445237011747079303e-01,2.604331918551940350e-01,-4.109714719970062463e-02,1.435344150500194801e-02,2.565900597792862559e-02,5.318236351013183594e-01
-1.418531482867839422e-02,-2.293845762645506658e-01,2.899879741501553698e-01,-2.646186308040693672e-02,9.224097104281238704e-03,-1.719124810066875730e-02,4.555574059486389160e-01
-1.654271921343441337e-03,-2.177844604846788379e-01,3.006992565617461199e-01,-3.127822733528230759e-02,1.684158929163265695e-03,-2.402339472304070717e-02,4.562373161315917969e-01
-2.074815213913484835e-02,-2.850840597006317201e-01,2.833586236133030511e-01,-3.607818286658993900e-03,1.122108284321900531e-02,-2.262295161577031373e-03,4.931256175041198730e-01
-3.128727171316150746e-02,-3.228159251569445720e-01,1.913878424817739565e-01,1.294837379017062945e-02,-2.652631938994378519e-02,1.369983985765080119e-02,4.501847624778747559e-01
-2.895779668052434613e-02,-3.231264632247030089e-01,1.785142518356475083e-01,5.952660205105018282e-03,-6.517487249044488784e-02,1.339454201615718557e-02,4.516629874706268311e-01
-2.219033674865562855e-02,-3.281274086123601719e-01,2.390116609403230008e-01,4.263793637452918672e-03,-2.754556562989101190e-02,8.767933322338024651e-03,4.942638874053955078e-01
-3.478514327939756512e-02,-3.877489030534226333e-01,2.005684638956515831e-01,1.181458675464464037e-02,-3.780692816110717280e-02,5.470753658694788718e-02,5.260528922080993652e-01
-1.860470376484649885e-02,-3.376869120829075199e-01,1.704961029889146829e-01,2.451899159883672279e-03,-3.982304910363312911e-02,4.467768801516871363e-02,4.568098187446594238e-01
-2.075438837689765753e-02,-3.192045031478358830e-01,2.688821222235511232e-01,9.537390855299717743e-04,-5.150843193888618270e-03,-8.134998038243608856e-03,5.095926523208618164e-01
-1.685896375127042893e-02,-3.274118762519610537e-01,2.060336073775896892e-01,1.513019877119878460e-02,-2.441608718945563125e-02,4.009500055300867921e-02,4.718497395515441895e-01
-2.492985927065061863e-02,-3.069790118612180652e-01,2.954791926696417881e-01,-2.537092288227984788e-03,4.311932181011219126e-03,7.871996178468471800e-03,5.223464369773864746e-01
-2.284758711495685560e-02,-3.178310822308751948e-01,2.994908826468755669e-01,1.577692644248601195e-03,2.093767165580422921e-03,-3.801826509123303424e-04,5.348111391067504883e-01
-2.438110056369852466e-02,-3.101741969511738195e-01,3.038403645877488790e-01,4.460180583343045205e-04,-1.213889592669339067e-03,2.345278339550116876e-03,5.321954488754272461e-01
-2.263897560562447980e-02,-3.022760583633375964e-01,3.093464217752163736e-01,1.512089495211968969e-03,-3.863408380071581012e-03,-4.824719846901763878e-03,5.304414033889770508e-01
-1.603173199230372922e-02,-2.751056438025460404e-01,2.922697431828896741e-01,-1.157747772405640606e-02,-6.564926278233502652e-03,1.358951218769390533e-02,4.930795133113861084e-01
-1.986776512965691965e-02,-2.865524912637490984e-01,3.078849250689673078e-01,5.395279422669453775e-05,-9.131420980806558702e-03,1.372835691102335109e-02,5.164927840232849121e-01
-1.641158630182545236e-02,-3.190312436962026155e-01,2.723473140580563445e-01,3.630310881606509457e-03,-2.684335528986566506e-04,-5.549848246086027878e-03,5.123247504234313965e-01
-1.301308676773673539e-02,-2.980014817487053325e-01,2.516549719010008346e-01,2.669315349388106783e-03,-1.416602122800358736e-03,-6.308883051205354565e-03,4.762790203094482422e-01
-2.380590555257852334e-02,-2.716309904052225388e-01,3.026255411330362466e-01,-8.323311032190326697e-03,4.886421822399109050e-03,1.603561712005562674e-03,4.991591274738311768e-01
-1.868748330585774664e-02,-2.580287965880449508e-01,2.884551901911496241e-01,2.348641234320565879e-04,1.286009925282825686e-03,2.163322418841541472e-02,4.759642183780670166e-01
-6.975858020582828556e-03,-3.069977994240801755e-01,3.100058085298347255e-01,-1.394453139767685632e-03,-1.265492310231825261e-03,1.179442716816960553e-03,5.344219207763671875e-01
-2.073975611822026499e-02,-2.751863412962634037e-01,2.956591303292683270e-01,2.256726078007938781e-03,-5.212223704879250658e-03,1.033642163721920056e-05,4.954338669776916504e-01
-3.711528283019427388e-02,-7.119220404867204754e-02,3.311732917449919378e-01,2.789200442021200817e-03,9.429799377970780536e-03,-9.861334183211060284e-03,3.872075676918029785e-01
-4.067959437329783656e-02,-1.007730579735727217e-01,2.823827628955254410e-01,-4.102076593384278852e-03,4.448497068663300781e-03,1.872078034931225904e-02,3.585466444492340088e-01
-4.388939580660099204e-02,-1.086994656558333827e-01,2.926529622882211301e-01,-1.077965412337175861e-02,9.486730101152423319e-04,-3.722692654924793319e-03,3.737182319164276123e-01
-2.811568525116782402e-02,-7.178916469923540822e-02,3.375515395119451090e-01,7.152883373312809989e-03,-2.580667065584625001e-03,-8.157639592340330814e-03,3.898242712020874023e-01
-3.621746756892908758e-02,-8.864797863916173970e-02,2.932843119993994163e-01,3.857982307487124122e-03,-3.549338731962651053e-03,-9.468676402049855736e-03,3.590929508209228516e-01
-3.493811593499226986e-02,-8.483136548422734458e-02,2.998838736179967324e-01,5.821064061780904103e-03,-3.894365018987331131e-03,3.036658459373562866e-03,3.625952005386352539e-01
-1.518758325828314937e-02,-3.186167909317563773e-01,3.024336998558289080e-01,3.993794641606225886e-04,-3.456824483187343703e-03,-4.481871091174636102e-04,5.379266142845153809e-01
-7.917834965430813748e-03,-2.508158966415124924e-01,3.052122812472536917e-01,2.900061902098366798e-02,3.790272598225253534e-03,-1.491701146433191969e-03,4.854704141616821289e-01
-5.848848508200908680e-03,-2.137408613048543404e-01,3.064333426377627845e-01,3.548153816786487474e-02,-6.707128467592232430e-04,2.016205898801576996e-02,4.589748680591583252e-01
-1.817400009681178347e-02,-1.312650802785728654e-01,2.749237593949256375e-01,3.218299098043237577e-02,9.324670679879798474e-03,1.492322829468451309e-02,3.686174452304840088e-01
-1.513500949988197744e-02,-2.636484553839205103e-01,2.924654879806251606e-01,1.664395782354548964e-02,1.151131606268846613e-02,1.250354902462311180e-02,4.842700362205505371e-01
-7.622537748364303228e-03,-3.125457326010026016e-01,3.012392702339967698e-01,2.770244538568097069e-03,1.178753013558240560e-02,2.808402663244908420e-03,5.319928526878356934e-01
-1.056781526099625015e-02,-2.221537150692847462e-01,2.720402827708603422e-01,3.469004738980293462e-02,-4.421615270673385015e-03,1.228499720921196608e-02,4.342274069786071777e-01
-1.332692303232345388e-02,-1.300819730639804217e-01,3.054578283321281451e-01,3.964662257260357509e-02,-4.423287223547553437e-03,8.828226739650944441e-03,3.968416154384613037e-01
-2.598512825167243606e-02,-1.882084945935147691e-01,2.981423373556241208e-01,2.597059303934872582e-02,3.290349574298220663e-03,2.894984046255981783e-02,4.341961145401000977e-01
-2.753005940451663802e-02,-1.817010631363641382e-01,3.074182907894738581e-01,-1.999678064997884031e-02,-9.168149963775325609e-03,2.645838602089812044e-02,4.372074306011199951e-01
-1.883970469692294175e-02,-1.877377857265440098e-01,2.874960318682120430e-01,-2.787143075212927465e-02,-5.079816302154558988e-04,1.497501760479445776e-02,4.208463430404663086e-01
-2.321900740046112244e-02,-7.696669199021155539e-02,2.922387282240084261e-01,-3.020588144652919249e-02,9.418641045896822966e-03,6.527908710367913599e-03,3.499838113784790039e-01
-3.416246574860465346e-02,-2.465451682471589967e-01,3.081668305937627639e-01,-4.282524535439743985e-02,-1.134533683125347851e-02,4.188369785651633757e-04,4.908047020435333252e-01
-2.641067625160975832e-02,-3.397638219241212454e-01,2.164350819469432752e-01,-4.324994185624829283e-03,3.488496135635411194e-02,2.300533752880159002e-02,4.884214103221893311e-01
-1.873850477805071371e-02,-2.669356126182214628e-01,2.817127193626864368e-01,1.830173195779862330e-02,-5.418294838341768983e-03,-1.126325563513599914e-02,4.774069488048553467e-01
-2.336900631887839710e-02,-3.242381929773690552e-01,2.897558587728703006e-01,-3.332564808509608754e-03,3.539169290027915308e-03,4.570730343069712674e-03,5.318953394889831543e-01
-2.316965907688111476e-02,-3.086266025171990890e-01,3.080475949427646243e-01,-3.733050478423653143e-04,5.203714568053921519e-03,-1.826934039866870765e-03,5.346311330795288086e-01
-3.169245906773340837e-02,-1.020791575797297956e-01,2.947751185969431642e-01,2.575501920266639808e-03,1.016370906676669975e-02,4.113693089837912320e-02,3.740600049495697021e-01
-2.810241432913311577e-02,-9.470811960153380227e-02,3.091716852705013174e-01,2.007345841844074968e-02,1.242267190267160558e-03,2.683504785722990588e-02,3.795106410980224609e-01
-2.551844809250808366e-02,-2.021988247293091401e-01,2.962888122089050724e-01,4.079519049794438912e-02,-3.839484905079626476e-03,-9.762614647569403670e-03,4.437970221042633057e-01
-3.197804319856330235e-02,-2.163555316219089864e-01,2.891537337164249988e-01,2.537234726605865423e-02,2.005852734153082753e-03,1.143777875577142809e-03,4.452835023403167725e-01
-1.113323777906446987e-02,-1.302287603176677799e-01,2.882618883764338502e-01,7.203994437551208829e-03,5.122732637025679235e-03,8.049663989422610119e-03,3.740409314632415771e-01
-3.861579274922694038e-02,-1.441211771460958191e-01,2.990834560930071273e-01,1.590825826329682682e-02,8.554300287274201747e-03,1.876524709073789125e-03,4.022319912910461426e-01
-3.392736643914744110e-02,-1.198058798465540531e-01,3.071022465504456012e-01,5.153593197943770465e-03,1.822411336173290070e-02,4.573993671132276645e-03,3.925585746765136719e-01
-1.469349832822982455e-02,-3.213654445192254960e-01,1.184490318282319932e-01,-6.571100225431251649e-03,2.342960504221636500e-02,1.382393166162021632e-02,3.936437070369720459e-01
-3.533869386781204880e-02,-1.411197118656145333e-01,3.247845104716652886e-01,1.757296307247062025e-02,-2.722039219836642696e-03,1.425454149893015665e-02,4.248891472816467285e-01
-2.054326495087142185e-02,-3.241811422254728403e-01,2.956838853622159591e-01,2.623505595903187840e-03,3.370977043591174335e-03,7.180024215282572063e-04,5.369082093238830566e-01
-3.820769353371759880e-02,-3.155231288333379402e-01,2.207672137901298681e-01,9.192832995246395453e-03,-2.191633774995325329e-02,8.727161518259472436e-03,4.665968120098114014e-01
-2.814263751696857024e-02,-3.188622648281185246e-01,2.790289986458642235e-01,6.476807860724605528e-03,-2.765634285580279798e-03,5.401873323210521459e-03,5.180824995040893555e-01
-2.049738932529273153e-02,-3.191286539943150591e-01,2.980406092742588497e-01,6.430365153954423381e-03,-1.097111358776305980e-02,4.298624128214654193e-03,5.350822806358337402e-01
-3.405483577331976097e-02,-3.173071340834461851e-01,2.872808669966157580e-01,8.787839478829634343e-03,-1.185638272226492707e-02,7.278999089549124599e-03,5.247093439102172852e-01
-2.573642836768069014e-02,-3.166913540697245955e-01,2.836605117442083102e-01,2.722857785046016443e-03,-6.401983611997441419e-03,5.708401620156853921e-03,5.202353000640869141e-01
-3.012985147831915775e-02,-3.243988094576757408e-01,2.819397380686142762e-01,9.807767279432406254e-03,-6.099710211065265467e-03,3.711686642333904881e-03,5.256001949310302734e-01
-5.479285924018372639e-03,-2.482072576684934417e-01,3.004273973433262968e-01,-1.832827623772424752e-02,1.888568994241622903e-02,-2.368763625314538809e-02,4.801135063171386719e-01
-2.002386240381292051e-02,-3.078977193929826051e-01,2.775975260175342907e-01,1.170712292691981947e-03,-3.988677556479439286e-03,4.020704443150976796e-03,5.071761012077331543e-01
-1.143515998262196152e-02,-3.125668919530446010e-01,3.119145354187697894e-01,-3.006410152767808458e-02,5.166839838104663254e-03,1.314021448824809549e-02,5.439814925193786621e-01
-4.780245654304043912e-03,-3.211936547507250883e-01,1.502928502100791541e-01,7.790310382728590950e-03,-2.369145187043922990e-02,5.414111045980019368e-03,4.185524880886077881e-01
-2.408476887516847187e-02,-3.292611398525406852e-01,2.694836975547056923e-01,1.156739615940777927e-02,-1.782085184287664908e-02,1.743081451342934005e-02,5.207406878471374512e-01
-1.542216829359637116e-02,-3.188804535804614648e-01,2.886927473395308197e-01,-1.255050152664202202e-02,6.242000097710160428e-03,2.335527189411715047e-04,5.267338752746582031e-01
-1.529149644745359492e-02,-3.180889656877396998e-01,2.685798903639616264e-01,1.153148803196015664e-03,1.035914461583381735e-03,-3.244373096584666962e-03,5.081964135169982910e-01
-1.705655394831868954e-02,-2.938845199423302246e-01,2.836007412548256501e-01,-1.148102214080426106e-02,2.269905608419834980e-04,-4.025494869723521296e-04,5.006545186042785645e-01
-1.555823523442530915e-02,-2.908545780227699273e-01,2.910171858284393842e-01,-1.072819659046578451e-02,3.076242523322841524e-03,3.046778082607730538e-03,5.045564174652099609e-01
-3.925303098949083080e-03,-2.828481953173989649e-01,3.051399458223901795e-01,-6.061774091912939741e-03,8.955994235868109873e-03,-8.607318315305981932e-03,5.099978446960449219e-01
-2.046383210153586429e-02,-3.234136544996914220e-02,3.220930362458465090e-01,-2.678862990887087570e-02,2.741883107734734409e-04,-3.181222985867547537e-02,3.560115098953247070e-01
-2.898731810290577915e-02,-5.738876246740115539e-02,3.268278296061188914e-01,-5.165140631100291306e-03,3.821527879472090550e-03,-6.627740163950669033e-03,3.711769878864288330e-01
-4.637450671547775627e-02,-9.035931985940368061e-02,3.226554024849315194e-01,-2.332263275262598870e-02,1.408599875027567727e-02,3.654366366418134587e-02,4.007278978824615479e-01
-2.547963489832609507e-02,-2.302382804408627248e-02,3.456615180700883250e-01,6.908314408664986868e-03,9.240999717001581112e-03,1.403222647984311323e-02,3.712551891803741455e-01
6.421299683876918740e-03,1.816728287032737255e-02,5.355006149172863994e-01,4.195542655702530488e-03,-4.151085017894302898e-02,-6.523615399269241943e-02,5.402202010154724121e-01
6.685277188540561522e-03,6.683338668903304747e-04,4.995444354590613534e-01,2.347005831998016153e-03,2.501601269120986085e-02,-4.290000848267954553e-02,5.033160448074340820e-01
-2.346744390065194641e-02,1.870541622198448883e-03,3.493831438069185946e-01,-4.968593558859034885e-03,-3.746300081257379448e-03,-3.689803473691633667e-02,3.666235804557800293e-01
-1.546398542814736432e-02,1.943149472305866210e-04,3.578944414559948051e-01,1.916015446327181890e-02,-7.568034387345599565e-03,-2.656561112842644595e-02,3.703861534595489502e-01
-3.244410231542632639e-02,-3.991066556743122495e-02,3.179069296257994726e-01,1.078889594923208850e-02,3.463865626940129802e-04,3.597811920178475148e-02,3.600699305534362793e-01
-3.143017945255502377e-02,-5.681752010976365286e-02,2.937660816092050875e-01,9.483883076597072678e-03,9.631840351331857073e-04,-2.119329998338331453e-02,3.409883677959442139e-01
-2.066700697195841818e-02,-4.594033232096243757e-02,2.864479796792575028e-01,2.841103889947542080e-02,7.086306244187775584e-04,-3.699309946285078091e-03,3.243212699890136719e-01
-1.488347505730480518e-02,-2.521433667406797197e-01,2.633683171321968830e-01,2.346731864648522042e-02,-1.442704397326300889e-02,7.124385758964006882e-04,4.494578838348388672e-01
-1.590519149118148345e-02,-2.995032772571088464e-01,3.035884448693988436e-01,1.609834153093044409e-02,6.133721923481105787e-03,1.193134528257710353e-02,5.238599777221679688e-01
-1.961485480526288516e-02,-2.936828863072792339e-01,2.931741625885250779e-01,1.096502955974200215e-02,4.894079950682698327e-03,5.641457651950417158e-03,5.091205835342407227e-01
-1.749983847599254766e-02,-3.014860749124250172e-01,2.992377038693428970e-01,-1.284221432139899923e-03,6.394315183602052206e-03,3.605087442718656748e-03,5.206597447395324707e-01
-1.065544917473932110e-02,-3.013642316058422477e-01,2.917111295641104385e-01,5.388121156702650044e-03,5.666617606660432488e-03,5.432540042465378027e-03,5.139160752296447754e-01
-8.304118368572484254e-03,-3.030368526859199552e-01,2.998459649648398395e-01,1.456990795218272112e-03,9.088416838397639710e-03,3.472656941373780323e-03,5.224328637123107910e-01
-7.857014962765210275e-03,-2.641578650255560490e-01,2.978458874097557607e-01,5.044390400880673087e-02,2.815509609178531991e-02,-3.439158907690528094e-02,5.010554194450378418e-01
1.627945786986101026e-02,-2.590919278699152506e-01,3.400699187518232414e-01,4.737335777048880953e-02,-2.818155306554384620e-02,-3.293671574346972858e-02,5.312269330024719238e-01
-1.163573433989012820e-02,-3.255468299235815821e-01,3.300335005416129563e-01,1.620075185340450960e-02,-2.940249886220558991e-03,-3.378323401053288239e-02,5.716371536254882812e-01
-5.010280125153254716e-03,-3.323492809132154169e-01,1.263068848934730537e-01,-1.237957812018315555e-02,5.888614577446273785e-02,3.325362544462279885e-02,4.260987639427185059e-01
-1.134917221061613329e-02,-3.052976897097851028e-01,3.325232389756054285e-01,1.770943543270339995e-02,-2.761414168579265794e-03,-2.934978282433211780e-02,5.561319589614868164e-01
-2.213415366953247823e-02,-3.231332817736597418e-01,2.693514959732291048e-01,-7.535842116017688573e-03,-1.144709587553907051e-03,-9.910666810794522500e-04,5.133016109466552734e-01
-3.381324747992386220e-02,-3.293509668102722054e-01,2.410771967262174686e-01,-2.691302750487962157e-03,-3.421500194500430581e-02,-1.121323814954817803e-02,4.980549514293670654e-01
-2.174383892374391961e-02,-3.103280443227979246e-01,2.587416694802190942e-01,7.864292023211424260e-03,-1.743587739984937823e-02,1.061575977930774226e-02,4.942997992038726807e-01
-2.150898215399680430e-02,-3.273681662248798530e-01,2.817316875978686519e-01,-6.340938190161926960e-03,-8.194753500762871424e-05,5.952033851809812592e-03,5.277126431465148926e-01
-1.466586322403145085e-02,-2.846649955670980670e-01,2.395894039275360266e-01,1.280313100501497860e-02,-1.771045450083135256e-02,1.578079014651022393e-03,4.556689560413360596e-01
-3.011239543058812085e-02,-3.072036168518537669e-01,2.148747833382691486e-01,5.480503099704442903e-03,-5.562136242214072573e-02,-3.646738493833256468e-03,4.627021551132202148e-01
-2.030672450480636160e-02,-3.163603264911261648e-01,2.849698773347860703e-01,1.540442364271712820e-02,-4.660852827103705021e-02,-1.350661955030705609e-02,5.282007455825805664e-01
-1.220053213709865886e-02,-3.239080958657702958e-01,2.399730687096895410e-01,7.445012491279507510e-04,2.602759640051524864e-03,3.698326575813014935e-03,4.893062114715576172e-01
-3.465815456961088975e-02,-3.201182645371007940e-01,2.670462622145505782e-01,-1.115434340409387527e-02,-1.617226284944350834e-02,4.477120097643323346e-03,5.097603797912597656e-01
-2.314008391645357154e-02,-3.172711792622597282e-01,3.037714711215577790e-01,5.515729686269943248e-04,1.894290101790569543e-03,7.080266540390878086e-04,5.381006598472595215e-01
-1.949584564331904510e-02,-3.204186336399637014e-01,2.082290751062713108e-01,1.091315021509718479e-02,-1.453821488977457936e-02,-3.059343194494722196e-02,4.634005129337310791e-01
-3.692380389619565051e-02,-3.169279918453642986e-01,3.217067258444051281e-01,-2.659879061314680089e-04,-1.006405669727893949e-02,-4.023909089255597914e-04,5.547438859939575195e-01
-1.593752858159197539e-02,-3.124487758567642270e-01,3.169975946962174107e-01,2.025658306313167165e-03,-1.271172721858623757e-03,4.598649912605310558e-03,5.454945564270019531e-01
-3.180793921665127366e-02,-3.249833220884411622e-01,3.207315937687297280e-01,9.831136561113153205e-03,-9.588118846344095142e-03,1.305277691071378941e-02,5.609533786773681641e-01
-1.924259888172556721e-02,-3.220960129025074448e-01,3.156275416123218158e-01,-1.492820311860192138e-03,-2.472155869455200730e-03,6.254106563204144291e-04,5.525404810905456543e-01
-3.843888248590769663e-03,-1.951174337184143348e-01,2.895356224821085123e-01,6.213971598521927237e-02,1.232212573668652923e-02,2.999056033279615119e-02,4.398984909057617188e-01
-1.856027341931653848e-02,-2.926759807731666996e-01,2.938623566758545302e-01,1.169674854041042981e-02,1.222839114468918763e-02,1.549172967556668862e-02,5.098689198493957520e-01
-1.760694195953789454e-02,-1.522323504248644654e-01,2.924149055181329282e-01,3.628149068670450533e-02,3.501027584897184811e-03,1.021279485113701230e-02,4.003412127494812012e-01
-4.812242840914211783e-02,-3.060028070831272151e-01,2.657720871785578809e-01,1.942839163006261291e-03,-3.734342097622875799e-03,7.296361269783565619e-03,4.961775541305541992e-01
-2.221537734051975271e-02,-1.866349379173892209e-01,2.901952660975154474e-01,2.392162303215226646e-02,7.204103548839012328e-03,1.265881593698308348e-02,4.223195314407348633e-01
-1.317697680777874317e-02,-2.616218079535767016e-01,2.991549942840813214e-01,1.219770796969656471e-02,1.188517669281325025e-02,2.428293121144159752e-02,4.894001185894012451e-01
-3.543567856541702393e-02,-2.494246455336919244e-01,3.036214449179119312e-01,-2.579678965253288069e-03,1.069135629944751968e-02,1.367118816089831455e-02,4.839721918106079102e-01
-4.647273116834745033e-02,-3.054713517310202464e-01,2.465849061899252903e-01,7.157419817968609446e-03,-1.758017488871338116e-02,6.209637182396385811e-03,4.796468913555145264e-01
-3.662786339381116085e-02,-3.230316791718953473e-01,2.867638863247283787e-01,4.805216283829397660e-03,-3.665566819675592902e-03,4.006279460558973514e-03,5.285714268684387207e-01
1.715127108665946698e-02,-3.125460469400689334e-01,2.888280062611021659e-01,-1.559864598388281502e-02,1.577825809717552053e-03,4.757632704923847947e-03,5.223839282989501953e-01
1.397227119579989331e-02,-2.703601146921590925e-01,3.138635728311809925e-01,-3.848063102161577986e-02,5.110453730275706270e-03,-2.122793029545223462e-02,5.117821693420410156e-01
-5.182132625621607355e-03,-3.108289195583627817e-01,3.437336057456779614e-01,-1.479189562501097115e-02,-6.378782567148202909e-03,-2.026455166707135519e-02,5.690497159957885742e-01
1.511031420925648683e-02,-2.709505976451902498e-01,3.131901158686151154e-01,-3.729932494632138412e-02,5.355603166236709740e-03,-2.212051010212277846e-02,5.115457773208618164e-01
5.508668493681234332e-03,-3.037788876678653160e-01,2.964121896118477872e-01,-2.350396613871737553e-02,9.335681964662305085e-03,-2.416736554665416953e-03,5.217210054397583008e-01
1.813516413969151059e-02,-1.528312618116386412e-01,3.356867522129713399e-01,-5.379079161936577841e-02,1.139846321655116346e-02,2.311466431080587414e-02,4.416244626045227051e-01
-4.855170727412750492e-02,-4.244445334839679340e-01,3.403090066949333026e-01,-1.192109218446117530e-01,1.953729362362768840e-02,8.812197760484601419e-03,6.947588324546813965e-01
-1.492176254815238967e-02,-3.224473549855204624e-01,3.441545137621678241e-01,-5.984266809133106935e-02,-8.321229488106105313e-03,-6.081479394351806296e-03,5.873627662658691406e-01
7.692320033602460111e-04,-2.672397638425190736e-01,3.009442361925486198e-01,-1.971538419306919157e-02,-2.299436752222173898e-04,1.861637396624319513e-02,4.945598244667053223e-01
-2.463226533511352415e-02,-3.137028491746721715e-01,2.690951206820517694e-01,2.303786587108270362e-03,-1.995566350977704545e-02,-4.948297447598020218e-03,5.059936642646789551e-01
-2.088176835820507865e-02,-3.246407940252774571e-01,2.440876434352519109e-01,-4.967383659535478009e-03,-7.188191084521088937e-03,-1.125381045907514373e-02,4.935323297977447510e-01
-3.747902431798352113e-02,-3.114456347258058311e-01,2.534384992848902063e-01,-5.533734638331612617e-03,-7.559396577348419417e-03,-5.088552302782961556e-03,4.896257519721984863e-01
-3.986593624944255454e-02,-3.091069571984176867e-01,2.608200191891654751e-01,-7.006090299039065619e-03,-1.233106074653987985e-02,-5.836185021708805570e-03,4.945355057716369629e-01
-2.643376907589823147e-02,-3.191658547445421767e-01,2.636567386080108655e-01,-6.452366318786213750e-03,-2.283300581608575797e-03,-2.158817500867812877e-03,5.048939585685729980e-01
-1.793239022078087566e-02,-3.182001696193818563e-01,2.628152803322865161e-01,-1.030876404899682157e-03,-3.200708140292989057e-03,3.310822275334005318e-03,5.033351778984069824e-01
-3.295970831458412686e-02,-3.337641791045697914e-01,2.245149581160120200e-01,-1.719019053602271335e-02,-2.411435541606336136e-02,-1.424528292944330331e-02,4.873046875000000000e-01
-2.854301298770725581e-02,-3.098166355329574628e-01,2.381016100319028328e-01,-2.743411633766824897e-03,-2.095452151754751205e-02,-2.459218348838242574e-03,4.759961068630218506e-01
-2.213969065326383892e-02,-3.092178410020703372e-01,2.891823201737793725e-01,-3.065191032741027000e-03,-1.227527884352477708e-03,-1.925515420071764955e-03,5.184137821197509766e-01
-2.075510019813714413e-02,-3.274697611451354851e-01,2.720271305452477972e-01,-2.632168498301678400e-03,-4.190393131024166065e-03,1.137902082819229870e-03,5.193007588386535645e-01
-1.550336159864356377e-03,-3.111360061499157115e-01,3.018216095994012416e-01,4.649087270983847005e-03,-1.582340284868213875e-03,-1.018106929191925402e-03,5.309170484542846680e-01
-4.813936987894701369e-03,-3.109071971158472447e-01,2.959371738904925109e-01,2.970408615804498768e-04,9.462982046113632651e-04,-1.027571650542809852e-03,5.255552530288696289e-01
-4.019043262930274696e-02,-3.017128499980035183e-01,2.662964706576233520e-01,5.763207381294793707e-03,-8.648372414214079359e-03,3.138065519702499997e-03,4.927828609943389893e-01
-2.061982081369236747e-02,-3.169555326536592776e-01,2.814922073771198852e-01,-4.371454937524514063e-03,-2.068183375808849232e-03,-1.864637743127828739e-03,5.183567404747009277e-01
-2.794507812190879029e-02,-3.169775438196372752e-01,2.755180152639838953e-01,-1.166690613900287117e-02,-6.738083909276259068e-03,-5.371939134445257065e-03,5.137814879417419434e-01
-2.013689759142388638e-02,-3.204322437050861616e-01,2.679394466051540080e-01,-4.421971401528482573e-03,-2.361499948078646383e-03,1.650344289584672851e-03,5.096634626388549805e-01
-1.590827191442436769e-02,-3.120294319113104953e-01,2.928115243177035754e-01,-3.890545255875228585e-03,6.277706370044232320e-03,1.287806180714829232e-03,5.240064263343811035e-01
-1.471766433168351408e-02,-2.907827969870314666e-01,2.857056649454073338e-01,5.885751792375585982e-03,5.117601542284731277e-03,2.956324983169658291e-03,4.996111094951629639e-01
-2.939059551303292023e-03,-2.860768320023823752e-01,2.946986663735545742e-01,1.306017409965171648e-02,1.460563588390424499e-03,-6.298844637807114689e-04,5.035344958305358887e-01
-1.498746062592255963e-02,-2.858842152886742483e-01,2.977789149449470152e-01,6.063537011073071199e-03,1.746257034707541502e-03,4.764386849499310100e-03,5.060857534408569336e-01
8.906173151388044329e-03,-2.046718228237108528e-01,3.165826187045452933e-01,5.266122384551091135e-02,-1.093697495764899344e-02,-1.076537776699455946e-02,4.637018740177154541e-01
1.162086903776130865e-03,-2.854747698823745794e-01,2.960443105848518108e-01,1.929091940109797787e-02,1.062049723323455104e-02,7.743230557552480131e-03,5.052474737167358398e-01
-4.924150538609504621e-03,-2.706681560321713143e-01,2.938620137789094144e-01,8.536518102788902274e-03,5.410930681414449599e-03,-1.898609474277064991e-03,4.895007014274597168e-01
-1.400401964526786641e-02,-2.885100972644997763e-01,2.956025156159483580e-01,2.336622016899950541e-02,1.026195906020572340e-02,7.469065213452766305e-03,5.082517862319946289e-01
8.605725004731553524e-03,-2.490014305911766312e-01,2.931626237815775360e-01,4.934059998133295127e-02,6.389872950201590587e-03,2.340838188493583188e-02,4.792784154415130615e-01
-9.456425779612784993e-03,-2.956469345779552116e-01,2.946209841356220993e-01,5.397347841455724105e-02,-1.100142978576399908e-02,2.325154506208275060e-02,5.216479301452636719e-01
-3.843287860418560103e-02,-3.260268476687763761e-01,2.631424079515941594e-01,1.186146969624429955e-02,-4.821575499576246510e-02,5.678079103607287619e-03,5.175734162330627441e-01
-5.151652886562221867e-02,-3.597885955548638659e-01,2.629610944566688202e-01,-5.505439048084987373e-03,-6.170739170095027037e-02,-3.510246923343508275e-03,5.499307513236999512e-01
-4.727538952953546508e-02,-3.255410433559293715e-01,2.851681429430450443e-01,-1.145364189995710415e-03,-1.938645005062553800e-02,2.481831175468599601e-03,5.306675434112548828e-01
-5.168641817934005456e-02,-3.118137429804669347e-01,2.732094135246885269e-01,3.698728752401569519e-03,-2.799274843035449989e-02,6.737299986557955533e-03,5.101625323295593262e-01
-4.695269846674141739e-02,-3.226045382292814234e-01,2.265504423191809780e-01,7.497330431479303642e-03,-6.757184218227339778e-02,2.230535053100838466e-02,4.914658069610595703e-01
-4.261041084460430450e-02,-3.112179731301792929e-01,2.733458501113995021e-01,5.686912438493962191e-03,-2.790903716321715619e-02,6.728542830954167137e-03,5.093291997909545898e-01
-4.420238596758994942e-02,-3.032757184928527305e-01,2.544513560568590904e-01,-1.873845421150221644e-04,-1.814559952910813718e-03,1.209700063290265141e-03,4.834259450435638428e-01
-4.165895081595476224e-02,-3.073581154490539480e-01,1.994993565792659851e-01,4.566314156932224297e-03,-3.492013227628346095e-02,2.404132320464003221e-03,4.433588683605194092e-01
-4.474932847532488156e-02,-3.084736520118271375e-01,2.377338245769761715e-01,4.531177626518161626e-04,-2.413774854345150309e-02,1.316919544078309044e-03,4.749722480773925781e-01
-1.326274479616517711e-02,-3.207317681646544849e-01,2.977874282961025520e-01,4.309837412230054220e-05,3.574190801336994249e-03,3.849134542148149006e-03,5.357335805892944336e-01
-1.228913354228316698e-02,-3.243410508603327136e-01,2.976196180531194835e-01,5.640644574205835871e-04,1.773706489126850895e-03,6.047964684267717649e-04,5.386454463005065918e-01
-1.800136534646591679e-02,-3.280928949328814626e-01,2.979689628119356337e-01,3.572983455425685941e-03,4.067767880564585568e-03,-1.159838014676972938e-04,5.422745943069458008e-01
-2.505347051588364959e-02,-3.280141487096286390e-01,2.980963510431789976e-01,5.580900328256769606e-03,1.336757364239977855e-03,2.369112981961115760e-03,5.424281358718872070e-01
-2.172156476316823570e-02,-3.240618895182404979e-01,2.982215424035910556e-01,8.017959841602148065e-04,2.942152529264271260e-03,2.119829569912036991e-03,5.390235185623168945e-01
2.098008579446318175e-02,-2.591972337904353552e-01,2.808663431565249780e-01,2.405832560092757873e-03,5.009526505353907415e-03,-4.852720912520490739e-04,4.679185748100280762e-01
-1.255663577521887522e-02,-3.090632849959034645e-01,2.870538439152170440e-01,-1.703732416352575149e-03,9.146609676925383792e-03,2.045903742576793416e-02,5.177205204963684082e-01
-2.250152381664494161e-02,-3.270946005753539443e-01,2.962923173270181620e-01,-1.359100443651234044e-03,-2.521817978439330407e-04,-2.707398145871899487e-04,5.399211049079895020e-01
-4.400237552142007014e-02,-3.009105893031778778e-01,2.628070617865098102e-01,-1.448995951618220436e-03,-4.988640731824083019e-03,-9.494664009348219563e-04,4.889165461063385010e-01
-1.593611346628922426e-02,-2.813138887835589519e-01,2.870812132009708528e-01,-1.278380421153479463e-03,-6.052709657656095248e-03,5.857646181058447955e-03,4.928251802921295166e-01
-2.006315658467705543e-02,-3.124973889304754060e-01,2.943989059878685532e-01,-2.547085727291275529e-03,1.121671630762978559e-05,2.765117857375068173e-03,5.257433056831359863e-01
-1.981919274264140607e-02,-3.099579856608267181e-01,3.019492840174621828e-01,-1.320838734369790199e-03,-4.593144186339294215e-03,1.493375773732117783e-04,5.302278399467468262e-01
2.939598424949230182e-03,-3.638085951761966252e-01,7.761603404243250237e-02,9.567275285404713836e-03,-3.318432259992553507e-02,4.773997941260595124e-02,4.217627048492431641e-01
-1.359567597524800886e-02,-3.680649036070280933e-01,1.323972487404886100e-01,9.572086612989171841e-04,-2.843475614899819079e-02,-4.327281486624969149e-03,4.485497772693634033e-01
-3.095106445456043132e-02,-3.637689644376121412e-01,1.551524472577880676e-01,-2.882072978034828318e-03,-6.167213612073312035e-02,7.722897534129617540e-03,4.679263234138488770e-01
-3.908510790575525640e-03,-3.735833259224436986e-01,3.083719521518235585e-02,1.148540323683579223e-02,-5.907065278581503931e-02,4.434229616495023035e-02,4.092356562614440918e-01
1.034898137634419901e-02,-3.622957232673678085e-01,1.159335893956847663e-02,-8.864174129700860133e-03,-2.202506949715479431e-02,-2.875614879794960443e-02,3.788154125213623047e-01
-2.816110732181590498e-02,-3.201846593871418567e-01,1.733395404494863790e-01,4.515464884860293827e-03,-6.639892607507771882e-02,1.760762275860464771e-02,4.460279345512390137e-01
-1.062386403076159141e-02,-2.133453837120442842e-01,2.945546254362287342e-01,4.790808035119226843e-02,1.466398874293760660e-02,3.004669582713598991e-02,4.542413949966430664e-01
-2.331021529486516225e-02,-3.129887432372585598e-01,2.957404574372247130e-01,5.903945096441525625e-03,3.320155671034759857e-03,8.022131174219447949e-03,5.276929140090942383e-01
-2.278141310303445632e-02,-3.076646681419869522e-01,2.907563076319541473e-01,-2.957363188569045107e-03,8.282211020944358487e-03,1.164220638850917144e-02,5.190613269805908203e-01
-1.622496151557486013e-02,-2.985636729889586949e-01,2.888229163974714853e-01,3.946952744722708080e-03,2.314941258153653883e-03,9.401582098147630989e-03,5.091406106948852539e-01
-1.800864446093096080e-02,-3.224739062793336442e-01,2.847348271629305816e-01,3.669095211336167138e-03,1.136832508022704146e-03,7.543861006332326820e-03,5.260632634162902832e-01
-2.125617845802034445e-02,-3.051508126128750220e-01,2.589961628769923974e-01,2.322694324159247162e-02,-1.363226400139173553e-02,6.351958691383131732e-03,4.909141659736633301e-01
-1.946386682382523353e-02,-3.197762280640687460e-01,2.975289680191475217e-01,-2.816302115741315532e-03,1.524162772737078881e-03,-4.615759907441334409e-03,5.347555875778198242e-01
-1.573900533175985952e-02,-3.165499747816194476e-01,2.898167974062786922e-01,1.706399997177230265e-03,-1.265899876932372438e-03,2.041647137200928736e-03,5.251591801643371582e-01
-1.897516716371547632e-02,-3.228643345763229644e-01,2.834092079484811788e-01,-1.775761568021722372e-03,5.547213120109396010e-03,3.185620006528977130e-03,5.251747369766235352e-01
-2.306739485101151274e-02,-3.238570885132822097e-01,2.853164668306361063e-01,-7.854150645974067703e-04,3.973409398469142026e-03,-5.179771234057961062e-03,5.276963710784912109e-01
-2.219055811206750717e-02,-3.016800539681607773e-01,2.727139035899189823e-01,1.199076068768591390e-03,-2.523807154968560427e-03,-7.403418938326009925e-03,4.976882338523864746e-01
-2.546910066510546522e-02,-3.202769395142359143e-01,3.089866662098595396e-01,-6.633173541332141460e-03,-6.901120624637358501e-03,-1.035659448711673475e-03,5.455736517906188965e-01
-3.157710408083246739e-02,-3.264653907223800666e-01,2.980355265548055299e-01,7.034092830425360239e-04,3.429978109041728531e-03,2.460990467705501095e-04,5.411463975906372070e-01
-2.702508426193174496e-02,-3.202020223024308332e-01,3.028791257262410386e-01,-1.389065214159532560e-02,1.797997869303431502e-03,1.093620675537787393e-03,5.404645800590515137e-01
-2.371928183453623357e-02,-3.111909671251372189e-01,2.922404196368503237e-01,-1.232981293631864881e-03,2.998872014165259326e-03,-4.419920750026724138e-04,5.228117108345031738e-01
-2.232085777300082952e-02,-3.098958679308104758e-01,2.929510678846860006e-01,-2.146739906194222031e-03,-3.114037340289800733e-03,-2.595349847184061452e-03,5.223248004913330078e-01
-6.644871193328172158e-03,-3.043201322744303883e-01,2.954617690245279205e-01,2.101197853807947914e-03,-1.082967051581046943e-03,-5.449899081543577682e-03,5.195329785346984863e-01
-2.265524106797018808e-03,-3.067570863053962205e-01,2.943400129209473581e-01,4.290811684826995737e-03,5.716706212028037706e-03,2.190149809836899105e-03,5.207412838935852051e-01
1.128024369894318341e-02,-3.327120934781205297e-01,3.579927124865761590e-01,6.365987420594620971e-02,-8.745803027332256160e-03,-3.151060453859625896e-03,6.084600687026977539e-01
-1.271942758740999060e-02,-3.073047995717538838e-01,2.949431610831795281e-01,-1.377537240533073352e-03,2.558181493960869687e-03,-1.559692386561043484e-03,5.216342806816101074e-01
-1.020641435371020134e-03,-3.062480228112020586e-01,2.950931048435058157e-01,-4.836017805178727800e-04,3.457697194840424204e-03,6.199097660816902484e-04,5.208328366279602051e-01
-1.314499137119652661e-02,-3.274342117510013472e-01,2.666982647508961968e-01,-3.428065664005324788e-03,-1.740962569610018636e-03,2.122091644922947506e-03,5.148781538009643555e-01
-1.920598979844668347e-02,-3.146921119926753829e-01,2.482597023314400131e-01,-1.299220056756053869e-03,1.465036138147056801e-03,-9.167058125302274263e-03,4.880020022392272949e-01
-1.939576805933723724e-02,-3.242754622678802323e-01,2.133159602806763977e-01,2.158984473358718618e-03,-2.804289223665300604e-02,1.165025811889633910e-02,4.699317514896392822e-01
-2.381590141068874039e-02,-3.171898847119312692e-01,2.498807372806645111e-01,-4.558111730379027331e-03,-1.958818077489046100e-02,1.474754410669119149e-03,4.924363493919372559e-01
-1.792670343449581649e-02,-3.129849988988198106e-01,2.447818295733805716e-01,-4.949423450571872884e-03,-1.321679151350330268e-02,-8.916210296314067835e-03,4.841751158237457275e-01
-3.387635250743009641e-02,-3.158347203861670560e-01,2.494960191889775691e-01,-3.105839031234444280e-03,-3.456999289393637015e-02,-1.103089420932801962e-02,4.936383962631225586e-01
-3.085805696168369971e-02,-3.241565432958679605e-01,2.188569746591360610e-01,1.902642113696395576e-03,-6.573046258136949760e-02,-1.381121867248035449e-03,4.843559563159942627e-01
-2.485141671471197827e-02,-3.272419328749912593e-01,2.641549457535206646e-01,1.781365371605795429e-03,-2.448522867483109849e-02,-7.443063986430642660e-03,5.141320824623107910e-01
-3.923383344059308553e-02,-3.204379459930704610e-01,2.643696563104001584e-01,-8.828843774130777991e-03,-3.789087712631521859e-02,-5.215584431265921517e-04,5.110452175140380859e-01
-3.705680898518254329e-02,-3.192809174976573572e-01,2.721022677871701712e-01,-7.178360619308933946e-03,-2.835917062916786663e-02,-8.663326709635954873e-03,5.150479674339294434e-01
-3.570289325129278463e-02,-3.133698727926832461e-01,2.627373329858705975e-01,-9.190373400288375308e-03,-2.271318780047173677e-02,-1.023506023830681420e-02,5.011465549468994141e-01
2.218003371391737838e-02,-2.008654374069621662e-01,3.009485367947895007e-01,3.419998089653442097e-02,2.631294601656097507e-03,-2.196908920209697958e-03,4.395263195037841797e-01
1.956872417003058945e-03,-2.201273866277801139e-01,2.838288757098457182e-01,2.068743736210314557e-02,7.711109028143023347e-03,-2.077253251512793490e-04,4.391298294067382812e-01
1.257592062890654921e-02,-2.160074040400586926e-01,2.982501376500776846e-01,6.533659099430864925e-02,-3.530910330108535077e-03,1.861151879399501911e-03,4.604507088661193848e-01
-4.804773116167562752e-02,-3.051254850569827259e-01,2.612293831293187596e-01,-4.344694501702459598e-03,-1.313234657335966490e-02,-6.971959955985274245e-03,4.919038414955139160e-01
1.594286377827842244e-02,-2.763680012849218381e-01,2.867903830813721688e-01,3.509512496718254770e-02,1.820299853784786192e-03,-2.178926758928452067e-03,4.916247427463531494e-01
-1.199848581754135030e-02,-3.027336217167858057e-01,1.914784548522925067e-01,-1.012788673881999770e-04,3.739058598407467293e-02,-1.108361892725292022e-02,4.354887008666992188e-01
-1.745293263573765435e-02,-3.173020021390546286e-01,2.978996067555588767e-01,2.749502973386013308e-03,-7.139866444826049180e-03,6.481841755692707100e-04,5.330025553703308105e-01
-2.569390604600435557e-02,-3.341426854570094251e-01,2.444962662980077472e-01,7.723386275462569475e-04,2.203948309410420567e-02,4.984424133694050074e-03,5.030077099800109863e-01
-3.087351801124998268e-02,-2.116366112953870227e-01,2.672728680211285401e-01,-3.580317131512274903e-02,3.325954054699229584e-02,2.373499293731324428e-02,4.293188452720642090e-01
-1.653096409759907681e-02,-3.221800920632422738e-01,2.955948998069689027e-01,4.976124598555078070e-03,5.129816973753871523e-03,3.283654453959216572e-03,5.351920127868652344e-01
-1.753236297240692160e-02,-3.246367247078134066e-01,2.922321436949932849e-01,4.224172737971680289e-03,-8.618430513598229108e-04,3.778216954088975833e-03,5.343180298805236816e-01
-1.774053694597882425e-02,-3.234099637875826883e-01,2.902213062890932060e-01,4.826404588017484815e-03,2.082652211742428653e-03,6.040614617594588023e-03,5.316024422645568848e-01
-2.427642163751021764e-02,-3.261909754826031183e-01,2.923301696100353286e-01,4.078794443154981630e-03,-1.670031681402546356e-03,3.875785285096579238e-03,5.358018279075622559e-01
-2.306940899190491195e-02,-3.207055891619677301e-01,2.949385495341785290e-01,7.134590708833035352e-03,9.684307849950621674e-04,7.369168252264711449e-03,5.335592627525329590e-01
-3.225637108767423489e-02,-3.270516707307526416e-01,2.776706223950202168e-01,7.774905220716668390e-03,-1.082541492224054630e-02,1.647240648701051545e-03,5.242757797241210938e-01
-2.439186735152905697e-02,-3.221606803476848579e-01,2.873517585840756339e-01,4.857442788190472968e-03,-7.938740032574434643e-05,3.284789167301503578e-03,5.279971957206726074e-01
-2.894929258485147081e-02,-3.214273220570890710e-01,2.739142881342325753e-01,1.086763080476091207e-02,-8.232554119236488305e-03,6.665153504965532112e-03,5.162766575813293457e-01
-3.440844285425820326e-03,-3.657036314152689038e-01,9.786569532976494012e-02,-7.143604278708796940e-03,2.562276007984549270e-02,-5.381565057832680965e-02,4.347504675388336182e-01
1.611838914562048475e-02,-3.679415434835230925e-01,8.220692766477963320e-02,1.314313272020816228e-02,-1.099877685241090405e-02,2.804898845936632662e-02,4.248447716236114502e-01
1.555631508615261394e-02,-3.637800986563422545e-01,2.720169852110396191e-02,1.037590587888960469e-02,1.078720963198368139e-02,-1.996943826336150529e-02,3.877082169055938721e-01
1.512917503941275943e-02,-3.598794016865590750e-01,5.986773023093161505e-02,1.406172667857782249e-02,-3.115090804078630548e-05,5.320416443421247671e-02,4.104821085929870605e-01
-1.720232830869249108e-02,-3.248702810133967667e-01,2.978576803851605836e-01,2.249952401981551720e-03,-2.390003464641723887e-03,-1.553153016500775181e-03,5.393475890159606934e-01
-4.547781345038370837e-02,-3.048505195431532866e-01,2.414869666685506844e-01,-1.501724767883803055e-03,-6.895914276966248931e-03,1.846525219863575057e-04,4.735011458396911621e-01
-2.704486687979152162e-02,-3.114707958638990304e-01,2.939503251281044283e-01,6.612731501850721734e-03,5.403323989602484834e-03,-6.694215232910106887e-03,5.249653458595275879e-01
-2.764918676603039457e-02,-3.155210630691308027e-01,2.691999443869490527e-01,5.799731534963035486e-03,3.917179378366782150e-03,-7.958224197015138432e-03,5.067357420921325684e-01
-1.276211780918092703e-02,-3.068137286518676232e-01,2.908378325033993406e-01,-1.486647589255354202e-02,3.725386551255481602e-03,6.081160658062682205e-04,5.182847976684570312e-01
-1.968804756317540927e-02,-3.112338659050183365e-01,2.938271344070428892e-01,2.665750312507842671e-03,1.217160821161176500e-02,3.896664240850041070e-03,5.246008634567260742e-01
-2.626795638197510635e-02,-3.172340566040651733e-01,2.893350035826940947e-01,3.478182879408045752e-03,3.571866619366972136e-03,-4.077597967386871643e-03,5.255670547485351562e-01
-1.234519129214475992e-02,-2.758340537537100623e-01,2.405298514780666586e-01,3.009350074189710150e-02,-3.428289646608358859e-02,1.204662054447252486e-03,4.541465342044830322e-01
-1.720909051626727179e-02,-2.952211171497206021e-01,2.498629131982891827e-01,2.045087513073345215e-02,-1.485020840951184300e-02,1.583265011327121205e-02,4.749059677124023438e-01
-1.544156627567528500e-02,-2.684016060914997115e-01,2.106673909756273388e-01,6.514668471537400640e-03,-1.434500012842129628e-02,1.643481323320104825e-02,4.169718623161315918e-01
-1.549062615918773977e-02,-2.833661707577340150e-01,2.711403248840417723e-01,7.500460102972625678e-03,-2.607677264082564495e-03,-6.394689798782489214e-03,4.806327819824218750e-01
-1.758369762725146834e-02,-3.106873614540947015e-01,2.970326029253220201e-01,4.799376537496556107e-03,4.881170776950858464e-03,5.195330590684403907e-03,5.266212224960327148e-01
-3.634647980896097558e-02,-2.952493426944609589e-01,2.593090718775897252e-01,3.428205194608616689e-03,-1.916878726830573143e-02,-4.275669097691876461e-03,4.818520545959472656e-01
-2.313372433124408559e-02,-3.052645372403985924e-01,2.536985799431127897e-01,5.835528084671052053e-04,-1.974253273499415248e-02,-1.395931275088415670e-02,4.858927428722381592e-01
-2.351187037362997834e-02,-2.867651508102625479e-01,5.056878758765230852e-01,1.141912093292062891e-01,-4.960690676600390536e-02,-1.971038883423777491e-02,7.323490977287292480e-01
-2.617967008822811442e-02,-3.147621915220930044e-01,2.450189954323221952e-01,1.532409344480174839e-03,-1.138509440911013824e-02,4.045724771151444459e-03,4.853213429450988770e-01
-2.105915665055704128e-02,-3.110803740504258785e-01,2.712784125630169907e-01,-3.456960355777695306e-03,3.001004061904772799e-03,-5.420214219245588286e-03,5.044885277748107910e-01
-2.096493748199690713e-02,-3.164542279107056544e-01,2.918247448404904798e-01,-2.203358139280766487e-03,1.703259987773310131e-03,1.059581186767057743e-03,5.268813371658325195e-01
-1.841765821488444005e-02,-2.915292747676693219e-01,2.878319760146106909e-01,7.042789888618564836e-03,3.986711745727664936e-03,1.468008971844546665e-02,5.028539896011352539e-01
-1.817804305116594091e-02,-2.874374033907330372e-01,2.882485576381277337e-01,1.443809690154197951e-04,6.695063552667127570e-03,5.817090528346006290e-03,4.991413950920104980e-01
-3.234960306856213275e-02,-3.050779259930475606e-01,2.151003784358240245e-01,-4.573976994659872258e-03,-2.422271434958963958e-03,-2.934334231041152603e-03,4.507827162742614746e-01
-2.110825067869489743e-02,-3.061115833030137456e-01,2.933505571234113485e-01,1.340099488852417976e-05,9.272536549948812027e-04,-1.541111472865555479e-03,5.193676352500915527e-01
-2.142129794472351009e-02,-2.985110633459605589e-01,3.055056564727302582e-01,-1.922512364322544057e-03,7.277913651931366967e-03,1.225992896563733812e-03,5.238536000251770020e-01
2.592156688076435039e-02,-2.824871721443553141e-01,2.800844183895527806e-01,1.877538835121962896e-03,1.135351143815384886e-03,2.409152045609358104e-04,4.879706501960754395e-01
-2.170383573332003435e-02,-3.203405725881313670e-01,3.046404444601770178e-01,-1.445695209550437428e-03,1.334223614845996865e-03,2.264343183456139427e-03,5.414516329765319824e-01
-1.840063964751457309e-02,-3.131026274456987779e-01,2.980597960751204534e-01,2.164841034476000427e-03,-2.235570000089571671e-03,-3.773741337081175200e-03,5.294617414474487305e-01
-2.069694401277874518e-02,-3.237440809724556612e-01,2.892656537100394276e-01,1.635208380525383963e-03,-2.135375874855228746e-03,5.255708820948939465e-03,5.309917330741882324e-01
-2.079367072944723893e-02,-3.075728871395616015e-01,2.557027802030759633e-01,-2.073079329424833139e-03,4.116628975687545294e-03,-1.418511555772418876e-03,4.879096448421478271e-01
1.524453752565524227e-02,-2.956030894592268643e-01,2.927606993000919644e-01,2.673493959612443203e-03,6.109118290075227047e-03,1.342918976986617711e-03,5.099465847015380859e-01
-1.591200579162416889e-02,-3.214015644041139930e-01,2.716867364873045698e-01,-1.662086270871738353e-03,-6.376317229233441743e-04,-1.151452211038458615e-02,5.141036510467529297e-01
-1.033408690980175924e-02,-3.193544703715908706e-01,2.725086494480764565e-01,-1.781731523791318581e-04,1.581291131763817165e-03,-1.071806213739457878e-02,5.130789279937744141e-01
-1.913294041150244429e-02,-3.097907417338786606e-01,3.093089268594157448e-01,-1.428427134805940408e-03,-1.095182944991206220e-02,-8.804494571239574255e-03,5.370463132858276367e-01
-1.796473615558400599e-02,-3.123114350238164749e-01,3.016915137981199813e-01,5.770251466991247434e-04,-3.563123298034852511e-03,-2.736454237328186760e-03,5.319505929946899414e-01
-2.310996534574511971e-02,-3.108338901264029452e-01,2.890279331702494403e-01,-6.811583397771393258e-04,5.257421007849732986e-03,1.422627229322489043e-03,5.197259187698364258e-01
-2.323552241335577820e-02,-3.203289525105950108e-01,3.122452423473596195e-01,-3.439944197225357474e-03,-2.504829598743980694e-03,-6.868416962395727798e-03,5.483400821685791016e-01
-1.588009003671152393e-03,-3.011135086297434538e-01,2.958373722193122779e-01,1.378434712262095220e-02,-1.124472455316446150e-02,-5.773303777397851416e-03,5.179895758628845215e-01
2.565449110099458571e-02,-2.778878785374001015e-01,2.804644200551997812e-01,4.525239000947098430e-04,1.227559286013053114e-03,5.909130344012610133e-05,4.841661155223846436e-01
-2.139566708547667798e-02,-3.314074283012524158e-01,3.018373293182540773e-01,5.669974201327445534e-03,3.552003379936517768e-03,3.274433957792239822e-03,5.485976338386535645e-01
-2.514358065500488237e-02,-3.205278492103457166e-01,2.967258398688227272e-01,4.657933122807952561e-03,-9.366161722782777223e-04,5.857396564396944935e-03,5.348809361457824707e-01
-8.212265889014788711e-03,-2.901161564648609414e-01,2.917448539706483657e-01,8.452206094954851576e-03,5.663607846543869048e-03,8.724719938484993415e-03,5.045216083526611328e-01
-2.378024289005420400e-02,-3.284624886988010140e-01,3.000402097397567580e-01,3.491355758519190406e-03,-2.857134588592700184e-04,1.944443964061447119e-03,5.444276332855224609e-01
-2.416693442320713009e-02,-3.253981294285931414e-01,2.962394235409436805e-01,4.522481623941667500e-03,1.400012811241362455e-03,5.396918439807374228e-04,5.385025143623352051e-01
-2.429015687114403910e-02,-3.126509772288758593e-01,2.709925477429739882e-01,-3.340730325356840082e-03,-1.785215446713500327e-03,8.367151449249257342e-03,5.057122707366943359e-01
-2.034167857128554857e-02,-3.173678373007049469e-01,2.974762196618965238e-01,-2.243859758101587974e-03,-2.259320879880323974e-03,-9.653848063190738696e-03,5.328630208969116211e-01
-2.441641234182519854e-02,-3.046366657309359516e-01,2.934710551455952388e-01,1.995120422851001576e-03,9.410787822081522966e-03,-1.931564171469214025e-03,5.185973048210144043e-01
-2.843430042212199971e-02,-2.615225483687711461e-01,3.108681545216750997e-01,5.177673399830727378e-03,-9.640405441550528240e-03,-2.519196995647760354e-02,5.008062124252319336e-01
-2.471815277452604070e-02,-3.068852158872817926e-01,3.147418429252499816e-01,-3.147450696056416810e-04,5.830933833877027274e-03,-7.323035526738588818e-03,5.393505096435546875e-01
-2.252222050988849505e-02,-3.016700108953137005e-01,3.151474206536438172e-01,8.147393870354846957e-04,-2.302913970352299562e-03,-4.533299963437929445e-03,5.350547432899475098e-01
-3.296039336917001156e-02,-3.288609639004084206e-01,2.694022502105299366e-01,-5.627098118255181337e-03,-2.125372124280018246e-02,-5.042124685883439712e-03,5.195921659469604492e-01
-1.903757079298140295e-02,-3.277052681151922942e-01,3.007077518631933177e-01,-2.840058584627270111e-03,1.662567612124182066e-03,5.162294519601792579e-03,5.443531274795532227e-01
-1.593182960394261272e-02,-3.049569508838517184e-01,2.864142992621058204e-01,-1.425648474362808428e-03,1.699015205771133540e-03,-4.450705995579648348e-03,5.122582316398620605e-01
-2.504717739160493978e-02,-3.265573166410948303e-01,3.169541570196142688e-01,-2.622464623600336865e-03,-4.801148264230821992e-03,2.598419298175040464e-03,5.577635765075683594e-01
1.531142231993888950e-02,-1.964126618044093053e-01,2.982582775917008711e-01,-4.131765761789539526e-02,-1.984186898025004381e-03,-8.619009567110227227e-03,4.360605478286743164e-01
7.283062032563299149e-04,-2.322057999798258776e-01,2.880601644776410453e-01,-2.910015991311044881e-02,-8.049297764521267870e-03,-6.068939726692389397e-04,4.544042348861694336e-01
-1.105786495018897669e-02,-1.891691182855698428e-01,2.847637283204218495e-01,-1.944296527397767690e-02,-2.185617937543605192e-03,2.320490333443961384e-03,4.160381853580474854e-01
-1.152494979034712069e-02,-1.718006871534697722e-01,2.901485821906660822e-01,-2.326774837047072136e-02,-5.335415290250364144e-03,-1.290579255088695337e-02,4.089687168598175049e-01
1.190294821206218205e-02,-2.507032171128709686e-01,2.871318791838967655e-01,-1.046518126563401874e-02,-6.764999886442851253e-03,3.253251788995299622e-04,4.663217365741729736e-01
9.264915801285144442e-03,-2.658193049389930285e-01,2.820951959972292089e-01,-1.968898194148151898e-02,3.174588956773200269e-04,9.933067828189826032e-03,4.760443866252899170e-01
1.382140165643624095e-02,-2.451199438561931787e-01,2.866463538241248998e-01,-9.049640599775359007e-03,-1.935702224461147234e-03,-4.775273711309646076e-04,4.608550071716308594e-01
-1.610303299997804805e-02,-3.128530894509113369e-01,2.984959701415165756e-01,-1.439444327466104590e-03,3.164124139876470145e-03,-1.739927419195352095e-03,5.295618176460266113e-01
-2.693784244615812784e-02,-2.203911992384371688e-01,2.961447018769912121e-01,-3.246990089616640790e-02,-8.261783905019668556e-03,5.425562738373333922e-03,4.558112621307373047e-01
-1.940671632806241498e-02,-2.596881275168627656e-01,2.995926933047869389e-01,-2.267485573696794571e-02,-9.830903754120426039e-03,2.968412915925672246e-03,4.878567755222320557e-01
-2.673341495655668504e-02,-2.404344025741336210e-01,2.863552017614926504e-01,-3.632363411626796795e-02,-7.074086525418753907e-03,4.674833369254289238e-03,4.634369909763336182e-01
-4.026309038002049909e-03,-2.582792000261748266e-01,2.940902662382865462e-01,-2.144750299147146419e-02,-8.751488110062854639e-03,2.302863412409871056e-03,4.805628955364227295e-01
-8.338048477145573734e-03,-2.608979102761502245e-01,2.908731713887531822e-01,-3.292930513255488967e-02,6.310391580476178673e-03,7.223803782159979141e-03,4.820908904075622559e-01
-3.944380619854068182e-03,-2.921390801419464500e-01,3.095253132337151825e-01,-1.947084188933087545e-02,-1.096811401178620325e-02,7.066124730944342396e-03,5.227884650230407715e-01
-4.538554835107901433e-03,-3.072786712488704275e-01,3.083416231286969511e-01,-1.726017785642889333e-03,-1.033931251388376781e-03,4.899236312577941350e-03,5.332458615303039551e-01
-2.218827119489244146e-02,-3.288128902871245707e-01,3.418730966290040030e-01,1.034538416037202513e-03,-1.451786023757394885e-02,3.775616208701533354e-03,5.821235179901123047e-01
-1.656186498847874930e-02,-3.247854810585479313e-01,3.067551237748192272e-01,-7.787893640837830443e-03,-9.775774460912881741e-03,1.191734997523427944e-02,5.477995276451110840e-01
-2.858231052415566645e-02,-3.293267414669083237e-01,3.228708551446731745e-01,7.515824635450221031e-03,-9.848795433431695515e-03,1.285830014066029724e-02,5.662336945533752441e-01
-8.233679985343926935e-03,-3.086459254014077280e-01,3.166959330736210942e-01,-2.157970800653449470e-02,-8.959047053806371399e-04,-1.719224935086488548e-02,5.438067317008972168e-01
2.596878026791993484e-03,-3.018149211422317402e-01,3.021565525144002118e-01,-2.284053927372120540e-02,1.632669097021645713e-02,-1.305917384201655922e-02,5.258026719093322754e-01
6.475496632910315159e-03,-2.758611296103102295e-01,3.150823711259490012e-01,-3.759170093458210488e-02,-6.564955533653127687e-03,3.661751316794437886e-03,5.162287354469299316e-01
-7.363878894987051400e-03,-3.020581112996584272e-01,2.954298210526226653e-01,-7.524810594109632850e-03,2.117104709372031462e-03,-5.273274763859019327e-04,5.176334977149963379e-01
-1.950644516410391174e-02,-3.168499149701934359e-01,2.921448408255398199e-01,-2.035478833280241970e-03,2.587927248834545266e-03,4.070738647752108422e-04,5.274847745895385742e-01
-5.963830348836786539e-03,-2.854530738235446230e-01,2.874946046368557218e-01,8.477957747734412089e-03,1.187457877352548086e-03,7.113004934880235537e-04,4.964593946933746338e-01
-8.137273367450757744e-03,-2.407998832832830005e-01,2.978151978969597047e-01,2.903104527545563932e-02,9.342851105981292426e-03,1.025930823551034730e-02,4.711990356445312500e-01
2.499149956969703990e-03,-2.385002506785001142e-01,2.975443458579419276e-01,2.364092246368192096e-02,1.496508239735509609e-02,1.854080838915851334e-02,4.686340987682342529e-01
6.383053262657496958e-03,-2.586916651299912551e-01,2.889129116246659246e-01,1.762153471096544397e-02,8.240946164425444476e-03,2.327217631331952342e-03,4.755321145057678223e-01
-4.902328366180482011e-02,-3.030882647130792584e-01,2.689927367007794445e-01,-9.560372206471941681e-04,-2.101480296662429359e-02,-8.185172274429322256e-03,4.980045557022094727e-01
-4.574607892216518007e-02,-3.060677600372907481e-01,2.627251293263404563e-01,4.847907571057567810e-03,-1.470942810141844491e-02,6.748202345976197364e-03,4.940443634986877441e-01
-3.370749685262564715e-02,-3.242085831208671998e-01,1.935212556640040493e-01,5.977238075707084000e-03,-6.603563020116383353e-02,-2.926454773285533037e-03,4.639493227005004883e-01
-4.149883448918482293e-02,-3.076819648559359077e-01,2.733671068299711182e-01,9.434234856469677841e-03,-2.564045605163265545e-02,7.023427674337482177e-03,5.061554312705993652e-01
-4.427260360867382033e-02,-3.098780281736258635e-01,2.401528968948146714e-01,9.888773071253459737e-03,-2.940561390093362690e-02,5.652606052879444870e-03,4.795543253421783447e-01
-4.329053304175148331e-02,-3.092910469324361977e-01,2.732621171484373446e-01,6.417693746956579411e-03,-9.865219878741110851e-03,9.744659307389673744e-03,5.058314204216003418e-01
-4.115555130340796397e-02,-3.020889563990251658e-01,2.487115890632896620e-01,7.216803656395510145e-05,-2.219982801901977318e-02,8.056251547882722214e-03,4.789764583110809326e-01
-3.462710474630732033e-02,-3.145955531571987263e-01,2.700492450208866746e-01,1.259550846784262407e-02,-1.811955056942368344e-02,1.914274283371679083e-02,5.089892148971557617e-01
-5.019234591855817329e-02,-3.262799095816115158e-01,2.608423299278104790e-01,-3.956709387187830503e-03,-3.049506205644971282e-02,3.968737793168816176e-03,5.115894675254821777e-01
1.166543303369855546e-02,-3.019359675039862689e-01,2.923236063782567173e-01,5.763584780014180398e-03,5.192202608296900626e-03,2.930717210488226459e-03,5.151076912879943848e-01
-1.899637707502399575e-02,-3.238475350835117728e-01,2.481399985530265417e-01,1.237797568341365666e-02,-8.965021228413597165e-03,7.381489501278037067e-03,4.965854585170745850e-01
3.283046755869210940e-03,-2.975530915611570015e-01,2.943916998608367419e-01,3.739045574531490827e-03,8.893029426882260655e-03,2.309671647335477442e-03,5.129501223564147949e-01
-2.157594923098232059e-02,-3.035280600373863602e-01,2.282680909218773868e-01,8.334213855477353924e-03,-2.329952440570465244e-02,1.255412113041910575e-02,4.633280634880065918e-01
-3.055514347484980520e-02,-2.273565206442200726e-01,5.010215196997828135e-01,1.187568322780447050e-01,3.325035155390558550e-02,-5.152751719140062636e-02,6.924673914909362793e-01
-2.410628044524774569e-02,-3.076964092543074125e-01,2.409589154762201701e-01,-1.023579338013399023e-02,-5.641243454269387336e-02,2.003188820450142044e-02,4.867422580718994141e-01
-3.066324075933911722e-02,-3.712996671835094298e-01,2.371380663869659955e-01,9.100301510394568499e-03,-5.915233111235417007e-02,1.923642420719407983e-02,5.392857789993286133e-01
-2.626461969884069658e-02,-2.827231890485695787e-01,2.970113647716177141e-01,-2.444466542307129498e-03,-7.652727462039359690e-03,2.463002725426608960e-02,5.051720142364501953e-01
-9.465650468455117511e-03,-2.683670748362342873e-01,2.302532758570638161e-01,-2.743314780165851795e-03,7.912547392078708719e-03,1.094290315585622238e-02,4.325833320617675781e-01
-3.846955296661599966e-02,-1.950125354247270459e-01,3.024719224200890788e-01,-3.589515416842570250e-02,1.596395980289077796e-03,2.395731176501133056e-02,4.468933641910552979e-01
-2.854246750674598737e-02,-2.606162441519020434e-01,2.885458351284269085e-01,-4.083250572588552167e-03,-3.386241802211957790e-03,1.729211924006249582e-02,4.785107970237731934e-01
-3.457397954907195925e-02,-1.790464502722568518e-01,3.292682305551238864e-01,-3.022494396025844632e-02,9.460959684931937244e-03,-1.612347673827889058e-02,4.578293263912200928e-01
-1.098632728553597913e-02,-3.051742080156334969e-01,3.026976472177463906e-01,2.391254117109015143e-02,-1.382811814345978781e-02,1.338034574038533125e-02,5.291997194290161133e-01
-1.220446338848896195e-02,-2.211810681316633831e-01,2.914758054457445291e-01,-1.482408911393179665e-02,-1.007847534577304728e-02,2.656917659542931687e-02,4.499297142028808594e-01
6.998688349328136167e-04,-2.978078432923985663e-01,3.053802687161630280e-01,1.344191903228223080e-02,-1.693526074622126072e-03,-3.726109328800137959e-04,5.229125618934631348e-01
6.020643189850219748e-03,-2.992613863798401219e-01,3.003115120675469707e-01,4.058823686741285658e-02,-1.668618605017739565e-02,4.202187543400755405e-03,5.248584747314453125e-01
1.425899783353054735e-02,-3.012832027341206254e-01,3.101519388445658221e-01,5.957662633803823687e-02,-2.792991534787602100e-03,-5.112009780233938913e-03,5.396630167961120605e-01
-7.326390886902907351e-03,-2.579455273945006066e-01,2.974691950272309038e-01,-2.377841948821749797e-03,8.142305687454356317e-03,-2.191010677395096792e-02,4.834810495376586914e-01
-2.607635555454061380e-02,-3.417065411658776197e-01,2.088523006249032865e-01,3.247149907074826664e-03,9.424800489535202844e-03,-2.596978734063698155e-02,4.809218943119049072e-01
-1.649444801309074907e-02,-3.130607709324041976e-01,3.051650494345251596e-01,-2.724418102622953690e-03,8.493333439710846339e-03,-4.242758779182799998e-03,5.358194112777709961e-01
-1.998462618095668206e-02,-3.246296960732616976e-01,2.962853654211154986e-01,3.083702966456629800e-03,5.371126471200047235e-03,4.644149961077171165e-03,5.379267334938049316e-01
-1.813891627331136805e-02,-3.267895718562335294e-01,3.203974950805397182e-01,5.506694573064895362e-03,5.411941984334424707e-03,-5.730157113248617561e-03,5.609268546104431152e-01
-2.153827648352506230e-02,-3.226947626243169553e-01,2.506038755740480073e-01,1.983040259046824939e-03,-6.079360096600049806e-03,1.136823414927704695e-02,4.972165822982788086e-01
-1.889974487653275914e-02,-3.284403171042787339e-01,2.798687507339884806e-01,3.120693123735479232e-03,-2.219954165135503039e-03,1.068873820552524237e-02,5.272055864334106445e-01
-1.695511114421187349e-02,-3.117835778119023571e-01,2.929308603026982150e-01,1.067079271094976967e-02,7.396766959584061447e-03,2.052866803809206067e-02,5.254392027854919434e-01
-2.126811234437299414e-02,-3.208590422364477890e-01,2.417759907801112496e-01,9.876786121827256862e-03,2.673024930629248766e-04,2.064126217545842953e-02,4.892071187496185303e-01
3.940193668122103469e-03,-3.042372014970123884e-01,2.915833075855658874e-01,8.708346057872790816e-04,3.317583032656979368e-03,1.035362623741140076e-03,5.161351561546325684e-01
-4.377082352696052073e-04,-3.107760427097388534e-01,3.004782043500587863e-01,2.072813352520978120e-02,-8.788571036424322122e-03,3.337243338947105346e-03,5.308485031127929688e-01
1.158033969996454665e-02,-2.641141305311764942e-01,2.954231187163065542e-01,3.960280782261880322e-02,-1.480654899513805627e-02,-1.469703081671762390e-03,4.900993406772613525e-01
8.443685224371612688e-03,-2.731437762719438611e-01,2.910134854254421977e-01,1.611936901285913881e-02,6.283900923122949858e-03,2.696748859873470284e-03,4.895151555538177490e-01
-1.632222216651165597e-02,-3.055459648267077055e-01,2.770546707193310421e-01,1.342119929835263945e-02,-1.492017299727029823e-02,-1.230892813258687400e-02,5.061963200569152832e-01
-1.203862702949495996e-02,-3.135124579964271296e-01,3.019483710058358250e-01,9.386506963740805232e-03,3.414797706492671454e-03,1.393735265088810564e-02,5.338681936264038086e-01
1.113047188831557156e-02,-2.951030614676403707e-01,2.952399171717194903e-01,2.412385879193558631e-03,-3.152625853365880609e-03,-3.166215242587158262e-03,5.114473104476928711e-01
-1.918028104285228463e-02,-3.107459210854596199e-01,3.012187714536488370e-01,-2.794709672586244333e-03,-2.963271955486068265e-03,-1.783463328154967227e-04,5.302200317382812500e-01
-2.124011462023240801e-02,-3.225481766988069765e-01,2.561898777220921741e-01,1.270439922467628095e-02,-6.114767727095416112e-03,1.690792425668899077e-02,5.027920603752136230e-01
-2.059366339035926738e-02,-3.043739457349778355e-01,3.104937711598574346e-01,-5.355737338832736345e-03,4.316237835660750345e-03,-1.102038638963506164e-04,5.331493020057678223e-01
-1.561064379759390282e-02,-3.398449682837258456e-01,2.630931577078177708e-01,-2.543308855225410222e-03,2.185622849805236856e-02,3.217547201557261621e-02,5.269984006881713867e-01
-1.629230932179383945e-02,-3.249159736014721744e-01,2.921032576489180910e-01,2.681340797546350949e-03,5.774397515257803128e-03,3.644369803801339892e-03,5.345053672790527344e-01
-1.881643779054797613e-02,-3.363389315869965701e-01,2.948329078814176385e-01,6.418658877272852281e-03,6.614065343025936350e-03,6.650490273266397578e-03,5.469686388969421387e-01
-2.259344133691529311e-02,-2.900152883433369522e-01,2.804154090777424835e-01,-1.708963769066967637e-03,1.559937917369091410e-02,-6.875335439481462287e-03,4.952177107334136963e-01
-1.524532579569379959e-02,-3.258019079147723707e-01,3.064049682131089192e-01,3.151168712132455200e-03,9.237433794470957527e-03,1.731612209219389028e-05,5.477962493896484375e-01
-3.028820255982479087e-02,-3.051731481953982028e-01,2.628196860656827338e-01,7.599909824479616702e-03,1.213776514778326480e-02,-6.619362129222886894e-03,4.927389025688171387e-01
-1.949594213162213208e-02,-3.141431133819720389e-01,2.628932516350941384e-01,-7.439258086940131118e-04,8.402595875698661704e-03,-4.186307809093921858e-04,4.999797940254211426e-01
2.620924903481380505e-02,-2.292196700803363352e-01,2.929197631860064877e-01,3.700715636437784672e-02,-8.201566428926743493e-03,-4.569482622053091907e-03,4.570306837558746338e-01
1.533497555977508114e-02,-2.768684654957317415e-01,2.928507887452455605e-01,3.524773750494202690e-02,-6.104543139165245769e-03,-8.479927139288969198e-03,4.975376129150390625e-01
1.620310120686316649e-02,-2.989618055628217586e-01,2.870484895625129984e-01,1.201871295382825507e-02,-7.797717101017016816e-03,-8.660732133791001694e-03,5.088102817535400391e-01
-1.201872637202799909e-02,-2.241957158898649216e-01,4.546740526365219415e-01,1.046906485531819142e-01,-4.408225338160105811e-02,-1.126916026922729179e-02,6.331933140754699707e-01
1.273379882790743635e-02,-2.647731541262158261e-01,3.080701468052686187e-01,7.413693426002145037e-02,4.982258035818458441e-02,6.129612550247479086e-03,5.198461413383483887e-01
-4.274012574979357826e-02,-3.057677520904240609e-01,3.185293120846856008e-01,1.335064953741369187e-01,2.791217542136566546e-02,2.572714683943743905e-02,5.937321186065673828e-01
-2.340185935379400506e-03,-2.187054496635459644e-01,3.133918445119149854e-01,5.869162316471669694e-02,-3.588696520010909927e-03,3.192923038127766424e-03,4.745707809925079346e-01
-2.132579517252183865e-02,-8.527020045530164793e-02,3.259449261415863219e-01,8.495051270881542882e-02,-3.012425612996611282e-02,-3.059958218026944538e-02,4.172206223011016846e-01
-9.896321108205347050e-03,-9.378464211133380468e-02,3.530644594159704774e-01,8.272366874451188290e-02,-1.527974278180338659e-02,-3.236743043228022809e-02,4.399987757205963135e-01
1.784400951988496242e-02,-3.094106998921590246e-01,3.688865981687308726e-01,5.443747829937109484e-02,-1.354033603164915946e-03,-1.465432115918337969e-02,5.956063866615295410e-01
3.454666792005102460e-03,-2.025896242058141949e-01,3.292822690457464785e-01,6.190669515831895980e-02,-2.047736253068294793e-02,-3.939670855489087187e-02,4.828709661960601807e-01
-2.058028783329880068e-02,-3.224168882067400821e-01,3.018193718857986041e-01,-5.021952992377797659e-03,-4.019969440718365421e-03,-2.821935632038579268e-03,5.408390760421752930e-01
-2.851064784424091683e-02,-3.333577096272622997e-01,2.872847419413116499e-01,2.399479687599886252e-03,9.044413266716363684e-03,-1.192823610639897475e-02,5.381610393524169922e-01
-2.035984284214550910e-02,-3.204387862093929229e-01,2.971961499854958721e-01,-6.256491494527726370e-03,-3.844503054450866975e-03,1.463389148952708510e-03,5.351160764694213867e-01
-2.214597021662290804e-02,-3.098442070381469682e-01,3.151193539647624275e-01,-2.757909102102629965e-03,-1.116084384240378230e-02,-1.050342540246019564e-02,5.424723625183105469e-01
-1.145060821807843132e-02,-2.585284868686959503e-01,3.077356498556759745e-01,7.333545135998693551e-03,-7.407612683716498399e-03,-9.191406625234904704e-03,4.923115074634552002e-01
-2.048147265709406722e-02,-2.337393654579529023e-01,3.007844602841191484e-01,1.553660629775101623e-02,4.082589979318585610e-03,-1.048238355592522389e-02,4.672333896160125732e-01
-2.020675853302241615e-02,-3.199066323944358969e-01,3.174274302272273585e-01,-6.268046766864908588e-03,-4.363816915142267050e-03,2.094024214230777101e-03,5.524436235427856445e-01
-2.789429609023654985e-02,-3.205801939868606065e-01,3.096869814080372985e-01,-9.594468410950580950e-03,-7.587701346929130904e-03,-4.267150876061668457e-03,5.467494130134582520e-01
-2.240128715141030680e-02,-3.228819283689701725e-01,3.060345277822389964e-01,-4.319795989467339198e-03,5.066491955778963603e-05,2.575470153598687431e-03,5.449066162109375000e-01
-2.393960217838071378e-02,-3.136060037524959210e-01,2.555952180812342545e-01,-5.838768959071634866e-03,-4.681961127467263416e-03,1.340279578317159909e-02,4.936852455139160156e-01
-2.399212849350812471e-02,-3.144170712161491466e-01,2.964681282108685978e-01,-3.526560436323022615e-03,3.536897935924868640e-03,-2.669682982824196746e-04,5.293260812759399414e-01
-1.347319807194687080e-02,-2.490332568398676005e-01,2.824095603417774436e-01,-3.395352927912243055e-03,8.026281146197565899e-03,-2.842873865897451932e-02,4.640966951847076416e-01
-2.444228275591896204e-02,-2.335564387202690162e-01,3.007750611868528212e-01,-1.523270089935110753e-02,8.057930377179244041e-03,-5.285155135464071965e-03,4.674155414104461670e-01
1.777827674676510025e-02,-2.643870214606793279e-01,2.804927292106233483e-01,1.909558118152046222e-02,-5.381142465780679868e-03,-3.804769873929390606e-03,4.732750356197357178e-01
-3.462773368180739608e-02,-1.138582049973899113e-01,2.945404293615157543e-01,-1.223435589947749653e-03,-1.221382018414819606e-03,-2.207927575808417420e-02,3.770686089992523193e-01
-2.410744499633976634e-02,-2.108815637377272900e-01,2.986550963813833781e-01,-5.026902413526217195e-02,8.598127304482365216e-03,-3.425412417319376071e-04,4.551340341567993164e-01
-1.953846802559682308e-03,-2.711761305882954831e-01,3.074995388990225398e-01,1.305930309045786469e-02,-1.299022889542479978e-02,-1.357251843226060101e-02,5.031145811080932617e-01
-2.367203160180814808e-02,-1.942974551031860786e-01,2.982461841068898001e-01,-2.322672474886079350e-02,1.807160995421761354e-02,-2.027278631303188611e-02,4.376105070114135742e-01
-2.206923211890002290e-02,-2.159328229001645783e-01,3.035150962524656437e-01,-1.349414260725613317e-02,1.144092341651639470e-02,-2.702593705251687267e-02,4.580800831317901611e-01
-3.289994984847304654e-02,-2.549505126262543997e-01,2.905732591230235640e-01,-3.550725397021467500e-02,1.682307381730539092e-02,7.859531174909409335e-03,4.801931381225585938e-01
-2.790684331280789826e-02,-2.604207485639119524e-01,3.014275216421724579e-01,1.395247995084906035e-03,9.514315000573363157e-03,-4.652000817410373301e-02,4.958511888980865479e-01
-1.958546465227941485e-02,-3.143955082539235391e-01,2.976565918445078784e-01,-2.691213699988543283e-03,4.101535867045533364e-03,3.796691792861818206e-05,5.302394032478332520e-01
-2.265659472230985294e-02,-3.214228279905353425e-01,3.040022660480741212e-01,-3.159432950126717533e-03,4.033420287198190811e-03,-5.176989345491589010e-04,5.418869256973266602e-01
2.552670246969399731e-02,-2.243141660966070372e-01,2.872081106289129382e-01,3.450546666959481562e-02,-5.069028491206241209e-03,-2.988656639630792033e-03,4.471600353717803955e-01
-3.884402390113554648e-02,-2.649119339291761688e-01,3.036110859857377164e-01,-3.031482030604957644e-03,-4.233049180401321498e-03,-3.842664262714910999e-03,4.959092140197753906e-01
9.924205150456048841e-03,-2.792183649604829676e-01,2.903323584805184154e-01,1.588220294484455827e-02,-1.036685596095340139e-02,-2.149213259715872151e-03,4.943714141845703125e-01
1.124586848708765928e-03,-2.862489178679536450e-01,3.009079231417224887e-01,5.559738338141119972e-03,-1.169510162746033137e-02,-1.054491655376132465e-02,5.093525648117065430e-01
1.281077202203527617e-02,-2.500973385340343746e-01,3.059517564576080817e-01,2.393697555224794798e-02,-1.774396928008320842e-02,-2.657862171608679422e-02,4.867280721664428711e-01
-1.575183635990722074e-03,-3.084014125341662527e-01,2.996720340617184397e-01,5.628940128263951355e-03,-1.247127112750169922e-02,-1.094217276821745320e-02,5.274880528450012207e-01
-4.734892033994963188e-03,-2.977499415407098282e-01,3.008656399643043766e-01,6.985179582844868937e-03,-6.781319157140390172e-03,-4.481461223233633787e-03,5.187867283821105957e-01
-2.910534127640978033e-02,-2.626222808106046802e-01,2.978666993222041093e-01,2.970496233141584584e-03,7.311902947730397097e-03,1.875258180124072735e-02,4.889133274555206299e-01
-2.041106184561564119e-02,-3.093575010083158272e-01,2.913065976731922802e-01,1.204406070019477509e-03,5.072512156939515578e-03,1.071133138048106304e-03,5.203965902328491211e-01
-2.000085610808767511e-02,-3.140287846480021017e-01,2.934038630105625933e-01,-3.163660617376485001e-03,3.037859121999786968e-03,-1.302949738018516169e-03,5.262010097503662109e-01
-2.275891392650960729e-02,-3.156559465910921403e-01,2.473866126132854837e-01,-1.158295116255009900e-03,-1.484752413126276538e-02,-1.005568938838834712e-02,4.887338876724243164e-01
-2.113830972005299041e-02,-2.843645273809619067e-01,2.639755996900943202e-01,-9.347859547296798188e-03,1.008783036622004766e-03,1.122540812224660789e-02,4.756791591644287109e-01
-2.059987577469235207e-02,-2.873096057387891644e-01,1.854640804267337906e-01,-4.030067539525857175e-03,7.813081937080892632e-04,-2.545778219710798790e-02,4.129776656627655029e-01
-1.814427779373883193e-02,-2.637219290792647830e-01,3.023981577326018688e-01,7.276167001386946815e-04,-3.079773735763448057e-03,-3.283652940264756973e-04,4.917359650135040283e-01
-1.804730996367482840e-02,-3.220699900291327800e-01,2.309649513174524271e-01,-1.893128735415871753e-04,8.008056747677287646e-03,1.237138499976878428e-02,4.804101586341857910e-01
-1.619084112403820080e-02,-2.894424424763065162e-01,2.642548233538767333e-01,-5.652726417874589376e-03,1.210012557896125458e-03,-2.536009034569111642e-02,4.816410243511199951e-01
-2.854041032747818216e-02,-2.148507671928360785e-01,6.604771913897178326e-02,-2.605747617195137630e-02,3.294385392152213848e-02,6.587015748754618261e-02,2.821182608604431152e-01
-1.535522399922191819e-02,-1.669520979694900376e-01,9.520362175080616940e-02,8.083398912175153439e-03,-6.319539323026682545e-03,2.501594572859896365e-02,2.327197343111038208e-01
-1.799038588514197470e-02,-2.400968956439735735e-01,1.231026184776815580e-01,4.909220365285762999e-02,-4.108980976844940625e-02,2.777034847519202834e-02,3.393892049789428711e-01
-1.481456264131533057e-02,-1.509700164350341323e-01,1.775845964277460443e-01,1.051594513558193507e-02,-1.272340350230315859e-02,1.617629575750315768e-02,2.887115776538848877e-01
-7.528670022330218731e-03,-9.697478576754740842e-02,1.708624070341433210e-01,1.517357701946480883e-02,-8.134661906522159050e-03,2.168298535322484011e-02,2.409980446100234985e-01
1.550454182058403144e-02,-3.090735361300493977e-01,2.942195164015818376e-01,-1.180231378338533407e-02,7.639442218655877886e-03,-6.348577318168157832e-03,5.236521959304809570e-01
2.059855947633024154e-02,-2.713402720312617644e-01,2.921175798346148933e-01,-1.744048118504518824e-02,-1.977439448100356406e-03,2.288972066543119497e-04,4.890216886997222900e-01
2.527058587742308376e-02,-2.678396982020267436e-01,2.906556145456464790e-01,-1.861602293851894949e-02,2.253631007317190120e-03,4.759896927758832763e-04,4.849593043327331543e-01
1.195966391104584872e-02,-2.754798872830904188e-01,2.929753961849918542e-01,-2.285268040299548442e-02,3.720725640991807189e-03,-6.289873122442879265e-03,4.940580129623413086e-01
-5.082226405842096492e-03,-2.986742390627473154e-01,2.971626675494585812e-01,6.934757380986085289e-03,-5.915441951685556331e-03,-7.428961805544125746e-03,5.164298415184020996e-01
-3.403234141014103292e-02,-3.184260434250485439e-01,2.713539499834757840e-01,-7.299862985034515171e-04,2.300376448717965025e-02,5.642166178983601052e-03,5.125184059143066406e-01
-4.338521071394954576e-02,-3.022938372682711372e-01,2.965860735846441165e-01,3.913123600376598927e-04,2.078103645200504723e-02,1.137766379903387302e-03,5.214744210243225098e-01
-4.034236049261141765e-02,-3.239195326819244158e-01,2.673824060134892822e-01,-4.070768786798941753e-03,3.244342381817441612e-02,1.547932986610929020e-02,5.160431265830993652e-01
-3.526697624356393140e-02,-2.990684178314014785e-01,2.575021862846954002e-01,4.711075478354735061e-04,1.867886167139865689e-02,2.178741875368228088e-03,4.833213388919830322e-01
-3.832552399819034311e-02,-3.046695302552459017e-01,2.564159922860383967e-01,-2.139397734708683128e-03,2.059235711779240294e-02,5.009073498389600594e-03,4.875197112560272217e-01
-3.512721081360153930e-02,-2.585336839997963154e-01,2.962657787893852035e-01,1.584948800762027085e-03,4.061721772207841849e-03,1.767497012541206433e-02,4.845217764377593994e-01
-9.989330453242581745e-03,-3.121621342940093524e-01,2.521837405593224113e-01,-1.862641039822440867e-03,2.039427524067173407e-04,3.415954228747128136e-03,4.891934394836425781e-01
-1.234366405012273654e-02,-2.681299418419945124e-01,2.469251030137883385e-01,-1.036950703448960912e-02,2.276905115528436024e-02,-4.874677396645257441e-03,4.482337236404418945e-01
-1.362337281343092843e-04,-3.059253237153304883e-01,1.918302434314371196e-01,3.695209281516420498e-04,3.875843115417002688e-03,-1.612329735244948797e-02,4.357576370239257812e-01
-2.291295040785781834e-02,-3.016131374710818713e-01,2.952637044945835010e-01,1.871734604188435075e-03,-3.776410624601974318e-03,-5.379273154225057592e-03,5.174226164817810059e-01
-8.913038849262557711e-03,-3.048071162325165506e-01,2.341356436179901079e-01,-2.772555319946751716e-03,1.214278766078716841e-02,-4.227118439114775986e-03,4.680402278900146484e-01
-1.703129810557892435e-02,-2.387305436770782996e-01,2.753468298163090355e-01,-9.109242432805914405e-03,9.129723003583768010e-03,-4.342131396020863093e-02,4.534432291984558105e-01
-1.803686941130570182e-02,-3.079462502996012097e-01,1.938485760222645737e-01,-1.802089579584543327e-03,-1.024041125054668717e-03,-1.924073103106946347e-02,4.376002550125122070e-01
1.109991853403303683e-02,-2.932654206233318850e-01,2.976021927775252540e-01,-4.218351065537063321e-02,4.976927360594313003e-03,-1.078290404331612960e-02,5.173825025558471680e-01
1.005976468389974988e-02,-2.938330493025317902e-01,2.881848958394447879e-01,-1.628682075340745494e-02,6.324613601780841067e-03,-1.068646915626513547e-03,5.051176548004150391e-01
-1.732203262811496391e-02,-2.196552426073344055e-01,2.901118219018135602e-01,-3.166539374817863017e-02,6.934635805927173713e-03,3.348078222513006276e-03,4.481566250324249268e-01
-1.056041406347560906e-02,-2.787845387970368516e-01,2.965986998567726185e-01,-1.307495551349744517e-02,1.721311197016165903e-02,-1.654064787026899176e-03,5.000883340835571289e-01
1.680127228784564913e-02,-2.515343819306589124e-01,2.917029064241788983e-01,-1.307963994713410259e-02,6.048467533446625494e-03,-1.760681469553187616e-03,4.711402356624603271e-01
-6.857690304264321690e-03,-1.898385099177967994e-01,2.912080967144884958e-01,-3.172201131908076316e-02,2.831529305260484589e-03,6.621061173851748236e-03,4.243111312389373779e-01
-1.446944080800868088e-03,-2.215185407251772931e-01,2.933755052051024159e-01,-1.303494501349816877e-02,1.436208887349746909e-02,-2.938573128068832762e-03,4.487630426883697510e-01
2.356254978958197827e-03,-2.403554579518607515e-01,2.911999440220287561e-01,-1.704270079428174458e-03,6.732979512925028019e-03,-6.735732488170712538e-03,4.612225294113159180e-01
8.928359475691732827e-03,-3.515472464558335175e-01,1.035073255081184196e-01,1.533408443749539711e-02,-1.897828134733356084e-02,4.376518142707452874e-02,4.248686432838439941e-01
-5.526291743574857085e-04,-3.787143246843094890e-01,2.519499908982922309e-02,5.657706403261166840e-03,-3.077052388971451141e-02,3.389213840625234647e-02,3.997355401515960693e-01
-2.177617351570354520e-02,-5.835383502723395788e-01,4.388180144918210623e-02,-4.553652657499112494e-02,-5.520227047318022884e-02,-2.392561894181517712e-02,6.114342212677001953e-01
4.576095957451731255e-04,-3.512433443864577121e-01,5.110817996098465654e-02,-2.187615180219558766e-02,-4.800390728927748235e-02,-2.270923124238077070e-03,3.904320597648620605e-01
-2.185447861650688384e-03,-3.234741813753780337e-01,1.478403823400803452e-01,9.328244845922439160e-03,-5.644157663453938829e-03,4.771075014714478563e-02,4.255835711956024170e-01
-2.075304928375770741e-02,-3.952677982212797203e-01,2.525982271249924138e-02,-1.321525560065829087e-02,-3.218269330231603859e-02,2.934941984737018256e-02,4.072177112102508545e-01
-2.983531152838725733e-02,-3.124441952870090078e-01,2.932622400525097262e-01,-1.604261018143949722e-03,-5.039768889616578346e-03,-2.944402313758193624e-04,5.250278115272521973e-01
-2.054513151068790289e-02,-3.165466535217294486e-01,2.997862432804357380e-01,-3.420575850780397872e-03,2.485941133208577174e-03,-8.910372331709920770e-04,5.339510440826416016e-01
-1.450665283810065841e-02,-3.147794539609179432e-01,2.963197081027441615e-01,5.436752688759103344e-04,3.857937483631191603e-03,3.713131567816901728e-03,5.293357968330383301e-01
-1.235034622206577885e-02,-2.990757714746146156e-01,2.963839911206447297e-01,2.954139768044648871e-03,6.581108428656140541e-03,4.862265217300847618e-03,5.160207152366638184e-01
-1.344703892665823769e-02,-3.150572452313603611e-01,2.999615800289219258e-01,-1.677783565704674693e-03,3.545679778511071079e-03,-2.549948840062349993e-04,5.326980948448181152e-01
-1.354722467899470949e-02,-3.108761506554210685e-01,2.990648169420947466e-01,1.244327798530541320e-03,3.338902365728901953e-03,1.386834813361753312e-04,5.283157229423522949e-01
-2.451929119267821922e-02,-3.658864991456023952e-01,1.663937522712965189e-01,-1.018525798934985689e-02,-3.129378365471214424e-02,8.033364786857130971e-03,4.707372188568115234e-01
2.806508476310822994e-02,-2.866199126596499780e-01,2.851849283479934716e-01,4.828148268613638265e-03,-4.940347643330471241e-04,-2.501529720856755963e-03,4.961234331130981445e-01
-3.676393676397965438e-03,-3.708781344199444940e-01,3.367984669433796152e-02,2.689677510575181219e-03,-5.138808316535500853e-02,-1.288316299244159253e-02,3.979845643043518066e-01
-2.695708140406589265e-02,-3.557945467264811978e-01,2.012452847071003470e-01,2.256543237058998216e-02,-5.374708480790615223e-02,2.555145990490966315e-02,4.973976016044616699e-01
-1.486923799912594213e-02,-3.650409635623303450e-01,9.530265144368310626e-02,1.548675447224047257e-02,-4.134403670203747744e-02,4.057554477624601003e-03,4.233604371547698975e-01
-3.420627037740549270e-02,-2.642128346402535244e-01,2.958389380238982125e-01,-7.547525147241960185e-04,-2.117306890866068464e-02,-6.948475792678245055e-02,5.035637021064758301e-01
-2.104318815257010325e-02,-2.659866442730833835e-01,3.068817141549870509e-01,-8.813254854171554201e-03,-8.932057048788310388e-03,-1.538056068697175177e-02,4.990362226963043213e-01
-2.117820395159396643e-02,-2.749570366645144870e-01,3.087438058337037550e-01,1.199489441134107826e-02,-8.632007681209729819e-03,-1.462003662718847595e-02,5.082084536552429199e-01
-1.562662940039644469e-02,-2.605228624018038341e-01,3.047671596239291958e-01,5.407963746269841068e-03,-1.925467967661257870e-02,-1.422411149720794084e-02,4.928453266620635986e-01
-1.594560711077659329e-02,-3.037569597216291939e-01,2.842543150954255360e-01,-3.336782180369914693e-03,7.568532435940414620e-04,2.342837961310721955e-03,5.093210339546203613e-01
-3.099180493199480552e-02,-3.068146922710961455e-01,2.601126554264905355e-01,3.741214629608794872e-03,9.211890011486176949e-03,-8.711184773276843887e-03,4.915664494037628174e-01
-2.574149827127751589e-02,-3.110385124243576493e-01,2.589652212789775310e-01,-2.541904070758800246e-02,2.724408275111955130e-02,-3.762939153573197776e-02,5.020869374275207520e-01
-1.920748438217558668e-02,-3.185323477415213378e-01,2.573359744429875584e-01,-5.725455154274096056e-03,2.536471742367945800e-02,5.310504506674826840e-03,5.009601116180419922e-01
-1.503962557658840640e-02,-3.144265956034117959e-01,2.879623790633459302e-01,1.683366551437053080e-03,5.997465710329203011e-03,-1.592928518709255418e-03,5.218061208724975586e-01
5.508616290471541818e-03,-3.039159603912409691e-01,2.939312482550239247e-01,-2.303083497581406153e-02,4.506660022246171057e-03,-3.497351548623422405e-03,5.194854140281677246e-01
-1.638809102089833908e-02,-3.351994294352223513e-01,2.803238394518216547e-01,-4.189633359752606943e-03,-1.105504060393708472e-02,2.762810283843970122e-02,5.357079505920410156e-01
-5.234545362920962550e-03,-2.988697475034401974e-01,3.270204041173783716e-01,-9.715712521912354960e-03,-3.392177337886738138e-04,-7.380717215437061600e-03,5.427924990653991699e-01
-4.655478702397420829e-03,-2.935514600478300040e-01,3.133306770760385662e-01,-4.566415851042180535e-02,7.487990390714758214e-03,-1.388386295792611025e-03,5.318558216094970703e-01
-1.722970338870491100e-02,-3.229597245119980031e-01,2.888236230229212498e-01,3.025168418590850304e-03,-8.138373463254890139e-03,1.191915068384344530e-02,5.304352045059204102e-01
-3.286774873613654193e-03,-3.183987389669396539e-01,3.080140679674844284e-01,-1.402969916389916818e-02,5.312566618797095498e-03,-3.113728593073560925e-04,5.431149601936340332e-01
-1.118140464605357765e-02,-3.230056091605106316e-01,2.980535748329170564e-01,-3.318842218642818059e-02,-9.281859923196236414e-03,-1.099205954170776126e-04,5.411565899848937988e-01
1.666775972749812498e-02,-2.138016858506484041e-01,3.084162714268153804e-01,-4.967803173127796623e-02,1.460771408027723012e-02,-2.594279593587338339e-02,4.642579555511474609e-01
2.091910057822488067e-02,-2.961250611715741110e-01,2.954196263540287415e-01,-9.999434481618003911e-03,1.114250835370561403e-02,-5.386094042338275371e-03,5.134742259979248047e-01
8.207335956871354352e-03,-2.802694337817530634e-01,2.872625640814153725e-01,-1.169822845276988210e-02,1.100364693286420663e-02,-6.665735019416108367e-03,4.924415647983551025e-01
-7.112840909590079086e-03,-3.010165439597428660e-01,3.007824346259790893e-01,-5.609057774794759359e-03,1.881507120466716435e-02,5.260626872025132676e-03,5.224077701568603516e-01
-1.229438968957640224e-02,-2.568652823611216607e-01,3.130520501450461679e-01,-7.173982894943208705e-03,6.064290568550926783e-03,-2.351923013909305860e-02,4.971515834331512451e-01
1.492146246004387184e-03,-3.176481677260170611e-01,3.140200829146805317e-01,2.261653039817377447e-02,-1.195012755626383150e-02,-2.936410190023520765e-04,5.488421320915222168e-01
-1.356546669956925841e-02,-3.096696327216022504e-01,3.088290327348011677e-01,6.600059304328989877e-04,-1.308981488154619191e-02,-8.083312519775991828e-03,5.364602804183959961e-01
-9.383094176402607609e-03,-3.064894878037688342e-01,2.926587061247395427e-01,1.044714506830479901e-02,-2.860522295297702848e-03,-1.195717710963769935e-02,5.196353793144226074e-01
-2.664126044720564052e-02,-3.170238505906478044e-01,3.051366489581335273e-01,-6.504728825844038539e-03,-8.793776659992813115e-04,4.601359505160214185e-03,5.393829345703125000e-01
1.617691463882734923e-02,-2.963653474373238450e-01,2.893500949928622390e-01,-1.978758648480967875e-03,2.884384015982244861e-03,-9.533839224045250783e-04,5.076650977134704590e-01
-4.134638586428610041e-02,-3.116955765417510071e-01,2.817484463662368599e-01,-5.455406434824143155e-03,1.798448378998740785e-02,8.015832948327092713e-03,5.158292055130004883e-01
-2.993493153886347263e-02,-3.250376803605543041e-01,3.048968223715265990e-01,-9.063621169812420206e-03,7.611769805670754070e-03,-1.881579749920075451e-03,5.462953448295593262e-01
-4.384363400998188276e-03,-2.583104807721786633e-01,2.986960942134188612e-01,1.157074585443751066e-02,1.465616167904042720e-02,1.601981095233642044e-02,4.848837256431579590e-01
-1.538998392557789328e-02,-2.863889672637043304e-01,2.929621309225366454e-01,3.978281239073114782e-03,1.069570688551245603e-02,6.261423375431657452e-03,5.025861859321594238e-01
-1.660308116093144049e-02,-3.134846671740337265e-01,2.937079280647128532e-01,-1.454858183054294658e-03,2.767888122063373764e-03,1.184824426534222775e-03,5.259189605712890625e-01
-1.734523251895844081e-02,-3.160623172949503790e-01,2.963317606647959401e-01,-2.677728323096390667e-03,4.654859301015387002e-03,1.970073128371968140e-03,5.304940938949584961e-01
-4.707166816532200315e-02,-3.014519733623267084e-01,2.691334993921546404e-01,9.980325334957824784e-05,-6.313172980699413963e-04,5.442789663799829083e-04,4.951096177101135254e-01
-2.483206596888600307e-02,-3.150096039411978133e-01,2.743131709154275066e-01,-6.565525054554040112e-03,-2.124141171949358740e-04,-2.977872827128555215e-03,5.105410218238830566e-01
-1.779327850592817700e-02,-3.159645556690078849e-01,2.887932227493863468e-01,-3.018874563963264493e-03,4.298074374524339311e-03,-2.030991296422289712e-03,5.238432884216308594e-01
-1.638870827407896968e-02,-3.160628981508788460e-01,2.991172947215496314e-01,-4.601992997010533222e-03,4.816866973189159844e-03,-1.691269013799811790e-03,5.329534411430358887e-01
-2.165456653107214469e-02,-3.144236179772478268e-01,2.783039554005858895e-01,-8.316421075672797078e-03,1.538018021332479557e-03,-6.320322510913457120e-03,5.136553645133972168e-01
-2.238089016489513278e-02,-3.213170012245738505e-01,2.835486895864084977e-01,-5.608113285514345313e-03,-2.066377341427812989e-03,-3.116260372329089038e-03,5.239707827568054199e-01
-2.417271200018928506e-02,-3.102452760370109641e-01,2.822409026726604431e-01,-3.635626344085676493e-03,-6.865727534566072252e-03,-7.534735734807297344e-03,5.135511159896850586e-01
-2.852013978370938549e-02,-3.127746452107509345e-01,2.947088816296242197e-01,-2.360103476800182783e-03,6.656344904920061863e-04,9.612147115433718062e-04,5.264767408370971680e-01
-3.118515547881670069e-02,-3.136173293703135023e-01,3.144003787307591558e-01,-4.183451404144469983e-03,4.343955934513419812e-03,-1.112836116064368046e-03,5.448986887931823730e-01
-3.638195926620251680e-02,-2.380552750752303881e-01,2.930523250786358225e-01,-2.425802751475381047e-02,-5.616078584473104506e-03,-2.130065655882286760e-02,4.678229391574859619e-01
-2.614801628034652686e-02,-3.363466545734430935e-01,2.874852396576156321e-01,-3.856071455871086517e-03,1.310424456191762281e-02,-2.090771507768848791e-02,5.419859886169433594e-01
-3.815530607315725797e-02,-3.153558864959932762e-01,3.149535680550501482e-01,-4.934419530068721339e-03,1.307950285433908365e-02,-1.340871906566972090e-04,5.477173924446105957e-01
-4.252955590540860586e-02,-3.445433352878020661e-01,2.940275611814326950e-01,5.838267679106802326e-03,-3.267097376120223218e-02,1.792052992707048042e-02,5.571317076683044434e-01
-3.901997154980900440e-02,-3.210162549154663147e-01,2.905718986570491880e-01,-4.383488152725794305e-03,-2.075405555027895477e-02,-1.251949093309610329e-02,5.318989157676696777e-01
-2.554737776234039873e-02,-2.686585845105579629e-01,3.076516827560107914e-01,9.108613625282396820e-03,-1.975100337327564265e-02,-2.664871654949148988e-02,5.046570897102355957e-01
-3.623776414962272957e-02,-3.629981324090149064e-01,2.902900740472201813e-01,-9.148585438986756111e-04,-5.377387282263175472e-02,-9.554061004470192422e-03,5.736203789710998535e-01
-4.722656125190807103e-02,-3.028704395178863917e-01,2.690448575504999496e-01,-4.302800645322518908e-04,-6.018250780068324984e-04,1.303176711886212488e-04,4.962216615676879883e-01
-2.570815289809878085e-02,-3.047476130451752252e-01,2.845125716480036426e-01,-1.031731320737043142e-02,2.181210418117252026e-02,1.932194036671664329e-03,5.122709870338439941e-01
-2.064866799063548239e-02,-3.446311981434415639e-01,2.955652141259419996e-01,8.091251878725653698e-03,1.362563536186956956e-02,-8.355308631550054099e-03,5.553075671195983887e-01
-2.777900313307293118e-02,-2.598061862401583877e-01,3.103030186571456017e-01,8.818127547435052407e-03,1.505820284805154015e-03,3.553288323887550827e-03,4.968483150005340576e-01
-2.382690356599147588e-03,-2.730351738037010145e-01,3.014426083648168442e-01,2.359608722980894441e-02,-1.279767835811880007e-02,-1.558429386115907714e-02,5.006834864616394043e-01
-2.954701882841003630e-02,-3.518662733909899143e-01,2.755066636566131932e-01,8.032963055906406843e-03,-2.443389596447173573e-02,6.177127476622670289e-03,5.453175306320190430e-01
-1.487994466888734567e-02,-3.236723992335963085e-01,3.208612749221012028e-01,1.650382755030860293e-02,-1.609244918330518526e-03,-1.824935129494268532e-02,5.599761605262756348e-01
4.343094370906519508e-03,-2.883285484731836212e-01,3.088186553433774351e-01,1.894511333994517224e-02,-1.706997664460764563e-02,-1.343834523282424510e-02,5.195826292037963867e-01
-1.936449943602699909e-03,-3.001236814684878906e-01,3.020296408935153054e-01,1.410561732064242665e-02,-1.159324172425225258e-02,-4.808667075338565224e-03,5.225124955177307129e-01
-4.140994222542736247e-03,-2.059581742731198262e-01,3.015577671364755297e-01,2.804903810576997100e-02,-1.116791236132354780e-02,-3.968362268388736513e-02,4.509278833866119385e-01
-2.219960273266884804e-02,-2.112396088254498983e-01,3.031596043689805953e-01,3.567316280729756345e-02,-1.828785095480564213e-02,-4.053045133805045080e-02,4.613565504550933838e-01
-2.621506007349706791e-03,-2.699414331385753818e-01,2.979765049530115339e-01,1.415813214526648149e-02,-1.452054472930184789e-02,-9.399220130741564941e-03,4.936333298683166504e-01
-1.727799801989155642e-02,-2.632601141962070956e-01,2.915929872327374661e-01,5.301553996951542669e-03,-1.504453982706767737e-02,-1.289787141886144205e-02,4.828536212444305420e-01
1.348312532413518602e-03,-2.740548086798543781e-01,3.021966298431003062e-01,1.325806170709955580e-02,-9.693319732540346678e-03,-7.883529400604846402e-03,5.002067685127258301e-01
-1.764006387094512601e-02,-3.530481561608265206e-01,2.411289586900700610e-01,6.246959490100709167e-02,-9.617810135346796518e-02,1.874416087591984983e-02,5.538639426231384277e-01
-1.840556161905199106e-02,-2.753234746245165065e-01,3.144497594547870367e-01,1.200673056925156967e-02,-1.258920370098533768e-02,-1.615666662986011901e-02,5.138161778450012207e-01
-1.349123473468733132e-02,-3.056746317908570210e-01,3.024178127856615994e-01,6.210565926791131175e-03,-3.898433805901606927e-03,-6.503619399737537755e-03,5.270305871963500977e-01
-3.804157692869883714e-03,-2.825091988088581640e-01,3.055279526827191505e-01,1.355661742140100087e-02,-1.272310658760543965e-02,-1.672193644624175510e-02,5.113229155540466309e-01
1.872552854536990719e-02,-2.892596782251243281e-01,2.841662704360372604e-01,1.789097245955647252e-03,3.870954217250980028e-03,1.454539100684998885e-03,4.971180856227874756e-01
-2.586322188293651431e-02,-3.189329129842847221e-01,2.606102863428663152e-01,-1.088686831033758469e-02,1.733213978805624167e-02,9.693731270210120257e-04,5.031632184982299805e-01
-2.262611190477754886e-02,-3.181744456773027974e-01,3.146724329901949280e-01,-3.727816588091439377e-03,-2.930833380774143428e-03,-4.852695864720375785e-03,5.485847592353820801e-01
-1.129440901333138292e-02,-2.071809250776275868e-01,5.465265416969754542e-01,9.268829997859581726e-02,1.261950319861896049e-02,-1.544311146483543992e-02,6.969733834266662598e-01
-1.291167874203509071e-02,-3.028668890264730740e-01,3.117739766886782893e-01,-1.407749075040047116e-03,-1.389587555624051049e-02,-4.352444660538679760e-03,5.331802368164062500e-01
-2.002329163090562497e-02,-3.268683108459303766e-01,2.843867229879479264e-01,-4.592455088156718532e-03,2.108166976703023873e-03,1.357405991278484107e-03,5.294413566589355469e-01
-2.758947551379105009e-02,-3.190872326077387466e-01,3.138543233874250826e-01,6.799276662391201716e-03,-1.191094933346988072e-02,-7.848302713825486276e-03,5.493941903114318848e-01
-1.310062770453387059e-02,-2.760296161460648601e-01,2.961278385218218401e-01,-1.092320166056564255e-03,7.147023904346958174e-03,-7.013808998292964635e-03,4.963501095771789551e-01
-2.245457581409271430e-02,-3.178320138373792458e-01,2.743735026099045626e-01,-8.394124223751516650e-03,1.597188828198786931e-03,-2.802593976611082727e-03,5.131019949913024902e-01
-2.176884485562289445e-02,-3.347771634207363234e-01,1.875828909947916678e-01,2.030127277028640105e-03,-4.007839863909062883e-02,-2.242640655763105187e-02,4.622458517551422119e-01
-2.679156695941782920e-02,-3.259619865045462195e-01,1.840301028208634893e-01,-4.512986287686190923e-03,-4.979105733235768966e-02,-1.946755946917355304e-02,4.534929096698760986e-01
-5.484208133625643501e-03,-2.977421558104045851e-01,3.006784749036728321e-01,1.844924805695091980e-03,1.193603788557795822e-02,2.873102624512461484e-03,5.187399983406066895e-01
-1.483626522199434430e-02,-3.099963682953087996e-01,2.925440444650327931e-01,-8.610140442078845387e-04,1.874067826681054868e-03,-3.763486390093570208e-04,5.218636989593505859e-01
-2.436562427145507262e-02,-3.199267814101038887e-01,3.043524844126422879e-01,3.212762476717182739e-03,-1.115479909551389450e-03,-1.571828387642714309e-04,5.409279465675354004e-01
-1.265438855565565422e-02,-2.867060918564304228e-01,2.977360912266492354e-01,3.786426012845797631e-03,8.121148655863781596e-03,3.660661342649636045e-03,5.067452192306518555e-01
-1.966919377074489300e-02,-3.082324420516485697e-01,2.985014424893084883e-01,-4.291493570037127050e-04,3.867183080312617399e-03,-3.703217272777488823e-04,5.256990194320678711e-01
-2.159409307617505755e-02,-3.254137942386499671e-01,2.707503731047349871e-01,3.459172630215816974e-03,-1.139742095090867137e-02,-1.105937930253499861e-03,5.167407393455505371e-01
2.380464276378346788e-02,-2.669350091669296932e-01,2.876118637295356217e-01,1.141988235944002388e-02,5.791898352628064087e-03,4.000505933815117800e-03,4.810019731521606445e-01
6.883253833845351041e-03,-2.638079626431632518e-01,3.061486544978101465e-01,2.313985161126493051e-02,7.212513297949812649e-03,-8.394750205082918831e-03,4.957982003688812256e-01
-2.000208343189546767e-02,-1.488627480274033188e-01,2.930922773067438092e-01,1.902933041078264456e-02,1.063682353519954972e-02,2.555327669784476438e-02,3.979489803314208984e-01
-4.433262336674126392e-05,-2.312244332564036831e-01,2.927161172972906344e-01,1.959716556688269329e-02,1.009813325556695694e-02,5.644264375189242053e-03,4.564941823482513428e-01
-3.203318053873943638e-03,-2.174884444027626873e-01,2.923374366492536569e-01,2.716233192796290927e-02,5.261013970732333206e-03,2.315567578524997151e-03,4.459876120090484619e-01
-2.150147727462492497e-02,-2.820812149429768323e-01,3.386321665967440553e-01,5.676584194497242414e-02,-6.471549111897370588e-02,9.538479203744180263e-04,5.600675344467163086e-01
1.061129038603703632e-03,-2.997812322154609355e-01,3.073035487004248667e-01,2.766538157148632632e-02,-2.347223873637225774e-03,-5.676784051504684672e-04,5.279534459114074707e-01
2.787762491300325995e-02,-2.184028786856082038e-01,3.115526759824242542e-01,5.194004769471240873e-02,-4.063766537293463099e-03,-2.039013494628263284e-02,4.694458246231079102e-01
-2.066710922026337299e-02,-3.246869085294182278e-01,2.951208523617307455e-01,1.946826247067170784e-04,1.831794808833956496e-03,3.794913986465670887e-03,5.368512272834777832e-01
-4.075640810326136218e-03,-2.966216685780124207e-01,2.891659542738316824e-01,5.951784618930640314e-02,-1.613471958122148636e-02,1.633170872666927023e-02,5.192000865936279297e-01
-1.139668404729667767e-02,-2.924698049818330037e-01,2.953263960056397019e-01,4.345389212943174401e-02,-1.136449856169690839e-02,2.609211935234947641e-02,5.170950889587402344e-01
-1.976541878433604391e-02,-3.068979479563446189e-01,2.825339681202627684e-01,-7.756891874795927020e-04,-2.526288560255002345e-03,1.639862053637483521e-03,5.105477571487426758e-01
-3.517271299293812936e-02,-3.100826608155121678e-01,2.872725878306265912e-01,-3.048959357883079899e-03,1.893150852661735399e-03,-2.820456523640003151e-03,5.179308652877807617e-01
-3.494212484324511758e-02,-3.105682720853880086e-01,2.863612403981402044e-01,-2.110204857760212323e-03,1.894310436993895458e-03,-1.174713891350519625e-03,5.174877047538757324e-01
-4.074845327770028336e-02,-3.072895736003635192e-01,2.786310029129365762e-01,7.402895458988903140e-04,-4.416396281983881074e-03,5.745032045411928735e-04,5.081695914268493652e-01
-3.176876991280142004e-02,-3.106091217526112391e-01,2.772047506349218926e-01,-5.022781241923240589e-03,-5.282861097801135920e-03,-3.162325774859323958e-03,5.094705820083618164e-01
-3.717883375062975421e-02,-3.078628604765950016e-01,2.771327694231855432e-01,-4.995799919665325217e-03,-1.200295825925408672e-03,-1.744664668450656960e-03,5.071775913238525391e-01
-1.844349488948616306e-02,-3.094191965977342029e-01,3.085153016765435074e-01,-2.083093475383338054e-04,-2.778785353791267312e-03,-5.981473546883012355e-04,5.354720950126647949e-01
-1.055780343492390520e-02,-3.117119864314428779e-01,3.073855012720007052e-01,3.860306365518548569e-03,-5.203785826136024008e-03,-3.553687021719483669e-03,5.363726019859313965e-01
-2.221700690420790741e-02,-3.204274044764786611e-01,3.133771224818258094e-01,-3.502393007827062262e-03,-5.594460218270301023e-04,3.430320526489015194e-04,5.492436885833740234e-01
-1.454566367611588931e-02,-3.196603812353661644e-01,3.146081293456965411e-01,-3.006777847829334924e-03,-2.393733871824829228e-03,1.182246074666221201e-03,5.494682788848876953e-01
-1.716540561121851494e-02,-3.172524159775009234e-01,3.125907700217291363e-01,-3.500305655965260838e-03,-5.559551616483451343e-03,-1.473222102460649500e-03,5.457864999771118164e-01
-2.301299858735647227e-02,-2.612790456821558194e-01,2.634579501631664766e-01,2.717661737129512499e-03,-1.127181997002401140e-02,1.882406002452326958e-04,4.555173218250274658e-01
-3.975038346980870607e-02,-2.483522987818638228e-01,2.545175722770198212e-01,-8.304837091619320447e-03,1.395920541932254210e-03,5.326285242449169816e-02,4.474559128284454346e-01
-1.737963207433648738e-02,-2.574094454109575603e-01,2.909003392801087218e-01,-4.842320474199108475e-04,-8.870261017473611911e-03,1.638367547579480318e-02,4.771679639816284180e-01
-2.197370968017854642e-02,-3.216025150185826686e-01,2.477389573194034855e-01,-1.225394214002548414e-03,2.766661558471878238e-03,1.020441992933630859e-02,4.936353862285614014e-01
-1.422746661653889397e-02,-3.261689621317073184e-01,2.474683989757660574e-01,-5.502602328049637469e-03,4.006728332991861714e-03,9.795974558540586005e-03,4.978482723236083984e-01
-2.808629401680597451e-02,-2.376131085974499679e-01,2.561832431574232460e-01,2.283951167065595075e-03,3.590975252537007088e-03,5.535074434852357145e-02,4.399070441722869873e-01
-1.699357343144628288e-02,-3.072103377196097052e-01,2.837582984736291558e-01,3.508963022071694658e-03,2.849208067852104787e-03,8.837141123682400873e-03,5.121096372604370117e-01
-1.290791798087679437e-02,-2.541320768954380971e-01,2.884041869557023574e-01,1.879067161294983336e-03,8.281588146577015599e-03,1.284307797058789440e-02,4.715644419193267822e-01
-1.329691599270123314e-02,-3.231825129389491180e-01,2.263072151446856584e-01,-1.211899705869090571e-02,-6.275140356556079381e-05,2.174107372319153061e-02,4.791114032268524170e-01
-1.812649252357146148e-02,-3.385296718295128238e-01,2.437382931685651566e-01,-1.017055796833625167e-02,-1.116374052544523605e-02,-1.371922736852455860e-02,5.063422918319702148e-01
-1.470751070373552474e-02,-2.927354289314428870e-01,2.754593233966476928e-01,9.896299687697588873e-03,-8.636420009940304343e-03,1.052524700361502294e-03,4.926374852657318115e-01
-1.675379518406711066e-02,-3.072879313871456075e-01,2.036043665529000957e-01,3.595574090017277088e-04,2.535643874891899824e-02,1.094424321685968579e-02,4.464055597782135010e-01
-9.002520887708247155e-03,-3.169953348992801123e-01,3.031065428037088560e-01,3.760239706286619910e-37,-3.677738695797274564e-04,-8.761617962536134754e-04,5.370304584503173828e-01
-2.377153260933875453e-02,-3.535260471436886265e-01,3.432037355084436303e-01,7.026955831118672502e-02,-4.519914555198983885e-02,2.621383216216925660e-02,6.224343180656433105e-01
-1.847686481592104857e-02,-3.405462907549138829e-01,2.052587352059662140e-01,-4.216626090797632662e-03,1.589212469483504420e-02,1.516317865967780818e-04,4.760838449001312256e-01
-2.394418711019864754e-02,-3.175054668192840990e-01,1.954374135674102619e-01,7.100301526018416159e-03,2.503677300492505604e-03,1.061178066572935827e-02,4.463365674018859863e-01
-1.812486016570150765e-02,-3.042452786862511749e-01,1.676140753820734575e-01,4.032514584330662046e-03,2.084786436351878866e-02,1.103904022966258839e-03,4.133568406105041504e-01
-9.535910928141310208e-03,-3.521300144387149444e-01,3.760237684531471669e-01,4.871796055310616616e-03,1.412523555599726720e-02,2.692430944378333343e-03,6.315132379531860352e-01
-3.313445825535141220e-02,-3.126851130128788236e-01,2.380631224972017401e-01,6.451937127305928422e-03,7.303027310038967719e-03,-7.553552081577797304e-03,4.774580597877502441e-01
6.285814330616062984e-03,-3.911133065679093801e-01,-8.661981428847997933e-06,-1.186851951236303493e-02,4.511040416661412505e-02,2.853922958279748665e-02,4.055060446262359619e-01
-1.002888458210595725e-02,-2.908776180083687546e-01,2.978219212790276793e-01,5.634432035412805483e-03,-6.421270484997126417e-03,-2.344143073828173097e-03,5.102382302284240723e-01
-1.252688136018614493e-02,-3.093287746065562227e-01,3.084411346085941252e-01,3.550257890374248528e-03,-7.869885237783872528e-03,-9.842164125305277473e-04,5.353524684906005859e-01
-1.101764985094656930e-02,-3.002339454806733920e-01,3.067249017490583096e-01,4.317719745442534333e-03,-9.507543275617976603e-03,-8.569917795202056793e-03,5.263555645942687988e-01
-4.583770635855972941e-02,-3.073965695526467146e-01,2.829227307555053916e-01,5.419005105540433340e-03,-1.199150785199520897e-02,9.592998049494720972e-03,5.131103396415710449e-01
-9.329614863335651195e-03,-3.120236524411221235e-01,3.055243840073474382e-01,-1.778600568508894447e-03,-8.715864260964340665e-03,-5.269442642183472247e-03,5.351465344429016113e-01
-1.016429484248968992e-02,-3.014317884058230201e-01,2.966069447926325542e-01,-3.801587552912956240e-03,-9.285660222026483404e-03,1.036608513460443711e-03,5.182693004608154297e-01
-1.713366519811494737e-02,-3.105924693176017604e-01,2.900440299899140206e-01,-2.408781312339340619e-03,2.399295608246984970e-03,3.421200011207812565e-03,5.202787518501281738e-01
-3.592157157128246514e-02,-3.057998750361176632e-01,2.869047354506497616e-01,1.125602805580466770e-03,1.358898922652438702e-02,2.039732027099820048e-03,5.145339965820312500e-01
-4.383093522045562740e-02,-3.136994558543960143e-01,2.834736886944287937e-01,5.977982018944826351e-03,2.290172566923677142e-02,-6.234827666059856652e-03,5.196959376335144043e-01
-3.851540707919387518e-02,-3.082319170360592886e-01,2.762684658096900558e-01,1.851832934378388551e-03,9.798520506047585579e-03,3.890222954437100138e-03,5.070325732231140137e-01
-3.597260360317992151e-02,-3.117079497211875383e-01,2.564335545324148424e-01,9.405778405182748519e-03,1.923459510944886680e-02,-1.190997248547624732e-02,4.939219653606414795e-01
-2.155953386517509701e-02,-3.166298069426586315e-01,2.596888026676685834e-01,1.587052969562028140e-03,1.340551199078948187e-02,-1.020954804115790362e-03,4.997048377990722656e-01
-1.277923188048127323e-02,-1.832643937157820979e-01,2.848551617139529202e-01,-1.475000646872087241e-02,-3.457809987554122735e-03,1.995639844411297575e-02,4.126463532447814941e-01
-1.688008582713109579e-02,-3.230389596886599213e-01,2.531924564411108247e-01,-7.331148400895824138e-04,1.345265699819922500e-03,1.829152477273044992e-03,4.993742406368255615e-01
-2.162163185680281846e-02,-2.385282069810059080e-01,2.949137844382854201e-01,1.365788063157691908e-03,-1.101294445301796883e-02,2.139023036147923509e-02,4.665231108665466309e-01
-2.019206197381664958e-02,-1.832801775715681425e-01,2.451474399516604952e-01,-2.307949528360607461e-02,1.785094286531091479e-02,3.240185045163847949e-03,3.779708445072174072e-01
-2.887481811284153127e-02,-2.157871335634294618e-01,2.757981781716876690e-01,1.104234643292189080e-02,3.458212159254185798e-03,3.848558120038976516e-02,4.353781044483184814e-01
-4.185430995561748024e-02,-1.818530731203403250e-01,3.003208016281820325e-01,6.762170761282869716e-03,4.133017055063294316e-03,3.665142050043981164e-02,4.345180690288543701e-01
-2.984654674213823439e-02,-3.328768892259763579e-01,1.473922307741921678e-01,5.659447856067715589e-03,-6.627734164742744849e-02,1.767557785109657303e-03,4.361573457717895508e-01
-3.441967439514784233e-02,-3.165563520144642484e-01,2.269251312076144833e-01,-1.264074868074126744e-02,-2.770168707959928464e-02,-1.752840416855182618e-02,4.747003316879272461e-01
-3.863099072878194151e-02,-3.248606090685050019e-01,1.910658600128096740e-01,-2.537960412343723531e-03,-4.261309319932930079e-02,-1.818323148785701629e-02,4.548548460006713867e-01
-3.452129045177615430e-02,-3.314201723077548345e-01,1.728375649855067309e-01,1.964554036850082314e-03,-7.043577538765731505e-02,-8.500573521739130181e-03,4.558763206005096436e-01
-1.221989985018204390e-02,-3.124924569664487839e-01,3.082581336410146755e-01,-6.314207063354053352e-05,-2.044752447566214066e-03,2.824925542847091329e-04,5.376926064491271973e-01
-9.473480432084338196e-03,-3.101911023450729110e-01,3.034139160979166805e-01,-3.273653015546031976e-03,-7.641763966063817685e-03,-3.659802585765931614e-03,5.316652059555053711e-01
-2.914113075789141402e-02,-3.152900472349809413e-01,2.891143719554824520e-01,1.465822966995676113e-03,9.419914211038011220e-04,-2.551380185350539832e-03,5.237030386924743652e-01
8.722298625492654056e-03,-2.952201361199047192e-01,2.914434674282979643e-01,4.251671008497277804e-03,-9.477066384756826362e-03,-2.295429408383458433e-03,5.085102915763854980e-01
2.116760440356663109e-03,-2.710795716748584661e-01,3.012767027343122850e-01,7.645350084000712178e-03,-1.268295545485848691e-02,-9.794800352183738110e-03,4.967978000640869141e-01
-5.321386024773489681e-03,-2.905427560910111562e-01,3.026014416558169273e-01,1.302716169263314072e-03,-1.591253131357069778e-02,-6.342522051108990047e-03,5.146642327308654785e-01
4.543928985520209740e-03,-3.021046045734444574e-01,2.950907256206107276e-01,4.209172460672649073e-03,-3.212530435168046896e-03,-8.177998639557310882e-04,5.173322558403015137e-01
7.599148056280125539e-03,-2.947154986005699473e-01,3.024541947135289677e-01,5.567683448867373312e-03,-7.970031990217779985e-03,-4.298516197175151696e-03,5.175052285194396973e-01
-3.013101528167886484e-02,-3.234150077005611967e-01,2.596783154840401342e-01,1.116223579362177719e-02,-1.668081577935584883e-02,1.044208351467802200e-02,5.064948201179504395e-01
-1.506874987833665275e-02,-3.158529851969003599e-01,2.284776373406237626e-01,5.007501047331943192e-03,1.373054531893365057e-02,4.950959295628575875e-03,4.730277657508850098e-01
-4.247751015020986842e-02,-3.093598692364438740e-01,2.313193534794925066e-01,6.261221067441699768e-03,-2.288386311793194974e-02,-8.647661321039803312e-03,4.702929258346557617e-01
-7.182513212443522588e-03,-3.198439332048696460e-01,1.988405989682762443e-01,6.765920299031813988e-03,1.994881762016255215e-03,-5.099370780272787125e-03,4.525985419750213623e-01
-3.379124986847408668e-02,-3.434284754985112431e-01,2.903424919360348411e-01,7.744279856675193204e-03,-2.519974971316895837e-02,1.262822803858217220e-02,5.512396693229675293e-01
-8.267005930083726195e-03,-3.354737193434715326e-01,2.192907028360934207e-01,-5.912387179627266905e-03,-4.910478374350012165e-03,-1.564418609028303889e-02,4.839592874050140381e-01
-2.978155067556592997e-02,-3.455292733219307855e-01,3.134297007070445673e-01,-9.891770681935942860e-03,-5.535774223830513402e-02,-7.548552982488841191e-03,5.792379975318908691e-01
-2.843029221014009567e-02,-3.011310391500862105e-01,2.989347147028276197e-01,-9.050082320377499795e-03,-2.541317468323517001e-02,3.767493147890346467e-03,5.225246548652648926e-01
-3.611986145806590776e-02,-3.559436266637358015e-01,2.571340223291916360e-01,-8.465349119029420485e-03,-4.198977066093154825e-02,-9.462478168665701059e-03,5.365143418312072754e-01
-4.286574166988552093e-02,-5.343960036663816249e-01,3.547797643786793076e-02,-3.348219483303623706e-02,2.568149316143747418e-02,5.809413800902840652e-02,5.492855310440063477e-01
-1.400429182415141496e-03,-3.302992770579131210e-01,3.297996449084846238e-01,2.496724931752341073e-02,-7.097117814966531768e-03,-2.813322316273619492e-02,5.754953622817993164e-01
-3.503566924144824873e-02,-3.278102308640735707e-01,2.674362389656235739e-01,-6.313995217385842164e-03,2.591620294717460887e-02,3.819517588680957417e-03,5.176298022270202637e-01
-4.210045065909082812e-02,-3.187189985261401626e-01,3.278427542527917460e-01,-5.387811240164020778e-03,3.975433166115679984e-02,-2.241385949010755215e-03,5.661734342575073242e-01
-2.023492225729379285e-02,-3.390564314056603856e-01,2.713623543797981652e-01,6.331842831907327600e-03,1.701383988130202723e-02,1.161087716392571775e-04,5.297474265098571777e-01
-6.565089269709953670e-03,-2.898014885890485837e-01,3.051312986088039469e-01,1.220384176894522346e-02,5.347471351767789718e-03,1.117351663757621023e-02,5.163025856018066406e-01
-8.283171378675693863e-03,-2.568193461497778607e-01,2.935317107450833851e-01,-4.140251555811520767e-02,2.553934756862269104e-02,3.290888820030831493e-03,4.847743213176727295e-01
-1.118185398698435390e-02,-2.879536907992454875e-01,2.690585615144940324e-01,-2.327325596181600148e-02,1.772697572997512100e-02,-1.762690938571088170e-03,4.850535988807678223e-01
-1.170054600865705341e-02,-2.348744122018431302e-01,2.593935060135142412e-01,-2.735019007794576781e-02,6.489058059869308101e-03,8.621192056061367098e-03,4.317326247692108154e-01
-1.928714442256929118e-02,-3.142157743148183968e-01,2.837176600431996487e-01,-5.409312099304961277e-03,1.184259584648597249e-02,-9.693246337589269887e-03,5.186039209365844727e-01
-2.370278161365324890e-02,-3.224655833921410975e-01,2.866794585545032192e-01,-1.230122231597462071e-03,7.662306637940805021e-03,-2.800231243567756056e-03,5.277605652809143066e-01
-1.900751969586026227e-02,-3.576459948660901667e-01,2.656489040565718773e-01,-3.176418352025599939e-02,2.210603469596859189e-02,3.493383809911273976e-03,5.446379184722900391e-01
-2.389194164079775501e-02,-3.123487807922705750e-01,2.670957438437311371e-01,2.575131297030923330e-03,2.613576765850755476e-02,-1.074977230641879777e-02,5.042166113853454590e-01
-1.511950117087957311e-02,-2.758395316088089744e-01,2.458886632314754572e-01,1.682165485111386874e-02,-5.107465146328498198e-03,-2.590349483348669286e-03,4.528769552707672119e-01
-2.263403803837532244e-02,-2.983586446964069938e-01,2.931047974624062524e-01,-1.754020784292809965e-03,1.898075104081865458e-03,-3.421346174941857030e-03,5.126667618751525879e-01
-1.367211834794042000e-02,-2.940702260416644398e-01,2.001060751786841452e-01,8.867429893262133989e-03,-8.269168225895890886e-03,-2.267959826265278367e-03,4.297949373722076416e-01
-2.040039371894482312e-02,-3.275687028113796195e-01,2.392420817524792409e-01,-3.660258660999973507e-03,5.099717442118429679e-03,-4.072504553214632101e-04,4.915681481361389160e-01
-1.428059537725041156e-02,-3.228168370124489539e-01,2.249014202644918914e-01,-3.266069943664892238e-03,-7.854884461577966298e-03,-1.306697727764274952e-03,4.758373498916625977e-01
-1.951859489250296065e-02,-3.233210692816821941e-01,2.711374727665961104e-01,-6.062516450045959265e-03,1.393904661993738102e-03,-2.905845782395360521e-03,5.149954557418823242e-01
-1.964209941690946148e-02,-3.195352073353754374e-01,2.924173120832723738e-01,-5.488714047939374265e-03,6.253554879121753403e-03,2.389481850020629995e-03,5.302134156227111816e-01
-1.852984080675514761e-02,-3.078552652744037110e-01,3.034905480064268857e-01,-2.852930612849645213e-03,1.010649317453903191e-02,1.039538677175549583e-03,5.300086140632629395e-01
-1.540313154956938699e-02,-2.970649801794831291e-01,2.870411185392173214e-01,9.602476154566717478e-03,-8.277717309306946783e-03,6.657110752363032923e-03,5.065649747848510742e-01
-1.640286743462276986e-02,-2.701625151010826342e-01,2.890890071891857316e-01,1.785943714388022949e-02,9.620501181692818829e-03,1.682551513662383647e-02,4.871597290039062500e-01
-1.869547949496710992e-02,-2.727989789342049609e-01,2.976793517902004971e-01,1.225519947952569307e-02,1.325059211308218798e-02,2.783037873529565012e-02,4.983517527580261230e-01
-1.346430408352178656e-02,-2.903512090618425301e-01,2.911346836571097607e-01,2.378755659072849873e-03,1.349719706494280878e-02,7.689409028246163569e-03,5.045069456100463867e-01
-2.054136719539036843e-02,-3.193933605926619346e-01,2.964561901573338210e-01,5.542815952978698106e-03,-5.175537880825184511e-03,-5.889618234036094434e-04,5.335811972618103027e-01
-2.158971885197007168e-02,-2.982254434110864216e-01,3.051806343513165931e-01,2.719221736218164522e-03,-5.914127096126064499e-03,1.980923128669608273e-03,5.232986211776733398e-01
-1.946847197044709182e-02,-3.043647132887613571e-01,3.077313760193225445e-01,-6.958973884366543780e-04,-2.611363698535339607e-03,-5.267021599040559547e-03,5.306116938591003418e-01
-2.266873267971528452e-02,-3.145145275249592309e-01,2.966581232791703493e-01,2.231074184269832023e-03,-5.377563756972994838e-03,4.080298141651397641e-03,5.296125411987304688e-01
-2.478737912126438570e-02,-3.137082314455085230e-01,3.000710163155602683e-01,-6.009694816430689054e-05,-4.058830180625273669e-03,4.925707069813018736e-03,5.319669246673583984e-01
2.123709647531086750e-02,-2.631106841696240761e-01,2.864461469528920001e-01,1.448739983842723539e-02,-9.246208665436989049e-03,-4.211809078953137817e-03,4.770120084285736084e-01
-2.013945457863764235e-02,-3.198089239385852323e-01,3.004344144983338016e-01,-2.496828885844018780e-03,-4.397943127537931032e-04,3.195214370942200174e-03,5.372946262359619141e-01
-4.733250320026098981e-03,-2.943845585647635876e-01,2.957943383879813037e-01,-1.646758889160328384e-03,1.294699382275546658e-02,-1.757293518865929004e-03,5.116475224494934082e-01
-1.585921178410216840e-03,-3.062159514602285082e-01,2.966520007361808653e-01,-1.454644930820204931e-03,9.608260300243171015e-03,-3.158072738199924848e-03,5.224086046218872070e-01
2.621542077376969124e-03,-2.849912688367698399e-01,2.980235544506933953e-01,-8.848406208544809526e-03,1.071538239151769226e-02,-3.839421921431052532e-03,5.055378079414367676e-01
-3.233407843536040271e-03,-3.135491943515488211e-01,2.981916136798744010e-01,7.962333752743975266e-04,6.014786360037699571e-03,1.471238924302737576e-03,5.299120545387268066e-01
-4.423697598884415889e-03,-3.146921849129825643e-01,2.989753563106780643e-01,-9.338475368237059496e-04,6.114016831822137107e-03,1.036040559241327083e-03,5.315737724304199219e-01
-1.990635485375726391e-02,-3.208748045980042152e-01,2.931422963629345402e-01,4.144707660226339824e-03,-3.341175313221422371e-03,8.505043295488841403e-04,5.318706631660461426e-01
-1.569619512183036136e-02,-3.188344343084136279e-01,3.007597616697282317e-01,1.626989111935834859e-03,6.660439364352529687e-03,-1.906982142791624436e-04,5.367571115493774414e-01
-1.837660142837348187e-02,-3.154560084753514348e-01,3.032784709071730811e-01,6.950717003499144904e-03,5.804092715434288480e-03,6.528158688653014005e-03,5.363292694091796875e-01
-1.350484379956620913e-02,-3.034664534248635581e-01,2.987154369365238038e-01,-9.183447807863424558e-03,-2.712222945593081164e-02,1.658287783960839604e-02,5.247627496719360352e-01
-2.600429961264878048e-02,-3.451499182226785978e-01,2.809492925210449465e-01,-2.730876051577696764e-02,1.920794614069562187e-02,-1.942748847863649125e-02,5.463641285896301270e-01
-2.220838486353480037e-02,-3.217544509101549211e-01,2.993530138134778973e-01,3.648947093068533715e-04,7.776057934822725587e-03,7.728981421883998875e-04,5.381780862808227539e-01
-2.148025063277621965e-02,-3.327317739751961545e-01,2.965179692881577678e-01,-7.452475350848044265e-03,-1.109570086710011177e-03,-2.466801944234341126e-03,5.451297163963317871e-01
-2.186249171153250431e-02,-2.827302010138649235e-01,2.952685985655387202e-01,-8.533170936734673414e-04,1.920755852156255834e-03,3.047585892308322074e-03,5.013925433158874512e-01
-2.368116802613461774e-03,-2.400822966072059805e-01,2.833488732601593396e-01,-2.553528781189166180e-02,-7.288872671720143977e-03,1.274330436332516379e-02,4.567974507808685303e-01
-1.625765139740288287e-02,-3.126100478467703225e-01,2.564253124453614308e-01,-1.364855830018522551e-02,-1.000604331986307098e-02,2.354412025517921281e-02,4.954928755760192871e-01
-1.997157939582603486e-02,-3.218614430281884764e-01,2.635929887326742826e-01,-2.729882831601935633e-03,7.868476471500258224e-03,1.008250731739126008e-02,5.076068043708801270e-01
-1.267751986900722896e-02,-2.800896977961011558e-01,3.054639817204636287e-01,-5.173376610228298811e-03,1.001312720910386110e-02,4.836547265543690403e-03,5.081825256347656250e-01
-1.993707392439260026e-02,-3.294251579959659448e-01,2.927498428280331799e-01,1.932783628397223780e-03,-2.875187968003341515e-03,6.934420132518973393e-03,5.389890074729919434e-01
8.215305539198580753e-03,-3.080176459413809797e-01,3.114421164328292080e-01,-1.619402872710913946e-02,1.318915389507848389e-02,-1.514426562179625908e-02,5.383648872375488281e-01
-1.937930098156903647e-03,-2.124089475603831156e-01,3.144681488406362302e-01,-3.505008329904104464e-02,3.288210425667299763e-03,-9.395358088147672676e-03,4.636679291725158691e-01
1.973166192730411647e-03,-3.106979212346139829e-01,2.919658844502247552e-01,6.308719281164938946e-04,1.219253406760141632e-03,2.649708172777758431e-03,5.220709443092346191e-01
2.226650164851171065e-02,-2.754119824512215042e-01,2.852826486044612864e-01,6.532356164115753552e-03,-6.941064857803762311e-03,-1.100656672971502296e-03,4.861690998077392578e-01
2.370218845999017259e-03,-2.980330880246159775e-01,2.954745741252489122e-01,-3.872618425852276600e-03,7.851251531015018478e-03,-2.593766268295813213e-06,5.142292976379394531e-01
3.180417242250467569e-03,-3.098429368100465431e-01,3.312821192002308179e-01,-3.166416728526398605e-02,5.216142148422435801e-03,-6.438060129927464410e-03,5.581681132316589355e-01
1.177860120896018561e-02,-2.223993992824673249e-01,2.949897520681452612e-01,-3.357145169864213241e-02,-4.323366042854113848e-03,1.612886080011544706e-03,4.525645971298217773e-01
-6.296846508029992247e-03,-3.128754067302127462e-01,2.994248153943980251e-01,-1.065951588115677563e-02,8.394765873044796392e-03,3.685393296550954281e-03,5.308266282081604004e-01
-3.910366459767321973e-02,-3.148041537089190656e-01,2.901858277212246429e-01,2.063674752804488168e-03,3.221706364698457160e-03,-2.347925095153617029e-03,5.246790051460266113e-01
8.248337953115039700e-03,-2.723475698417044955e-01,2.911104972600232488e-01,-1.782213197246706668e-02,3.068595496997177704e-03,-5.754690986841277771e-03,4.890761971473693848e-01
-3.189988512586387770e-03,-3.216560446679035956e-01,1.983179809679548322e-01,3.686820187331698272e-03,-4.105358511584149966e-03,2.147169033695678353e-02,4.557126164436340332e-01
6.716778001725126623e-03,-3.126051154878073390e-01,1.135582767878545729e-01,1.068888886087767526e-02,-7.667773074485789188e-04,2.091944366667481889e-02,3.862069249153137207e-01
-7.792709450421875239e-03,-3.218221880166635684e-01,1.026067219577518341e-01,9.530098949463465183e-03,-3.248356390630858376e-02,1.475170979684128046e-02,3.867325782775878906e-01
3.001226879245477708e-03,-3.105180602739225915e-01,1.494331046954563980e-01,6.870557700485386936e-03,-1.987191886145999592e-02,1.778062558181098610e-02,4.097811579704284668e-01
2.273788545664540139e-03,-3.118180191873379803e-01,1.914449547209761127e-01,9.798897231660970777e-03,-1.594508769347444815e-02,-4.777306874848931406e-03,4.415605962276458740e-01
-3.458501525174324104e-02,-2.222972511514301197e-01,3.011109074077364944e-01,5.830142692032460813e-03,3.761922956379375443e-03,1.386113937944739513e-02,4.600681364536285400e-01
-1.953873493726751565e-02,-3.014156499051301452e-01,2.843108659384240844e-01,-1.170714255156793046e-03,-2.628490246354135262e-03,-9.189930831323616517e-03,5.076470971107482910e-01
-2.127052118812931825e-02,-3.186560332383717720e-01,2.824569741827698266e-01,4.399783028619844334e-03,2.143198582857595001e-04,-4.999030073299693365e-03,5.207166671752929688e-01
-2.518896868968667144e-02,-3.147870313041229995e-01,2.601698845405266969e-01,-1.002696915205592357e-02,-8.897193656681734453e-03,-7.584456682427529253e-03,4.986459314823150635e-01
-2.521569822806383337e-03,-2.192822924205133361e-01,2.956824879808609419e-01,3.260003537964081127e-02,6.334058549589963866e-03,2.637384672735115093e-02,4.538118243217468262e-01
-1.572857212301308205e-02,-2.711360491977869436e-01,3.004621652942532917e-01,1.565901481875458037e-02,1.011246566860796343e-02,8.429492270616165128e-03,4.972148537635803223e-01
-2.858244271118337218e-02,-3.404298441497651262e-01,2.430370147326308961e-01,2.003715783377470194e-04,-2.840085269682931721e-02,2.260269966900899097e-02,5.095903873443603516e-01
3.708248637757207214e-03,-3.084993966043507729e-01,3.027353887191931436e-01,-9.295942209820082930e-03,6.567231247622573901e-04,5.555292622139358129e-04,5.296327471733093262e-01
-3.018849311293457169e-02,-3.296534214793123141e-01,2.590592116827807878e-01,-4.551714734737890428e-03,-3.197136726622779729e-02,-8.907406335791874866e-03,5.131565928459167480e-01
-1.391535233798502948e-02,-3.132078454955747882e-01,2.870648482061350926e-01,7.062784718246932101e-04,-2.105173743813098901e-03,4.598487746877174751e-03,5.199273228645324707e-01
-1.910384559398337762e-02,-3.417281632928206303e-01,3.493212678726527187e-01,3.509342992102146893e-03,-1.960199617422746926e-02,-1.738072019150588895e-03,5.999042987823486328e-01
-3.366935523479965692e-02,-3.681158335503515455e-01,3.447818442126618921e-01,1.747871818711721828e-02,-3.786413793853730947e-02,7.219347009475965242e-03,6.221136450767517090e-01
-3.296529231630591916e-02,-3.531389869982640706e-01,3.607088867241308727e-01,5.494503782948740971e-03,-3.341186356517323458e-02,-1.147594648032799688e-02,6.223900914192199707e-01
-1.596110024476962361e-02,-3.881237116463215897e-01,3.496412181795541252e-01,-9.257248581726690295e-03,-2.619585362573870202e-02,-2.464426478240953813e-03,6.407554745674133301e-01
-3.081702691858168378e-02,-3.593705510894434352e-01,3.376877539735725908e-01,-4.699995211004484065e-03,-1.053456670818658097e-02,9.238518747777323820e-03,6.045427918434143066e-01
-3.546038065168091724e-02,-5.445194857554567225e-01,3.307961856221974806e-01,3.304793906984596075e-02,-2.878353938493030326e-02,6.100117557695981796e-02,7.724355459213256836e-01
8.505916866898422923e-04,-2.893234344808270908e-01,2.920873668066903961e-01,4.190433126737255591e-03,9.209603046962102843e-03,-2.053369532681096048e-03,5.038342475891113281e-01
2.549825405510404257e-03,-3.021802192733082926e-01,2.937277669875247854e-01,7.050512296697770617e-03,3.247283879325049954e-03,-4.937077275192145983e-04,5.162917375564575195e-01
3.118749372474716522e-04,-2.696530147296246627e-01,2.915889187534474458e-01,1.130933092257897267e-02,1.275613871583533739e-02,1.475118958500498158e-02,4.877320826053619385e-01
7.946697946022228398e-03,-2.823591035969076346e-01,2.906758712470600137e-01,8.228582207114205904e-03,9.822364511901077178e-03,5.665434587528296421e-03,4.968702197074890137e-01
-4.265668568356832321e-03,-2.816070157297452803e-01,2.981015528421782634e-01,5.083636706485664125e-03,9.160078416420823488e-03,-1.749833988423384274e-03,5.025351047515869141e-01
-4.960671579723170688e-02,-3.203025489751030741e-01,2.680361628095841997e-01,-1.195938707603399608e-03,-1.187322697757788557e-02,1.537945586554772051e-02,5.111698508262634277e-01
-4.949585781076215607e-02,-3.504779196670461672e-01,2.012401239816803966e-01,9.210283207706794137e-03,-6.394664679409260699e-02,2.959727373652717639e-02,4.940402507781982422e-01
9.618142456826114794e-04,-3.511440057206063892e-01,2.609960810226253369e-01,3.074529529251701296e-02,-1.068759285808451170e-01,-3.927297816983137124e-02,5.699878931045532227e-01
-5.832213515588983987e-03,-3.073949947601636867e-01,3.010043659724416232e-01,-1.975299537091217660e-03,-4.260238778666282020e-03,9.147708219954555058e-04,5.269610285758972168e-01
-4.680985823062643741e-02,-3.062882430517348542e-01,2.831668301173535518e-01,2.209970369902054203e-03,-1.477046405629859997e-02,3.598845143251445684e-03,5.123899579048156738e-01
-2.013020056692332860e-02,-3.254467240186681987e-01,2.676377928267099637e-01,8.316820771455953748e-03,1.764189584998895291e-04,1.484374905869561244e-02,5.145459771156311035e-01
-1.938401024938787853e-02,-3.134137332721980140e-01,2.799830878429706016e-01,1.936490386369155332e-03,-5.525072694449856790e-03,4.147751361966914643e-03,5.140538811683654785e-01
-4.798854792252325863e-02,-3.306360574549492837e-01,2.605160076858740181e-01,-1.197604585044871091e-04,-5.652475012793566761e-02,2.053791184267297898e-02,5.226024389266967773e-01
-1.472460594703587852e-02,-3.117346423885178908e-01,2.908296333436873327e-01,-9.627182127169861200e-03,-1.172893042056620191e-02,7.281184837647002549e-03,5.226670503616333008e-01
-1.940863457123583741e-02,-3.141478288052156342e-01,2.924748331634210996e-01,6.897230126148935552e-04,-5.713405692002931045e-03,5.843725204806067205e-03,5.256125926971435547e-01
-3.227389734064314841e-02,-3.256025680612197881e-01,2.428084152549774832e-01,1.206139124047888277e-02,-2.190863680459545840e-02,1.033177451866463745e-02,4.945686459541320801e-01
-3.524763581682033298e-02,-5.431558574442372223e-01,2.216822532076852537e-01,-2.438842893353706381e-02,-8.163703185902979054e-02,2.698018877371151716e-02,6.916953921318054199e-01
-1.330491183567479932e-02,-3.067700864504043778e-01,2.676191057787934424e-01,-3.057969130222507048e-03,8.438788960197056432e-03,-3.793411973064507014e-03,4.977613687515258789e-01
-2.239744930691831698e-02,-3.065794484297824640e-01,2.936591977985268942e-01,-2.596935200739564596e-03,-3.720357791993356405e-03,3.979274460205540868e-03,5.201712250709533691e-01
-2.702382986679752533e-02,-2.848027004521268002e-01,3.048513210955002273e-01,2.589142237585580122e-03,-4.119818384771608590e-03,4.411305085279351203e-03,5.121238827705383301e-01
-1.523922328224499266e-02,-3.079191656272330380e-01,2.414717101469868177e-01,-1.426609909933678659e-03,1.856567127865728741e-04,7.268105245640326187e-03,4.762991368770599365e-01
-1.765362855360405256e-02,-3.130419878360947705e-01,2.997313918732545379e-01,1.001846295894898023e-03,7.187081231108808418e-04,-1.794512771620465066e-03,5.308046936988830566e-01
-1.492864223778275767e-02,-3.038707709012473113e-01,1.802382375185387076e-01,-2.857381545139296101e-03,2.778677313040163119e-02,-1.780604434011740476e-03,4.246409237384796143e-01
-9.726948566113946537e-03,-3.337185722062426807e-01,2.102396404643512295e-01,-2.354981691677402334e-03,3.664815246164525309e-02,3.486033387836198066e-02,4.819904863834381104e-01
-2.634693824517040511e-02,-3.216912684353872010e-01,2.119510474557427249e-01,2.664443698378145091e-03,-8.078451455156948971e-03,9.033617622674202860e-03,4.635256826877593994e-01
-1.315921234032521939e-02,-2.650688034038462537e-01,2.916514490765200751e-01,-2.632706326409642653e-02,2.820095482017172597e-02,-4.086874225733400784e-02,4.925735592842102051e-01
2.336731059877256156e-02,-2.386944283481848839e-01,2.890410151643847958e-01,5.351137399630950808e-02,2.147417270118672211e-03,2.082204699878034693e-02,4.677464067935943604e-01
-1.024690985591822714e-02,-3.202375849757985726e-01,2.238282968740504808e-01,-7.015314973871992522e-03,6.186961810512892903e-05,-1.876994702306930898e-02,4.739737808704376221e-01
2.105375597063944421e-02,-2.941377995260821554e-01,2.981945437092978768e-01,2.259522455391236098e-02,-7.205545822751324367e-03,-1.325093323912985600e-02,5.154796838760375977e-01
2.487600996165138106e-02,-2.683789053445712058e-01,2.912180793482589403e-01,2.287187144869821248e-02,-5.565191391437533143e-03,-7.232956136282448455e-03,4.866845905780792236e-01
2.478543343920078246e-02,-3.098669203176609988e-01,2.992801527786024818e-01,6.536780984469045541e-02,-6.734395273618382083e-03,-2.676277023930334273e-02,5.424974560737609863e-01
2.209065589979349042e-02,-2.736205558000449067e-01,2.908396266720686407e-01,2.045947997809621777e-02,-2.505487514114288069e-04,-1.200577129705361883e-03,4.903095960617065430e-01
2.070811358889172032e-02,-2.999827423698864237e-01,3.081868469509495556e-01,2.516345668948790498e-02,2.928565519955648143e-03,4.454018107873764301e-03,5.288320183753967285e-01
1.135319817636695587e-02,-2.975257278882535994e-01,3.109671786918226100e-01,1.937535175469174212e-02,-3.057677278214030771e-03,-6.209141493391609305e-03,5.281941890716552734e-01
-4.771693574996051235e-02,-3.285962046141700510e-01,1.902307202104934758e-01,7.443030903114008709e-03,-5.251594305573629301e-02,1.513505304323672397e-02,4.598630070686340332e-01
-1.924786619743220836e-02,-3.374456517429840763e-01,2.356074865123270468e-01,6.536154734617747458e-03,-4.557128373828594342e-02,2.926812834501912874e-02,5.061854720115661621e-01
-9.960631535234115014e-03,-3.274129242211918367e-01,2.729974364217466754e-01,-8.117716185513384683e-03,8.720943558918585123e-03,1.338936042197466647e-02,5.211819410324096680e-01
-1.171125024296761248e-02,-3.291984123122163597e-01,2.642518854631135117e-01,-8.594037179818412447e-03,-1.533921261975052311e-02,1.811576273425842196e-02,5.162174701690673828e-01
-2.324537290582883581e-02,-3.184680202735253873e-01,2.977617472110726249e-01,8.457530672465746061e-04,-1.412763035628296143e-03,1.179467649916701635e-03,5.338378548622131348e-01
-7.995212731101370221e-03,-3.041821688174413674e-01,3.056596910453546756e-01,2.253389999734825913e-02,-1.608816286869993104e-02,9.266176385196955812e-04,5.303857326507568359e-01
3.382198676217971697e-03,-3.380905547320347537e-01,3.122814187056687785e-01,3.470914721257228192e-02,-3.962722877553177814e-03,6.643199993866928665e-03,5.668303966522216797e-01
1.278924047804738326e-03,-3.354909773687504426e-01,3.136575004980676207e-01,1.570463474161329712e-02,-3.742182465482785277e-03,-2.533244006416279434e-03,5.630232691764831543e-01
-1.459785089251206501e-02,-3.218259135817153060e-01,2.835796504613370406e-01,7.400990819915938615e-03,-2.183511625833303976e-03,1.491814945484114252e-02,5.251225233078002930e-01
-5.508812709201515306e-03,-2.745029782872081547e-01,3.031385882703871437e-01,2.509452691358441540e-02,-1.418049757492302609e-02,1.134803964727474322e-02,5.035119056701660156e-01
-2.263920041701872853e-03,-2.980731878592739470e-01,2.964193491729239516e-01,1.407413677969230822e-02,-9.397220006349602667e-03,-8.733398866272060884e-03,5.159031748771667480e-01
6.329738185217322934e-03,-2.978438734234535867e-01,3.055385050784214518e-01,1.834281477814431530e-02,4.974782571439919547e-04,2.085185743239922115e-03,5.235284566879272461e-01
-7.542473754790715232e-03,-3.119911343951321525e-01,2.985941725661768742e-01,-4.979365325652598991e-03,4.328197898780784814e-03,-4.995295247346093551e-03,5.289772748947143555e-01
-2.286708512581864250e-02,-3.090607591383411346e-01,2.977278476167231069e-01,3.461283959024528088e-03,8.913651538730986987e-04,-4.330214089766799010e-04,5.258127450942993164e-01
-9.456472985781234908e-03,-3.092376515851988361e-01,2.982350715852831180e-01,-3.202384496436594483e-03,-2.739025853533573213e-03,1.296141078795483379e-03,5.261570811271667480e-01
-1.563383143897490585e-02,-3.109516586317544462e-01,3.036331874993484226e-01,1.290164666090278748e-03,-6.746384909869876725e-03,-8.214307734147055170e-05,5.325136780738830566e-01
-2.101937996107415552e-02,-3.244240714397734759e-01,2.963630662780133429e-01,2.813229139033758021e-03,-3.440939491429894238e-03,-1.038158956044045325e-03,5.377209782600402832e-01
-1.183552659311039312e-02,-2.859784694742219524e-01,2.951002426480140994e-01,-9.159838404620035401e-03,-3.343011806186086104e-03,1.838752382165935320e-03,5.037891864776611328e-01
-3.406447994612533947e-02,-3.133398191233500718e-01,2.908074354117619609e-01,-1.012229924942299525e-03,1.710974737373063131e-02,-4.534543040696618205e-03,5.246028900146484375e-01
-4.753053649126335613e-04,-3.131711921428831924e-01,3.127828159405644515e-01,8.842179745379118161e-03,-8.053574306535167884e-03,-6.673750887815473043e-03,5.426109433174133301e-01
1.906803650271413075e-02,-2.738923635680198809e-01,2.840903735750127668e-01,1.223741722202423450e-02,-1.002102105488415079e-02,-7.757514411719150169e-03,4.843911230564117432e-01
2.712936568011625575e-03,-2.794118242980433431e-01,2.834414838982674545e-01,4.150186096373671002e-02,-1.041415081839953787e-02,-7.464828812284263898e-03,4.932171106338500977e-01
-1.360615793437040810e-02,-2.042271874366675122e-01,3.044413627945369849e-01,3.481858485576757450e-02,-1.319692300835508154e-02,-2.286005961977525050e-02,4.514912664890289307e-01
3.130798301750263579e-02,-2.636421305349418431e-01,2.941596300072717440e-01,2.639602290883842628e-02,-1.337053335648501066e-04,2.156010613699315629e-03,4.855089485645294189e-01
6.497905733332864919e-03,-2.151048754464820190e-01,2.815956572693475990e-01,2.702675660660736751e-02,7.556444013019985098e-03,4.367558340280843984e-03,4.337843358516693115e-01
1.216908035906889840e-02,-1.519859925145488899e-01,3.501969153838235815e-01,5.783267943625679947e-02,-1.153405351757837410e-03,1.734757110919926421e-03,4.546928107738494873e-01
2.269314371962222882e-02,-2.018209656199258795e-01,2.989065691909258415e-01,6.166150616218189079e-02,-2.603169260005498589e-04,-2.792829862231010693e-03,4.473748803138732910e-01
4.793761277124934661e-03,-2.238746659011951190e-01,2.967711261895872865e-01,3.257410864110179410e-02,-5.023429472898525289e-03,-8.175113316635836819e-03,4.558129608631134033e-01
2.378749637605944919e-02,-2.124542153003259326e-01,3.497300126876487503e-01,5.573365901785209270e-02,-7.183912140890259292e-03,-8.326373905921360258e-03,4.987297952175140381e-01
5.634270480002825932e-03,-3.149050032307383895e-01,1.470251641943320642e-01,1.405915665550601325e-04,1.817020300937599239e-02,1.520725439831812492e-02,4.119981229305267334e-01
-2.180170069203163710e-02,-3.138747745018979907e-01,2.981524797508796620e-01,2.734693966176994593e-03,9.624143532115976432e-04,-1.180148447877151603e-03,5.302421450614929199e-01
6.839541428607376350e-03,-3.189267987484187272e-01,1.212423334382070617e-01,5.865521898754329916e-03,-6.955465483276623666e-03,1.444098569219437293e-02,3.966790437698364258e-01
4.500542498921872303e-03,-3.305372353253729356e-01,6.789401148580040402e-02,-3.939248224653531250e-03,2.335924937933809079e-02,7.171053394827695861e-03,3.732908368110656738e-01
-1.202239862239329327e-03,-3.298649034644638434e-01,1.219890343310215119e-01,-2.290617179317381690e-03,2.765951715855163341e-03,1.503955252808081289e-02,4.054637551307678223e-01
5.087954368141731076e-03,-3.135920128318006039e-01,1.431977804384258757e-01,3.708581556937855933e-03,-1.598380058278695004e-02,-3.206631766355768492e-03,4.067955613136291504e-01
-4.198377907219443678e-02,-3.162662240859014928e-01,2.484119766560233256e-01,-1.849679784286885668e-04,3.904620750021791514e-02,-4.323257885052849206e-03,4.938026070594787598e-01
-4.870384437397148186e-02,-3.190792136520327893e-01,2.674783749950772060e-01,-4.815135007105461953e-03,2.989464963877142695e-02,1.137305522077458088e-02,5.115668177604675293e-01
-3.934441712009094372e-02,-3.071853343638112910e-01,2.365770964356205819e-01,1.123561787697381414e-03,1.222877986433348364e-02,2.477245939622682927e-03,4.714290499687194824e-01
-3.370729031703195711e-02,-3.058389439405059806e-01,2.720942297928723441e-01,6.777045833119428250e-03,1.681749624553051034e-02,7.506075020549656397e-05,5.017716288566589355e-01
-3.128757560064945181e-02,-3.234284249950791224e-01,2.573792797129468291e-01,7.859208103258439465e-03,1.939972775191637494e-02,-3.052603539684803444e-03,5.043297410011291504e-01
-3.752189273467913116e-02,-3.072228848888229336e-01,2.682221342077394377e-01,4.215939810295242507e-03,1.006504002128395456e-02,-6.146905842277902623e-04,4.990349411964416504e-01
-1.335541156146212612e-02,-2.924952884528337904e-01,2.864906421512835033e-01,-8.743538946073362364e-03,-3.167938232664451424e-04,5.310754979132119129e-03,5.018365979194641113e-01
-3.951418365935124161e-02,-3.333345499711388160e-01,2.825844754491516619e-01,-1.666321113008568770e-03,2.849874897501148210e-02,8.310056202073111409e-03,5.360682010650634766e-01
-4.156421443803549193e-02,-3.041788944341833334e-01,2.576389017308823304e-01,4.977902581516778936e-04,2.154808965787773437e-02,1.842179458532184006e-03,4.883318543434143066e-01
-4.455052523681207050e-02,-3.146775114787870309e-01,2.669229814552707136e-01,5.084586730257859705e-03,2.278626655143903279e-02,-8.430630225729289148e-03,5.059349536895751953e-01
-1.785039967894971186e-02,-3.195588475597778699e-01,3.040301038399233491e-01,-2.195551393939573250e-03,4.233987845858543618e-03,5.003596160949110071e-04,5.402019023895263672e-01
-1.786992789826735706e-02,-3.202326722309536411e-01,3.020377785046292063e-01,-1.176978872892923706e-03,1.823359859989540609e-03,6.329675645805446548e-04,5.389876365661621094e-01
-2.468882184938992613e-02,-3.199892740185649176e-01,2.890390443106817808e-01,-3.867592647512762150e-03,-1.445414626595194901e-03,-1.663605632128984432e-03,5.275707840919494629e-01
-1.951560507129151967e-02,-5.548242357484656218e-01,1.103874989867688061e-01,-6.138246633100745420e-02,1.103201918624076294e-01,4.304910976927611710e-02,6.529495716094970703e-01
8.805385897316175131e-03,-2.959720872746039455e-01,2.924732881171391852e-01,-6.807589091788010527e-03,-5.394491522992277480e-03,6.165647327485961754e-04,5.099410414695739746e-01
-2.093544425807827153e-02,-3.206592417695140473e-01,3.019452880988170440e-01,-2.211769546378612207e-03,1.408764190437617565e-03,3.460649101935213412e-04,5.393350720405578613e-01
-2.072353017140198678e-02,-3.181658863997263720e-01,2.932354323675526730e-01,-3.655508823499476530e-03,-2.055266782976498561e-04,-2.246513251796927388e-03,5.296057462692260742e-01
-4.494343965874775249e-02,-3.065937395319147662e-01,2.873062966141033403e-01,2.391071628107688946e-03,-6.641515429412608515e-03,1.697327061635427008e-03,5.156957507133483887e-01
-2.431426202582540400e-02,-3.191796828888575077e-01,2.932129931674749002e-01,-4.277674703373533435e-03,6.563984888956784841e-04,-2.032215849133942390e-03,5.305332541465759277e-01
-2.773159296592000653e-02,-3.616219371423720630e-01,2.829626464857292190e-01,-1.680419043568879764e-02,2.797690590316979919e-02,9.085192205750915184e-03,5.614217519760131836e-01
-2.479867725557569763e-02,-3.178734165835457870e-01,2.920515458893356286e-01,4.932580880130227156e-03,-2.819674839855210863e-04,-1.762441702117950376e-03,5.284223556518554688e-01
-3.973803601522873929e-02,-3.444539395982442742e-01,3.046230647501115274e-01,-1.414198009078044063e-02,3.605857229877672265e-02,1.756685608111771199e-02,5.672698616981506348e-01
-3.208621420864685159e-02,-3.386096633805094069e-01,2.264750656115397942e-01,-5.706021206820368480e-03,4.168350872071633489e-02,-1.482183852328447515e-02,4.960190951824188232e-01
-3.014325796463430962e-02,-3.113317303947515935e-01,3.020323615521386951e-01,-5.657402759943369261e-03,3.833140199550312110e-03,7.078998459165209735e-03,5.320733189582824707e-01
-3.048409332203073571e-02,-3.194945439374363150e-01,2.598278327500919693e-01,-5.144188759887674545e-03,1.502187548263963189e-02,2.001274647781485071e-03,5.024734735488891602e-01
-2.612242250020536255e-02,-3.129203717147544528e-01,2.971332874445197780e-01,-8.606797066613266350e-03,-1.197840732816435067e-03,4.619226595652812378e-03,5.289111137390136719e-01
-1.875022030010176782e-02,-3.103167729837513766e-01,3.015400552638811127e-01,1.952660132959468532e-05,-1.298194706757156832e-03,1.321317926090087938e-04,5.300830006599426270e-01
1.289819139356597651e-02,-2.953772098398257939e-01,2.941945784642239770e-01,3.341199113910566301e-03,6.666634967617577484e-03,2.725884809196576965e-03,5.109474062919616699e-01
-4.249882445141998921e-02,-3.109125479307589535e-01,2.803203057006075638e-01,-7.126804972707871319e-03,1.160168305111263475e-02,9.052072084825538503e-03,5.135262608528137207e-01
-2.062737814635524566e-02,-3.168736293609134003e-01,3.003711343829620350e-01,6.329338310997332975e-05,-2.510840932134291922e-03,-1.103436159086626777e-05,5.347105860710144043e-01
-1.839767687428189857e-02,-3.160193663724711333e-01,3.004867542383806711e-01,1.243231421425424529e-03,-2.177866988378403951e-03,9.849666961981261553e-05,5.340334773063659668e-01
-2.474433476352120090e-02,-3.147825802424944475e-01,2.995350884891916921e-01,1.781305947411634342e-03,-3.397182032395198070e-04,-1.792134637712507715e-03,5.323083996772766113e-01
-2.312296972914831134e-02,-3.163684909738940787e-01,2.965155697162971671e-01,3.165276405671224331e-03,-3.004799257023300918e-03,5.944577770768823781e-05,5.309910178184509277e-01
3.709270688648590164e-03,-2.042000316167009166e-01,3.481429027144490318e-01,8.265496035924314866e-02,-5.890720496682977370e-02,-5.022091865234949021e-02,5.214824080467224121e-01
1.192309283201626463e-02,-2.855292499076760304e-01,3.156811120702531226e-01,3.248198262202824788e-02,-4.539128060502655750e-03,5.293194467893754321e-03,5.238429903984069824e-01
2.456503199251699326e-02,-2.590157396218387698e-01,3.151654241437761295e-01,4.202741228701472459e-02,-9.088492792084132106e-04,3.323398014849116705e-03,5.026030540466308594e-01
-1.711536114417763071e-02,-2.958898475219180479e-01,3.966909176267105486e-01,5.701678894798083153e-02,1.425419649609278687e-02,1.548476330091646570e-02,6.126917004585266113e-01
-4.842311624355315203e-02,-3.011045482695012820e-01,4.291429636462406605e-01,1.226996916923368403e-01,-3.290802587118430572e-02,-8.287698894048147608e-03,6.791243553161621094e-01
-2.409085233242844529e-02,-3.187532450398053996e-01,3.037652931584219340e-01,1.001286536427413026e-01,-7.586080221015487068e-02,2.439904137444961346e-02,5.831382274627685547e-01
-2.061203951805046231e-02,-3.182218240236424078e-01,3.005521912193999112e-01,2.284557641169807345e-03,-1.374661130857145110e-03,3.801317988777902241e-04,5.360237360000610352e-01
1.063471499558236825e-02,-2.451107862445333074e-01,2.892595559164581887e-01,-1.688363379781676957e-02,-2.224634270354335780e-03,2.685167871318665245e-03,4.638817310333251953e-01
-1.752189527178025369e-02,-2.521960133680650751e-01,2.939317924346733779e-01,-1.622844976410927828e-02,-1.204744708598216169e-02,8.927793663210444736e-03,4.760568141937255859e-01
-7.020816805636126423e-04,-1.698827972124344610e-01,2.929254263300638539e-01,-3.906467649919923707e-02,-7.657957957352463756e-03,1.682137559556340367e-02,4.124539792537689209e-01
-9.184085369643893437e-03,-1.940002412901780104e-01,2.893313099978735980e-01,-3.130220591394945739e-02,-1.430119942976658745e-02,-6.446188572951287374e-03,4.267512559890747070e-01
8.242587294743189061e-03,-2.491904864501809924e-01,2.962953396292519193e-01,-4.811281426263318284e-02,-7.427930119084025749e-03,5.139602245264921279e-03,4.801976382732391357e-01
-7.650163822546150738e-03,-2.720980779160874219e-01,3.010942917899520621e-01,-3.558098181298598173e-02,1.050344109326319846e-03,2.214807829396824371e-02,5.021709203720092773e-01
8.483667915811992505e-03,-2.838345577635363326e-01,2.989990069212628554e-01,-1.825850904749520137e-02,1.774266276330032895e-03,-4.266988316140075260e-03,5.058025717735290527e-01
1.373428814681977583e-03,-2.750157439251730840e-01,3.284667211231123707e-01,-4.872956734876321416e-02,1.515811316280305313e-02,-1.056301520745822273e-02,5.309743881225585938e-01
-8.904116920649060574e-05,-2.330659338117642698e-01,3.164510245726258053e-01,-5.815459266976755193e-02,3.911781226040540044e-03,-9.898577274974611206e-03,4.885776042938232422e-01
-2.021341219608216444e-03,-1.542649277551587372e-01,2.814358014772605499e-01,-3.842678479231530220e-02,-1.142147937865729997e-02,1.730126287315142050e-02,3.903841674327850342e-01
-2.953505066063116108e-02,-3.608972973867873302e-01,2.907664982054895542e-01,1.615841128864651394e-02,-2.600637976302118751e-02,1.618154189938635426e-02,5.675629377365112305e-01
-4.129433496021765737e-02,-3.042607522314083046e-01,2.916665710819026369e-01,5.712981777494124426e-04,-8.644485941200178922e-03,4.656859759435340741e-04,5.174916982650756836e-01
-4.217467013630188388e-02,-3.037593671828657804e-01,2.703589600791595493e-01,1.540865277345135884e-04,-2.970401449989539238e-03,1.263714323808429760e-04,4.978799223899841309e-01
-4.330686152179676063e-02,-3.224803311247826931e-01,2.950746763978997489e-01,2.098188630394638037e-04,-2.456864020680916971e-02,2.086109609056914114e-04,5.373250246047973633e-01
-5.120940891239405407e-02,-3.626740330994637218e-01,2.867819499109580117e-01,-6.727598840082020873e-03,-6.419044300952547744e-02,-1.369249055751922857e-02,5.740907788276672363e-01
-1.895614985763493382e-02,-2.977161065065353496e-01,2.917139588106837378e-01,1.573695854110268577e-02,-2.595075853104749850e-02,-5.954570849241171485e-03,5.135124921798706055e-01
-2.142947514991122571e-02,-5.158953334455835815e-01,2.621265806636946527e-01,4.218515864151047012e-02,-9.902582748168070603e-02,1.989153583975906622e-02,7.078512907028198242e-01
-2.513252070104550484e-02,-3.012161806489849769e-01,1.870100786515823676e-01,1.442888244110765699e-03,-2.375090402065854756e-02,-4.137778312045789541e-04,4.260221123695373535e-01
-3.053223956187348098e-02,-3.164578442819148685e-01,2.095649046125883652e-01,-1.603035028298879566e-03,-2.416767617693304018e-02,-9.229956798640250384e-03,4.583290517330169678e-01
-3.801871745470719599e-02,-3.050959319053581642e-01,2.807075878055904083e-01,-6.959508718787846618e-03,-1.125422121349643409e-02,-3.714611976337682184e-03,5.085350275039672852e-01
-2.642353197740469894e-02,-3.112619094259019836e-01,2.857097607474300416e-01,-7.187254764357758419e-04,-2.179408375097873635e-03,4.706914541486373511e-03,5.172522664070129395e-01
-2.184289121951276530e-02,-2.904018377413394858e-01,2.494109243283192945e-01,2.603161700106831553e-03,5.618662392312986746e-04,1.101556841018520166e-02,4.679054319858551025e-01
-2.168548603025053159e-02,-3.188368966734386745e-01,2.937874033003072261e-01,2.729525571420205431e-03,2.901061855211339163e-03,9.171966363262737745e-03,5.309098958969116211e-01
-1.242130821126915391e-02,-3.178933828378174287e-01,1.529761005806415664e-01,-2.552952430840646839e-03,-2.555593940799816624e-02,-5.239467075894366568e-03,4.162391126155853271e-01
-1.604913968853664136e-02,-3.242902890394614990e-01,2.502529280386767141e-01,-4.525572672677612672e-03,-1.920687313149885929e-03,1.588977676258100180e-03,4.980911016464233398e-01
-4.781067184141914866e-02,-3.022409060571412676e-01,2.742366738648689406e-01,-4.811654081947829118e-04,-1.871223897922741353e-03,9.097484701972127536e-05,5.003988742828369141e-01
-1.229793249779921605e-02,-3.225635262584455321e-01,1.519353980212893029e-01,7.022489498054933048e-03,-1.232373412871112621e-02,1.299735904675382303e-02,4.186927676200866699e-01
-1.110945934185125078e-02,-3.329583043331402759e-01,1.762200830249473771e-01,-9.964020438804351010e-03,-2.808925745387276084e-04,-2.381761977582625128e-03,4.464145302772521973e-01
-2.000398884220747769e-02,-3.191092169479691210e-01,2.245577750649578319e-01,1.932924228410562439e-02,-4.944087886356257622e-02,-1.131655948683227102e-03,4.805018305778503418e-01
-1.096302464796766220e-02,-2.873398895590241753e-01,2.835957732984196733e-01,3.205627601475968813e-02,-2.733076519212678315e-02,-5.441075061599563202e-03,4.999708235263824463e-01
-1.527560901137927675e-02,-3.103631152610876187e-01,2.955319366472731746e-01,1.004182680614135702e-02,-3.990987928863723444e-03,1.137034326296848009e-02,5.254821777343750000e-01
-7.419596491613181244e-03,-3.121106780166630346e-01,2.845443005349713173e-01,2.387086605967896416e-02,-5.512328328048586058e-03,5.607019487265559911e-03,5.185877680778503418e-01
-7.347466592939583263e-03,-2.550962161553924079e-01,2.899649752843408979e-01,4.419229483253666463e-02,-2.401931705118644580e-02,-6.114963312397044166e-03,4.807647466659545898e-01
-3.737775210824489242e-02,-3.024970882330785260e-01,2.409937062965974430e-01,-4.716989158442027284e-03,-9.847015271829148361e-03,1.219328129290985028e-03,4.711079299449920654e-01
-2.594383112926819390e-02,-3.319614529748496357e-01,2.664278369132268010e-01,2.413759455671575255e-03,-8.412032954665494069e-03,9.061111964174263164e-03,5.187243223190307617e-01
-4.098027945542099398e-02,-3.205256007912938299e-01,2.710390361535782167e-01,-6.288163244639299529e-03,-1.562738444784067537e-02,-1.066080217284478757e-02,5.137289166450500488e-01
-5.085677525274058530e-02,-3.092469215803050897e-01,2.547627904663464227e-01,-8.247425588868134011e-04,-1.988847637850802222e-02,3.599646353114808843e-03,4.902707934379577637e-01
5.044857674151415061e-03,-3.380579726200784729e-01,1.515651707890809108e-01,7.760816822139145199e-03,-2.174103417999047327e-02,3.164062450169653762e-02,4.405239820480346680e-01
1.454453045962005031e-02,-3.167449056460323042e-01,6.369012703194995573e-02,9.553559664061780921e-03,-1.285633742052370854e-02,-1.733804701467895823e-02,3.607227206230163574e-01
3.608843345417500625e-03,-3.782826797357865534e-01,7.405964688474792057e-03,-2.689472518661314786e-04,-3.084958408436911173e-02,6.019113768783825730e-02,4.012852609157562256e-01
-5.618763146539140774e-03,-5.681802578036512230e-01,1.688169085047552809e-02,-5.542490341653497771e-02,-4.768263602268067898e-03,7.234992480409255244e-02,5.955057740211486816e-01
-1.147232361179871540e-02,-3.164771114507988758e-01,9.072051981237064244e-02,-1.131880191412386848e-02,-6.922288634982523559e-02,-1.096205566331918783e-02,3.869895040988922119e-01
6.719866017023228000e-03,-3.026360900696472567e-01,2.894590410144612935e-01,4.437645592074060397e-03,-7.651272508091608478e-03,-1.735996818314406538e-03,5.131796598434448242e-01
2.829291998036772421e-02,-2.676042351926223861e-01,2.927712313269586475e-01,2.356961973996567206e-02,-1.227647981320482886e-03,-4.594795292879888353e-03,4.873363673686981201e-01
3.381466107105876757e-03,-3.137884505345331920e-01,3.422824336279912671e-01,2.026137085534233939e-02,-4.893591416483747750e-03,-1.556174000722453793e-03,5.694299936294555664e-01
1.961256967162153253e-02,-2.653829669833371874e-01,3.134483377762898870e-01,4.857998348059836685e-02,-2.347352727540216472e-03,-7.839833533665550164e-03,5.085123181343078613e-01
2.623694179779581526e-02,-2.152341252375458980e-01,2.923395382540796006e-01,3.322540381501370987e-02,1.769183307646719208e-03,-1.018275122253174182e-04,4.435043931007385254e-01
1.871823931354381701e-02,-2.834774519532195503e-01,2.905635373435010993e-01,2.016240043531036460e-02,-8.804740888900002352e-03,-7.862120803779558756e-03,4.990091621875762939e-01
-8.219201019641500863e-03,-2.812861410860308942e-01,2.975501322667863935e-01,1.776822120281055725e-02,2.719657522644921763e-02,3.231642171634698663e-02,5.077943205833435059e-01
2.342411216061615967e-02,-2.874411421859695559e-01,2.862191097059516021e-01,1.671328913695106083e-02,3.487598813345337435e-03,3.671165123774753139e-03,4.983043074607849121e-01
-3.030200932107153522e-02,-1.645808799546232548e-01,2.970546941136108510e-01,-8.130302765890246031e-03,-1.031754354816528246e-02,1.183033507075539198e-02,4.124170839786529541e-01
-4.842244460053191091e-02,-1.818881963849035832e-01,2.962691442413372678e-01,-4.364307108630672422e-02,-9.388443163512300276e-04,2.741871401188750515e-02,4.365799725055694580e-01
-2.074676976932205569e-02,-3.204523111386410883e-01,3.034457938995361870e-01,-2.674685191326763348e-04,-1.273871128173187546e-03,1.276862712032024406e-03,5.404595136642456055e-01
-2.765737762949499468e-02,-1.721593008312562179e-01,3.121870583929609588e-01,-3.661612824356449275e-02,-1.888028059980773748e-02,2.185830479369186771e-02,4.381873905658721924e-01
-3.161901368217199387e-02,-3.098298357873476849e-01,3.003930148734371697e-01,-2.203585904774044840e-03,1.263718385247074479e-02,-5.927199553265075430e-03,5.297184586524963379e-01
-2.077598958261012846e-02,-1.552499526844197952e-01,1.925523499860256338e-01,-2.455948442741011373e-02,1.428160490674233729e-02,-2.015875332788583021e-03,3.077546358108520508e-01
-2.630570195136780823e-02,-2.731921417480136505e-01,2.985967304972217962e-01,-1.284452773500249475e-03,-1.159534758999493896e-02,1.803244446916868601e-03,4.971383810043334961e-01
-2.330586062473802983e-02,-2.317728104221712104e-01,2.998443210123022395e-01,-2.370520356016858274e-02,-8.681515871851678418e-03,2.637707798381835542e-02,4.682411849498748779e-01
-4.274149059625326208e-02,-3.059336455027534818e-01,2.624540203539013627e-01,-4.132789697221363537e-03,-1.102599737287223748e-02,-2.172180890410714028e-03,4.931222796440124512e-01
-2.688935716178438018e-02,-1.275468433293405202e-01,2.984295389106726426e-01,-1.919890899342427057e-02,-6.203062861457484846e-03,2.525859342225926507e-02,3.896733522415161133e-01
-3.070362467180622751e-02,-3.117919879998649613e-01,2.791335535682659685e-01,-6.184447290505984754e-03,-3.884041808298409077e-03,-1.549041921609768682e-05,5.121145844459533691e-01
-4.050167701622888611e-02,-2.391979179641120778e-01,3.004754293283536382e-01,-6.747252673987532475e-04,-2.697173911873783272e-03,1.422537185292892768e-02,4.734202325344085693e-01
5.553208924277353020e-03,-3.171192620876747137e-01,8.835287618786688557e-02,-7.794425766522422583e-03,-5.576965901764058091e-03,-3.045879108860906695e-02,3.751656413078308105e-01
-3.397632814952949998e-03,-3.150360497043411812e-01,1.234931695785312644e-01,-3.508353186466695462e-03,-2.533706670120837445e-02,-2.000152619533180146e-02,3.948757350444793701e-01
-1.040754681570360551e-04,-3.684295833766018102e-01,1.403694088585372701e-01,-4.969720256235855838e-03,-9.616748279941677094e-03,-2.003124457676192655e-02,4.568279087543487549e-01
-3.919982624422987949e-03,-3.437335795168407482e-01,1.357090994667033979e-01,-1.035460067262066082e-02,-3.160634065768354317e-02,2.450527466919306258e-03,4.309918582439422607e-01
1.690275262691752489e-02,-3.454276207728970149e-01,9.662776916667475957e-03,-1.606428941974367974e-02,-2.368698906440066480e-03,2.754010008013044880e-02,3.630135655403137207e-01
1.804149887596728785e-02,-3.103260534581664398e-01,9.597926461178130086e-02,1.267497305281379844e-03,-2.067079147189810565e-03,-9.217833904497265210e-03,3.738506734371185303e-01
-1.935121180315428624e-02,-4.516220003869924615e-01,3.745344458739289784e-01,6.845031397918832639e-02,-9.030628750485458767e-02,1.441809395632341617e-02,7.425731420516967773e-01
1.342309126065907576e-02,-3.430449244253299113e-01,6.597842563444128450e-02,1.550667460315722709e-02,-7.871275908277132818e-03,2.102276520900089873e-02,3.883283734321594238e-01
-1.615512265303517200e-02,-3.052635198374359926e-01,2.968225925069464255e-01,-1.364387210116814464e-03,8.464857083847983354e-03,1.047803910278660971e-03,5.217729806900024414e-01
-4.233744737585727613e-02,-3.045468687574760525e-01,2.688358728457463931e-01,4.412990914954557746e-03,-4.886383863197603676e-04,-3.698441501358025311e-04,4.972270429134368896e-01
-2.411832032095817535e-02,-3.376851779013514965e-01,2.376142327153729084e-01,-1.313918201042256310e-02,-9.969038884505348683e-03,5.599326452817337185e-04,4.997156858444213867e-01
-2.498171459475521244e-02,-3.328779260123081452e-01,2.871583418955472866e-01,1.730696559581083394e-03,-9.472607763430476030e-03,1.135497874672056380e-02,5.375902056694030762e-01
-7.363196861194323123e-03,-2.561341030545170594e-01,2.653639145936926846e-01,3.376488540035205155e-02,-2.080460450819819965e-02,1.817049272116729244e-02,4.580641984939575195e-01
-1.912953155122783591e-02,-2.887325872697781293e-01,2.178140050803638039e-01,1.611944647955613000e-02,-3.339576038136127852e-03,1.005081468237128788e-02,4.402553439140319824e-01
-4.454242737508563171e-02,-3.817277672935511790e-01,2.923739964683499393e-01,9.911867801534780809e-04,-2.808730549768298501e-02,1.493505225865561503e-02,5.863861441612243652e-01
-4.417940596905108042e-02,-3.167976013131057478e-01,2.004485680179265428e-01,-4.748166066361858562e-03,-4.073848817375658876e-02,-1.795759312228319138e-02,4.548268914222717285e-01
-3.856379513360369549e-02,-3.237033729929824633e-01,2.230646560818577151e-01,-8.766589067178479772e-03,-2.460259920937401396e-02,-2.154552678987693703e-02,4.772773981094360352e-01
-4.894548200666808818e-02,-3.078829379079578432e-01,2.497361938759048994e-01,9.742488196867592643e-04,-1.985582755810252550e-02,-4.473447852981256995e-04,4.845466315746307373e-01
-2.347912709098816386e-02,-1.534534873894029261e-01,3.040173491131605843e-01,-1.388746061659920823e-02,1.339160789932847479e-03,1.276751918498786331e-02,4.096173942089080811e-01
-2.470393668913228175e-02,-1.844688609229791776e-01,2.930888297487682093e-01,-3.863920354456513474e-03,-2.094241985852965827e-03,4.526437777711150856e-02,4.283617138862609863e-01
-3.635118938755940721e-03,-2.053626160032542003e-01,3.372812943570507871e-01,-6.370087169967571239e-02,-4.497211319241734701e-03,1.152976350763756930e-02,4.881834387779235840e-01
-2.512991017634237656e-02,-3.101247398828296253e-01,2.941293968110094692e-01,3.756301653614903171e-03,-1.108083035475171570e-02,-2.637293032093715028e-03,5.239917635917663574e-01
-1.592249107043530731e-03,-3.581896466138906332e-01,1.497883508168826316e-01,-7.859261813494161988e-03,-2.484501756715236376e-02,-5.651934617853882591e-03,4.540844559669494629e-01
-2.279883492779525081e-02,-3.143470574357719594e-01,2.133950499349034358e-01,-7.483551264648476489e-03,1.139408838660638072e-02,5.152486015922617783e-03,4.585705697536468506e-01
-1.524062624427932611e-02,-2.209430702812947844e-02,3.031474553685230555e-01,-4.120653490901333982e-02,2.028174563192338548e-02,-4.040787535350737897e-02,3.388605117797851562e-01
-2.596039184146960166e-02,-1.479012976756063913e-01,3.079049588624929723e-01,-1.933680424861710170e-02,-4.119981759863678046e-03,1.676361702268223605e-02,4.111729860305786133e-01
-3.245700612721214018e-02,-1.367795562468842874e-01,3.132471724146098091e-01,-2.051489410713595168e-02,3.157892527523133500e-03,7.406450813438655162e-03,4.097760021686553955e-01
-2.554730794649497094e-02,-1.584267049972824526e-01,2.841338084965644994e-01,-1.383269249362063281e-02,-3.361920508946952195e-04,7.491848079481693533e-03,3.942744135856628418e-01
-3.086224165758098825e-02,-7.625624521232840514e-02,3.173976263718432667e-01,3.690317836920758206e-03,-3.514634972286200323e-03,3.733234064183415385e-02,3.786997199058532715e-01
-1.380743970060797909e-02,-3.241552822736210593e-01,2.238203585347485203e-01,5.975033649343743959e-03,2.059531820434652369e-03,-1.478424564069725014e-02,4.767657518386840820e-01
9.210441549167164635e-03,-2.535454007061536674e-01,3.064670186569295462e-01,-6.085990416180061396e-02,1.276594259514544222e-02,-2.431329586132133930e-02,4.988808631896972656e-01
-3.478207549563068317e-03,-3.058697075609005389e-01,2.973351380883348383e-01,-4.362908636525331119e-03,4.634952871382946177e-03,1.769821203026444270e-04,5.225077271461486816e-01
-2.179238340979651814e-02,-3.274430944514766240e-01,2.956940205722928816e-01,9.672647330722228612e-03,4.568743669675441946e-03,6.219854102182776484e-03,5.401104092597961426e-01
-3.114096069572186778e-02,-3.098878023871386445e-01,2.864354091926228363e-01,2.975483511542082252e-03,-1.795819976456263650e-02,1.586136727370637475e-02,5.184850692749023438e-01
-1.709022588005423837e-02,-3.206409246430453330e-01,2.976860867051465132e-01,5.206882339812124970e-04,8.456626682971155181e-04,2.787125687431447809e-03,5.355408191680908203e-01
-3.018465070261264899e-02,-3.243477313851098054e-01,2.962661327853962079e-01,8.680505934143580016e-03,-2.443854336539924912e-03,8.708323845457202964e-03,5.381479859352111816e-01
-1.088010983352334128e-02,-2.988573328355458303e-01,3.020996086386285584e-01,-1.223745382881066520e-03,2.854620521362825729e-03,9.462662352094015558e-03,5.208798050880432129e-01
-1.067759577589313773e-02,-3.181338555124009204e-01,2.964084202407502588e-01,8.668572076440112092e-04,7.252939563982127406e-03,-1.322273381197158586e-03,5.323645472526550293e-01
-1.117224647709568613e-02,-3.209333652908416545e-01,3.134013389890191736e-01,-2.588104870998082785e-02,-1.051755143194465537e-02,-8.561790717219562932e-03,5.517259240150451660e-01
1.742802891726359660e-02,-3.030577438758487729e-01,2.916798931531988104e-01,2.402104754052978870e-03,7.388318601775883520e-04,1.585631736151848353e-03,5.156021118164062500e-01
-1.232001890422009319e-02,-3.198595042543269096e-01,3.004179859437173250e-01,3.462178560438769395e-03,5.452616740452009142e-03,3.481031314394721944e-03,5.373326539993286133e-01
3.434658359447740825e-03,-3.093471091381089777e-01,2.953249967106632567e-01,-7.402907816159519545e-03,1.196359832600192054e-02,4.514564120969672203e-03,5.243903994560241699e-01
-3.501997006579944671e-02,-3.155646315999998675e-01,2.666933453199548110e-01,8.247145083728134665e-03,-1.385285762139928240e-02,-2.934226702953530302e-03,5.051592588424682617e-01
-2.224515341583760755e-02,-3.161893523495955538e-01,3.074047026800427740e-01,2.357177829991802514e-03,-1.970488682576512079e-03,-2.613016572490862131e-03,5.403884649276733398e-01
-3.362499326531980665e-02,-3.268599593822153482e-01,2.929038086215556835e-01,8.872749558574338780e-03,-1.261762056492297425e-02,1.401033429779370738e-02,5.382007956504821777e-01
-5.437116724017327513e-03,-3.067233475820793087e-01,2.975882375563163040e-01,-1.878903403181287094e-03,3.145532524998849444e-03,3.053471556677528603e-03,5.234150886535644531e-01
-4.693678435955488115e-02,-3.444715612402662330e-01,2.681544597167996868e-01,1.184477426436729951e-02,-5.912341182940116652e-02,2.801081361647181009e-02,5.429746508598327637e-01
-1.282761769828692777e-02,-2.987399274378184089e-01,3.238721390674753065e-01,-1.245910739241853395e-02,-1.452593111558959059e-02,-2.277379743010654600e-02,5.422488451004028320e-01
2.571048686010510807e-04,-3.101126504467884293e-01,3.003455233017545689e-01,-5.547946676911925598e-03,3.802703130911844892e-03,3.946952081955472889e-03,5.288698077201843262e-01
-3.417623240967199161e-02,-3.232327392637477925e-01,2.872213062248633042e-01,5.937305232604482910e-03,-1.706454377953724177e-02,9.783540526937358622e-03,5.301118493080139160e-01
-2.973906166708521065e-02,-3.468141174437264218e-01,3.317705200984308878e-01,1.900230261569320388e-03,-1.397827981183764542e-02,-8.392130360418704679e-03,5.887781977653503418e-01
-2.412965089489641293e-02,-3.713249064110048514e-01,3.143790015193114185e-01,-1.353000305302652986e-02,-1.893312672623791160e-02,7.200681735343136651e-03,5.953497886657714844e-01
-6.504277814878259636e-03,-3.052104215625867090e-01,3.239901506152969568e-01,-3.516937267860060362e-02,-1.387485233848926268e-02,2.114359030641415477e-02,5.502744913101196289e-01
-3.641574583708055701e-02,-3.095053000621924011e-01,2.347636690449054764e-01,5.010577306410243965e-03,-4.088895713282137551e-02,7.054768801609666989e-03,4.768781661987304688e-01
-2.944151931819811649e-02,-3.160254896260751289e-01,3.147531863339489422e-01,4.531385494559576205e-03,-1.025866037057323807e-02,4.206793293586326594e-03,5.474225878715515137e-01
-3.241830694432715210e-02,-3.695218852606941828e-01,3.420805081358515021e-01,-1.419027222666629541e-02,-2.203956416745608479e-02,4.473862962530170476e-04,6.182191967964172363e-01
-1.705136904472872444e-02,-3.447939908270093445e-01,1.515663192349131494e-01,-1.287583206368411032e-02,2.351752801833798673e-02,-1.749078285007578393e-02,4.406639635562896729e-01
-2.003346240272561862e-02,-3.200528218245309864e-01,1.992851734287964804e-01,-3.184546845326547554e-02,5.527259169252597693e-02,6.939725222727551046e-02,4.801745712757110596e-01
-1.895065609931067055e-02,-3.220330094651329134e-01,1.995074151780056315e-01,9.077204133403833294e-03,1.983679144021849999e-02,-1.379893886604899485e-02,4.558426737785339355e-01
-2.198088087525433554e-02,-2.309237488725442988e-01,1.233037900584528501e-01,-7.613087340880499154e-02,6.318706206328726649e-02,2.321882649933338510e-02,3.551110327243804932e-01
-3.605572730775160467e-02,-2.956107662043813145e-01,1.176055912545630466e-01,-9.767189001770190671e-02,6.410877466564708638e-02,1.561859949966611268e-02,4.153856039047241211e-01
-1.645304707779159104e-02,-3.064310526652854749e-01,2.042145128974634793e-01,1.192256454242611235e-03,2.357287562494273653e-02,-1.259798677844646379e-02,4.460017681121826172e-01
-7.442961789155529660e-03,-2.153239819109823427e-01,2.126171927018279117e-01,-7.416095357474848659e-02,8.228021214630946989e-02,1.879126010418968179e-02,4.186362326145172119e-01
-2.240465183019362677e-02,-2.371263327384157127e-01,1.950145531712592639e-01,-6.028761027416873475e-02,6.728961426933703638e-02,3.358861316086287491e-02,4.097965061664581299e-01
-2.541145969465880006e-02,-3.131052457770018838e-01,2.899727614001548215e-01,-6.125322999534662388e-03,1.915628815467868744e-03,-8.443118786504533266e-04,5.225846171379089355e-01
-1.612330670871380683e-02,-3.193482794246081946e-01,2.987739713859574597e-01,-5.285321977683317927e-03,8.156113030594464020e-03,2.064914508414208896e-03,5.356179475784301758e-01
-1.631023247943234195e-02,-3.272849824016660358e-01,2.616038626578254811e-01,3.202110920084289773e-03,-8.651187072482495119e-03,7.568363257916259357e-03,5.106788873672485352e-01
-3.338842631208885359e-03,-2.184957659373427952e-01,2.792368944195016689e-01,3.810659841207996584e-02,-8.809627788645409824e-03,1.306165717223786195e-02,4.382244348526000977e-01
-1.515037528228328594e-03,-3.061000470687091912e-01,2.869952225851404859e-01,1.371854757470506413e-02,3.533440576103771130e-03,3.008827732700604992e-03,5.143105387687683105e-01
-3.044747646044793088e-02,-3.127184599475115179e-01,2.834699326475215164e-01,-6.871355373203271236e-03,-5.651648388843034596e-03,-6.063454989753298656e-03,5.168932080268859863e-01
-2.860563113740342139e-02,-2.707767396806998739e-01,3.981834974008164330e-01,1.163109534281656782e-01,-8.151134752747925261e-02,-1.655095377414762814e-02,6.367814540863037109e-01
-3.666517037381350486e-02,-3.106935731636386033e-01,2.924127017329531952e-01,6.210463368470425446e-03,-3.425090659553897601e-03,4.338730174824093413e-03,5.232282876968383789e-01
-2.400897870030604259e-02,-3.133800469690700696e-01,2.845988407980513113e-01,-4.486647356153002780e-03,-8.240997071327223547e-03,-7.373178795237899166e-03,5.183664560317993164e-01
-2.887184167108568580e-02,-3.213831685511079894e-01,2.798676968474180238e-01,-4.425714809365228347e-03,1.566263002883423391e-02,7.138042524109000815e-03,5.216707587242126465e-01
1.535939229062633672e-02,-3.080826409046368841e-01,2.958222562746464224e-01,1.584156711952669841e-02,-4.522236529202656313e-03,-4.077433226698247079e-03,5.242630243301391602e-01
-1.377106846571162294e-02,-3.035402343874475939e-01,2.942915247122203093e-01,1.234648185314861715e-02,1.209966445850416301e-02,1.816612251328899100e-03,5.186927914619445801e-01
-2.035104702214336064e-02,-3.087750985950502014e-01,2.985395924707007209e-01,7.828337009940365687e-03,6.925982345250489454e-03,-4.635063353617499028e-03,5.265430808067321777e-01
1.450806485616901696e-02,-2.626479681138698119e-01,3.275673649671922427e-01,7.611864092974675311e-02,3.836225913743130517e-02,7.459072049884614419e-03,5.324959158897399902e-01
4.160312449506535504e-03,-3.087811803957695167e-01,3.339952956615230839e-01,1.493289194026036285e-02,-1.270272798402361306e-02,-5.781557472236275794e-03,5.578493475914001465e-01
-1.250780447974506613e-03,-3.046082990232102383e-01,2.973230801754745967e-01,7.174834135285368571e-03,6.535965527443472062e-03,4.056792384053184257e-03,5.216116309165954590e-01
-5.600124896555166640e-03,-3.028392155964561017e-01,3.038832506108066767e-01,1.078623700600764117e-02,5.352512656963051042e-03,1.037387955313469855e-02,5.261933207511901855e-01
-3.039981032800128866e-02,-3.052799973011127155e-01,2.626296507240527545e-01,7.769326929797108240e-03,1.027858005091640721e-02,3.186162454486671691e-04,4.924141764640808105e-01
-4.641438574219309415e-02,-3.108342086936934923e-01,2.592629554949193449e-01,6.470217250167617853e-03,-1.537959319597392675e-02,9.633253463524048613e-03,4.952749013900756836e-01
-3.204431027693982470e-02,-3.165088891355885004e-01,2.454756985567558281e-01,1.116864035930758767e-02,-5.230121372423908455e-03,7.836547418876831789e-03,4.873628914356231689e-01
-3.963374550588688594e-02,-3.068529927716233674e-01,2.472391576520646672e-01,5.333962829998413133e-03,-2.306875193783147066e-02,1.115466995084520713e-02,4.820946753025054932e-01
-3.431766819823658943e-02,-3.093629325025564203e-01,2.158224902635532128e-01,8.286180973635228625e-03,-3.379362961409948084e-03,1.341413975958699253e-02,4.558507800102233887e-01
-3.499446880635974366e-02,-3.116950727644588470e-01,2.619272064862787075e-01,9.938395228156272562e-03,-1.992139389947659208e-03,1.300336547275380249e-02,4.976942837238311768e-01
2.182616855862105909e-02,-2.688932329653016540e-01,2.848746780271807499e-01,-1.924781377731868762e-02,-1.769560798807327025e-03,2.734381566867799583e-04,4.809435009956359863e-01
9.056485203493624264e-03,-2.729716261060187166e-01,3.200190437359102802e-01,-2.502486281756875763e-02,1.151984479052134240e-02,-8.214590765904174197e-03,5.161560177803039551e-01
-5.796431627416307603e-03,-3.117850513857258199e-01,3.015471410090183602e-01,-1.614470872801425719e-02,-3.506801923561942130e-03,1.718976137164930987e-03,5.319402813911437988e-01
2.131066318237066076e-02,-2.308375010899306190e-01,3.030688652115541282e-01,-3.990553005146796339e-02,4.943515915605638071e-03,-7.756578295185474238e-03,4.680196046829223633e-01
4.476200528287732627e-03,-2.650992904263907990e-01,3.035112147110619607e-01,-3.288593556453563854e-02,-1.179802866533780428e-02,2.588769333417917720e-03,4.963743984699249268e-01
-2.213534984619221213e-02,-3.234486967432710913e-01,3.051884047601488015e-01,-5.442254541531228382e-03,-3.005784061466826480e-03,-3.532957222434114294e-03,5.447118282318115234e-01
3.850906338415604861e-03,-2.600034720754019202e-01,2.854325996734612403e-01,-2.265663775580773268e-02,-3.316721578565753371e-03,-6.583733965191683989e-03,4.742435514926910400e-01
-3.887425157000938547e-02,-3.077499380923018890e-01,2.886716732814127995e-01,-1.305857161516393687e-03,1.524568006132937213e-05,-3.537173307938798385e-03,5.173898339271545410e-01
1.308917002797829396e-02,-3.046105643246401207e-01,2.944768653062510011e-01,-1.618532745119230856e-02,-1.658102947972793203e-03,-4.110937439586549507e-04,5.199072957038879395e-01
-2.239693288190624729e-02,-2.586801945583322437e-01,2.213170353652286482e-01,7.588378031437330307e-02,-6.674449713394686734e-02,1.516715104635143682e-02,4.518201649188995361e-01
1.505208939556840729e-02,-3.132123292788379088e-01,2.994438112976914312e-01,-9.871029695938718027e-03,-1.334994224140140196e-03,7.068889447299111888e-04,5.313106775283813477e-01
-2.180060332610994894e-03,-3.058889420079645705e-01,2.917142382259702016e-01,-5.872950300429901488e-03,-1.232534180626285170e-03,5.945587389706180094e-04,5.176681876182556152e-01
1.743800344798966326e-02,-3.032888375265022640e-01,2.898998802344903147e-01,-1.346813851078375486e-02,-1.125518874717130807e-03,1.277755103714668791e-03,5.148202776908874512e-01
1.222131502725629787e-04,-2.673550006938087420e-01,2.942470063285319570e-01,-4.662941884872171677e-02,3.672619947651133143e-03,1.317553739976485422e-02,4.937704801559448242e-01
8.764588895144680841e-03,-2.577328689302769149e-01,2.934536765236943623e-01,-1.941666914503523828e-02,-1.336482457055532258e-03,-4.469476748951947340e-03,4.786794185638427734e-01
1.011960264698948120e-02,-2.528004474404201285e-01,2.820911278287573376e-01,-1.469288631999844490e-02,6.484091535274324851e-03,7.677706519349718033e-03,4.642767012119293213e-01
1.083432533656545488e-02,-2.417785470288366656e-01,2.825203203727938983e-01,-1.371742159730976289e-02,3.610829143175735886e-03,2.212557671972075184e-03,4.548364877700805664e-01
9.153074997504411295e-03,-2.458306768370305817e-01,2.877886055644005014e-01,-1.748371573797858833e-02,-4.607784830735997539e-03,-4.836458892195485103e-03,4.634144008159637451e-01
-1.523078190464735235e-02,-3.209325549460012028e-01,2.426684680063325716e-01,5.751965535288674006e-03,1.728802148337467079e-02,-1.563475481580435186e-02,4.904437661170959473e-01
-6.313273815379757958e-03,-3.139282947893465292e-01,1.794861631160181437e-01,-3.032745140177717843e-03,2.884755387310526317e-02,-5.370697228041941898e-03,4.346421658992767334e-01
-2.688124510732176065e-02,-3.188555463193883388e-01,3.004559618895995543e-01,9.461456113947125965e-05,-1.696822767359415117e-03,4.230049282354391327e-04,5.366394519805908203e-01
-6.587021600468132010e-03,-3.320914680862721569e-01,1.998952679158183532e-01,-2.425330145778136371e-03,2.592732940742869738e-02,-7.887044848399831463e-04,4.667281508445739746e-01
-1.975144116009404718e-02,-3.421051861626503432e-01,2.239423931510389210e-01,2.368991026118852719e-03,6.344129174859507170e-02,-1.815756343113348898e-03,5.039398670196533203e-01
-9.339572940034721049e-03,-3.534242387201331215e-01,9.949113426778352642e-02,-7.832290185713372196e-03,6.809212633336553244e-02,-3.769817631759040440e-03,4.264054894447326660e-01
-5.532373173036106428e-03,-3.657143692548078806e-01,1.183159274539462569e-01,-9.408786535852540003e-03,5.894754313278775110e-02,3.730908600830924737e-02,4.522646665573120117e-01
-1.500391922148407164e-02,-3.510878437444728828e-01,4.668216001868280562e-02,-3.217531549586443666e-04,3.081788342627165764e-02,1.601835183799281762e-02,3.756442070007324219e-01
-1.858215269580007142e-02,-3.074257495154103514e-01,2.812523213039631598e-01,9.767243657071570870e-03,-2.259028152574590886e-02,-2.778874439841088131e-02,5.138778090476989746e-01
-1.472618332236714546e-02,-2.853732400407926750e-01,2.802435449466663120e-01,1.447642780021559175e-02,-2.264607726070448981e-02,-7.008582444920812178e-03,4.923456609249114990e-01
-3.179902888464932603e-02,-3.149449825384771362e-01,2.732323375754580064e-01,-5.840969176830690390e-03,-2.786703278224812730e-03,-2.486082020811341935e-03,5.096355080604553223e-01
-1.928849884880850379e-02,-3.109705532379004600e-01,1.761518332740460990e-01,8.212901063787446995e-04,2.060606491564985834e-02,9.628776153476919022e-03,4.264220595359802246e-01
-2.443142814992918521e-02,-3.165691355480474423e-01,2.856180063580074924e-01,-6.231625405036167117e-03,-8.052394806086782275e-05,1.019831100840851851e-03,5.217009186744689941e-01
-3.369035736451257007e-02,-3.110871273890506994e-01,2.746045188051547403e-01,-6.681950997930641636e-03,-7.303103429143343445e-05,2.322288238301345280e-03,5.076069831848144531e-01
-3.869500306188154715e-02,-3.104734107142723687e-01,2.614946927577219693e-01,-4.801893867989828237e-03,-1.094555341580824744e-02,-5.423280693141142514e-03,4.960637688636779785e-01
-4.923249768329935466e-02,-3.055543957293356816e-01,2.740159972351656759e-01,-2.555651869928358879e-03,-1.611269424583326379e-02,-3.102539976583594886e-03,5.038586258888244629e-01
-3.769734781395143314e-02,-3.100990785807489769e-01,2.571536290956775161e-01,-7.823224901626461142e-03,-1.051751850073638118e-02,-4.257562388287682714e-03,4.919629693031311035e-01
-4.445841357308626118e-02,-3.110221832663248587e-01,2.569597301024678648e-01,-8.567932660875790182e-03,-3.430367479430873612e-02,-7.200597871203364211e-03,4.961474537849426270e-01
-1.563026039396635952e-02,-3.070279500769060310e-01,2.864804127533508993e-01,-1.497732005137721078e-03,1.628102175145225991e-03,7.721533486726421145e-04,5.140372514724731445e-01
-3.446156675418463738e-02,-3.089748750373856878e-01,2.668146216051959230e-01,-5.553202260253006783e-03,2.125241531899821432e-03,-1.102849130750403707e-03,4.989378154277801514e-01
-1.756238378070106368e-02,-3.093750223407873978e-01,3.054470424435977161e-01,-9.828785898471682509e-04,7.882710889750359565e-03,6.896155473113199392e-04,5.328589677810668945e-01
-1.747317101572994080e-02,-3.106532495733430044e-01,2.909606406632104791e-01,-3.307884152240877541e-03,4.300924150377332354e-03,3.079238721427453133e-03,5.211807489395141602e-01
-7.554999943999961276e-03,-2.746696629312156968e-01,2.986664294444449919e-01,1.397113758183599584e-02,1.551718196801235919e-02,1.209984421212707134e-02,4.986633956432342529e-01
-2.787263735182276062e-03,-2.971764381035996716e-01,2.955541130804879568e-01,3.537799952021782914e-03,5.826749742901963028e-03,4.281833668053777742e-03,5.135128498077392578e-01
-1.180692383277160556e-02,-2.774300455396865872e-01,2.522122442306332091e-01,1.766075125451971317e-02,-5.007389929947106411e-02,3.013683287088004051e-02,4.707164168357849121e-01
-1.209943346455577551e-02,-2.720940383309308208e-01,3.551361461789306340e-01,-7.335923977654236483e-02,-9.123649821731789769e-04,-9.395095988101995199e-03,5.606696605682373047e-01
-2.654510050354082218e-02,-3.137065129684007414e-01,2.823030690254522135e-01,-7.341970581245907054e-03,-7.868044411666701144e-05,-2.247883032730605118e-03,5.164446234703063965e-01
-3.580455473935632155e-02,-1.495513980848683366e-01,2.485072507302953093e-01,-6.397183347328813663e-02,3.250840535403785869e-02,1.870448737067175599e-02,3.776350915431976318e-01
-3.150365929747679650e-02,-3.673042078652924980e-01,2.703412287622613541e-01,2.951871354304720120e-03,-5.032389166997147667e-02,2.873920838144550932e-02,5.615456104278564453e-01
-5.025831000608643739e-02,-3.512606997872265158e-01,2.338220711327460566e-01,-1.774292096569467236e-02,-4.884029585737254681e-02,4.092536569191685888e-03,5.147463083267211914e-01
-3.920473843021064775e-02,-3.130369255338907863e-01,2.310630116469977735e-01,-4.149612853693818116e-04,-2.621354963342374320e-02,6.827343831708741415e-03,4.735383093357086182e-01
-4.720744797304837759e-02,-3.022808406624396538e-01,2.646753247466449577e-01,1.865433727514445984e-04,-1.255639812867523700e-02,5.544212996563860699e-03,4.923937618732452393e-01
-2.941547554709789819e-02,-1.972767602363130202e-01,2.805761096894012763e-01,-7.899684809266483820e-04,-8.661549085571170967e-03,1.221582620039527757e-02,4.206927716732025146e-01
-1.837877514654764205e-02,-3.084481704808024749e-01,2.902274016345716690e-01,5.350631344276500327e-03,-8.727362723071287534e-03,-1.754907974798847973e-03,5.188630223274230957e-01
-2.066234391474245508e-02,-3.127533832217643806e-01,2.905057282236752081e-01,1.534044815819959363e-03,-9.406150900873629442e-03,-3.633317718381040475e-03,5.228233337402343750e-01
1.089113642504969948e-02,-2.920335959129358727e-01,2.927459120846822582e-01,-1.173733379016424910e-02,-7.331374524460499212e-03,8.691642609229841346e-03,5.073336958885192871e-01
1.027569623507137118e-02,-2.859983389526249975e-01,2.882023087885794421e-01,1.413920370214994185e-02,8.205944703651452815e-03,-1.121030766954358819e-03,4.981661140918731689e-01
1.056972329456199421e-02,-2.985777834241071793e-01,2.935067779570281754e-01,2.381192386469038746e-02,3.215643529810492153e-03,1.419020205559697913e-02,5.151999592781066895e-01
-5.929862860439586054e-03,-3.065970753443836294e-01,2.963312165752227112e-01,1.140381104116049496e-02,3.895496544024638300e-03,4.910194482614445473e-03,5.226380228996276855e-01
-1.461509729260913361e-02,-2.762635664881821773e-01,2.647189559327892683e-01,2.627196894557211771e-03,3.242173084103017080e-04,7.686981370056494844e-03,4.687995910644531250e-01
-1.433991956383438501e-02,-2.674060352677546937e-01,3.117345227311839051e-01,-1.666701413188179798e-02,-1.426778471337327749e-02,1.421029073175417157e-02,5.049111247062683105e-01
-2.013331534948616108e-02,-2.828213661949443569e-01,3.208001895764237554e-01,-4.999898579313186153e-02,3.117904029741399782e-03,2.307299873694099862e-02,5.328468680381774902e-01
-1.990722058963735608e-02,-3.178511368269753556e-01,2.733134599651398378e-01,-1.989828508336785335e-03,8.942339358279626990e-03,1.043667724903427725e-03,5.122179985046386719e-01
-1.884301676923618232e-02,-2.844971712863992863e-01,2.945486293509811393e-01,-5.098874359330690838e-03,-8.981637706600893029e-03,7.091996974152483223e-03,5.025048851966857910e-01
-4.046643437441985180e-02,-3.022655179187435648e-01,2.301194968962166354e-01,2.459116119792889490e-03,-1.385006228752933694e-02,1.077687436850536563e-03,4.617269337177276611e-01
-5.276845437753797941e-02,-3.092999112262885264e-01,2.437637959159245638e-01,-4.883116197420386606e-05,-3.270578767464824010e-02,1.595854060549492352e-03,4.827279448509216309e-01
-3.317446012570005043e-02,-3.024593600524024817e-01,2.168130777089364858e-01,4.584262788783964766e-03,-3.323111618960205692e-03,1.336240350787748282e-03,4.499194622039794922e-01
-3.184900566805140554e-02,-3.063367396329295667e-01,1.916270421104265542e-01,3.551682214775469561e-03,-2.689012330879447452e-02,2.576995043996252281e-03,4.345727860927581787e-01
-2.314575539068264992e-02,-3.038336791286107563e-01,1.968049083453844994e-01,7.013488470441655263e-03,-2.004417353936613008e-02,7.328421511863834198e-03,4.363662302494049072e-01
-3.415421384858693260e-02,-3.292291726050621814e-01,1.572510414294588099e-01,4.315555095818697159e-03,-6.626980974627715015e-02,1.607782940592992907e-03,4.397985935211181641e-01
-2.046565401083613386e-02,-3.279789492834447318e-01,3.150348427032111376e-01,3.715128833280979532e-04,1.694757568775050736e-04,3.058569772042578870e-03,5.570676922798156738e-01
-4.052698284097658310e-02,-3.170107883450320463e-01,2.187645570820167529e-01,-1.213190908038092476e-03,-4.426888605190060916e-02,-4.934957867717212551e-03,4.704487025737762451e-01
-2.183295651397941517e-02,-3.202704508769644853e-01,2.627112904971300456e-01,2.223310367601662098e-04,-3.382992643727228237e-03,1.894690572715255518e-03,5.049695968627929688e-01
-2.032444282499156277e-02,-3.200245423186199312e-01,2.984303421261387812e-01,-2.650724273170900966e-03,9.790642057935319310e-04,-2.114966943187183979e-03,5.357172489166259766e-01
-3.818410996243742916e-02,-3.085374361595286108e-01,2.873273560670800975e-01,-1.117475491684717182e-03,-3.549152741812076038e-03,1.484069033692206980e-03,5.168170928955078125e-01
-2.732514697271347728e-02,-3.184709183869247062e-01,2.428857640059727818e-01,2.212942276235842221e-02,-7.056357812738904556e-02,-1.746444587668408849e-02,5.037582516670227051e-01
-2.750034811338373381e-02,-2.982945848484337414e-01,2.590377396964291812e-01,-1.353989742621696446e-03,-1.056031577864474181e-03,-8.084368572746813281e-03,4.829403460025787354e-01
-1.369072237824375121e-02,-3.186635854828542835e-01,1.805497284114001844e-01,2.532791467803941366e-03,-1.772658291070804137e-02,3.641817539056461678e-03,4.370098412036895752e-01
-2.579253301754170710e-02,-2.510810858040317672e-01,2.518306948467610162e-01,1.335574437307042754e-03,1.110672380183562805e-02,4.019233653232542197e-02,4.422630667686462402e-01
-3.068578590992229044e-02,-2.833845282411115440e-01,3.196066696821577291e-01,-1.235792483656696604e-03,-3.990160585471216187e-03,1.136426540386399620e-02,5.248997211456298828e-01
-2.187260489418182269e-02,-3.245363569311103258e-01,2.784362074294267075e-01,-7.913554546046090016e-03,-2.920660969524912880e-03,-5.722366197349368182e-03,5.224892497062683105e-01
-2.635157750239467897e-02,-2.880049237215446256e-01,3.054039159376784607e-01,-2.364830841494209440e-03,4.962885870932101824e-03,5.312580990418173596e-03,5.152712464332580566e-01
-2.060296939625386875e-02,-3.031686841974430835e-01,3.033198974127017666e-01,-4.869006708296208193e-04,8.828685175166665206e-03,-7.960640449498180378e-05,5.258644819259643555e-01
-2.258785752791288293e-02,-3.179521293202596799e-01,2.954969170693156899e-01,3.708097335372643761e-03,1.825830794178066483e-03,8.279385064222316917e-03,5.316255688667297363e-01
-1.032029828968383453e-02,-3.210331811788130207e-01,3.098134095313755387e-01,-1.008095577456561039e-02,9.254913544020543920e-03,1.173505909659067377e-02,5.472410321235656738e-01
-1.451084636094292397e-02,-3.058509414592679998e-01,3.142453815712881737e-01,-1.400987340316752882e-03,-9.627044865411406999e-03,8.216708692353123485e-04,5.376109480857849121e-01
-1.896544413799259449e-02,-3.209563921642170636e-01,2.641242624873437195e-01,-7.426999313124597532e-03,-8.407542423613238074e-04,-7.032948386972283448e-04,5.069496035575866699e-01
-2.779526946813582616e-02,-3.220227279134725840e-01,2.956595533685001942e-01,-5.259463982667401255e-03,1.751242950311620791e-02,-3.333563218494331568e-05,5.360645055770874023e-01
-2.836994967660824707e-02,-3.197847412373240328e-01,2.904292665637210336e-01,-8.298620922850935902e-03,9.326385872295593149e-04,3.040969425792788752e-03,5.288622379302978516e-01
-2.835025764197154907e-02,-3.170358021346833532e-01,2.972074320348236376e-01,-7.786066562138037848e-03,3.185441256335887639e-03,6.070471402918623839e-03,5.325728058815002441e-01
-2.100799784410009585e-02,-3.078987462766906713e-01,3.172331343493465239e-01,-1.739599957585426845e-03,-1.060624502250955697e-02,-7.478320456843560483e-03,5.424628257751464844e-01
-1.628654489576124298e-02,-3.039577400619723480e-01,3.009371351701362052e-01,-3.707904193396236998e-04,-9.655127148774970969e-03,-9.346426725315692616e-03,5.245797038078308105e-01
-1.788288134488964093e-03,-2.727116204821489753e-01,3.013232077664431130e-01,2.280587734881414641e-02,-1.298266958690452201e-02,-1.474122728466024240e-02,5.001139044761657715e-01
-8.449659978124985510e-03,-2.644616788011055486e-01,3.071336495513285469e-01,1.133149574651499611e-02,-1.471751153954584286e-02,-2.494354809597611189e-02,4.988282918930053711e-01
-1.762072162405131648e-02,-2.796172924055001507e-01,3.122181570242277826e-01,5.384530801755618712e-03,-1.512913480805610535e-02,-9.037793707419861100e-03,5.146564245223999023e-01
-3.320114660008535029e-02,-3.174062626632898065e-01,2.757487590687344725e-01,-9.068860196014749339e-03,1.231488871809991760e-02,-2.104137505841345655e-03,5.145315527915954590e-01
-3.767312983955129618e-02,-3.131422379841509174e-01,2.756442070534710354e-01,-6.041122452168670026e-03,9.294872155898510927e-04,2.309800386135409112e-03,5.103805661201477051e-01
-1.479618207632310382e-02,-2.961989951482952299e-01,3.094762503498204032e-01,3.781575783567000474e-04,-8.902874007311387464e-03,6.220395564181898556e-04,5.251958966255187988e-01
-2.824694073532631536e-02,-3.232375634749985460e-01,3.024681683238691909e-01,-8.429906113081560640e-03,1.108953949619716607e-03,2.266077456374242238e-03,5.423855781555175781e-01
-2.814624095116268626e-02,-3.079311035331772084e-01,2.949649502709204008e-01,-3.374103749341843608e-03,1.411565070421595030e-03,-1.769682331872010194e-03,5.226199030876159668e-01
1.510438947281879732e-02,-2.156983821657978972e-01,3.350762687453175959e-01,6.993814221688630928e-02,1.443027558290164818e-02,1.277267137301568191e-02,4.952680766582489014e-01
-1.981569079292291868e-02,-1.555412267867642140e-01,3.109599605382990517e-01,1.975685717137481978e-02,-1.757922996096630483e-02,-3.396676954473060867e-02,4.222415983676910400e-01
1.118388571009028276e-02,-1.574542577282594391e-01,3.156358798788806430e-01,6.486762175232235750e-02,-2.102050281962393116e-02,-4.116300480163959108e-02,4.376119971275329590e-01
-3.792903296273815450e-02,-3.273897688065531275e-01,2.632027710508754170e-01,-9.458820214519176456e-03,-2.320707601223428312e-02,-1.381196020801246475e-03,5.133454203605651855e-01
-3.383457559213798316e-02,-3.106495125819338510e-01,2.901141147944283905e-01,-6.501686564768975087e-03,-2.727676617463160955e-03,-4.438521421035740086e-03,5.210099220275878906e-01
-1.686588012308540274e-02,-3.093487342477156954e-01,2.427155570591239542e-01,-6.239326436208032269e-03,-1.302512770050980907e-02,-8.765963530040558199e-03,4.792787730693817139e-01
-2.942833082237733544e-02,-2.996637334583888701e-01,2.658509192010387601e-01,1.007998024260425883e-03,-1.668736337463253352e-02,2.022263308154064604e-02,4.920134544372558594e-01
-1.028450331041211308e-02,-3.084417724917939418e-01,1.424841132149857192e-01,-9.699759606094709649e-03,-3.189632848815004973e-02,-1.151270969595652276e-02,4.018918871879577637e-01
-4.474568439796128977e-02,-3.042882263070141868e-01,2.272293604812208878e-01,7.243432540410325816e-04,-1.503988518434937367e-02,1.374178206155072168e-03,4.610940217971801758e-01
-4.102343415174058289e-02,-3.202375961558174278e-01,2.647626281803032167e-01,-1.363362977684447370e-02,-2.292443153137302056e-02,-9.403941917334276979e-03,5.091610550880432129e-01
-3.392454522310408421e-02,-3.138444151336746146e-01,2.719704182624022026e-01,-9.287804721080082995e-03,-7.968986691978808407e-03,-7.149238910191728011e-03,5.080901384353637695e-01
-2.115674163145126949e-02,-3.192531173479172257e-01,2.987477615737388348e-01,-4.770211559494856590e-03,5.151510312189834517e-03,-1.224866317176678387e-03,5.354578495025634766e-01
-2.387164761947627861e-02,-3.289155853330095192e-01,2.066113114955100416e-01,5.402503007403694317e-03,-1.378474581132181631e-02,1.143156313684333403e-02,4.664025008678436279e-01
-2.519451820585056484e-02,-3.185782029391620584e-01,2.128861796559634034e-01,-1.100923460637091324e-02,-1.896511129402231322e-02,-9.870736418869763273e-03,4.629690349102020264e-01
-1.551165359472866934e-02,-3.195262089115218362e-01,1.941850536164422825e-01,4.908136307156311896e-04,-3.663192223780960960e-02,-2.770812042269336223e-02,4.543985426425933838e-01
2.340299295648088501e-02,-2.219067182476289202e-01,2.845847017415101265e-01,3.521422222594547402e-02,4.228140097492534902e-03,-5.352347333752074075e-03,4.430833458900451660e-01
2.373366160188486451e-02,-2.735769298412739081e-01,2.876450430477537901e-01,1.978146904368739342e-02,9.940138153650677726e-06,-7.400637690471136487e-04,4.875264167785644531e-01
5.339496075446027029e-03,-2.755547151441023468e-01,3.374044987832153231e-01,5.254354935086109901e-02,2.252547750083428672e-03,-2.421457184728920218e-03,5.392208695411682129e-01
1.515729718415932507e-02,-2.760786454806618551e-01,3.009545855930693681e-01,1.636002534136150877e-02,5.894317117359796840e-03,-2.232727107409275102e-04,5.006398558616638184e-01
-1.225247424658219321e-02,-3.062638227251610057e-01,2.952480922617408687e-01,-1.430192450695760842e-02,1.783611652880474343e-03,4.148229253981855643e-04,5.215665102005004883e-01
-2.121159233216820747e-02,-3.418743226785981304e-01,2.941745801445309616e-01,-6.328329351142894868e-03,5.841427627864820629e-03,-4.991609010098596155e-04,5.510434508323669434e-01
-1.954275213386243160e-02,-3.129608016652883351e-01,2.949271547195599918e-01,2.462956144559500307e-03,-3.447629124538796608e-03,-1.300540324000655393e-04,5.266028046607971191e-01
-1.339426352247111152e-02,-3.194518405186363430e-01,2.834847590108866000e-01,2.239924275655099783e-03,-1.890215964815845700e-03,2.334961784247620385e-03,5.222189426422119141e-01
-2.577144490738621924e-02,-3.330576320383605293e-01,2.904518866759012163e-01,1.233737940148185025e-02,7.733553949811540831e-03,-2.882780072995393475e-02,5.428832769393920898e-01
-2.632421875248812382e-02,-3.137805710117915758e-01,3.008066975850067215e-01,-4.405378318986222144e-04,3.202183605650786840e-03,-8.928389067661484605e-04,5.326493978500366211e-01
-2.506675121902671166e-02,-3.160535516375216347e-01,3.076886124281028034e-01,-3.511347369302364463e-03,3.411142078047568553e-04,1.591212876432230010e-03,5.406216979026794434e-01
-3.621895591065550646e-02,-1.882871207857302887e-01,3.072720491133116294e-01,-1.483664924285745500e-02,1.096341011351958418e-02,5.218449230561039015e-03,4.409620165824890137e-01
-4.355610772787095811e-03,-2.766980071658593499e-01,3.099881094683607508e-01,-4.750157272505312056e-02,2.256405834564065294e-02,-1.199302859820053661e-03,5.166162848472595215e-01
-1.721796448277663344e-02,-2.870027088307308683e-01,2.815221422780682659e-01,-2.201316352749566052e-02,3.868924659686458906e-02,6.409553478468422777e-04,4.985684752464294434e-01
-1.527925194520225391e-02,-2.873710648560765524e-01,2.852035090410924290e-01,-5.350988962333220154e-03,1.042217147321952177e-02,-3.268045032201022035e-03,4.965144097805023193e-01
-9.662423111444528798e-03,-3.254447683893393339e-01,3.084332456229464947e-01,-1.752361322604721258e-02,-8.939880364013186656e-04,-1.254237687340545478e-02,5.502253174781799316e-01
-7.840929686179125627e-03,-3.222577284852553570e-01,3.080570438506804454e-01,5.022433394380476385e-04,1.336315888418727199e-02,3.072716672804346166e-03,5.463861823081970215e-01
-1.985290155012764748e-02,-3.524069921693966934e-01,2.853987121334185528e-01,-1.829903553842109412e-02,-1.135759447324634179e-02,1.059999377480998770e-03,5.537855029106140137e-01
1.839082985865435338e-02,-2.002574737644295388e-01,3.328946265425573592e-01,5.146472804411963281e-02,-2.373194027159205785e-03,-2.355313584681567596e-02,4.744601547718048096e-01
2.034710025862199873e-02,-3.051194235356251561e-01,3.080301898135133221e-01,2.581346666351092348e-02,-3.568502266411333838e-03,-9.429736710062378013e-03,5.335027575492858887e-01
1.752257176279479328e-02,-2.783013418871035372e-01,3.049283498695332106e-01,6.069359519905607320e-02,-3.890241183378349409e-03,-7.115104674972435282e-03,5.161238312721252441e-01
1.790808253197282568e-02,-2.812851205581806124e-01,3.171339729302234955e-01,5.522657145271032270e-02,-6.740371002427063968e-03,3.219697160250834401e-03,5.271587967872619629e-01
-2.390330801816621317e-02,-3.119636892055665522e-01,2.653825486325950278e-01,1.289666421488492795e-02,-2.008792268230236155e-02,7.859102009750908169e-03,5.018881559371948242e-01
-1.246750376041334471e-02,-3.050563296983591077e-01,2.797521199361217015e-01,1.393739948889534917e-02,-6.109495205048593065e-03,1.660750326738428401e-02,5.079595446586608887e-01
-9.406201392026514868e-03,-3.068435115396606072e-01,2.951924584364372106e-01,5.500005787049400130e-03,-2.376586799620659159e-03,-1.587639250803109681e-03,5.215012431144714355e-01
-2.611086534112799090e-02,-3.106645061276357977e-01,2.788965241031384767e-01,3.850722213395900233e-04,-6.538548592566381309e-03,1.853044123466445489e-03,5.108132958412170410e-01
4.778604918040207754e-03,-2.817968930049399856e-01,2.900285119018698454e-01,2.121860937929883478e-02,5.325059220070516540e-03,3.806506014995777488e-03,4.967070519924163818e-01
-1.850785434275582092e-02,-3.130253733430866103e-01,2.956671770464582294e-01,5.912085345009248250e-04,-4.516832323964152518e-03,6.168626403880659572e-04,5.272949337959289551e-01
-4.542042568588718077e-02,-3.062055361839813861e-01,2.887605611819979434e-01,-8.806174173817198862e-04,-4.967001180017870804e-03,1.649165720429264168e-03,5.166427493095397949e-01
-4.603933159368503447e-02,-3.177084769558072841e-01,1.948821118265041119e-01,4.928929487889327325e-03,-4.388011616224960637e-02,1.691352239193497434e-02,4.516698718070983887e-01
-2.630063464151102121e-02,-3.306693278131597191e-01,2.391325442140713187e-01,-4.297850971344772605e-03,-1.659495773289689294e-02,-2.229851294368225250e-03,4.947535991668701172e-01
-4.578804780027404681e-02,-3.301004344149287006e-01,2.728940829698297543e-01,2.236676124544863514e-03,-4.808835381133385461e-02,7.543517848494323864e-03,5.292639136314392090e-01
-1.924277384069004657e-02,-3.247491058282232501e-01,3.072620449709028145e-01,4.837008448135858541e-07,4.007253861798373666e-03,-2.999664709383515013e-03,5.475070476531982422e-01
-2.426547492034631867e-02,-3.027723173128136214e-01,2.629440099237407846e-01,5.963300129196542898e-02,-5.670115925968002846e-02,1.685959366392724649e-03,5.102617144584655762e-01
-4.401848626727100644e-02,-1.770623523904814867e-01,2.933068946270014354e-01,3.602433874172381988e-03,2.208482454856608001e-03,-4.873536672123417179e-03,4.201106727123260498e-01
-2.254296027327097954e-02,-3.166190226011740827e-01,3.184023519749102360e-01,-6.406375799968607593e-04,-1.830078554857189014e-03,-1.348746803356604997e-02,5.509494543075561523e-01
-7.071691998591761973e-03,-3.069375293490906320e-01,2.774710639061122031e-01,1.140244704978301930e-02,-5.780777393706488815e-04,1.514646641094949571e-02,5.072357058525085449e-01
-2.650869448011203278e-02,-3.170079360319044692e-01,2.928289891273849754e-01,3.027441016873553409e-03,-1.073826623863152058e-02,5.732809957413228510e-04,5.286852717399597168e-01
9.597111896428908717e-03,-3.097055840142788896e-01,2.922225750079148199e-01,-4.639123051532152014e-03,4.678237006176332903e-03,2.781175934654734998e-03,5.217546224594116211e-01
-1.322914679315928370e-02,-3.187463585967983959e-01,2.984196813852658670e-01,2.983518372343267003e-03,2.174006108332104167e-03,5.478984440912154988e-03,5.346127152442932129e-01
-1.756877238854509179e-02,-3.175427922271992220e-01,3.036240949063886418e-01,2.222919548250505608e-03,3.539316150714014002e-03,6.642022588952507453e-03,5.382225513458251953e-01
-1.828539044181291123e-02,-3.203293181906852749e-01,2.919347075072106779e-01,3.507401908514957110e-03,6.889005714794379197e-03,2.873439397219118476e-03,5.304443240165710449e-01
-2.275791909809856545e-02,-3.281387043854694374e-01,2.949756591045684662e-01,8.341620496833058312e-03,1.304635936132741807e-03,4.500829394349847509e-03,5.399225950241088867e-01
-2.078183599813560045e-02,-3.422883838261693845e-01,2.885046086546925181e-01,6.506423542197979117e-03,2.490089482794293971e-02,1.035749602082188491e-02,5.484260916709899902e-01
-2.426244529215061674e-02,-3.203130863868798306e-01,2.922912858425648075e-01,3.669559660217601264e-03,-2.867996006645244294e-04,3.819423380820266122e-03,5.307095050811767578e-01
-2.206385113199698517e-02,-3.235147893967853516e-01,2.892742102757121514e-01,9.293443642155525125e-03,1.355866016877340296e-03,4.827967079252967753e-03,5.310289859771728516e-01
-2.870197691145047816e-02,-3.250517451820767456e-01,3.066655981526740238e-01,8.808797044719259700e-03,-8.125619416208247278e-03,1.211933717611575652e-02,5.482264161109924316e-01
-2.302654378443253630e-02,-3.224430740597911127e-01,2.655482181134523612e-01,-2.019850878460687990e-03,5.954262599039770142e-03,1.333396912309382440e-02,5.098839998245239258e-01
-1.622064563872971377e-02,-3.170154560533763322e-01,3.204101388994137212e-01,-2.939597883892150487e-02,1.238887110510108504e-02,-1.274920027863655873e-02,5.555133223533630371e-01
1.083891255436320034e-02,-1.486561012714756602e-01,2.886249292578075831e-01,5.674989173040555224e-02,-9.665899945543522317e-03,-1.196444175363169625e-02,3.965861797332763672e-01
-6.159762197608956158e-03,-2.512192098420376607e-01,3.054551756400207263e-01,2.186989566344903907e-02,-1.952336176820751792e-02,-2.602170417442392636e-02,4.879876375198364258e-01
-5.875187006699214565e-03,-1.918929693981237250e-01,3.029587071862133163e-01,3.441649689960425001e-02,2.400397852490407553e-03,3.309175165358947159e-03,4.370734691619873047e-01
1.632510337238725004e-02,-2.121065558928965367e-01,2.974000859543806108e-01,7.470579385399568617e-02,6.080914326904704242e-04,-3.123863592351510451e-03,4.606124758720397949e-01
-2.130410313125482430e-02,-3.221951109490798215e-01,2.964874300518501316e-01,4.572837851051338512e-03,1.934363891839191180e-03,5.067502229172920862e-03,5.360022783279418945e-01
-9.090008397253449002e-04,-3.637027359419989780e-01,2.069820401162739132e-01,4.492420990592862345e-02,-9.671524067772940825e-02,2.505792979838574255e-02,5.350320935249328613e-01
-3.216867305154760825e-04,-4.015603200865757727e-01,2.845093635800997611e-01,4.800365829001723011e-02,-1.130424417855102892e-01,1.579928961052758096e-02,6.343532800674438477e-01
-2.347556109586090844e-02,-3.429007336207834933e-01,2.707476764842792760e-01,6.350792367157369334e-02,-8.326764405135989033e-02,2.429266984064995527e-02,5.632519125938415527e-01
-4.688018964323764637e-02,-3.213019821653718133e-01,2.964551991309592460e-01,-4.423347014227697036e-04,-2.864995136017009503e-02,-3.653463070628137476e-03,5.384313464164733887e-01
-3.998729816054971686e-02,-3.068415477358961141e-01,3.018530127993731549e-01,2.090417233254452441e-03,-1.200502849624405718e-02,-6.691584187987583603e-04,5.288991928100585938e-01
-1.452530052429435239e-02,-3.655952817819014267e-01,2.700608936925337766e-01,2.450427012131183024e-02,-4.244808594882486241e-02,1.237306775931346949e-02,5.584042072296142578e-01
-3.360077522230715125e-02,-3.172616422022533356e-01,2.964783645319546412e-01,8.766603280466859355e-03,-2.280977777137003365e-02,5.771510453946581375e-03,5.337954759597778320e-01
2.098461542963135640e-02,-2.853734430595863958e-01,2.868025834603986080e-01,9.028776828297556054e-03,6.399942734659294814e-03,2.306379163569504624e-03,4.963197708129882812e-01
1.415907289438415699e-02,-2.884528578142374067e-01,2.995228507643958871e-01,1.227074985102441333e-02,6.546957155138715193e-03,-6.331617402554650309e-04,5.098454952239990234e-01
-2.155317869883812548e-02,-3.131398804441364314e-01,2.973410091909384212e-01,-3.017733462550931892e-03,-1.079653176123530987e-03,-5.528069461371610009e-04,5.288982391357421875e-01
-2.732440789622943896e-03,-3.007598499141741488e-01,2.942335528179191861e-01,3.417247576392635653e-04,7.754383181121117345e-03,-2.131284235948946849e-04,5.154551863670349121e-01
-3.371066098839001907e-03,-3.010014928244799659e-01,2.941931882758552219e-01,5.166283070439549189e-04,6.433037205485373465e-03,3.286189744785905165e-05,5.155749320983886719e-01
-2.213313079313405842e-03,-2.945771665357481139e-01,2.940167835441149236e-01,-3.302881769712275278e-04,6.462516477345651468e-03,1.880710540531711685e-03,5.098745822906494141e-01
-1.313331752135067643e-02,-2.971973311822788677e-01,2.708862134241033504e-01,4.420645488662233724e-02,-8.814827142620761460e-03,2.521094941212259286e-02,5.000417232513427734e-01
-2.200314836827079075e-03,-2.995652092912809428e-01,3.069738427502987643e-01,-1.955341497490281286e-02,2.176636193350582095e-03,3.209987427687870792e-02,5.293434858322143555e-01
-2.939164265686113747e-02,-1.971995512663541339e-01,2.978247362561723399e-01,-2.402924005849060504e-02,-1.439630353062444461e-02,3.340229884227742790e-03,4.387789666652679443e-01
-9.938940656892089609e-03,-3.265261738249277679e-01,2.021615249963586713e-01,8.980484202098456409e-03,-1.688405297474677991e-02,-1.363841547564654394e-02,4.626203179359436035e-01
-1.897273268006835489e-02,-2.836365525437626323e-01,1.384927484343739801e-03,-1.951162245344204363e-02,8.204143304757246027e-03,1.126338491540689740e-01,3.394885659217834473e-01
-1.538934071703141997e-02,-3.258238814087485169e-01,2.512215566454960580e-01,-5.709927662601646352e-03,7.681395328517378815e-03,-4.690776562116186731e-03,5.005567073822021484e-01
-3.094346451656532215e-02,-3.698389772579314116e-01,4.382479981326239948e-02,-5.819970414305342815e-02,3.838052641088338102e-02,1.181939627693081307e-01,4.497436285018920898e-01
-2.700189094128280232e-03,-3.060363832691608277e-01,1.926290787038436036e-01,-8.667384459194063182e-03,1.189726284679808177e-02,-2.453441809411423258e-02,4.380326867103576660e-01
-1.365820878421701579e-02,-3.470883946542044352e-01,1.328432249942015364e-01,-3.819627433525187021e-02,3.296626212584455318e-02,-3.298551048181556228e-02,4.386202096939086914e-01
-1.668984833968810422e-02,-2.441997666096277497e-01,1.236768043254457550e-01,-4.575671681810386526e-02,3.723857628360128375e-02,5.423743873838071661e-02,3.502351045608520508e-01
2.651746921770001264e-02,-2.875610897860716997e-01,2.841902094489762720e-01,1.849691903415888114e-02,-1.882098496112272375e-03,-3.715650158290766808e-03,4.970397651195526123e-01
-2.997307634077923250e-02,-3.182933559005003965e-01,2.800904506916845893e-01,-7.865649876815738670e-03,-6.431497655133048066e-03,-2.136618541823443167e-03,5.186414718627929688e-01
-9.243418609483813886e-03,-1.872497240379645822e-01,3.245959629012845071e-01,5.559369207726406331e-02,-1.890245986660325740e-03,3.291238815860630506e-03,4.602995514869689941e-01
-1.736159944443322126e-02,-3.099482959355258083e-01,2.854489614652139240e-01,-9.216717228238466677e-04,-3.486184856171590466e-03,-1.714273606251889067e-03,5.157008767127990723e-01
-2.012218729024834937e-03,-2.624085069694127026e-01,2.888989021786135813e-01,2.306576050938166991e-02,1.244919731550143786e-02,2.072140169809828618e-03,4.798558056354522705e-01
-9.970163978670662508e-03,-2.365448243002755691e-01,2.967265890158518049e-01,1.540447138770010584e-02,1.118705612167382631e-02,2.465309474343693741e-02,4.666897952556610107e-01
-1.842176731079011448e-02,-3.369149601715528686e-01,2.458174122254007665e-01,2.046188784286713264e-03,-2.024979860523660677e-02,-6.828892092539442724e-03,5.067556500434875488e-01
-2.316079803378523136e-02,-3.089376182272476901e-01,3.151463646639831029e-01,-1.274394723598144385e-03,-1.247704846900406228e-02,-6.924718645783649491e-03,5.416790843009948730e-01
-2.504311669143997540e-02,-3.262475742172744608e-01,3.104520079673273036e-01,-7.985635880632571681e-03,-5.493081892537725504e-03,1.439798290770732308e-03,5.519255399703979492e-01
-2.146003339134062299e-02,-3.162163089468447152e-01,3.078533776474105532e-01,-3.325504764180856141e-03,-7.736819693097189915e-04,-1.332015945107509593e-03,5.407735705375671387e-01
-2.749354611007908539e-02,-3.051212022681796809e-01,2.654110233957619469e-01,-4.174050807897696121e-03,-8.770798533456546087e-03,-1.277332731640883675e-03,4.944457113742828369e-01
1.058398778268639095e-02,-2.390063001454331149e-01,2.991405469864108491e-01,4.236590181605554006e-02,-1.173200921804361078e-02,-2.619044333094308272e-02,4.748015105724334717e-01
-2.639898274199747180e-02,-3.135439440100508124e-01,2.932146228650066577e-01,3.757346659651387717e-03,-1.026394931390585885e-03,4.241157349772699909e-04,5.257628560066223145e-01
-1.851738422220593205e-02,-2.210006233302161949e-01,3.021035307452601404e-01,3.875969127583042163e-03,-1.785566519350110029e-02,-1.257550932479658233e-02,4.584687352180480957e-01
-1.000760429555467776e-02,-2.469188065427849743e-01,3.006695577211219161e-01,1.009481869859815695e-02,-1.808995168539866832e-02,-7.854005603439188216e-03,4.772029221057891846e-01
-3.927474236403454694e-02,-3.188183035753546224e-01,2.528295064469363584e-01,-1.210024603087009234e-03,1.937215675391215641e-02,-2.486049036203673464e-03,4.962601363658905029e-01
-3.955265404581440741e-03,-3.448758530381068055e-01,2.630868530600283806e-01,3.371910088809141563e-03,-7.202049539691587725e-03,-9.111788106803359131e-04,5.279874205589294434e-01
2.352451536934797513e-02,-2.809687714512840717e-01,3.070637258204078623e-01,3.151455274977632559e-02,1.850386942884648701e-03,-4.698912624675563414e-03,5.123499035835266113e-01
-4.267268126851382626e-02,-3.156283021663358612e-01,2.769508543121766420e-01,-6.457919595068053326e-03,1.219250055133020740e-02,6.538297633274542386e-03,5.143989920616149902e-01
-2.969830623688652846e-02,-3.690533926729885894e-01,3.006552077439483273e-01,4.186614161478851952e-03,9.442744010481628897e-03,-7.565193170005544802e-03,5.804259181022644043e-01
-3.381503636452615896e-02,-3.107091454296453947e-01,2.496765861282095322e-01,-5.996011823753048288e-03,1.349708459609787886e-02,6.025361744810471022e-03,4.861052334308624268e-01
-2.372046724597855899e-02,-3.233557566313743914e-01,2.953270352062715154e-01,-3.928785558278292261e-03,-1.549670199474233526e-03,-1.440399632867882425e-03,5.359386801719665527e-01
-2.849150574389761742e-02,-2.461984492965038074e-01,3.025790669406931421e-01,-7.877828424287032505e-03,-5.678288332795291410e-03,-3.480598400561740464e-04,4.789192676544189453e-01
-2.272731620957527815e-02,-2.146579381836482836e-01,3.032331418797697964e-01,-8.745249976157006000e-03,-5.036433957895062631e-03,2.221382620263738852e-02,4.554506242275238037e-01
-2.074994839145859193e-02,-1.760210069295983781e-01,2.944336995291493841e-01,2.018034888624248638e-02,1.429308380238933883e-02,3.683183150212780699e-02,4.222476780414581299e-01
-2.913556870580720493e-02,-1.530133630528033029e-01,3.002647100647033995e-01,-8.088767761646235843e-03,1.638635674751061713e-02,1.179845336145505554e-02,4.075230956077575684e-01
-2.908637482359311896e-02,-2.887619396435877062e-01,2.663921031043596233e-01,-1.264504887875056091e-02,2.417804683715233261e-03,-2.065197610346662660e-02,4.829536378383636475e-01
-2.094677037355821211e-02,-2.858266888096513969e-01,2.657336561135805186e-01,3.456633677577367232e-03,1.317308678665483944e-03,-2.041953800435019825e-02,4.791396856307983398e-01
-2.914919967669019757e-02,-2.583938822641825839e-01,2.879708058994620568e-01,6.078198091408245490e-03,6.052131413509882242e-03,1.522816454373214327e-02,4.761645793914794922e-01
1.962149906125905396e-02,-2.935059396501021878e-01,2.899227332176028127e-01,1.339078823913624448e-02,1.968296353000442700e-03,-3.622881811070641309e-04,5.062610507011413574e-01
1.464347256273228724e-02,-3.012550797213360831e-01,2.928834028066724660e-01,5.002171775454054836e-03,-4.270943746583365577e-03,-4.092650203014980455e-03,5.150582194328308105e-01
2.585935098406142926e-02,-2.871772486449061246e-01,2.839211171374719234e-01,3.665651205388145966e-03,1.951243843262811866e-03,4.006280929513750992e-04,4.954016208648681641e-01
2.615439315917987909e-02,-2.881504505071004196e-01,2.905979087655603532e-01,3.199151040358391880e-03,2.640055649253014291e-03,-1.416098571756094692e-03,5.018878579139709473e-01
-1.255819891341940220e-02,-1.616239495673765791e-01,2.327519576417556302e-01,7.408730723633388804e-02,-5.131408318216533482e-02,-1.758613387363972512e-04,3.785912096500396729e-01
2.611351263751664903e-02,-2.881045393314934921e-01,2.906988422766544899e-01,1.749897516122702820e-02,-9.779231324383533697e-04,-1.359368741345978434e-03,5.027951002120971680e-01
2.329846944343706358e-02,-3.023255489432887244e-01,2.920728346038583001e-01,2.927742214398425941e-02,1.286602827945313408e-03,-5.881630537724616241e-03,5.181412100791931152e-01
2.446968902010784180e-02,-2.594601174573695213e-01,3.389289947015491911e-01,4.868282190321023689e-02,5.074822475256796257e-03,-6.540683255246361634e-03,5.254529714584350586e-01
-1.244434800243386825e-02,-3.193719601962177190e-01,3.059397479297645273e-01,-2.272151073736412407e-03,-7.758011494519537719e-03,-3.271437154574611227e-03,5.417767167091369629e-01
-9.305285770799694416e-04,-3.073299994586951578e-01,3.041700292229401192e-01,5.709278797790737908e-03,-5.062146341345598495e-03,-1.616185164127751338e-03,5.297472476959228516e-01
6.665370959130288535e-04,-2.940499581313957278e-01,3.036918488188651843e-01,5.400908298250830554e-03,-8.364642750273076563e-03,-1.912887949722584698e-03,5.179740190505981445e-01
-2.366830799078538383e-02,-3.123049525772105817e-01,2.723403437422578510e-01,3.831221546895370676e-03,1.451039562185664315e-02,-1.532461975274541184e-03,5.070048570632934570e-01
-3.456514659081341700e-02,-3.094339918689801294e-01,2.927776570455577487e-01,-4.041745602112487706e-03,8.289055294257564530e-03,1.428382214710586292e-03,5.224401950836181641e-01
-5.692087401062705804e-03,-2.755352570361939701e-01,3.087131639435377051e-01,1.771953120741485282e-02,-4.645012624246121387e-03,-2.384761862203831073e-02,5.091354250907897949e-01
-3.588630572227803628e-02,-3.057940250777655411e-01,2.305582733213005775e-01,-2.859678625037454999e-03,-2.442078070548343860e-02,-3.007310899861638835e-05,4.664461314678192139e-01
-2.348037217001794352e-02,-3.126903031739368677e-01,2.665833590887745075e-01,-1.957436383407753794e-03,1.339929707909393378e-02,8.238133761655016749e-03,5.024165511131286621e-01
-1.726252067421400749e-02,-3.032055956588817769e-01,3.094773560586729366e-01,-3.345958403269222816e-04,-7.393993478972341570e-03,-3.154993735285978405e-03,5.311738252639770508e-01
-1.670349944874908663e-02,-3.064423097205591917e-01,2.863705295732644207e-01,-3.391233266131759433e-03,1.248761058535229410e-02,4.579746088209437141e-03,5.139844417572021484e-01
-4.271005742016511370e-02,-3.271001844978114748e-01,2.610996590706749498e-01,5.502573123459859709e-03,-4.484334643046866686e-02,1.258616195858141586e-02,5.159238576889038086e-01
-2.291821037128774496e-02,-3.115447476365634794e-01,3.097663278161446043e-01,2.061986973889287818e-03,-1.486040644206927837e-02,1.633945208525437384e-02,5.398907661437988281e-01
-2.988681631419761592e-02,-3.188911067845938696e-01,2.914005322743471460e-01,-4.343223168367081784e-03,-2.564003241669347843e-02,-9.072689689682431058e-03,5.309220552444458008e-01
1.703436216400254499e-02,-3.018595559285168206e-01,2.965053217392811802e-01,-1.320050688795134514e-02,9.410122789381839339e-03,-7.500066254526437798e-03,5.194960236549377441e-01
-2.599476259717380458e-02,-3.450840673578752238e-01,2.444666584373561546e-01,1.742736204923016211e-03,2.641548491416359935e-03,3.780924759424705850e-02,5.153517127037048340e-01
5.107193328865491586e-03,-3.047476313895603472e-01,2.928419572324939546e-01,-5.907293821659980598e-03,-1.617742254951074713e-03,-2.956728647622363770e-03,5.177799463272094727e-01
-1.619980907691672897e-02,-3.174652173882605011e-01,3.040932720457009686e-01,-3.666659823568081634e-04,-7.454504924563579160e-03,1.487676181093935479e-03,5.385308265686035156e-01
1.547256018782760395e-03,-2.635706669548071313e-01,3.226582865919837562e-01,-6.324670599787574066e-02,4.321923048261169104e-02,-9.060914373618243756e-03,5.257209539413452148e-01
-2.109486959047336685e-02,-2.654062201406535704e-01,3.573633369636158297e-01,-8.175620247712855893e-02,7.332191592373515920e-02,-1.787465711776556679e-02,5.766448974609375000e-01
-2.761569295763652288e-02,-3.110996005604627634e-01,2.868915450112119458e-01,4.357496121673638811e-03,5.581455943594431762e-05,-2.358624268729973741e-03,5.181788802146911621e-01
-1.322366959923708570e-02,-2.959146687259265329e-01,2.975330382593953105e-01,-5.488407749189083869e-03,3.324971957754149776e-03,-6.977108281305114713e-03,5.143944025039672852e-01
8.349512213559666385e-03,-1.021717896055693298e-01,2.691934979707981679e-01,-3.781770427209899671e-02,3.448141129370680541e-02,-3.634584261156997148e-02,3.477123379707336426e-01
-1.719608715421361983e-02,-3.632368977905584551e-01,3.037613862189387781e-01,-5.986208303033905068e-03,6.145663405526156052e-03,2.434197906545515142e-02,5.795004367828369141e-01
-2.245046283675508625e-02,-3.170000264211456642e-01,2.882754289340524467e-01,3.091355949978578932e-03,4.349769956626344837e-03,4.205790705647042800e-04,5.243282914161682129e-01
-1.861956786047009454e-02,-3.104051650994437694e-01,2.966164525172294564e-01,2.451106502512539597e-03,-2.746680946588567988e-03,4.533117139404462285e-04,5.258661508560180664e-01
-1.596100231231643504e-02,-3.086128023504083884e-01,2.829412498940896969e-01,-1.126932839170855308e-02,-1.298809092286369463e-03,3.100054807331594002e-05,5.126870274543762207e-01
-2.148103250683209078e-02,-3.218699239867149897e-01,2.997075093053482853e-01,4.713322256542095551e-03,-2.126938567487858447e-03,-1.346163631105469364e-03,5.384818315505981445e-01
-2.325574490523262677e-02,-3.166584101032322018e-01,3.056708257476599688e-01,4.066014275192974051e-03,-2.842298658767329362e-03,3.159323988100847143e-03,5.393417477607727051e-01
-9.775527617500175126e-03,-3.034085899009513754e-01,2.997692603734187777e-01,-3.504780501411497266e-03,-5.346753085593218373e-03,-2.490480967261156364e-03,5.225630402565002441e-01
-3.613924723761204050e-02,-3.396362558569445134e-01,2.697275903041799205e-01,-7.815036365385325326e-03,-3.255327457911983552e-02,-5.213379014552939556e-04,5.309028029441833496e-01
7.898727306514138208e-03,-2.842317559959331996e-01,2.880301146189320205e-01,1.339777325956517662e-02,6.668104418794424705e-03,-3.941088860200923113e-04,4.963074624538421631e-01
-1.772103028966274391e-02,-3.185758461392498853e-01,2.871789389468747955e-01,3.459280070872586960e-02,-1.792309442726050181e-02,2.307434244631073952e-02,5.304330587387084961e-01
-2.476601752299327844e-02,-3.180294834562372164e-01,2.879498900621315638e-01,-8.342633676933049885e-03,2.816865045949162004e-03,-2.524288703412353504e-03,5.251233577728271484e-01
7.412167833664931246e-03,-2.810876893735723137e-01,2.905574908091477226e-01,6.530360999905132462e-03,8.771535930609780651e-03,5.777423104087074310e-03,4.955297410488128662e-01
7.745475674117869094e-03,-2.552470472607389906e-01,2.900031140779459893e-01,2.678867921102880134e-02,8.929225990271173058e-03,2.335742834130987398e-03,4.748415946960449219e-01
7.341906177343721779e-03,-2.878056384937058287e-01,2.923374027367018346e-01,9.383603752046439789e-03,8.993413135674182407e-03,2.476843786402990744e-03,5.029666423797607422e-01
-5.200307410946636028e-04,-2.832706007597789455e-01,2.784460602147864616e-01,2.193893222065002729e-02,2.188211996456934996e-03,2.143925231215066535e-02,4.893720746040344238e-01
1.854248889841362061e-02,-2.475218789584379131e-01,2.844193435868411224e-01,1.349542814638995426e-02,7.816969909336061312e-03,1.900154930766503403e-04,4.614660441875457764e-01
2.361827851800376785e-02,-3.190882491862220283e-01,2.900066675721995058e-01,2.855387321613486740e-02,-1.366374420704092501e-03,4.649068850884905194e-03,5.312438011169433594e-01
2.913473069036007224e-02,-2.631204690329967399e-01,2.848408726099699861e-01,1.595627463490380260e-02,3.948255631480780442e-04,5.613519391068059637e-04,4.757051765918731689e-01
2.320275648981109939e-02,-2.665675277561107559e-01,2.866541171839849800e-01,1.081665252765382640e-02,4.138403409201567296e-03,-2.637041047759952205e-05,4.797042906284332275e-01
2.453936026163935913e-02,-2.725674322210340783e-01,2.893882069785472799e-01,2.155826708403463243e-02,-3.559926469159164792e-03,-3.581431042571361304e-03,4.884429574012756348e-01
1.756145310524407158e-02,-2.229425385502573631e-01,3.481540384016445500e-01,6.948120126169318733e-02,-4.408517308312277436e-03,-9.444007444533308523e-03,5.113230347633361816e-01
1.895437001339267749e-02,-2.625139177622312636e-01,2.986347184320763404e-01,1.517832482872613978e-02,6.540789681060702604e-03,6.105874020811119171e-03,4.869270920753479004e-01
2.282558778206229128e-02,-2.101685839153027979e-01,2.825952357804455972e-01,2.361451492979406083e-02,4.411835939855775039e-03,5.165990238132610497e-03,4.290719628334045410e-01
3.657764291819610991e-03,-1.602829759423637090e-01,2.832505673292154968e-01,6.025867962676309531e-02,-4.806321850763707430e-03,1.781071039308466594e-03,4.023151695728302002e-01
-1.979213761773209942e-02,-3.157382235467391385e-01,3.139387723304211120e-01,-4.832035339525530995e-04,-7.100618941825621346e-03,-3.195124950667450284e-03,5.458106994628906250e-01
-4.488874199981619795e-02,-3.040699438468871807e-01,2.645728497011959335e-01,-2.768162233987829339e-03,-3.810683971827827452e-03,-1.656699055769589497e-04,4.931679666042327881e-01
-2.845208418121289440e-02,-3.185731651627529692e-01,2.867662632090071106e-01,8.830360527826271178e-03,1.265383793014840125e-03,3.220955425394087315e-03,5.246466994285583496e-01
-1.271071129082001865e-02,-3.194281429478046386e-01,3.000328654536604800e-01,-2.705141488674488778e-04,7.457107374597201493e-03,-1.636315299647835139e-03,5.366405844688415527e-01
-7.925226525333374517e-03,-3.082633410958698361e-01,2.959098341252300868e-01,1.672838450515434046e-03,-4.320277556532243005e-03,9.965479254669959913e-06,5.232937932014465332e-01
-1.599626525691207751e-02,-3.119007209854230411e-01,2.962475327415692306e-01,-1.353846486433888524e-03,-2.892795497350131653e-03,7.803240302227418355e-04,5.267660021781921387e-01
5.908033163781005286e-03,-3.000813241222661243e-01,2.984690037999025436e-01,1.217561773355825593e-03,-1.081789673552585335e-03,-3.747677823274934376e-03,5.184515714645385742e-01
2.529641062655220776e-02,-2.673965327893251254e-01,2.790921448032254171e-01,5.710339111101020784e-03,-2.302827872891623044e-03,-1.304622858471495136e-03,4.737979471683502197e-01
-1.756074058884847522e-02,-2.991546680865816432e-01,2.216996162726098119e-01,2.191049369727813070e-02,-5.685225106693497787e-02,-2.046463592149054891e-02,4.650893211364746094e-01
6.102010521106055602e-03,-1.954745987218037551e-01,2.796770399584563860e-01,2.347453693705417455e-02,7.735694387152126754e-03,-1.469664661566048337e-03,4.152853488922119141e-01
-4.209456301618927365e-02,-3.055764554243310949e-01,2.763704593952858724e-01,-2.373001053295698600e-03,2.141199941767744886e-04,-9.866565856682942785e-04,5.047498345375061035e-01
-4.197652760543082312e-02,-3.079857282838516785e-01,2.819377387787688760e-01,-2.653502540788158903e-03,-1.264942913363354370e-03,-2.976614115458744384e-03,5.117597579956054688e-01
-3.401707752710526195e-02,-3.123487508286903469e-01,2.865667897632040995e-01,-2.623969902704046363e-03,1.349888417553093923e-04,-1.019558420604677659e-03,5.191290974617004395e-01
-3.916840833027129820e-02,-3.100048413724729168e-01,2.748786841851396101e-01,-3.953371039063531718e-03,-4.331396514778478035e-03,1.505526831574974785e-05,5.070862770080566406e-01
2.052994978392665842e-02,-2.823333995070326785e-01,2.822891151868399673e-01,6.419566374987767214e-03,5.214564862555897025e-03,1.418632499034615246e-03,4.896249175071716309e-01
1.767328162675669417e-02,-2.871869323406494590e-01,2.841885527735029671e-01,4.353656132508640472e-04,3.686107361027776783e-03,1.295895925310038260e-03,4.952437877655029297e-01
2.666015697873856671e-02,-2.803269929787047254e-01,2.801078170549123336e-01,-3.699874980271374947e-04,3.370448791534673048e-04,-8.844692897419506247e-04,4.860916435718536377e-01
2.444584349788456526e-02,-2.828299242217919840e-01,2.829562142086442522e-01,2.513126964919132518e-03,-4.912219992303307669e-04,-3.896130259583808152e-04,4.906119704246520996e-01
-3.948454830472115235e-02,-3.112880201824104187e-01,2.796591745099338833e-01,3.321708802712694964e-03,-1.615128329378252338e-04,1.557547098591954100e-03,5.123618841171264648e-01
-4.092472225534884989e-02,-3.080528575901281263e-01,2.723226676623135556e-01,5.172149353186654419e-03,-2.138302225589389528e-03,1.063640506131109274e-03,5.032454133033752441e-01
-4.001293587271838315e-02,-3.037837689197372959e-01,2.762383863072438994e-01,4.708047851730826419e-03,-3.194082194005809245e-03,1.884266609144556303e-03,5.031059384346008301e-01
-4.076632176714994199e-02,-3.054381837585080639e-01,2.682058335594224574e-01,4.821781298128810511e-03,-2.669099611650662708e-03,9.562429504743060827e-04,4.973782002925872803e-01
-7.674617763877421284e-03,-3.295732782039714759e-01,1.882004672506123466e-01,-5.176371812429129103e-03,7.404450606041933572e-03,2.337271063807183288e-02,4.548861682415008545e-01
3.077617014813488483e-05,-3.200403944858771776e-01,1.922811642427353085e-01,9.341937080405297899e-04,3.103146557125373382e-03,1.856288253168041427e-02,4.494494795799255371e-01
6.022785578337880308e-03,-3.377754075955591850e-01,8.353851567676962020e-02,-8.269386817259194444e-03,2.801888193503792451e-02,2.500105298770651657e-02,3.940699696540832520e-01
-1.056143884776494790e-02,-3.402734867749209746e-01,1.489980777516106691e-01,-5.518136752314431112e-03,1.741717559841785608e-03,6.719097325155558992e-03,4.324509799480438232e-01
-9.627672573131261513e-03,-3.562059233679906733e-01,2.151287308355572803e-01,-1.297350714113460965e-02,2.837449078112783823e-02,4.193714911869121653e-02,5.066794157028198242e-01
1.836877263172389391e-02,-2.904420005143517058e-01,2.863158920457774537e-01,8.017627127728070568e-04,4.692135214932723584e-03,9.514955984351137564e-04,4.999754130840301514e-01
2.374663780951418932e-02,-2.883982855779871346e-01,2.824027703570802794e-01,1.986517952018827630e-03,8.926361265272844550e-04,1.131066872162170191e-03,4.950694143772125244e-01
-4.843778038717002493e-02,-3.031402971676305791e-01,2.609592098143143635e-01,5.743532603431782168e-04,-7.588839348954446937e-03,8.324208345581947431e-04,4.894689917564392090e-01
2.463698310660212415e-02,-2.826177324934865953e-01,2.810082899698840286e-01,1.279809077700074915e-03,6.293377300735272361e-04,-6.069917836968315812e-04,4.887844324111938477e-01
-6.606900812337571961e-03,-1.857978999890915750e-01,1.917937691615938245e-01,5.016958531860645637e-02,-4.901171579070887768e-02,-3.205212813267610539e-02,3.533599972724914551e-01
-2.410669540437089531e-02,-2.491578435646858714e-01,2.714389921139389594e-01,1.419106982829754920e-02,5.986575342496551141e-03,3.078313348309346179e-02,4.561388492584228516e-01
-1.661702690640039226e-04,-3.200926682640887755e-01,2.517304290627523922e-01,9.407235124447476315e-04,1.786706249343887436e-03,2.992905017026416432e-03,4.964195489883422852e-01
-2.452825479610910853e-02,-2.303055353029797858e-01,2.107433408876757674e-01,-2.197433185978490619e-02,1.923081863596501698e-02,5.028603434897056107e-02,3.952906727790832520e-01
-3.836755308071780612e-03,-3.310291001308802161e-01,1.897693092616385135e-01,-1.538140364659217659e-03,3.772545628604935444e-03,-1.737018401215642549e-02,4.569896459579467773e-01
-1.529570784409253065e-02,-3.342135103230586823e-01,1.923426888666179280e-01,1.756155128239078947e-02,-2.473100808066672901e-02,-1.110008138774497971e-02,4.627867639064788818e-01
-4.042380734426962580e-02,-3.322239055114479256e-01,2.594024905416099647e-01,4.855933821012637860e-03,-5.544233832735811357e-02,1.846548847544135161e-02,5.223482251167297363e-01
-1.404186272066540800e-02,-2.951681221268087629e-01,1.964099321891007444e-01,-2.276718749115160326e-02,-6.601432428475188796e-02,2.308477927033066729e-02,4.457722306251525879e-01
-1.670134216604374916e-02,-4.398766562316125950e-01,3.123046838253520363e-01,-9.535673500677150499e-03,-8.826645799067360521e-02,5.119498352608616021e-02,6.767998337745666504e-01
-5.722764464555669950e-03,-3.560807414302869511e-01,2.482531467521516544e-01,-1.468733688627438076e-02,-9.150680837719042671e-02,1.752213901078918112e-02,5.503868460655212402e-01
7.311685698238423736e-03,-1.848402738248614285e-01,2.872059600035811178e-01,5.230984670719811963e-02,7.855583371258075681e-03,2.419659642138515324e-02,4.233154058456420898e-01
-1.778559466858706251e-02,-4.364578843447083911e-01,2.786420265230760696e-01,-2.251110486646023742e-02,-8.552238487532869138e-02,4.962442667398513085e-02,6.466158628463745117e-01
-3.683948858848172525e-02,-4.129148365059188142e-01,3.272989019503863006e-01,-1.397303969381934186e-02,-4.773105173949863944e-02,-4.551750944038614882e-03,6.468814015388488770e-01
-4.356278573403304238e-02,-3.040176596477353610e-01,2.747374823492852447e-01,-4.117672931942112195e-03,-5.593777713026576448e-03,-2.002997345080266296e-03,5.022065639495849609e-01
-4.530851079486658550e-02,-3.046917452156630013e-01,2.749022681912392518e-01,2.328935710047410972e-04,-2.011181611459353542e-03,4.397921431275455482e-05,5.028759241104125977e-01
-2.439722368045962875e-02,-3.260249109430578551e-01,2.908959424739110955e-01,1.467478931789625634e-03,-6.619349226042077483e-04,3.671357189237463466e-03,5.343579053878784180e-01
-1.949078415289974553e-02,-3.085086522252417640e-01,3.065551913336008183e-01,-1.763437732073991782e-03,7.270099845645120254e-03,-1.956632532916403530e-03,5.331507921218872070e-01
-3.851182146785554761e-02,-3.050393588343246476e-01,2.748494024010441628e-01,-3.104514410885397813e-03,-4.561452792835615430e-03,-1.301490905181333950e-03,5.028399229049682617e-01
-1.113376278119445478e-02,-1.688628756216410676e-01,2.814341609171413516e-01,-1.542690305303953159e-02,-7.734081177497541260e-03,-1.043552392766887915e-03,3.968848884105682373e-01
-3.430067258605465352e-02,-1.257240991489299020e-01,2.914620378632196140e-01,-1.452946140210244555e-02,-5.051270377204755344e-03,2.780008489122578856e-03,3.807820677757263184e-01
-1.633218288474483013e-02,-2.311601899182314235e-01,2.811522160813852422e-01,-4.042511145833180275e-02,6.152808158957774956e-03,2.063056086913535314e-02,4.526025056838989258e-01
-6.885583412541383674e-03,-1.942060708839999372e-01,2.795264353909689969e-01,2.503209818898463265e-02,1.073931963369902922e-03,4.662339505924388908e-03,4.155961275100708008e-01
3.100926862578054499e-04,-1.229082810962724148e-01,2.939546672414555806e-01,-3.268767949773387221e-02,-1.171230408862316283e-03,3.668271595509061626e-03,3.752895593643188477e-01
-1.111596985893671674e-03,-1.895469880569011500e-01,2.891171775275009348e-01,-7.257486034228684268e-02,-6.087321158605695989e-03,1.257913434384426779e-02,4.368262887001037598e-01
-1.603756564113582861e-02,-1.281238359680943739e-01,2.959848853937622204e-01,-3.613909858497009377e-03,2.506099323227047038e-03,6.573638167425088254e-03,3.808968961238861084e-01
3.350989450301425018e-03,-2.466480509019990386e-01,2.902811483650364899e-01,1.821789470339690679e-03,1.325649735433723567e-02,8.105441853747960904e-03,4.661490619182586670e-01
-4.040393064968583053e-02,-3.024546333858407210e-01,2.293541635383803956e-01,2.641669457213108654e-03,-1.382352516298350660e-02,6.224219270531733319e-04,4.612219333648681641e-01
-1.291951044514809410e-02,-1.818990437223796386e-01,2.822453764067553439e-01,-2.499125551217044883e-02,3.231171789175774339e-03,5.025103899421875468e-04,4.092175364494323730e-01
-2.784108352996766261e-02,-3.224447411026407639e-01,2.373598384336499945e-01,-4.051315563765345057e-04,5.012611190246142774e-03,2.085299073706446335e-02,4.864487946033477783e-01
-4.904022744792686794e-03,-3.306344617801245112e-01,2.677208638415824460e-01,-7.437631838318751326e-03,2.395880063009498198e-02,-1.722342004946418592e-02,5.215408205986022949e-01
-3.832025066675109892e-02,-3.170449375705817752e-01,2.781929718560153253e-01,6.043436295079651806e-03,-7.926285454899036770e-03,1.185653541493249382e-03,5.161302089691162109e-01
-8.256613663755019150e-03,-3.136139641414101842e-01,2.149472099594278984e-01,2.779496561834645003e-03,9.756811603280951452e-04,4.350968274598728609e-04,4.596157073974609375e-01
-1.481612895084119530e-02,-3.266743777516991076e-01,3.031761686107219966e-01,2.135442481425533102e-03,5.485672620252211168e-03,1.235591822750890930e-03,5.455746650695800781e-01
-1.125969014005078622e-02,-3.413737548897715079e-01,1.735113807371633510e-01,1.213374559632415979e-02,-3.714187215329257247e-02,3.407557370979058531e-02,4.606243968009948730e-01
-2.070236492068319029e-02,-2.385716603378328915e-01,3.025626002258942626e-01,-1.924979633773422037e-03,1.729093415041946941e-02,-1.506252829769197214e-02,4.732710123062133789e-01
-4.111261642751606882e-04,-3.745398685332890776e-01,4.290682937431311572e-02,-1.120757080042108882e-02,-1.916882043600666788e-02,-6.327540336980920152e-03,3.995679318904876709e-01
-2.595767906693674520e-02,-4.014280577173240938e-01,1.638488513267253865e-01,-6.338082727072391620e-02,2.919837912492099022e-02,-3.627531255245564079e-02,5.165539383888244629e-01
-4.480791202260627978e-03,-3.125529965951513445e-01,2.970525557380370718e-01,-5.740290460792715939e-03,-5.720999837793802265e-03,-1.333905132953331100e-03,5.281356573104858398e-01
-2.031625090294408853e-02,-3.201960317468404704e-01,3.257115015127817759e-01,-7.948712905605601065e-03,-2.999118901958868540e-03,-2.196832996092830306e-03,5.600543022155761719e-01
-5.364662971852084128e-03,-1.903780809915168182e-01,2.337006175568333566e-01,-4.829154212568547572e-02,-1.782894359866096790e-02,6.947321884026446022e-03,3.790871798992156982e-01
-2.548257481481479292e-02,-3.237157928257576867e-01,3.110950337600839055e-01,3.027440581986861213e-03,8.320079852783022339e-03,1.912540469426200285e-03,5.503202080726623535e-01
-2.443086105875092937e-02,-2.901642804713703283e-01,2.924027260613618617e-01,6.134524077433120559e-02,-6.228735980576549647e-02,-1.154298467850224490e-02,5.277495980262756348e-01
-1.888297899001924185e-02,-3.149292884425121120e-01,2.968167032704100428e-01,-4.536371558324174200e-03,2.708075235014719057e-04,-2.512794810387240221e-04,5.299373269081115723e-01
-1.862985421509983502e-02,-2.106404132368427107e-01,2.998161344179942622e-01,1.201086914916127575e-02,8.896407947305408001e-03,1.760525891170119928e-02,4.483535885810852051e-01
-1.540630360079634116e-02,-2.754434416121991913e-01,2.006774739859008283e-01,2.552873124816024131e-02,-4.547951906252832577e-02,-2.629906198516230795e-02,4.251312017440795898e-01
-3.001310416836442535e-02,-3.435952049596556757e-01,1.726626168282018592e-01,1.138865495020167651e-01,-8.065299826550532958e-02,6.893986116039725609e-02,5.250237584114074707e-01
-2.100460961417173478e-02,-3.209087343592539887e-01,3.041585115498738334e-01,1.193742876383333549e-03,-1.867770010710547400e-03,3.067073745247711979e-04,5.414853096008300781e-01
2.578887570529474899e-02,-2.766938982837641725e-01,2.794221731009307041e-01,1.008868634847921416e-03,3.982653836694636271e-04,-3.250454830532281572e-04,4.822335839271545410e-01
-1.871862327170345161e-02,-3.203267017818517970e-01,3.049523307995747334e-01,8.297088727733517100e-04,-9.173022848407881569e-04,2.280765557065125610e-04,5.416242480278015137e-01
-2.390398880721803822e-03,-2.735981780611228542e-01,2.902150713566400420e-01,-9.237138710413092275e-04,1.293018595100068648e-02,3.411120510938891147e-03,4.889453351497650146e-01
-2.869398552420276971e-02,-3.095386200221557083e-01,2.911057176816342906e-01,-2.676099222585440890e-03,-1.341966825400412724e-03,-1.939055920181722995e-03,5.205744504928588867e-01
-4.124380570330586637e-02,-1.958460559659539191e-01,2.958838279136010718e-01,-2.845314393497943260e-03,-1.199686187203593060e-03,-9.866875655556356373e-03,4.358879029750823975e-01
-1.666264955535697034e-02,-1.699957532993009446e-01,3.199669383841682313e-01,-2.503920023545796666e-02,1.877704229326136384e-02,-5.638293978173899296e-02,4.482440352439880371e-01
1.772036009759724983e-03,-3.054697664442642124e-01,2.983398208230356174e-01,1.433328269955138484e-02,-2.456798850587472039e-03,-1.098608867008408260e-03,5.235514044761657715e-01
-2.827827130406923573e-02,-1.213099070415717129e-01,3.059122462432763978e-01,2.310239186480632367e-02,-2.538759508662475663e-03,-3.580658187969851941e-02,3.961001336574554443e-01
-2.115139476027695642e-02,-3.317647656377322729e-01,3.112678903706202482e-01,1.926510416182246853e-03,3.953507439425304505e-03,1.745713958760913842e-03,5.570496320724487305e-01
-3.790286221416433454e-02,-2.129173905393784150e-01,2.971096513574653097e-01,-1.856907461972531932e-03,2.492599093201612950e-03,1.549030324885477920e-02,4.497158527374267578e-01
-3.236230714704843581e-03,-5.736244395786377348e-02,3.095027795196467757e-01,-2.201406343354151904e-03,2.145889550864302220e-02,-8.344815445229880960e-03,3.453514277935028076e-01
-3.407961529252761385e-02,-2.514861275471418911e-01,3.019794480128913383e-01,-1.673330093129416288e-02,1.710245941238642403e-02,-3.597658090520074875e-02,4.887362718582153320e-01
-1.554581479632592342e-02,-3.253411812056506980e-01,2.474606257212154103e-01,4.506720802300623156e-03,-2.212042093378004809e-02,2.251688087336078947e-02,4.996735155582427979e-01
-3.913999439028890970e-02,-2.423799928657742464e-01,3.015802399861144401e-01,9.797226390458683640e-03,-1.052686689684855133e-02,-4.437210433267850529e-02,4.828786551952362061e-01
-1.385958726147434698e-02,-3.211559937850281266e-01,2.945958596288157927e-01,-6.110035334743679162e-04,3.245375433513510242e-03,3.059993984354725336e-03,5.333140492439270020e-01
-1.378915119705421619e-02,-1.713289080113119534e-01,2.105648214371223514e-01,-5.971087463161404291e-02,6.515834606889725489e-02,1.127295794508809644e-02,3.664865493774414062e-01
-8.869238082868338702e-03,-2.354491782878395945e-01,2.777831549046252402e-01,-2.498408581100401704e-02,2.664227682054966240e-02,-2.219074515468786105e-02,4.515939354896545410e-01
7.674913433644139915e-03,-3.109278842415306165e-01,1.506746864724673729e-01,2.620590121995618367e-03,-2.335997897906677643e-03,-1.198541280027782228e-02,4.098593890666961670e-01
1.197192653376071003e-02,-3.162316421845238201e-01,6.451181127706459573e-02,-5.360786031267406396e-03,-1.177448636512613486e-02,-8.470452629138053562e-04,3.580867052078247070e-01
-2.954358288468034860e-02,-3.130736681427063184e-01,2.931017748988083427e-01,4.500345709799910793e-04,9.582259788192761148e-04,-1.390841201916567967e-03,5.253362655639648438e-01
1.084028450602381177e-02,-3.212806393329192822e-01,6.732263265593488311e-02,2.347485764235289051e-03,1.803030202665940884e-02,-2.209453658537407009e-03,3.650479316711425781e-01
1.521474495793639914e-02,-3.190033761778740540e-01,7.981192111611282169e-02,-1.589978883496284733e-03,1.049028313713277441e-04,-1.944306483705488019e-03,3.707870841026306152e-01
-4.412838831719836930e-02,-3.087814765812308959e-01,2.733775240282226293e-01,1.075418813770520881e-03,-2.772248558722537580e-03,3.158048080981826385e-03,5.049124956130981445e-01
9.401654489751956612e-03,-3.334053340638872820e-01,1.083057360713318984e-01,7.439193169151471670e-03,-1.879610084562184300e-02,1.768577153947591823e-02,4.041879773139953613e-01
-2.440261189864068037e-02,-3.250335212726185308e-01,3.141463797947465775e-01,-8.306826235176140508e-03,-3.029450087316814307e-03,4.161218767192166433e-06,5.540822744369506836e-01
-2.898124300764204353e-02,-3.111428878715382096e-01,3.023939039790648486e-01,-4.984088248801779759e-03,3.017376516366837742e-03,-5.488378358157371953e-04,5.320044755935668945e-01
-2.195637065255161280e-02,-1.453597402036914954e-01,2.993636118225910803e-01,-3.628511075116089626e-03,9.338333897118680435e-03,-5.611926617809547734e-05,3.980301618576049805e-01
-3.506913777957951922e-02,-3.110051164352060082e-01,2.917888110037646365e-01,-6.527301253875851875e-03,9.586829793059494648e-03,6.058341163871246507e-03,5.231465101242065430e-01
-2.496149601959368053e-02,-3.136752427258760467e-01,3.007639710390929144e-01,-4.364623099924703695e-03,-3.256421875014782648e-03,-1.983491028485161428e-04,5.325253009796142578e-01
-1.971235591177339028e-02,-2.923841983878598394e-01,2.981224758067295699e-01,-1.546301849991197144e-02,-1.260789197665888872e-02,-8.897400202024648933e-04,5.130595564842224121e-01
-2.236470321692762830e-02,-3.202746055608643450e-01,3.028460243574964683e-01,6.351875392128482562e-04,-1.699896215668507361e-03,1.879098463663624909e-03,5.398298501968383789e-01
-3.890438579219911153e-02,-2.985298240839118766e-01,2.617287972321976075e-01,-1.898794412748852764e-03,3.708952342868504157e-03,-2.278115701641346197e-04,4.856850206851959229e-01
-1.738779473670696435e-02,-3.149921495332201893e-01,3.049235570486293345e-01,-1.495518954270271894e-03,-5.676742417433326866e-03,-1.002287542129995336e-03,5.371038913726806641e-01
1.779633403580364870e-02,-3.072641136330767631e-01,2.863575570780001467e-01,-2.173276623072158999e-03,2.331024493866630325e-04,1.449603705898033649e-03,5.148870944976806641e-01
-3.457509511345242120e-02,-3.153899929064197249e-01,2.949862713636046685e-01,5.305502844276031816e-04,-2.764920100262486385e-03,3.243413418582916921e-04,5.291857123374938965e-01
-2.144162146175737985e-02,-3.146427936067502928e-01,3.080578952556325967e-01,-1.487514453856738326e-03,-1.452516344250705249e-03,2.225159525070585852e-04,5.395920872688293457e-01
-3.117904314751684600e-02,-3.107534544698224988e-01,2.971097409592283745e-01,-2.487741067639497212e-03,-2.450363489064976558e-03,-4.757232809105642313e-04,5.270234942436218262e-01
-2.451524682667803601e-02,-3.133032151765270945e-01,2.994320295621862860e-01,-7.492469855342122516e-04,6.432080839074717218e-04,-2.307806937327519341e-03,5.309532284736633301e-01
-4.094509951556628280e-03,-2.378120434660962457e-01,3.401726514489070707e-01,3.587553048213895646e-02,7.894635392638760241e-02,-1.930749386207505913e-02,5.265758633613586426e-01
-2.750398145841373952e-03,-3.099721249454987504e-01,2.950263954987490389e-01,-3.175114213015725975e-04,1.196477300683428937e-03,1.858663433594989539e-03,5.239796638488769531e-01
-8.686369050568083783e-03,-2.907992792954088856e-01,2.112458797304811176e-01,1.399949656786747196e-02,6.289544829746505916e-02,3.457178303620796200e-02,4.539214670658111572e-01
-1.661095019476134527e-02,-3.200812321979710218e-01,3.141357864122612531e-01,-8.353217233594938118e-04,-7.684698522033847146e-04,-1.498474477941350198e-03,5.494269728660583496e-01
-2.381901870400024782e-02,-3.094159165037770887e-01,2.997054538122890799e-01,7.068301895732133626e-05,2.108422098340082158e-03,2.057849682030142970e-04,5.278680920600891113e-01
-1.047205792963127637e-02,-3.148773202282235117e-01,3.061259256745906265e-01,-1.145509204436697456e-03,-2.217126190607769404e-03,-3.265637737083514069e-03,5.378862619400024414e-01
-1.516605092163022216e-02,-2.544312954609211364e-01,2.188163830781983954e-01,4.691885480358592292e-02,7.192622146731174337e-02,2.035325052530288434e-02,4.374317526817321777e-01
-2.840000773634298800e-02,-3.090320971636973391e-01,2.944485322539481809e-01,1.921408621533871616e-04,-4.634733998336227527e-04,-1.140241985814206046e-03,5.230600833892822266e-01
5.901434322883626626e-04,-3.327531081887065145e-01,3.475554474663438143e-01,1.970053506246040656e-02,1.403267830817639915e-02,-3.681140718338307000e-02,5.941224694252014160e-01
-1.546830468242263099e-02,-3.078401640832768571e-01,2.153128038249977894e-01,-6.896877598624046209e-03,3.292551239312711125e-02,2.364013845339291153e-02,4.596592783927917480e-01
-3.133120922876549835e-02,-3.252400527236687378e-01,3.208710332410468213e-01,1.179800414322825300e-02,3.853994859556043439e-03,-1.932347885692826950e-02,5.617174506187438965e-01
-1.851806739353038800e-02,-3.203294046535641870e-01,3.014705071544274140e-01,-3.142275320388946205e-03,1.030566969676344766e-03,-2.084156875486385847e-03,5.386137962341308594e-01
-1.763287430685754956e-02,-3.211874904393069441e-01,3.049200447868063435e-01,-7.115035081726921260e-04,1.356273441255207574e-03,3.169736348562970517e-04,5.423150062561035156e-01
-2.853344667381850844e-02,-3.154595814849680546e-01,2.123105125143757710e-01,-9.057078405374500985e-03,-1.920379496026784413e-02,-8.597614407410438669e-03,4.593594074249267578e-01
-1.376023610941627673e-02,-3.089694997892886152e-01,2.949782633978972335e-01,1.076694282111771445e-03,-7.893221905378794900e-04,-1.596224379013278264e-03,5.230902433395385742e-01
-1.829009785868982926e-02,-3.203342177151350390e-01,3.057856235395532973e-01,-1.326131452364164931e-03,2.071824558312035380e-03,-4.408065582802947902e-04,5.423648357391357422e-01
-1.956105240143830512e-02,-3.198395352430123961e-01,3.030527951297142808e-01,-2.568190211254745611e-03,1.247721802383377869e-03,-9.095108306347670073e-04,5.395811200141906738e-01
-4.164969666742706494e-02,-3.110469548906941717e-01,2.899438434124431696e-01,3.630071942936235942e-03,-9.800880530064698393e-03,4.710999673592207622e-03,5.217794775962829590e-01
-1.183920659307024191e-02,-3.286690122119435564e-01,2.911097052755952097e-01,6.046944153993009594e-03,-4.359520986405196648e-03,5.401759729523976719e-03,5.370257496833801270e-01
-3.328302193945543996e-02,-3.127136348524195419e-01,2.940162084023862366e-01,2.546516313304030259e-03,2.255794755471323722e-03,-2.770727750380274582e-03,5.260431766510009766e-01
-1.445627645712187909e-02,-3.269159491934067185e-01,2.027244477026485525e-01,8.169681099813122863e-03,-6.904560178798219844e-03,1.137921577807804799e-02,4.619420468807220459e-01
-1.720329435566227833e-02,-3.323692724930640829e-01,2.575263283432220884e-01,4.503592777736971885e-03,-9.045951754751130726e-04,1.581715857880136578e-02,5.120598077774047852e-01
-3.314181451634458375e-02,-1.291821319364953313e-01,2.865330991735901556e-01,6.956187035260368370e-03,1.857682737941076395e-04,2.660925137734262980e-02,3.799827694892883301e-01
-2.173708333144053900e-02,-5.405864031720121199e-01,3.430086252475678110e-01,-8.276333569978498728e-02,-9.816418495968760871e-02,1.185163263568106071e-02,8.008567094802856445e-01
-1.896529799003667666e-02,-3.297279313153767544e-01,2.541399078517938559e-01,3.329721439884228331e-03,4.951375714317533122e-03,1.230004740983780924e-02,5.065485835075378418e-01
-7.256939500319643799e-03,-3.318402888353437774e-01,2.820328425318712195e-01,2.031461491909038707e-03,6.845451623408337766e-03,-8.272590747635626823e-03,5.322591662406921387e-01
-1.394078550779356135e-02,-3.182688907971324976e-01,2.971318815475527675e-01,-9.804546032557990079e-03,1.151218707230001505e-02,-5.112147534953532038e-03,5.336800217628479004e-01
-1.849418462617570189e-02,-3.124398730536505631e-01,2.391889641431721447e-01,-2.029908234227550609e-02,-1.733189858315047505e-03,-3.218455747740479878e-02,4.825994372367858887e-01
-3.917711438627369258e-02,-3.958816045769038006e-01,4.910589169765212647e-01,-1.016440592256811354e-01,-6.013148828146525071e-02,2.767617935529476103e-02,8.010404109954833984e-01
2.291192001130352984e-02,-2.931439044718445741e-01,2.854771002380368516e-01,-2.694786739161187349e-03,-4.157940543710384167e-04,-1.270129672674095945e-03,5.018407702445983887e-01
1.842477846066903693e-02,-2.808621988342900888e-01,2.810011166862946275e-01,2.831489945862730555e-03,2.350240428691339068e-04,-2.298791451262694808e-04,4.869590103626251221e-01
-4.680287260589080511e-02,-3.016668602771665486e-01,2.737678115479316721e-01,4.219404506084303863e-04,1.967480450335353450e-07,9.625681533074022722e-04,4.994261264801025391e-01
-2.407172947413346864e-02,-3.157755476137013573e-01,3.081757315423460653e-01,-2.663801959345595948e-03,2.713858231135398224e-05,7.383059591416817405e-04,5.407589673995971680e-01
-1.709090833611563026e-02,-3.194389636218730733e-01,3.122817159485877236e-01,-2.431501656433971825e-03,-3.703038853893404845e-03,-1.011749912187463523e-03,5.473095774650573730e-01
-2.141613475872762573e-02,-3.186273863987195143e-01,3.118813167165955247e-01,-3.462883860668024196e-03,-2.685247329050621801e-03,-6.381585098456494208e-04,5.463883876800537109e-01
-1.776657978157785561e-02,-3.190049294028015070e-01,3.037089681152201903e-01,2.868763954242530023e-04,-8.900327894732579454e-04,-1.719768480249420518e-04,5.393834710121154785e-01
-4.223029966620725495e-02,-3.063708269091819925e-01,3.014623198986041697e-01,1.249692781160006852e-03,-1.020932659786777039e-02,5.267888146808341610e-03,5.282788872718811035e-01
-3.472905449651539356e-02,-3.071637549756982000e-01,2.833641095204879612e-01,4.326626148598149493e-03,-1.827475730547114890e-04,3.155023312739233888e-04,5.119766592979431152e-01
-1.797139043334221656e-02,-3.230443500983284366e-01,2.641396629468847901e-01,4.475885763802054350e-03,-9.549250501381229515e-04,5.502304754133420170e-03,5.087968707084655762e-01
-1.788736072892106038e-02,-3.172516383658747774e-01,3.135334184420192072e-01,-1.630119191647245568e-03,-2.335842360566501707e-04,3.710438097926783258e-04,5.465188026428222656e-01
-8.199328308453462943e-03,-6.293043428980180098e-02,4.913953306378768815e-01,-3.328253159890907920e-02,-2.011167797808858029e-02,-1.794132124877959034e-02,5.342620611190795898e-01
-1.322053714001852551e-03,-3.051117181051975491e-01,2.937038012291295352e-01,6.302795132286263466e-04,5.059508428102967026e-03,3.259907458741693326e-03,5.187138915061950684e-01
-1.668270843492810143e-02,-3.206053874563553618e-01,3.058864206218557813e-01,-9.102937655016687338e-04,2.053157009713525022e-03,-1.805351923113143395e-04,5.426519513130187988e-01
-3.086011976780633076e-02,-3.215392586609505665e-01,2.900639929200705680e-01,3.818139037665826529e-03,-3.379810288893171015e-04,2.054102515011466124e-03,5.299333333969116211e-01
-3.862781505787696301e-02,-3.128191228891137321e-01,2.868257946499708777e-01,6.213292319849737441e-03,6.147276359298916703e-04,5.441740417267446756e-03,5.201377272605895996e-01
-1.308677734331626166e-02,-2.925050849356276572e-01,3.057338899345771188e-01,5.095386827419486422e-05,8.188625964948577363e-03,-7.073874983958728692e-03,5.188032388687133789e-01
-4.066818007700439414e-02,-3.124387040170837349e-01,2.758747177913139503e-01,1.690815492991995777e-03,-3.136602775562065577e-03,3.371645424605388547e-03,5.100567340850830078e-01
-9.748898889235919907e-03,-2.927081067491104638e-01,3.449743717423778278e-01,3.821850461946504213e-02,-2.496053562973838801e-03,-4.211030804813808287e-02,5.621274113655090332e-01
-1.578843213227483500e-02,-3.161301158191420213e-01,3.161425322162361717e-01,-9.092664142090034051e-04,-8.126523234674692519e-04,7.730650677318813817e-04,5.477976202964782715e-01
2.689167165613617905e-02,-2.825181849214566943e-01,2.801049838233479194e-01,5.280686857510953668e-04,-3.957185646191198856e-04,-3.538639758791335753e-04,4.880571961402893066e-01
-3.257411488953037421e-02,-3.195975626680964132e-01,2.889972581072900448e-01,7.291970803445111705e-03,-4.105777621615394699e-04,3.497196728955225334e-03,5.275280475616455078e-01
-3.388314911656992862e-02,-3.158039233514353672e-01,2.872024557812338785e-01,1.333658740554366897e-03,-4.865371233558640779e-05,3.040040450933554749e-03,5.226175189018249512e-01
-4.784552752547001353e-04,-2.069365039374164161e-01,2.964767454864015161e-01,-1.680568348669522760e-02,1.205280273626865503e-02,-1.049204634500338316e-02,4.401471018791198730e-01
-3.619747393058966867e-02,-2.822515475053552492e-01,3.056676599547815121e-01,-4.900452877490552028e-02,4.241936667488154997e-03,-4.582990303391822756e-02,5.244913101196289062e-01
-2.599535943433798832e-02,-3.112638087418538868e-01,3.018025656638181897e-01,-5.706416462207160312e-04,4.155365014862144124e-04,-1.721918538290646448e-03,5.313665270805358887e-01
-1.022992037383742281e-03,-2.094770051274502387e-01,2.929325951355651880e-01,-1.550690843844245576e-02,1.270140527511272148e-02,1.646112734460607055e-03,4.385803043842315674e-01
-5.393378838530468039e-03,-2.546818189751688943e-01,3.184118028850809745e-01,-2.962252651536652348e-02,2.082504043342476782e-02,-2.763484830939692133e-02,5.039246082305908203e-01
-3.778527473545816723e-02,-3.040633108588679523e-01,2.674871689705445310e-01,-3.178656477817119394e-03,3.346824831698303631e-04,-9.249068068864831635e-04,4.953946173191070557e-01
-1.918158234547073446e-02,-3.258221346408586849e-01,2.954135790882535528e-01,7.450416924817648313e-03,1.724705365282904173e-03,5.888388126958844955e-03,5.382802486419677734e-01
1.490591580353543659e-02,-3.053193080169900320e-01,3.096857846976381334e-01,9.398154018724760167e-03,1.308658102469290301e-03,2.546904162691962775e-03,5.330336689949035645e-01
-6.151796291508866699e-03,-2.471119733058010359e-01,3.042443252480850902e-01,-1.460710971509006535e-02,1.404037511867833182e-02,-8.772434952474436956e-03,4.802739024162292480e-01
-2.087140836356585205e-02,-3.302395867282434949e-01,3.034774664372953401e-01,1.417636470657712569e-03,1.323987434236081548e-03,5.115841652134371555e-04,5.488771796226501465e-01
-1.975927357131383386e-02,-3.320584886304005501e-01,3.024851310924041026e-01,2.202246009841507535e-03,2.040071201069670968e-03,1.531505744594728114e-04,5.495780706405639648e-01
-1.730116239232788733e-02,-3.300232591341478172e-01,3.027729947602664229e-01,5.810881279635127282e-04,3.596571245827560794e-03,3.455915899012122067e-04,5.480666160583496094e-01
-2.400083330599516243e-02,-3.087592150233094968e-01,3.170965986617295118e-01,1.936830481667210953e-03,-5.783300698619094765e-03,-4.506994425655198866e-03,5.428974628448486328e-01
-2.236763646423912955e-02,-3.211964126502656613e-01,3.124747028722102415e-01,-3.987354980324593449e-03,-1.076695647147083660e-03,8.145167090174671798e-04,5.491190552711486816e-01
-8.616456989127234747e-03,-3.157842184833327681e-01,3.084690151021687310e-01,-8.766238603864078298e-04,-1.200390280073536592e-03,-2.816160372835309778e-03,5.406700372695922852e-01
-2.321245184143756052e-02,-3.213402573368027704e-01,3.129419961937447425e-01,-3.730424482578172281e-03,-1.244444510462511169e-03,1.064693249492335448e-03,5.496788024902343750e-01
-3.393719633825571791e-02,-9.999713727156156473e-02,2.769495306168577864e-01,-1.169015083994913700e-03,-7.838925671001773735e-04,2.306090039442734892e-03,3.486739695072174072e-01
-2.361574600249740155e-02,-3.246171174737474407e-01,3.181098309407615066e-01,-2.274203643986897044e-03,-2.863214063151427007e-03,-1.202683138674951911e-03,5.570300817489624023e-01
1.056689660870721581e-02,-2.517044283484236589e-01,2.898440081705460636e-01,6.973911247528007812e-03,1.158767249344912903e-02,9.285708403285016649e-03,4.699316322803497314e-01
-2.535769576666103975e-03,-2.437537863691148221e-01,2.944080421818315307e-01,1.732862793643281940e-02,1.132035385448487523e-02,-3.573225198447405396e-03,4.683092534542083740e-01
-3.082130367134429394e-03,-3.087888342759100291e-01,1.638431084577911812e-01,-3.919305278492776767e-02,8.973912362203924353e-02,9.285726336193287841e-03,4.487505853176116943e-01
-6.081191926386663241e-03,-2.594392586172313830e-01,2.903593629915651730e-01,1.483135730219467888e-02,1.319052301096909456e-02,1.775018162396396759e-02,4.788528084754943848e-01
-8.222096972107781343e-03,-2.643490115322281730e-01,2.984659129737675665e-01,7.519179121149972833e-03,1.399957460558002437e-02,5.842133055789527733e-03,4.889473915100097656e-01
1.729090271901519496e-03,-2.809067357516294994e-01,2.928957334931270862e-01,5.369787397626573158e-03,8.493559727870303444e-03,2.322934674994957087e-03,4.972667992115020752e-01
-2.024483564911570138e-02,-3.177211037221673307e-01,3.111356027963716464e-01,-7.042702149041253970e-05,3.787268983096472820e-04,-1.078025512687809341e-03,5.448732376098632812e-01
-1.451286275267515621e-02,-3.770258688635758082e-01,3.672009511930133252e-01,-4.930321630586843038e-04,3.935075900464791998e-02,-1.535102557333979482e-02,6.487299203872680664e-01
6.247853243849010689e-03,-3.294443927825284057e-01,3.235997442597527418e-01,2.256906058623240133e-02,-3.612783132926798528e-03,-5.081850988121106374e-03,5.670791864395141602e-01
-3.058623549915931439e-02,-3.386221563155967229e-01,3.571920325603111790e-01,-4.243471162580539705e-03,1.036625969097076071e-02,9.632872331583358649e-03,6.044522523880004883e-01
-1.681443497292152769e-02,-3.224304798022716301e-01,3.310501534743809371e-01,-2.013496195409883623e-04,2.812621971944534362e-03,-2.043575949630702365e-03,5.663570761680603027e-01
-1.969761074154469105e-02,-3.197327384038968767e-01,3.035908460445151391e-01,-1.478635732977967012e-03,5.722457186072408587e-04,-5.832770759681172061e-04,5.399472117424011230e-01
-1.720945255295888709e-02,-3.189708178312256615e-01,3.040527538903865512e-01,-2.166939692687201106e-03,1.873728627230333496e-03,-8.624456722961061422e-04,5.396671891212463379e-01
-1.536553538972905072e-02,-3.189486616757383208e-01,3.038358402478628095e-01,-4.116157817505274394e-05,1.646119577367417689e-03,4.688823255503481819e-04,5.394119024276733398e-01
-3.692765843401878134e-02,-5.120971810814264336e-01,1.849641131072899958e-01,-7.555032794234324556e-02,-7.625694671216193266e-02,-4.197445529812644446e-03,6.442670226097106934e-01
-1.547306886354028396e-02,-3.190024443335139348e-01,3.038402920489057801e-01,1.214193146463708689e-05,1.801652422397262941e-03,3.212374915747830909e-04,5.394646525382995605e-01
-4.372028245792109608e-02,-3.060921229155478818e-01,2.828024937386350302e-01,2.531756941263972605e-03,1.413841945996173856e-03,-1.119135333831966462e-03,5.110337138175964355e-01
-3.543625543144253431e-02,-3.041477284246287272e-01,2.837267739377971054e-01,6.058999321774431561e-03,2.636558817209730659e-03,-2.552712223929871557e-03,5.098864436149597168e-01
-3.956136809145259503e-02,-3.086441279485138689e-01,2.819712691357926238e-01,6.837241294167801641e-04,3.661183880577029842e-03,-4.560667757549181282e-04,5.122010111808776855e-01
-3.610302987904483174e-02,-3.125973186941499171e-01,2.895194994577052761e-01,2.742106815807724123e-03,1.442189978597027819e-03,-1.987270312687141986e-03,5.220656394958496094e-01
-8.602252031425110246e-03,-3.158052479342327024e-01,3.140322418002882698e-01,9.078882395176332987e-04,-7.501314641149385565e-03,-2.648108224033786460e-03,5.456860661506652832e-01
2.190056050961293813e-02,-2.922652328490525919e-01,2.862187502894363855e-01,-2.865633109634494000e-03,3.363453114738141811e-05,2.954474965230431726e-04,5.016262531280517578e-01
5.502605076687832122e-03,-3.009448679928837245e-01,2.943136696085077997e-01,7.073638133131016775e-04,-5.475900451692894584e-04,-1.752574251266855862e-03,5.155956745147705078e-01
-2.045973537357009125e-02,-3.184796050462465056e-01,3.131697579213283400e-01,-2.098229832700399151e-03,-1.574378040008278133e-03,7.229940135628413036e-04,5.473343729972839355e-01
-3.180892923105671510e-02,-3.153755449784636511e-01,2.991747050516199158e-01,-1.394766282363553087e-03,-5.476379028203617796e-04,-2.231917412208538933e-03,5.327642560005187988e-01
-2.074845015574888762e-02,-3.199521910589046003e-01,3.143788306468676685e-01,-2.837410910977150764e-03,-1.598649620656334000e-03,6.796389064115497536e-04,5.496705770492553711e-01
-1.969557903587439152e-02,-3.191993861715906045e-01,3.173254210440449308e-01,-1.656784468343056298e-03,-3.435720987253937202e-03,1.444583167882068913e-04,5.516053438186645508e-01
-3.471431659604577724e-02,-2.852799733876630328e-01,3.095338271156452548e-01,4.386598132012227771e-03,-1.701188711590276249e-03,1.128233568992585657e-03,5.173170566558837891e-01
-3.262063404588810139e-02,-3.138109100611827795e-01,2.881981724397879585e-01,-2.099955395257758085e-03,3.033832337863420162e-03,4.164261400031819133e-03,5.218205451965332031e-01
-2.430700025103913614e-02,-3.184485388989987120e-01,3.135692053827132675e-01,-3.096863434694758859e-04,4.509408188366557935e-03,-6.724553235447937490e-03,5.479598045349121094e-01
-1.396081044109585487e-02,-2.774222523237970250e-01,3.062313956749712629e-01,-3.196804165335323696e-03,8.588670251545764758e-03,-9.338472619475849529e-03,5.067611336708068848e-01
-2.241077506216814300e-02,-3.253840794808501302e-01,3.066419222047098714e-01,7.555224185263705776e-04,9.895368039977370245e-03,-7.798365813991192837e-03,5.479421615600585938e-01
-2.557051693664817715e-02,-1.850883594373625707e-01,3.101081861176482879e-01,-2.372652346300858223e-02,5.583364199769557615e-04,-3.609283715785333718e-02,4.441516995429992676e-01
2.049875559105224926e-02,-2.793954389768008029e-01,2.853284194990788891e-01,-6.739739924495110474e-03,-2.256521318909608404e-03,-1.614557191298641396e-03,4.895421564579010010e-01
-1.737157309234181601e-02,-1.309884408048398452e-01,3.138449190688352708e-01,-4.142771892631499919e-02,1.475726132137548767e-02,-5.035262580282245937e-02,4.167171716690063477e-01
-4.215581566468569463e-02,-1.867453849494069007e-01,3.047948621772139655e-01,3.662113230024633282e-03,-3.912888967691429375e-03,-2.934903790946448085e-02,4.405866861343383789e-01
-4.270020101764342157e-02,-1.209155770941653940e-01,2.928340106720035418e-01,5.392072093032264542e-03,-3.976480512456931175e-03,-2.055285902353494107e-02,3.825528919696807861e-01
-3.486694874647430775e-02,-1.407173826234084379e-01,2.968904017944294926e-01,8.829090019930294769e-03,-9.780750414470287465e-03,-7.144274914575582391e-02,4.149903059005737305e-01
-2.903551329696849037e-02,-5.507579358541722647e-02,2.980308703034683648e-01,7.960309120140392908e-03,-4.510250438974180293e-03,-1.965944978127266360e-02,3.428965210914611816e-01
-4.690356523795928545e-02,-3.046752916308804182e-01,2.911994077702925177e-01,-1.009172717286170801e-03,6.791495910141646768e-03,1.944199723317008256e-03,5.177509188652038574e-01
1.864847272955088078e-02,-3.039539627030825031e-01,2.883632808394531177e-01,2.405735200498911042e-02,-1.816913136073081483e-03,2.034175589352411103e-03,5.153519511222839355e-01
-1.920557395512138832e-02,-3.212755126735546973e-01,3.039872142861832494e-01,4.041872222423988255e-04,-4.492280450430290693e-04,9.601426964949990282e-04,5.415999293327331543e-01
-1.673674311047159552e-02,-3.185338100426021168e-01,3.038704191705967617e-01,-1.221014573038089991e-04,-1.668484955548269442e-03,3.336278391499342415e-04,5.391080379486083984e-01
-1.336710930707630737e-02,-3.170506000259766810e-01,3.108843130075896188e-01,5.277472423521815774e-03,-4.048989922774005011e-03,1.340173771033649529e-03,5.440317988395690918e-01
-4.787179721488515893e-02,-3.120773558385638857e-01,2.961698432545225579e-01,7.333152443019428333e-04,5.436024657765183704e-03,7.684688777312263666e-04,5.283550024032592773e-01
-2.687097502429449530e-02,-3.197945838786231953e-01,2.957358779802074511e-01,1.533817172311143992e-02,-3.009426776617361854e-02,4.770219370818021276e-03,5.365348458290100098e-01
-4.617101307827059520e-02,-3.028002068388960799e-01,2.830986078135762640e-01,7.396720957191038961e-04,2.941310786241656348e-03,6.161086803252388295e-04,5.087297558784484863e-01
-2.828367476371785802e-02,-3.183725269862929808e-01,3.116383223452635076e-01,-1.633700397749750319e-03,-8.578489355017210414e-04,9.800280815729658056e-04,5.461860299110412598e-01
2.290090849445630856e-03,-3.188860999579989364e-01,3.042682062165735224e-01,3.816044613126937449e-03,3.350559236555420567e-03,4.816329769322580737e-03,5.398889183998107910e-01
-1.586143022669576907e-02,-3.102314286817499100e-01,2.975715359331285170e-01,-4.119287338400319173e-04,-2.464339917183785804e-03,-9.523699590605653412e-04,5.264794826507568359e-01
-1.021508125414677393e-02,-1.151538210996864431e-01,2.115494931565827519e-01,-2.870312739647221112e-02,2.860410099676352277e-02,-1.050357213370181099e-02,2.978599071502685547e-01
-3.474041009126671575e-02,-3.108797315305805165e-01,2.979291884172413085e-01,-3.301061324545409310e-03,9.536675255741164023e-03,1.630796962171721044e-04,5.282903909683227539e-01
-4.277942289687644561e-02,-3.039408275265554349e-01,2.791380815583798802e-01,-5.382056438258735155e-04,1.197127506401294899e-03,-1.849346649924417157e-04,5.058792829513549805e-01
-4.221975262226015935e-02,-3.053803192966602631e-01,2.880210677271964892e-01,-1.122025395921696705e-03,1.387926156455873694e-03,2.047490718268430744e-03,5.150154829025268555e-01
-3.479658775067881460e-02,-3.107939597428304723e-01,2.976083455652440701e-01,-3.727113144098428716e-03,-1.058326065971349102e-03,1.694820993523001593e-03,5.276970267295837402e-01
-1.177162064684152132e-02,-3.127372013807859785e-01,3.110139081508096481e-01,-3.192154007024889783e-03,-6.603450832072092075e-03,9.427385927390309931e-05,5.404438376426696777e-01
-3.985095078642415800e-02,-3.097860586973598118e-01,2.822183866049372547e-01,-3.868067744999942586e-03,6.165702023153659013e-03,-4.990993349915064580e-04,5.135086178779602051e-01
-4.076891538730019471e-02,-3.132312670992056791e-01,2.872574137930315463e-01,3.026700421425910451e-03,-2.705845414399931596e-03,5.679586314517198233e-03,5.209203958511352539e-01
-2.409656376919221132e-02,-3.217350727564711743e-01,2.961582632989877562e-01,5.508067860689870240e-03,-5.336475396918463837e-04,7.189286131322595620e-03,5.354614257812500000e-01
-2.819615583322594016e-02,-3.185118486515264302e-01,2.662418019350101805e-01,8.705373228356273752e-03,-8.085734981302137659e-04,5.651105007622634312e-04,5.066429972648620605e-01
-2.850583704031247820e-02,-3.211570097085349462e-01,2.793264333541954358e-01,1.075046491137404518e-02,-7.581878792771746048e-03,6.192984059676341461e-03,5.206986665725708008e-01
-4.277303315741716461e-02,-3.090076239741769704e-01,2.818700284233583431e-01,4.621684362307293252e-04,-1.139049161066985104e-03,6.434490827263610654e-04,5.125533938407897949e-01
-3.536891580112501432e-02,-3.065551144731067934e-01,2.943638419302120335e-01,2.973723509931939938e-04,3.587886822047294585e-03,3.287152069003672133e-04,5.212713479995727539e-01
1.579820585575999158e-03,-3.120173896633334776e-01,2.974399636248613032e-01,-2.457719439046114271e-03,2.108880142876327132e-04,1.275097319119319504e-03,5.279019474983215332e-01
-2.511683204147769494e-02,-3.157361562189114346e-01,2.929127779838281986e-01,6.604760087985075273e-03,-7.904060629366850598e-04,1.083524905179737144e-03,5.274127721786499023e-01
-4.443328237982978324e-02,-3.108744906969501121e-01,2.371013452862875126e-01,4.561877712386512400e-03,-9.222859085789576750e-03,5.543947107322220146e-03,4.750525355339050293e-01
-4.943839014983270747e-02,-3.152522987385865116e-01,2.527033923779551938e-01,3.210536856002439016e-03,-3.427607002130354102e-02,8.021537409687667930e-03,4.959926307201385498e-01
-1.573954658539795590e-02,-3.195372380325962047e-01,3.056714115429370326e-01,8.195566065424008707e-04,-1.518398127748827101e-04,1.740410926397936188e-04,5.415201783180236816e-01
-3.740678881088413399e-02,-3.096180430314353083e-01,2.466896877359281426e-01,7.110602652482088046e-03,-1.692852670029616410e-02,4.046587432011638195e-04,4.828622341156005859e-01
-4.368267972445137592e-02,-3.687396756241568263e-01,2.640535326178297670e-01,6.178685861909050808e-03,-3.888104689649899554e-02,2.950113972883585539e-02,5.546675920486450195e-01
-1.838043438713349992e-02,-3.638258330842146782e-01,1.926504048519126489e-01,-4.195029548754250492e-02,-8.315735669078572201e-02,-9.644511702204596262e-03,5.129036307334899902e-01
-2.736123899487386685e-02,-3.566008240030597021e-01,2.684583654707208278e-01,-6.860556460061413737e-03,-2.547495749501726275e-02,1.960029301613813377e-02,5.445586442947387695e-01
-3.916558738827265185e-02,-3.180914133917029374e-01,2.894316081608253044e-01,8.779760222923661470e-03,-1.817006261039115847e-02,1.511505742353326000e-02,5.285235047340393066e-01
-3.753474367716316817e-02,-3.042481302163954626e-01,2.824443715471203209e-01,3.495775826342620209e-03,5.833579014636364364e-03,-6.054168341536101229e-04,5.089255571365356445e-01
-2.579883336706021574e-02,-1.141169968762656139e-01,2.296831932715538982e-01,-6.478344679621043933e-03,8.861439961212922226e-03,4.736820078256428340e-02,3.205114603042602539e-01
-8.356514019234241586e-03,-3.279790077589044839e-01,2.919782531060927666e-01,-7.784165574770544535e-03,2.095207959232295997e-02,-8.766283886380623128e-03,5.385931134223937988e-01
-3.951442835853778701e-02,-3.220058324655286075e-01,2.957744811961875442e-01,7.995203224053988242e-03,-1.852941386155992909e-02,6.561308487746215015e-03,5.369238257408142090e-01
-2.134375047423736974e-02,-3.332780110804944851e-01,3.052066594298453173e-01,1.838463718627156730e-03,3.343277592794821011e-03,-1.490034231787574050e-03,5.530377626419067383e-01
-2.317504696865488323e-02,-3.234389817932544209e-01,3.078472311510607740e-01,5.390839821765013593e-04,5.341292027119397962e-03,-1.867916384306869378e-03,5.470147728919982910e-01
-2.168106647587938682e-02,-3.261472209927439025e-01,3.151401490378475390e-01,7.680757838468674128e-05,1.801456586312762771e-03,1.623781124087597975e-03,5.556226372718811035e-01
-1.847322275014968984e-02,-3.201541351643868993e-01,3.059231375726892965e-01,8.924705285337491273e-04,-1.281841195742460578e-03,1.649704924038080636e-04,5.423246026039123535e-01
-1.945718371715383921e-02,-3.332347927807077226e-01,2.921708061557464209e-01,1.512123654610500554e-03,8.592241512170489858e-04,-3.248289597453182104e-03,5.416557788848876953e-01
1.692223141801762337e-02,-3.027131785860836533e-01,2.888415676931184728e-01,-1.517941925888377985e-03,3.060485050677169867e-03,-1.005766657126735790e-03,5.128937959671020508e-01
3.874880291859464365e-03,-3.107035417029842539e-01,2.948778308825574235e-01,-2.721591489131568241e-04,4.772859079292098017e-03,-6.202531428079044711e-04,5.246477723121643066e-01
1.238869170379931425e-02,-2.987119659617266665e-01,2.922142041983533112e-01,-5.321739796962852292e-03,7.388082991273301967e-03,1.203079051582763362e-03,5.122430324554443359e-01
-2.790146700095777477e-02,-3.127009311674502356e-01,2.939397451701183384e-01,5.432073145008522487e-03,6.712498451173215118e-05,-2.075726255745387067e-03,5.257890820503234863e-01
-2.790727805504382777e-02,-3.076442378914465148e-01,2.961468911016751360e-01,-2.203155591664236745e-03,8.311918103572270289e-03,-7.056059331805692673e-04,5.235810279846191406e-01
-3.614228862739577580e-02,-3.119097436976918658e-01,2.928835186684944913e-01,4.175144598841826378e-03,3.084416665351523423e-03,-9.351118848329263017e-04,5.245223641395568848e-01
1.695639613797090411e-02,-3.114499254618121049e-01,3.057277879591245862e-01,-1.383765454411993272e-02,2.989671002810402253e-03,-5.249421705918012188e-03,5.354977846145629883e-01
-2.764730159832023970e-02,-3.167458820055031321e-01,2.941440452369676328e-01,2.511555807099218572e-03,2.652251296393794491e-03,-1.782165618597139926e-03,5.293454527854919434e-01
-2.781658160438841773e-02,-3.143787200186241027e-01,2.904009398186386259e-01,3.588119588208181672e-03,1.460234618943732779e-03,5.390969313588382271e-04,5.240374207496643066e-01
-1.995849346384410625e-02,-2.866316417394648153e-01,2.971478875615582993e-01,-1.971368383096292043e-05,-2.294500540410256140e-03,-9.523757450460419932e-04,5.062146782875061035e-01
-3.787655912160045601e-02,-3.078045356195918680e-01,2.866063958232704656e-01,4.169184856499972766e-03,5.047221584259848140e-03,-6.865239147156017383e-04,5.156232118606567383e-01
-1.672925540970398445e-02,-3.129592636183693433e-01,3.046080652894655461e-01,5.857326400477491169e-04,-5.822038416866119614e-03,-6.290101486821977894e-04,5.350733995437622070e-01
-3.795366711877293242e-02,-3.086318334794649343e-01,2.859041175757647824e-01,-1.874617161936785947e-04,-2.925607001468797202e-05,-6.969714216498253036e-04,5.155708789825439453e-01
-4.245874212809580550e-02,-3.062863083597418545e-01,2.794894231655044026e-01,2.407288687393685858e-03,4.642450971646651598e-04,1.973992244747650547e-05,5.081461071968078613e-01
-9.194302576779642827e-03,-2.642135377923342521e-01,3.027298846808469390e-01,-8.629714150489922742e-03,-4.575454572829500480e-03,1.265614475509872598e-02,4.925900101661682129e-01
-1.875982276508343302e-02,-2.841305282323142722e-01,2.993353794900771025e-01,-4.731134093185142449e-03,-1.250164062039269344e-02,9.355690817576593071e-03,5.067720413208007812e-01
-1.188836146980356591e-02,-3.099259246533727641e-01,2.964192468942232761e-01,-1.779154009561269767e-03,6.091526602536527068e-04,-1.802650243013464212e-03,5.251548290252685547e-01
-3.749361064939391031e-02,-2.530790555746378345e-01,2.885406666069507131e-01,-4.406347329500583630e-03,-1.024583217265360351e-03,1.896180888772526843e-02,4.735015630722045898e-01
-2.989240377223925660e-02,-2.903057573310162121e-01,3.018624382183595634e-01,-7.053089879942464613e-03,-7.710496164264072673e-03,6.056543394977750112e-04,5.143913626670837402e-01
-1.133102299788872960e-02,-2.405937814300158073e-01,2.953685391599789045e-01,-7.661393692704239304e-03,-1.094091731289938141e-02,1.156470976117798984e-02,4.667732417583465576e-01
3.047483910918180432e-03,-3.137422906208801598e-01,2.973475097504636455e-01,-1.444366758193537563e-03,1.173769706484630200e-03,3.000843497348569880e-03,5.293740630149841309e-01
-2.315942971181803728e-02,-2.251327562248867653e-01,3.027148942729548375e-01,-8.566494961110486354e-04,-8.957665290478120795e-03,2.031131583906413754e-02,4.629101455211639404e-01
-1.993915981649892200e-02,-3.059081415327746245e-01,2.926070047860159229e-01,1.138120377036858609e-03,-6.776024140549509814e-03,8.308800991415567943e-05,5.186362266540527344e-01
-2.836741187856154506e-02,-2.647698339535938250e-01,3.038627693455470125e-01,-2.047641140056030197e-04,-5.617540125454966587e-03,-5.000965124261915438e-03,4.949473142623901367e-01
-1.965383340626960379e-02,-2.456019711269447070e-01,3.022185436077265419e-01,4.683460041914818545e-02,-1.446001727256202192e-02,-3.112657793028275957e-02,4.873347580432891846e-01
-9.119139076645268321e-03,-2.648258792772120729e-01,3.313073936158253963e-01,2.643774482175800106e-02,-2.169028950200730527e-02,-3.173590003762932765e-02,5.242664217948913574e-01
-1.702142352428130320e-02,-3.182730901108357102e-01,3.043502449835616686e-01,-3.995379771812022137e-04,-2.920104952921606829e-03,1.157972011275926758e-03,5.393293499946594238e-01
-3.067003656205652060e-02,-3.309200772708363880e-01,2.950397167609301596e-01,-1.336209475991177557e-02,-1.222043487431372089e-02,-4.120147357601454396e-02,5.478208065032958984e-01
-2.434365526874866098e-02,-3.128190002567587946e-01,2.972389513678289075e-01,-9.639753730533984905e-03,-2.929664031301787343e-03,-2.181790559490651149e-02,5.302212834358215332e-01
-1.853933938740547072e-02,-3.206429487503670850e-01,3.062444776538368330e-01,9.253300016675307296e-04,-1.318794197908254107e-03,2.237403830167853844e-04,5.430261492729187012e-01
-1.246839362338469925e-02,-5.747588843586587393e-03,3.417523278385963259e-01,1.140461536531973095e-03,4.854988634990849150e-03,-4.502246040335247668e-02,3.595726788043975830e-01
-2.068480771628723736e-02,-2.214661063107849770e-01,2.970355611478588953e-01,3.013881670895263327e-03,-1.559529728826689748e-02,-1.391364004684590358e-02,4.543009102344512939e-01
-1.512519476446238728e-02,-2.731672064446049042e-01,3.159341901466923286e-01,-8.045895318729198156e-04,-1.118184136852580501e-02,-1.365701788485750717e-02,5.123961567878723145e-01
-9.236424969190179524e-03,-2.234892311157774536e-01,2.965607739018923938e-01,8.887141112509910554e-03,-1.822849352844619839e-02,-1.844346117973547430e-02,4.551794826984405518e-01
6.379336000079525136e-03,-3.060087481983864155e-01,2.978412144024635277e-01,-2.708824372937830658e-04,-1.813811671063426207e-03,-3.761330409505188668e-03,5.231043100357055664e-01
-2.041948577646628821e-02,-3.179640902731429297e-01,3.042738786856291622e-01,1.724352389370325872e-03,-4.464043394194207553e-04,-1.172754185144483756e-03,5.390574932098388672e-01
-4.288627068731799136e-02,-3.069167103957179399e-01,2.791338907436167749e-01,-2.263594600130077860e-03,4.464394883632187387e-03,2.438267434772858379e-03,5.084537267684936523e-01
-4.120509464263265309e-02,-3.068835497955968439e-01,2.785550709621428256e-01,-3.287931276666938071e-03,6.618919249716109787e-03,2.867363179312115446e-03,5.079109072685241699e-01
-4.120779013630999910e-02,-3.048599752593493806e-01,2.886801912143430182e-01,-2.135487565117657246e-03,1.804874336948562516e-03,1.975714444592074470e-03,5.151207447052001953e-01
-4.275087012025080568e-02,-3.059103899182082920e-01,2.847728065974228784e-01,-2.304692723893863801e-03,-5.439120287886375091e-04,1.719690868419553997e-03,5.125830173492431641e-01
-5.350469322226228397e-03,-1.367614789596986180e-01,3.501065057263849645e-01,5.890544118115643296e-02,-5.207887605809669029e-02,-1.098510883521612060e-02,4.574250578880310059e-01
-4.642255362001893038e-02,-3.032568203294512266e-01,2.780685466580906096e-01,-6.330276346851915377e-04,-2.361291719116713559e-04,5.005690710631184679e-04,5.045799016952514648e-01
-2.989255375059394690e-02,-3.094730718653517787e-01,2.988394716161512088e-01,-2.615357805450553921e-03,-2.334214876247713965e-03,-4.812491978776698158e-04,5.274226665496826172e-01
-2.572396656492544065e-02,-3.141225761257192550e-01,2.989587054111883524e-01,-2.571534058518354111e-03,8.923311714645680267e-04,3.007271256429353825e-04,5.312749743461608887e-01
-2.741354279828321638e-02,-4.828050841388644154e-01,3.032367396710289875e-01,7.677431090970558702e-02,5.162705313488399894e-02,-3.696071270462100017e-02,7.050274014472961426e-01
-2.644761914833533567e-02,-3.135815353205790301e-01,3.005265816394132594e-01,2.452994873591115470e-04,-1.211284950920108469e-03,6.033017461950529751e-05,5.322104692459106445e-01
-2.164218279973256776e-02,-3.322399129866271950e-01,3.075292947359307139e-01,7.529739196966274374e-04,6.365246328591239039e-04,-1.208819402798026570e-03,5.541408061981201172e-01
-2.554865925812961625e-02,-3.163942939577398250e-01,3.063906244370876442e-01,-3.235525285636418544e-03,9.295947496968779864e-04,5.831799247849037875e-04,5.397712588310241699e-01
-2.776780198652602921e-02,-3.154749609180824144e-01,3.023006413303512829e-01,-4.190196271977079077e-03,-1.932003600228993740e-03,-9.920493497660191548e-04,5.354908704757690430e-01
-3.948632796485751495e-02,-3.192987773578063182e-01,2.462359430709097907e-01,-2.943228311437074904e-03,3.568554905772388514e-02,-5.476543539954751433e-03,4.937784969806671143e-01
-6.489405863280256481e-03,-3.430613329303813797e-01,1.935665813887462172e-01,-3.539459671813585673e-03,6.491721669232378145e-02,-1.621066687834039552e-02,4.838439524173736572e-01
-9.387145331408408913e-03,-3.135800811383132047e-01,2.981167941398849552e-01,2.571372872306190650e-04,7.229529722213791539e-03,2.145865074472212957e-03,5.299088358879089355e-01
-1.435421258294402279e-02,-3.110915069843735448e-01,2.470556814848073879e-01,-3.280876044280687381e-02,5.679847136381658418e-02,5.688380372294152797e-03,4.969534575939178467e-01
-7.233180866241542550e-03,-3.195689956029316714e-01,2.087886246261617951e-01,-5.974087938213707566e-03,3.857655825819578110e-02,-1.345857362914862007e-02,4.656236171722412109e-01
-1.656157382045676807e-02,-2.609218709708463479e-01,3.021251399024658668e-01,-7.715254107398208548e-04,1.291517531915457526e-02,-4.421575709680082567e-03,4.896002411842346191e-01
7.540340328082539845e-03,-3.028667943858988076e-01,9.844851333544127336e-02,3.436589787888213315e-03,-5.506892783993363495e-03,3.775548524057606870e-03,3.646979629993438721e-01
-4.555086846981014348e-02,-3.035531492970910961e-01,2.903489719202069219e-01,3.680631420440161057e-04,4.217376802912583753e-03,1.339939910971982371e-03,5.158642530441284180e-01
-2.313692419938322489e-02,-3.374198551131695201e-01,2.405737451000217741e-01,-6.306355536208859032e-03,2.504522676069971532e-02,-8.247505133554294821e-03,5.033904910087585449e-01
-1.906820785073143343e-02,-3.199882366837636383e-01,2.968493236092427101e-01,-1.474788960864585274e-05,-6.194605065753004333e-04,2.728715841379858193e-03,5.342715978622436523e-01
-2.459742136257323658e-02,-2.446762812472854098e-01,2.998313207988645424e-01,-2.414144001425392802e-03,-6.921865277697693102e-03,2.914915281232549529e-03,4.746317863464355469e-01
-4.805713926527170610e-03,-2.978507468867105379e-01,1.972780606051486307e-01,-6.587648104895160034e-03,3.975468745519972896e-02,-8.006063355398856940e-03,4.370316565036773682e-01
-2.306572345195215951e-02,-1.894498418297375641e-01,3.081403705012606964e-01,-3.216971247917472382e-02,-6.441567451907391322e-03,5.775319980726245118e-03,4.425130486488342285e-01
1.780332213930134466e-02,-3.007857350165235033e-01,2.868186242790186080e-01,7.605477789568310283e-03,2.819657516059526211e-04,-2.632238499115261560e-03,5.096744894981384277e-01
-2.255006182877395543e-02,-3.159159337758796204e-01,3.030359031373212608e-01,2.550054875807168057e-03,4.487664508934290260e-03,-3.095426649757526943e-03,5.363713502883911133e-01
-2.291673007010895657e-02,-1.065542886610814921e-01,2.788315694078298268e-01,-1.269534240549374370e-03,-1.627529512077678393e-03,9.648844001713785101e-04,3.511414825916290283e-01
-2.533121214800965540e-02,-3.133307987394661209e-01,2.950569573889056385e-01,5.263589176617653603e-04,-3.183178717486549389e-03,-9.635191669408924540e-04,5.271603465080261230e-01
-2.647878056875009600e-02,-1.439494853224347337e-01,2.850483030941703966e-01,-2.075640944621475262e-02,-7.536390578231209024e-03,1.971292200313403548e-02,3.873918950557708740e-01
-1.802452962298542113e-02,-3.096809908448075466e-01,3.119046904022363953e-01,3.886548149097816644e-03,4.204947448379159000e-03,3.067137255986450515e-03,5.387665033340454102e-01
-2.032178547449131276e-02,-3.122187734937882930e-01,2.452859601299052228e-01,8.431044320354895774e-03,1.002437648829599976e-03,3.808923916635042258e-03,4.832610189914703369e-01
1.166430895126952839e-02,-2.913295380569870807e-01,2.888808431289913159e-01,-5.922101667219782824e-03,-3.004265454946463635e-03,-2.395422262266785028e-03,5.027908682823181152e-01
-4.049297552333745026e-02,-3.004322072987552494e-01,2.676753215904184025e-01,-2.828044454152342079e-03,1.493658513024974637e-03,-2.278470454084511633e-03,4.926331341266632080e-01
-3.095414302259710815e-02,-3.128908258315830637e-01,2.811629068527791708e-01,6.159890537618162992e-03,6.335402811285341168e-04,-2.086723687435192934e-03,5.148113369941711426e-01
1.038739181625837789e-02,-3.036645600658717248e-01,2.950310641183017668e-01,-3.717823265892166665e-03,5.046083229875119626e-03,-7.255777989887037937e-04,5.188091993331909180e-01
-2.192086585173076002e-02,-3.159312075276478060e-01,3.019331544000569134e-01,-1.281969958141899687e-04,1.491715402770774643e-03,-1.084208104377777171e-03,5.353038311004638672e-01
-3.343949785481060283e-02,-1.824039302700402321e-01,3.000351557154016802e-01,-8.857454223802308999e-03,-1.124707082938014059e-02,-9.033863791498251972e-04,4.285894334316253662e-01
-1.022108000236172237e-02,-1.989421203520151116e-01,2.876103172172940758e-01,-3.101082445138032481e-02,-1.368320579353722588e-02,1.013670670351997372e-02,4.292798340320587158e-01
-1.996813954083407824e-02,-3.188928650130204434e-01,2.986399630256214022e-01,3.257185186885877982e-03,-1.015154256516297669e-03,9.043696718652062929e-04,5.349246263504028320e-01
-2.175427928255452281e-02,-1.639482866608147071e-01,2.878440726707641728e-01,-2.468880307064345858e-02,-2.003656176064013555e-03,1.460642372165055387e-02,4.032046794891357422e-01
-1.962451496388166808e-02,-3.206290015936759108e-01,3.058737326163765147e-01,1.531020224890048114e-03,-1.914257346317146122e-03,-8.222817003973085744e-05,5.427221059799194336e-01
-3.005067030260604594e-02,-3.985564601657375361e-01,3.201677948371774440e-01,-1.077380206180575117e-01,9.656432729017629113e-02,-1.434332813867038141e-02,6.715062856674194336e-01
8.151196866244968427e-04,-3.049947910705607668e-01,3.036650507131555821e-01,-1.043339621907051970e-02,-7.457697529768014290e-03,6.279421266049916781e-03,5.276969075202941895e-01
6.936514677537360812e-03,-3.028663317508960007e-01,2.932845124130487591e-01,-6.008449174301310272e-03,-2.147266371016821104e-03,2.022846514119451024e-03,5.165450572967529297e-01
-2.280027114023910895e-02,-3.119712295772384403e-01,3.073838449783023452e-01,-3.344768354012541550e-02,-4.405406137175539583e-02,-1.022897830343910686e-02,5.455396175384521484e-01
-2.645890503773094815e-02,-3.580885049186067204e-01,4.541252282650560246e-01,-5.238018489472487382e-02,-3.528742620110667666e-02,4.983442065511421194e-03,7.157907485961914062e-01
-1.787567319066549199e-02,-3.202822094352196780e-01,3.056045602411894824e-01,-8.975294265581601233e-05,-3.435052644429869564e-04,1.526215606743105353e-08,5.421366095542907715e-01
-1.665718454820560440e-02,-2.921214546844456694e-01,3.460504239451168140e-01,-8.705947560717866573e-02,1.246743818111741009e-02,-6.355043713652018880e-03,5.750442743301391602e-01
2.643053086247642951e-03,-3.066588653681123211e-01,2.929590274817367446e-01,-4.779116189467581301e-03,-9.937850552479612215e-04,-1.309700542809892317e-03,5.194448828697204590e-01
-3.528102611506692132e-02,-3.652281551322044684e-01,4.559030254536330928e-01,-9.433239252753607140e-02,-1.851446130485360012e-02,5.838090488777405475e-03,7.348592281341552734e-01
7.448340013336280773e-04,-3.421941606346016185e-01,3.440990575068444413e-01,-2.879379253021249405e-02,9.025802074682589410e-03,-4.176387932057918848e-03,5.966848134994506836e-01
-3.555732428568456754e-02,-3.509382897661739165e-01,3.346269747918861892e-01,1.235905678523646460e-02,-1.495409262409192266e-02,2.253113413615071003e-02,5.965758562088012695e-01
-2.592763775877453963e-02,-3.269835268823671481e-01,3.205694713468340007e-01,2.062502688537548069e-03,-9.917290563892266694e-03,7.582157375116850735e-03,5.616851449012756348e-01
-8.747330187684721273e-03,-3.182626650180035988e-01,2.985987392594206535e-01,3.296357336757773770e-03,4.624428392563053117e-03,2.920936071850988112e-03,5.343332290649414062e-01
-4.302407895739786964e-02,-3.145386098551833376e-01,2.842610858400818619e-01,5.741880369089335905e-04,1.336581715083083556e-03,4.703271922258007130e-03,5.193949341773986816e-01
-2.512991860416468985e-04,-2.929079861386512662e-01,2.851344396868732978e-01,1.235740565241061524e-02,1.459923316459947129e-03,6.315786446877694887e-03,5.011957287788391113e-01
-8.630776533039034512e-03,-3.102263327070717280e-01,3.107114072944830996e-01,1.353916515471431659e-02,1.140926957746735138e-02,-5.592436577885875545e-05,5.386946797370910645e-01
-3.689643562408495558e-02,-3.043985717934726276e-01,2.936886455133518314e-01,1.690789115645490196e-03,2.026347470024196171e-02,-1.482983548250934452e-03,5.201183557510375977e-01
-4.743461548507182240e-02,-3.639220022147868772e-01,3.242578898155109024e-01,-4.726401757083349003e-04,4.167351507015382150e-02,8.938362094001174943e-03,6.011704802513122559e-01
1.263311036593836936e-02,-2.659633440934471293e-01,2.953799875163116706e-01,8.702412066211235794e-03,-1.289645246732986673e-02,-3.812896070673839691e-03,4.869330823421478271e-01
-4.259565459759279138e-02,-3.119410128079611044e-01,2.771686269543645054e-01,3.327267092278634892e-03,2.408617054463656551e-02,-1.414633383290116522e-02,5.131248831748962402e-01
-7.219067714594027199e-03,-3.053312949924417152e-01,3.007704839627337590e-01,-2.822249055512216550e-03,1.088773566513841218e-02,3.017499676750788097e-03,5.253101587295532227e-01
-4.131278444974954833e-02,-3.200300732170444640e-01,2.933642930611070621e-01,-3.719499618857433423e-03,2.173103112040469798e-02,7.518283327120623728e-03,5.334792733192443848e-01
-1.569116538485880799e-02,-3.119174708315887168e-01,3.104571295825523380e-01,-2.453733962378740977e-03,-5.494603721374752281e-03,-1.060262311838286768e-04,5.393005609512329102e-01
-2.481708880548998478e-02,-3.101459867416464511e-01,3.088655949588239302e-01,-9.407852111069417954e-04,-6.273122925185585161e-03,-5.703075504663667784e-03,5.368279814720153809e-01
-1.724250320916105236e-02,-2.799844084416863721e-01,3.161411530614428034e-01,6.782656569404527623e-03,-1.298642028511398649e-02,-8.272859482887006885e-03,5.182867050170898438e-01
-2.288501540133285050e-02,-3.035980682063055269e-01,3.145393548875605183e-01,-2.557235472406469128e-03,-1.249460573649824845e-02,1.173340819187143396e-03,5.365319848060607910e-01
-2.496253145015914221e-02,-3.190127107487409353e-01,3.146523327381388624e-01,-5.906559943505751203e-04,-1.270468949416317904e-02,-1.307250095051980948e-02,5.501504540443420410e-01
3.095911714692903185e-03,-3.043907646774140496e-01,2.995383859772953739e-01,3.526793848151658136e-03,-8.572593604220484073e-04,-3.520845012991187430e-03,5.231204628944396973e-01
-1.085487253771860554e-02,-3.239512902607338818e-01,2.816902099321565989e-01,-1.301776312485504461e-02,4.783898250186219801e-03,1.338019608241525736e-02,5.256623625755310059e-01
-2.216875167111118788e-02,-2.507423790069478464e-01,3.099264336438630751e-01,6.450156103849036433e-03,-7.821980485651594539e-03,3.775056958147766147e-03,4.886639118194580078e-01
-2.388449061707155485e-02,-2.600994634918896153e-01,3.480537546382693193e-01,1.919673638026015913e-02,-6.773120057798262365e-03,-2.459012722959792382e-02,5.339008569717407227e-01
-6.621286017033614635e-03,-2.288437904384562072e-01,3.018569879762469932e-01,1.009888905216282246e-02,-1.799971325281125509e-02,-1.343855886200189496e-02,4.635862708091735840e-01
-3.737195424051709125e-03,-3.132797560705328777e-01,1.864634613486823855e-01,-3.895242909785604207e-03,2.541417345824161216e-03,-2.568813923888437628e-03,4.369814395904541016e-01
-1.914164274139491112e-02,-3.151432857097309914e-01,2.986325088328752875e-01,-2.055233503477352968e-04,-5.749105975995517058e-03,-1.069018665031311321e-02,5.320725440979003906e-01
-2.956512251175028028e-02,-3.250058638588672055e-01,2.865781299402545557e-01,7.075149469406061958e-03,1.463745473322001622e-03,2.488882988391036971e-03,5.299137234687805176e-01
-1.452794058604343908e-02,-1.804061510656282397e-01,2.935396664655702259e-01,1.132615981849134125e-02,1.160376623112152790e-02,8.449546952605819367e-03,4.177629649639129639e-01
-2.007575459987174724e-02,-3.286865801249599373e-01,2.669383131237451079e-01,1.021694403962009057e-02,-3.160712138025650788e-03,8.113129188015877347e-03,5.164629220962524414e-01
-1.642048630459245345e-02,-3.283778361730523843e-01,3.042933986884731601e-01,2.528086391270951104e-03,6.703708159729968030e-03,1.074208159079493284e-04,5.480673909187316895e-01
2.004736121271522009e-02,-2.997356228562588210e-01,2.856581572149141102e-01,-8.934515762658157625e-03,6.090537576214287256e-03,-3.781883053091925594e-03,5.080764889717102051e-01
1.611809313593074583e-02,-3.027084618897342150e-01,2.888342549787129010e-01,-8.163795904568193953e-04,2.265943074308877491e-03,6.045953022474574029e-04,5.128275752067565918e-01
2.031318635592051572e-02,-3.017911429289391601e-01,2.868177480385644129e-01,1.200498628853995689e-04,-4.832648476554662312e-04,1.335869736902630387e-04,5.105085372924804688e-01
-3.573486062443945177e-02,-3.156951237760138862e-01,3.020429514236488422e-01,2.559841489301208257e-03,6.661177690721979509e-03,-4.228132583079255782e-04,5.359004139900207520e-01
2.453112627267120104e-03,-3.093034125970531845e-01,3.060479308582079172e-01,7.942323738909854575e-03,2.929176596967524374e-03,-1.056445251216609838e-03,5.331303477287292480e-01
2.261309479885758797e-02,-2.948687905686601662e-01,2.837338557906363690e-01,-1.480930108394080697e-03,-4.599368044758198179e-04,-1.458657530932135201e-03,5.018899440765380859e-01
-3.680916861245260574e-02,-3.101858772124491681e-01,2.962370262743940774e-01,-9.366411750201556960e-04,3.489785950668915920e-02,-1.575634294397011692e-02,5.301911830902099609e-01
-1.544976970677100145e-02,-3.217869420811472758e-01,3.004822106638931345e-01,3.087341544266908409e-03,4.396537675368981067e-03,3.152030582382605792e-03,5.390301942825317383e-01
-2.106726284263668592e-02,-3.314166758079324371e-01,3.036162522276823483e-01,1.179134994563920888e-03,1.045566016416464702e-03,9.478850745618423864e-05,5.500081181526184082e-01
-2.111077585721668828e-02,-3.307159706143264488e-01,3.036599507213070814e-01,8.834847597490594817e-04,1.226391808846021697e-03,-4.193515686620425482e-05,5.494442582130432129e-01
-3.850572634065001915e-02,-3.070264100535329832e-01,2.988886358768569895e-01,-1.176212115898112118e-03,9.677533660086402520e-03,4.180824302486317655e-04,5.261381268501281738e-01
-2.950800255620837295e-02,-3.035656030876242584e-01,2.244511095489385988e-01,-4.946414726507758139e-03,-3.331015586289514871e-03,1.398519026450825882e-03,4.575093090534210205e-01
-1.472765477063763678e-02,-3.194607518418109970e-01,3.129539007058445010e-01,2.897747382285863118e-03,-1.472131364194364991e-03,7.347929641067503341e-04,5.478377342224121094e-01
-1.818188293951189527e-02,-3.279139013853171192e-01,3.014939283185494867e-01,3.989252125209538039e-04,2.204000238314412705e-03,6.989947685754948964e-04,5.451210141181945801e-01
3.236014210946842190e-03,-3.110684023694381128e-01,2.927757625385343787e-01,-7.713472007026264199e-04,1.189116701616349915e-03,2.051650510080258328e-03,5.231087803840637207e-01
-2.049012099051625291e-02,-3.292908769960062321e-01,3.034696936648319521e-01,5.246860741475166965e-04,1.778381365833806601e-04,4.603269882551431579e-08,5.480399727821350098e-01
-3.851653671746173291e-02,-3.052158156369928488e-01,2.372690956480364988e-01,-4.149554646277336944e-03,2.112113094704095445e-02,-1.346522474051362571e-03,4.713103473186492920e-01
-2.353982573098745146e-02,-3.287946739220448666e-01,3.002254629691695209e-01,1.491814781301615362e-03,3.463044784276648048e-04,1.417360779382816635e-03,5.448380112648010254e-01
-1.119521853491046992e-02,-3.553154324748981074e-01,1.377569828658999906e-01,5.295223838099729317e-03,-4.746306241536844134e-02,2.591918666860890813e-02,4.480186402797698975e-01
-1.188598135581780957e-04,-3.248148300931779087e-01,9.268716744403543428e-02,6.103024239740650371e-03,-2.605900632897749716e-02,4.359263426722242117e-03,3.825965821743011475e-01
-3.218918354811065030e-02,-5.913523469330119742e-01,3.379612224534497833e-02,-3.816361907242912105e-02,-2.522921266585174613e-02,-3.326839805965637470e-02,6.029206514358520508e-01
-1.006937520800958719e-02,-3.683496831916758807e-01,9.166764413095643271e-02,6.378784383667337674e-03,-5.106220667855312229e-02,3.962512649121961023e-02,4.333822131156921387e-01
-4.076902777842170145e-02,-3.806791806777388154e-01,8.221349773381403381e-02,-3.991709238339628818e-03,-7.045253302648460392e-02,3.373497828809399190e-02,4.368286132812500000e-01
-3.318366432624161866e-03,-3.520633299702805585e-01,4.436070224230104220e-02,-1.008476900225995215e-03,-6.104083753968457537e-02,4.310513877869029398e-03,3.895650506019592285e-01
6.142239468983221040e-03,-3.100076090076142599e-01,3.375619162503439019e-02,1.344875330335953620e-02,-6.125955177856536038e-02,-5.991472317731106473e-03,3.483560085296630859e-01
-1.320858552185259771e-02,-1.537404490920537270e-01,2.998145133576642918e-01,6.849572822683552831e-02,-5.155964213010798269e-02,3.839297733978907362e-02,4.338140487670898438e-01
-5.065579719658624969e-03,-3.716814338593134592e-01,1.031196055108001275e-01,7.065455804323262506e-03,-2.669301800520872125e-02,1.095597719478868214e-03,4.336640834808349609e-01
-1.738127988941977342e-02,-3.187564225757972269e-01,2.931546900258428234e-01,3.819673681789762659e-03,1.769622862996137434e-03,-3.007275075987694769e-04,5.300008058547973633e-01
-2.765418970868749327e-02,-3.543663374192709270e-01,1.004454775269856825e-01,3.309649602622444925e-02,-3.478671021533371460e-02,6.267729361579205127e-02,4.286068975925445557e-01
-2.005499578065539357e-02,-2.051611182388314025e-01,2.938297018817974116e-01,1.619919155526625479e-02,1.247077231840807397e-02,-2.067050670847335112e-03,4.383565783500671387e-01
-1.892588309898954324e-02,-3.233663578165935637e-01,1.835402290976045070e-01,1.118082990660342405e-02,-2.396502111051504458e-02,3.043043033358281682e-04,4.443126022815704346e-01
-3.769557696495523524e-02,-2.522620998823858485e-01,3.093067323018803272e-01,2.282517996841313193e-02,-2.207071249285336850e-03,3.097799728429973670e-02,4.953392446041107178e-01
-2.686089978988103269e-02,-2.633541714347437668e-01,2.973913966833159894e-01,-8.166867249582361252e-03,-6.483548782979667649e-03,2.405273460710455335e-02,4.897079765796661377e-01
-9.935876113293259926e-03,-3.002142030095118486e-01,1.786369278672708116e-01,-9.655672812461463250e-03,1.513013884233334024e-03,-7.280093454826483401e-03,4.183364212512969971e-01
-2.099931626320648143e-02,-1.984727882556827083e-01,1.669991877453065321e-01,6.560885644588680676e-02,-4.149437396434509095e-02,4.882554903692242626e-02,3.541690707206726074e-01
-4.563137853550949807e-02,-3.086467457496049893e-01,2.704727695432616041e-01,3.771894649983340182e-03,9.994635742426344338e-03,-3.072208285909304904e-04,5.025751590728759766e-01
-4.649431693796096665e-02,-3.036648554941528411e-01,2.828527571886163550e-01,6.090123304365330920e-04,2.118366100147241193e-03,-2.243394524658138883e-04,5.092340111732482910e-01
-4.299273815392646442e-02,-2.997682309873503370e-01,2.847172868650656441e-01,2.211692497425285335e-03,9.689171663258409894e-03,-1.564572333125983092e-04,5.077123045921325684e-01
-2.060402410628112135e-02,-3.205678056487313854e-01,3.058695144420837120e-01,1.243658049146950748e-03,-2.148418883502935337e-03,-2.976909044499101800e-04,5.426898002624511719e-01
-2.076015477015940441e-02,-3.221518228216864177e-01,3.026988474069240431e-01,-3.302028628900666716e-04,1.373505411672195156e-03,2.022691529746266457e-03,5.412659049034118652e-01
2.047129034685569657e-02,-2.934720427713689017e-01,2.870149200148932045e-01,1.753974581765028237e-03,-1.749953604103337721e-03,-2.926891117832717149e-03,5.033186078071594238e-01
-1.922383985610063087e-02,-3.204103719771309033e-01,3.167812756593119672e-01,-1.069209041362410894e-03,-3.095865662893378806e-03,-1.433218010360887270e-03,5.521334409713745117e-01
-4.697421972071075258e-02,-3.049463162873090050e-01,2.847480064705547598e-01,7.527825613258080093e-04,2.750229643378035611e-03,1.523425597306013587e-04,5.120437145233154297e-01
-8.098812668658571592e-03,-3.213470965587552630e-01,3.002721872846041973e-01,5.750850309580686015e-04,4.046202932914877773e-03,3.880230628592543497e-04,5.383905768394470215e-01
-2.039528817932119431e-02,-3.248753158327791768e-01,3.010088131121829158e-01,1.763619333407767014e-03,5.622777132434725539e-04,3.799624721233873115e-03,5.421470403671264648e-01
-4.202406513131759502e-02,-1.654730988142666948e-01,2.894104872451169208e-01,-1.552907314971856394e-03,-5.721335841219704274e-03,9.927239631564387622e-04,4.075686335563659668e-01
-1.454033790361291580e-02,-3.227307392272499853e-01,3.041199269766141633e-01,2.636286861593868137e-03,4.636562335958464495e-03,4.411888139832511983e-03,5.430262088775634766e-01
-1.720190192850262409e-02,-3.242944141709570016e-01,3.003860550421039166e-01,1.756853334021976588e-03,-9.110667244989902958e-04,3.506574474829180030e-03,5.410595536231994629e-01
2.944468347848156267e-02,-2.893216442131386068e-01,2.806743016815952396e-01,4.888165613067174155e-03,2.402593570013287453e-04,-2.391131827178611096e-03,4.948745667934417725e-01
1.928006724857388859e-02,-2.921022969113862278e-01,2.823866695533691629e-01,-8.951634063779618719e-03,-1.886654204129023992e-03,-8.440216089356251516e-04,4.983613491058349609e-01
2.974322258692427452e-03,-3.031449287584643826e-01,2.940967909596944874e-01,2.801543798855546472e-03,1.180688673210489792e-03,-4.936769520034599290e-03,5.173783302307128906e-01
2.960964002484389040e-02,-2.551300841698160293e-01,2.804645394056844987e-01,1.780605173586142023e-02,-1.342919632987853466e-03,-2.575041246276125781e-06,4.651772081851959229e-01
2.416158433384738013e-02,-2.881975723856756155e-01,2.843051167553941050e-01,-3.000647469913775810e-03,-1.609220284550518475e-04,-2.062665637996608653e-03,4.965289235115051270e-01
2.399923731728682494e-02,-2.892941744767273393e-01,2.858057836570631616e-01,-3.738452568011194251e-03,-5.339247996455181696e-04,-1.032735448120767176e-03,4.987621605396270752e-01
1.780834037026732958e-02,-2.942303005467679089e-01,2.861846453454732764e-01,-1.568126609764671680e-03,-3.679269076314770244e-03,5.097524796504796342e-04,5.031763911247253418e-01
-2.430775197387017444e-02,-3.134005788328165787e-01,2.907302205805099571e-01,-8.219401444797705489e-04,-1.522433990437057792e-03,-2.696067319076726754e-03,5.233828425407409668e-01
-3.024285769723897635e-02,-3.297079332891443837e-01,3.164779461007814487e-01,-3.551165009234689193e-03,1.268421202330707355e-03,-1.339517684416257530e-03,5.601548552513122559e-01
-1.987809814148679827e-02,-3.271741256099672812e-01,3.167974783403363914e-01,-2.494843053846357121e-03,-1.359128551606630627e-03,-1.981424416942159476e-03,5.579214692115783691e-01
-3.190526870630939343e-02,-3.763896092454869224e-01,3.478384181907372419e-01,-9.325752604029627357e-02,-5.333202358349729139e-02,1.869406392495451263e-02,6.552577614784240723e-01
5.893235704887499204e-03,-3.006673090213450306e-01,2.952951054909559447e-01,2.639060180653769502e-06,3.927572013575905858e-03,-4.945087054618863389e-04,5.162354111671447754e-01
-2.446371148958198516e-02,-3.231159554461178751e-01,3.202564320505092432e-01,-4.582091309654130404e-03,-3.603314989220703438e-03,-7.297689881290938228e-03,5.578873753547668457e-01
-4.901137481509763860e-02,-3.144471012958536815e-01,2.907850359244922855e-01,7.172094764780687949e-03,-2.973111865603263529e-02,1.310606397258210973e-02,5.286144614219665527e-01
-2.113623563568838015e-02,-1.479525678584758530e-01,2.848994208816755247e-01,1.377411933026268138e-02,-1.031750033564404236e-02,-9.871701685451317321e-03,3.869514167308807373e-01
1.419103381009946367e-02,-2.854545645794278608e-01,2.875966328633604574e-01,3.724828371324320590e-03,6.215064141819938784e-03,1.055880008018207877e-04,4.966089427471160889e-01
-2.076336786586869057e-02,-3.302317403877101376e-01,3.032047008111077302e-01,-1.533787325267483735e-03,-3.133361516571975930e-04,6.653501276782661060e-03,5.487476587295532227e-01
-1.861897512315356315e-02,-3.054135307540963296e-01,2.956722329918712311e-01,-6.466447550527831389e-04,-1.164124177102887148e-03,-1.001182667926737470e-02,5.210308432579040527e-01
-8.900549480693749349e-03,-3.300422010927170358e-01,2.324058958642196138e-01,-5.178951818872279836e-07,1.630810265272693294e-02,-3.626311344073772196e-03,4.895831048488616943e-01
-2.648708252629954768e-02,-3.196793135350151083e-01,3.111974689531514238e-01,-6.030586975384387514e-04,8.447131736948259445e-03,-1.143995670348826443e-04,5.470047593116760254e-01
-1.085517600856067411e-03,-3.260415176510814139e-01,1.989862291649479864e-01,-3.650558133270007805e-03,-8.504994049643172915e-04,2.170999782118436527e-02,4.605385363101959229e-01
-1.313178273944296676e-02,-3.611068086392475451e-01,3.671371707788944061e-01,-1.188314842281848992e-02,-5.381855541905947692e-03,-2.999163419119594935e-03,6.313102841377258301e-01
-3.551839181100052700e-03,-1.642316463973711171e-01,3.553933659631846043e-01,7.823994215534250951e-02,-7.260497094227814918e-02,-3.612180109813764584e-02,5.004279613494873047e-01
-1.360156499140511427e-02,-3.285839804992284896e-01,2.692543242797670322e-01,-5.093963135350204965e-03,-4.236492823289255468e-04,1.106890340271449689e-02,5.184225440025329590e-01
-2.208781090367482880e-02,-3.317177557676162514e-01,2.633755412882378688e-01,-4.141525083218734922e-03,5.945173521244510872e-03,1.027167379556315034e-02,5.159670710563659668e-01
-3.096079216272606613e-02,-3.388720243095709739e-01,2.995724374695063474e-01,3.314022315369954952e-02,-2.923111523492991515e-03,-2.867046897510291958e-02,5.582319498062133789e-01
-2.036241601992755043e-02,-3.326369373675210350e-01,2.919189867536459149e-01,-1.451876599969971655e-03,2.513374811537893386e-03,-2.649638063194604664e-03,5.409241318702697754e-01
-1.316751901562520288e-03,-3.033143106175105186e-01,3.042026046045080423e-01,-1.208859809111651655e-03,2.430892682392633321e-03,-3.842669644322940867e-03,5.261911153793334961e-01
6.881837563631754140e-03,-3.268311147674897721e-01,1.440658394101911599e-01,-7.992272194741193575e-03,2.012037658485094777e-02,2.071187859572260620e-02,4.226782917976379395e-01
-1.294283087146708838e-02,-8.152628039631970580e-02,2.424363210670719693e-01,-2.338291149089114646e-02,2.920791087544217027e-02,-3.757606408788678742e-02,3.096327781677246094e-01
9.413189400648060493e-03,-2.803742853184428840e-01,2.881910567216652286e-01,-6.404259998757140396e-04,-6.556655017855997705e-03,-6.431727828094131174e-04,4.925562441349029541e-01
-1.363306657927769450e-02,-2.983006629724070935e-01,3.007389151727845045e-01,-2.199076440141203761e-03,-7.084330204105072915e-03,4.624946636525488139e-03,5.192168354988098145e-01
3.833073850364236701e-03,-8.750115660956711561e-02,2.287101254297587427e-01,3.836738224861847152e-02,-2.828693804825457500e-02,-1.853644039028166240e-02,2.954623997211456299e-01
-1.613776082683093110e-02,-3.212174719043831006e-01,2.642061910230987243e-01,-1.025706112906776520e-03,7.501256904059397206e-03,1.180317618863407090e-03,5.073162317276000977e-01
-1.273168516546235168e-02,-2.621547449308274103e-01,3.256208996611203998e-01,-2.585742883510491752e-02,1.854838594760967532e-02,-3.436689057990726520e-02,5.173668861389160156e-01
9.475407634423730491e-03,-2.944127130036877094e-01,2.987512355386779395e-01,2.780036975461998988e-03,-1.008704304215900975e-03,-2.275790085928196173e-03,5.137876868247985840e-01
1.170085783428045402e-02,-3.011934853455560113e-01,2.879489931670423108e-01,-2.804086032773324324e-03,-1.811640354796216924e-03,-1.998218136570730375e-03,5.105857253074645996e-01
-5.025159987119484639e-03,-3.062264944468125472e-01,1.624938580204726146e-01,-2.089838701427584183e-02,1.157192815903540332e-02,-1.755138189262785836e-02,4.145816266536712646e-01
1.760606046986579881e-02,-3.019735924240875002e-01,2.866439858407893171e-01,-3.921760134444655758e-03,-6.371769180134540314e-04,-2.142702991554701428e-03,5.104436874389648438e-01
-2.481428458833611489e-02,-3.025308070286217288e-01,2.702533197091790407e-01,-7.471131294874342604e-03,1.795725502448166505e-02,-5.408147287039922514e-03,4.973520934581756592e-01
-1.063560062486371138e-02,-3.698872991183868031e-01,1.575321438650089945e-01,-1.838558055631162383e-02,1.109341839196759973e-02,-2.255973315862849424e-02,4.697518646717071533e-01
-7.928895919999671971e-03,-3.232942503325000327e-01,1.944429296985948075e-01,-2.700273112560669115e-03,-8.532085393952939731e-03,-2.315135560927496575e-02,4.539591968059539795e-01
-4.197056441914079339e-04,-3.006810309226399247e-01,1.805527950842845952e-01,-1.653217074739887771e-02,2.913223914723337901e-02,-1.275797363536092417e-02,4.255599379539489746e-01
-1.728396501548333172e-02,-3.123943556515168529e-01,2.994084501498186501e-01,-5.171459155549399528e-03,1.445904781506986538e-03,1.954465728522607106e-03,5.300390720367431641e-01
2.457580282950113867e-03,-3.025938146059640732e-01,2.930343856038176709e-01,-2.813932846060181875e-02,6.391906524368447251e-03,9.495723816229297010e-03,5.185562968254089355e-01
-1.419990035176975883e-02,-3.048790061409619168e-01,2.996588954103919789e-01,4.779474025783894036e-04,1.591171633464805515e-03,-7.195935567916269225e-03,5.238296389579772949e-01
-2.049699507148214361e-03,-3.225820348380781244e-01,2.946019581632017825e-01,-2.828720206625081474e-03,-3.003274765553672759e-03,2.862278770479498996e-03,5.347011089324951172e-01
-2.374156888653312925e-02,-3.084055476883491576e-01,2.516056596813226465e-01,8.705953492795789200e-03,2.304361014815534472e-02,-6.504617561222990688e-03,4.870097041130065918e-01
-6.576060801501783237e-03,-2.082662988822627792e-01,3.020950899607708906e-01,-4.225820927633679169e-02,1.750166413006042825e-03,1.305511881004778156e-02,4.517638385295867920e-01
-2.760235336073918119e-02,-3.101912507075448855e-01,3.036113780821860786e-01,2.686466235229147126e-03,1.751643583555909968e-03,-3.774106198630840237e-03,5.321934819221496582e-01
2.822176323108924190e-03,-3.147061229721335174e-01,3.268115026809345625e-02,-2.268575302441154865e-02,1.765887914745181350e-02,9.685144558953282662e-03,3.375762104988098145e-01
2.559191270154557996e-02,-2.976635343162780667e-01,2.942631313124057790e-01,8.262082640391106916e-03,2.473231665416002461e-03,4.432642392748363438e-04,5.135673880577087402e-01
-1.782253309685772474e-02,-2.066446012785077835e-01,2.834686859091857802e-01,5.544787088997463718e-03,-1.301799132204365175e-02,4.814406502476187419e-04,4.288612008094787598e-01
-1.005281201425257433e-02,-3.295849679081592210e-01,3.041562193324683916e-01,-4.864236020121883407e-03,5.076717182708675134e-03,7.829476009659846417e-04,5.489791631698608398e-01
-4.712613550132521006e-02,-3.059793048414060634e-01,2.700599024694928518e-01,-9.409562629260856696e-05,8.487389961290735946e-03,6.245046021972519264e-04,4.999338686466217041e-01
-4.627761439182202091e-02,-3.069738291293415688e-01,2.810591542125389641e-01,-4.167252912588659784e-03,8.512239449309596043e-03,1.492476833140548046e-03,5.106108784675598145e-01
-3.913466713816044634e-02,-3.055647086061933915e-01,2.823576436602718287e-01,-2.625958819097989373e-03,5.579030486986553093e-03,3.340024638388751506e-04,5.100116729736328125e-01
-4.679201290775808486e-02,-3.049962690935066889e-01,2.702503443664145966e-01,-1.948489846534335766e-03,9.570998817724387167e-03,3.099755228040802324e-04,4.993330240249633789e-01
-2.064887799694050882e-02,-3.203211157400013276e-01,3.155292928550897935e-01,-4.042604555288238991e-03,-2.679349504553247413e-03,2.657568647786668833e-04,5.510292649269104004e-01
2.470564610500357999e-02,-2.824872895912570736e-01,2.829851204058511649e-01,2.746280029708449925e-03,7.061050979189546859e-04,1.992312267944419246e-03,4.903605282306671143e-01
7.863772973422562818e-03,-2.105561202351463879e-01,2.783466890946383332e-01,6.201713468217126719e-03,-3.415848145418229516e-03,-1.380060219825461067e-04,4.243790209293365479e-01
-1.356034560686910501e-02,-3.161735795319238762e-01,3.588832718385361886e-01,8.010311037989240046e-02,-5.148894174231484488e-02,-1.862291695002200181e-02,6.092935800552368164e-01
-1.885055658591177838e-02,-3.101561182861443111e-01,2.756969331645588439e-01,-1.110979432774692388e-03,-3.704333273726733745e-03,-5.849323317884954493e-03,5.075115561485290527e-01
1.920086374077198746e-02,-2.890888489862343258e-01,2.856565683590044369e-01,5.712496086126058609e-03,-4.729101939166747287e-03,-3.577269158912666554e-03,4.983875155448913574e-01
2.458787091844231304e-02,-2.999428120044222990e-01,2.840350941083248371e-01,8.277422604192442163e-03,2.827546438726736807e-04,-4.009509179962294709e-03,5.070360898971557617e-01
2.386670146894644476e-02,-2.839361885261095786e-01,2.820567303507135470e-01,1.279681817014179362e-03,-1.643800847824112947e-03,-2.388344769893649844e-03,4.908222556114196777e-01
1.217566512200706635e-02,-2.927158181869782827e-01,2.923722676189302594e-01,5.950179505972983448e-04,-4.723625763964831026e-03,-1.426024040585821074e-03,5.069246888160705566e-01
2.076045127147627817e-02,-2.778264476724440213e-01,2.868090876135346856e-01,7.839403601074943287e-03,-5.875372058330125685e-03,-2.570448585273216093e-04,4.895536601543426514e-01
-1.923993817265175210e-02,-3.192576834606493108e-01,2.999050155791673222e-01,1.526819765069995860e-03,-4.887176996459800978e-04,-2.908222145931828491e-03,5.363267660140991211e-01
-2.573851565186083962e-02,-3.216925806353475026e-01,3.036172874719283432e-01,-7.544530853757771757e-04,-3.111377273123711821e-03,9.619468458835616362e-04,5.418226122856140137e-01
-3.003320670315055840e-02,-1.079011967081038303e-01,2.765537932291559642e-01,4.511698960937378031e-03,-3.257550072245700423e-03,1.904925031135840238e-03,3.521876037120819092e-01
-2.052126011315385384e-02,-3.191091034037376595e-01,2.991313498127958215e-01,1.812878478111722494e-03,-1.441668620259324487e-03,-2.680763101397263051e-03,5.355506539344787598e-01
-4.380657248866061046e-03,-3.083933898972451848e-01,3.011995325758528574e-01,1.957871273877627525e-03,-4.393202563658872746e-03,-3.458563824180705456e-03,5.280232429504394531e-01
-1.732029999282463581e-02,-3.280695537832325481e-01,3.137044447465229813e-01,-5.098789716737291318e-03,-1.579487166606582602e-02,-1.372673263043014272e-03,5.566329360008239746e-01
-3.417726652150694655e-02,-3.566565336565284405e-01,2.107561351461127441e-01,1.197224879389318236e-01,-8.549196915653640982e-02,7.846289874612789872e-02,5.712858438491821289e-01
-2.118181744666820798e-02,-3.207685394298374071e-01,3.040913509267275106e-01,6.929453001774314551e-04,-1.259513275425606016e-03,5.485885222755300340e-04,5.413034558296203613e-01
-2.479655855021356547e-05,-3.653034412528453068e-01,3.061948288083060077e-01,2.517127928663534867e-02,-8.952908394411637771e-02,-1.293025914582544150e-02,6.045686006546020508e-01
-3.095556784004933198e-02,-3.723063106533875954e-01,3.550439613567428765e-01,-8.371786649128593050e-02,-5.845659076974449309e-02,1.208091029667273698e-02,6.549752950668334961e-01
6.392457434775407343e-03,-3.053272775565092356e-01,1.584616172786561528e-01,6.274208686026668501e-03,5.378286052448399274e-03,-1.780450656882148763e-02,4.109173417091369629e-01
-9.322590916686752938e-03,-3.066756821995994531e-01,1.821586209705678694e-01,8.691473209140830863e-04,2.248543826923752112e-02,1.169514506877242406e-03,4.284210503101348877e-01
-2.843828312838227179e-03,-3.118376200571218448e-01,1.431156348584923799e-01,1.809895441173373391e-03,1.223465487551385735e-03,-2.126845544505025307e-03,4.023801386356353760e-01
5.566388329513602407e-03,-3.127946246328896507e-01,1.215730252737373118e-01,5.867087450909187589e-03,2.936415519041121053e-02,1.743438400063480973e-03,3.929916322231292725e-01
-6.758792097663723908e-03,-3.142788686138268672e-01,1.481900039819654125e-01,1.109988450248230096e-03,4.783107361696314376e-03,-3.652929603354636290e-03,4.078479409217834473e-01
2.796152420465977673e-03,-3.158784092530897425e-01,1.121960537288549942e-01,4.470324018393286372e-03,2.474915685316579628e-02,-2.704011440059674986e-03,3.876909017562866211e-01
-1.598951526773395582e-02,-3.610313141881181798e-01,3.154035939395765098e-01,7.842504155635796059e-03,2.641433592498671282e-02,-3.445094446697291677e-03,5.878205299377441406e-01
-3.455480285171227267e-02,-3.057980514577470221e-01,2.149322880684336190e-01,-3.625466733525561838e-03,-2.263770528452480144e-03,-7.100948170773017411e-03,4.513252377510070801e-01
-2.271513073589714882e-02,-3.037806028691652505e-01,2.138339311825882549e-01,-8.935811252308073840e-03,-1.866300922536672652e-02,-9.652730466267534989e-03,4.505585730075836182e-01
-1.682295495424544762e-02,-3.203972316584874358e-01,3.137404612030556539e-01,1.718369483252247436e-03,-2.241309706620818909e-04,3.521875757666329682e-03,5.493872165679931641e-01
-7.264074510606479546e-03,-3.089778096393242524e-01,2.331448549691738092e-01,-3.449448068439791432e-02,-8.266238149677862523e-02,3.926490267578788829e-02,5.000563263893127441e-01
-3.987257311446058133e-02,-3.047766752917802635e-01,2.276131412767398721e-01,-4.153613144926678741e-03,-1.158840318783085563e-02,-6.284511938809942549e-03,4.616860151290893555e-01
-3.980728884823212660e-02,-3.081615837582505901e-01,2.456249774630757110e-01,-5.642062239754955244e-03,-9.893413421974009761e-03,-2.157399551484564994e-03,4.800892472267150879e-01
1.881351861075667656e-03,-2.981536139152017872e-01,2.915098578022501941e-01,-1.741409717194037851e-03,7.312360946168200600e-03,1.756366356873424132e-03,5.108650326728820801e-01
-3.449216257582149447e-02,-3.075616810458752792e-01,2.539313653722446995e-01,-2.929348841060633920e-03,-2.672565310227321272e-02,1.322309685609147391e-03,4.885576069355010986e-01
-2.678626585484155526e-02,-3.187528083904042631e-01,2.192848768565110462e-01,-9.829680965234585330e-03,-1.488880640001500125e-02,-1.327975314301013156e-02,4.681067764759063721e-01
-1.856540475957463299e-02,-3.203229006233240250e-01,3.059114650229380339e-01,1.024033810609455359e-03,-1.237262798825800036e-03,1.443749857451985042e-04,5.424610376358032227e-01
-1.986841320963534524e-02,-3.205552539680968094e-01,3.038223551468084982e-01,2.268866099121310577e-03,3.704537648775042412e-04,-1.269480042405002817e-03,5.408683419227600098e-01
-1.861425114559004529e-02,-3.206720771458887453e-01,3.061844288426007199e-01,1.057860128668102308e-03,-1.245322223395959162e-03,1.559316526553487054e-04,5.430001616477966309e-01
2.800609766782298157e-03,-3.095574259642918657e-01,3.038209942499300875e-01,-3.516925902576893605e-03,-1.821595587378454324e-03,3.247343840383968335e-03,5.313056111335754395e-01
-1.978445269861345626e-02,-3.216025211039031384e-01,3.056426280176687271e-01,1.597493255209052852e-03,-2.013779264740393066e-03,3.576229267117360345e-04,5.433570742607116699e-01
2.389696977874982906e-02,-2.822431883857797752e-01,2.800559200537326432e-01,9.840188422911876672e-04,-6.645779321408241264e-04,-1.618689668701371381e-04,4.876105487346649170e-01
1.943846337742314440e-02,-2.977231305920392535e-01,2.903528054717182671e-01,-5.494243333023791486e-04,-4.261847653349940153e-03,-5.063792189424288874e-03,5.099431276321411133e-01
1.606942437201588220e-02,-2.665643594962390783e-01,2.876901726922763136e-01,2.020184409189131405e-02,3.607675152773113462e-03,2.946618100813500583e-03,4.813712835311889648e-01
-1.993471611372206118e-02,-3.673348311940041744e-01,2.561165839779048214e-01,4.905353543162952216e-04,7.485552934570009753e-02,4.319313626401503209e-02,5.614259839057922363e-01
2.407608720694076609e-02,-2.794216461676969909e-01,2.857505479961565675e-01,-7.837019056396039504e-03,1.003418165835900195e-03,-1.567635268475553153e-03,4.900986254215240479e-01
7.786509482495939521e-03,-3.038607807043801623e-01,2.888835823528945745e-01,1.276526299388050859e-03,9.919926230288211595e-04,-6.281097503540520720e-04,5.135676860809326172e-01
7.773007633838790661e-03,-3.187687023545558440e-01,3.147341288631992362e-01,2.069487180308273236e-02,-1.849124918383874758e-03,-5.773460868953628027e-03,5.499866604804992676e-01
-3.803380299400926923e-02,-3.094262778463494623e-01,2.688062817394096804e-01,-5.003367739835988363e-03,-3.256900236735857119e-03,-3.372608936873273001e-03,5.012183785438537598e-01
5.703497216617697818e-04,-2.180495421775492659e-01,2.908043720187448167e-01,1.800176567712788792e-02,1.199876653650282579e-02,1.193364139399552895e-02,4.441989660263061523e-01
-1.284954881974962465e-02,-3.549032085510869239e-01,1.847744859229794034e-01,-5.477716546258505105e-03,5.337115899675304309e-02,4.537586642936227571e-02,4.883301556110382080e-01
1.866021103809534926e-02,-2.990688039295005818e-01,2.960911282056576943e-01,7.553622933123329761e-03,1.453772219936044514e-03,1.298776179466714243e-03,5.159942507743835449e-01
-1.081165529071612293e-02,-2.929103711501694907e-01,2.987149327138197696e-01,-1.001874602893859656e-03,1.150680075802729303e-02,-2.234420424821082374e-03,5.129509568214416504e-01
-1.496095947609031238e-02,-3.278552707673038635e-01,2.346146049712716786e-01,-2.670259914034396696e-03,8.704837492000827223e-03,-4.446997601769321282e-03,4.884563684463500977e-01
-2.007750449445550728e-02,-3.115998205536525401e-01,2.413322333420487298e-01,2.451549814512376732e-03,3.048169309802051946e-02,2.028384871629101190e-03,4.820216298103332520e-01
2.346159205038289564e-02,-2.887007733517782948e-01,2.799617536732219025e-01,3.438870996940422264e-03,1.076686131896132563e-03,-1.448998452744436295e-03,4.933078289031982422e-01
-2.745932718598374789e-02,-3.372098949461545536e-01,1.992345614440082513e-01,-3.266430040186854566e-03,6.015381539428632518e-02,3.889255052530547763e-02,4.826794266700744629e-01
-2.348732747501887375e-02,-3.119879549800603780e-01,2.468447461390203546e-01,-1.565026486871095440e-02,1.366611042450079604e-02,9.370133443919109045e-03,4.856557250022888184e-01
-2.859971378654497381e-02,-3.332409411849220904e-01,2.504479065709573349e-01,-7.672222965298217470e-03,4.704642978815942039e-02,1.852009402924224141e-02,5.133506655693054199e-01
-2.402361369808013458e-02,-3.395292034191028652e-01,1.653975197758209559e-01,-1.206196083911642569e-02,3.890625105154375818e-02,3.550180409291004563e-02,4.516040980815887451e-01
-8.555221824575968276e-04,-3.088053487989808055e-01,2.987785345221354860e-01,2.514304561502640149e-03,-1.376499038693056350e-03,-1.612205081666067156e-03,5.262303352355957031e-01
-6.695584652841410356e-03,-1.743549044156188499e-01,2.771592294168302995e-01,7.540862582475725377e-03,5.237765379861427165e-03,-4.204783335450379791e-05,3.956349492073059082e-01
1.207325063289697506e-02,-3.003620418644516454e-01,2.884854529533501521e-01,2.880462459508805004e-03,1.603828048346745078e-03,-1.766703311383305752e-03,5.103160142898559570e-01
-7.330100853352062608e-03,-3.064224008257345755e-01,2.960981882725516323e-01,8.019284891689650724e-03,1.255360055182085099e-03,1.573964488730632749e-03,5.219991207122802734e-01
1.163276608141664004e-02,-1.859637543570303864e-01,2.790473930013236403e-01,2.714937650672951536e-02,6.372054721840454856e-03,1.124098696622608494e-02,4.075626730918884277e-01
-3.013491452178178320e-02,-3.155129011234097947e-01,2.961120939942014085e-01,-2.621038912324230065e-03,7.938082841756448349e-04,-3.766893466781169706e-04,5.300984382629394531e-01
-3.156582567072539064e-02,-3.442454081862179605e-01,1.719602487947752001e-01,9.944539793073407796e-02,-9.674691541711415155e-02,6.844183197498739102e-02,5.240522623062133789e-01
9.549567917880618859e-03,-3.088921894869978702e-01,2.993263439537156567e-01,7.005976689641881493e-03,1.541006071483376006e-03,1.199854523179384128e-03,5.270782113075256348e-01
2.592511409110918354e-03,-3.063414668590196954e-01,2.989793037491877969e-01,2.369007823405440416e-02,-1.104858155579963204e-02,-2.023575369072550846e-03,5.262237787246704102e-01
6.801538119697534204e-03,-2.975348575688777641e-01,3.123773973205216103e-01,1.892788247866637394e-02,4.327818689802771963e-03,6.694101689156908667e-03,5.293963551521301270e-01
-1.310182932225079696e-03,-3.082441304487379963e-01,2.975718118279278013e-01,5.121546822419613572e-03,-3.706380313481312094e-03,6.862336607108611994e-04,5.247830152511596680e-01
-3.591353895803965114e-03,-3.060753578124914553e-01,2.971923614363556343e-01,1.488583480635612306e-02,-7.027416570097193282e-03,1.987329007004453332e-05,5.232232809066772461e-01
3.776757357131600712e-03,-3.056317656263824456e-01,2.964990444807896197e-01,-2.420256688590014839e-04,2.814577080695134566e-03,1.020277760423939735e-03,5.215532779693603516e-01
-2.056055321227650418e-02,-3.199674353751780220e-01,3.127214588424537811e-01,-1.787419709902003011e-03,-8.722237089469174346e-04,-2.900187320394250227e-04,5.481974482536315918e-01
-2.704611384580050959e-02,-3.142224757328748730e-01,3.125628341750351091e-01,-1.645650742401969565e-03,-7.587340548035509911e-03,2.407009302614831949e-03,5.436270236968994141e-01
-2.032714293315432408e-02,-3.227708688165810136e-01,3.031127105991213710e-01,-1.011775185760336281e-03,1.108317177661774988e-03,1.354351401251953054e-03,5.421440601348876953e-01
-1.994401140385880511e-02,-3.167981620026574241e-01,3.139871436625923384e-01,-2.647641117368686441e-03,-7.173108655188110451e-03,-7.280830678115126188e-04,5.467524528503417969e-01
-2.392309158888798401e-02,-3.191974944369000422e-01,3.151470136464185612e-01,-9.645217339193290409e-04,-4.007769394155152529e-03,-2.836988588117524222e-03,5.498630404472351074e-01
-2.247092723948437495e-02,-3.165426604894690521e-01,3.192775744873838639e-01,-4.653710269556212342e-04,-5.744370271286628089e-03,-3.838986747290500275e-03,5.512827634811401367e-01
-1.131025117065429658e-02,-1.281225435783339139e-01,2.899856710756105738e-01,3.345737646198521792e-02,5.856849228971091996e-03,-8.981304968686848467e-03,3.785795867443084717e-01
9.495934286164603444e-04,-2.175659556770069836e-01,3.533710359033596649e-01,6.324145279388464214e-02,3.050869323470764387e-03,2.318095194376294192e-03,5.108835101127624512e-01
-1.941238833346068532e-02,-3.138474740278346942e-01,3.153489424791381390e-01,1.923935815984048386e-04,-5.003612693606771140e-03,-1.713945551639033203e-03,5.453500747680664062e-01
-1.253089209271176889e-02,-3.346250785927307181e-01,3.158390605069000268e-01,-2.242993269348090776e-02,-1.436910775729578456e-03,-1.585512605635967104e-02,5.653381347656250000e-01
-5.215296431936277018e-03,-3.188992694874478451e-01,3.030391900355341450e-01,-4.685894331926464089e-03,-3.317742844280538103e-03,-9.905482420065410583e-04,5.387158989906311035e-01
-4.027854681678876003e-02,-3.116665008703856654e-01,2.797343976071731686e-01,3.602073780205691193e-03,-4.461792627358730410e-04,1.656729796281789218e-03,5.127915143966674805e-01
-3.079354454166682159e-02,-3.205854105232087137e-01,2.911804762527955837e-01,1.908358394368923992e-03,1.250140174062414392e-04,2.929276164718243140e-03,5.300837159156799316e-01
-3.598100622382927050e-02,-3.181344969319664373e-01,2.797303943250988856e-01,6.002363469246853322e-03,-3.781126418096822459e-03,4.913902559935034910e-04,5.181843638420104980e-01
-2.709946692532905904e-02,-3.227568101197928474e-01,2.604383112471904682e-01,-1.079842822503204909e-02,1.344388278038622514e-02,1.131729341182275556e-02,5.063399672508239746e-01
-2.739385477978839231e-02,-3.181428577196167562e-01,3.040756717915242824e-01,-9.772421636200196576e-03,2.900170603246590359e-03,3.120805426674997350e-03,5.395576357841491699e-01
-3.581295537286999925e-02,-3.115963434956575684e-01,1.270144971621436358e-01,-4.830814021924503127e-02,3.206096787046742308e-02,6.730792832751142374e-02,4.137030243873596191e-01
-3.867332727523214997e-02,-3.133789360856612527e-01,2.796125380894405876e-01,-4.650835122139500635e-03,-2.423275395786334604e-03,-4.406613959312476875e-03,5.141446590423583984e-01
-2.152454292891894244e-02,-3.185820233442637206e-01,2.766150150499012694e-01,-9.038417680015283645e-03,-1.545451258647314056e-03,4.927026091950612854e-04,5.157013535499572754e-01
-2.239317464373730138e-02,-3.213659870620846348e-01,2.420368725698968659e-01,-6.911885246040289262e-03,1.672239583672727528e-02,1.628058685647491149e-02,4.900436699390411377e-01
-7.405253919514887505e-03,-2.974564795494331060e-01,2.993742010776724305e-01,1.466709296439105753e-03,9.012204832812925615e-03,-2.075370595552516149e-03,5.171925425529479980e-01
2.807104117429203016e-03,-3.014541612596657316e-01,2.945721278991452197e-01,-1.171201757398482009e-03,2.621639596039929913e-03,-1.196996982744763039e-03,5.162398219108581543e-01
-7.910021085413276865e-03,-3.072102534035595633e-01,2.980399081311791987e-01,-3.962391147260696262e-04,2.620128507625965782e-03,1.846216234768448304e-03,5.242024064064025879e-01
-4.574700075848589509e-02,-3.087623867242412223e-01,2.893893836226767990e-01,4.673149991538513761e-04,-8.617383934825794192e-03,6.876578517356409827e-03,5.196198821067810059e-01
-3.163291118628010906e-02,-3.164446399900390228e-01,2.946724073882255879e-01,1.548338010474759312e-03,-2.246122039600038662e-03,5.010820054819354816e-03,5.297415852546691895e-01
2.338437734171455468e-03,-2.919621257076708831e-01,2.915028225673692019e-01,1.440680512973377576e-02,-2.113484997073043596e-03,8.357532377003609736e-04,5.059330463409423828e-01
-6.382038105783519565e-03,-3.147223328556129074e-01,3.003743436083600171e-01,-2.232051511555754441e-04,4.103874069444820964e-03,9.424696009793999581e-04,5.327399969100952148e-01
-5.773653444415621609e-03,-3.088296000651283291e-01,2.979476057640481623e-01,1.667457135218294037e-03,3.212103176444234230e-03,-1.934228309582563870e-03,5.255326628684997559e-01
-3.579244426180466093e-02,-3.165030861130820883e-01,2.660295210532144794e-01,1.747286109998835149e-03,1.328605349725413623e-02,1.359127985431340382e-03,5.051374435424804688e-01
-1.746589796544767773e-02,-3.297992757066834923e-01,3.014242744742733349e-01,3.029428817044204671e-04,1.423110385179047295e-03,-2.334405447553443912e-04,5.466713905334472656e-01
-2.494265361507591247e-02,-3.288400768535914565e-01,2.994287914099174053e-01,2.120198952446358549e-03,-6.702016728324564597e-04,1.792796327553692866e-03,5.442155599594116211e-01
-1.809923206145035157e-02,-3.186517878343654853e-01,2.938691207213823264e-01,-2.992305685323138741e-03,2.518593077017988735e-03,1.768356893981821521e-03,5.305414795875549316e-01
-9.213268491983224277e-04,-3.025800654385383814e-01,2.959335137693681061e-01,-4.004518042750211670e-03,-1.100670929492450663e-03,-7.158265512546770244e-04,5.183849334716796875e-01
-2.071039379113220891e-02,-3.304292669434275576e-01,3.023216199165150719e-01,-2.727667470763785469e-05,2.475236771198982295e-03,9.683212823390163033e-05,5.480355620384216309e-01
-2.412517032759559782e-02,-3.197517397901079583e-01,2.920173865597415763e-01,6.803548600733269093e-03,3.801996797910223765e-03,5.020877280411793590e-03,5.301501750946044922e-01
9.330168054635374145e-03,-2.961064950747896440e-01,2.924639745961257753e-01,2.651287070237025832e-03,1.702027362199764809e-03,3.631455069859192662e-03,5.099069476127624512e-01
-2.430040324016394249e-02,-3.205718720644180064e-01,2.876455072208455865e-01,6.848104105647310168e-03,-1.472370503619439093e-03,3.114833299484337948e-03,5.269573330879211426e-01
7.807753909587922952e-05,-3.062008085350466646e-01,2.915999700459191990e-01,2.132859138412410410e-03,-3.011685399858913832e-04,-2.835454527002573364e-04,5.177769064903259277e-01
-2.304255044079535353e-02,-3.252488244489394331e-01,2.981694082713500227e-01,3.808366446412975257e-03,1.776065387876300371e-03,3.989815296934788244e-04,5.400291681289672852e-01
-2.350606247251731812e-02,-3.240955217556656387e-01,3.004426226454583460e-01,1.462094590136587104e-03,-1.130434975344376267e-03,-5.232791190164930335e-04,5.410022139549255371e-01
-3.095032661781809552e-02,-3.205328934966331644e-01,2.914147977337914752e-01,3.887006372190023734e-03,8.839478711058312659e-05,9.115224939785114208e-04,5.302608013153076172e-01
-1.339016610886007916e-02,-3.162977611304544356e-01,3.013182831012006790e-01,5.227381090639606842e-04,6.177189484059833480e-03,9.994759515566165910e-04,5.350142717361450195e-01
-1.382927515446544936e-02,-3.187833532157142713e-01,3.028647866513704545e-01,5.090638518388234659e-04,4.909000519448725088e-04,-7.135701423608223088e-04,5.383979082107543945e-01
-1.874258732345012585e-02,-3.213382711394037750e-01,3.050621599633308034e-01,-1.198426200730627264e-03,1.605772392885130781e-03,2.328868476186380851e-04,5.425935983657836914e-01
-1.976014931990023593e-02,-3.197077997308822028e-01,3.006479623219794339e-01,-2.462036194849851877e-03,1.129989374242669270e-03,-8.308466739459367031e-04,5.373636484146118164e-01
-1.464824247440668116e-02,-3.188238444746544498e-01,3.037680091774860314e-01,-9.530808209957494412e-05,1.083288827565135736e-03,-1.638371912042452369e-04,5.392307639122009277e-01
-1.740094212690698056e-02,-3.178693685362724564e-01,3.037404820567753405e-01,-1.304797835113053644e-04,1.052236357804029040e-03,-9.971075406247980819e-04,5.384350419044494629e-01
-2.896628556526824327e-02,-3.160633326463065940e-01,3.009927072528153502e-01,6.562215524552258983e-04,-5.887099545087411644e-03,-2.703598082630811030e-04,5.349143743515014648e-01
-9.686841308368701955e-03,-3.154934588333515033e-01,3.038557553401047273e-01,-2.256902321360008783e-03,4.670046188529418385e-03,-1.105535170427182287e-03,5.364647507667541504e-01
-1.776125215938664098e-02,-3.211549094551403027e-01,3.052979343170650894e-01,-7.616237090654454740e-04,1.100711864764225383e-03,2.139080734491698410e-05,5.426181554794311523e-01
-1.981389028874657593e-02,-3.201368636936405832e-01,3.035410742467927747e-01,-8.294595202325550070e-04,-3.206941954291510008e-04,-1.764523933730965043e-04,5.402459502220153809e-01
-2.438763684998763309e-02,-2.438582778251521810e-01,3.039644335413661524e-01,1.105741344029733363e-02,7.411580551307171000e-03,-7.641299275056854569e-05,4.780980050563812256e-01
-1.771171254611644472e-02,-3.191680123632362198e-01,3.059459491062419545e-01,-1.026692333521636363e-03,1.009373715019592404e-03,-1.031159714043381739e-03,5.414870381355285645e-01
-2.556609153055881128e-02,-2.328840068756834747e-01,3.028844303446939779e-01,-9.723971113824298167e-04,-1.260836251267470447e-02,1.626478631255883281e-02,4.692840576171875000e-01
-2.880156578263549927e-02,-1.290182319164159541e-01,2.813773877283165525e-01,4.911098762733295819e-03,5.651595832226636055e-04,-1.795364284405699326e-03,3.707053363323211670e-01
-1.785689334280771493e-02,-3.213826414214894234e-01,3.050204288721107826e-01,-1.566680372482747666e-09,-1.287626299582260577e-04,2.852122136811764376e-05,5.425673127174377441e-01
-6.145080649840880573e-03,-2.944061080910771455e-01,2.982811418066897424e-01,6.776547363962688066e-04,8.688999096165024930e-03,-1.458425746018811569e-03,5.135739445686340332e-01
-3.095040799035372880e-02,-3.114007019011672539e-01,2.588168594794172384e-01,8.919065529834529008e-03,-7.542723536575626254e-03,7.710325831745070899e-03,4.944395124912261963e-01
-4.163533299183980185e-02,-3.125387199223629842e-01,2.774101726737812079e-01,4.096762730741763427e-03,-2.865698386991580651e-02,1.668493114152491989e-03,5.139372944831848145e-01
-4.467709049280137179e-02,-3.203671984357028824e-01,3.017417374675163133e-01,-3.389410441711419864e-03,-9.805081568091003272e-03,-2.112848999689123869e-04,5.402206182479858398e-01
-4.087022852655373961e-02,-3.061043441584678226e-01,2.583585985715977640e-01,3.423747330518320600e-03,-1.244042542343076936e-02,3.609325792699740517e-03,4.896848499774932861e-01
-4.237122946194282064e-02,-3.098837755814846662e-01,2.913610631350518343e-01,3.650696301375162822e-03,-2.377679431652705497e-02,5.935455652850662490e-03,5.235068798065185547e-01
-4.819675053528027497e-02,-3.064982561550381179e-01,2.747152891817375986e-01,2.179153576164431783e-03,-1.930049889755685449e-03,2.357708152233564756e-03,5.044230818748474121e-01
-7.385079600238167452e-03,-3.034410203177968501e-01,1.514083660644980622e-01,2.025164800551178604e-03,4.493970370715269155e-03,7.893556876951348267e-04,3.999387323856353760e-01
-4.759748982067735917e-02,-3.072527271133419502e-01,2.726435459794554483e-01,2.424388112614350114e-03,-1.494759603816994686e-02,3.321835652487166706e-03,5.038337707519531250e-01
-8.605065004993087824e-03,-3.209634612031745382e-01,2.552351964493158598e-01,-3.019435998346113245e-03,2.546393181806497902e-03,4.237424870827483092e-03,4.996927380561828613e-01
-2.584655623295167848e-02,-3.079023965223289250e-01,2.930248520167804127e-01,1.228951041476127482e-03,-3.857792343232560074e-03,-9.907754656693079642e-04,5.207937359809875488e-01
-1.373397156010307263e-02,-3.101125766874168188e-01,2.949775632421218763e-01,9.609267938697170020e-04,-1.319000447462919876e-03,-8.406932887402283373e-04,5.240693688392639160e-01
-3.903259130439293290e-02,-3.150084941942094541e-01,2.747705195886626095e-01,5.612531020110376502e-03,-5.123352036993609852e-03,4.801147340770047130e-03,5.113507509231567383e-01
-3.816145797079176227e-02,-3.141824982928252408e-01,2.782306121073287453e-01,4.269603908900228804e-03,-6.445769589871573092e-03,7.617079685022097764e-03,5.137857794761657715e-01
-3.390979286958913097e-02,-3.075676196068536372e-01,2.776214400237563829e-01,-2.028511326269126123e-04,-2.546744038470666414e-03,1.293271520514047146e-04,5.071616172790527344e-01
-4.580819046938683359e-02,-3.103912577540868800e-01,2.798951967928943185e-01,9.932174553836793478e-04,-7.905369963911444350e-03,5.453653353137689376e-03,5.123887062072753906e-01
-1.584278965670333356e-02,-3.151619279611328484e-01,2.989582163753934929e-01,-1.213203090042516783e-03,1.491157680489296755e-03,-6.820964115445658782e-04,5.319117307662963867e-01
2.194741387169461821e-02,-2.745045639360128020e-01,2.828448640730436003e-01,6.206415359387661840e-03,-4.090496388798651149e-03,-1.911021614185349875e-03,4.831889271736145020e-01
2.643246265889007476e-02,-2.810126303752986110e-01,2.835202433439694136e-01,8.995262396542214392e-03,1.768005213792628576e-03,1.238122000712765271e-03,4.898098707199096680e-01
2.668016018179251297e-02,-2.820075534162847508e-01,2.801449953915881030e-01,2.549229403024792003e-03,5.117493361047482361e-04,-1.018935579041913486e-03,4.876447618007659912e-01
-3.984648285316559624e-02,-3.090523845783686996e-01,2.769330218861540960e-01,-1.293369178523233898e-03,2.666721023011537381e-04,1.227578970802041839e-03,5.080450177192687988e-01
2.671375865141991518e-02,-2.681158060293141188e-01,2.783542029905539117e-01,9.305761912352425447e-03,-1.502518169151984516e-03,-5.009849727828015903e-05,4.740305840969085693e-01
-8.391654067479926288e-03,-3.185003924861781188e-01,2.212861853441956961e-01,-5.396162252820213036e-03,1.787169662689932700e-02,1.009799287553422506e-02,4.706335067749023438e-01
-4.676664190787598041e-02,-3.065888559929463852e-01,2.792237579171998330e-01,2.306782369247119269e-03,-4.740007927352943642e-03,3.849601955438551864e-03,5.085319280624389648e-01
5.870981806381037407e-03,-3.066973147797988908e-01,2.909669395445487750e-01,-1.150323634873245526e-03,7.806799444584229791e-04,1.280709297404275136e-03,5.177850127220153809e-01
-2.481882946454822339e-02,-3.262527119231385386e-01,2.774237654415445120e-01,-5.976442263302977724e-03,-1.048030463476888434e-02,-3.495074732943599660e-02,5.267071723937988281e-01
-3.302098800163021791e-02,-3.108502853737455385e-01,2.885423023012075316e-01,-2.029826029636675692e-03,-1.688347261355074066e-03,-1.978546895237560162e-03,5.195810198783874512e-01
-1.905195259467401536e-02,-3.216316024652368655e-01,2.408362949613848114e-01,-1.073473410557638542e-02,1.075480141424604331e-02,1.537120155793884370e-02,4.890140593051910400e-01
-4.883035207807141093e-02,-3.730299657544949299e-01,2.670330459307607707e-01,-3.245211378567620236e-02,2.059194848072515988e-02,2.264070876908318066e-03,5.583231449127197266e-01
-1.068027468805530372e-02,-3.324597000466051888e-01,1.983189338850853412e-01,-1.033284670496525601e-02,3.798537128464138379e-02,2.966697657331003948e-02,4.709179103374481201e-01
-6.018321416401097718e-03,-3.182459617808258701e-01,3.005380957258131369e-01,-1.795116816797873941e-03,4.476877520159717148e-03,1.018986544170342811e-04,5.359553694725036621e-01
-2.893425968504777929e-02,-2.632210933350676574e-01,1.505657881474397330e-01,1.128380381140859680e-02,1.671624948065370334e-02,-3.139079623843133576e-02,3.651595711708068848e-01
-5.659079093332632440e-04,-3.122349020961944221e-01,2.975303457468473911e-01,7.921064593152612760e-04,1.953980291419140248e-03,2.576174768316754054e-03,5.281472802162170410e-01
-1.291088892226616852e-02,-3.156500923596914920e-01,3.125803968237474972e-01,5.093610011691450910e-03,-2.707863572491516022e-03,1.360659309896920799e-03,5.442792773246765137e-01
-1.335972067100063554e-02,-1.380952101617871908e-01,3.469604310692938065e-01,-4.047687070484494443e-02,4.006199133162333809e-03,-4.874428671909927790e-02,4.499172866344451904e-01
-9.235239054172256212e-03,-3.364703607639151772e-01,1.990817255652023166e-01,-1.139854274556014423e-02,3.548257988551460629e-02,2.794324528256222906e-02,4.745067954063415527e-01
7.458565116069543199e-03,-3.041174581857407078e-01,7.481012953237398122e-02,-3.062843880058934570e-02,7.438827978383515116e-02,-3.179621507072224584e-03,3.768905103206634521e-01
-3.190848656061066185e-03,-2.988413184868727313e-01,2.316887691115017134e-01,3.936789376366092025e-02,8.528851774757005566e-02,4.407627864141135110e-02,4.942873120307922363e-01
-2.418846434204863921e-02,-3.292038754574102000e-01,2.971612213846123174e-01,3.600412207071737244e-03,1.075309776501900093e-03,1.012831494042651902e-03,5.425514578819274902e-01
-1.918310028553591590e-02,-3.281756429200277658e-01,3.018595686095618680e-01,3.906532051338117671e-04,2.322370148932199722e-03,3.517849428664789079e-04,5.456753373146057129e-01
-2.771384298520623846e-02,-3.213304991569087554e-01,2.944030358012283966e-01,4.275122573097026556e-03,-2.046585701246964647e-03,5.341710563154576305e-03,5.335746407508850098e-01
-5.943557258918852858e-03,-3.122438983587670913e-01,3.126429023215412939e-01,-1.390760079292575327e-03,1.554433172131728172e-02,-2.477555867337413904e-03,5.418943166732788086e-01
6.075844385398076683e-03,-2.967456573338131953e-01,3.002233214238962944e-01,-2.456500612244618634e-03,4.088121635095999344e-03,-5.833159194185889677e-03,5.171731710433959961e-01
2.937930527362186961e-04,-3.104953888697215558e-01,2.962056661264739210e-01,2.404124585809493467e-03,1.123331669157011251e-03,-1.688907963603135994e-03,5.254994034767150879e-01
-1.545813055543763734e-02,-3.170741431802146515e-01,2.963994514599633257e-01,1.004650293424520086e-03,-3.595985839673799568e-03,6.128873526731365082e-03,5.314537882804870605e-01
-1.240940209156931630e-02,-3.165314489657865549e-01,2.985394748341651527e-01,3.814129142249984665e-03,2.377328645561123388e-03,6.104452011696192421e-03,5.328397750854492188e-01
-2.009014144590050288e-02,-3.195564806929246937e-01,3.039650122221437267e-01,-1.188671596044715839e-03,1.183110468517075634e-03,-3.099281685277698148e-04,5.401334762573242188e-01
-1.199524626911656344e-02,-3.163520915815257184e-01,2.988111055823911566e-01,1.242704543494994526e-03,3.519509126330188590e-03,9.423609721959087891e-04,5.327984094619750977e-01
-1.245436858395174845e-02,-3.178071321956233430e-01,2.984900528326639435e-01,4.489520843223316141e-03,2.071816875010767164e-03,5.441304356059861388e-03,5.338882207870483398e-01
-4.412178305912443921e-02,-3.100734963246583042e-01,2.843072062460575977e-01,1.488364432631389530e-03,-7.655992528602544034e-03,2.914802189178070102e-03,5.158973932266235352e-01
-4.368023286331083888e-02,-3.081803308723555235e-01,2.760988896707300966e-01,8.219884819599700392e-04,-3.162387623996212350e-03,3.330103193123149039e-03,5.068193674087524414e-01
-4.112268225780972564e-02,-3.127337025365841128e-01,2.760099221344363141e-01,5.982251290550492581e-03,-3.978143041327168207e-03,2.963059725506035982e-03,5.105521678924560547e-01
-4.812451944078606492e-02,-3.038962786016586870e-01,2.638691120540268553e-01,-7.647646197867374743e-04,-4.831455131331529110e-03,1.007517237432030725e-03,4.925781190395355225e-01
-2.084175379314363169e-02,-3.201168360578625083e-01,2.816602859330182285e-01,-6.907828415926960813e-03,3.772992359863980055e-04,-5.943862058814893337e-03,5.213961601257324219e-01
-2.678707220311474582e-02,-3.127112694262886294e-01,2.913179448779357750e-01,4.366416950805295199e-04,-4.167386316306119672e-03,-3.502873311351191021e-03,5.234375596046447754e-01
-4.557466711419117661e-02,-3.082964584452708712e-01,2.747577316108701373e-01,1.242944087928539833e-03,1.134412328677839943e-03,-4.397916123977283577e-05,5.057691335678100586e-01
-4.761764982927838702e-02,-3.049103682086069522e-01,2.744304415900100658e-01,-6.341558449727832192e-04,-4.632344741228828361e-03,-2.512428919482622997e-03,5.028515458106994629e-01
-4.197798146097219546e-02,-3.066331598602727304e-01,2.333379003187969758e-01,2.677374889470997884e-03,-2.795106068860189752e-02,4.194884774718686191e-03,4.702372252941131592e-01
-2.783832089820213740e-02,-3.154714301488902306e-01,2.870163594572980870e-01,-1.335046743839308830e-03,-1.480004342357882537e-03,-2.911415294745039236e-03,5.219830274581909180e-01
-1.654156984976307490e-02,-2.367086447151231510e-01,2.945456814843185334e-01,1.729549297271654922e-03,1.355479032976861058e-02,-4.106966710205848213e-03,4.629803001880645752e-01
-2.017752397987337964e-02,-3.322960997708273578e-01,3.070611401892869297e-01,2.095795024141693975e-03,2.572577636902717568e-03,1.173958990278494308e-03,5.537847876548767090e-01
-4.494265066934668984e-02,-3.061122489965417137e-01,2.688709493014804219e-01,-3.793595317622639861e-03,-5.797358657604514964e-03,-1.014054387467916169e-03,4.987927377223968506e-01
-4.099951613222334312e-02,-3.104426964761173857e-01,2.368385978829345984e-01,4.790349673121685296e-03,-2.657463569071125825e-02,-6.106024564622137933e-03,4.763974845409393311e-01
-2.791274220418193952e-02,-2.725886975089461539e-01,3.033782191824344054e-01,-6.905474491713315451e-04,3.558841549534235045e-03,9.846621884463046051e-03,5.010082125663757324e-01
-4.495460927571683779e-02,-3.080430869358144474e-01,2.425554615257681235e-01,5.554906229970753458e-03,-6.053723504725122377e-03,-2.884264566852609655e-03,4.772270321846008301e-01
-4.014340307965567206e-02,-3.016846480910092554e-01,2.634412458728895290e-01,1.618276605120197095e-03,-7.394108524778991894e-03,-3.545854331149022676e-04,4.900404214859008789e-01
-1.040819780428330066e-02,-3.351501026775171033e-01,1.785611456803398167e-01,-4.225512279713536379e-02,7.809121942608228395e-02,1.506874688587461590e-02,4.763038754463195801e-01
-4.115740201504718143e-02,-3.067201363392816349e-01,2.794313762882216223e-01,-3.322750172138495914e-03,8.425451441717688936e-03,2.723042941171029303e-03,5.086309909820556641e-01
-3.220174229218271400e-02,-3.110056619446164294e-01,2.790118155216994023e-01,-7.921064733831820193e-03,8.131742602209680523e-03,1.426421005360591944e-03,5.116109848022460938e-01
-3.049022606538043939e-02,-3.087327688984815022e-01,2.939165934141597103e-01,-5.975509178158528020e-04,9.104885560545616496e-04,1.092336369724841331e-04,5.224232673645019531e-01
-4.187473223537288569e-02,-3.084365157329988505e-01,2.964528142632544272e-01,-2.366098517817013733e-03,2.879245875269473547e-03,3.094420541638257319e-03,5.251441001892089844e-01
-3.502862177491768148e-02,-3.127478646718604427e-01,2.952416525881703113e-01,-3.281088810474419495e-03,-1.180574868820838830e-04,1.382025610750733458e-03,5.272256731986999512e-01
-3.441365646754009078e-02,-3.118392666354556919e-01,2.993750860862602337e-01,-3.167611262475984821e-03,1.634881842348059932e-03,1.749374440568826801e-03,5.301214456558227539e-01
1.363084844600280510e-02,-3.473516745796668137e-01,6.488134292473060616e-02,1.065019451894625054e-02,-8.533362470382901965e-03,1.841968806287219707e-02,3.911676406860351562e-01
3.111386461845805362e-04,-3.599531062272640636e-01,7.581429131007741407e-02,-1.257890401484777591e-02,1.911652750615492127e-02,2.245725163793663853e-02,4.071561694145202637e-01
-4.672300890639277671e-02,-3.150119810837785361e-01,2.910181883236621636e-01,-8.146097538849911019e-04,-8.159391232320978640e-03,4.955351665452232580e-03,5.262468457221984863e-01
2.503510232640739075e-02,-3.132212845535372603e-01,2.750137530752549964e-02,-1.111197403284564650e-02,2.335544435653017642e-02,3.040233213480270612e-03,3.424796164035797119e-01
6.182018230911884293e-03,-4.610238325041642882e-01,1.353579201970944723e-02,-7.303476225224587830e-03,-4.595834011013026459e-03,6.287315798940044942e-02,4.835841059684753418e-01
-4.956151995505264640e-02,-3.101778936573117429e-01,2.892304132336625533e-01,-7.185841508576837431e-04,-5.670146219403682762e-03,1.407167523245290161e-03,5.206722021102905273e-01
5.405596330502077454e-03,-2.755594760381800401e-01,2.914883423783385941e-01,2.109310188391626609e-03,1.056096871134650991e-02,-1.730192121507400900e-03,4.914477467536926270e-01
-1.273774208594001534e-02,-3.871438345166887673e-01,3.360197460154254467e-02,4.936722836057057077e-03,3.339104250231052229e-02,-1.006592785948902261e-03,4.038541913032531738e-01
-1.861214082294155095e-02,-3.203018399848335251e-01,3.049686966087668538e-01,2.371592317321665963e-03,-3.359052813772670735e-03,-5.472895289319637096e-05,5.416576266288757324e-01
-1.396916666550877990e-02,-3.145376218731089635e-01,3.021077284970917209e-01,1.989581188873883796e-03,-1.904092425339543450e-04,-2.250472028471174092e-03,5.341122746467590332e-01
-2.154549641024531420e-02,-3.192070177189453850e-01,2.977157231043048302e-01,2.601187524500672525e-03,-6.964473753310303564e-04,6.862547852943016655e-04,5.344015955924987793e-01
-2.081329879483242301e-02,-3.208836849537954894e-01,3.062104052840870505e-01,1.298589503128696045e-04,-1.305568674939226476e-03,2.220654684538686009e-04,5.432515144348144531e-01
-1.947799249239021840e-02,-3.178499454765313370e-01,3.037688240725489042e-01,1.586953465385323048e-03,-2.621875922975984885e-04,-1.350969387120237817e-03,5.384935736656188965e-01
-3.598049052896276634e-02,-3.091660153675725997e-01,2.764214544140241037e-01,-3.948156151688468618e-03,1.876237892294724003e-04,5.182628901104081431e-04,5.075595378875732422e-01
-1.974940039928340177e-02,-3.230933353482856041e-01,2.943404795986455103e-01,1.673953100227816874e-03,1.401668777982512408e-03,1.687613068329198770e-03,5.347617268562316895e-01
4.574734616505819924e-03,-3.046263568202061123e-01,2.934306040342565813e-01,3.214344579880647353e-04,3.235622867434412991e-03,1.611074887485698963e-03,5.180705189704895020e-01
-2.984550141454112016e-02,-3.162030511555720125e-01,3.011852240104540002e-01,-1.844899919680687179e-03,-7.327841602248893853e-03,2.076657391735489949e-03,5.353124141693115234e-01
-1.887630260533618501e-03,-3.074012453902607578e-01,2.962139372335395593e-01,-2.410834750353881180e-03,2.567542196082819059e-04,4.498536817452006070e-04,5.227766633033752441e-01
5.089842399306466168e-03,-2.998204773643941556e-01,2.925192849352645785e-01,4.441891765024688892e-04,4.319016221972599330e-03,1.109031893990360161e-03,5.131144523620605469e-01
-1.834504359264188533e-02,-3.561030770143281399e-01,2.372957167005002588e-01,-3.318812883090477978e-02,4.478583789317580610e-02,1.589622944003484667e-02,5.252210497856140137e-01
2.662473202053937220e-04,-3.108343249020211196e-01,3.004818012865610455e-01,8.490134365099254253e-05,1.255703421899385247e-02,2.095254349052648717e-03,5.299022793769836426e-01
-1.647130256362031725e-02,-3.181888473473481471e-01,1.196008067573255396e-01,6.630977509161426050e-04,3.470778728274617753e-02,2.577546144807632035e-03,3.927334845066070557e-01
-2.215311513006578380e-03,-3.215865117615136493e-01,2.967166946429015129e-01,1.117862098871578091e-03,1.966545867104560127e-03,-1.376544458708255135e-03,5.355834364891052246e-01
-5.020924538670645809e-04,-3.387056722514710794e-01,1.162054429128584476e-01,-1.962665078006783047e-03,1.019104940739750005e-02,-3.004779672148108136e-02,4.129224419593811035e-01
-1.732895403460622125e-02,-3.266261334627871826e-01,3.027440830950283712e-01,-7.516062390771444069e-04,1.979257805902313958e-04,1.611412784666820018e-03,5.450860261917114258e-01
-4.096613317567318613e-02,-4.589962093247951791e-01,4.586292441150732757e-02,-1.659464974392526812e-02,-2.254360024925379166e-02,4.505010268539063473e-02,4.764713048934936523e-01
9.583906105994216551e-03,-3.100435750772574384e-01,1.029022158537200582e-01,3.301552879863103949e-03,-5.244500182923744324e-04,8.121838721979138948e-03,3.754045069217681885e-01
1.417014270251246155e-02,-3.113656367404923908e-01,8.848494157666972337e-02,4.455470894196201896e-03,5.616281829927375832e-03,8.720684987050609030e-03,3.688776195049285889e-01
8.196146143185853439e-03,-3.019047004956059155e-01,1.360490160560826056e-01,5.470033938065787171e-04,4.147277995436764696e-03,-1.977936645388384679e-03,3.901543319225311279e-01
8.430772113138682022e-03,-3.073560684580270985e-01,1.126905510666961208e-01,2.064913222327581510e-03,-6.450448313375854899e-03,-3.463276271041628752e-03,3.790631890296936035e-01
-2.059268656994337615e-02,-3.184003750818843459e-01,3.037814969321381842e-01,-6.972139517038273117e-04,-1.278007254323320924e-03,4.766226879502417544e-04,5.389955639839172363e-01
7.401083020199178408e-03,-3.202568313725928095e-01,1.401701880135954037e-01,6.116832473425153245e-03,2.228363911709254144e-02,9.404829943719985805e-03,4.127438366413116455e-01
-1.622262088326430207e-02,-3.160444525216585809e-01,3.008114686552764705e-01,3.487555153192368443e-04,-6.194516991881342857e-04,-4.134057668062147061e-04,5.342841148376464844e-01
-1.371578841538818871e-02,-1.340230292250846056e-01,3.972454329158310316e-01,8.753066511487363199e-03,-1.820342789254887281e-02,-3.100880611139285661e-02,4.867372512817382812e-01
9.830109455417873621e-03,-1.552004763402617948e-01,3.141413089807801318e-01,5.680410022194477826e-02,-4.227547009288650480e-03,2.566638985557579550e-03,4.240454733371734619e-01
-1.044985487858424850e-02,-1.613210392277341920e-01,3.054187954356876178e-01,1.328243975165577413e-02,-9.090580482553971622e-03,-2.654545989329802971e-02,4.160309731960296631e-01
-1.704200033255312552e-02,-3.193983359450268678e-01,3.037490907798001127e-01,-2.298497701620695502e-04,2.291837658780463847e-04,-2.384604210279434294e-04,5.397406816482543945e-01
5.281719739502286487e-03,-2.368686061950563415e-01,2.807000323415628218e-01,3.528989397460391593e-03,5.860091814299926531e-03,-1.123281467430777957e-03,4.486968219280242920e-01
-4.259195302955370854e-02,-2.158041411701477341e-01,3.240520029093998389e-01,-6.926501363018063365e-03,1.715509864876327978e-02,-3.995824371136520205e-03,4.785521626472473145e-01
-1.492801371263417776e-02,-1.169179814405991447e-01,2.880465483575180285e-01,2.954268873212823401e-02,-8.366253440739459396e-03,-1.417165685764686968e-02,3.694952130317687988e-01
-1.760686033556655219e-02,-3.092779989679890207e-01,2.986258036311352781e-01,1.443952186771501126e-03,-7.209622084943987340e-03,-6.649365474497882789e-04,5.267586112022399902e-01
-1.783863921940477201e-02,-3.292511943079762249e-01,3.017129283503283133e-01,9.210179886749045265e-04,2.690545762389793139e-03,9.651701950626266450e-06,5.464683175086975098e-01
-1.498161841464805411e-02,-1.057866934920816127e-01,3.155710109622292814e-01,6.119598761140832011e-02,-1.018839137611826824e-02,-9.507086716585653324e-03,3.991789817810058594e-01
-2.204751945197664514e-02,-1.621952790885536899e-01,3.029870938875888764e-01,1.862651337195615764e-02,-1.342887078480145546e-02,-2.525420873488201309e-02,4.175367355346679688e-01
-1.734600253811399706e-02,-3.292502774506355090e-01,3.034080792449332376e-01,6.053183245466725029e-04,3.555136755366850206e-03,-1.338195467468742566e-04,5.479517579078674316e-01
-2.260628072593887095e-02,-3.300370664812346533e-01,3.045139378788895290e-01,2.895535794512986514e-03,3.090738158066590625e-03,1.405043816494372464e-03,5.496798157691955566e-01
-2.381199777815306423e-02,-3.127471591321083766e-01,2.969082974640073203e-01,-9.593551462639892616e-04,2.326189994928339847e-04,-2.060538704416927779e-04,5.282191634178161621e-01
-2.235758686377743720e-02,-3.265968555493908854e-01,3.003310913386272318e-01,2.259099330871153916e-03,2.942014257502418759e-04,1.488302820918899639e-03,5.430343151092529297e-01
-2.108788550270023279e-02,-3.302093962009637895e-01,3.008495820637685503e-01,7.229248453956337115e-04,6.188022839084990345e-04,-6.157030962038892528e-04,5.465542078018188477e-01
-2.038457387307997942e-02,-3.313569325860094006e-01,3.039525716172855052e-01,5.483969794143960875e-04,9.455027184164000757e-08,2.960797251240255309e-04,5.502358078956604004e-01
-2.073961066702448980e-02,-3.260968461900158322e-01,2.974324450087673100e-01,1.400428429416808972e-03,4.430269874045800389e-04,1.416674459073040144e-03,5.400418043136596680e-01
-9.027209279623535712e-03,-2.868781898380404205e-01,3.119181384492258347e-01,-2.054547643662996137e-02,1.727530861969749781e-02,-9.831158074718600662e-03,5.213767290115356445e-01
-1.774717612330362071e-02,-3.231218190908353161e-01,2.606669580618682369e-01,3.446335099848742145e-03,-1.449554361923040887e-04,5.685165451914117075e-03,5.058867335319519043e-01
-1.385930198215415410e-02,-3.002024683844805586e-01,2.896126619402952795e-01,-9.957765234879487753e-03,-7.836679571371661095e-07,5.736513864128618863e-03,5.112543106079101562e-01
8.488958512192609079e-03,-2.919863358888283300e-01,2.923312090160560262e-01,4.817385305916997880e-03,-6.763271913776774252e-03,-2.461562378452773064e-03,5.063244104385375977e-01
-4.399969516460131014e-02,-3.030060753603727730e-01,2.830437955350857959e-01,-4.554890371455981774e-04,-4.411122198675582889e-03,1.512345916502013179e-03,5.087376236915588379e-01
4.213581484353036075e-03,-3.021325552234404577e-01,3.035032253978037220e-01,4.151944695742113521e-03,-1.006825829835646460e-02,-2.873568008795223186e-03,5.248705148696899414e-01
-1.773697111821728820e-03,-3.057037698640744927e-01,3.041226376249773211e-01,5.966783861513569927e-04,-5.141827234292100333e-03,-1.618168962038493914e-03,5.282096266746520996e-01
4.466062888614580166e-03,-3.032484125084913273e-01,2.984951886428768297e-01,-1.088518735437314471e-03,-1.096704077376756906e-03,-2.256264997136033044e-03,5.211917161941528320e-01
-1.753081851558289592e-02,-3.068070587632711343e-01,2.934213807792340201e-01,-2.526292246498957478e-02,5.527921134212060439e-02,-1.955952627048991241e-02,5.315570235252380371e-01
-3.460644944362450265e-02,-3.265228261470795035e-01,3.244874683360578493e-01,1.633515939064025639e-03,-1.675865783490166142e-02,9.043518548207424724e-04,5.655457973480224609e-01
-4.120386795995270579e-02,-3.130442152178016246e-01,2.749601688661506560e-01,5.951923837522540492e-03,-4.117279313109469506e-03,3.533177590256677061e-03,5.098996162414550781e-01
-2.263417554671042983e-02,-3.668280540403802692e-01,3.128783511128337413e-01,-5.465708096862401111e-02,-4.324660656664001956e-02,-9.745610250895766005e-03,6.011466979980468750e-01
-4.908752243541414373e-02,-3.027210752313028164e-01,2.768338347010597666e-01,-3.958817098533743773e-04,-6.264644767665865539e-03,2.067737637017553771e-03,5.033391714096069336e-01
-3.078114583549770855e-03,-3.212300080411806258e-01,2.524920026679142726e-01,2.506451589968671390e-03,2.593199482663681617e-03,6.215532080433777869e-03,4.979977309703826904e-01
-2.887722154733919286e-02,-3.872894647591855755e-01,3.828600778751192757e-01,-3.925500238369430267e-02,-3.462281454006455733e-02,4.412642516762175192e-03,6.736736297607421875e-01
1.178831611713631287e-02,-2.945039334618063664e-01,2.893543708329133213e-01,-1.776490887946346369e-03,4.413798772009308070e-03,-9.495004091496295814e-04,5.059098601341247559e-01
-8.618331676161357716e-03,-3.112861635176991659e-01,2.960444430046655362e-01,-3.986274336389951205e-03,-1.127754265695953510e-04,6.422172621399614787e-04,5.260112285614013672e-01
-3.515642739044596427e-02,-3.128613040369419562e-01,2.814928751407836383e-01,-3.737178928369541686e-03,-2.260486070874230882e-03,-1.213385351710519417e-03,5.151538252830505371e-01
-2.477048221333718811e-02,-3.398665905996047232e-01,3.098494761486675353e-01,-3.906813816887056562e-02,-4.866223993724592967e-02,7.305545404047149999e-03,5.731811523437500000e-01
-3.478880925774503058e-02,-3.151786737110477410e-01,2.919908190632395373e-01,1.776744389757990662e-03,-1.739383933077691933e-04,3.995125550146290914e-03,5.263900756835937500e-01
-4.321982870057958920e-02,-3.164239307572240811e-01,2.370484175085296741e-01,8.185216428869015320e-03,-4.979317858599188046e-02,8.998151130212145993e-03,4.874866008758544922e-01
-4.742869991850968275e-02,-2.691478160844942291e-01,3.090552893056962014e-01,3.451392767939896744e-03,2.135019705293860360e-03,6.169328361958111018e-03,5.054137706756591797e-01
-4.155391008277255216e-02,-3.439352983924138796e-01,3.000911915645934069e-01,8.960440130932589495e-03,-2.545817996643309766e-02,-8.880035704463341492e-03,5.602542161941528320e-01
-1.080994638673632262e-03,-3.142959105232363548e-01,2.992653691611118494e-01,-5.664788224255665932e-04,8.490309697526506744e-03,5.129959372732280278e-04,5.316036939620971680e-01
-5.002610640870308600e-02,-3.025262328035168147e-01,2.741897651675513914e-01,4.141831831932894109e-04,-2.551361162258716266e-03,7.808536603605974484e-04,5.007581114768981934e-01
5.916630754912729530e-03,-2.896854136823411308e-01,2.920429475158363153e-01,5.154529386833779994e-03,6.045984944100373307e-03,-9.292043695585357806e-04,5.040042996406555176e-01
-1.576574307216905765e-02,-3.286010829254523702e-01,3.029720243058037221e-01,1.212551139624259500e-03,4.311248695450101316e-03,1.070272527360773094e-04,5.470213294029235840e-01
-2.301146774627900460e-02,-3.294844350022893553e-01,2.992545595844016137e-01,3.204159213814157612e-03,-1.263670800997780252e-04,2.733442324488480346e-03,5.446100831031799316e-01
9.521157595828326492e-03,-3.093913649571212732e-01,2.951731226002987651e-01,-2.461445384817415385e-03,5.308175406915165671e-03,1.342087618278123198e-03,5.239354372024536133e-01
9.716520826266790423e-03,-3.110341143458316693e-01,1.908233213902372771e-01,3.368649461912146155e-03,2.202559606215783502e-03,1.320077490302863643e-03,4.402551352977752686e-01
-7.376996528673134164e-03,-3.160937076341342467e-01,2.971770624739984989e-01,-2.854661768738925905e-03,3.992752832641389667e-04,9.800198499504159805e-04,5.311383008956909180e-01
-9.693254652112742384e-03,-3.227598605710326751e-01,3.001865243903215630e-01,-4.061800799096870122e-04,3.947699897763875219e-03,2.771909379573659314e-04,5.395337343215942383e-01
2.418876325223744822e-02,-2.867742472115188956e-01,2.909579807074749724e-01,3.402077298732966628e-03,-2.018709059543260121e-03,-4.088489891119084937e-04,5.008658766746520996e-01
-2.053102786110734546e-02,-3.280823993742944533e-01,3.041586508237641984e-01,7.383705943911934031e-04,6.623238399681911741e-04,1.407524787239669778e-03,5.476120114326477051e-01
1.981742641937073862e-02,-2.919955911450312636e-01,2.959493475111119598e-01,2.001447043317255634e-02,-5.241734395428630441e-03,-6.797662854780654566e-03,5.108820796012878418e-01
-1.581562282655702562e-02,-3.276691949915201407e-01,3.001678549657920136e-01,7.360665898601294463e-04,9.447316644761480191e-04,-1.103534883104098809e-04,5.437307357788085938e-01
2.655539446652823918e-02,-2.789314201992174613e-01,2.824573968200196905e-01,3.618015560568618033e-03,-2.118646817278043923e-03,-6.908668848450987172e-04,4.868643283843994141e-01
2.073246456044397501e-02,-2.870279819140654221e-01,2.906036553521886834e-01,4.823499649955410862e-03,-6.522682978052409160e-03,-4.194956203695363213e-03,5.008521080017089844e-01
2.549051760236484276e-02,-2.905608805865326771e-01,2.834843543012005584e-01,4.163338693845290185e-03,-1.562120107254545915e-03,-1.538121702196610470e-03,4.980512261390686035e-01
1.752893678906641134e-02,-2.974903223609859371e-01,2.892427612121163394e-01,3.242912299877758831e-04,3.971867780663493504e-03,-7.951355189855743334e-04,5.086355805397033691e-01
2.218366283805705066e-02,-2.977491069365287291e-01,2.912432609269891004e-01,9.237199915896698952e-04,-2.170962973812524347e-03,-2.597592099863828274e-03,5.107523798942565918e-01
-1.480762721631270241e-02,-2.889841557894375912e-01,3.044350797397575858e-01,9.617592654824892555e-04,1.022577445177722845e-02,7.575895251028289326e-03,5.148846507072448730e-01
-2.124472560641856717e-02,-3.088618410173242790e-01,2.430189065575812379e-01,7.841052167845902806e-04,-1.822423914674274267e-02,-9.431176465299742628e-03,4.794065952301025391e-01
-2.105098682516191866e-02,-3.194208472088906348e-01,3.058117757592720976e-01,-1.850287534272046465e-03,4.344213195648405010e-03,-1.311935060975900945e-04,5.417165160179138184e-01
-2.085130578218179903e-02,-3.232352237939203343e-01,2.880252178097792437e-01,-5.219499315646703060e-03,3.679292900364101223e-03,4.104131445598810900e-03,5.295403003692626953e-01
-2.542512538236185379e-02,-3.026983207673265008e-01,3.035542456048788695e-01,1.166481579926658589e-03,8.740436827186531810e-03,2.564802490203800002e-03,5.259068608283996582e-01
-2.009955121066007294e-02,-3.149158576266479215e-01,3.056194428028372601e-01,-6.540662266646593949e-04,5.026815535790834025e-03,3.446385201687449454e-03,5.377262234687805176e-01
-1.544427016092946719e-02,-2.756758550952375653e-01,3.126293158894917212e-01,1.545410325447443313e-02,6.411499506341759511e-03,2.458148145470321136e-02,5.132060050964355469e-01
-2.006701388475826825e-02,-4.871724355207974755e-01,4.330930814129460016e-01,-4.180211982006157984e-02,4.778722823739554176e-02,4.805163850868611128e-03,8.045976758003234863e-01
-6.513720354080945740e-03,-2.330306953653404900e-01,2.901308839453199395e-01,3.149121524820482770e-02,8.494788095066275677e-03,3.983411551501335121e-03,4.579761624336242676e-01
-6.921619926618986784e-03,-3.101533870250633429e-01,1.929028917044430802e-01,4.068318927338891028e-02,-6.532658519576393930e-02,-1.000616601102898712e-02,4.588473737239837646e-01
2.447449544929134954e-02,-2.827306375527994242e-01,2.843884259074551113e-01,7.095580586767717517e-03,1.463429626956309166e-03,-9.935918263217575954e-04,4.918715059757232666e-01
1.185206075329309217e-02,-1.800672210566091613e-01,3.121573326650141089e-01,8.785703721696676294e-02,-7.864528292877324966e-02,-1.263082339824238114e-02,4.762783646583557129e-01
7.872730167620460573e-03,-2.889095458731745780e-01,3.363194571600110483e-01,4.590444092593366776e-02,-6.349772061185929642e-03,1.588801067824965538e-02,5.483010411262512207e-01
-1.747473587087761127e-02,-3.759098028069438047e-02,3.182200239401853370e-01,8.742369425362838536e-03,-4.585771286999902781e-03,3.474875579907409778e-02,3.518001735210418701e-01
-4.685110174071233091e-02,-1.315452832465388577e-01,2.872927311755148483e-01,-9.992163664940276538e-03,2.892250138026581231e-04,3.043120841990823813e-04,3.839600384235382080e-01
-3.694291828439220937e-02,-9.335189860875239831e-02,2.873754670145085566e-01,9.617147240748612821e-04,7.716109533620817097e-04,1.037956002237112874e-02,3.563518226146697998e-01
-5.010874060171904842e-02,-3.032767067469029909e-01,2.748837187901272405e-01,5.793491556304696108e-04,-2.717800142397150311e-03,7.330145653096427783e-04,5.020125508308410645e-01
-4.373986449169049717e-02,-1.137129063475827428e-01,2.871752852550157886e-01,1.472408580110250121e-03,1.394740799250019682e-03,-5.746855562666114588e-03,3.710358738899230957e-01
-3.083856212755400200e-02,-3.133929634329293279e-01,2.806109416388118949e-01,-5.658181821436045027e-03,6.958807157542743838e-04,-2.012374493648784977e-03,5.147318243980407715e-01
-4.128599046824847629e-02,-1.064664152219395032e-01,3.392603296541558122e-01,2.983940114324855689e-02,-9.591588298789384577e-04,-2.280708966878876309e-02,4.220220148563385010e-01
-3.253397721005824028e-02,-8.225405681105119049e-02,2.810215325885366267e-01,1.463152519685636003e-03,-8.648047537823390059e-04,-1.228737278995537668e-02,3.418197631835937500e-01
-4.573962596573639960e-02,-3.032643860808698077e-01,2.780584983629976192e-01,-5.313822851555180700e-04,-2.485485016160569362e-03,1.223869710991273710e-03,5.045533776283264160e-01
-4.108028768653491924e-02,-1.290019601229948354e-01,2.804574333834956024e-01,1.542240636704862375e-02,1.199245680903749441e-03,7.454284029666866226e-04,3.743079006671905518e-01
-4.261708648068746053e-02,-3.069009718830588707e-01,2.821421137710967142e-01,9.033010631780269547e-04,-8.859686021791366318e-04,3.454211880998260022e-03,5.110613703727722168e-01
1.495925908746853668e-02,-3.066439759657881847e-01,2.924587337675279564e-01,-1.935957044597396825e-03,4.029912455453558626e-03,-1.758850356293717790e-03,5.193732380867004395e-01
-4.339583682484353389e-02,-1.461869591651094313e-01,2.910111482247268455e-01,6.085677689681225598e-03,-3.540635568715445273e-03,7.864031158107831140e-03,3.963614106178283691e-01
-2.820226912619518481e-02,-2.885742132119062386e-01,3.147701693049187455e-01,-1.075214942448788485e-02,-7.343761099011509794e-03,1.874319757037392568e-03,5.246362686157226562e-01
-1.671262493628965576e-02,-3.138806342895312795e-01,3.157712232645111250e-01,4.414121123090448848e-05,-6.425174761740885289e-03,-4.990678812433338614e-03,5.457623004913330078e-01
-2.024778296653947235e-02,-3.075388987347169034e-01,3.076078006600281856e-01,-3.198276351349983292e-03,-6.696997126942669590e-03,-5.176406657971054960e-03,5.333489179611206055e-01
-2.701451784412341184e-02,-3.247286827854086733e-01,3.164138634956100149e-01,-1.894327716184706495e-03,-6.436571242555576625e-03,-4.472846351775407354e-03,5.558915138244628906e-01
-1.971571274329707302e-02,-3.312425867139689450e-01,3.052528530881704616e-01,2.296018474372688630e-03,3.081190551771030486e-03,2.822054261787745571e-08,5.513023734092712402e-01
-1.177375359611504760e-02,-2.895155577129781554e-01,3.101145032257348055e-01,1.202418753180679018e-05,-1.495629534909089127e-02,-4.729760751960317318e-03,5.204734206199645996e-01
-2.220843271808942837e-02,-3.216839756684434781e-01,3.161437933050674776e-01,-4.891301900125876422e-03,-7.950048281688200033e-03,-2.279311814264362978e-03,5.529674887657165527e-01
1.994643029672204040e-02,-2.882801929892899184e-01,2.856417804213475242e-01,1.792383100209214014e-02,4.854288396310371678e-03,5.590687791184729277e-03,4.986183941364288330e-01
-1.793127013818172563e-02,-3.306763237779679065e-01,3.044209954332277035e-01,1.676141857931786727e-03,1.321396691420580801e-03,5.109746346623691851e-04,5.500445365905761719e-01
9.452213148302104212e-03,-3.026763315940139698e-01,2.913207134576321633e-01,1.328487514843267568e-03,1.172225707075203339e-03,1.625778810011623129e-03,5.146558284759521484e-01
-4.614514330760324627e-03,-3.034186084551521168e-01,2.932188263406813045e-01,-1.004421691426272707e-03,5.468205266930265505e-03,-1.366173452533734701e-03,5.167985558509826660e-01
-1.377649674333765450e-02,-3.168520144948404060e-01,3.046630078183399926e-01,-2.443544901032543249e-04,2.680999850699792176e-03,-1.078828140605623707e-03,5.383260250091552734e-01
-9.102059632870161676e-03,-3.039976140635762825e-01,2.968387500124778922e-01,9.378822887199471641e-04,1.326868789176308301e-02,4.302254602736683628e-03,5.209319591522216797e-01
-3.547529937099515307e-02,-3.154862183579456580e-01,2.816940205828949439e-01,1.491538149895944984e-03,1.925973021335506590e-03,1.620745362081144026e-04,5.175241231918334961e-01
-1.190573317112009200e-02,-3.210008358799454897e-01,2.579969517538510115e-01,1.121341932913368263e-02,-5.303489800195113285e-04,-2.781850885923864316e-04,5.021863579750061035e-01
1.540976355923258899e-02,-2.938615947996977562e-01,2.859798310552348344e-01,3.201063584058288797e-03,4.833154800299422314e-03,8.044430303176669517e-04,5.026323199272155762e-01
1.279838595393283790e-02,-2.911031528656594092e-01,2.894423870568031409e-01,1.762519016271382613e-03,4.827021502716685362e-04,4.681824649716195678e-04,5.029624700546264648e-01
-5.238372370660517724e-04,-2.999248563255257904e-01,2.957030790287955568e-01,5.509218461384198613e-04,5.805758109360003964e-03,-4.565683221191129283e-04,5.159308314323425293e-01
-2.640078701744200465e-02,-3.251116011309662657e-01,2.914421036199571491e-01,1.600086524994076120e-03,2.501538361056530792e-03,-5.728391290662300430e-04,5.340625643730163574e-01
-2.366983225638711469e-02,-3.142132892252852971e-01,2.897833413154444759e-01,-3.866599042277806333e-03,4.151952545897693355e-04,2.478504186728622011e-04,5.232453942298889160e-01
-1.041804226648480013e-02,-3.185944436248902001e-01,3.169968845655146694e-01,-2.924986600831379520e-03,1.611850681652084345e-03,9.381248313581653933e-05,5.505526661872863770e-01
-8.682022856237866376e-03,-3.144021296169337010e-01,3.073762561196060616e-01,-4.682200485898639977e-03,-3.580696538647885376e-03,9.009597908453641354e-04,5.385997295379638672e-01
-2.107800333706961668e-02,-3.495870163382577278e-01,3.568362718859683369e-01,-1.631547602769702326e-03,9.111699801237282265e-03,1.451011687174060590e-03,6.124940514564514160e-01
-2.280465659823855198e-02,-3.301777636179167863e-01,3.033079754037362186e-01,2.714626550525807923e-04,1.744189858898567876e-03,3.193168506103357925e-04,5.487035512924194336e-01
-1.426415460184729880e-02,-3.252837215086926137e-01,3.251034570405552659e-01,3.781519787966155545e-03,-4.703850213081831565e-03,-1.259286307189543420e-03,5.635313391685485840e-01
-1.755163279183300645e-02,-3.177606275391999802e-01,3.232367160567647946e-01,1.873582670441594758e-03,2.434544277252379766e-03,3.141083046117797324e-03,5.555427670478820801e-01
-1.978739425650144490e-02,-3.259653828524787245e-01,3.144808370115542151e-01,2.909511961471435062e-03,3.837517509605986674e-03,-3.119634560278828142e-03,5.549095273017883301e-01
-1.933505372563124047e-02,-3.214270635371490048e-01,3.060111360049418416e-01,1.755380785542312366e-03,-2.378709040372229116e-03,2.169306812380786687e-04,5.435260534286499023e-01
-1.331967766605903110e-02,-3.117270765161602175e-01,3.199865010153681855e-01,-2.373681610274605905e-03,2.732591881392484098e-03,-4.075732948513516307e-03,5.474396347999572754e-01
-1.762830900861735856e-02,-2.708944926885973326e-01,2.990656195070949819e-01,-6.189660652696047857e-03,-8.057576199733075886e-03,1.664389376224467872e-03,4.949390590190887451e-01
-2.397622789145270605e-02,-2.028524987985124983e-01,1.789600231263418495e-01,3.753264265438936102e-03,-1.131352693847958134e-02,2.041653352479511768e-02,3.334022760391235352e-01
-9.953261798716035724e-03,-3.096286187237893839e-01,2.969702200977292761e-01,-3.477937092702523998e-03,-3.375012217596662627e-03,7.178787280101984851e-04,5.254110097885131836e-01
-2.178920295756704012e-02,-3.167335462572721250e-01,3.063248473544873951e-01,-5.535472700734874905e-04,6.180898822160781287e-04,-1.105176411766270851e-03,5.398445129394531250e-01
-2.136945932852678948e-02,-2.465739342166010095e-01,2.992507681440514378e-01,-1.555611641838656328e-02,-3.294014299901401079e-03,3.252203666932027351e-03,4.759304225444793701e-01
-2.653770010523425274e-02,-3.091613911776838197e-01,2.884458221235979281e-01,-1.271801545267443958e-05,-2.738260672836858017e-03,-2.672334700578590967e-03,5.178382992744445801e-01
-2.817048066796069145e-02,-1.740633407008259359e-01,2.869269357876169657e-01,9.885592840144962617e-03,1.286920796516076090e-02,3.778657797373889682e-02,4.142645001411437988e-01
-2.314801305131245976e-02,-3.015090857059901652e-01,1.846121095847516047e-01,-4.904308230682792764e-03,2.717761175469445359e-02,-1.133510630178976610e-02,4.256230294704437256e-01
-2.137876604423820381e-02,-1.417182076352961062e-01,2.932662157255674917e-01,5.048995264445433132e-03,2.589812878094401049e-04,2.413006312224383679e-02,3.913702964782714844e-01
-4.246740534548919949e-02,-3.043656303217434078e-01,2.754779574571778467e-01,-2.478033536479363249e-03,3.820946305381099834e-04,-1.696090273784371454e-04,5.029594302177429199e-01
-2.081811469322133318e-02,-3.205942610541478444e-01,3.038241607988477755e-01,2.810341622964690738e-03,-3.256452227599346879e-03,1.917246170319309492e-03,5.409666299819946289e-01
-1.704926284343642393e-02,-3.176709154295014881e-01,3.046896066798974179e-01,-1.310172435542160841e-04,-3.185712770955078689e-03,7.962569328686471990e-04,5.391134619712829590e-01
-1.211287834723191043e-02,-3.336083094896449275e-01,1.943093455571600348e-01,1.288892324660500556e-02,2.918505238415464512e-02,-2.930962936854263415e-02,4.668662548065185547e-01
1.582712531615883614e-02,-3.194211011394614275e-01,3.036481146385485164e-01,3.625515958898619523e-02,2.476484964136154744e-03,-8.184430976546057043e-03,5.439544320106506348e-01
-2.167317343496236171e-02,-3.205484051359354103e-01,3.057420389329275068e-01,-1.903546460995010929e-03,1.627694261991948811e-03,-9.055806602943559892e-04,5.425907373428344727e-01
-3.022244976976203035e-02,-3.079562994129198539e-01,2.757457519118337030e-01,-4.620524753501328158e-03,3.343950764166960226e-05,8.174690209686241108e-04,5.057631731033325195e-01
-1.583066845907368791e-02,-2.892703462696321060e-01,3.009549057413826167e-01,1.022561805901702912e-04,-1.142680283728785690e-02,-3.734000886834817727e-03,5.120328664779663086e-01
-2.957465815229787243e-02,-3.081530044174686234e-01,3.074687507604758618e-01,1.574229132426898292e-04,-7.647916545942402659e-03,-2.744364640176352906e-03,5.341303944587707520e-01
1.119704866596812898e-02,-2.104604450370413660e-01,5.070646415004653740e-01,6.979391682103033845e-02,1.212932463392889064e-02,-4.786970231396227293e-02,6.533444523811340332e-01
-1.571507209741668937e-02,-3.196252198561279068e-01,3.163647601128595777e-01,-3.024637038788896299e-04,-2.995231711857867466e-03,-1.092063023509052015e-03,5.509914755821228027e-01
9.983203973081748381e-03,-2.980154970457865593e-01,2.946003841388244449e-01,3.168089154981478840e-03,-1.413029504934104185e-03,-2.610599504068943175e-03,5.134086012840270996e-01
2.181438040973338391e-02,-2.943794666667665649e-01,2.860498523846221608e-01,-2.702943325603464949e-03,2.450559815953076720e-05,3.129483807436401338e-04,5.033594965934753418e-01
8.862521105984590836e-03,-3.057625129284121113e-01,2.980935470268044618e-01,5.716965756476368810e-04,-1.875485524336997084e-03,-4.543670948071172437e-03,5.231789946556091309e-01
-1.888810596158965738e-02,-3.163645257530438570e-01,3.046215186373969486e-01,2.953948562609324223e-04,-3.460836376018636921e-03,2.015321956155103483e-03,5.379921793937683105e-01
-2.184221290876822708e-02,-3.127155912040587848e-01,2.941390379776536168e-01,8.355791328341226386e-04,1.725489499671577090e-03,-2.407837059586397793e-03,5.257284641265869141e-01
5.421350190279340155e-03,-2.993895551292268808e-01,3.103626678331942723e-01,4.985995584946970038e-02,1.696123776171841457e-02,-2.567903789658593575e-02,5.377245545387268066e-01
-1.365007441061501930e-02,-3.875567454497665931e-01,4.326887401155262158e-01,-8.166765577450914304e-02,6.780376766904303021e-02,-4.290045958667377396e-03,7.346901893615722656e-01
-5.051927115092931173e-04,-2.748543120591147026e-01,2.880376919883155251e-01,2.908174061094477222e-02,-4.927246117297746746e-03,1.402147290936508160e-02,4.908011853694915771e-01
-1.171596276992618868e-02,-1.669317269756981914e-01,3.455180684871880792e-01,9.854412994297066797e-02,-2.537957613047864269e-02,-2.765780230470693199e-02,4.904248118400573730e-01
1.268814057574083748e-02,-2.833574197822694707e-01,2.938522548645146060e-01,1.616976379093455415e-02,-1.134053540465460030e-02,-5.487150977813062824e-03,5.011927485466003418e-01
-9.564280497173338613e-03,-2.160999836467731305e-01,4.347434102705847736e-01,1.059935676100167423e-01,-8.834893891559605916e-02,-2.656124365603371867e-02,6.253548860549926758e-01
2.588899274578900650e-02,-2.672402856130617899e-01,3.097486682291314963e-01,1.914408700029270743e-02,7.061666480646976510e-04,6.426898819600212684e-03,5.009326934814453125e-01
-2.344676768851121015e-02,-3.190546193390846330e-01,3.060160544374362912e-01,9.131818709543700367e-04,-2.400325660289191840e-03,-1.193591268405281647e-03,5.416138768196105957e-01
-2.056629592669148576e-02,-3.189294870003497873e-01,3.034018572800414315e-01,9.920183511939895810e-04,-1.255986415422317320e-04,-7.114773507908788396e-04,5.391109585762023926e-01
-2.467669227019428889e-03,-3.072901425198901748e-01,3.153196857419542920e-01,2.536256853233071623e-03,-2.685637253250445621e-03,-3.788584151696729185e-03,5.393127799034118652e-01
-2.136679509264205815e-02,-3.194014030191594800e-01,3.035877428227826136e-01,2.452026628157494715e-03,-2.417849677925844494e-03,1.512026797660084767e-04,5.397253036499023438e-01
-2.113351915317861207e-02,-3.186887725027462981e-01,3.013298770541482652e-01,4.163727170084621614e-03,-1.650528252375505975e-03,-7.175929497896169605e-05,5.371523499488830566e-01
-2.132410191146655309e-02,-3.213629836462030265e-01,3.059993534580089936e-01,1.151312709356117937e-03,-2.525485659123546597e-03,2.534512719533877300e-04,5.435044169425964355e-01
-3.065807415645877693e-02,-2.672085163251503026e-01,3.050316099122229452e-01,-7.694307815951319154e-04,-9.097868055661529479e-03,-4.956046584450105909e-03,4.983723461627960205e-01
2.049717596960472579e-02,-3.001835766970862851e-01,2.924130125284678527e-01,-5.680415544569931974e-03,-1.308123211276985935e-03,5.057568723493811001e-04,5.138825178146362305e-01
-1.853959430101785599e-02,-3.196283096994438355e-01,3.059153879785090346e-01,9.820029037261358308e-05,-2.164157560577305881e-08,-3.786367836498009324e-04,5.418631434440612793e-01
-1.748358315634938182e-02,-3.196079687046133322e-01,3.039124874616865313e-01,1.384445502126501392e-03,-3.512543510166081604e-03,2.965067257408585057e-04,5.401103496551513672e-01
-1.975356179458073042e-02,-3.196196969568198543e-01,3.064085294278579563e-01,1.668238684197024613e-03,-1.979184453354776614e-03,-8.126928611160636048e-04,5.423361063003540039e-01
-1.725917618931883252e-02,-3.177301149345729825e-01,3.039758141756112031e-01,6.196995251016080598e-04,-3.523667074589867127e-03,1.007834268058609801e-03,5.385516881942749023e-01
3.603778298426906640e-03,-2.036160007069620081e-01,3.043998685534857196e-01,4.628849652666606335e-02,1.390468245499974949e-02,3.050166141058157851e-02,4.533742070198059082e-01
3.912143916460118602e-03,-3.039040312463247018e-01,2.936201755130007918e-01,8.519110663690425411e-04,3.862153141303916164e-03,3.019471559960545080e-04,5.175959467887878418e-01
2.055677890798352642e-02,-2.738501293933220948e-01,2.886675145408810761e-01,1.269959104069399471e-02,4.152475178671156085e-03,2.286292790843161456e-03,4.878972172737121582e-01
-3.566187442759155904e-03,-3.096189957084033995e-01,3.037168908174239790e-01,-5.382607423406573013e-03,-3.980227833629166809e-03,2.154778524223358287e-03,5.313044786453247070e-01
-2.389066365521512469e-02,-3.311488809232669972e-01,3.102520718081453466e-01,-7.464290057618347537e-04,1.292313037130017389e-03,-1.887510425467477018e-03,5.556477904319763184e-01
-2.317802969256914369e-02,-3.144936663746497052e-01,3.064555096198605111e-01,-4.851398862719093685e-04,7.814986095259134026e-04,-2.027882348481630220e-03,5.381127595901489258e-01
-2.941864183557652002e-02,-3.317099248541486856e-01,3.120888428372665113e-01,4.251399571485307419e-06,3.920989274653426462e-03,1.287786198014316606e-04,5.579321384429931641e-01
-2.143507576318448224e-02,-3.184195981262639141e-01,3.068334652724578615e-01,5.896413149074536441e-04,-1.135980012331421450e-03,-1.333916024283812903e-03,5.417203903198242188e-01
-2.911844142483455827e-02,-3.154306271874058876e-01,2.984636932449659108e-01,-1.148297281865045139e-03,7.885626578125151664e-03,-2.945699934117443960e-03,5.322518348693847656e-01
-2.115245323799992347e-02,-3.326928298758069502e-01,3.063324488131165535e-01,7.215791795897528700e-04,3.439834155129883018e-03,-8.770007603540596209e-04,5.535051226615905762e-01
-2.020009091478030400e-02,-3.195438234320695514e-01,2.963772468395546311e-01,5.173040057864622225e-03,-3.621866306252281408e-03,8.920121935702464986e-04,5.335872173309326172e-01
-5.355821486209819127e-03,-6.057149569053141280e-02,4.063085311067407557e-01,2.786001227222810114e-02,-5.233307843508525591e-03,-4.149372551944621734e-02,4.503582119941711426e-01
-1.873033276151813212e-02,-3.300965519277732629e-01,3.001053819051746063e-01,1.470967172245448698e-03,1.053443049026883292e-03,6.546688597173623211e-03,5.459104180335998535e-01
-1.004884322625867674e-02,-3.133029140132092549e-01,2.993672519635809937e-01,5.362500689238688337e-04,-3.920605567757694775e-03,-5.583913846097390095e-04,5.306420326232910156e-01
-2.162497946383690195e-02,-3.166749960598505553e-01,3.073788912320922218e-01,1.050228933187658063e-03,-1.436575943447334410e-03,-1.738621658356311831e-03,5.407302975654602051e-01
-1.867868426232683482e-02,-3.197270910777559871e-01,3.051495729894643794e-01,1.309504252408223842e-03,-3.681126716506364933e-03,2.483979307690577752e-04,5.413213968276977539e-01
-5.630197020659385640e-03,-3.001184079527126625e-01,3.001863039465538230e-01,3.613858280684855090e-04,-4.360640355615333884e-03,-2.020299854721644729e-03,5.199769735336303711e-01
-9.829604014874185683e-03,-3.097989426605767815e-01,2.999985752744389611e-01,-7.312987604839661822e-04,-6.164216972451463245e-03,1.668082283946118339e-03,5.282405018806457520e-01
-1.675329389142150155e-02,-3.177887915350840475e-01,3.034237559083785563e-01,-2.076334379020421811e-03,-3.389346804102032467e-03,-2.288656684224467581e-04,5.381151437759399414e-01
-1.573745820101301110e-02,-3.201324795496806597e-01,2.943944682851193373e-01,4.816283165186554735e-03,-1.212640778483123604e-04,2.749861196990611469e-03,5.322903990745544434e-01
-2.141899242573772760e-02,-3.117988856436124667e-01,2.983894326582396395e-01,8.188487458671743968e-04,2.586253049748903510e-04,-5.160827762159787098e-04,5.286462306976318359e-01
-1.268527008257097979e-02,-2.773920895674724663e-01,3.102703286486110379e-01,-3.692952697715273097e-02,1.241508608804184517e-02,1.815064547264401418e-02,5.151705145835876465e-01
-4.111539876429980839e-02,-4.197207677344655941e-01,2.262140303468480607e-01,1.052757113894378128e-02,-6.186390227633484229e-02,1.916115743896113291e-02,5.735283493995666504e-01
-2.942878351400386727e-02,-3.169437233511379071e-01,2.200211657027498213e-01,1.195808133198145509e-02,-4.002673786445551385e-02,1.580800543896459728e-02,4.718005955219268799e-01
-3.066677570646864776e-02,-3.221346692192492145e-01,1.965080205252473233e-01,1.281908370208991767e-02,-2.265148991944037835e-02,6.171143153084398918e-03,4.526837468147277832e-01
-2.814396625358824011e-02,-3.046945510382290112e-01,2.185309059137533483e-01,-2.350579781344829325e-03,-2.495449910500140145e-02,-5.830523217415735154e-04,4.554476737976074219e-01
-2.584516297352303094e-02,-3.130533927935363891e-01,1.544419489504014753e-01,-2.921165427222377898e-04,-6.387314900603061063e-02,2.002495404941807486e-03,4.231117665767669678e-01
-3.961909429078915024e-02,-3.124085761941110539e-01,2.720405187536719116e-01,6.463639879239538137e-03,-3.850754879473116538e-02,9.409894255838241461e-03,5.112755894660949707e-01
-3.230336799475112125e-02,-3.360796485519129129e-01,1.899472034314549918e-01,2.660318773998681177e-03,-5.527566201731453494e-02,1.375733497616280637e-02,4.679156243801116943e-01
-3.913051514081263005e-02,-3.069330546559692063e-01,2.184353995079238997e-01,-1.749390223394407980e-03,-2.761622756793819661e-02,-8.110803333365522016e-04,4.575306773185729980e-01
4.645247411092706669e-03,-3.801435581859589630e-01,-1.262308750181735661e-02,-1.821597813941486796e-03,8.319665076564697684e-03,1.294216210651485260e-02,3.774070143699645996e-01
1.702638958117438928e-03,-3.670483407187060676e-01,1.223563829548436344e-01,-7.611732512269676725e-03,5.346794638930126020e-02,-1.225076041666549841e-03,4.514206349849700928e-01
-3.286649159753310401e-03,-3.436836716167139261e-01,1.301154561960340961e-01,-3.079225259010237581e-02,4.982163745583481629e-02,1.489056048002509493e-02,4.359268248081207275e-01
-3.760411981724838537e-02,-1.851717179396394908e-01,2.981672051484750008e-01,1.374235944252852250e-03,4.574379685556714641e-03,-4.088916721300463533e-03,4.291691184043884277e-01
-1.382850366204159409e-02,-3.540013216693784770e-01,1.790397290437952815e-01,-9.657859719844511664e-03,3.816360628916082298e-02,-3.392244723742632306e-02,4.760521352291107178e-01
-3.970881827714996259e-03,-3.618421771994518310e-01,1.729930773807330513e-01,-2.106384964411791953e-03,4.466473760679407629e-02,-5.260713033273897721e-03,4.783299863338470459e-01
-2.130698374985541543e-02,-3.135196117612087940e-01,3.044405052308224446e-01,-2.281071129538349957e-04,3.953355998732017637e-03,2.213691766959144033e-03,5.354894399642944336e-01
-1.578733997468084738e-02,-4.867265400134482278e-01,1.147979764290145699e-01,-7.875810789755864627e-02,1.164365827786573299e-01,2.934117302078231848e-02,6.018285751342773438e-01
-1.920300190227137646e-02,-3.216549484481465160e-01,3.022335737591883564e-01,-1.382335488438011660e-04,1.743041986611200368e-03,2.635735564169762717e-03,5.404144525527954102e-01
-2.464939374177657974e-02,-3.090529655370594653e-01,3.104386703152737792e-01,-1.791274142638876656e-03,6.623809888558065267e-03,-1.935985452566006682e-03,5.372356176376342773e-01
-6.769266309657823166e-03,-3.590917255063144076e-01,1.536623257223616035e-01,1.117451244866286657e-02,2.500286928689643765e-02,-1.697230295947652762e-02,4.577196538448333740e-01
1.175537836246028089e-02,-3.463738579304198595e-01,1.542107351996404307e-01,-8.559566533221721341e-04,2.368929005221185463e-02,-1.467923780388886816e-02,4.493325054645538330e-01
-2.055779413259717359e-02,-4.802350055836526743e-03,3.432035550931833434e-01,5.810422513864867307e-03,8.379366089136560183e-03,-5.211583048198840940e-02,3.678307235240936279e-01
6.726549899839460826e-03,-2.930445449309070916e-01,2.927472302188229292e-01,2.923211155927946548e-03,-9.338540850055265102e-03,-3.997563008022622481e-03,5.076873898506164551e-01
-2.871988510981338116e-02,-1.254083630616757150e-01,2.911017564827930171e-01,-1.439612607270067575e-02,1.660120652300778885e-03,5.093617537978942580e-03,3.785042464733123779e-01
-2.162602295482057846e-02,-2.018057978753627635e-02,3.405267403218737998e-01,-3.011672649683129130e-02,8.281192822192182112e-03,-4.936182878804384194e-02,3.753262460231781006e-01
-1.820733554647113728e-02,-9.226805405928878434e-03,3.334268221906805385e-01,-2.254010625006118429e-02,1.275066266261907708e-02,-1.401827345979774972e-02,3.509570062160491943e-01
-2.323196146244140003e-02,-2.846672988107470936e-01,4.306113498534744899e-01,9.434977230171279206e-02,3.519901297982120508e-02,-3.205002536693626197e-02,6.530520915985107422e-01
1.795920446014512631e-02,-2.498575167596618907e-01,2.791592307000910766e-01,2.238483136380000488e-02,-1.301251168905892541e-03,-6.361894587106079781e-03,4.599290490150451660e-01
1.675690311854625622e-02,-2.606641724633539936e-01,2.861407911154830175e-01,4.834776009140256958e-02,-9.108423369020868590e-03,-8.812792630176627742e-03,4.814117848873138428e-01
2.553765777191664352e-02,-2.790638942386349242e-01,2.816603628964357564e-01,2.082681781417298778e-03,3.640110770537829509e-03,-2.689242149520662127e-04,4.862605333328247070e-01
1.563087284557948889e-02,-3.016837230757957733e-01,2.892490405372337148e-01,3.194620659910341661e-03,1.192115546266441254e-03,-3.253421269615970005e-04,5.122632980346679688e-01
-1.819286793181996292e-02,-3.202018657345293562e-01,3.066255922137768319e-01,-1.323552825391290013e-03,2.865905165182119907e-03,-3.276397191414701809e-04,5.429961085319519043e-01
2.193018095901280717e-02,-3.133913377638689601e-01,3.055945230096276943e-01,2.679492142717855921e-02,-1.600814640428181506e-03,-8.257046813282611919e-03,5.388792753219604492e-01
5.902987079943305612e-03,-3.097917921179909606e-01,2.928981295896372905e-01,1.349586140532535753e-03,5.597686401269777760e-04,9.064920791616025734e-04,5.221505165100097656e-01
1.361485407238830804e-02,-2.997070178846973354e-01,2.964614025351836601e-01,4.210438358280818583e-03,-2.255836099551533462e-03,-4.654825540465231185e-03,5.166509747505187988e-01
1.670703984667733927e-02,-2.626090275437928945e-01,3.116056863623066220e-01,4.612474666584826660e-02,-6.363225001775967525e-03,-1.520668925714580184e-02,5.045297741889953613e-01
1.821170493527079007e-02,-3.001709006972670957e-01,2.939439483474835524e-01,4.772312144623931662e-03,-2.036087790002216215e-03,-4.243889836283632443e-03,5.150911808013916016e-01
-4.829962877599472404e-04,-3.097717198908384040e-01,1.582810067843946067e-01,4.023912428282643006e-03,-9.733891183399618133e-04,-1.818452196996069980e-03,4.123478829860687256e-01
-2.413705267825986059e-02,-3.206714019973650465e-01,3.004348646144110457e-01,-4.585034082490443280e-03,2.992953875429667796e-04,2.260600033102858433e-04,5.381354689598083496e-01
7.551196779227026257e-03,-3.159423624103308570e-01,1.299825808254198301e-01,5.291396041737079364e-03,-7.866017512383494462e-03,-7.412839183075503602e-04,3.993927240371704102e-01
-1.941376486017738420e-02,-3.215823762948070152e-01,3.046160026619741390e-01,-1.396660785751516675e-03,2.096126497921921381e-03,4.236568532588639116e-04,5.424318909645080566e-01
-2.795913160223829907e-02,-3.016548567636395117e-01,1.812399557919124882e-01,7.240196187716253784e-02,-5.907571125797304867e-02,3.804747224868840899e-02,4.543889164924621582e-01
2.965133404047887167e-03,-3.600851249972502055e-01,1.123222844599400250e-02,-4.018203908365346189e-03,-2.379674479236694104e-02,-2.807364643395840811e-02,3.728094398975372314e-01
-3.097472698556372889e-02,-3.174256042215549689e-01,2.894961784678707351e-01,-7.283151212686414348e-03,-1.120074918584986704e-03,-4.969677577943616042e-05,5.260397195816040039e-01
1.630393041397740217e-02,-3.099710180240770052e-01,1.286865627806012269e-01,-5.910772088443803397e-03,-8.054948065878081778e-03,4.701987191351397755e-03,3.951184749603271484e-01
-1.304463816413786031e-02,-3.156254145818253587e-01,3.027542899460285430e-01,-1.498641400325167756e-03,3.721990237047201420e-03,-7.763855382873356996e-04,5.356200933456420898e-01
-1.833353590764543253e-02,-3.209949584882012541e-01,3.059421849804692672e-01,-8.568219019931234363e-04,1.330482375451878807e-03,-1.840726688026692200e-04,5.430580377578735352e-01
-1.849763057000619604e-02,-3.206840635426593256e-01,3.058658212404621324e-01,-1.425018562432943219e-03,1.926456182395025951e-03,-2.878659746074011807e-04,5.427374839782714844e-01
1.202978026023213132e-02,-3.590552498746032439e-01,7.005060815569891242e-02,3.673842744793049796e-03,-1.825575241388528377e-02,4.268452861532631704e-02,4.112266898155212402e-01
1.166211287642290872e-02,-3.622705841503178759e-01,7.766650027069962881e-02,-4.573105989983762554e-03,-2.369866340011162007e-03,1.609999760416969475e-02,4.119716584682464600e-01
-4.774715794230499633e-03,-3.072673386429854991e-01,1.383267530292991154e-01,-1.059789508824181140e-03,-2.278532518139768023e-02,-1.132269775738941470e-02,3.965002596378326416e-01
-1.879239945083743465e-02,-3.276301922582533499e-01,3.049500718071979644e-01,1.022335497959271232e-04,6.776849677979561969e-03,-1.085413825620789967e-03,5.480102300643920898e-01
-2.083835085402652512e-02,-3.263989710699882751e-01,2.912122808066097690e-01,1.027252947363293221e-02,4.551047842460882210e-03,5.511899495943400722e-03,5.353159308433532715e-01
-1.541839865387316724e-02,-3.118460137302239699e-01,3.015373505381045427e-01,-1.485562626957326066e-03,1.565671248166426027e-03,-2.433844209546160049e-03,5.313345789909362793e-01
-1.705857600669254820e-02,-3.282001683829459671e-01,3.062629836661429072e-01,1.769606615423240104e-03,6.095984686273350252e-03,8.775597433765175469e-04,5.496070384979248047e-01
-1.963974705839732771e-02,-3.329964586885622024e-01,3.034026627920302088e-01,2.432901178255690924e-03,3.114645449059441629e-03,-1.398219167031633178e-04,5.512016415596008301e-01
-2.071783705463967756e-02,-3.319799758668743328e-01,2.975307927652141027e-01,5.352532263777039397e-03,9.826609630110641220e-04,4.616017017187544827e-03,5.453236103057861328e-01
-4.283805517579648142e-02,-3.033566674913790728e-01,2.570693578164047755e-01,4.353726752838245231e-04,-8.055624582514059068e-04,2.650787599081606198e-04,4.857454001903533936e-01
1.332644275268374257e-02,-3.845482736089733677e-01,-4.302782625784663806e-02,-5.044111242723459815e-03,-4.320443598409163567e-03,-6.436645395770783373e-02,3.893836140632629395e-01
-1.777085561119754950e-02,-3.211603979761121219e-01,3.058163328462113473e-01,-9.615453526467451762e-05,1.692572091884979927e-08,-3.022753242828184412e-04,5.430719852447509766e-01
1.026325702859751110e-03,-3.620227977019999099e-01,5.379858536362344679e-02,7.003061582415965811e-03,-4.009274619435021503e-02,-4.196966605966157352e-03,3.984604775905609131e-01
3.493268806921630970e-03,-3.118237220843246837e-01,2.944722840944441478e-01,-6.528741694279542075e-04,5.065168137947924018e-03,-3.995827515682490389e-04,5.252836942672729492e-01
-9.650821816905408301e-03,-3.605749468029768590e-01,1.359954969952610893e-01,-3.679844434972504019e-03,-4.964796837392506518e-02,-2.151511993676808593e-02,4.519905745983123779e-01
-4.530203290105873359e-03,-3.028672312198139593e-01,2.036300454379494362e-01,4.173516904501741245e-03,2.213207229117370931e-03,-2.157564556720981130e-02,4.426071047782897949e-01
1.095273752054799765e-02,-8.129143299406277334e-02,3.142676019012326516e-01,3.272712676119349934e-02,-2.179115968851671678e-02,-2.548385893035100616e-02,3.675240874290466309e-01
3.005095708257660148e-04,-3.377734726471824378e-01,1.171322323575714475e-01,-6.773877408993211890e-03,-1.412807818754406065e-02,-3.344273771024126873e-02,4.141656160354614258e-01
5.961308010257736732e-03,-2.934035470454259276e-01,3.020681422654435400e-01,2.863036341411394174e-03,-1.474089329172691490e-02,-5.702624103227611025e-04,5.163525938987731934e-01
-1.975120026372952781e-02,-3.194944436580543501e-01,3.042730933289452544e-01,-3.265055065395729410e-03,4.182168368598739201e-03,-7.401329560382468404e-04,5.404146313667297363e-01
-7.022670458060181753e-04,-3.614649586193692810e-01,1.371443144711113060e-01,4.770923250828813279e-03,-7.767860961522530562e-03,-1.482434321622868277e-02,4.469786286354064941e-01
-1.361498527588370783e-02,-3.132420217951427666e-01,3.021907642222302348e-01,1.639089037433308664e-03,-8.498720246721949484e-04,7.303174666114577726e-04,5.330529212951660156e-01
-1.699173939040423201e-02,-3.100690147738603963e-01,2.928705277933500439e-01,3.834333500180286611e-03,1.502884847649252125e-03,6.877527487796867168e-04,5.222784876823425293e-01
-1.452408167708160724e-02,-3.054737759146802234e-01,2.953279076179317064e-01,-3.194302460657117478e-03,5.825081201516275203e-03,-1.873280456486430424e-03,5.205326676368713379e-01
-3.986351465923466258e-02,-3.122181315894255738e-01,2.860637638803851246e-01,-3.258993628596318620e-03,-2.516603196375506637e-03,-4.037992511146999523e-03,5.189154148101806641e-01
-4.040600997944599447e-03,-3.065550702738813471e-01,2.950316113737772583e-01,2.082515189726067383e-03,3.823963471472268446e-03,-1.146676757474809802e-04,5.210468173027038574e-01
6.984450798080747008e-03,-2.268553203292794085e-01,1.597197912916502038e-01,-2.931057339382684215e-02,2.164702351368402809e-03,1.196664396472497905e-03,3.410577774047851562e-01
-2.082902713869039940e-02,-3.056018543045836422e-01,3.099083105405921468e-01,1.568250405990988207e-04,-2.655950319752333356e-03,-2.733871085331217917e-03,5.335835814476013184e-01
1.747202163431432059e-02,-3.066685043623709195e-01,2.977816295380696920e-01,-3.981805502719344171e-03,-5.044719303842917866e-04,-8.914748256034113840e-05,5.239738821983337402e-01
-1.549547644413731655e-05,-2.827825132807673669e-01,2.872545449089278780e-01,-6.426987425131104907e-04,-1.114522193881284200e-02,-6.454548245066710037e-04,4.940515160560607910e-01
2.220954384750633420e-02,-2.821236039179015331e-01,2.838000111519297652e-01,-9.316901252977714126e-03,3.125299192629027532e-03,1.583022364533220405e-04,4.908652305603027344e-01
-2.610173466973254169e-02,-3.309433131339074574e-01,2.988726929215535510e-01,-3.310396082388873239e-03,4.984435115620292588e-03,-1.114356857208089607e-03,5.456314086914062500e-01
-3.361929668925121937e-03,-2.813323958099045452e-01,2.830034769994191901e-01,-3.711641090236979246e-02,2.045924285599490591e-02,-2.578905225571405131e-03,4.942493736743927002e-01
-1.803499160592575770e-02,-3.285769978459709417e-01,2.999256893548317149e-01,2.655573221964104697e-03,2.021407664112074599e-03,4.469631267576928448e-03,5.443976521492004395e-01
1.037538614423673747e-02,-2.971899323413877969e-01,2.985655148246461055e-01,2.751768520625908626e-03,-1.929323544100195820e-03,-1.030924313016212462e-03,5.160661935806274414e-01
-2.854881050595013681e-02,-3.203367811988792058e-01,3.165672789132775167e-01,-2.895975813193871033e-03,1.149950073764967502e-03,-6.901912268318754866e-03,5.523749589920043945e-01
-3.223436163637324881e-02,-3.036205209684784689e-01,3.098990482094292620e-01,-1.124978992179406778e-03,-2.428290038032290040e-03,-3.082184736879275445e-03,5.325466990470886230e-01
-4.057125755191980099e-02,-2.317197706436300020e-01,3.041796860176671502e-01,-1.759007210373872421e-02,1.197279528132129747e-02,-9.288956084597328397e-03,4.721300005912780762e-01
-3.764957292551555923e-02,-2.733467600928652375e-01,2.733635883101793729e-01,-2.554123328128486345e-03,4.918238990200494640e-03,-1.581419101561864701e-02,4.758462905883789062e-01
-2.363446302666329796e-02,-3.310624895271039314e-01,2.627189422663786522e-01,-2.736240268515857145e-03,3.342834002576289048e-04,1.226611216521750029e-02,5.147985219955444336e-01
-2.231946006852334602e-02,-3.010273294461702775e-01,3.110735464588061938e-01,-1.225311272618454265e-03,2.521018343666483596e-03,-3.081065220940911419e-03,5.308486223220825195e-01
4.401658047235182045e-03,-2.950426418407109397e-01,2.990913516630437363e-01,-6.533137650470729856e-04,-8.028188370704849100e-03,-4.781599000824389748e-05,5.147297382354736328e-01
-2.273771029420998749e-02,-3.194730385168145781e-01,2.968722696514420334e-01,1.261049932912403993e-03,-3.079967926396169706e-03,5.332444232859502933e-03,5.340042114257812500e-01
-1.890742744979927170e-02,-3.120846952796665352e-01,3.046400530600116840e-01,1.254668793629662871e-03,-7.425749788462692423e-03,-1.369298470100398842e-03,5.344795584678649902e-01
-2.105515327686802510e-02,-3.293135601519593947e-01,3.032907912628102776e-01,-4.966183031650258685e-03,2.927722821437941329e-03,-3.164293361945017240e-03,5.480288863182067871e-01
-2.471162512540035425e-02,-3.233134512219395518e-01,2.487971598098062675e-01,-8.422733435387354597e-03,-2.049668614011021430e-03,-1.141130602091806369e-02,4.962422847747802734e-01
-6.961730581975508758e-03,-2.549174060231838568e-01,2.891623943139920438e-01,-2.344370188974267792e-03,-1.173288658547057967e-02,-2.289415493564171677e-03,4.722736179828643799e-01
-2.280649884701248242e-02,-3.137405420739737827e-01,3.101611201694926545e-01,1.457449051051773361e-04,5.282889506440830059e-03,-1.759825157448173007e-03,5.408093333244323730e-01
-2.431606480715280821e-02,-3.366454646537790363e-01,3.003014507436831959e-01,1.188029269870311336e-02,1.166735314088532954e-02,-3.159188267944518236e-02,5.551033616065979004e-01
-1.424356125243068580e-02,-3.130643611916789082e-01,3.063106009077148362e-01,-4.797003782464904489e-04,8.988256937631205340e-03,-4.979103346869543202e-04,5.367316603660583496e-01
-2.793534001830604019e-02,-2.031785552062447264e-01,2.972620469632065165e-01,-3.773297653669023099e-03,2.565257030886720739e-03,-5.481145664136061885e-03,4.400053918361663818e-01
-1.842937280535465044e-02,-3.105114040868232061e-01,2.930115208293630480e-01,9.877256686375832963e-04,3.710961195968925149e-03,-3.772089923227448871e-04,5.227985382080078125e-01
-2.904823686907249264e-02,-3.152589160266215940e-01,3.100957204453374527e-01,-1.862912790342400237e-03,2.445871078798086181e-03,-1.732946681044538004e-03,5.422537922859191895e-01
-4.669792143507715820e-02,-3.103509739217232277e-01,2.798164285329686196e-01,-1.952206827913567731e-03,-1.389149925263579062e-02,-1.070000572837136437e-03,5.126449465751647949e-01
-3.132870382524020891e-02,-3.135763872695075394e-01,2.804971950732677577e-01,-5.879763083695237029e-03,-6.959520173408789354e-03,-2.558777092156812056e-03,5.149562358856201172e-01
-2.762799321629470090e-02,-3.107730428833335168e-01,2.906450548111859655e-01,-5.107840007540741245e-03,-2.019101760830290676e-04,-1.502665984670021986e-03,5.212211012840270996e-01
-4.114980249001307100e-02,-3.101791917514918340e-01,2.776224691175440684e-01,-5.407904927602066392e-04,-3.722803059288160975e-03,-1.904316167574127616e-03,5.097107291221618652e-01
-2.587094349239436875e-02,-3.091391861038927380e-01,2.876255724449032769e-01,1.096108207129294987e-03,-2.667735679232929088e-03,-1.265601356393001795e-03,5.170632004737854004e-01
-1.337545517857261293e-02,-3.163452499085277481e-01,3.117470635025221815e-01,1.686915339183495566e-04,-2.409210162368282619e-03,-1.559735082308189372e-03,5.440794229507446289e-01
-4.207427128747620593e-02,-4.808795530597043677e-01,7.478440871481045749e-02,3.093080143197036655e-02,-4.713897317734676989e-02,8.087650852744035501e-02,5.353910923004150391e-01
1.028402453473526573e-02,-3.090550116041975159e-01,3.017450894384928750e-01,1.171345393314413702e-02,1.076010496399172275e-03,6.066143255647044735e-03,5.296483039855957031e-01
-9.273557268981137691e-03,-3.067372288162047989e-01,2.976477115996762901e-01,-3.499804229136833553e-04,5.647024777991768718e-03,-8.225301116553499240e-04,5.235277414321899414e-01
-5.409912870189617640e-03,-2.301348406114721579e-01,3.157803464596944942e-01,-7.407164992516342139e-02,-7.709312323342113675e-05,-1.680507655150808785e-02,4.931034445762634277e-01
5.124324094210243319e-03,-1.407853129900307199e-01,3.300583974234745366e-01,-5.173949074374723650e-02,2.576531079928773196e-03,2.025564616567200951e-02,4.284442663192749023e-01
-6.381162729808008416e-03,-2.023312421043592935e-01,2.920419503533326910e-01,-4.310293260031335810e-02,1.032320341460965605e-03,9.998764849653759071e-03,4.379560947418212891e-01
-3.691841130867669352e-02,-7.657994564299647200e-02,3.179659254843840155e-01,-4.121159708797651755e-02,9.794212273149412867e-03,3.499967662739957019e-02,3.881354033946990967e-01
-2.982104238836261190e-02,-8.008346362494539461e-02,2.999617317571828257e-01,-4.200491540466540913e-02,-7.198580075138878188e-03,1.003284994959057798e-02,3.655261099338531494e-01
-2.550383550992040005e-02,-1.295333069802318549e-01,2.878062619577461678e-01,-2.727892717706453460e-02,-1.043880811935382624e-02,6.863767564099231520e-03,3.798414170742034912e-01
-1.410635927889682117e-02,-3.185597165202970205e-01,2.330313171059325561e-01,-9.904060953710382489e-03,2.996359494704279366e-03,-5.943318818460484668e-03,4.789968132972717285e-01
-2.518975174473992232e-02,-3.276034771481630137e-01,3.160496737718436200e-01,-1.482754646585903498e-03,-7.502954710344256553e-04,-1.135292224742144368e-03,5.577688217163085938e-01
-2.914594599411049480e-02,-1.074121137498864065e-01,4.645281691675660629e-01,-1.008388629348181686e-01,4.874898040034647551e-02,-4.904708875735697832e-02,5.773468613624572754e-01
-1.831572337591550262e-02,-3.217799363584116223e-01,3.034476517570869336e-01,-8.935743084104209605e-04,8.287704678332907110e-04,8.907735997126121213e-04,5.415465831756591797e-01
-3.208471815630415530e-02,-3.825485249826348078e-01,3.095344857715053855e-01,-1.244787764129275500e-03,2.052926042883483626e-02,2.641419149627464644e-02,6.021759510040283203e-01
-5.378990224121024850e-03,-3.245551124774634921e-01,3.243717435312949426e-01,1.002297771886532900e-02,-1.395590419491085253e-03,2.824800578862631580e-03,5.623065829277038574e-01
-3.386184282900384090e-03,-3.146095547497884115e-01,1.821778653771352896e-01,2.177710762916753445e-02,-2.272605454191630944e-02,-1.507850207690976385e-02,4.389761984348297119e-01
-1.805816978656467689e-02,-3.189843822371247195e-01,3.603128839698427344e-01,6.028312410023849155e-03,9.179286647811014943e-03,-5.115207668412467823e-03,5.899350047111511230e-01
-2.236406970111401091e-02,-3.268133242287813434e-01,3.197102487392848302e-01,6.456655596747984741e-03,1.616549909839415725e-02,-2.426808251608029467e-03,5.610482692718505859e-01
-1.978375749231092370e-02,-3.531892635121412494e-01,3.070429690257248101e-01,1.542839225456760395e-02,1.352437841141510694e-02,-1.762503759677942761e-02,5.737033486366271973e-01
-1.125629819469032775e-02,-3.305758621558866905e-01,2.485072301570672715e-01,-4.168717347575945191e-03,-4.380977955633978509e-03,1.319169603515483492e-02,5.030123591423034668e-01
-6.949267617003609954e-03,-3.287954289669454133e-01,1.184436448769796701e-01,-2.197956850675282861e-03,2.192335663173742427e-02,-2.162356968575827182e-02,4.031435251235961914e-01
-1.138151654685226610e-03,-3.560383483848864050e-01,1.701317150354817176e-01,-9.349231070788702538e-03,6.793339476977432179e-02,3.420977928293458120e-02,4.834141135215759277e-01
-2.523233339023815691e-02,-3.395043673309960375e-01,1.950740156462901220e-01,-5.137932129214915246e-03,4.288317268674984861e-02,1.278599812266733443e-02,4.718309640884399414e-01
-3.192961523205297032e-03,-3.049920973646748634e-01,2.978736390038071447e-01,5.735332378442610903e-04,-7.345531336688301133e-03,-1.447448080612083682e-03,5.222591161727905273e-01
-9.171426408893243801e-03,-3.060609752511075921e-01,2.999051072980556953e-01,5.743342964895288040e-04,-9.175217142728724073e-03,-1.449470413773262410e-03,5.250648856163024902e-01
-1.477764336742176665e-02,-2.884849043113036915e-01,3.039051392479013569e-01,8.516498172372465210e-05,-9.705127320563855867e-03,-3.802407883436155663e-03,5.138347148895263672e-01
2.299658433314486286e-03,-3.107569884091018197e-01,2.948953855378324551e-01,9.596811686386561696e-05,4.118769354634356158e-03,1.389164046311251082e-03,5.246641635894775391e-01
-2.645467022631103893e-02,-2.043484492422293075e-01,3.519367341501702939e-01,9.694337212802142667e-02,-5.617583698357117572e-02,3.548319458106392182e-02,5.325205326080322266e-01
-2.280918186187436136e-02,-1.765071382144647039e-01,2.243723524536503089e-01,-4.619284584301513834e-03,5.193136458365397827e-03,4.495034098496430812e-03,3.505975008010864258e-01
-1.591453751354002244e-02,-3.500312267031120972e-01,2.095281173733238855e-01,-2.926713549632307954e-02,-4.750369816347498747e-02,5.331933863323955886e-02,5.056192874908447266e-01
-2.214547823548843053e-02,-2.653835041082545088e-01,3.039643705010300900e-01,-1.232990096090054747e-03,-5.780137098993964363e-03,-4.859472476010934759e-03,4.949851632118225098e-01
-2.512502993435644996e-02,-2.617197324775430434e-01,3.034981493812443087e-01,-6.062699554753197325e-04,1.742842532074963821e-03,-3.952264553415817984e-03,4.917090833187103271e-01
-2.297568236676197917e-02,-1.374230006746459676e-01,4.505921460178763382e-01,-8.310197129871403632e-02,5.908186333762344838e-02,6.539757882612452300e-04,5.681146979331970215e-01
6.423287415399454164e-03,-2.790446786685600866e-01,3.652725139006441912e-01,5.102880550268651394e-02,-7.171303544056554548e-03,-1.938746041353755709e-02,5.672727823257446289e-01
1.013257448958569673e-02,-1.610322719189524465e-01,3.057973416626955099e-01,7.401915212711751568e-02,-6.355690611307233950e-02,-5.102669479648937190e-02,4.513187110424041748e-01
8.122122117156703458e-03,-3.110094507614178938e-01,2.928332380855710459e-01,-2.779629721655576700e-04,1.658679364855701567e-03,-1.088998537908930381e-03,5.232377648353576660e-01
-2.589897174176965244e-02,-1.782711548867600415e-01,3.495549190785452454e-01,9.928685864804456807e-02,-5.061303859815795975e-02,-4.135081066204022299e-02,5.135951638221740723e-01
-4.089094497224848856e-02,-7.779069196673463193e-02,3.197545336448419095e-01,-2.574327486756233362e-03,-1.133640737844703083e-03,-6.177492113163934179e-02,3.952298462390899658e-01
-1.987427374662944363e-02,-2.615263830982214044e-01,3.030369796710352670e-01,8.037166237763625947e-04,9.135080078773911288e-03,-5.039623293742506900e-03,4.909461140632629395e-01
-1.356260752175424827e-02,-1.811071339298685190e-01,2.886079892497448451e-01,4.373657336643922353e-03,-1.332078041375798182e-02,4.635215802406692561e-04,4.130322337150573730e-01
-1.932146242202638364e-02,-2.015103999805473167e-01,2.955968119956006168e-01,-1.260091039920483227e-03,-7.487698221896253205e-03,-4.901122200608290340e-03,4.358738064765930176e-01
-3.172188896166160121e-02,-9.749043459288792013e-02,3.054566437603145612e-01,-1.173868630944293646e-02,2.796808810556783171e-03,7.160371502667742076e-03,3.752083182334899902e-01
-2.134178190422342247e-02,-1.074597679411800066e-01,2.919818477062259277e-01,-2.492105707231811323e-02,-1.445176887119897346e-03,5.126121595941894767e-03,3.667684197425842285e-01
-4.136565525207471644e-02,-1.954683229067171735e-01,2.897897924919555224e-01,7.786972116873053414e-04,-1.731259339175659530e-03,-2.776292673070632905e-02,4.321650862693786621e-01
1.029286152759913142e-03,-2.268045847164564532e-01,2.850674383525367284e-01,-5.413641433853198445e-03,-3.949444768138819783e-03,-3.371101981682882056e-04,4.443360269069671631e-01
-2.373336080801284956e-02,-3.236752215843960445e-01,3.197527495310716339e-01,-1.681384833638806166e-03,-3.013055789632641118e-03,3.590296552274866012e-04,5.576825141906738281e-01
-2.195907476795891725e-02,-2.620376098839221624e-01,3.029460266609231844e-01,6.468307818990934712e-04,1.091328168968222143e-02,-4.725164297720791176e-03,4.915580451488494873e-01
-4.087635009197301827e-02,-1.228355907171072015e-01,2.800117028571323941e-01,1.176781368144658689e-02,2.300964848609271789e-03,9.259014420270035226e-03,3.696954250335693359e-01
1.990356228313426741e-03,-3.099065482727444421e-01,2.970157320664342793e-01,-5.279499798958237240e-03,4.738634727754152329e-03,2.274192604586197913e-03,5.258361697196960449e-01
-2.394958685008074378e-02,-3.245693177080622438e-01,3.188218169088475329e-01,-1.421863963018680198e-03,-2.684085240674417144e-03,-3.224451263167817214e-04,5.576165914535522461e-01
-2.426762054042905237e-02,-5.010598715706818251e-02,3.065467394294107972e-01,4.522278752969828564e-02,-1.846306176455849574e-02,-4.746109088392427150e-02,3.641003668308258057e-01
-2.367505677795964103e-02,-1.261509161256162137e-02,3.504365489269468670e-01,-4.626143946139389673e-02,1.757036951715127901e-02,-4.015522963229927605e-02,3.848740160465240479e-01
-1.133657261436264718e-02,-2.941030017095858096e-01,2.995411116585158795e-01,-1.247645924139326830e-03,1.086634005334572925e-02,-2.911845170540454299e-03,5.146765112876892090e-01
-3.124691330628642794e-02,-5.396022343946427213e-02,3.311815234130654484e-01,-4.550408323612964434e-02,6.415650694103687893e-03,-1.484871419943719489e-02,3.835349082946777344e-01
-2.041894677627420496e-02,-2.278022745585630837e-01,2.853871391562265436e-01,-2.934347183096273556e-02,-1.152656506204090096e-03,-1.699208422814279260e-03,4.500445127487182617e-01
-1.322634857629082644e-02,-1.921967752188275813e-01,2.824475654464732033e-01,3.426241854719429356e-03,8.641750645378381071e-03,-1.659216155063199943e-03,4.154971539974212646e-01
-3.129218730679864113e-02,-5.100525594597693502e-02,3.322708312517858031e-01,-3.116251621862931812e-03,5.145153645458581081e-03,-2.225438334176949029e-02,3.759360909461975098e-01
1.383050152404857736e-02,-2.818570624535018943e-01,2.880621590701039070e-01,2.701793124074784811e-03,1.083352206560137844e-02,2.186820958741810894e-04,4.940598905086517334e-01
-2.573243040900557999e-02,-2.276369059654153038e-01,3.979332733911022379e-01,1.011132451951100575e-01,-7.068825913331476529e-02,-1.479912919299155964e-02,5.933946967124938965e-01
-2.000753205090332471e-02,-2.337165514986513926e-01,2.915415211759924685e-01,1.465823248774313645e-03,1.258123131371580508e-02,-2.618360455763191642e-03,4.580579400062561035e-01
-2.863027673250462257e-02,-4.608041910139616670e-02,2.960740901958698323e-01,-1.068109857554264304e-02,3.288654990094258654e-04,-5.736285830349228433e-03,3.344321548938751221e-01
-3.845575938555202689e-02,-9.156306732344338117e-02,2.784246981648316743e-01,-5.242058168808080322e-03,-2.349351584031196191e-03,1.885734064554970115e-04,3.466430306434631348e-01
-3.428889589004234517e-02,-1.382955788630217675e-01,3.034577844340127784e-01,8.827310301486450709e-04,-5.602705369657100427e-03,9.087000866732645316e-03,4.004526734352111816e-01
-2.853235153545333191e-02,-1.377889380034706679e-01,2.860133297244665807e-01,-1.869093142127324289e-02,-8.587501234360030503e-03,3.761591553889176605e-03,3.828236162662506104e-01
2.313352817906864575e-02,-2.776807058157890196e-01,2.774848449474718870e-01,1.315035376635014398e-03,-1.586930906359722586e-03,-8.243028660145801530e-05,4.813616573810577393e-01
-3.458558716218382290e-02,-1.587985224198630030e-01,2.995135074400943620e-01,-9.233609233474304387e-03,-4.124458848556751024e-03,1.633390844034296463e-02,4.118952453136444092e-01
-1.731947583565602786e-02,-3.120607098274786884e-01,2.925964290833123482e-01,4.617883376885890262e-03,-6.295989865204897409e-03,-6.039436418363570806e-04,5.238790512084960938e-01
3.801899550649785395e-03,-2.994749688918992292e-01,2.924870932082570540e-01,3.230682562675795218e-05,3.484062391263862031e-03,1.466359562740344102e-03,5.127478837966918945e-01
-1.834596678414796359e-02,-3.066259597257529612e-01,2.903398326420469910e-01,3.754789327051065179e-03,-8.550499959149682888e-03,-1.759317504885652209e-03,5.173500776290893555e-01
-2.904790028372603722e-02,-3.114800176950868749e-01,2.874538547421340851e-01,-2.670428593528614142e-03,-1.922155275467836736e-03,-4.210545930853293317e-03,5.190541148185729980e-01
-1.366368310950643282e-02,-3.121921496993002587e-01,2.934648693074840553e-01,-2.893581080796887514e-03,3.822278908787228330e-03,-3.390941918441317971e-04,5.245980620384216309e-01
2.687231648888885327e-03,-3.270341213834215277e-01,1.293705714359043302e-01,2.807024012041252955e-03,1.556811380673511942e-02,1.725466485688725848e-02,4.100962579250335693e-01
-2.854329937373230319e-03,-3.161880404968956393e-01,1.461002973214447220e-01,5.888121876577991250e-03,-9.345202827311870422e-03,1.506203076709032758e-02,4.099812209606170654e-01
1.029431280265530151e-02,-3.006071392234493378e-01,2.916719740282002205e-01,3.220059145958637480e-03,3.749098038800315362e-04,2.310013193498215364e-03,5.131874680519104004e-01
1.989871263282816730e-02,-3.012430133423458223e-01,2.854744435963357807e-01,-5.655739749850714412e-03,-2.067596168967491578e-03,-2.329137217777992909e-03,5.089941024780273438e-01
5.612684421055284117e-03,-3.092457101221868232e-01,2.893407464669318085e-01,-5.188395425247098111e-03,-1.518127133096455273e-03,-1.847100511114062706e-03,5.187190771102905273e-01
-1.701961497417656122e-02,-5.906157224052486221e-01,3.461868800352316256e-02,-7.366417698063407182e-02,-2.552151040360788048e-02,6.143015787360887880e-02,6.251822113990783691e-01
-1.149897841346544242e-02,-3.512672996824919291e-01,1.683903505104641096e-01,-1.168283840526398824e-02,2.665558262179881094e-02,5.443057721246184061e-02,4.694171547889709473e-01
6.207798311271231495e-03,-2.155221346007914485e-01,2.837072900687846455e-01,-2.258625593445885097e-03,5.997539927964769778e-03,1.230521004393521833e-03,4.333910942077636719e-01
9.752561440958233338e-03,-2.757738636304919444e-01,2.814610097821648171e-01,-1.143817956922112394e-03,-6.772915771952341471e-03,-5.837057586252777323e-04,4.827766716480255127e-01
2.155427066490062799e-02,-2.947302368945518558e-01,2.845243464000467570e-01,-2.033996521840185801e-03,4.715670887785198477e-04,-1.195637460257420763e-03,5.023742318153381348e-01
-5.203883514560275758e-04,-3.663728263225231041e-01,1.512868086268983892e-01,1.537553141944576632e-03,-1.809130025893777166e-02,5.496378411756037280e-02,4.716826081275939941e-01
-1.784923005420104014e-02,-1.343593677516849716e-01,2.781731689396176321e-01,-3.275734115749097137e-03,-6.824314560827306197e-03,2.000913193663573456e-03,3.686155080795288086e-01
-2.488265563878586106e-03,-3.442015800264359160e-01,1.449977846952821559e-01,-1.120876725084920915e-02,-4.431965258839420940e-02,3.720747953174679407e-02,4.464760422706604004e-01
-8.964640337927848313e-03,-3.149353228427700380e-01,1.220005583462643040e-01,6.460404867672613766e-03,-3.317779654242347664e-02,-1.858422673946792019e-03,3.927840590476989746e-01
-1.593902175843900718e-02,-3.225361230246656108e-01,2.750521851348243230e-01,-6.567037580548057071e-03,1.770761488678008035e-03,1.126764903389732096e-03,5.177232027053833008e-01
2.352878255196946128e-03,-2.170054391713902853e-01,2.801840852266332949e-01,-2.772177159187757395e-03,2.932855346651949604e-03,7.020726108833593966e-04,4.316285252571105957e-01
-2.023882161758874809e-02,-3.324989694325716783e-01,3.391736598460078356e-01,-1.073595879244570832e-02,7.033123237020249413e-03,-3.942395988206696608e-03,5.826274156570434570e-01
-1.511580581922948932e-02,-3.141604079314310738e-01,2.986760760640302381e-01,-2.066582586917333712e-03,3.223269869014598089e-03,2.874617092652644122e-03,5.308479666709899902e-01
-1.898090409799284284e-02,-3.493680990088437466e-01,3.380009311273510786e-01,-9.563101765925145423e-03,1.075088737607912508e-02,-9.669541157642756735e-03,5.961841940879821777e-01
-2.051656958079349502e-02,-1.818043956305051279e-01,2.954550129271525938e-01,1.131999469775321794e-03,1.060793376801045032e-02,-4.012581174341390590e-03,4.209559559822082520e-01
1.352508729208162959e-02,-3.009336494121832017e-01,2.989216586079413984e-01,5.382820405822774656e-03,-1.505821072889590049e-03,-5.960470175065358742e-03,5.198858380317687988e-01
-4.536293419690130141e-03,-3.245913000419540784e-01,3.163613114737080512e-01,2.625214683712640603e-03,1.656207592354347682e-03,-1.621866459456550733e-03,5.551145672798156738e-01
2.064256255243687721e-03,-3.420756120583718918e-01,3.143486609282618027e-01,-3.234040217238143972e-02,1.094975174265310283e-03,1.391041041941976607e-02,5.719659924507141113e-01
-1.585890839243613709e-02,-2.990062503071219679e-01,3.020698071920335792e-01,-6.629510133058141895e-04,8.542118611549926604e-03,1.573185202099514155e-03,5.210560560226440430e-01
-2.295634923452406773e-02,-1.345963581766944361e-01,2.836365330474087676e-01,-1.070524020086457669e-03,-6.791766531676070653e-03,-4.032380839161055002e-04,3.752772808074951172e-01
-4.025461197668650515e-02,-1.050990933256389925e-01,2.791324230451794897e-01,-8.798062878940466139e-04,-4.205448845873810751e-03,-1.688994100067474574e-03,3.563527762889862061e-01
-4.881457858473286365e-02,-2.084127604686270285e-01,2.939293613826260976e-01,1.271043821476402656e-03,-7.677025230256457645e-03,-4.930255448396446416e-03,4.448605179786682129e-01
8.123569757234208252e-03,-3.093421537472348382e-01,2.973627788864783850e-01,-7.239000534646714696e-03,-4.428993060500103184e-03,2.787943404539393495e-03,5.258390307426452637e-01
-2.894252348358825749e-02,-1.993318733511615648e-01,2.978331975349064464e-01,1.421009843640008014e-02,-1.317354721756567454e-02,-1.542025029851814243e-02,4.396973550319671631e-01
-2.653744593337056552e-03,-3.128222371839435856e-01,2.972918910079137556e-01,-1.441286836431157365e-03,-2.558435563495085191e-03,1.545182407585332543e-04,5.284236073493957520e-01
-3.259719604947156069e-02,-8.796919279406290038e-02,2.834225056111803198e-01,3.262680460127223223e-03,9.613409614114655022e-04,1.998830514401728296e-03,3.471020758152008057e-01
-1.444834786991390507e-02,-1.935838931366836435e-01,2.756694005162927397e-01,3.376194554581117904e-03,5.409548672057369958e-03,-2.892882595271530251e-03,4.103356599807739258e-01
3.861049411061667422e-03,-3.403131062116880878e-01,3.224695336984187422e-01,-3.271260840708056089e-02,3.958735618119966354e-03,1.216894113818318968e-02,5.773435831069946289e-01
2.056549306629386689e-02,-2.823230531745539729e-01,2.822360956223354256e-01,4.626137951965545239e-03,5.250701254731472006e-03,2.559424313030962943e-03,4.895268976688385010e-01
-1.767361888487653868e-02,-2.332881124994707622e-01,2.909482040506299327e-01,1.914643201621127940e-03,1.333153732342474453e-02,-2.762952749351096741e-03,4.569983184337615967e-01
-2.913210259367517152e-02,-3.164385766960690627e-01,2.720269177059731480e-01,-7.872687742616594694e-03,-4.982258702306584242e-03,-6.121334013054207865e-03,5.100387334823608398e-01
-3.840793189878469183e-02,-1.102056474336861602e-01,2.775845215023932111e-01,4.027518654485450107e-03,-3.928162433335677037e-03,6.551156008478298829e-04,3.574771583080291748e-01
1.558942993883802482e-02,-2.995592162735954966e-01,2.924569168375650285e-01,9.756895482336470915e-03,3.035244975045475226e-03,3.921670217359556065e-03,5.134083032608032227e-01
1.345540566033418504e-02,-2.919932107677178368e-01,2.872373053844525792e-01,2.187668061578519445e-03,6.448532130698316628e-03,1.410993865156858027e-04,5.020167827606201172e-01
1.991194074589066471e-02,-2.888874333544495521e-01,2.837554825971338457e-01,1.289685618104955550e-02,9.093719386804691466e-04,-9.680991545945425597e-05,4.969373047351837158e-01
-9.738338095222454083e-03,-1.680533500362555444e-01,2.759681454704185355e-01,5.124690871139719710e-03,-3.830339819679438786e-03,-1.889696283167017999e-03,3.899448513984680176e-01
2.367865304437033469e-02,-2.296555660264567589e-01,3.062449196980031596e-01,5.235887629516273317e-02,5.767495561981290583e-03,1.175620441460272121e-02,4.736500680446624756e-01
1.447016209986145240e-02,-2.702843984947598255e-01,2.824350447710527456e-01,1.516944778627227382e-02,8.094160014538696185e-03,-9.018513740477191853e-04,4.796705842018127441e-01
4.484762604455252988e-03,-2.419793350122448894e-01,2.823165855906825672e-01,2.183696840007636527e-03,6.543274308670756455e-03,-2.214038154317763199e-03,4.544976353645324707e-01
2.846090375692423777e-02,-2.777787972082769730e-01,2.804062540599319697e-01,3.701511357556456876e-03,6.868489264219375303e-04,-3.031218546432385037e-04,4.842082858085632324e-01
2.408051849155049343e-02,-2.820036910919049289e-01,2.822694074835608857e-01,1.366099556907694615e-04,-2.249772396671358230e-03,2.741785426580073187e-04,4.892770648002624512e-01
2.996111840553985009e-02,-2.782869677507026074e-01,2.815988997145444372e-01,3.767946709940687717e-03,-6.775672543281577222e-04,-7.287201673417564212e-04,4.857477545738220215e-01
-2.919053679647648503e-02,-3.176807751964423887e-01,3.052780941702099016e-01,1.604108588968569801e-03,1.801911895933480190e-03,-2.509527912940076729e-04,5.400041341781616211e-01
1.479683790486641115e-02,-2.401081328486190380e-01,2.850452067957900959e-01,1.359693613787813123e-02,-1.104360329252969050e-02,-7.955553385646202229e-04,4.558736681938171387e-01
-2.059371152353710321e-02,-3.233425172812848247e-01,3.204046184648465245e-01,-8.375611415287622470e-04,5.476376217873366948e-04,-4.884398065858215881e-04,5.578326582908630371e-01
-1.710861096089653227e-02,-3.201665014190125946e-01,3.171888497990316136e-01,-1.905156075861318609e-03,-6.629884257236134254e-03,-5.694956834307594515e-03,5.524042248725891113e-01
-1.843475251438505755e-02,-3.176147451146718037e-01,3.253132821369046912e-01,2.520327438224264759e-03,-1.323391333318266801e-04,-4.379015752700213780e-03,5.573065280914306641e-01
1.218789623193587517e-02,-2.632904083039258603e-01,2.851031017978361559e-01,-1.228905841664193130e-02,-2.006173380682502866e-03,2.282730590676308334e-04,4.754140377044677734e-01
-6.646579631584492720e-03,-1.560821115517864732e-01,5.411519643892916953e-01,7.184842692934705066e-02,2.504944654963530207e-02,-1.433417130099308087e-02,6.498154997825622559e-01
-2.245413912583962834e-02,-3.363537419594103683e-01,3.198663266667769456e-01,-5.426584196339568657e-03,2.178021671634489814e-02,-8.397917356719462531e-03,5.699943900108337402e-01
-4.318757635243788279e-02,-3.068754174490020414e-01,2.822408819625579768e-01,-4.169716260321552361e-04,-7.570195415258934059e-03,2.376726344516233696e-05,5.112914443016052246e-01
1.500031042402117862e-02,-2.736858334035921492e-01,2.843156306118685417e-01,-2.696392403984740772e-03,4.263227713277712577e-03,6.868841819138659342e-04,4.834209084510803223e-01
-1.114460519495611042e-02,-3.261971977980674953e-01,3.052595003846277910e-01,2.058512380088677463e-04,8.207219212437728839e-03,4.450699629510388713e-04,5.470433235168457031e-01
-1.607264966412198792e-02,-3.090237527538052253e-01,3.908210487822907364e-01,-6.703208111778596878e-02,3.994078008247293338e-02,-3.184868874424776064e-02,6.260123848915100098e-01
-5.098535653020472291e-03,-3.177354073093150988e-01,3.174275821949091858e-01,-1.395695459149897712e-02,4.756051720866868657e-03,-3.873796717902661026e-03,5.507228970527648926e-01
-3.452216875574744270e-02,-3.197060039383096131e-01,3.005078315822689028e-01,-3.677198851101087080e-04,-2.203399181447095179e-02,2.916162796868018107e-03,5.390755534172058105e-01
-1.277538142528347048e-02,-3.213799704209816532e-01,3.200554833950409739e-01,-1.542074426919389863e-03,-9.843591529283525488e-03,3.324049956547025543e-03,5.559291839599609375e-01
-2.550794431515390759e-02,-3.159876059129733683e-01,2.924826328653263863e-01,1.422292946520737787e-03,6.849772674761390274e-04,-1.954167549900676841e-04,5.271373987197875977e-01
-3.035841749676616852e-02,-1.031849744386217071e-01,2.780366419649065168e-01,-2.755282104269374775e-03,-6.528525197535045479e-04,-1.281406328827088513e-03,3.505703210830688477e-01
-1.690838672649558339e-02,-3.116496860289131865e-01,2.956222675436465108e-01,-5.086245243058108587e-06,-1.245804098840852265e-03,1.012418374090343293e-03,5.259954929351806641e-01
-3.183083225798048060e-02,-3.101845142869197880e-01,2.358613526840637742e-01,9.140787171408454315e-03,-3.542364700902549211e-03,-3.562783008662147202e-04,4.732247591018676758e-01
-2.478171598928392144e-02,-3.159673995383172063e-01,2.713782129685266553e-01,5.534788476573296138e-03,9.193468802001595339e-04,-1.160230310304725650e-03,5.087590813636779785e-01
-2.501761530102322023e-02,-3.462641635033968379e-01,1.817953722554417617e-01,-3.411206874539721417e-03,-3.478708498728085713e-02,1.428782011881184720e-02,4.654961526393890381e-01
1.985203992723820476e-02,-2.692096677613825539e-01,2.974213057728339327e-01,-1.188859398451088019e-02,5.722394873091424250e-03,-1.274640940602709931e-02,4.917780756950378418e-01
-2.872601182064246986e-02,-3.183368114754401845e-01,2.662843344177392990e-01,7.365744255730439886e-03,8.123532295355756494e-03,-8.659695478024620127e-03,5.068820714950561523e-01
1.338074697426331477e-02,-2.849636865191108037e-01,2.891254388530060115e-01,6.425449681055543465e-05,7.609118668732590789e-03,-2.301705119428388863e-03,4.974947571754455566e-01
-3.112103775723059490e-02,-3.162059084900825101e-01,2.778612205531154067e-01,6.842052693606550176e-03,7.976616142573952385e-04,-2.685488198027895495e-03,5.147752761840820312e-01
-1.747212920100364372e-02,-3.105838576885192048e-01,2.985330332757641925e-01,-4.253853236963905135e-04,-8.671589528138419663e-04,-2.912006361731082123e-03,5.276616215705871582e-01
-2.385266742362473699e-02,-3.184804520046474741e-01,2.838876790245968840e-01,3.950948447634327308e-03,3.803958114365256493e-03,-2.526898604900171263e-03,5.218121409416198730e-01
-4.221186148665578841e-02,-3.067751929618181550e-01,2.890004018559422794e-01,2.137581449394968230e-03,3.050931868755961483e-03,1.312592196512594187e-03,5.170770883560180664e-01
-2.843801672118580551e-02,-3.086655553759617976e-01,3.026120531053844709e-01,-1.833763956009264997e-03,-7.305707156684668538e-03,5.591896398166650538e-03,5.302404761314392090e-01
-2.348965188405328919e-02,-1.352562563745272062e-01,2.801084847732049354e-01,-3.063153572577599799e-03,-4.966740375561299811e-04,1.343683724283597429e-04,3.723233640193939209e-01
-3.346973016464872136e-02,-3.040031117225373558e-01,2.376454741589529851e-01,5.062675406861718783e-03,1.439055861764692440e-02,3.638643469559691909e-03,4.698673784732818604e-01
-2.711296480530665798e-02,-1.209899808134872745e-01,2.808620760903993152e-01,1.573325250579143573e-03,8.286706432934592276e-03,-2.027231118546322930e-03,3.644160628318786621e-01
-2.865930032055155618e-02,-2.218732595207349167e-01,3.273690328169576724e-01,-3.668834849740267717e-02,2.146144049292771690e-03,-4.505692467898252812e-02,4.929703474044799805e-01
-2.632624808005491757e-02,-1.886952876802166501e-01,3.366068687446854835e-01,9.903788323043044572e-02,-2.930717746595167678e-02,8.323754571905869065e-03,4.992227554321289062e-01
-3.841186909243805847e-02,-3.071395964367114595e-01,2.820859790908959441e-01,1.747182709780270050e-03,4.186009348663989257e-03,1.980925168499196934e-03,5.110123753547668457e-01
-2.737605475117215609e-02,-2.619283956561254678e-01,3.059262350917776874e-01,2.107118487309216689e-03,-1.479587071719515659e-02,1.312650082568295575e-03,4.949316084384918213e-01
7.228079367614772925e-03,-2.418915631203779060e-01,2.792723801521391769e-01,2.749833073938320015e-03,6.460159718164610286e-03,-2.851717097260609863e-03,4.516775012016296387e-01
-4.489504878216890593e-02,-3.081800287234870428e-01,2.715903111259488356e-01,-5.922760780778490476e-03,1.802738484963701052e-02,-1.600567600788043669e-03,5.038806200027465820e-01
-4.710397647392840226e-02,-3.035010539884469560e-01,2.846342032643662812e-01,5.327926313949918769e-04,2.487402514858725634e-03,-3.839329407793132807e-05,5.107502341270446777e-01
-4.289269371302861789e-02,-3.060190470252215911e-01,2.924855116393647037e-01,1.073566560875914208e-04,1.539781174111357108e-03,-1.924931674442967571e-03,5.195951461791992188e-01
2.020502900962954304e-02,-2.670583470016632543e-01,2.808718521826890635e-01,6.753019531971778122e-03,5.755893744895344832e-03,4.051601320003584555e-03,4.750083386898040771e-01
-2.656779898437950510e-02,-1.770284798665404391e-01,2.853397569619565699e-01,1.406207317310320670e-02,-1.084714447257861467e-02,2.323273560137232435e-03,4.096546769142150879e-01
-2.301944814077763746e-03,-1.631517066800708127e-01,2.728597613038731273e-01,6.518534969170904081e-02,-6.570369099173231642e-02,1.758086793571568204e-02,4.152973294258117676e-01
-8.914729982000893505e-03,-1.639940194401051932e-01,2.740875473814371466e-01,6.599315627804298867e-02,-4.243523375033196599e-02,1.426661046390199569e-02,4.087857902050018311e-01
-1.980250839369919469e-02,-1.404812283975870602e-01,3.365619944967771504e-01,7.598222007548659229e-02,-1.805868018423493690e-02,2.238841015498820725e-02,4.520692229270935059e-01
-2.832393532090915489e-04,-1.159422185710460018e-01,3.662137868224745185e-01,5.964614362219786831e-02,-6.712805052426952523e-02,4.942815459029063774e-02,4.707511961460113525e-01
-4.798345913877219426e-03,-2.310798879669485051e-01,3.205356680014893600e-01,2.673372379717285988e-02,5.745205528095489837e-03,-7.503498531399811246e-03,4.827780425548553467e-01
-1.764959603619355513e-02,-3.208846681830446190e-01,2.932316436940121118e-01,-6.275472106902441581e-03,-1.207760603905344999e-03,6.653322271285608269e-03,5.320940613746643066e-01
-1.600096042157708731e-02,-2.746156816858525973e-01,2.378241123421416248e-01,8.800644952787241293e-03,-4.120980553874205830e-03,1.655973468787331690e-02,4.450366497039794922e-01
-2.475510297436625887e-02,-3.161817815795228692e-01,2.833014145287677810e-01,-8.966666527390072458e-03,-1.413194048061008727e-03,4.902871663336325590e-03,5.195416212081909180e-01
-1.876000850026907085e-02,-3.186724983045991499e-01,2.415100297512759453e-01,-8.222854207300227258e-03,-2.837032738159129489e-03,-5.520109240823552546e-03,4.858648478984832764e-01
-1.871592291388897780e-02,-3.229832885819136079e-01,2.690306111517137277e-01,-4.962581888470160053e-03,-3.500848042304092068e-03,-4.376294230954415505e-03,5.129294991493225098e-01
1.794350636253824738e-02,-2.850204291984422822e-01,2.844877887746819489e-01,6.473087265191333501e-04,3.861384276409417313e-03,1.568656776583920087e-03,4.935986995697021484e-01
-2.364194683511773934e-02,-3.153379501364119153e-01,2.618327678304559480e-01,-8.456303065477104725e-03,2.763761053472460613e-04,-1.500149138158813700e-03,5.000756978988647461e-01
-1.067671520883860942e-02,-3.210186360112777804e-01,1.889781139210018057e-01,-7.901360796307007814e-03,1.453190666701420324e-02,2.303932865058623981e-03,4.460629522800445557e-01
-4.415996780310765812e-03,-3.147600107821973969e-01,1.973659589016162064e-01,-1.777619897873145439e-03,5.504464987002607827e-03,-6.416934686824942412e-03,4.470739364624023438e-01
-1.868260995690375348e-02,-3.254264736875392972e-01,2.533173732706572312e-01,-3.150753969326044839e-03,9.986771405377023805e-03,-7.880108719295826928e-04,5.018376111984252930e-01
1.764043205550566706e-02,-3.153011811346279059e-01,8.290581804840493896e-02,5.351077277591150677e-03,-3.805941515963905467e-03,-1.901176026018782045e-03,3.701073527336120605e-01
8.219208335119292108e-03,-3.143524992439721277e-01,1.564814717354888196e-01,8.167056384064400737e-03,3.571988322865332893e-04,8.216293643069213712e-03,4.174475073814392090e-01
-6.964128118680593116e-03,-3.559666624737514162e-01,1.024430285869093737e-01,1.162252936201940354e-02,-2.208248655479227995e-02,4.323889117119123632e-02,4.235953688621520996e-01
1.667070784486619772e-02,-2.742237992110774236e-01,2.792670104481414506e-01,-2.713925231143301392e-03,2.869986530574778708e-03,7.247124807883754440e-04,4.795963168144226074e-01
-4.864764885702863029e-02,-3.088047949689610716e-01,2.966703673966292198e-01,3.936903793021029980e-04,-2.361051643331680758e-02,-3.148153272719700444e-03,5.276985764503479004e-01
-4.663946640017528622e-02,-3.585489566132614714e-01,3.193617538994119598e-01,4.965575790445093778e-03,-5.286481496059121377e-02,7.730451440416311222e-03,5.950134396553039551e-01
1.653773840327488198e-02,-3.040775491966221655e-01,2.913134925517013030e-01,-1.056350169895937767e-03,5.690605774455624252e-03,1.275747458003564797e-03,5.162349939346313477e-01
-4.195691152476291319e-02,-3.182484676420059277e-01,3.034691718992318377e-01,4.601497258292682781e-03,-2.608256010180109996e-03,4.468388877700937324e-03,5.396650433540344238e-01
-4.589647488319834046e-02,-5.975204834528005104e-01,2.937002561382506816e-02,-2.155869896216469281e-02,-1.856739818575907711e-02,1.704078178641119622e-04,5.948962569236755371e-01
-4.315202173505430783e-02,-3.481267608883506504e-01,3.025055262818642787e-01,4.676539517437168806e-04,-4.746187195398558073e-02,8.888946611559053398e-03,5.700010061264038086e-01
-2.557888972674194142e-03,-2.688945708310122584e-01,2.929443933368904851e-01,-1.400747566799592000e-03,1.386745081243160975e-02,3.607161422891418286e-03,4.874235987663269043e-01
-2.595890397632837077e-02,-3.280297234997952560e-01,3.060370904294905658e-01,-2.322563879208810501e-03,-1.165115340338192728e-03,5.353035947548669647e-03,5.494184494018554688e-01
2.910738865054413038e-04,-1.528865425088051788e-01,2.925437410502527147e-01,-6.066136580056053634e-02,7.998148566512124080e-02,-1.884564345738815429e-03,4.288155138492584229e-01
-4.247868538731899846e-02,-3.280012576654949275e-01,2.627655354571286628e-01,1.776800244107411839e-03,-3.843375980996384389e-02,1.720185215634412613e-03,5.160437226295471191e-01
-1.396220821440196172e-02,-3.158152424013958570e-01,3.130987891367567610e-01,3.502304469961523177e-03,-3.110807141674105328e-03,-7.045150637238569878e-04,5.448631048202514648e-01
-4.324270661575278785e-02,-3.077730393135182929e-01,2.746990990943900535e-01,8.457860166339968696e-04,5.498777056536229848e-05,4.023133750044195615e-04,5.051447153091430664e-01
-1.927810970086996090e-02,-2.277351828845496362e-01,2.955145455289158729e-01,-2.294641892074045317e-03,1.495988715072849203e-02,5.766983779613326852e-03,4.571175873279571533e-01
-2.346763755806334506e-02,-5.588704044779553293e-01,2.143342543979168680e-01,-6.799530136684586203e-03,-9.543858578053503183e-02,5.410045354427898967e-02,7.118781805038452148e-01
-2.111018529317882850e-02,-3.161131434607165058e-01,3.223315074786510803e-01,-2.731810628868676198e-03,-3.481263647559266691e-03,-8.339076416771043845e-03,5.536809563636779785e-01
-3.183944626999182098e-02,-3.152157970444658952e-01,2.878228607109615256e-01,1.323117048334208770e-03,-1.512957334080530921e-03,3.052806706663779499e-03,5.226001739501953125e-01
-1.332394262122084437e-03,-3.151615147954378582e-01,3.183479781244707985e-01,6.936290115681893222e-03,6.388073390723086886e-03,4.383611315022441224e-03,5.489386916160583496e-01
-2.212465292411405771e-02,-3.656585020284275900e-01,2.909774206590238776e-01,3.015814788690825490e-02,-5.514503390707670843e-02,3.434950092515422215e-02,5.822376608848571777e-01
-1.869261139831024029e-02,-2.831496424706634318e-01,3.043797549759742482e-01,1.242007097301423479e-03,1.455315436713838957e-02,4.318972365590271513e-03,5.103410482406616211e-01
-3.249734413958849100e-02,-2.968052457652921583e-01,2.136315988275511724e-01,3.855057972534284283e-03,-4.120391886859105408e-03,2.325308170250209652e-03,4.422710537910461426e-01
-2.960976623408398400e-02,-3.188440052991802220e-01,2.967273779957059765e-01,4.841278884177866414e-03,-1.785972773655202872e-03,7.030270174146629331e-03,5.336369872093200684e-01
-2.483506471644178482e-02,-3.688685758574527518e-01,5.752216349497962788e-02,-3.661671822612891369e-02,2.996473087876848698e-02,3.126238808275479467e-03,4.002758264541625977e-01
3.263655890687951200e-03,-2.016181322044148516e-01,3.344435192763777764e-01,-6.956079084663222001e-02,3.310711998037429646e-03,-2.319022232081752177e-02,4.854603111743927002e-01
-2.829890140735650834e-03,-3.195713379254571662e-01,3.134048318803917543e-01,-7.276791303080227917e-04,1.041183536280454285e-03,4.126417009950415771e-04,5.481783747673034668e-01
-4.173022219299564808e-03,-3.244831345461427485e-01,3.081206805429325124e-01,9.227775479675121365e-04,1.130297933241737303e-03,-3.621242929549110638e-03,5.479073524475097656e-01
-1.011054893562629911e-02,-4.897215843383870837e-01,4.067705357209038808e-01,8.803958706938218304e-02,-1.221047080842979776e-01,1.291276528661553132e-02,8.199019432067871094e-01
1.001853326235360719e-02,-2.248727888638367978e-01,2.767679973665224669e-01,4.569506289021979181e-03,-2.249798891220243773e-03,-2.112693966007384017e-03,4.348304867744445801e-01
-2.246963488362566791e-02,-3.982908596376105170e-01,4.588239372687092921e-01,5.296227921463296517e-02,-1.500530060360969614e-02,-1.202626574463777978e-02,7.505263686180114746e-01
-2.531374671689267178e-02,-3.856475895778055385e-01,3.637803326522419112e-01,-4.751535878792536444e-03,-8.177082794014869710e-04,5.336761491736069160e-03,6.493024230003356934e-01
-3.403015795785885311e-02,-1.091847424359681795e-01,2.782455236356353723e-01,3.785383459043931576e-03,-1.912503417375553899e-03,6.366143804835295303e-04,3.559331893920898438e-01
-2.467126094960937072e-02,-3.160768324887263114e-01,3.116567890777898198e-01,-5.116642176832944360e-03,-1.986779655311673564e-03,2.965837248229904761e-03,5.442043542861938477e-01
-2.840858970525405452e-02,-1.654925384051758319e-01,2.869713857032651361e-01,3.098154060654247782e-03,-5.712183791644010779e-03,5.549115634551411713e-03,4.021307528018951416e-01
-4.302173633768742456e-02,-3.089616040532718877e-01,2.697923801869092642e-01,3.962986877817296222e-03,2.219456449460157591e-04,1.920904428990246509e-03,5.018214583396911621e-01
-1.212373006374697394e-02,-3.627716588145044052e-01,3.363526504254255034e-01,5.748120774268519750e-03,-3.622123884627238746e-03,-1.785980808986546318e-03,6.055826544761657715e-01
-1.992096502090814208e-02,-3.478605859790631638e-01,3.628115060896159316e-01,-3.553540973271114307e-03,3.003726215506851913e-03,-1.269406654852485612e-02,6.165144443511962891e-01
-3.733430785163356636e-02,-3.141256771548925908e-01,2.812288474348630940e-01,4.083586025505859737e-03,5.549051832593891558e-03,-1.371530425598074289e-03,5.161584019660949707e-01
-2.900703195348744781e-02,-3.212700247683775157e-01,3.454774439173145528e-01,2.513764021767940678e-03,-2.760293580820709358e-02,-6.635292361987059351e-04,5.808702707290649414e-01
-1.737765089827377624e-02,-3.487926209768193453e-01,3.124137940999515139e-01,3.562154249658328834e-03,-5.701692040757194019e-03,-7.995210505855271724e-03,5.729079246520996094e-01
-3.294470091784247601e-02,-4.047796524020058073e-01,2.179019039370369004e-01,2.017351282081463262e-02,-6.002157868191722312e-02,6.203610577707046616e-05,5.536131262779235840e-01
-3.192866041079517325e-03,-3.144157804428462377e-01,1.456859213085691940e-01,-2.926819884903970187e-03,-2.516308983391315340e-02,-6.871865782804013889e-03,4.091772139072418213e-01
7.727871977621604202e-03,-2.262471930032171896e-01,2.719280926895732975e-01,4.297814189276066670e-03,-5.215918655400018922e-03,-2.957420100268587804e-03,4.318861067295074463e-01
-1.806472306792040322e-02,-3.257896062728692366e-01,1.752939942899683079e-01,-7.078344363229217623e-04,3.316303978265290652e-04,-2.016423540599420958e-02,4.390957951545715332e-01
-4.759624083305484532e-03,-3.175065126727499853e-01,1.766422224968177690e-01,-8.034834888142721940e-03,-1.544039298663176310e-02,-5.795538284196353335e-03,4.341195225715637207e-01
6.504340962505898716e-03,-3.074167559922646453e-01,1.590168524878777800e-01,-5.021514358948740665e-04,-6.221958896841589363e-03,-1.275958410447876161e-02,4.126605391502380371e-01
-8.685072373063526530e-03,-3.140855635519441136e-01,1.391274726980341325e-01,-6.514933759364531854e-03,-1.799610296114308519e-02,-6.000427164232068934e-03,4.018295109272003174e-01
2.055227475097028481e-02,-2.610406186949210672e-01,2.787796696298380228e-01,3.107245613368535882e-03,-7.401051110188464760e-04,-3.733408464793524324e-04,4.676772058010101318e-01
-1.490865325910107134e-03,-2.865206193305464000e-01,2.967531193111171972e-01,9.323110403147240322e-03,-1.815607572338879400e-02,-1.287579506032469900e-02,5.068992972373962402e-01
-6.715204634539189213e-03,-3.173117365800139367e-01,2.975021371829940087e-01,-1.296674800610367979e-03,3.777639814296136333e-03,2.919200777091616582e-03,5.325229167938232422e-01
-2.540253307931619742e-02,-3.229108280148837995e-01,3.007074645544501323e-01,7.801198019905955863e-03,4.604052899445176079e-04,6.743301145373997718e-03,5.405543446540832520e-01
-6.127069823864371434e-03,-3.057853648203616159e-01,3.017288246661012363e-01,5.846406351530279369e-05,1.091019020760523525e-02,3.588870928443402102e-03,5.265146493911743164e-01
-1.398299593733122112e-02,-3.094893764733303021e-01,2.928155871111620678e-01,1.078474799098649937e-03,-8.194245137046237814e-04,-6.280999351948424831e-04,5.216483473777770996e-01
5.935382750794833753e-03,-2.806503234133371771e-01,2.968823771565803904e-01,-9.879490146553142338e-03,1.027864966343450086e-02,-5.813652908906883016e-04,5.007729530334472656e-01
1.170434551584854932e-02,-2.957927326883359465e-01,2.916896795200861203e-01,-3.047745270750618247e-03,1.173344912489939981e-02,1.773550949865528503e-03,5.094028115272521973e-01
-3.546090329028785126e-03,-2.287701289588639497e-01,2.967614031073222969e-01,1.371393699087805965e-02,-1.853253232917368570e-02,-9.415678293330620452e-03,4.587019383907318115e-01
-2.335372090304724257e-03,-2.735801358938505512e-02,3.148289306036944346e-01,1.380216634536590367e-02,-3.445406996671967863e-03,-3.104632263916293558e-02,3.356402218341827393e-01
-3.368331452168227269e-02,-1.388328937383950523e-01,2.946200147892463761e-01,9.015549314030200587e-03,2.384817564655525909e-03,7.870000665301624815e-03,3.921825885772705078e-01
-1.521221601276271512e-02,-3.313032254743090155e-01,3.195105360059956046e-01,2.616317220078984715e-04,7.242750279016224244e-03,-3.819989131895603577e-03,5.638768076896667480e-01
-3.627169686207921961e-02,-2.322818208857863331e-01,2.912709768044174918e-01,4.554244024506082754e-04,5.975473789559190840e-03,6.442354037698734721e-03,4.584082365036010742e-01
-2.591786260692659216e-02,-6.298537824570912824e-02,2.921437470701626071e-01,1.592994815504834502e-02,-5.830826664505441882e-03,-4.741953911486179209e-03,3.394962251186370850e-01
-3.121885418506341325e-02,-5.913242851977468240e-02,2.915454486767963260e-01,3.110234867268757159e-03,3.770650908109614372e-03,-5.847322012754322187e-03,3.378457129001617432e-01
-8.681811651280429976e-03,2.021291714265172068e-02,3.475513690780185350e-01,1.589247943489161680e-02,-2.537652561887750353e-03,-1.353039478987463082e-03,3.438404500484466553e-01
-1.031405524050032010e-02,-3.006967792881806156e-01,3.033166405646282593e-01,8.931885060743027446e-04,1.456660363703901617e-02,3.343373455898799793e-03,5.238623619079589844e-01
-3.435055048086048390e-02,-9.419679810482070592e-02,2.848008681261255948e-01,6.419531613429528549e-03,-2.109322712510685281e-03,1.399993413185865281e-02,3.539268076419830322e-01
-4.389176313778338917e-02,-3.077017272525741087e-01,2.791872061812071260e-01,1.162750051337726109e-03,-3.921091682472126368e-03,2.827583712153101513e-03,5.091967582702636719e-01
-4.772927982431718341e-02,-1.671776864152493824e-01,2.858745570960407600e-01,5.038350750762212414e-03,-3.226721957951138222e-03,6.723171949603101022e-03,4.070023000240325928e-01
-3.726580330787261641e-02,-8.014450488798505190e-02,2.926642421326058896e-01,-1.385040754012217303e-02,4.233697367087845172e-03,2.395690087973250185e-02,3.566377162933349609e-01
-4.694830706062011472e-04,-3.144782038574088778e-01,2.954331329776139770e-01,1.864927858823573186e-03,9.809368031637705210e-03,-1.734166663222710622e-04,5.285593867301940918e-01
9.373808867971780354e-04,-3.172773702846425348e-01,2.974690968905366883e-01,-1.182336814791960095e-02,-1.347186211044312451e-03,-5.682527991889265752e-03,5.329860448837280273e-01
-2.294851019884287108e-02,-1.722501759187295700e-01,2.969119460134947430e-01,2.853931255312166029e-02,3.439859634716192771e-03,6.880058424441734023e-03,4.183041751384735107e-01
-3.740601634367977935e-02,-9.120462032827239551e-02,2.847843817024782176e-01,5.379904907622802242e-04,-8.613384129314991195e-04,1.384995073182755665e-02,3.530055284500122070e-01
-2.076832425389003867e-02,-3.306318538017227748e-01,2.989674973672069025e-01,3.365807386121114856e-03,7.953808592103482058e-04,1.918446817214915180e-03,5.453144311904907227e-01
-3.872441714029242754e-02,-1.116429964796021024e-01,2.773537402186086465e-01,5.447872298879067633e-03,2.376666587162461815e-03,5.685494305356063056e-04,3.582979738712310791e-01
-2.446058017045418462e-02,-3.229256885586333503e-01,3.168558262714656903e-01,-2.547656879791015353e-03,-2.124659434070283286e-03,1.718660473516285103e-03,5.545189380645751953e-01
-4.428922080405472972e-02,-1.687026610162263573e-01,2.887806569296126891e-01,4.392963892673707252e-03,-1.164568437624768568e-02,5.321140695215697755e-03,4.103685319423675537e-01
-6.740511594226269998e-03,-3.649102639138684934e-01,2.155563483933767843e-01,-5.177208322695841386e-02,-6.367276843111466245e-02,5.558110598079965547e-02,5.355305671691894531e-01
-3.784734177059413673e-02,-1.439014267461020125e-01,2.954111483411503980e-01,7.537624192293332012e-03,8.377955784856814386e-03,1.960587682426241651e-02,3.989815711975097656e-01
-4.480111835352020011e-02,-1.558683369684756570e-01,2.910391983450808517e-01,-6.830082473670387108e-03,-2.977211210858364630e-03,1.906144699150803465e-02,4.045763909816741943e-01
-1.522360704822195258e-02,-3.305093814737835589e-01,2.969336507157009919e-01,-3.134948714739703868e-03,6.116421786114378811e-03,-1.976053328774168664e-03,5.435250401496887207e-01
-4.895512448111885573e-03,-3.131420692741549439e-01,3.071890753130647744e-01,-2.209292173561991889e-03,-7.327981016776974029e-04,6.719435015050126241e-03,5.373671054840087891e-01
-3.144811453878328805e-02,-3.044249099694062988e-01,2.274597108583367167e-01,6.342553050674028248e-03,-2.110491004243925887e-03,7.244897420822005857e-03,4.609955847263336182e-01
1.263026912701990800e-03,-3.229621279491400876e-01,1.924320292889472594e-01,-8.022518994367398501e-04,2.049697907531553443e-03,1.847447729215098700e-02,4.524243474006652832e-01
-5.122395502137777612e-03,-3.210221156511826601e-01,1.699823891466056003e-01,-8.279568151103359704e-05,-1.040674311382871163e-02,1.445642827161095281e-02,4.321131408214569092e-01
-6.245468740337892233e-03,-3.246197874240526748e-01,1.977394246336046102e-01,3.283961906606230798e-03,-1.490875082158994898e-02,2.171345783385756484e-02,4.582894146442413330e-01
-2.816223232845246893e-02,-1.611801885839850290e-01,2.968290395722907871e-01,1.666757720251853866e-03,9.170746919559902635e-03,4.692580527177094528e-03,4.084966182708740234e-01
-4.731836170034463968e-02,-3.027218917222117001e-01,2.692813347336259766e-01,1.483863537222883562e-04,-5.465704258669972860e-04,-3.620498451928611493e-04,4.963147938251495361e-01
-3.394704353381326756e-02,-3.077720429279623970e-01,3.003757537712597459e-01,-3.848484126227480397e-03,5.812622689633642654e-03,2.716630472999582795e-04,5.276777744293212891e-01
-4.822516493684603223e-02,-3.066499058281045853e-01,2.804225791292560555e-01,-1.230741073828177335e-03,-1.620450617788525907e-02,8.942276566234512924e-04,5.104097127914428711e-01
-4.762865499858331964e-02,-3.046601876820467236e-01,2.774775733112685994e-01,-9.207767783835725441e-04,-4.265127122352163624e-03,-1.286541062379236745e-03,5.053552389144897461e-01
-2.398467498265812597e-02,-3.040607229601882122e-01,3.186162561317187336e-01,-1.175920419686413664e-04,3.602980730121483005e-04,2.627933983448025538e-03,5.401790738105773926e-01
-1.191965318999362380e-02,-3.429029630077025659e-01,2.632504581809613775e-01,5.214175636790182146e-04,2.052472159417813996e-02,3.193813562608229656e-02,5.297829508781433105e-01
2.712176764030423473e-02,-2.640893230677483494e-01,2.878343000022202669e-01,1.644615507712812036e-02,-5.229765537191394600e-03,-4.046879544789432070e-03,4.792076051235198975e-01
-4.349900808946985387e-02,-3.076102521446427707e-01,2.750748853271771655e-01,8.326823791308616413e-04,-5.515642094841362482e-03,-5.181656456172821935e-04,5.054475069046020508e-01
1.213404794138614982e-02,-3.003888539636154209e-01,2.887161586384557332e-01,5.440389517116436813e-04,1.565355578502699132e-03,2.344358287080540709e-03,5.105205178260803223e-01
-4.035678939094303891e-02,-3.088555009903329873e-01,2.748830967819149707e-01,-2.073028642544010383e-03,-4.893788485228656344e-03,-2.220902078179978843e-03,5.061706900596618652e-01
-3.319333139658216247e-03,-2.668266436130973251e-01,3.006520327355851618e-01,-2.449654633137359622e-02,-3.090616800142023408e-03,1.410492935819314571e-03,4.937289059162139893e-01
-5.175132439611187553e-03,-3.368662164993863062e-01,3.040900890224280673e-01,-3.593871720670064468e-02,-9.789216239596058855e-02,2.250685410450919965e-02,5.851389169692993164e-01
2.110923920649659252e-02,-2.833557567172360625e-01,2.885976010159564953e-01,2.236330589800497853e-03,-1.421418050512624496e-03,-3.909405103710914334e-03,4.957385659217834473e-01
-4.289056397053496450e-02,-1.007083092054863183e-01,3.594828206102039236e-01,-1.009900794525420420e-01,7.194059784383054212e-02,-1.719992116844084457e-02,4.853065013885498047e-01
-3.033679973755686390e-03,-2.460898722468991551e-01,2.839035899518126405e-01,3.225234701997072451e-03,-1.529315015745958198e-02,1.199468665159396288e-03,4.603133201599121094e-01
1.330009723097887869e-02,-2.146999398382513635e-01,3.187176673732809995e-01,-3.394895645031757725e-02,1.886641822151377676e-03,-6.970181510913488372e-03,4.674538969993591309e-01
-4.129821813301785827e-03,-2.075844093488241615e-01,3.152118523855125809e-01,-4.897056206691136754e-02,7.496441834303478255e-03,-1.471384960899111641e-03,4.644500315189361572e-01
1.465317369354228634e-02,-2.760727150129830831e-01,2.950992105399575793e-01,-1.960169180180865514e-02,8.712926261664737798e-03,-9.672225980864493367e-03,4.963522255420684814e-01
-2.076652547657176912e-02,-2.164770912832185146e-01,3.394759805328382840e-01,-5.289256810989180491e-02,7.319105938486248145e-03,2.832003015108972704e-02,4.995400011539459229e-01
-3.304605311924875555e-02,-3.678272072313533148e-01,3.239987908120548488e-01,-5.983701637103147272e-03,-1.242053560198675029e-02,1.503397729120828233e-03,5.997235178947448730e-01
-7.532086029766177707e-03,-3.154967812829982399e-01,3.029887198917010083e-01,-4.222431903598485546e-03,-3.455876373204475657e-03,3.760383531294327064e-03,5.357486605644226074e-01
-2.271789406197818884e-02,-2.784908260805859515e-01,4.148718853003403595e-01,9.698615236571957177e-02,2.226012952892567759e-02,-1.208580507970981148e-02,6.316422224044799805e-01
-5.746442319609285782e-02,-5.107080927469778153e-01,2.739576945859950596e-01,-9.881342717801040731e-02,2.250305494029171058e-02,1.191432188461034741e-01,7.340859770774841309e-01
-3.503364776746786813e-02,-3.735388154019921858e-01,3.231251039066664887e-01,1.497620631993093997e-02,-2.907281707977709892e-02,1.204782174669111541e-02,6.064206957817077637e-01
-2.651315307233372345e-02,-3.118620940075091941e-01,2.962918365180438052e-01,-1.147760177060159993e-03,5.143150008017872369e-04,-3.076774057185119923e-03,5.270410776138305664e-01
-1.551510500181878943e-02,-3.624295262132663509e-01,3.584715812116301414e-01,-1.078740826117985038e-02,9.414654595048331520e-03,-7.423163538393919708e-03,6.250898838043212891e-01
-1.093859375657400476e-02,-3.102705383848849419e-01,3.639302305417990158e-01,-1.540067459247232776e-02,8.596226173423253403e-03,-1.827584471802526367e-02,5.867466926574707031e-01
-2.583256045040082521e-02,-3.279333012272635517e-01,3.160087547865030877e-01,6.876047638329580098e-04,2.020819130790129682e-03,1.755633526619805422e-03,5.580446124076843262e-01
5.486807438380112388e-03,-3.015261141837456971e-01,2.911336763029566677e-01,8.206141524740527391e-06,4.057505904413406458e-03,3.006279332984162535e-03,5.134441256523132324e-01
4.935241430699248769e-03,-2.901307422932163926e-01,2.925493417297824750e-01,1.274032613776737580e-03,4.954880374544368658e-03,4.007837880972710785e-03,5.047550201416015625e-01
5.270129060750925257e-03,-3.128286496620594770e-01,2.983467787965257689e-01,-1.560293612154690414e-04,6.586590161560846972e-03,1.164059345185673722e-03,5.295680761337280273e-01
-3.007824706510033030e-02,-3.627032322647929519e-01,1.448777852044977332e-01,1.683252307818099147e-02,2.963623235451162685e-02,-8.965717365146273765e-02,4.764912128448486328e-01
-2.616168559535301391e-02,-3.244389402774048858e-01,3.184613228223150405e-01,5.159350838772080484e-03,-5.152059420063932055e-03,1.594655267289572364e-03,5.573999285697937012e-01
-2.997304719208717869e-03,-3.163146331514529730e-01,2.990610575726941889e-01,-2.305878309097727423e-04,1.601317259899080986e-04,-1.336776545794117173e-03,5.329659581184387207e-01
-6.928371575314118402e-03,-3.463525139823665500e-01,2.704430776267058856e-01,-1.827913552903213251e-02,4.173334367072032390e-03,3.785395344297040957e-03,5.360856652259826660e-01
-2.085420650787112723e-02,-3.237123512967973737e-01,2.970366853519020856e-01,4.536331363634996464e-03,2.739459432174319413e-03,1.014858295941430425e-03,5.377181768417358398e-01
-3.373605135722441972e-03,-2.292324534854038032e-01,2.769284801761899284e-01,-5.104435362814511989e-03,-9.180161314966166913e-03,4.919970580692289899e-04,4.395701289176940918e-01
-1.317959246921862441e-02,-3.243755683894219422e-01,3.003812813917906555e-01,2.392792662596761669e-03,8.001611168265337914e-03,6.750110314485742056e-04,5.412511825561523438e-01
1.299235576226878859e-03,-3.036505577615281060e-01,2.971061203795745120e-01,4.150006522542978317e-04,1.190435029474030439e-02,-1.895941378134493064e-03,5.207098722457885742e-01
-4.545901061429676211e-03,-3.263292086662006319e-01,3.066170138459426986e-01,2.309507050574218564e-03,-3.193737635122449736e-03,2.056320625161061743e-03,5.482273101806640625e-01
1.435006628692461761e-03,-3.982466499075369426e-01,1.137645518851469473e-01,2.871465289543886218e-02,7.011360738424848860e-02,-6.164291903171842391e-02,4.958631992340087891e-01
1.930312805627068529e-02,-2.968079364210661764e-01,3.008271525520966883e-01,-1.390263122806933982e-02,-8.629081950396028620e-05,-4.990461120040697723e-03,5.184876322746276855e-01
-4.185163438657449331e-02,-9.875450835557547657e-02,3.401516556833859561e-01,6.919672580583320111e-04,2.704359934696509140e-04,-1.298441554461818824e-02,4.140156805515289307e-01
1.745099868182376640e-02,-2.890205285316572170e-01,2.873909217434912899e-01,1.320041732834712931e-03,5.064260196301868105e-03,-4.714915565151723133e-04,4.996039271354675293e-01
-2.555311601285276124e-02,-1.898198309844652543e-01,3.038408598255093462e-01,-4.006747672777644965e-03,5.322980044262601990e-03,-1.565761294822079486e-02,4.364184439182281494e-01
-1.975149161421813418e-02,-3.228383849244680359e-01,3.082748346003392759e-01,1.834726135889454051e-03,9.692197578598052768e-03,2.556714557160375857e-03,5.469871759414672852e-01
-1.464496409652173495e-02,-3.169393438985140254e-01,2.024999334629559999e-01,-7.241876452490576647e-03,-1.721546695778153639e-03,3.766834276752382884e-03,4.520888030529022217e-01
-1.861701351856270836e-02,-1.157089462550894843e-01,3.085564792877042994e-01,-2.156438692641364854e-02,1.166493396825816521e-02,-5.819757379394624279e-03,3.874792158603668213e-01
-1.969757439512077879e-02,-1.215457873010942769e-01,2.998289350419656718e-01,-2.593738418635856136e-02,1.318785433627794705e-02,-2.577206881049521128e-02,3.867118358612060547e-01
-2.804633388478180306e-02,-3.943102818187039782e-01,3.134314900687538707e-01,-9.029364022617732133e-02,3.901308745400288575e-02,-1.631460689921548565e-02,6.369072198867797852e-01
-2.549947452923287741e-02,-3.232273498082133267e-01,3.012657501056604237e-01,1.601481659018376847e-03,1.638536338443282846e-03,3.689503014638492034e-03,5.410740375518798828e-01
-5.371508849231834692e-03,-7.342195529253325859e-02,2.985185416182425389e-01,-2.379401947532737774e-02,2.968722043778312600e-03,-1.808503008901157436e-02,3.469380140304565430e-01
-1.879787435547752850e-02,-3.272639374858712369e-01,3.051381474667651528e-01,1.916803111052535567e-03,7.729375573900235628e-03,2.197296782663094982e-03,5.479177236557006836e-01
-4.207932033428016250e-02,-2.116581137166130000e-01,2.078932270814031757e-01,6.491423432844489923e-03,1.090084818963467372e-02,2.663318219523196431e-02,3.691126704216003418e-01
-2.566326931852697113e-02,-1.687381965268754946e-01,3.311446988597938623e-01,-1.543001223884338420e-02,4.540818599406659141e-03,-6.083085542217204350e-02,4.590315222740173340e-01
-2.499385821117102585e-02,-1.870754397644208145e-01,3.103736840400916908e-01,-5.838284609519553761e-03,3.995909279168801537e-03,-3.206855313723205869e-02,4.430960118770599365e-01
6.879833692215779617e-03,-3.157048336126266896e-01,1.493404313124355731e-01,-2.823973638034137697e-03,-9.399581703503547686e-03,-1.360078045179061038e-03,4.130448102951049805e-01
-1.064662237327469903e-02,-3.128422024529891043e-01,2.988136540070499558e-01,2.773939882718312079e-03,3.122306616369049589e-03,2.884933109432293204e-03,5.297949314117431641e-01
-1.908941528939460744e-02,-2.596784078000911045e-01,3.075255340314098640e-01,9.201053412901187252e-04,-1.046450823583867061e-02,1.108681202731477472e-03,4.934319555759429932e-01
1.361157230451398581e-02,-3.705224667740274480e-01,-3.707173919928534456e-02,3.676800452995114977e-03,-8.477712528430327368e-04,-4.353625167775118307e-03,3.616049587726593018e-01
-5.417944935612949153e-03,-3.216867529903610912e-01,1.316394285557958843e-01,-2.576758710971222390e-04,9.734386835697845380e-03,-3.670062619723781058e-04,4.030416011810302734e-01
-2.479545605949754275e-02,-2.640947174108908557e-01,3.076346111050490273e-01,-4.830505431816511930e-04,1.148093645572838099e-02,6.551610790905276413e-03,4.978444278240203857e-01
7.031800906417889907e-03,-3.215219349940124927e-01,1.528767046341784619e-01,-4.973733394772969670e-03,-5.899440720462389987e-03,-2.236477470803893003e-02,4.228656589984893799e-01
-3.186833094879742978e-03,-4.649863609167045886e-01,3.353579792299521412e-02,2.267722925473098297e-02,-5.548798612896693738e-02,5.458897801107884251e-02,5.012835860252380371e-01
-2.810763248695035549e-02,-3.112328972409211247e-01,2.967730235467362365e-01,4.345491632122853781e-04,-4.365364023968697736e-03,1.161592330624518487e-04,5.270171165466308594e-01
-3.259149739742434049e-02,-5.825330553872483108e-01,2.684151690077929420e-02,-2.503186239435311808e-02,4.056497206224315977e-02,5.881527472353391406e-02,5.965288877487182617e-01
-1.976670110280753095e-02,-3.140280898537526899e-01,3.013731822670427385e-01,-6.317016809244132376e-04,-1.494045068328750912e-03,5.046788027352547279e-03,5.332016348838806152e-01
-1.867186189592834333e-02,-3.745985397421361940e-01,8.955325309094441799e-02,-4.593319811533778767e-03,-7.413663280659478494e-02,5.898289831031109948e-04,4.398519396781921387e-01
-7.110282048604504856e-04,-3.192709634994160828e-01,2.067870660344188483e-01,8.157813821225734854e-03,-1.211234415802614831e-02,1.710876390388846313e-02,4.606021940708160400e-01
6.498044655207833864e-03,-3.182572342994486880e-01,1.832813938081005734e-01,2.621792247046805281e-03,1.260577838736586485e-02,1.974528641525232636e-02,4.424891471862792969e-01
-1.271526873697817472e-03,-3.210981218533141002e-01,1.926469782898687089e-01,8.854065726414351786e-03,1.651035566987519134e-03,2.592114900908735683e-02,4.518548548221588135e-01
-7.135262204018865025e-03,-3.057193247468797392e-01,3.040809274699362019e-01,1.334699398134549155e-03,-5.922937423206093947e-03,-1.155054691083813633e-03,5.282487273216247559e-01
1.252102659374990101e-02,-3.146044736037143519e-01,1.078435285587330816e-01,-1.269188010921672508e-03,8.091568735103063861e-03,5.752581682426746723e-03,3.841619789600372314e-01
-2.465862359546103916e-02,-3.119109258067205848e-01,3.053599533911847685e-01,-6.757785424286998641e-04,2.417499932093550817e-03,-1.492415882663122254e-03,5.350236892700195312e-01
-2.980181995240725745e-02,-3.157880550482132231e-01,3.074719905636086881e-01,-1.554811996501441603e-03,-5.611472228087012980e-04,1.762270578976075875e-03,5.403840541839599609e-01
-2.696077651659571639e-03,-1.670725543376038735e-01,3.316156833595728104e-01,-6.445954990254183781e-02,-4.385621247386275665e-03,1.421014379968346154e-02,4.548247456550598145e-01
-1.616068174947721259e-03,-3.184265575720948704e-01,3.224063646012591544e-01,-1.615103290177136511e-02,8.993649503070902038e-03,-5.318801684006392062e-03,5.559884905815124512e-01
2.050459161008980069e-02,-2.641683036343299151e-01,2.936523523896473753e-01,-1.643801213386756124e-02,-3.403064713391055346e-03,-5.012336734963675038e-03,4.840731918811798096e-01
2.659110505293965990e-02,-2.899735282716978668e-01,2.826702482421394325e-01,3.746448108323723568e-03,1.355397976459346045e-03,-5.195569024883765763e-04,4.968940913677215576e-01
-1.126635380352081564e-02,-2.976906341819842150e-01,3.369566174572580786e-01,-7.938738896721260485e-02,3.990071188562133164e-02,-9.571519252505775524e-03,5.718353986740112305e-01
-2.053730749156224347e-02,-3.182349266880895033e-01,3.128551465771740592e-01,-2.755928281320103868e-03,-1.545975400292692219e-03,-2.829881454231664780e-04,5.468589663505554199e-01
-7.575347141158322514e-03,-2.789672893872736648e-01,3.015587550901213110e-01,1.486200326538978116e-04,-1.451444816220470550e-02,9.781210915324827469e-04,5.037350058555603027e-01
-1.516884136183718756e-02,-2.672636868980687308e-01,3.647240205923890644e-01,-9.747540843954900780e-02,1.195877281610603117e-02,-3.422519291323812551e-02,5.797300338745117188e-01
9.968834400256721198e-03,-2.646678514950750460e-01,3.179259384042630310e-01,-5.782308347576656238e-02,1.244886981162146924e-03,-1.221969804119477435e-02,5.150945186614990234e-01
-3.756985234877113777e-02,-3.052923304564732487e-01,2.610446165503123028e-01,-3.311179782029789482e-03,-1.517917941478035514e-02,-5.464850005764904442e-03,4.915337562561035156e-01
-1.386881985522030701e-03,-3.014948769958382679e-01,2.984820431605405000e-01,-3.922011680978923845e-04,-6.832115356768394925e-03,-3.518222946654261861e-06,5.197304487228393555e-01
-5.124467981988622967e-03,-3.070115385842157596e-01,3.099616972063196640e-01,-1.024510677158203473e-02,-5.863642653895310801e-03,4.976629202211334041e-04,5.347469449043273926e-01
-3.136273810231191700e-02,-3.681961228697047672e-01,3.273899332746577628e-01,-5.653941162851391228e-03,3.770182171814608074e-02,-8.347712173012144729e-03,6.062749624252319336e-01
-4.173542267430638969e-02,-3.172909098614274392e-01,2.956376045357488880e-01,-1.385089382041425777e-03,1.700068715326318470e-03,9.025002994335253742e-04,5.317266583442687988e-01
-2.113076124207429601e-02,-3.081154399767621066e-01,3.121140766605658978e-01,2.777089398367219475e-04,2.327984130556698709e-04,-2.759218160045766918e-03,5.376539230346679688e-01
-3.226515775209304326e-02,-3.093509028746133094e-01,3.182041751497560744e-01,2.843566670427466643e-03,5.276208191256337270e-03,5.106828913648044912e-04,5.448154211044311523e-01
-3.645740601607046216e-02,-3.130867219411138658e-01,2.947025318936512539e-01,-5.624716488183124224e-03,1.113720081358985856e-02,2.297996397117892456e-03,5.275244712829589844e-01
-2.580767748396496988e-02,-3.474928431457283140e-01,3.300538874625306707e-01,2.222614374445092481e-03,1.466086687614670536e-02,5.568729858029052666e-04,5.875838398933410645e-01
8.306458954218678969e-03,-3.065203528732150517e-01,1.004636085597456208e-01,-9.735573651225343152e-04,-3.927714905823315346e-03,-2.768833250606049425e-03,3.697222173213958740e-01
-2.030873142664294320e-02,-3.332773012556315417e-01,3.027508692535839652e-01,2.353825914464824972e-03,2.393370435872203481e-03,-1.859979981144825047e-04,5.508704185485839844e-01
-4.640053865438517611e-02,-3.195951800072866500e-01,2.949857965040991736e-01,3.651872146064793958e-04,2.030462760653738499e-02,-5.707182200973732328e-03,5.345837473869323730e-01
-1.921143308286865636e-02,-3.180840641707546324e-01,3.076417574476999484e-01,-3.312311453351160506e-03,-2.469363572844584295e-03,-1.499619851402746477e-03,5.421285033226013184e-01
-2.487442409677612445e-02,-3.115853343461106317e-01,3.104544518112284379e-01,2.450892789427395069e-03,-2.675947774732196933e-03,-2.573246457491734987e-04,5.392872691154479980e-01
-3.834179796676714935e-02,-3.070216053490092967e-01,2.893139351533586812e-01,1.072591631864041033e-03,-4.095038586353327500e-03,1.270545815994551754e-03,5.173395276069641113e-01
-2.646278569123959590e-02,-2.329051451600769873e-01,3.119684255953067420e-01,1.814451039087848537e-03,-3.595212059589618370e-03,7.026384568750874623e-03,4.766733050346374512e-01
-2.265610866907801640e-02,-3.248287157546714821e-01,3.173281572993796873e-01,-1.429884214332654679e-03,-1.126143114276452820e-02,4.675369151760034518e-04,5.567932724952697754e-01
-1.889889312700122198e-02,-3.245317584355156271e-01,3.209136604976076113e-01,4.420884680595226802e-03,2.536535172441767814e-03,1.599848278790684183e-04,5.593030452728271484e-01
-2.786252893808238013e-02,-3.116115577641428991e-01,3.166350004459302370e-01,-4.223590150675121923e-05,-1.055501597211115118e-02,1.417572098501294984e-03,5.452367663383483887e-01
-2.799193263666534259e-02,-3.266580791345152224e-01,3.114501167282285876e-01,-8.002969287281442310e-04,-6.630097117491183176e-03,-5.041814263418182163e-04,5.531155467033386230e-01
1.106119947078225418e-02,-3.329019169328716887e-01,7.760455625629483767e-02,6.909938561467835784e-03,4.210211049004140144e-02,-3.478527396197211678e-03,3.887472450733184814e-01
-1.529235037702864064e-02,-3.067485946192164969e-01,1.632737785371683181e-01,-5.994142855090717030e-03,-5.002020215848906708e-03,1.463487961213751467e-03,4.111764729022979736e-01
-3.180843334256626409e-02,-3.669884735944030640e-01,3.599131394992026722e-01,4.476736714877761411e-03,-1.820849881916669633e-02,-5.036354143277780963e-03,6.310464143753051758e-01
-4.047809728029143350e-02,-3.250148372894011706e-01,2.773123671178489569e-01,4.254115779979543779e-03,-5.034338864466481045e-02,1.320653915542498343e-02,5.296753048896789551e-01
1.036286617362043930e-02,-3.176313916560770112e-01,2.946135045981544409e-01,-3.791189189302844164e-03,6.882947871689338269e-03,3.575787575109914528e-03,5.308811664581298828e-01
-2.960592466594750075e-02,-3.145913496101631068e-01,3.114974976445781807e-01,-9.257910443466206953e-04,4.832608095288421640e-03,-1.819444467765669654e-03,5.430104136466979980e-01
-2.401599578026569065e-02,-3.287979770165169735e-01,2.935164637178823699e-01,-3.636059940885022750e-03,-1.038799448486052955e-02,-4.682868526185691993e-03,5.393758416175842285e-01
-2.218569596151914736e-02,-3.106726668407429059e-01,2.921808799180216076e-01,4.804847467885876096e-04,5.002886516766796680e-03,7.994779288335598921e-03,5.225028991699218750e-01
-2.309759921316514170e-02,-3.239190783358302239e-01,3.162695728879255097e-01,-3.739002239133576715e-04,-1.601591537352231966e-04,1.650161920611212512e-03,5.547623038291931152e-01
-2.150997124545803163e-02,-3.240226292850364453e-01,2.925768735767655948e-01,1.160640169070435062e-03,9.797682658610702076e-06,2.583193521041659592e-03,5.340447425842285156e-01
-2.301995960925293933e-02,-3.166407727569046648e-01,3.159471987624313805e-01,-1.909676104350872686e-03,-4.489063669556540154e-03,-1.497466177783315011e-03,5.483774542808532715e-01
-1.656354384706693050e-02,-3.203729878078125370e-01,2.778865755584984387e-01,-5.332902780498908167e-03,-9.029647113712650861e-04,-4.833533761232714117e-03,5.182814002037048340e-01
-2.092171121162858700e-03,-3.094589730303012876e-01,3.096826515314311523e-01,-1.687545952289386600e-03,-8.161391537112322328e-04,1.843097060998558718e-04,5.362068414688110352e-01
-2.167523837697996059e-02,-3.163432517442071323e-01,2.677161820010087179e-01,-4.000596605686316810e-05,-1.373954825399614907e-03,-3.391492345094619405e-03,5.058568716049194336e-01
-2.207412155770616113e-02,-3.200076842567066149e-01,3.098109709666056477e-01,-5.767345337184844392e-03,-7.122252127395750990e-03,-3.754603996078587688e-03,5.459725856781005859e-01
-2.402988445877782264e-02,-3.083991769885620071e-01,2.973822084871725058e-01,-9.152020216880084281e-04,2.717864261012814617e-03,3.904512138376811051e-03,5.250159502029418945e-01
-1.745546329805224700e-02,-3.111877165608730733e-01,3.138603689864629676e-01,-2.066101594873305438e-03,-1.072975003587490171e-02,1.572158684287340482e-03,5.419710278511047363e-01
-2.039800192856938352e-02,-3.198254419496761036e-01,2.992545718233888263e-01,-3.499683649457173439e-04,8.869303349755008632e-04,-3.688187746968969206e-03,5.362749695777893066e-01
-1.986159458154729968e-02,-3.184665112128940434e-01,3.042067687877211823e-01,-3.669364848112221448e-04,2.527481548578261201e-04,1.405419516593993477e-03,5.394071936607360840e-01
-6.860307101131064844e-03,-3.071282985684140043e-01,3.022662335648917398e-01,9.482766233545879579e-04,-6.923888099591885307e-04,-2.935961803821240425e-03,5.277981758117675781e-01
-2.367888401715188135e-02,-3.182455122520281288e-01,3.042660418304548031e-01,-2.168244383595860532e-04,-7.107992379287673143e-04,8.983054390121878894e-04,5.393728613853454590e-01
-2.965807461231956266e-03,-3.081209116920147206e-02,3.222276242231807419e-01,-2.783823126186710586e-02,7.947899402838227642e-03,-3.553539904694350687e-02,3.491193354129791260e-01
7.548322182841377126e-03,-6.693043562709166672e-03,4.945099008821217668e-01,1.964973611901112485e-02,-8.731233938986145485e-03,-5.357835411080091870e-02,5.042502880096435547e-01
-3.399493352814247915e-02,-1.411995427377974732e-01,3.180392798673424837e-01,-2.380525714648589961e-02,6.197099369894715735e-03,-2.524876531470883825e-02,4.205810129642486572e-01
-2.489820094819286678e-02,-5.562535348395286627e-02,2.912453826474324381e-01,-1.678440796693815573e-02,-3.596938446250356699e-04,-3.383599390196139877e-03,3.338936865329742432e-01
-2.438157852142952553e-02,-6.352759455918238762e-02,3.173120478406477041e-01,-3.232620989326003003e-02,-4.859123344388268306e-05,-2.690423668612305225e-02,3.700937330722808838e-01
-2.977774887749169708e-02,-6.613588627613092852e-02,2.843511026451358559e-01,1.631005819594152917e-02,-1.528062956018503302e-04,-8.625493956341564669e-03,3.353227078914642334e-01
-2.954050754648680777e-02,-6.937332617500580056e-02,2.903754322815175204e-01,1.209940500449336459e-02,-1.885194111190494504e-03,-1.745930667533073010e-03,3.422499299049377441e-01
-3.587782038600768886e-02,-1.382168854359376031e-01,3.354363523815140358e-01,-3.653071772648092824e-02,1.228881275034055453e-04,-3.011857323875875847e-02,4.393999874591827393e-01
-3.525012549942332929e-02,-8.659841984408217508e-02,2.942994487673430415e-01,7.944906364554531371e-04,-5.560725726081064933e-03,-8.425817572743538736e-03,3.584257662296295166e-01
-1.743529078846414726e-02,-3.303912077121209934e-01,3.053206220228606993e-01,1.003951092280851902e-03,2.833765432576549042e-03,3.069606936247777336e-04,5.505892634391784668e-01
-4.540622789963591477e-02,-1.509711797967535629e-01,2.804689856313652974e-01,-2.500079813861334418e-02,5.875431061671896726e-04,2.123536338603116552e-03,3.919557332992553711e-01
-1.851270785913346206e-02,-5.502448520926178643e-02,2.935560627468580819e-01,-3.778596007784387235e-03,-5.639525978565353148e-03,-8.845108790297529638e-03,3.323960900306701660e-01
-1.171223966295393583e-02,-2.813276688591035968e-01,2.981373334945965903e-01,5.007657398092881136e-03,1.310178896966669553e-02,-3.682997949644533503e-03,5.028621554374694824e-01
-3.279349922127214323e-02,-1.496750469899997826e-01,2.915960089135342104e-01,6.656933676502857500e-03,-1.551059011480391972e-03,9.363493373753368175e-04,3.961663544178009033e-01
-2.553613786897585697e-02,-3.160253140848409137e-01,2.976364823791192715e-01,2.371093320638053333e-03,-8.752135352862520207e-05,-4.279663709897515620e-04,5.317143201828002930e-01
-2.948274098915239574e-02,-3.151068195977249631e-01,2.938517124631851440e-01,3.583765159229910981e-03,3.684034691488480284e-04,3.781611454486728677e-04,5.277478098869323730e-01
-3.409028456638230065e-02,-3.103764348527810468e-01,2.888784061461476260e-01,3.183326214303070726e-03,6.749041790871439467e-05,-3.424190099027335293e-04,5.195241570472717285e-01
-7.904244728348441829e-03,-1.546412923956123342e-01,4.014173152108748699e-01,-2.006367486811686321e-02,-1.495160768594524549e-02,1.825630979212523528e-02,5.020126700401306152e-01
-2.964131092976152182e-02,-3.108232092442407835e-01,2.911694254735698317e-01,4.696754574069656428e-03,-1.165613006106106745e-03,-2.688778917333963306e-03,5.218054056167602539e-01
-1.412779035758460200e-02,-2.999244577989738092e-01,1.527690797108938459e-01,4.082490438700286418e-03,-6.100327192921659557e-03,-2.235520762297286013e-03,3.967486619949340820e-01
-2.249911692556091913e-02,-3.310929869483050791e-01,3.087036003933104622e-01,1.908961505519356336e-04,6.858438654253378374e-04,-1.192702900155920634e-03,5.542006492614746094e-01
-2.288782043522363807e-02,-3.089998238373591333e-01,2.973859354403335375e-01,2.151964849664399898e-04,-4.323843948621585755e-03,-4.660101679613575963e-04,5.254772901535034180e-01
1.847218971450798053e-02,1.102033915793144969e-02,3.496077669981494385e-01,2.004317161636855627e-03,-9.050336210650824012e-03,-3.460603741009170981e-02,3.406235277652740479e-01
-1.988395512716623070e-03,-5.920390858291413316e-02,4.308719925932167349e-01,-3.456021848644933586e-02,5.738839362272910721e-02,-3.158691342751492048e-02,4.815233945846557617e-01
-2.785454708506757138e-02,-3.250052084881566716e-01,3.167087468599132372e-01,-9.632652687905020501e-04,-2.135764867731061983e-03,1.726244321155444945e-03,5.562688112258911133e-01
-3.779918413815018530e-02,-1.072150442458571773e-01,3.170426079803135844e-01,-3.243740266999425859e-02,-1.044212982358843234e-03,-5.394500999630531118e-02,4.089656770229339600e-01
-3.636342144693992251e-02,-2.176052493673235333e-01,3.084821777320192471e-01,-1.890514301835764105e-02,4.855128839843382560e-03,-3.143647427663290306e-02,4.673063457012176514e-01
-3.022544249385901438e-02,-8.468534484803852402e-02,3.406273303503899452e-01,-4.935494318711817346e-02,-9.747441621365584771e-03,3.416104819613722393e-02,4.144731163978576660e-01
-4.132397734661857891e-02,-1.473910510095171877e-01,3.351952452104939306e-01,-4.544330130604175982e-02,1.879061253518110250e-02,-4.674800393864895348e-02,4.547129869461059570e-01
-2.848250801795691733e-02,-2.205367171187308239e-01,2.963889331252141934e-01,-1.854481947995509708e-02,1.599337565222663099e-02,-4.225476815617716306e-03,4.546117782592773438e-01
-1.468381080983057613e-02,-3.052951776755112312e-01,2.155811506788546938e-01,2.856376341326795701e-03,6.212520672060621585e-02,1.425762227653591631e-03,4.647620320320129395e-01
-2.398352196814453746e-02,-3.218275913092869533e-01,3.174397583672223799e-01,-1.408583511235312474e-03,-3.113678090952252606e-03,1.614483721638808496e-03,5.540890693664550781e-01
-1.737144736305602094e-02,-3.212236184268818517e-01,2.283376096952032253e-01,9.703071549134578266e-04,5.641896374708899736e-02,1.700475700825366740e-02,4.876247644424438477e-01
-6.164864790850183018e-03,-3.395187460323125794e-01,8.649902942163978370e-02,-2.163250153582111854e-02,6.677028903889871414e-02,2.289904205957588035e-02,4.085989296436309814e-01
7.477924052281176293e-03,-3.622735485992176208e-01,7.941406915018708879e-02,-1.103264579748006527e-02,4.046658754342387365e-02,1.225376121305812513e-02,4.173939526081085205e-01
-2.336739086369285512e-02,-3.208107300287563746e-01,3.103601155735206674e-01,-5.307789106768715653e-03,-3.099642847742992667e-03,-2.545536074412020101e-03,5.470323562622070312e-01
-3.826728614960476366e-02,-2.478982835992544209e-01,3.085976408139083915e-01,8.562470362671872545e-03,3.628485782666952125e-02,2.029445435215104440e-02,4.923204183578491211e-01
4.379505604131993246e-03,-3.163595437798806254e-01,1.510610664204967146e-01,4.798802097544999437e-03,7.208668632233726850e-03,-4.467175451368178606e-04,4.143200516700744629e-01
-1.355640718248959931e-02,-3.548723012888443384e-01,1.490212624896564697e-01,1.100513947996585541e-03,2.915290937597718457e-02,-7.372593197955031909e-03,4.484804868698120117e-01
-2.193968467626854907e-02,-3.214118603506341265e-01,3.169676137582706499e-01,-1.353414792778874281e-03,-2.387381700832281149e-03,1.598647296540896354e-03,5.532317161560058594e-01
-2.272811171016243456e-02,-3.232635686971733202e-01,3.102101403057622719e-01,-5.920396771138735845e-03,-3.412723338583284558e-03,-1.868787377138276130e-03,5.489806532859802246e-01
-1.273868169663641518e-02,-3.236324637033944907e-01,2.996763751210785309e-01,1.859648276725008997e-03,2.351026944682237368e-03,2.712694957624371163e-03,5.398472547531127930e-01
-1.710554015853286980e-02,-3.198712546359261943e-01,3.156445339016828999e-01,-6.920588334840506103e-04,-1.866964760915429877e-03,-3.311867164717330401e-04,5.505880713462829590e-01
-8.437295547032564250e-03,-3.243544415643608292e-01,3.033801820022213880e-01,3.136734288824166044e-04,4.503897645445826756e-03,1.662572949521274289e-03,5.437018871307373047e-01
-1.846534324120966547e-02,-2.674320644417341186e-01,2.937717165502479189e-01,4.620178572642222878e-04,1.121805309315687497e-02,-2.948217839452037334e-03,4.874600470066070557e-01
-1.493974235464331016e-02,-3.235201178659156129e-01,3.029650022987946945e-01,1.041290206522374343e-03,1.206908543938581052e-03,2.522217511341596878e-03,5.425966978073120117e-01
7.509576038792646624e-03,-2.863785286658606100e-01,2.997443830846546198e-01,1.262934964589996481e-03,-8.959757860593227374e-03,1.800626806719466953e-05,5.078398585319519043e-01
-2.084681732988216685e-02,-3.247297211683042306e-01,2.905598699423810327e-01,6.517649698189423302e-03,2.907021960453407862e-03,4.860661059876781979e-03,5.330795049667358398e-01
-1.878649371028307674e-02,-3.109810747869635184e-01,3.167636388208164289e-01,-1.766953589806254110e-03,-1.009124684570876507e-02,9.772155902468425328e-04,5.443668365478515625e-01
-4.664560355680931469e-02,-3.040794372751631780e-01,2.780865726997981402e-01,7.190909486301921144e-04,-1.272513469899382119e-04,1.770842016239743122e-04,5.052939057350158691e-01
-3.649106062737916822e-02,-3.093371537322294751e-01,2.731690543308037400e-01,5.296061956477956210e-03,2.483732302068678119e-04,2.764016445486017052e-05,5.048844218254089355e-01
-3.158501081156247364e-02,-3.140495122302314757e-01,2.688859018331678508e-01,-6.228845714774256491e-03,-5.659061540402314863e-03,-2.443899607571243995e-03,5.051452517509460449e-01
-2.785397483158429457e-02,-3.080918005376545588e-01,1.909814824268138145e-01,-5.166400595691240070e-03,-2.005094832502624103e-02,-3.243810929386905725e-03,4.348171353340148926e-01
-3.753875785412658095e-02,-3.003768365366315529e-01,2.555568561665249039e-01,-4.511317188097783808e-03,-1.308854888863879816e-02,-5.573969229368784181e-03,4.823834300041198730e-01
1.161796886500867515e-02,-2.982895335960088490e-01,2.988340346231491140e-01,-1.983820291313475367e-03,-8.624248811480885032e-04,9.969155789007281749e-06,5.172622203826904297e-01
-3.632538909607056082e-02,-3.093127003818572640e-01,2.837083929646195268e-01,-3.411346078978534646e-04,1.820915766019776030e-03,-1.529656889868722443e-03,5.141265988349914551e-01
-4.180085532730409836e-02,-3.085167619399424299e-01,2.783613165753499041e-01,-3.546712824323522677e-03,-1.195640684229976915e-02,-1.665513973219342331e-03,5.094197392463684082e-01
-3.129019450463410568e-02,-3.123841548118193590e-01,2.797437233818976798e-01,-6.887564566301978934e-03,8.272533952075403207e-04,-1.704123425201235211e-03,5.131654143333435059e-01
-3.832321072118336641e-02,-3.070753350568776185e-01,2.819370324931821381e-01,-3.792524499429835837e-03,-3.510068348268771329e-03,-2.942415427105744743e-03,5.108532309532165527e-01
-1.364231726172779845e-02,-3.183215585123503333e-01,3.155550809535960788e-01,-1.133295853506579957e-03,-4.390639408562092469e-04,4.258840590098762128e-04,5.490946769714355469e-01
-4.095061747434054072e-02,-3.605583810836924252e-01,2.770398213264655962e-01,7.308311160849135721e-03,3.103769933285729574e-02,-7.885654089888945867e-03,5.551000237464904785e-01
-1.268139015810338527e-02,-3.503224321048077905e-01,2.052720408784259876e-01,-2.427659166992664555e-02,6.230767531467707593e-02,-3.045133504486154108e-02,5.012902021408081055e-01
-1.786757003767388066e-02,-3.144778755533703674e-01,2.920060625967065282e-01,4.955151478228615215e-03,-8.219777797961312638e-03,7.345812191704376506e-03,5.256893634796142578e-01
-5.908804577793695841e-03,-3.043856083883085262e-01,3.107682631776177984e-01,-2.800906634932032332e-04,-7.227855120504628021e-03,3.063197666882565479e-04,5.329641103744506836e-01
-1.741371465456416703e-02,-3.043881417389684430e-01,2.885445012319401425e-01,-3.306711507445758095e-03,2.688123568596586643e-03,1.812532740241304884e-04,5.136355757713317871e-01
-2.282017917829165521e-02,-3.160162754915067373e-01,3.194219082460807435e-01,-5.559825574276046215e-04,-5.455742658705141183e-03,-4.161624775729812903e-03,5.509808063507080078e-01
-2.655610908868430084e-02,-3.095362666359119386e-01,3.098804568855265673e-01,-6.579567025723931373e-03,-6.459145395338046491e-03,-3.873887161852934604e-03,5.373753309249877930e-01
-2.561210586660748328e-02,-3.251638422456767374e-01,3.035830124114846096e-01,-7.443650987311194178e-03,-8.330377343482880947e-03,-5.284842365688037676e-03,5.451328754425048828e-01
-2.908901216370540430e-02,-3.193848226315290084e-01,3.160482476839560073e-01,1.404251130884556472e-03,-1.025402929898140605e-03,-7.270451845219003985e-03,5.511360168457031250e-01
-3.070228341059422217e-02,-3.281772302010064757e-01,3.150087297244409945e-01,-1.221265744145529672e-04,-9.691094016254621704e-04,-7.448010428559960006e-04,5.575413107872009277e-01
-2.155020131138570341e-02,-3.217002207275732051e-01,2.972302998129903173e-01,3.200512594367601986e-03,-1.669914287454988839e-03,1.177833005381152646e-03,5.361308455467224121e-01
-2.093402285367241059e-02,-3.215357956819141494e-01,3.048566696374522267e-01,-2.700025937530904576e-04,-8.124109601121738558e-04,2.600235727158968025e-04,5.426201820373535156e-01
-2.249620257018599898e-02,-3.150497918733650149e-01,3.177912257898371506e-01,-4.138258659438309207e-03,-5.050933850127141932e-03,1.438068387553288101e-03,5.486980676651000977e-01
-2.284181573213708849e-03,-3.240804329624381586e-01,1.519724476988363326e-01,2.588086028477416464e-03,5.920124376074111655e-03,1.175484233132371818e-02,4.213394224643707275e-01
-2.425605923961868249e-02,-3.150383102160532744e-01,2.901898535347570696e-01,-4.836073216390241424e-03,4.412819875068454446e-03,-3.923200467554158535e-03,5.244431495666503906e-01
-3.395601697248515349e-02,-3.074142521304225606e-01,3.191427071686992467e-01,-6.162282123494850460e-03,-4.685859879528173934e-03,-5.412859555102303433e-03,5.443193316459655762e-01
-2.184819610028801429e-02,-3.119735203633766107e-01,2.970226212935166421e-01,2.033211786459787097e-03,4.474460456013903270e-03,-4.922762696784150141e-03,5.277394652366638184e-01
-3.091951470139640834e-02,-2.562999462334206169e-01,3.113183462335288310e-01,1.406798882273944994e-03,-4.809728820622069523e-03,-1.505789616630955584e-02,4.957946836948394775e-01
-2.253138819312420355e-02,-3.166331045498682051e-01,3.042586979828540983e-01,8.068172657990242127e-04,-8.549677915157565715e-04,-1.867453377173591009e-03,5.379700064659118652e-01
-2.577536174084071874e-02,-3.055749642790615006e-01,2.969692380654891384e-01,2.700503068991337422e-04,3.537834830739136453e-03,-7.792613888209464629e-03,5.224707126617431641e-01
-1.418050840516794225e-02,-3.106974116164896715e-01,1.857629017234450342e-01,1.032936222431463623e-02,-4.499031356649930632e-03,3.493835946062873155e-04,4.330905377864837646e-01
-2.725730196273623909e-02,-2.771960086467659679e-01,3.067159384322435955e-01,-1.099356980099800265e-03,9.758636054035898372e-03,-7.989364646407324036e-03,5.078987479209899902e-01
-2.114269050102271508e-02,-3.175770786031134607e-01,2.749642974434800546e-01,7.673206937306789599e-03,-1.083305208368750324e-03,3.127527665117680288e-03,5.133600234985351562e-01
-2.726850095491153980e-02,-3.080194026098168614e-01,3.128943525235851619e-01,-1.066081872240194975e-03,-6.475058092246310966e-03,-1.573429921302340814e-02,5.393558740615844727e-01
1.949220037184553125e-02,-2.722166225195143396e-01,2.917320235458587541e-01,-1.590600350106413305e-02,-1.181152407862351948e-03,-2.278576742844952690e-03,4.892873167991638184e-01
1.129325273633972719e-02,-3.072143931556023944e-01,2.917363317814861690e-01,3.551272224444570634e-04,1.493321341247957771e-03,-3.128594896575550514e-03,5.190907120704650879e-01
-2.114165411364049563e-02,-3.198624117717330240e-01,3.001181834090997924e-01,3.968234230932257862e-03,-1.540545973961970905e-03,2.773676674522268320e-04,5.370880365371704102e-01
1.642012939356012058e-02,-3.002397401479295902e-01,2.892224687250508075e-01,-3.178161829987055740e-03,-1.992342610957524400e-03,5.505160614208445650e-04,5.110022425651550293e-01
-1.958236618901358986e-02,-3.204537842099259293e-01,3.047716157145607951e-01,1.407077531465690100e-03,-1.672720465624131635e-03,3.324367950182569021e-05,5.416015982627868652e-01
1.491979092099817057e-02,-2.934282081850068113e-01,2.877182996858422825e-01,-4.183014682528666921e-03,2.258547083517910108e-03,-3.267459807168319498e-03,5.037004947662353516e-01
1.782462329960514055e-02,-2.937013422698903642e-01,2.849906631186994721e-01,-5.273777059322477812e-03,-2.304268610252552425e-03,-2.281340010874648161e-03,5.017671585083007812e-01
1.959073913562220381e-02,-2.817923430209600677e-01,2.872081112886557541e-01,-5.438622268256219916e-03,-2.858702174993568105e-03,1.509748236400488153e-03,4.931797385215759277e-01
1.748674027283900548e-02,-2.940365855263891159e-01,2.828299313693278250e-01,-6.635040776198429351e-03,-1.622664146414370219e-03,3.428387361893236811e-04,5.002546310424804688e-01
-1.791996277303689600e-02,-2.169207441383428914e-01,2.974036585578274106e-01,1.916982338866176847e-02,9.582563045622941728e-03,-4.221122971062528893e-03,4.507896602153778076e-01
9.311364419378156260e-03,-2.961917443011149453e-01,2.847538527696494293e-01,-5.938481706824360121e-03,-6.433921926395544041e-03,-6.100638019132921617e-04,5.035676360130310059e-01
1.718652723709782754e-02,-2.732466558488786390e-01,2.844857362347620322e-01,-6.193263467565147907e-04,-1.829576149616040336e-03,-3.344328269412847753e-04,4.831608235836029053e-01
1.077077419400427304e-02,-2.674099553103395643e-01,2.920914008287400221e-01,-1.017314076282771658e-02,-3.079762457911001429e-03,8.974052900115521989e-04,4.848970472812652588e-01
1.574340131798130510e-02,-2.406551491858233138e-01,2.853090109895933257e-01,-1.364814888978155283e-02,-1.893770986970122082e-03,4.593529777215010074e-03,4.562399983406066895e-01
1.760290143317019829e-02,-3.121110811457803447e-01,1.169923677054014455e-01,-1.514503765774452690e-03,-2.952459742798322359e-04,5.513970064890171344e-03,3.891761004924774170e-01
-1.310240752519524834e-02,-3.290840623341152460e-01,3.033935816054531553e-01,-4.562414122438950351e-03,5.935655096558275882e-03,-3.611576992839647757e-03,5.479309558868408203e-01
-1.762280800640843303e-03,-3.236637071110020081e-01,2.099127163938819263e-01,-4.737543265434301584e-03,2.541676534897801057e-03,1.008528335030616126e-02,4.657866060733795166e-01
6.755097283442201839e-03,-2.028194535826266243e-01,2.839740589271857463e-01,3.505684805434307327e-02,-9.049867901881746002e-03,-9.589758601466722224e-03,4.278766512870788574e-01
-1.555720613188744158e-03,-3.087828451498461635e-01,2.950865822380173698e-01,5.531146315869504837e-03,-3.550382160241123252e-03,-2.506910853005136792e-03,5.231349468231201172e-01
-2.124977277025429795e-02,-3.207881895838294861e-01,2.747550401931145858e-01,6.553040194217767296e-03,-1.072293791488403885e-03,3.050597366923319363e-03,5.159138441085815430e-01
-3.922391760940063810e-02,-3.110320505530629331e-01,2.776737534364859816e-01,-1.025387332315090376e-03,-1.750473997412255655e-03,-3.021905064209433420e-03,5.103713274002075195e-01
-1.687058199229040170e-02,-3.227356301570602493e-01,2.881948953803717406e-01,3.053999207119247484e-03,1.483173650890476239e-03,5.720031260694678939e-03,5.292069315910339355e-01
-2.695694762935716554e-02,-3.139144087508029535e-01,2.969688349465233190e-01,-1.318642094248790924e-03,-1.796428120412986527e-03,1.293551724449573019e-03,5.293820500373840332e-01
1.528439031371075368e-02,-2.483362971098477257e-01,2.865858869933270991e-01,1.111383551723259776e-02,-9.454010334288076925e-03,8.877429879592909408e-04,4.639634788036346436e-01
-1.289392729438226803e-02,-3.127742928361619823e-01,3.010601348352807682e-01,2.248609355773577311e-04,6.102205789941858973e-04,1.005544125555782710e-03,5.316468477249145508e-01
2.794035816465475358e-02,-2.644623491589608855e-01,3.097748405439988417e-01,2.265410669465062546e-02,-8.614735474694950115e-03,-1.233667669622683614e-02,4.995578229427337646e-01
1.621417735452880537e-02,-2.388306084003115615e-01,2.858241306017128003e-01,1.145343914139448742e-02,-7.876463859836065409e-03,-4.241177480059112742e-03,4.551193416118621826e-01
2.546560780394615739e-02,-2.878303687819949164e-01,2.858976844540467299e-01,2.805141155711231380e-03,-3.003230317429527504e-03,-3.506631408709346819e-03,4.976536035537719727e-01
-1.808926462956590708e-02,-3.407941927460745313e-01,2.741321429869646442e-01,9.878440672842032574e-03,-1.741544080770477884e-02,-1.017142676662349636e-02,5.341780185699462891e-01
-4.630626709473011082e-02,-3.050593195421991699e-01,2.740893283811537406e-01,-6.054231078593952506e-04,-2.818136883322387189e-03,-9.444271899144632406e-04,5.025309920310974121e-01
-2.639894829961447406e-02,-3.241145618494824521e-01,3.066188928980752015e-01,-3.916240605182155776e-03,1.190069579304377928e-02,-2.644360798407761459e-03,5.469661355018615723e-01
-2.415185849651979577e-02,-3.166543160836946535e-01,2.968245600611403301e-01,-1.268286596271891433e-03,4.059258408140458438e-04,-7.263029121075725890e-04,5.314854979515075684e-01
-2.068334363312289773e-02,-3.123489814740594284e-01,3.076208017222022417e-01,1.239189174133379723e-03,-2.144526807487525961e-03,-2.966132931435560421e-03,5.372636914253234863e-01
-1.061092828000343574e-02,-3.309296882392407380e-01,2.548616368127963883e-01,2.747344409900780073e-03,-3.557733252103785753e-03,8.229116064381257131e-03,5.083103179931640625e-01
-1.834790411174392483e-02,-3.188887421057108318e-01,3.131250347408021106e-01,1.365838531098863262e-04,4.555251792720407290e-03,-7.533679741769772065e-03,5.477707982063293457e-01
-2.127269099244630951e-02,-3.196102508478355642e-01,3.089821876165867454e-01,-2.621410272626616394e-03,7.681069514555135917e-03,-3.925424247513831753e-03,5.448347330093383789e-01
-1.983349789659104301e-02,-3.305051509670882681e-01,2.972225191875228489e-01,8.641409444361763600e-03,5.579100121314856629e-03,3.564272718085258196e-03,5.439643859863281250e-01
-1.773151803974195792e-02,-3.314332137578168691e-01,2.802179937976417290e-01,3.074012833927212106e-03,3.300801419126295645e-03,1.040196354807158656e-02,5.301278829574584961e-01
-2.411080901890955142e-02,-3.152002835313493789e-01,2.434356354541196144e-01,-1.213459470440584817e-02,-9.454530181086422819e-03,-1.528623009963414776e-02,4.853916466236114502e-01
1.918069692568998789e-03,-3.012582854994295123e-01,2.967055371775646488e-01,8.857237471992344957e-04,1.157224629110872654e-03,2.082499257426333530e-03,5.178875327110290527e-01
-2.047304514822883767e-02,-2.938010883211946700e-01,3.065562905605492827e-01,2.058310099490416600e-04,1.145673351947658521e-02,-8.208304403987877473e-03,5.211896896362304688e-01
-2.182396547046442509e-02,-2.617296937480320662e-01,3.071932616731397614e-01,1.508404743680926601e-03,3.689363169618598438e-03,-5.102164843582774993e-03,4.948393404483795166e-01
-1.940996896231257651e-02,-3.305634981046298160e-01,3.053004795135657035e-01,5.144754519300672423e-03,4.101246017041914986e-03,2.928781427122482441e-03,5.508573055267333984e-01
-3.312993704966391006e-02,-3.072880392165218133e-01,2.909990160786284918e-01,-1.191969165855975192e-03,-2.160653511721189086e-03,2.072677381148119126e-04,5.187516212463378906e-01
-1.955936834563326565e-02,-3.050042313995986465e-01,2.924446792640054693e-01,-4.789756670989578184e-03,2.585175058152410291e-03,7.964917791715937778e-03,5.178459882736206055e-01
-8.256318664540858443e-03,-3.175177732655568019e-01,1.928243919232094372e-01,-8.301782657668130630e-03,-2.241465619472937654e-02,-1.331190456228240060e-02,4.477814733982086182e-01
-4.530185895072929431e-02,-3.050499676283238704e-01,2.710703046604711064e-01,-3.835578904100347616e-03,-3.193942997774611593e-03,-2.849831375097135362e-03,4.998365640640258789e-01
-4.523983098158426003e-02,-3.077600224759683978e-01,2.765887840334897430e-01,-1.090092053448384144e-03,-5.769640161742961397e-03,-2.745972017582636905e-03,5.070533156394958496e-01
-1.931797141389560157e-02,-3.305775486217121251e-01,3.045124679064563078e-01,3.704096248542286616e-03,6.655520567731057317e-03,2.360177535894087547e-03,5.502133965492248535e-01
-1.263062841305665623e-02,-2.930242700407505452e-01,3.063002771672930780e-01,3.524090389409445783e-04,9.906907884398796771e-03,-9.019742502390086861e-03,5.199063420295715332e-01
2.156274261395793590e-02,-3.017285374468405279e-01,2.893051906786931471e-01,-3.956492027727328067e-03,1.320211193495164723e-03,-3.873087838549582520e-03,5.126979947090148926e-01
2.323435958505045903e-02,-2.991231736838510513e-01,2.894969724045224901e-01,-2.469039316581618255e-03,1.802255674995121648e-03,-2.914004228837493212e-03,5.105834007263183594e-01
2.168591238559824247e-02,-2.692105000739049014e-01,2.880314683896595396e-01,-1.769935033420164464e-02,6.728525476454749743e-03,-3.972549168362040153e-03,4.839034974575042725e-01
5.979022053122730676e-03,-3.026866157762946874e-01,2.926889930242677074e-01,-5.512281388225022827e-04,1.653681884342584132e-03,1.432863517143715152e-03,5.157420635223388672e-01
1.337296748852389791e-02,-3.014746672767000812e-01,2.901555368646845934e-01,-8.017250230550489578e-04,-1.658189834078397946e-03,-1.261672711221260249e-04,5.127301216125488281e-01
-1.908959694675480684e-02,-3.202370208986100031e-01,2.815325886759729168e-01,-5.317333308264332939e-03,2.809534302053084075e-04,-4.351025805126149462e-03,5.212839245796203613e-01
-1.643120265633100235e-02,-3.197437113334977710e-01,2.895671751743856270e-01,-6.292271984355500211e-03,3.497826885253559580e-03,7.316003789146922030e-03,5.279797911643981934e-01
-2.070780497544373600e-02,-3.224122575976574034e-01,2.974576939156267086e-01,-4.702700443109212279e-03,1.844678232619388365e-03,1.641419132090963899e-03,5.369650125503540039e-01
-2.112885415304630726e-02,-3.244586599399809645e-01,2.943151933661378172e-01,-4.027441378555910237e-03,1.834747580833302749e-03,2.777156043210131462e-03,5.359845161437988281e-01
-2.163215481448838018e-02,-3.226774786401804818e-01,3.031081119882902963e-01,-1.392951410225309146e-03,1.291602142895697213e-03,1.303045903436077756e-03,5.420903563499450684e-01
-1.908982758955689654e-02,-3.102759147413944874e-01,3.073283901266771201e-01,1.134501795772071718e-03,-7.258206035001078978e-03,-9.662115691450932735e-04,5.353049039840698242e-01
-1.369719863626319041e-02,-3.092226242818095217e-01,2.930888260606660523e-01,1.181486957302662092e-03,-1.730711045411239017e-03,-1.173973749563247872e-03,5.216639637947082520e-01
-1.250068346202499320e-02,-3.032175292237104802e-01,1.636163537011275926e-01,-3.767106942402364579e-03,-5.404098508877702538e-03,9.789413337628796296e-04,4.084932506084442139e-01
-2.043706101423311064e-02,-3.209609308035751285e-01,2.964347290127651302e-01,-4.554034960563793644e-03,6.090239857663555740e-04,1.445178708574234314e-03,5.348078608512878418e-01
-1.802477391474259852e-02,-3.204220031418433812e-01,3.054577635969251137e-01,-6.917615943959216354e-04,1.212991198144490902e-03,-2.319142675162902097e-04,5.421358346939086914e-01
4.925577604619271743e-04,-3.170142268025321064e-01,2.061674131771488450e-01,-3.424102867234162136e-03,9.143137108824811758e-04,4.457160917710195971e-03,4.566324055194854736e-01
-1.982123833959572798e-02,-3.198984735147409886e-01,3.036320715468396880e-01,-3.029974417947096585e-03,3.283468639020098879e-03,-2.694203944700080690e-04,5.401753783226013184e-01
-2.432678062066959829e-02,-3.159087165113940721e-01,2.882466148620869140e-01,-5.294617621406727016e-03,2.434310283538449089e-03,-3.235398289854370113e-03,5.234464406967163086e-01
-2.434375611508572679e-02,-3.190712269905408016e-01,2.975847600125624548e-01,-4.347755233387293888e-03,3.068445026540389618e-03,1.088494318749138158e-03,5.342957377433776855e-01
-1.637953342596681558e-02,-3.136611615214484061e-01,2.965101238490492341e-01,-2.470758454502608274e-04,3.854352939510692459e-03,1.681918959855924255e-03,5.285318493843078613e-01
1.132215285964418422e-02,-2.918197267593793942e-01,3.012941532291350533e-01,2.908467926257333330e-02,6.325005051675577743e-03,1.259509221388117189e-02,5.167350172996520996e-01
-2.413086158144019805e-02,-3.184018638781926369e-01,2.495352258343714880e-01,-1.023650323246367427e-02,-9.781667570679520099e-03,-4.160966751427493462e-03,4.926194250583648682e-01
6.974784329945952870e-03,-2.914942374504309042e-01,2.874464483916935320e-01,2.705090461612102547e-03,4.524842161554171465e-04,-5.392655217242463056e-04,5.014814734458923340e-01
-3.864603390726001342e-02,-3.119204055621182525e-01,2.864611394347370554e-01,3.779064404558509036e-03,5.014602750021476298e-03,-1.278701553828309094e-03,5.189799666404724121e-01
-3.116839410278214248e-02,-3.102247397870247503e-01,2.857704953392151137e-01,-1.837233287953723548e-03,3.698450924753447690e-03,3.929779744659037772e-04,5.165444016456604004e-01
-1.817610878402648594e-02,-3.198561308719725105e-01,3.042415875550011362e-01,-3.430252780611328135e-03,4.193822161187959509e-03,-1.774250250453462008e-03,5.406740903854370117e-01
-1.999793568032651181e-02,-3.191912339397253162e-01,3.070654880509853801e-01,-1.499935961759295668e-03,2.138077734458978391e-03,-7.659705828939335735e-04,5.425537228584289551e-01
-4.296567271376927621e-02,-3.082575023956866112e-01,2.900988095375292009e-01,2.127492196867010465e-03,2.810685386067889296e-03,-1.283446543182837187e-03,5.193392038345336914e-01
1.388884848525356007e-02,-2.897473103991028420e-01,2.877206896141910053e-01,-2.276816325086098979e-05,1.444700161538960744e-03,-1.436662744450741078e-03,5.003364086151123047e-01
-2.984524068885420489e-02,-3.104008296228339958e-01,2.939576859701361622e-01,5.125756947390158053e-03,1.122628484876752458e-02,-2.105983701849179109e-03,5.242849588394165039e-01
-3.159179065142567189e-02,-3.105318178338400958e-01,3.028213462623857710e-01,-1.300109687419511318e-03,1.301466486160881945e-02,-3.202794520856910247e-03,5.324141979217529297e-01
-2.991827267744484944e-02,-3.124057966519072083e-01,2.825579119783538373e-01,4.703621739715491828e-03,2.138442779410047300e-03,-2.863870448098806455e-03,5.155733823776245117e-01
-3.326318573230216402e-02,-3.057387003546817583e-01,2.891031561806614580e-01,-2.213114759532277317e-03,1.805496088425865078e-02,6.930619416764765119e-04,5.167145729064941406e-01
-1.961244408651488871e-02,-3.197647202386603160e-01,3.066520111988086383e-01,-1.679914145545007053e-03,2.713073293337792298e-03,-7.418502904990488143e-04,5.426795482635498047e-01
-3.432084800071782960e-02,-3.098004930403930324e-01,2.667131073054867518e-01,-6.533284047715048372e-04,1.284894552964188121e-02,3.539665442738406699e-03,4.999733567237854004e-01
-3.052843768268462613e-02,-3.243016802015696309e-01,2.859450844702801087e-01,7.411164833449418454e-03,-1.455613009208107413e-02,1.497827310075109698e-02,5.300029516220092773e-01
-3.153080388331933048e-02,-3.164618769065959958e-01,2.607185757987637298e-01,-6.935761628085058278e-03,-1.250126593911459090e-02,-7.733883363967504129e-03,5.006585121154785156e-01
-2.103700353363733427e-02,-3.212003683174864399e-01,2.985771983117113670e-01,-4.742606299015373131e-03,1.141236189372801411e-03,1.153855154162167045e-03,5.369014143943786621e-01
-4.555328870305730415e-02,-3.065369251158012731e-01,2.704255909825041271e-01,3.558687187603654448e-03,-1.509434718199474971e-03,8.550543531334483215e-04,5.004672408103942871e-01
-2.917325274238287414e-02,-3.182777141487979633e-01,2.237169257494819319e-01,1.431444599750667304e-02,-1.846521031374181998e-02,1.014718575154858853e-02,4.717976450920104980e-01
-1.997670733377301944e-02,-3.217667828473411706e-01,3.048538019457455173e-01,-1.021273063904434971e-03,8.401687829374833699e-04,1.618381688982634353e-04,5.427964925765991211e-01
-2.587897100276865398e-02,-3.108237215749731774e-01,2.182302452984030694e-01,1.063960711354650611e-02,-1.009544996753637854e-02,-1.002993641604549855e-03,4.593352079391479492e-01
-4.207292566052095451e-02,-3.068562896965874587e-01,2.581102443137008873e-01,4.549652257508393464e-03,-1.301273278527985931e-02,4.664329295593469885e-03,4.902438521385192871e-01
-4.806273215640238794e-02,-3.063640525975096507e-01,2.757588495777099635e-01,2.087464028224529297e-03,-1.629029540089923676e-03,2.235937869014357777e-03,5.052322149276733398e-01
-3.821209296480443385e-02,-3.040268645714094831e-01,2.461421168185833341e-01,2.644524500606401478e-03,-2.128034917844023877e-02,5.532078122870756273e-03,4.780917465686798096e-01
-2.881321640441825843e-02,-3.119568488464434797e-01,1.885078329440798006e-01,5.535689706133336586e-03,-2.291258144342634556e-02,-1.615022755361947282e-03,4.365850985050201416e-01
-2.480542238273444888e-02,-3.215420557629986020e-01,3.223768678754675432e-01,-7.694892975769048078e-03,1.776715400496101105e-02,-2.460583614275140430e-03,5.592429637908935547e-01
-3.025521610895014202e-02,-3.212479220141293834e-01,3.010714173560613549e-01,7.094919563180888088e-03,-6.776345898113419162e-03,7.801790561225228904e-03,5.397583842277526855e-01
-1.742195748407713088e-02,-3.170162730235186466e-01,3.044137834274781573e-01,-4.801224639399061136e-04,5.206838953325678906e-03,1.964922234868907765e-03,5.383760333061218262e-01
-1.743072275484477962e-02,-3.194996919714708783e-01,3.037904524095770831e-01,-4.444591506987340037e-04,1.679777855686809740e-03,4.519851375517513646e-04,5.398789644241333008e-01
-3.223411771390472663e-02,-3.121618664364397833e-01,3.152616370616260766e-01,1.764583498024424124e-03,-1.718468049636762921e-03,2.798664894290963517e-03,5.444522500038146973e-01
-2.515691534347076069e-02,-3.109323625235649868e-01,3.042491349986365390e-01,1.502154596045808532e-02,-2.956851877010984592e-02,-1.825645715443893237e-03,5.363039374351501465e-01
-2.122622469543564844e-02,-3.276880164678052099e-01,3.366236699097175378e-01,2.739471175191389440e-02,-2.995571964227451006e-02,3.530202825939712536e-03,5.801926851272583008e-01
-1.488023923076610758e-02,-3.154422627775774202e-01,3.130217638604708141e-01,1.415053763292731205e-03,6.606577946967597198e-04,-2.529242912256837793e-04,5.444443225860595703e-01
-2.619598501415403707e-02,-3.209717831647651565e-01,3.013130805134199286e-01,-3.201728671173722108e-03,-6.146087367986822819e-04,1.173792790638798219e-04,5.391925573348999023e-01
-3.828738358588124058e-02,-3.289899718188155631e-01,3.061214115014032067e-01,4.532952893441920955e-03,-3.221695025452394473e-02,7.503784309514840295e-03,5.537059903144836426e-01
-2.522394597288387524e-02,-3.197763220961228336e-01,2.697369300325769270e-01,-7.752317246945713766e-03,1.717941305922999291e-04,-8.673656324809944640e-03,5.109310150146484375e-01
1.560032823744398472e-02,-2.982929012298063953e-01,2.922533176094699314e-01,1.954771590570225648e-03,4.859019704522684995e-03,4.498257144140009253e-03,5.119065642356872559e-01
1.229360873319346528e-02,-2.951301649517928394e-01,2.868367955853393658e-01,3.057185778071209916e-03,5.242195553821515398e-03,3.295429131530637837e-03,5.044080615043640137e-01
1.107989610562926802e-02,-2.958982797799121767e-01,2.919516503304229738e-01,3.166363033852450954e-03,8.026224274802887249e-03,2.592741612790539201e-03,5.094993114471435547e-01
3.381156034603736288e-03,-3.009286717440274872e-01,2.920219372481830389e-01,-8.379994348210139093e-04,-1.009478944318285745e-03,1.133217998146600477e-03,5.135788321495056152e-01
1.800069627062719085e-02,-2.950689413856493748e-01,2.869518959526303203e-01,2.649095072543556414e-03,3.201206745347060390e-03,3.594440937868698029e-03,5.046170353889465332e-01
1.641029580282851383e-02,-2.914592031445679687e-01,2.872011869040779763e-01,3.345520049328327278e-03,3.133150162482109275e-03,3.524451895375373730e-03,5.015773773193359375e-01
2.769913646302231761e-02,-2.620983101449056440e-01,2.883032284785244648e-01,1.423661397453273442e-02,3.738986771456862066e-03,3.373679758874232205e-03,4.776019155979156494e-01
5.299470396732899706e-03,-2.819607561048995126e-01,2.875375140406400964e-01,8.640148902676936943e-03,1.250935118912429277e-02,5.354768049354794758e-03,4.939959049224853516e-01
1.096134415937728007e-02,-2.968159007049017140e-01,2.917803838339832478e-01,4.527758102145759515e-03,8.031964541625720780e-03,6.469841942611137845e-04,5.101687908172607422e-01
6.758884265744449608e-03,-2.945870930958584544e-01,2.882440502774509805e-01,-2.483258272339513694e-03,-6.135695466968062129e-04,-4.516769921149819413e-04,5.048642754554748535e-01
-2.089934438143774276e-02,-1.319927204424485856e-01,3.086670756735053200e-01,3.498320607218256828e-02,-1.217340110339380256e-02,1.211050906306469083e-02,4.026468098163604736e-01
-3.976817417185433967e-02,-2.043227022448777241e-01,2.967178962592800784e-01,-9.671403469762850438e-03,-1.872059911039412449e-03,-8.198323715816566160e-03,4.429042041301727295e-01
-3.769563254164667865e-02,-1.490173074062811631e-01,2.886012678788737462e-01,8.478900693316162446e-03,7.331819523248956586e-04,1.446158651198409771e-02,3.950073421001434326e-01
-2.284187850290279875e-02,-2.315879397436362286e-01,2.995491890726398876e-01,1.173357227040182880e-02,9.278065640030308536e-03,1.769310980132464406e-02,4.652087688446044922e-01
-2.423376988586972355e-02,-3.201065592713789321e-01,2.900074031993133961e-01,-5.341924085092762328e-03,4.000971278780369317e-02,-9.493954444459001482e-03,5.333122611045837402e-01
-3.208548881381025064e-02,-3.081028631665265194e-01,2.926421532494844491e-01,2.649837930032629407e-03,2.303593950063781166e-03,-3.065951134860743152e-03,5.208927989006042480e-01
-3.638853441613423834e-02,-3.103981158339043089e-01,2.852867122362541807e-01,4.460396518232523019e-03,3.584671248237405669e-03,-2.918227653653115809e-03,5.165482759475708008e-01
-3.036677415160955046e-02,-3.153959310889342671e-01,2.880540865178592980e-01,5.047607274155367640e-03,-1.242451405875351876e-03,1.321944969144386948e-03,5.229521989822387695e-01
-3.326497080008535001e-02,-3.367472807641528898e-01,2.307026362441023659e-01,-9.457062942996825178e-03,3.363164829843919706e-02,5.509636435036029817e-03,4.956233799457550049e-01
-1.536154617266712562e-02,-3.206368950212158397e-01,2.949132033639652040e-01,4.318573841958632184e-03,5.221635482171365847e-04,2.878703423070021975e-03,5.331644415855407715e-01
-4.175470904044602249e-02,-3.094475826323918599e-01,2.830731552694223385e-01,-1.115914868536762878e-03,3.200044959545068381e-03,2.577986265048217308e-03,5.139855146408081055e-01
-2.361248497964457682e-04,-3.640365115835259013e-01,1.701577731032945240e-01,2.657107125954791434e-03,7.521165245012322725e-03,1.316632542532474894e-02,4.733762741088867188e-01
-3.701593540459060389e-02,-3.070910182018147250e-01,2.688135744577561659e-01,6.103636754623158189e-03,6.217798186995277844e-03,-3.223435629854246639e-03,4.993276298046112061e-01
-1.472418868075878878e-02,-2.620653733071975355e-01,2.929347045956777751e-01,1.150035923732577181e-02,3.550899473449257819e-03,9.449505106189562756e-03,4.823181927204132080e-01
-4.149660792127233058e-03,-3.065852599066051787e-01,2.931428117338607531e-01,-9.923107172107011389e-04,-8.328394858335393461e-03,2.913705635399158143e-03,5.196137428283691406e-01
-2.690577838497256249e-02,-3.096247106513412839e-01,3.108037736432995857e-01,-3.416509592392784431e-03,1.014283416580032127e-02,-3.235027157761402594e-03,5.383583307266235352e-01
-1.469859405319629518e-02,-3.190157468659167717e-01,2.854572885765001566e-01,1.167324008861617352e-03,6.371496874570015297e-04,3.877092959742531927e-03,5.235412716865539551e-01
-1.740514780549874685e-02,-3.197422361277683645e-01,2.709315355650311341e-01,-7.912885599589305000e-03,1.786332261426575767e-03,7.965309188563466335e-04,5.117811560630798340e-01
-1.961334770536813862e-02,-3.210049319372755838e-01,2.977712919647101386e-01,-4.569622575714054301e-03,2.061200328934910571e-03,1.089605270408677655e-03,5.360092520713806152e-01
1.032879875995820589e-02,-2.957118043474072366e-01,2.880749834083636829e-01,-4.638425308641159345e-03,-7.652824748684512735e-03,1.240119364962241448e-03,5.060141086578369141e-01
1.330690721575449390e-02,-2.798847753911983260e-01,2.892309713713643315e-01,-7.683777974097400106e-03,-7.551629372139632285e-03,2.611239421516513542e-03,4.933181107044219971e-01
9.401097813053611169e-03,-2.909154425044681025e-01,2.938603140336032982e-01,-6.482340864545147775e-03,-4.871816040355607912e-03,7.996963522794012019e-04,5.066893100738525391e-01
3.449823337263261888e-03,-2.691282807352541329e-01,2.960170206046208730e-01,-8.264794977692736452e-03,-9.449072045601575667e-03,2.944077382702979789e-03,4.900414049625396729e-01
1.168850697390418341e-03,-3.020193490945947690e-01,2.987870726778852903e-01,-2.144859219323679012e-02,3.999817067422191223e-03,-2.248235126762319295e-03,5.217061638832092285e-01
-1.855089593128974798e-02,-3.232806667320461957e-01,2.974205540563630290e-01,-4.305915182978649162e-03,2.294880932272435475e-03,1.395274606385147123e-03,5.376442670822143555e-01
-1.235067657299873320e-02,-2.794823901619326589e-01,3.050448506741030852e-01,3.886384909412642194e-04,-1.518023983147487668e-02,7.911890373710184741e-04,5.075227618217468262e-01
5.460039265734853257e-03,-2.959566909866403472e-01,2.934461427133005507e-01,5.124357719184342245e-04,-3.006671064758107120e-03,2.111059517389959634e-03,5.105224251747131348e-01
1.288798130874789678e-02,-2.899323892561578297e-01,2.887505286111116121e-01,-5.682805169239848672e-03,-4.719290841925254457e-03,1.224924890677242962e-03,5.015030503273010254e-01
1.689323572080194194e-02,-2.917177761605104225e-01,2.888532103100476256e-01,-1.225855133154071840e-03,-3.306819154182380309e-03,4.305268322445661541e-04,5.031607151031494141e-01
-5.086776250740089600e-03,-3.092823805750070099e-01,1.388129543231994556e-01,-5.936923014944873664e-03,3.335213843744958516e-03,-8.953201334068912332e-04,3.964306712150573730e-01
-2.280028088222114946e-02,-1.397890541460848346e-01,2.936683792864626108e-01,1.109594418237573946e-02,2.665979009119993134e-03,5.788717396078845584e-03,3.890414834022521973e-01
-1.922785332314725856e-02,-3.202102416955384112e-01,3.046021512250624563e-01,-3.367664494014129765e-03,5.376688668339475903e-03,-2.926434529673344683e-04,5.413357615470886230e-01
-1.912190320396712356e-02,-3.176174430389846481e-01,2.710537165434772078e-01,-7.749944236929200148e-03,8.874525499937945937e-04,1.783348357537424935e-03,5.100095272064208984e-01
-3.230304084699249512e-02,-5.817302731810683469e-02,2.994658333410373796e-01,-6.616295338097709887e-03,1.808590941668246311e-03,4.655431968622393904e-03,3.457294702529907227e-01
-2.705848596480155133e-02,-1.507451757050475571e-01,3.226840665445962486e-01,2.852727942407227643e-02,-1.834115629221112157e-03,2.157292980607761548e-02,4.297958016395568848e-01
2.359066011360438572e-04,-2.690660695272247271e-01,2.887912511731502430e-01,1.544574454105118689e-03,1.295589911486788592e-02,-1.141639292470407983e-03,4.837467372417449951e-01
-3.180987558120111636e-02,-1.206028519979918112e-01,2.825048443181200075e-01,2.260530995646036281e-03,-5.732939919679008343e-04,5.467960817233841371e-03,3.670052886009216309e-01
-1.515385675377095044e-02,-3.069888444434539787e-01,3.026193246482882793e-01,-2.732179941338986305e-03,9.106525037376862752e-03,-1.134446472117720027e-03,5.283557772636413574e-01
-2.148885778889976506e-02,-1.802745608805854105e-01,2.935051719388707681e-01,1.984185259589319253e-02,9.951333994012639267e-03,2.044155303260585324e-02,4.209304451942443848e-01
-2.102165142308996468e-02,-3.174948408422140211e-01,2.710422470386957827e-01,-6.661352282073786796e-03,1.737937474402183823e-04,1.653317263478884611e-03,5.098315477371215820e-01
-1.806970509607127434e-02,-3.205027590885589084e-01,3.049510503950714768e-01,-1.755430063748342543e-09,4.378975143065783624e-04,-9.394901401623500885e-06,5.417572259902954102e-01
-1.974978291693360588e-02,-3.196913187580039950e-01,3.029464684184530188e-01,-1.227634313125877674e-03,5.226544680159849490e-05,-5.492924256472029752e-04,5.393452048301696777e-01
-2.001385828601575170e-02,-3.193538353791431361e-01,2.999935376323190628e-01,-1.530172842623187587e-03,-1.563332281910855080e-03,-5.345257809944586186e-03,5.365633368492126465e-01
-3.406143718820679039e-02,-3.151789575114323783e-01,2.936360003442174960e-01,-3.731025800983614731e-03,-1.087050975102128812e-03,7.168965573979910058e-04,5.278077125549316406e-01
1.365972490061874087e-02,-2.769203406417506952e-01,2.819738727160212566e-01,1.239148613505606155e-03,7.751469016271318908e-03,2.189050633090313357e-03,4.843503236770629883e-01
-2.504547396227505690e-02,-3.218007072910052946e-01,3.005891907843563082e-01,-5.300452250940123483e-03,6.175370518810219733e-04,6.395239598752428976e-04,5.392792224884033203e-01
-2.482005257427490758e-02,-3.146867252420060268e-01,2.841124529133830512e-01,-4.167268364407089587e-03,-2.052142386116304854e-04,1.358297625228687029e-03,5.187186002731323242e-01
-1.218589905107203726e-02,-3.088155428150390347e-01,3.008054524968028498e-01,1.383790628295082170e-03,6.387049308521681838e-03,2.259386305452498311e-03,5.281464457511901855e-01
-1.708872340636582998e-02,-3.202004094502137188e-01,3.053061487609550761e-01,-8.765955882021612321e-06,-1.581689143840368653e-04,6.862309562897399403e-10,5.417904257774353027e-01
-1.952749158360919668e-02,-3.191118880640986810e-01,3.045513259224117419e-01,2.034462356194358633e-03,-4.729848940743044267e-03,1.816179452854541640e-03,5.403297543525695801e-01
-6.436195982224655367e-03,-3.115719933572315692e-01,2.991469211657776239e-01,1.528488782247386976e-04,3.244124311851182170e-03,9.098091297351665416e-04,5.289304256439208984e-01
-6.680692715899529989e-03,-3.157553806420822506e-01,3.031386269367403741e-01,-2.766569850998081871e-03,4.373990198700602322e-04,-6.617477992239509822e-04,5.360012650489807129e-01
1.715586253751984896e-02,-2.951216156244277911e-01,2.867904187158687446e-01,-3.680093704222148210e-03,-2.495058868642301836e-03,1.521644285717759513e-03,5.044671297073364258e-01
-3.010227515337428328e-02,-3.085230543913025092e-01,2.732995076850761040e-01,7.614973063306470016e-03,3.669696930587096275e-04,1.580984825450296874e-05,5.042008757591247559e-01
1.368416814652870933e-02,-2.941223337334901711e-01,2.906059102823947971e-01,-3.131362943961121456e-03,-5.884920748155191526e-04,-9.110041842461753716e-04,5.066574215888977051e-01
-2.926316855863687200e-02,-3.229101924775366061e-01,3.107530829299103292e-01,-3.669940820109983404e-03,1.017001519018027357e-02,2.042139893629368961e-03,5.495885610580444336e-01
-2.430914461648684896e-02,-3.174991733561583485e-01,3.018073745653422346e-01,-2.785957436289292818e-03,1.086477759682712542e-03,-1.636332936642630317e-03,5.366203188896179199e-01
7.423144827435603985e-03,-3.013525378746098049e-01,2.925582107839332369e-01,-3.868178926408172942e-04,-3.209128606333424769e-03,1.567947046040795182e-03,5.145152211189270020e-01
1.141753742802408683e-02,-2.843594462372402432e-01,2.856885644157042825e-01,-7.060841835851227634e-03,-6.414861569917411875e-03,4.105276986176146538e-04,4.940700232982635498e-01
1.072955231807054370e-02,-2.876119226711231769e-01,2.876565739772011243e-01,-6.272524189202210131e-03,-6.232208149114794662e-03,-4.850130137485564514e-04,4.985481798648834229e-01
4.803134564680164309e-03,-3.000678352198991039e-01,3.584323453948443650e-01,3.425294324628126025e-02,8.558263387855895299e-02,-8.385724420379657949e-04,5.927109718322753906e-01
-2.206117000872464054e-02,-3.203230138126155757e-01,2.705941974980283771e-01,-9.283002085029535763e-03,-7.864021028219774292e-03,-4.478649825262780333e-03,5.122494101524353027e-01
-1.815704326521964951e-02,-1.582266928598434486e-01,3.505162027898556243e-01,8.627833189863005903e-02,-2.625176314182341847e-02,-1.765070795886739333e-02,4.821963906288146973e-01
-3.495739764368120759e-03,-2.966223231848027497e-01,2.996357442687576089e-01,8.375667944760977618e-03,-9.563432900180434499e-04,-4.099136628773769782e-03,5.166540145874023438e-01
-2.482297599302177304e-02,-3.103285897413946559e-01,3.027318162124264522e-01,-1.310386251184163069e-03,-6.666231877443364387e-03,3.723317854043083942e-03,5.315114259719848633e-01
-2.081279780324252898e-02,-2.964847173930691415e-01,3.108741808341785040e-01,3.080228264832664004e-03,-1.511192349645233690e-02,-5.936304051075853502e-03,5.275105237960815430e-01
-2.200716727637772735e-02,-3.134843438672963445e-01,3.017999253218133227e-01,-4.233579035984480488e-03,-1.621346897263063183e-03,-1.981138612087968002e-04,5.331549048423767090e-01
-2.217249357237574547e-02,-3.126504337200029515e-01,2.393152071095897004e-01,7.353424531299732406e-03,1.456624664048992773e-03,2.380190548833452120e-03,4.784299731254577637e-01
-3.321670347653437466e-02,-3.149960856709274060e-01,2.768963760449170142e-01,-8.838365737340208791e-03,8.877101561170250982e-03,6.614210622132968113e-03,5.133762955665588379e-01
-4.511862852678024532e-02,-3.053684506690581557e-01,2.827273309038911830e-01,1.094287591474768463e-03,1.373501324643622810e-03,-5.839697196790247539e-04,5.104361772537231445e-01
1.033657343112632729e-02,-3.086001410010693613e-01,2.989752257194174256e-01,-7.966131758210249353e-03,2.295352566093577466e-03,-4.462008005723425152e-03,5.266462564468383789e-01
-3.173698108714340105e-02,-5.045311368606166802e-01,5.001689183461427435e-01,-6.311034498484929811e-02,9.023948878616164584e-03,1.507102857614927606e-03,8.775762319564819336e-01
-3.018411131625154536e-02,-3.125489358861221478e-01,2.921013491737293744e-01,-4.137041839574433569e-03,-2.203049634645065234e-04,1.612009019818294380e-04,5.240719914436340332e-01
-2.615547088255343322e-02,-3.121567632153720573e-01,2.932145287708996517e-01,-4.311664571961676580e-03,1.668963702057513774e-03,-1.066132295209446261e-04,5.245934724807739258e-01
-3.399339859641110212e-02,-3.148916496044943947e-01,2.903776475436855575e-01,-5.864848173510979652e-03,-2.723950809583297258e-03,-1.549911202312540155e-03,5.247554779052734375e-01
-4.240425393024292722e-02,-3.115617333160633495e-01,2.917544681319731992e-01,-1.928048036007417448e-03,5.159913737705543700e-04,1.725830302864053310e-03,5.235169529914855957e-01
-2.174444144349285332e-02,-3.217177146825733747e-01,2.808582649081452498e-01,-5.961909318646602639e-03,-5.171786239325451432e-04,-5.117109385101451489e-03,5.220259428024291992e-01
-2.510364594765383817e-02,-3.011961441643392634e-01,2.107631296880901062e-01,-1.940585345615727974e-03,3.716939997680841854e-03,1.673027172746252794e-04,4.438852071762084961e-01
-1.868906418491417254e-02,-3.211104663854312258e-01,2.920716793382238663e-01,-4.813064816799018757e-03,5.873521530433456310e-03,1.332392057333632368e-03,5.312155485153198242e-01
-2.254422426369193447e-02,-3.080875768762975087e-01,3.121052438533720719e-01,7.933688050708675261e-04,7.047864715076076515e-03,1.901998390303818358e-03,5.378140807151794434e-01
-2.288699455897631740e-02,-3.090298442763208531e-01,2.572914032243965310e-01,-7.524309820321201450e-03,-2.166355617352382014e-04,2.229462235168133862e-03,4.906461238861083984e-01
7.286899417251233024e-03,-3.176731931389273900e-01,1.960599903688907131e-01,3.266546312333110276e-03,2.790848656390643515e-03,3.876695104465992161e-03,4.501983225345611572e-01
-1.933551956209421385e-02,-3.205845274367468689e-01,3.013219445365758475e-01,-3.293353280985259531e-03,1.339455150736797639e-03,-2.026807801494902393e-03,5.387208461761474609e-01
-1.963539601039045526e-02,-3.194900612441747834e-01,3.007860051685411484e-01,-2.812872886072813328e-03,1.398658012106196360e-03,7.768677433965501429e-04,5.373024940490722656e-01
-2.059532580974047372e-02,-3.223703122380099373e-01,2.975383184333011966e-01,-4.541254979243927042e-03,1.750520591877769219e-03,1.546594351142095963e-03,5.369917750358581543e-01
-2.922477994408350516e-02,-3.150251411757281628e-01,2.880409848528978634e-01,-3.541789979451600602e-03,-1.581965576356975881e-03,9.095296404156755265e-04,5.225530862808227539e-01
-1.700845704402176653e-02,-3.191126384872596811e-01,3.047541921869456605e-01,-2.437546584288993561e-03,4.960322438260479638e-03,-5.488273254265431302e-04,5.404595732688903809e-01
1.575860068096725589e-02,-3.045782166555260906e-01,2.991242607423815758e-01,1.522450759145492190e-03,3.156053086206332681e-03,-2.724713532061099307e-03,5.232048630714416504e-01
-3.131600934146393928e-02,-3.090055826719965149e-01,2.702265547520098510e-01,-4.820141981630347329e-03,-1.561492425575176923e-03,4.749391528980113778e-04,5.018489360809326172e-01
1.782992410762028815e-02,-2.701803418572290560e-01,2.794557868455798122e-01,1.846255430819732091e-02,7.675416692177195995e-04,5.609623379946431301e-03,4.773549139499664307e-01
1.365973121371634458e-03,-2.975721324705137838e-01,2.970358435077170012e-01,-2.710315403892516036e-04,5.916919446712870338e-03,-6.662763132722870603e-04,5.150516629219055176e-01
2.518206491606183803e-02,-2.907965160767790880e-01,2.912173969636864257e-01,1.765823062444086058e-02,-2.274946360065018512e-03,-1.514457636898322579e-03,5.056051611900329590e-01
1.344949784355726520e-02,-2.822372481040100745e-01,2.836910254001117071e-01,-2.479163344474058010e-05,4.486330320597330112e-03,-2.873391247262350448e-04,4.903351962566375732e-01
-4.846813698415458616e-02,-3.075172456270873211e-01,2.724781605072129631e-01,1.648471110936583365e-03,-1.119887131627024350e-03,3.884187218155292325e-03,5.033001303672790527e-01
2.539706505686174093e-02,-2.879476430897260353e-01,2.830216210561857793e-01,3.906717794306850851e-03,2.660707004413069305e-03,8.984681805112512687e-04,4.953282177448272705e-01
2.223927572843503384e-02,-2.883947643019025286e-01,2.879806486265196197e-01,3.809414202648792828e-03,-1.560320662539233568e-03,-1.171171997392740811e-03,4.997151792049407959e-01
2.383199956019705842e-02,-1.979315479314283643e-01,2.826600928933329371e-01,3.884865956728085490e-02,-4.574729715031574349e-03,1.645172788562182216e-03,4.220997989177703857e-01
1.538872465852945612e-02,-2.612549922857085871e-01,2.790506663205251647e-01,1.962106039718182135e-02,6.458994496717333084e-03,4.978387241412121980e-03,4.694083929061889648e-01
1.306220359727990402e-02,-2.471956076116087475e-01,2.785511685741168808e-01,1.380312202821661408e-02,-1.105985614778821034e-02,5.737506441436734245e-03,4.564552605152130127e-01
-3.145092030474347378e-02,-5.716619246857546077e-01,9.402486036376306311e-02,-1.663265563501076585e-02,4.305325742891960572e-02,6.239515372870258272e-03,6.179506182670593262e-01
2.363732596457193691e-02,-2.694612773819642926e-01,2.854719976252484970e-01,9.837921484041426204e-03,1.443429837527149609e-03,-1.612601327106480539e-03,4.811569154262542725e-01
1.868271002428028779e-02,-2.936647543097332114e-01,2.870771513050653923e-01,2.034583239116025122e-03,3.400770746077743430e-03,3.222368244604602826e-03,5.034949183464050293e-01
-3.871131749345929629e-02,-3.128611948908927021e-01,2.852978934784397569e-01,-6.322987677291190545e-03,-1.297928549468011297e-03,-2.838622339088511890e-03,5.187642574310302734e-01
-2.519010146071557973e-02,-3.150023003471332794e-01,2.683877448282910305e-01,-9.257712371838967141e-03,-9.284142667267129140e-03,-6.095134186405881498e-03,5.058543682098388672e-01
-3.195379451588662573e-02,-3.177791781779300551e-01,2.838325905887041922e-01,-7.499640213825891147e-03,4.919875925626258570e-04,1.494494933401657472e-03,5.213953256607055664e-01
-1.484100278322806124e-02,-3.238399030429798819e-01,2.693372593272789772e-01,-7.044253778742007831e-03,-2.857095089092602253e-03,-5.112403818180610675e-03,5.141012668609619141e-01
2.137473796440184093e-02,-2.632373117053733447e-01,2.790872753060210654e-01,4.330779159643313204e-03,-3.374736588179499171e-03,-1.276389086000981462e-03,4.699608385562896729e-01
2.416978716170507802e-02,-2.877585794548419007e-01,2.842232613952697662e-01,4.055758005324454005e-03,-2.732360481190726238e-03,-3.377363206280642287e-03,4.961362183094024658e-01
-1.709684784347876088e-02,-3.227967827980981474e-01,2.750850492446708095e-01,-5.531638069767513127e-03,1.341457429892370509e-03,2.076258219568805942e-03,5.179312825202941895e-01
2.076962449646726355e-02,-2.905401895051655248e-01,2.876668634261246860e-01,4.719361051260963398e-03,-1.182893138987314244e-03,1.924820706216539288e-04,5.013051033020019531e-01
-3.554314442346530323e-02,-7.322667218186976190e-02,3.007449364578809736e-01,1.243846982204422150e-02,-4.639356895177582964e-03,2.664855604467997185e-03,3.573965132236480713e-01
-2.845060172538119159e-02,-3.114269239715193316e-01,2.935166564172123627e-01,-3.306654420260769778e-03,-1.116299783965268638e-03,-3.659985974393707795e-03,5.243322849273681641e-01
-2.898276527764627464e-02,-3.112867275134287293e-01,2.846148149379867931e-01,-3.421302469102239889e-03,-9.281004817069327595e-04,-9.561775784647960326e-04,5.163421630859375000e-01
-2.572195911279766961e-02,-3.169044423734798110e-01,2.975067674635381576e-01,-1.997444307814838851e-03,6.464578386466608186e-04,-5.898779025048368589e-05,5.323493480682373047e-01
-4.359632370712192284e-02,-3.080681339362459359e-01,2.832016625884588024e-01,1.187291169661850799e-03,-2.286816457466432900e-03,5.786541451822201478e-04,5.130224823951721191e-01
-2.517113665371190079e-02,-3.138158382153478088e-01,2.927750727075060233e-01,-3.411861288739576710e-04,2.105827943730336285e-03,-1.770988903419750717e-03,5.255493521690368652e-01
-2.922887903146367122e-02,-3.172956202916322743e-01,2.948700912583973599e-01,-3.018098086361534118e-03,-1.967145062557783611e-03,-1.243797088015223627e-03,5.304981470108032227e-01
-1.388576825020291367e-02,-3.482228916240758254e-01,1.440585362361354038e-01,1.147225219494868442e-03,-2.196113809894090566e-02,-2.381959534488952129e-03,4.370379745960235596e-01
-4.621749605522153248e-02,-3.069192894198626842e-01,2.918697363401390188e-01,-7.736571826660252867e-04,3.399682463579362188e-03,-9.135105088169292098e-04,5.200455188751220703e-01
-1.776347182595754137e-02,-3.249766925603097545e-01,2.185633006604976725e-01,-3.826705030025625773e-03,-5.498778185450005351e-03,-1.595673078063467726e-02,4.730026423931121826e-01
-4.841832581524926904e-02,-3.039346891865361000e-01,2.722420920212386131e-01,-5.058380130681415033e-04,-1.533591652696234247e-03,1.492917537127268516e-04,5.000535845756530762e-01
-4.145035798626700574e-02,-3.038899668180219948e-01,2.772327297315537731e-01,-1.959764850606128192e-03,-8.527609136854030943e-04,-6.821444934914163306e-04,5.040670633316040039e-01
-1.138310301933870283e-02,-3.203680795609700760e-01,1.804258773110789249e-01,-5.932587871123389152e-03,-2.293488805255931504e-02,-2.631631117766632111e-02,4.419159889221191406e-01
-3.343244489068505909e-02,-3.092918562713660724e-01,2.536184429675963359e-01,-9.392466225288796655e-03,-1.103873103734890650e-02,-6.102837878711640622e-03,4.882870614528656006e-01
-3.110677993688256565e-02,-3.207142648181166567e-01,2.936365125843753976e-01,8.829886987466612283e-03,-2.626217692794315106e-03,9.277321213363019792e-03,5.328148007392883301e-01
5.009546295974970365e-04,-3.408133483350054282e-01,1.096048139420268686e-01,-2.567325044353260116e-02,-5.004509624428582493e-02,-1.559917071961939780e-02,4.193550944328308105e-01
-1.309098940761026578e-02,-3.145436162036610583e-01,2.166767424603919245e-01,-2.989093172441351955e-03,-7.868763092543506685e-03,6.416434502022522884e-03,4.618084430694580078e-01
-2.275437334845094306e-03,-3.106523749267498524e-01,1.513410943196825675e-01,2.309638458558532868e-03,1.745402463401730898e-03,1.716483055311338176e-03,4.075538516044616699e-01
-8.123071826856839012e-03,-3.209311288434165133e-01,3.038932348081647694e-01,-3.487389089739049552e-03,-2.303235779800657038e-03,2.186050867295878924e-03,5.411756038665771484e-01
-2.208160108447404513e-02,-4.672456629992399746e-01,1.650270004254481560e-01,2.427584523908542236e-02,-6.545429232710019141e-02,-4.067751149069365191e-02,5.797063112258911133e-01
-2.096834328137016715e-02,-3.183470114133279405e-01,2.425959874026007435e-01,1.809998774032880661e-02,-5.974902152579863318e-02,1.209790838551443211e-03,4.979715943336486816e-01
-3.098345564212012793e-02,-5.445835343902279968e-01,1.657933413983590509e-01,-7.365797071136137575e-02,-7.714179224033143600e-02,-1.785847344116086796e-02,6.623115539550781250e-01
-1.870396843744781198e-02,-3.166901016833025828e-01,2.859260523510541718e-01,1.565908448678181818e-03,-2.135618561757300117e-03,7.960171464456228946e-03,5.220937132835388184e-01
2.847652420737298296e-03,-3.141827081563762780e-01,2.952078503939082332e-01,-1.086136820943026582e-03,1.468680605913394097e-03,1.680331588300215586e-03,5.279093384742736816e-01
-3.322105387127178427e-02,-3.192994288293158345e-01,2.187834245158934432e-01,9.154457619249252096e-03,-8.527414979136303808e-03,1.186682598960832682e-02,4.672602713108062744e-01
-2.924609786341617404e-02,-3.133064683568267950e-01,2.569040329452868532e-01,-1.106623115706702014e-02,-1.479338357290075961e-03,1.670926763994752323e-03,4.942048490047454834e-01
-2.929221983831926945e-02,-3.039578842582192908e-01,2.316513854080093360e-01,-5.561659302258472638e-03,-2.755237012708739233e-03,1.479729814098213478e-03,4.640336036682128906e-01
-2.721832628735960935e-02,-2.747897152814482991e-01,3.074228622271845679e-01,3.341286356674311783e-04,-6.367899861596122138e-04,8.076836158050949496e-03,5.062816739082336426e-01
-1.394932342872990619e-03,-3.021020930583701025e-01,2.967287505181047669e-01,1.720807440101241453e-02,-5.364956502078073279e-03,5.175660729504375640e-03,5.196205377578735352e-01
-4.604003624044516324e-03,-3.331696731749796414e-01,3.173786027014918742e-01,1.670493830111107955e-02,-1.213989865107629150e-02,-4.478796736037962082e-04,5.645356774330139160e-01
-1.799488021532397869e-02,-2.931300837483361010e-01,3.019160017039080879e-01,-1.028355518660395342e-03,-7.386083365494425408e-03,1.898152277334643704e-03,5.159832835197448730e-01
-2.022639901732598694e-02,-3.197288473028079281e-01,2.823595828632468607e-01,5.007684614595517801e-03,-7.162165725393950053e-04,-3.419307784163490554e-03,5.215333700180053711e-01
-4.974339212105408081e-02,-3.074214663950572968e-01,2.791404807777116415e-01,5.698451143428725487e-04,-6.856072745730098714e-03,1.019086793537341733e-03,5.093661546707153320e-01
-1.949865025499034760e-02,-3.318896846144104296e-01,3.070896695390116227e-01,2.426114709672601115e-03,3.477433101311354097e-03,1.362532970672308873e-03,5.534716248512268066e-01
-1.600793623737029395e-02,-3.155280495845891320e-01,2.969617181119227345e-01,-1.693155945591279981e-03,-4.049420472721321045e-03,1.722622375964075452e-03,5.305371880531311035e-01
-2.846995366264111829e-02,-3.193506727952160063e-01,3.122737968566277611e-01,-1.280540270952604471e-03,-1.108611892403435321e-02,-6.746838192454271931e-03,5.480363965034484863e-01
-4.934928096303199674e-03,-3.263152369926444196e-01,2.993584032550013485e-01,1.662989645360750390e-02,-9.120982687795946633e-03,2.580196928793307767e-03,5.429298281669616699e-01
-4.266297411144379104e-02,-3.100393085417416650e-01,2.793350243776046016e-01,-3.441422332878654299e-03,-5.060305133562485475e-04,2.690892795977690619e-04,5.111790299415588379e-01
-2.763863976876414219e-02,-3.119481931031292121e-01,3.011732268319300410e-01,1.259271872770295229e-03,-5.672681338117795645e-03,-1.408712186261157221e-03,5.315456390380859375e-01
-1.446669045821451574e-02,-3.284225664048708304e-01,2.996963167390066518e-01,-2.301623282662790346e-03,-5.074396615152763912e-03,1.020490439744615660e-02,5.443395972251892090e-01
-2.327350344453406675e-02,-3.234864363547742538e-01,2.968536338857853396e-01,9.059932108222223208e-04,2.088511816717670850e-03,2.559124013793795394e-03,5.373553037643432617e-01
-3.867638938101114476e-02,-3.043569713048540626e-01,2.664191336968325663e-01,-5.587683280838500431e-03,-1.540037040711924026e-04,-1.892981586153452776e-03,4.948049187660217285e-01
-3.948555850213202045e-02,-3.106031780732738667e-01,2.700116841966552772e-01,-8.013199542849888668e-03,-1.492391922777284519e-03,4.735449113740279538e-04,5.033919215202331543e-01
-3.906271645258063696e-02,-3.031105011312416608e-01,2.571400101338673361e-01,-3.300860068509449061e-03,-3.085247731045806519e-03,4.482759781118991868e-04,4.855211675167083740e-01
-2.674277704080063253e-02,-3.156626700641601557e-01,2.924929834878368107e-01,3.788532561071430473e-04,2.854381903180158503e-04,3.251475964475136239e-03,5.269270539283752441e-01
-2.023828512442017030e-02,-3.078728459333640033e-01,3.075929176402786847e-01,4.370678685289006767e-04,-5.734576523680668184e-03,-1.857903504241246138e-03,5.334904789924621582e-01
-3.763440516288929505e-02,-3.095602069754614383e-01,2.798234961981705404e-01,4.762748706418697651e-03,-7.515112972177404559e-03,4.813951374098046285e-03,5.112290382385253906e-01
-2.254777459297790942e-02,-3.215406142836420567e-01,2.949207172661398868e-01,9.430326839784019394e-03,7.372855098990889477e-04,7.177286227929812780e-03,5.343469977378845215e-01
-3.508286537781225151e-02,-3.091519797523459290e-01,2.886619592054417427e-01,-5.186034035668347572e-04,2.468886849785508018e-03,-1.198929171791504036e-03,5.183401107788085938e-01
2.590271666206363579e-02,-2.973275491964126327e-01,2.952359454854119880e-01,9.266743651593814524e-03,-3.285508992915560453e-03,-3.671906715683819454e-03,5.142035484313964844e-01
-3.967043094521603697e-02,-3.111986338361839577e-01,2.819141201787848106e-01,1.726808124193942489e-03,-1.079532288248006644e-03,3.188277903581069120e-03,5.143018364906311035e-01
-3.991049594967965852e-02,-3.158776129149065137e-01,2.853857585877276892e-01,1.076130552678578912e-03,2.091571738830162383e-03,5.807245501625603844e-04,5.213100910186767578e-01
-2.979330910456228290e-02,-3.137485160927326877e-01,2.856197310883560880e-01,5.017233657994559295e-03,4.915952121267223819e-04,6.195481700303473709e-04,5.193808674812316895e-01
-1.284775551018946943e-02,-3.502525878617754884e-01,1.860163112347005543e-01,1.591366193388014244e-02,-1.406582968373137031e-02,4.083825545084761310e-02,4.762805998325347900e-01
-1.207620933785023831e-02,-3.280315929202401448e-01,1.986506960884383000e-01,5.990506636860436392e-03,5.188330590330320763e-03,2.331698707846307714e-02,4.611218869686126709e-01
-3.694905477637761004e-03,-3.232104337911322900e-01,3.933578620304997719e-02,-2.956695891117625506e-03,-2.014099878307659339e-02,7.990185055050863516e-03,3.451456427574157715e-01
-2.257230476669810915e-02,-2.612037234200010882e-01,2.248164855088261305e-01,-6.983421161023321833e-02,-3.401958322797286882e-02,-1.254162628156319133e-02,4.424423575401306152e-01
-5.069609816625943177e-03,-3.192601679128372338e-01,2.378248577782065554e-01,-1.520472839452673662e-02,-7.738117794516566339e-03,-2.838866479451959343e-02,4.871545135974884033e-01
-1.896606939314849152e-02,-3.202824149834286316e-01,3.158907367370654140e-01,-7.442784308569151599e-04,-2.146263760043651530e-03,-3.642889168162374500e-04,5.512117147445678711e-01
-4.482951319175344784e-03,-2.983844735726989272e-01,1.522618925784262334e-01,5.987581512125065945e-03,1.198206887038032274e-03,3.318565110211840839e-03,3.964334726333618164e-01
-1.571336373027752698e-02,-3.223520281907845120e-01,2.415992009353033487e-01,9.299580187118782273e-03,8.048865242937228159e-03,4.494368759327401299e-04,4.894827902317047119e-01
-1.549421281332586005e-02,-3.145444228099418815e-01,2.800130145574771801e-01,-3.421394585331153683e-03,1.060432786320202915e-02,7.858688330943296380e-04,5.152682662010192871e-01
-2.048770098331931938e-02,-3.267073478312589319e-01,2.248184055959374095e-01,-2.489336509090292124e-02,5.860976531663156935e-02,-8.862779915620459109e-03,4.913889467716217041e-01
-3.741489700306048494e-02,-3.134987296426792192e-01,2.930731558798346792e-01,2.955120198051778852e-03,1.453900633779281817e-02,2.488363392008904125e-04,5.266379714012145996e-01
-3.981889207068313452e-02,-3.079361132357947839e-01,3.184875341963246398e-01,3.025663726476639746e-03,-6.837836524947936596e-03,2.579357750704543671e-03,5.445421338081359863e-01
-2.543121637131250112e-02,-3.068839087967666357e-01,2.199103564143765066e-01,2.670123893844757266e-03,2.847031207662950505e-03,6.336143221600564531e-04,4.566257297992706299e-01
-2.549526292629729352e-03,-3.116757773066684001e-01,3.075215262611710187e-01,-5.824753734814169586e-04,6.941635120912221027e-03,2.016400830329489417e-03,5.363879203796386719e-01
5.579704124939095095e-03,-3.096787617271247184e-01,2.945403987525139766e-01,7.344928608640785908e-04,4.784268749586833951e-03,-6.746793695674279528e-04,5.235027670860290527e-01
1.003701355450550316e-02,-2.964437876704389407e-01,2.931483441827921754e-01,-6.050851078776203762e-03,3.682303452233966039e-03,-3.766813120316759634e-04,5.108832120895385742e-01
1.065198359180763964e-02,-3.008352013556536142e-01,2.914584682892789602e-01,-3.252186483132458311e-03,6.034834415144201339e-03,1.110696661754990208e-03,5.133116841316223145e-01
3.632513939303363363e-03,-2.774604168408242866e-01,2.929025532634856877e-01,-8.124028101223774306e-03,1.065193331015730493e-02,2.629335543462342408e-03,4.945313930511474609e-01
1.027299568047229661e-02,-3.040410776401172854e-01,1.021055700504772401e-01,4.965107585339147665e-03,-3.758582316643596438e-04,1.186093612336888486e-03,3.690114319324493408e-01
9.278342804810435496e-03,-3.081540629814035759e-01,2.202645365267998090e-01,-8.907406245314761217e-03,5.087105054203027582e-02,-8.307683387786835363e-03,4.695327877998352051e-01
-3.779256563022258264e-02,-2.990884169451878960e-01,1.879996717214849900e-01,-4.418596475567788256e-02,-8.877025314070959320e-04,-7.084343557299085936e-02,4.462870955467224121e-01
-5.936665927251325026e-03,-3.202565980115044675e-01,1.956105997014362385e-01,-2.066885861880688856e-03,2.403755509640042123e-04,3.950665796429858601e-03,4.503647983074188232e-01
-3.833573215021384220e-03,-3.094611195296499417e-01,3.028305340933732381e-01,-7.081889248791673960e-04,-3.094088501582702069e-03,-2.077027149897235202e-03,5.303010940551757812e-01
-8.818385556898769486e-04,-3.049533069674675301e-01,3.031283375246376921e-01,-3.470795748345340058e-04,-4.988538026723308288e-03,-1.240428949721203824e-03,5.266897678375244141e-01
7.811647608744615168e-03,-2.863592985716343908e-01,2.932400278795707083e-01,3.130104512882533625e-03,-9.381298148552107835e-03,-3.587468860533453863e-03,5.022974014282226562e-01
1.351677357692552921e-02,-2.904178700180481965e-01,2.913971270573223471e-01,-5.985947658209785267e-05,-5.758807697747531096e-03,-1.922597209732575555e-03,5.041446089744567871e-01
1.882745110842251731e-04,-2.969484645106916787e-01,2.979640589650122684e-01,3.233888222501435979e-03,-8.134745896881617018e-04,6.786219738510181575e-05,5.152418613433837891e-01
-1.689349141086133113e-02,-2.379482021549627624e-01,2.979080161131623106e-01,6.005735864355677203e-03,6.637421367169305496e-03,1.566273822322782972e-03,4.666918218135833740e-01
4.164454456025493134e-04,-3.269055475625691209e-01,2.236320923861127019e-01,8.480944395364649682e-03,-3.512160143866097702e-03,-3.256978077533204032e-03,4.799092710018157959e-01
4.994625022671200787e-03,-3.136500688523250480e-01,1.294114591377558410e-01,4.801357763462772189e-03,-7.593448070718417705e-04,-3.716430071863393659e-04,3.958914577960968018e-01
-3.240218693450638149e-02,-2.987449624636002166e-01,2.319471587230612086e-01,-4.795206313706056565e-03,-3.514875667823387506e-03,2.514616046158484920e-03,4.597299396991729736e-01
-1.981289401054788651e-02,-3.123618059946153269e-01,3.118595978913810129e-01,-2.506827008678308606e-03,7.876146220004544632e-03,2.274767240571004979e-03,5.411491394042968750e-01
-4.576550324665164260e-02,-3.038328457451641706e-01,2.617802789127786078e-01,-1.541310275770280038e-03,-6.188202480120317053e-03,-4.704360582809944172e-04,4.905847012996673584e-01
-3.378273564356790160e-02,-1.618970769115219699e-01,2.942856974062704745e-01,1.148692362275963554e-03,7.991950877430801028e-03,2.042326876617211323e-02,4.092912971973419189e-01
-1.493693418791382926e-02,-2.312155461322167593e-01,3.006986266385301976e-01,3.525381708194818067e-03,4.999927023935435595e-03,1.561556101680623004e-02,4.642319381237030029e-01
-1.402117328513416417e-02,-2.935880525371759031e-01,3.044574381656505180e-01,-6.582431747723622301e-03,1.133343254409130071e-02,-1.601648380046855752e-03,5.187922120094299316e-01
-1.551755927274316160e-02,-1.923290463198533973e-01,2.935658303095519117e-01,1.729915203295780135e-02,9.528395066730760074e-03,-1.527679621095475988e-04,4.273342490196228027e-01
-3.769491831335455151e-03,-2.700372352927812858e-01,2.885498924302702939e-01,8.061144570528457932e-04,1.111521892292305011e-02,-1.158934063087882060e-03,4.843149483203887939e-01
1.041035866067721583e-02,-3.049208706209677322e-01,2.953341626316817736e-01,-6.184693944127181604e-03,5.669535870534943463e-03,-3.268824373731555612e-04,5.202617049217224121e-01
-9.025072809445922051e-03,-3.093919417550697326e-01,2.892231498212273211e-01,2.799564801909688871e-03,-5.368409414913725107e-03,-2.132991690227670906e-03,5.185361504554748535e-01
-1.606604913231754472e-02,-3.175678844592426664e-01,2.959533588888110800e-01,-1.173790645666796147e-03,-1.374703222987043883e-03,-4.178094222735019916e-03,5.314095020294189453e-01
-4.724338075238443402e-02,-3.027171637231724222e-01,2.703515720065713945e-01,-1.134057412500856553e-03,-2.412252709027130990e-03,-9.076572058666347478e-05,4.972845613956451416e-01
-2.598703916600623304e-02,-3.116824930276476668e-01,2.873079326332240724e-01,1.894187616647254827e-03,-1.034409596085878082e-05,-5.011417457549280363e-03,5.190073847770690918e-01
-2.144432011116415016e-03,-3.182603098928346586e-01,4.617214951800011069e-02,8.301781900085321211e-04,-2.700570916146080927e-02,1.523733670577397635e-03,3.460265100002288818e-01
-2.218727947068374617e-02,-3.093862501200302928e-01,2.961276430375556767e-01,1.588090854668045221e-03,5.091358478939531085e-03,-6.031682472329696204e-03,5.248064994812011719e-01
-1.511512291324285454e-02,-3.082092785684745206e-01,2.932439117470566625e-01,-3.323196940075762618e-04,2.537807871717529754e-03,-3.697951676857353688e-03,5.209878683090209961e-01
-4.489093960566582775e-02,-3.018877901343745007e-01,2.685205033500045468e-01,2.220713229598837799e-03,-2.264829689878598579e-03,-9.019452331283840001e-05,4.948232769966125488e-01
1.039293935175691387e-03,-3.079462412359429413e-01,2.948352778414484177e-01,-1.127276591860277948e-02,-8.973168059221200976e-03,1.195617609729591633e-03,5.226795673370361328e-01
-9.040569844165903882e-03,-3.138612425881262546e-01,3.029918089305571605e-01,-4.688164273118296081e-03,9.826451410615048843e-03,-4.838804352933675709e-03,5.346210002899169922e-01
2.614564619920009634e-03,-3.035604004835061320e-01,2.971736013278092337e-01,-7.007786180829899021e-03,2.688013502464942864e-04,-4.802324336864882519e-03,5.204915404319763184e-01
-4.270339093707695155e-02,-3.026032866102817409e-01,2.571142990199647982e-01,-4.316693766260525436e-03,-2.907275116837061257e-03,3.890992351913265474e-04,4.852245748043060303e-01
-3.915115444700131841e-02,-3.062400550981141389e-01,2.710127893869234139e-01,-2.741142956792343068e-03,-3.054215916775892062e-03,-2.414149860507104790e-03,5.004473328590393066e-01
-2.481666260142059363e-02,-3.159821936284485933e-01,2.996975061960402975e-01,-3.796763248988600011e-03,1.777215504586623310e-03,-1.192250993851543981e-03,5.335083007812500000e-01
-2.960462850067765300e-02,-3.280379291470373326e-01,3.055370050912103452e-01,-1.232802391395063091e-02,-1.203490766416064409e-02,-1.731284335282913187e-02,5.506263971328735352e-01
-2.843046849721642989e-03,-2.812137409107206554e-01,2.900415581063970905e-01,-1.273179875086640107e-02,-8.728570255596068347e-03,3.008858694438147977e-02,4.982298314571380615e-01
-1.866976477169717680e-02,-3.191186734302086103e-01,3.173392556598830239e-01,-1.363046185849816575e-03,-2.866060281766674364e-03,6.125195862349473675e-04,5.515038371086120605e-01
-5.302940685229848468e-03,-3.016289447744908703e-01,2.952156903300862112e-01,3.892668842119152576e-05,-6.782199792589237337e-03,1.717299448370779996e-03,5.170288681983947754e-01
4.955029878379181574e-03,-3.018844062617991875e-01,2.929387843068884667e-01,-1.020693250801476409e-03,-4.122844986888780407e-03,1.467120933742991273e-03,5.152770280838012695e-01
-7.175349638754813936e-03,-3.080954573355647597e-01,2.998778974049227664e-01,8.713647074122681012e-04,-2.264378293434670438e-04,-1.705633673856828646e-03,5.265399217605590820e-01
-4.537419764488887126e-03,-3.044822301140699405e-01,2.975799867065710980e-01,-2.714144648852507245e-04,-6.380640881183946914e-03,-5.203053594657298464e-04,5.215204358100891113e-01
-4.008738587840708634e-02,-3.060666498530375534e-01,2.690095186822226703e-01,5.151869906680400790e-03,-7.168049614744959053e-03,-1.420458873849395770e-04,4.987314641475677490e-01
8.763144450811798103e-03,-2.732767485404459795e-01,2.844316718441689540e-01,8.072248782196437579e-04,-1.115100281087995533e-02,-5.931835176819528089e-04,4.833892881870269775e-01
-1.941227054994068557e-02,-1.795757771704858952e-01,5.181191789215865429e-01,9.088618841024002915e-02,9.136268690816762642e-03,-1.964807316088923450e-02,6.533565521240234375e-01
-3.782160623565011814e-02,-3.122457156508696707e-01,2.845755199029151861e-01,6.205972921825741312e-03,-6.576476744400896329e-03,5.240315273259405285e-03,5.177351832389831543e-01
-3.782052515798474401e-03,-2.888863273585920988e-01,3.009227090873501376e-01,-1.011220257507649493e-03,-1.350553763718987180e-02,3.707614387410404022e-04,5.114222764968872070e-01
2.561640994517885156e-02,-2.826645381671344381e-01,2.829089579057692538e-01,3.752262941911932263e-03,5.283583559905707201e-04,3.960102957163388654e-04,4.905084371566772461e-01
1.703474575201752855e-02,-2.707924649870091516e-01,2.872904188677472548e-01,2.393931440739891815e-03,-6.298010733931754500e-03,-5.353049184204993432e-05,4.835346639156341553e-01
-4.797044511847513987e-02,-3.084519282214368552e-01,2.873060372286374564e-01,2.851203669960764887e-03,-1.250374971798507220e-02,5.662649479029406921e-03,5.178647041320800781e-01
-7.961315385868403260e-04,-3.038867318320159217e-01,1.459388913467183913e-01,-5.993444084772526353e-03,-2.870751375408331103e-03,2.349998590793755341e-03,3.975149691104888916e-01
-4.152416011573323296e-02,-3.103369507218491918e-01,2.823311860062986955e-01,9.494650954526433250e-04,-3.518320399387761706e-03,4.854456178266056479e-03,5.141105055809020996e-01
-2.778650550041304387e-02,-3.109913588964933751e-01,2.462262996706948148e-01,-6.756697047404979124e-03,1.485889871406918632e-03,4.453518900869045810e-06,4.827352762222290039e-01
-3.807523607550639816e-02,-3.079532181802605573e-01,2.825841124567534113e-01,4.058719026529024332e-03,-5.140523567765894336e-03,4.445655560066390580e-03,5.122337341308593750e-01
7.723638565165016900e-03,-3.044748630622505225e-01,1.006228369486212026e-01,-4.153571071017835383e-04,-3.685244567694815048e-03,-3.331472447738903064e-03,3.676624894142150879e-01
-3.152185449617174451e-02,-3.780721004890956194e-01,8.409207644784039148e-02,-2.005402619894177188e-02,3.594393461010778057e-02,-2.784847918507624490e-02,4.253689050674438477e-01
-7.387847070493134237e-03,-3.095497056003412850e-01,3.084005740165042808e-01,4.175919021231179408e-04,-8.728854446959291927e-03,-3.150570865205518881e-03,5.354458093643188477e-01
-1.930239976922144829e-02,-3.256712956439069551e-01,2.648992024611183105e-01,-7.963848693942777307e-03,2.215751836742714791e-03,-4.652342497024726346e-03,5.118328928947448730e-01
-2.898165037484964207e-02,-3.050403257157213721e-01,2.104125806693958323e-01,-4.582014038281241597e-03,3.184986213801637312e-03,-2.833828895679827982e-04,4.468763768672943115e-01
2.866618466341726117e-04,-3.085276095989819001e-01,3.029442378250623569e-01,1.756506776003426140e-03,-7.457729086407544929e-03,-2.023682257433650090e-03,5.297369360923767090e-01
-1.324395952245095189e-02,-3.098247782559492847e-01,3.121615339690153035e-01,3.683918894121105065e-04,-1.788276836387865101e-03,-3.151681269052760575e-04,5.388582944869995117e-01
-1.454543927998718650e-02,-3.101114468270207980e-01,3.121264209756002272e-01,-8.714472658489745820e-04,-4.498713768097572195e-03,-2.821877665299465454e-04,5.391568541526794434e-01
-1.923664062330660007e-03,-3.033060353917643726e-01,1.393869596200396077e-01,-2.658326483392888569e-03,3.701665625816541634e-03,-1.208892700026740282e-04,3.917281031608581543e-01
-8.383863190808233876e-03,-3.094021310658274793e-01,3.089052189457904274e-01,-5.539999494077662776e-04,-6.233603642632396837e-04,-1.638147703420918689e-03,5.355411171913146973e-01
-3.799035359966594378e-03,-3.084428367709723395e-01,3.051680779354277173e-01,3.669767358778344485e-04,-6.053706781823921419e-03,-2.730783683291349798e-03,5.315318703651428223e-01
-3.680951325129083740e-02,-3.093656143938938730e-01,2.919407061639224810e-01,2.859313442949591548e-03,1.425818753818723812e-02,-1.684257327774390297e-03,5.221200585365295410e-01
-1.941609810908214578e-02,-3.179309569483747544e-01,2.568638674795806764e-01,-9.658257092395293193e-04,1.142973017111667718e-02,1.046478561253173052e-03,4.983105659484863281e-01
-3.837479236016004547e-02,-3.377105040723833995e-01,3.173747865183239036e-01,-3.226772414626191167e-03,2.389586790743114877e-02,-1.237091005906755233e-04,5.695546269416809082e-01
-2.060843582529905613e-02,-3.296192309401394516e-01,2.920800997158237156e-01,7.358260503132422158e-03,2.133293855827222973e-03,3.936882846754180066e-04,5.385744571685791016e-01
-1.368971997931756057e-02,-3.458716638754220640e-01,2.002545235272852331e-01,-1.491868490478333829e-02,5.029106981198806087e-02,-3.069792668265946059e-02,4.881267845630645752e-01
-3.467628274073136785e-02,-3.048848315606967896e-01,2.104937297257788442e-01,1.643986313235305157e-03,-3.759174508908628889e-03,8.226418272912902011e-04,4.465653002262115479e-01
-1.082744613021563440e-02,-2.251609921066891340e-01,2.762799114049444560e-01,-4.813765812105086361e-02,-3.557794925488880211e-02,-2.147787562844864426e-02,4.494877159595489502e-01
-4.432340796748209660e-02,-3.098052384834558137e-01,2.843245877109343844e-01,1.495976284772278665e-03,-7.664013330426983420e-03,2.946258291552189285e-03,5.157025456428527832e-01
-2.756087973832709731e-03,-2.477151514038835045e-01,1.872938831454877828e-01,-6.702648279524094088e-02,7.384865258520667552e-02,-1.112286539339800082e-02,4.157980978488922119e-01
-2.263888002466948879e-02,-3.836047876356830089e-01,1.056812802618520841e-01,-1.711603026299068214e-02,2.330675822096554481e-02,5.002159303490039816e-02,4.506624341011047363e-01
-1.459800177010056599e-03,-3.352382801301421189e-01,1.122052462053065303e-01,-2.719120260680109313e-02,7.507163354612310380e-02,4.571689312455119378e-03,4.259751141071319580e-01
1.514118663698734921e-03,-2.709476292332379521e-01,2.936202271962436439e-01,-7.534140479024019343e-02,9.163232712534384594e-02,-1.489994825009815539e-02,5.310683250427246094e-01
-4.740469892607231811e-02,-3.029001047238126243e-01,2.684234029656555331e-01,1.065213175543013686e-03,-1.599605811015445377e-03,2.320666786398769641e-05,4.957106113433837891e-01
-4.153739035436637000e-02,-3.156512428963856309e-01,3.009328352323906719e-01,-4.337689500976790041e-03,-8.747384925617654114e-03,-3.427763601893611678e-03,5.353702902793884277e-01
-2.827360781156400271e-02,-4.045772944217030931e-01,2.624153836475255352e-01,-5.169584489683943379e-02,3.707842990274496514e-02,1.237723733100557465e-02,5.899943113327026367e-01
-2.035210563751152155e-02,-3.196061759687647275e-01,2.997866804499991211e-01,2.019538807453164202e-03,-1.522410427567344893e-03,-1.899556421072506667e-03,5.365395545959472656e-01
-2.066267013610127365e-02,-3.180346213468736583e-01,2.723350544104619630e-01,3.645882233835618866e-03,-1.321256823544137435e-03,-5.933083906946304970e-03,5.114271640777587891e-01
-1.889712649449457396e-02,-3.192663912840063567e-01,3.062586984226711717e-01,-2.814589778986030782e-03,3.329028659949010305e-03,6.870534142338574710e-04,5.419162511825561523e-01
-2.049712414443304390e-02,-3.195109209427807184e-01,3.052226637710650503e-01,-2.382985584048814744e-03,5.226017860381014166e-03,8.761055552881348791e-04,5.412934422492980957e-01
-2.018747464647182438e-02,-3.208328568979987305e-01,3.017257759190358768e-01,-3.383456992066353943e-03,1.018463471253433245e-03,-1.917693032662989763e-03,5.393013954162597656e-01
-4.209495791661867908e-02,-2.986362647432893036e-01,2.573766471238678744e-01,2.282761201735766451e-03,-8.426467046175461226e-04,3.053024187616685745e-03,4.820469319820404053e-01
-2.138134700676807762e-02,-3.193959566566557107e-01,3.070411319806455874e-01,-1.803389353765527366e-03,1.573811839932576879e-03,-1.124529011885721554e-03,5.427427887916564941e-01
-2.192814579791110136e-02,-3.293687201775793993e-01,2.066745292884686891e-01,-5.596448626098495492e-03,1.254317883128619297e-02,2.431558010337198442e-02,4.684018790721893311e-01
-4.706485418775285812e-02,-3.076357027442085945e-01,2.753543340852840360e-01,2.191304931616753614e-03,-5.398167463225443836e-03,2.843752108316464043e-03,5.059549808502197266e-01
-2.022167362030331469e-02,-3.302087719501693996e-01,3.033212382199017565e-01,1.075485029140536061e-03,6.510164337003475831e-04,5.725403706622665765e-04,5.487001538276672363e-01
-3.318178204341525050e-02,-9.621998695935049528e-02,2.840575923788596913e-01,1.205586487996726172e-02,-3.090151642311811993e-03,4.311208038969367197e-03,3.537418246269226074e-01
-1.798249321028964898e-02,-3.151079843458305940e-01,3.153179193875032538e-01,2.105633490238213018e-04,-5.245096526020871265e-03,-1.682084439173023608e-03,5.463477969169616699e-01
-2.556671643183183740e-02,-7.878826872326288866e-02,2.833747385030380705e-01,5.480852224228840996e-02,-8.349502458351474796e-03,-8.330208788909039194e-03,3.523477613925933838e-01
-1.500951029788899493e-02,-1.513485574750106921e-01,2.820683751369061354e-01,2.912132745890907287e-02,1.527767802073564524e-02,2.393495823587015944e-02,3.902690708637237549e-01
-3.197009920865258314e-02,-7.781310003572289302e-02,3.313579593015125724e-01,6.187619185703562008e-03,7.390999806086453322e-03,-1.069139951619143929e-02,3.890842795372009277e-01
-3.464779480243469767e-02,-1.253761665823265870e-01,2.862237381173312611e-01,1.544163944886765057e-03,-9.248929782059862534e-03,-1.495658292414790182e-02,3.758153915405273438e-01
-1.590990938077525840e-02,-1.333008104139178640e-01,2.824043806022128456e-01,1.510493295921658437e-02,-8.457946434296829876e-04,4.754956813524031413e-03,3.722175061702728271e-01
-2.437776636523297791e-02,-3.108050204752108026e-01,2.923407933655226554e-01,-3.134567176673947603e-03,1.522352352103366682e-03,-3.245284617621100286e-03,5.226241946220397949e-01
-5.576648556356741948e-03,-1.469487488778709883e-01,3.067974819388603058e-01,4.432069398533499544e-02,6.680975552550224780e-03,7.723192525457267359e-03,4.097931981086730957e-01
-2.420740665189398400e-02,-1.429167115922624631e-01,2.854130290819235638e-01,1.739505504535929573e-02,-8.581069409699774303e-03,-1.480124794621605344e-02,3.853536546230316162e-01
1.210611753620539910e-02,-2.101958759380448960e-01,5.408879038454894594e-01,5.914271009239708415e-02,1.173986491576851747e-02,-9.448154450205846488e-02,6.958914995193481445e-01
-3.441675777986300325e-03,-3.162638457910521006e-01,3.503877216256202631e-01,5.878408501266961517e-02,-1.210622668680100267e-02,6.946742246694649625e-03,5.871028900146484375e-01
4.085924251559588591e-03,-3.567185295802563494e-01,3.789421476938041322e-01,3.561954388481250455e-02,-1.021791582890010583e-02,-8.735631245031160938e-03,6.405429244041442871e-01
8.055402849162342574e-04,-3.404266566683483153e-01,3.347865143800917709e-01,4.297286651311147537e-02,-2.313855130406458627e-02,1.207122260800542156e-02,5.912115573883056641e-01
-2.699562145922942968e-02,-3.084007348475049648e-01,2.523709478021123886e-01,-7.854928897233815627e-03,2.528814039013735707e-03,-3.769390086731658814e-03,4.858977198600769043e-01
-4.063659913259601297e-02,-3.146216228905964751e-01,2.851856745449867225e-01,-4.123715301902936697e-03,1.591009543245873632e-03,-1.068175767366276192e-03,5.201542377471923828e-01
5.459683280786060099e-03,-3.025417176512844586e-01,3.018398756732506572e-01,2.325608790170110435e-02,-1.856184260847085210e-02,-2.483024534332550076e-02,5.277284979820251465e-01
-3.656578459294590466e-02,-3.100548263492955425e-01,2.759127846040805854e-01,-6.568803673038773813e-03,1.880844910783490949e-03,-9.363682769040499593e-04,5.079776048660278320e-01
1.903925787580454734e-02,-2.791684388498415492e-01,3.602563383049942058e-01,3.820367387816801796e-02,-1.363800153178457673e-02,-4.143567158293689698e-03,5.586578249931335449e-01
-2.471940341370539029e-02,-3.114734928587983842e-01,2.521996765616180691e-01,-8.159637539785161847e-03,2.029649409539083325e-03,-3.185405076454468718e-03,4.884284138679504395e-01
-2.793544738185147966e-02,-3.135246332476935294e-01,2.688955284896915043e-01,-4.967100508843235243e-03,2.344021355746852761e-02,6.573597941551130933e-03,5.062543749809265137e-01
-2.967865903609374217e-02,-3.115703059387595619e-01,3.051435806563486675e-01,-6.389304605225672477e-04,2.942122758716061298e-02,5.449100482311188508e-03,5.372518301010131836e-01
-4.207300421870310836e-02,-3.032230454873691694e-01,2.686778875012648671e-01,-2.120562324409416746e-03,6.674936321609902141e-03,2.216302841489812582e-03,4.960644841194152832e-01
-2.513582239131226595e-02,-3.051405050515294537e-01,2.059626435938686495e-01,-4.703977682242269434e-03,-1.607819404925525664e-02,1.975675983747855833e-03,4.442650079727172852e-01
-3.978272524432300422e-02,-2.365928271591878906e-01,3.085596673215717511e-01,1.888941678650272798e-03,-1.077484519773178571e-02,7.081368560304856542e-03,4.786892235279083252e-01
-3.820991807097411791e-02,-3.108348458605946774e-01,2.764609862009193564e-01,-5.928750543658245151e-03,6.961062551569487632e-03,5.852089237855325268e-03,5.093945860862731934e-01
-3.574769690463560495e-02,-3.108781818235245575e-01,2.949858157021185145e-01,-4.975477790469894253e-03,1.053248153933579630e-02,7.871585419161441621e-04,5.258186459541320801e-01
-1.890771511145354980e-02,-2.582944058132460863e-01,2.742181554370153873e-01,-2.181158896073977227e-02,7.144690821587499838e-03,-4.709046903066044926e-02,4.707781970500946045e-01
-4.721862500156066844e-02,-3.054838178948910410e-01,2.826923361440200622e-01,3.602989721416202944e-04,2.865938293943293483e-03,-5.186721355775933656e-05,5.106580853462219238e-01
-2.659180863015317767e-02,-3.127731153852252866e-01,3.256055142384932655e-01,-1.731972973230300845e-03,2.913583850998533765e-03,-4.340211003688705660e-03,5.539187192916870117e-01
-2.392403915652194929e-02,-2.275117021530926320e-01,3.011692118685046493e-01,-2.708868517351781564e-05,-1.495091238452653758e-02,-1.006779786620994911e-02,4.629181325435638428e-01
-2.364936430237402076e-02,-3.315426290905841844e-01,3.001461101072187554e-01,-6.024988752831627117e-04,3.097097639522758145e-03,6.099927630972263801e-03,5.472455620765686035e-01
-1.801829449412640713e-02,-2.619491723733268773e-01,3.158835367357962776e-01,-1.607245269315377275e-03,2.358476661984085579e-03,-1.570734275012461781e-02,5.031960606575012207e-01
-3.034527328001699123e-02,-3.265662423084221277e-01,3.131717410122790701e-01,1.206040864595478348e-03,-1.781609753864791049e-02,1.049087712030644798e-02,5.556928515434265137e-01
-2.256246996864268162e-02,-3.255647259689330997e-01,3.161723667048152997e-01,-1.041249789289017125e-03,9.327550176705626684e-04,2.427617972942704670e-03,5.560688972473144531e-01
-2.265130756348898017e-02,-3.235204119895535024e-01,2.692692213071982699e-01,-9.462777748070680395e-03,-2.557159252961860481e-03,-5.199853747016245677e-03,5.137499570846557617e-01
-2.793633238302269117e-02,-2.618878881351087706e-01,3.115407021968666923e-01,-2.569909904373906488e-04,-3.629998635015866445e-03,-1.495980796027332818e-02,5.001102685928344727e-01
-2.029142632880469310e-02,-3.281786294469995480e-01,3.131851731404602379e-01,-2.576984002870917525e-03,4.306205388772540651e-03,5.316304261130239822e-03,5.557289719581604004e-01
-2.358404276180961837e-02,-3.173341724859566892e-01,2.033066513154135890e-01,1.023408001807076320e-02,2.015917043190080735e-03,-2.641718778007037111e-02,4.547941386699676514e-01
-1.439930560596922038e-03,-3.278738437475391954e-01,8.391159479038554081e-02,-1.561778429800931656e-04,-2.369585191499171475e-02,-1.630581841236009716e-02,3.797206878662109375e-01
-2.531327503179770649e-02,-3.207577631128016304e-01,2.871040691190506200e-01,3.849549877132876601e-03,-3.549950931683274759e-04,2.212043948770083240e-03,5.265486836433410645e-01
-1.725167211247153123e-02,-3.247641633327880140e-01,2.576871304304264587e-01,8.216495253358565773e-03,1.441442772450171942e-04,4.757236856360369987e-05,5.048811435699462891e-01
-2.290719177671596968e-02,-3.318985678464932421e-01,3.110783094130322168e-01,-8.250021894741264925e-05,1.598143263250838232e-03,-2.111230747545201052e-03,5.569934248924255371e-01
-2.427959618114704926e-02,-3.009681043619847340e-01,2.077438108755147450e-01,1.599368452524350254e-02,-2.782359930107960316e-02,5.814677752453104899e-03,4.447256326675415039e-01
-1.867378353399191601e-02,-3.239464098677003467e-01,2.964161749874435481e-01,3.001938169742984861e-03,4.663628876149089435e-03,1.578278609446082158e-03,5.373650193214416504e-01
4.101466442714571392e-03,-2.460464435237056935e-01,2.865313934509449711e-01,1.383202894123711528e-03,1.252848942310035713e-02,1.029925446149281866e-02,4.623686373233795166e-01
-1.974712369410266954e-02,-3.200601206537249110e-01,3.027680510445945328e-01,-2.205437010419209962e-03,4.965853335684237676e-04,-6.234373511648437461e-04,5.395145416259765625e-01
-2.043110838488695902e-03,-3.673151919359307072e-01,1.747739709965177302e-01,-2.940501329720132586e-03,-1.245206731330597907e-02,9.198932825852644893e-03,4.796032607555389404e-01
-2.893221285012113550e-02,-2.852576174249250585e-01,3.061270044485883135e-01,3.584580385437926339e-03,1.078474818773575428e-02,3.814411271011577086e-03,5.140843391418457031e-01
-3.908754695711810778e-02,-3.071892219183496309e-01,2.749060137018234928e-01,3.703508207039853898e-03,1.505667476608165399e-04,1.389103447993778649e-05,5.046720504760742188e-01
2.275476992127246911e-03,-3.164789036961618285e-01,1.384168462213378192e-01,-3.096983627365559877e-03,-1.780771412745636023e-02,1.722949226152947809e-03,4.056149721145629883e-01
-2.392657517027001191e-02,-3.255119663802109597e-01,2.816047770121962723e-01,-5.961376173063196587e-03,2.504813221730149003e-02,-3.701943175041981417e-03,5.277091264724731445e-01
-2.417761889903546207e-02,-3.278741617340245051e-01,2.320737625597398823e-01,4.223599250088668280e-03,-5.914752222559577916e-02,4.363155548941349262e-04,4.962543547153472900e-01
-3.417690340097968155e-02,-3.048222012422505678e-01,2.701623327363410487e-01,8.201907933416430554e-03,-2.100562574758233457e-03,1.366620258949551936e-03,4.984574913978576660e-01
-2.943687088970537227e-02,-3.182488347887725832e-01,2.693634646373320174e-01,8.499607460415557411e-03,5.880002595438831112e-04,4.015848586350527841e-04,5.091260671615600586e-01
5.352355887748141972e-03,-2.760137463800863000e-01,2.960214089181468777e-01,7.292326244991390038e-03,9.384670145864776325e-03,2.218262333089731503e-03,4.958611726760864258e-01
-2.811723331669042578e-02,-3.178055874503190603e-01,2.268640351825298995e-01,1.460617877915718239e-02,-2.235082300116502524e-02,1.090189469734565916e-02,4.746526479721069336e-01
-2.607131639775335866e-02,-3.199548179491020217e-01,3.107883417151371397e-01,-2.958630469792759669e-03,-6.985224187694799537e-04,-9.059816873937119770e-04,5.466896891593933105e-01
-2.691772344173597176e-02,-4.444143786908197891e-01,1.589511766676410254e-01,5.968298513702038205e-02,1.007956023449126381e-01,3.006900467132281925e-03,5.724009871482849121e-01
-1.240016651481953835e-02,-1.489483682561771327e-01,5.212537234563161537e-01,8.544494877431307867e-02,7.044162099881972998e-03,-5.187860541645854945e-02,6.375162005424499512e-01
-3.690324314338903899e-02,-3.092842574875671047e-01,2.735918912583895635e-01,-8.665549200584992881e-03,2.070588089218905817e-02,1.373610436438217793e-02,5.071973204612731934e-01
-2.938508468111018790e-02,-3.342800054663878639e-01,2.185730173357785522e-01,-2.775088930501667150e-05,7.525107510732913230e-02,3.539836808179608503e-03,4.970624446868896484e-01
-2.565022073493499616e-02,-3.146792506843574255e-01,3.025670580339441806e-01,-4.192899495723645766e-04,2.227863107380610112e-03,-7.989334411362847711e-04,5.349261760711669922e-01
-1.558182983093774759e-02,-3.336959598419312334e-01,2.017610012141309306e-01,-6.898277842447476764e-03,8.625164164276732937e-02,-9.538669454239406126e-03,4.902122914791107178e-01
1.714760092756277207e-02,-2.724881369346177085e-01,2.930794364530716067e-01,1.190303145713421558e-02,-9.199469560954080111e-03,-8.941482946963494327e-03,4.907807409763336182e-01
-1.795867345799233294e-02,-3.230949740145813709e-01,2.934540951015568444e-01,1.038155826071002858e-03,-8.372818309740811746e-03,-1.867000504866232410e-02,5.351342558860778809e-01
-3.140893633519323269e-02,-1.609446169757658696e-01,3.475891499206411606e-01,8.629989983754969562e-02,9.794841217225165250e-03,-2.544048919561745642e-02,4.838236272335052490e-01
-3.263492653868647897e-02,-1.685509024201196082e-01,3.077719618203186291e-01,1.027174431009103273e-01,-3.587054186578092496e-02,7.217121537992970438e-03,4.650652706623077393e-01
3.890443630102919867e-03,-2.704789115854787096e-01,3.045083033803263617e-01,3.002866926523979976e-02,-5.452063483814250863e-03,4.508210727335911459e-03,5.009843111038208008e-01
-2.043037515662913389e-02,-3.769278106217411328e-01,3.546960121425377088e-01,4.593835429213601051e-02,9.384873452394333626e-02,-3.396998954863073017e-02,6.616324186325073242e-01
-2.462702750609680261e-02,-3.147490517732747239e-01,3.021524426767853155e-01,-4.758113271414024514e-03,-1.417496880854648197e-03,-1.297597947288507128e-03,5.346405506134033203e-01
-2.762101444274276882e-02,-3.184022267691798969e-01,2.695468423456167106e-01,-8.732932334834409005e-03,2.728578400546274700e-03,7.330652465647266407e-03,5.095936059951782227e-01
-2.136870126863467563e-03,-3.051415120374950662e-01,2.957229049785141672e-01,1.685740003062929492e-03,1.881137394904761572e-04,5.367993888122275532e-04,5.203793048858642578e-01
-3.184027221762665560e-02,-3.180024603246863202e-01,3.018753476409758441e-01,-8.137464846409567937e-03,1.375504454355097486e-04,-9.855455050077617345e-04,5.375437736511230469e-01
1.207858734802222042e-02,-2.761922168742933503e-01,3.452688086590443017e-01,5.819276469641551652e-02,-8.518826478817438999e-03,-4.499499022271807348e-03,5.482722520828247070e-01
-1.670545306907064709e-03,-2.680349528409097237e-01,2.947963246320332575e-01,3.402206893023449613e-02,-1.567086430585007059e-02,-7.356336672921526439e-03,4.921203255653381348e-01
1.455710176605654570e-02,-3.059847794522619346e-01,3.078927101382417653e-01,2.862603142893540772e-02,-5.048508072839779509e-03,-1.194914729512889379e-03,5.341894030570983887e-01
1.154779268102215824e-02,-2.548973535548119118e-01,2.893035122238032941e-01,3.251816172433669855e-02,1.003336849519949163e-02,1.301793395394271712e-02,4.755319356918334961e-01
-1.502411446177665325e-02,-3.273013181580509134e-01,3.030065292062183446e-01,1.126960956812734019e-02,-1.882678343081850905e-02,-4.928390891904168951e-03,5.472581386566162109e-01
9.865994081995413389e-04,-2.285542390902248755e-01,2.923590588748726793e-01,1.487835562116316540e-02,1.064692748133660820e-02,-5.192441573776486506e-04,4.532921314239501953e-01
-1.563725737694011964e-02,-3.095634771389746409e-01,2.911327134539130612e-01,-1.858312168877316196e-03,1.704051756685939084e-02,-1.922210371572914342e-02,5.221667885780334473e-01
-1.341923426195574046e-02,-3.249432826950278130e-01,2.614075024599738506e-01,-6.220813271643586481e-03,-6.971451764218868996e-04,-3.854833026654225052e-03,5.082855820655822754e-01
2.153670656551607415e-02,-2.587948260179792626e-01,3.064219405293278076e-01,1.731813197623087441e-02,2.459937435485625139e-03,-5.268785222874758367e-03,4.905189871788024902e-01
-1.230639874968331507e-02,-2.181800270662835051e-01,2.627141540369465900e-01,-6.649265280908439602e-02,-3.171187925963328547e-02,2.591779232234499297e-02,4.392444491386413574e-01
-1.978016318736789542e-02,-3.328886068889629901e-01,2.897761908271809239e-01,-2.264459605329314097e-04,-4.530974312006858874e-08,-2.137416566448450267e-03,5.392593145370483398e-01
-1.588604439817362102e-02,-3.136193204852417704e-01,3.022911336079569522e-01,1.059102037862949455e-03,-3.508362205704646571e-03,-1.504313168789291316e-03,5.335361361503601074e-01
-1.689642621631877797e-02,-3.270862969398534159e-01,3.051631176984729299e-01,2.063000888810765602e-03,6.687933887205303220e-03,1.718667021108572900e-03,5.477184653282165527e-01
-1.434580166519117475e-02,-3.150583198822518027e-01,3.022363958422413233e-01,1.184767338988887289e-03,-5.623414130195431015e-03,2.715599551438985368e-04,5.347446203231811523e-01
-1.876222210033852422e-02,-3.179375925445478424e-01,3.037732923492631465e-01,4.048538821391417302e-04,-2.987331522804513410e-03,1.181071869188874855e-03,5.385732650756835938e-01
-1.583407672845972905e-02,-3.171442009758816960e-01,3.039752701188352946e-01,-4.507721241755309688e-04,-1.557357779221522258e-03,2.712524200066350867e-04,5.379922986030578613e-01
-1.329069854750642224e-02,-3.085048672588603380e-01,3.027515750313858889e-01,-1.256196658986486261e-03,-5.627515187650605592e-03,1.966033927741737009e-03,5.295711755752563477e-01
-1.590477408816275834e-02,-3.178113421625214374e-01,3.038777284423618275e-01,7.407684641038745190e-04,-1.524021466623682155e-03,-4.350190063855678322e-04,5.384812355041503906e-01
-1.328308924711807393e-02,-3.045140138535687435e-01,1.524359787907275110e-01,2.715719878271905408e-03,-6.400065838153274136e-03,-1.381521927477311236e-03,4.008634686470031738e-01
-1.924784276444091446e-02,-3.319221997720674944e-01,3.070892070597343038e-01,2.448271161122832218e-03,3.091252596781613772e-03,1.542204854592168443e-03,5.534908771514892578e-01
-2.004840479389237082e-02,-3.320683632762909676e-01,2.988610418153130888e-01,5.233368245646951092e-03,2.288115538242322040e-04,6.451124493103273412e-03,5.466012954711914062e-01
-2.182985281660839230e-02,-3.221540012938930997e-01,2.642983741545653631e-01,1.097964676254955044e-02,7.945463890695605644e-04,-2.213339706980402212e-04,5.082901716232299805e-01
-1.554759126333050273e-02,-3.153340319611603881e-01,3.005645624877271160e-01,2.044109712731779094e-04,-1.867038684460896282e-03,9.450025142699537326e-05,5.334562063217163086e-01
-2.577944092263022638e-02,-3.206505217855207812e-01,2.883381396726464874e-01,4.054512359359448148e-03,-3.268247084447883206e-04,1.876409724409202001e-03,5.275444984436035156e-01
-1.494479236437933067e-02,-3.155713486880928342e-01,3.036855921211460974e-01,7.140808511146862908e-04,-3.652641434956163842e-03,-7.535863082814486455e-04,5.364081263542175293e-01
-3.004662953653512020e-02,-2.192024590267656614e-01,3.134933481327760174e-01,-2.940882062226886015e-02,-6.517280560321897682e-03,-4.451273518084292863e-03,4.707055687904357910e-01
1.016636381013606705e-02,-2.918015992543114834e-01,2.984567743897573178e-01,-2.630044542766504789e-02,5.364276214363193282e-03,1.998084665627682111e-03,5.133458375930786133e-01
-1.327078622776034153e-02,-3.075214255953234166e-01,2.918834497440146447e-01,-1.605850164507343974e-03,1.874482674073517287e-03,-1.933634665331775181e-03,5.191568732261657715e-01
-2.406959920912420114e-02,-3.256957647819019308e-01,2.234492292090324850e-01,1.304477143302863393e-02,-9.568367696904462455e-03,1.788174352134177039e-02,4.781699478626251221e-01
-2.035464041697630094e-02,-3.161171303074110650e-01,2.897621887286520592e-01,4.331693257536343988e-03,2.413543962242324648e-03,4.180063428859295653e-03,5.248761773109436035e-01
6.451954561604019561e-03,-2.894296558583872581e-01,2.987080394684588081e-01,-1.228011940945191068e-02,5.814678385788636487e-03,-3.829074579066154421e-03,5.099319219589233398e-01
-1.656937679837859265e-02,-3.118156726090455244e-01,2.831868606416270695e-01,-1.633941162207339787e-02,-1.512871076127621228e-02,3.812320497480186938e-03,5.167758464813232422e-01
-2.610472094311205166e-02,-3.219346880828620749e-01,2.925050292972814492e-01,-9.008584727709834268e-04,-2.857444915534258084e-02,1.710841925472241995e-02,5.353614687919616699e-01
-2.926840570797149821e-02,-3.266030877404109689e-01,2.963379904800692022e-01,5.126156638251500031e-03,3.802233889970919791e-03,-1.338279648815407052e-04,5.397812128067016602e-01
-3.061013239327254470e-02,-3.218990763739634775e-01,2.967525619502996426e-01,3.406492043600353042e-03,-1.213688442279282085e-03,6.018641508482394133e-03,5.362094640731811523e-01
-1.767756797919611822e-02,-3.191607070704736149e-01,3.163793169456239895e-01,-1.147705813754337735e-03,-1.911621652788449664e-03,4.296206122956075231e-04,5.506487488746643066e-01
-2.549740854807679841e-02,-2.588296718935965135e-01,3.273245694388144389e-01,-5.077273453864043079e-02,7.853196749620459244e-03,-1.796299272968750194e-02,5.197486877441406250e-01
-3.837800209230968207e-03,-1.979128891715209448e-01,3.384990840333661488e-01,-2.625867003562733920e-02,-1.876089123362220017e-03,-5.804433069779389720e-02,4.832031428813934326e-01
-1.376395982985668953e-02,-2.303415297566837050e-01,3.479399501835828690e-01,-7.721795407876125283e-02,-1.914647958731737626e-02,-4.392855837988491469e-02,5.299521684646606445e-01
-2.153738780177598400e-02,-3.210648739748798719e-01,3.180298660283469858e-01,-1.469257966117829039e-03,-3.310184513961041564e-03,-6.741918784571010979e-04,5.538709759712219238e-01
1.446995334987236266e-02,-2.907548104022713575e-01,2.926266493269389368e-01,1.854426624081590824e-03,-3.003429163404431647e-03,-2.365369645229568538e-03,5.054579973220825195e-01
-1.622230325301736095e-02,-3.172645754002861862e-01,3.135472772191418289e-01,-3.854858528000545590e-04,-4.759926952391798174e-04,-6.271789197457752188e-05,5.464889407157897949e-01
-1.933095483015232624e-02,-3.175269540455791240e-01,3.139949612150058078e-01,-1.542075812505359174e-03,-7.026072228593018172e-04,4.272216450041609027e-04,5.472043752670288086e-01
-2.589114370694809569e-02,-3.150893879997251901e-01,2.469086383608566360e-01,1.147310957750980603e-02,-1.456737976462245052e-02,8.724130423002766574e-03,4.880659878253936768e-01
-3.014280535534482122e-02,-3.202384487747021447e-01,2.673517419734484646e-01,9.156654606698198806e-03,-3.649652836708619681e-03,-7.394041839823215759e-06,5.091677904129028320e-01
-2.883527513263377251e-02,-3.220077054485492307e-01,2.803490742503316202e-01,5.672468976220240017e-03,-2.888737391358890336e-03,4.075327621435764075e-03,5.218819379806518555e-01
-3.553201083097087126e-02,-3.103264729506864938e-01,2.473401512527668711e-01,8.688788238994001045e-03,-1.588328163622988037e-02,7.315939723093138787e-03,4.841531217098236084e-01
-2.731346493367311362e-02,-3.160832500819886759e-01,2.934684331257843559e-01,6.674973561837115738e-03,-4.553664394192379061e-03,4.568233427259529508e-03,5.283744931221008301e-01
-2.090419579045606907e-02,-3.213137080652242461e-01,3.158105211182833383e-01,-1.692671644171137415e-03,-2.239450811378587616e-03,-3.903841515049395294e-04,5.520861148834228516e-01
-2.023204836043007715e-02,-3.191169171858979081e-01,3.173267901191183515e-01,-1.488159363392157260e-03,-3.015168441503215859e-03,-2.787457066196624700e-04,5.515464544296264648e-01
-3.528469200604891082e-02,-3.109901285339009558e-01,2.774636363432380626e-01,4.131581620995521988e-03,-3.866045190059362157e-03,4.706468282490420055e-03,5.101116895675659180e-01
-3.365294393327566969e-02,-3.110157149056136938e-01,2.465511543635678926e-01,8.883700993069334681e-03,-1.709365999618722015e-02,8.285516992676298514e-03,4.842333197593688965e-01
-2.125067285546586304e-02,-3.193144728501646767e-01,3.176151216427305912e-01,-1.515186658513740896e-03,-3.353773462156360054e-03,-2.700171904860696804e-04,5.520113706588745117e-01
-4.041797015838320684e-02,-3.116694568095761952e-01,2.763373013877007955e-01,6.380127853285229994e-03,-6.195072600676033471e-03,5.690020996236691726e-03,5.100647211074829102e-01
-9.304895955576066718e-03,-3.110559023324810934e-01,2.977466932186234039e-01,9.017033583542114405e-04,3.316381290328123711e-03,4.675836980498550462e-04,5.272793769836425781e-01
-1.815010990723388284e-02,-3.468683175163219112e-01,3.442854556351604978e-01,1.249529131535094192e-02,6.865605734978432600e-03,-1.143336267923414709e-02,5.996301770210266113e-01
-2.994914912225074208e-02,-3.214440615618495145e-01,2.761294259688236719e-01,-5.991024601633599019e-03,1.396955191981342527e-02,3.783248188317651309e-03,5.182757973670959473e-01
-2.066125607656019159e-02,-3.265453441463666007e-01,3.126890524016059381e-01,-5.826239126494919124e-03,-2.296226296606763626e-03,-6.534711629687402603e-04,5.538709163665771484e-01
-2.174313827000225532e-02,-3.097632915457949054e-01,3.185511216950286939e-01,-1.215858207582448842e-03,-6.956792198553449560e-03,1.029441940789934317e-03,5.449038743972778320e-01
-6.275312994328076377e-03,-1.703347612981830905e-01,2.718465406071555179e-01,6.388755449191076130e-02,3.596193293092731641e-02,-4.091693462233613604e-02,4.135734736919403076e-01
-2.430452678240207706e-02,-3.052185014985530631e-01,3.185421353873416628e-01,-1.013080779643047141e-03,2.106216734646769364e-03,3.436856193956138329e-03,5.411272644996643066e-01
9.707764725489257882e-03,-2.683063458330117168e-01,3.234843314674587522e-01,2.726025925112596920e-02,-5.944800694018818193e-03,-1.080899248437306240e-02,5.154297351837158203e-01
-1.667028283200183009e-02,-3.125833122084673565e-01,1.907464849150333486e-01,3.755693480013117674e-02,7.240831659424998290e-02,3.661846620640504119e-02,4.647007286548614502e-01
-2.447753003949644166e-02,-3.315188583492222341e-01,3.012333560418742895e-01,4.445975784592837003e-04,6.690910040609276141e-04,6.672762825960239057e-03,5.481826066970825195e-01
-1.300919728108320024e-02,-2.952570094570081682e-01,2.643906577206825981e-01,5.206032843173546976e-02,4.450293416095691540e-02,-3.462339773749847222e-02,5.025721192359924316e-01
-1.225969835820025881e-02,-3.298021462571248952e-01,2.967625420402126291e-01,-2.120643915629721963e-03,-3.136126162848189725e-03,-2.029887720934287713e-03,5.426886677742004395e-01
-2.340074466152096411e-02,-3.298059373346857170e-01,3.145923313615414663e-01,3.923506725004969361e-04,-3.187664201959822881e-04,3.589869178371943444e-05,5.582894086837768555e-01
-1.849770438004671308e-02,-3.316114577242416650e-01,3.086914361030130283e-01,1.274336405628519317e-03,1.145428911919404774e-03,-1.344430028713818623e-03,5.545760393142700195e-01
-1.634655074841474126e-02,-3.170732012574113412e-01,1.870881632650499837e-01,-7.344348777402109375e-03,-3.280401304933427270e-02,-1.980842702360073940e-02,4.444858729839324951e-01
-1.622041271948126626e-02,-3.180974069381365399e-01,2.989498940222115597e-01,-4.221808430763155685e-03,4.465340934030892495e-03,-1.251972032620363943e-03,5.345303416252136230e-01
-2.701251731792010669e-02,-3.171237224391889598e-01,2.955929530722360976e-01,-4.199640492194516191e-03,-7.756463563949364103e-04,-1.834855047368990060e-03,5.309379100799560547e-01
-7.052696351987314954e-03,-3.286224665957400703e-01,2.901428502620740923e-01,5.233629906458703296e-03,-2.707072946233009085e-03,-2.365286847212421176e-03,5.361178517341613770e-01
-1.624418068762754908e-02,-3.291606410066039712e-01,2.888691834571983086e-01,7.494652968450765847e-03,4.052241483263754689e-04,-3.339323662806074617e-04,5.354019403457641602e-01
-1.138654975891267504e-02,-3.120282179071640072e-01,2.984564556374228461e-01,-1.887802783721854763e-05,6.906901029641765617e-03,-2.936699658763126703e-04,5.288508534431457520e-01
-3.069730164149922502e-03,-3.225314432241822571e-01,1.812921572168724182e-01,1.235235663333123131e-02,-1.123551715015194512e-02,4.976537743075223202e-02,4.507858455181121826e-01
-2.114151005641017739e-02,-3.274805058962911852e-01,2.922108689160691775e-01,7.907505006554595844e-03,2.350763968752832365e-03,-1.033507876827009163e-04,5.368701219558715820e-01
-2.518602686776653249e-02,-3.118547073417441418e-01,2.857741650582236725e-01,-2.000932265802739599e-03,6.060213478297284432e-04,-2.940746497817226402e-03,5.177419781684875488e-01
-2.004150870544146867e-02,-3.320024253696646221e-01,2.886639149060777343e-01,5.340854168062316581e-03,1.209537163878689594e-03,8.748302096484501550e-05,5.375989675521850586e-01
-1.380697155808269586e-02,-3.082918181288502035e-01,3.035036712116371826e-01,6.060253083418690179e-04,1.096653676967412373e-02,-3.840105388347928809e-03,5.303363800048828125e-01
-1.906759660723176056e-02,-3.265317358874235687e-01,3.033374282971954550e-01,5.374820039342576711e-03,5.990616148880339303e-03,3.393475624715181025e-03,5.457435846328735352e-01
-3.073903004048669091e-02,-3.127517322693582624e-01,2.906945983014435630e-01,-2.582389593793348731e-03,-8.515242185679390173e-04,-2.103516241139420651e-03,5.230053067207336426e-01
7.702685877155032550e-03,-2.780389817205805580e-01,2.954661809037884557e-01,-2.519967887906112564e-02,5.487144095954237834e-03,-5.251807285345830995e-03,4.987587630748748779e-01
-2.039767221810240977e-02,-3.318493537434569762e-01,3.028395841247837894e-01,2.802288971771119304e-03,2.382694320781592566e-03,-1.485227611778367428e-04,5.497252941131591797e-01
3.014199133734123126e-03,-2.937726067006753428e-01,3.147661071709913494e-01,-3.865000537602648889e-02,5.214527238689391220e-03,-9.875661446551281183e-03,5.316494703292846680e-01
-2.088353862240760819e-02,-3.268975415041809329e-01,2.950750900752430184e-01,7.296468171052423492e-03,9.938821579048751249e-04,5.448204845698783683e-04,5.388188362121582031e-01
-2.145129367972228862e-02,-3.101926644339474404e-01,2.927030153952386859e-01,-3.783033351347402876e-03,-2.649402928465049555e-03,-3.517318728731648990e-03,5.223743319511413574e-01
-2.044350023418503581e-02,-3.317902568096156024e-01,3.032193680705005390e-01,2.212492209488329392e-03,2.050378213841038029e-03,-1.324302796666526605e-04,5.499938130378723145e-01
-7.769760506544302718e-03,-3.140568987183109395e-01,3.033662133459590904e-01,-6.929505046749499103e-03,3.025011117500699467e-03,-2.740535673858324715e-03,5.348910093307495117e-01
-3.174592948723811703e-02,-1.770492510140534437e-01,3.326374166513892394e-01,-3.243488847514028328e-02,-9.975274894143307258e-03,1.405341167588484812e-02,4.592183232307434082e-01
-2.183027134794459506e-02,-3.261413292865023572e-01,3.011031885613236758e-01,2.029715040620718672e-03,-2.371827143785485109e-04,1.819494535532092472e-03,5.433101654052734375e-01
1.429632156650977731e-02,-2.373316874976881263e-01,2.821650478484063473e-01,-1.456531068497044293e-02,3.755758321780071005e-03,-1.180831123259251192e-04,4.507243037223815918e-01
-1.568852050588848829e-02,-3.218218258701286971e-01,3.035512525868869216e-01,4.444603525128506746e-03,8.551452469567339190e-03,2.931282027974073043e-03,5.419095754623413086e-01
-2.101727475884472215e-02,-3.302186451432013170e-01,3.037859456454878870e-01,1.064865617752647773e-03,1.438377967538570761e-03,2.001560008787603071e-04,5.491283535957336426e-01
1.171511829379270724e-02,-2.616497782304700315e-01,3.009658699722571606e-01,-1.016555336302401441e-02,5.790638001440036320e-03,-3.261907501978922059e-03,4.877580404281616211e-01
1.351455763920285727e-02,-2.454675982331911976e-01,2.839647130849168866e-01,-1.234220699256835876e-02,-5.679015252138507053e-03,-1.537961053026987981e-03,4.591488242149353027e-01
3.038883788721268020e-03,-1.219910174208000686e-01,3.111317281137997992e-01,-6.922676277751246832e-02,1.794046894041643678e-02,-2.095073203218748847e-02,4.071042835712432861e-01
-4.482336463871573751e-02,-2.979758803525724420e-01,2.775241348726528723e-01,-1.115502425646096914e-03,3.214852879176802181e-02,-1.220093320915788260e-02,5.031382441520690918e-01
-2.049604100380177096e-02,-3.299763734442349161e-01,3.121257673066813454e-01,-1.332347718672662398e-03,-9.807904824594957955e-04,-1.386602756084782907e-03,5.562096834182739258e-01
-2.545868707470905906e-02,-3.274204431879685351e-01,3.124565942016969133e-01,-2.273803164820449411e-03,-1.786841660017454052e-03,-1.629952310467543868e-03,5.544710755348205566e-01
-2.388849067313052882e-02,-3.270679421571861534e-01,3.122874522908025141e-01,-1.432754658644040842e-03,-1.421241774536755433e-03,-1.006215949775710310e-03,5.539575219154357910e-01
-2.041158280230390837e-02,-3.271735624765730877e-01,3.052117367842631102e-01,-2.574781882640753833e-03,-3.252086483446469116e-04,4.757147150245681112e-03,5.478233098983764648e-01
-2.621321010159281470e-02,-3.153168465997586156e-01,3.154808683915776846e-01,-1.060239308366026870e-03,-1.861994195357496518e-03,-6.961798242286178044e-03,5.470648407936096191e-01
-1.851551480093967944e-02,-3.228321807011060862e-01,3.033296245723906548e-01,-2.831885026884339504e-03,1.226992606205302982e-02,3.114557019995745513e-03,5.428080558776855469e-01
5.272998675628095232e-03,-3.094937637585552515e-01,3.009288789225068594e-01,-5.339587692481420102e-03,4.422055545251312564e-04,-1.320511540671879354e-03,5.288142561912536621e-01
2.607015712733838815e-03,-3.079002430597894691e-01,2.952209581572699526e-01,1.142808582113991869e-04,3.067329582774544049e-03,2.427680349291499139e-03,5.224388837814331055e-01
-1.887505542757009561e-02,-3.319520558955973977e-01,3.043199858131856450e-01,2.343721928020720165e-03,2.621709508037305646e-03,9.771654639206814926e-04,5.510872602462768555e-01
-1.549807680747936067e-02,-3.187050283638976356e-01,2.977031150385126002e-01,3.588437737766729096e-03,1.518986374153473125e-03,6.507314499931443619e-03,5.340101122856140137e-01
-2.488656480344209054e-02,-3.285687951980703625e-01,3.037985632637476563e-01,2.997149255879506986e-03,4.657067744001713513e-03,8.903971448421911039e-04,5.478750467300415039e-01
-1.356431565095034264e-02,-3.125586583742179236e-01,3.003567856438193462e-01,2.817590107043840180e-04,8.999238629332440009e-03,-3.093216528250609249e-03,5.311088562011718750e-01
-8.906237724259802313e-03,-3.182892027783659206e-01,2.982882176930400364e-01,1.165672778966245649e-03,6.041354141531871808e-03,1.498433932467841626e-03,5.340854525566101074e-01
-1.584874467180571317e-02,-3.272535818235219329e-01,3.048726656328339391e-01,1.340828795120543697e-03,7.826514522339065791e-03,1.067520053933840871e-03,5.476330518722534180e-01
-1.965585676498515094e-02,-3.251891205089921799e-01,3.024122564841403848e-01,7.921799292462211551e-04,9.941290221913022442e-04,2.874935604074152582e-03,5.436089038848876953e-01
-2.169027856809801688e-02,-3.283352938606773352e-01,2.943058971080266262e-01,6.734690443428252224e-03,-4.853399662098250894e-05,3.445365655679000173e-04,5.393698215484619141e-01
-2.218399502707565224e-02,-3.338444716304378446e-01,2.901968063847930601e-01,-7.982825589695699206e-03,-2.290783101531951305e-02,9.900971511337709752e-03,5.423378348350524902e-01
-3.140195440486775319e-02,-3.216416859997642819e-01,2.867336403475171935e-01,2.379854469394573815e-03,-1.111587560082755600e-03,4.007178493664628402e-03,5.271183848381042480e-01
-3.186622321413775522e-02,-3.234079873256386350e-01,2.983542535967285692e-01,4.099549626266730390e-03,1.704696283375430716e-04,5.003236552994387576e-03,5.389256477355957031e-01
-2.060608390970794859e-02,-3.293003259559156848e-01,2.981788287726722109e-01,1.125122304010361691e-03,1.383365141621960368e-03,-2.614652182034120495e-04,5.434452891349792480e-01
-2.227790737719778300e-02,-3.306556973781450970e-01,3.030673269601725228e-01,1.849408640314710410e-03,2.143914337296022512e-03,4.730758976600057551e-05,5.489076972007751465e-01
-1.053084133558444824e-02,-3.687892923703275927e-01,1.182753443384976788e-01,-9.931166312760085144e-03,4.941473310348835912e-02,-4.974494782658423625e-02,4.540165960788726807e-01
-2.394307761721631983e-02,-3.216647834685822382e-01,2.983833531771012959e-01,5.469990578916122601e-03,1.310922485869883778e-03,4.856308576111243933e-03,5.372725725173950195e-01
-2.259044032926276965e-02,-3.309549980200899855e-01,2.984719617638502132e-01,3.775497108538945247e-03,-9.899701863021168643e-05,1.809736154098508850e-03,5.451849699020385742e-01
-1.755657890674623689e-02,-3.144428890314253655e-01,2.704388265179461515e-01,8.310657456680066099e-03,-1.173974259880151451e-02,2.388989756573067433e-02,5.088394284248352051e-01
-2.050678370955247298e-02,-3.233193618771031952e-01,2.945432258336478371e-01,6.104295819982173341e-03,2.524748987570469682e-03,3.318577720969856371e-03,5.352728366851806641e-01
-2.831797103874647559e-02,-3.221412509742099251e-01,2.867645509765973655e-01,8.027266880207535246e-03,2.667502263946213174e-04,2.423723572976179113e-03,5.276351571083068848e-01
-1.696973720355064719e-02,-3.288408621932001896e-01,3.047638007123809611e-01,2.223427872747610334e-03,7.438697047110576048e-03,1.431171294312468456e-03,5.489102602005004883e-01
-1.991416842389999095e-02,-3.318676558199067927e-01,3.043195608927422025e-01,2.310420869109623774e-03,2.387183196486954064e-03,5.839150378032551643e-04,5.510194897651672363e-01
-1.652197263369883234e-02,-3.135944050278677286e-01,3.022162863430389312e-01,1.355596467089667219e-03,-5.915486668297462690e-03,-2.003381147462526390e-03,5.335325598716735840e-01
-8.265778721043660210e-03,-3.107030076387808926e-01,2.981507770898106924e-01,-3.398187896160811787e-03,-9.579894025601979777e-04,-8.457714433569129674e-04,5.273240804672241211e-01
-2.434295104804347701e-02,-3.164647328212072952e-01,2.878220618358672267e-01,5.203071121163804769e-03,1.859151224958666571e-03,-3.721077394594295758e-03,5.235508084297180176e-01
-2.220290460490866036e-02,-3.155925572545810742e-01,2.968881903487771146e-01,3.679815304314587327e-03,-2.442058287076319736e-03,4.364152971647863779e-04,5.306352376937866211e-01
4.137860612846174999e-03,-2.635325516053794170e-01,2.914025641135710165e-01,-7.895481360321296438e-03,-9.780055007303072381e-03,-1.947691390711522473e-03,4.811923503875732422e-01
7.491188278147497409e-03,-3.014606182662559197e-01,2.930586946004081761e-01,-5.825664485432121079e-03,-4.869631045009032225e-03,1.137785182883636366e-04,5.151695013046264648e-01
-5.373436089070600385e-03,-2.480005868664260094e-01,3.031046817998659382e-01,-6.039248144953167190e-03,1.402833139206415697e-02,-1.835582204426264297e-02,4.801900088787078857e-01
-6.451868734326540039e-03,-2.713713357990237274e-01,2.980348110288569274e-01,-3.140191768253551997e-03,-1.283559480704443354e-02,8.262603132380509641e-03,4.942545592784881592e-01
-7.552100381125567696e-03,-3.113297962439189881e-01,3.007722363489350736e-01,-4.770681416440207111e-04,-3.087141017706995002e-03,9.659447907948925070e-04,5.301310420036315918e-01
-1.686164131643094755e-02,-3.286761416957200144e-01,2.694632089776186623e-01,1.024542877051658717e-02,-2.563584917400123578e-04,8.817712182015793182e-03,5.186895132064819336e-01
-1.951924851187796309e-02,-3.342565342347970647e-01,3.020681099674119019e-01,2.781977795244337109e-03,2.971047212972223722e-03,-8.265928380712097776e-04,5.511308908462524414e-01
-8.305078851222997063e-03,-2.913486143678302165e-01,2.999560552474307418e-01,-3.225182063346253205e-03,-9.210047934075225873e-03,-1.874178482290193674e-03,5.125291347503662109e-01
7.810318018052559569e-03,-3.054515078466089606e-01,2.927262145398047966e-01,-1.094685831973292792e-02,-3.851082955507456173e-03,1.723761355728996585e-04,5.186206698417663574e-01
2.043793002404910644e-02,-2.808385814223240406e-01,2.836206833140045847e-01,-6.907161635262595335e-03,-2.109186606949183494e-03,-4.406590572875440496e-04,4.893674850463867188e-01
3.359156825397778198e-03,-3.018325835967551329e-01,2.956102369690301601e-01,-7.526477472199558918e-04,1.544141405986786900e-03,2.823315005643756257e-04,5.174499154090881348e-01
-1.057882359124113353e-02,-3.079498459750352746e-01,2.976952008565683649e-01,1.639984152441408818e-03,2.104441851951648849e-03,-9.181088607943920909e-04,5.245550870895385742e-01
-3.264011100733590562e-03,-3.111599368170337998e-01,2.960689627519775824e-01,1.787640262852051981e-04,-1.367632689014570144e-03,2.000499814765611083e-03,5.259099006652832031e-01
-2.073781438195821530e-02,-3.282005996562120109e-01,3.050324594888663143e-01,1.834432829077566572e-03,3.890790717094306118e-03,1.657643784681176033e-03,5.485303997993469238e-01
-2.011690533138007358e-02,-3.333139645155591690e-01,3.033753375540701458e-01,1.886175565636904420e-03,2.192334675333532795e-03,-1.459931041303509473e-03,5.514416694641113281e-01
-2.643870170523893864e-02,-3.165115148781685317e-01,2.962269676580310818e-01,4.177139309655228394e-03,3.611325970827643402e-03,-2.396855320518867776e-03,5.309996604919433594e-01
-1.074798876227512669e-02,-3.020828280662465337e-01,2.938431640241572218e-01,-3.695409193441487848e-03,-1.392027420854020751e-02,9.363893338971082409e-04,5.167346596717834473e-01
-1.765436872631177172e-03,-3.027673583056639806e-01,2.968852750345066793e-01,1.181503322181048097e-03,-1.393633512619956924e-03,-1.575605783123145429e-03,5.193325281143188477e-01
-2.323178228591462474e-02,-3.299139504881575258e-01,3.083242104616041868e-01,-4.545795270800624156e-04,4.401062352921461876e-03,4.262813568744388236e-03,5.529727935791015625e-01
-1.508435013323132989e-03,-2.923159342533336313e-01,2.941991480154951266e-01,-3.393327674522979807e-03,-8.302712967002447153e-03,3.780266910608976686e-03,5.082225799560546875e-01
-1.799808410165753408e-02,-3.368797689518034932e-01,3.160496334798552076e-01,4.784244456272138124e-03,1.407300286606460310e-02,3.997791001570908873e-03,5.661323666572570801e-01
-6.877549162915696720e-03,-3.612437845524116842e-01,3.619842552552357540e-01,1.445444342234418825e-02,2.311609545744438524e-04,-6.405971493600624671e-03,6.269742250442504883e-01
-1.560619000857300584e-02,-3.151940421281750337e-01,3.451904996534465031e-01,7.190720468620852290e-02,1.741341476553460652e-02,-1.118143357831958597e-02,5.872087478637695312e-01
-4.446970809251186985e-02,-2.403441289071645282e-01,3.111678817841556088e-01,-1.284164480677483621e-04,9.210097844439353934e-03,4.936514989669774436e-03,4.845955371856689453e-01
1.335484009114054193e-03,-3.012602679580855813e-01,3.034933553023173025e-01,2.584642038967614568e-03,-7.447387924725134764e-03,-2.380995823357625468e-03,5.239262580871582031e-01
8.447758923730071257e-03,-2.942437396053369514e-01,2.983093200973335191e-01,-2.698166521342562976e-04,-1.806626404787635464e-03,9.843481477676092536e-04,5.132187008857727051e-01
-3.686688883181934995e-02,-3.204858685639533911e-01,3.627141483622288165e-01,3.324940287587162951e-02,2.415940936968986180e-02,-3.696686880724144031e-02,6.021633744239807129e-01
-2.708457033954746532e-02,-3.176422556099101069e-01,3.488209056882858317e-01,3.742988695113224837e-03,1.459941297222955986e-02,-1.627313750874383180e-02,5.800231099128723145e-01
-2.227901086366725764e-02,-3.235121700420563462e-01,3.205057769969471559e-01,8.635121229692795108e-03,1.931448126803657697e-02,-5.430981766735159828e-04,5.593252182006835938e-01
-2.403089568089874714e-02,-3.202928111448138382e-01,3.067270812647593936e-01,6.861688049345655285e-04,7.831477832496878608e-03,-1.886202655372917194e-03,5.434694290161132812e-01
-1.025049344450128935e-02,-3.863912099897523489e-01,3.357719575391434619e-01,1.991895089465940683e-02,5.102425189791882226e-02,-1.725033924202513252e-02,6.334508061408996582e-01
-1.757242676550468258e-02,-3.261716048092141440e-01,2.902070837530214553e-01,1.079038576106179474e-02,2.562780877563313429e-03,6.103748828305775517e-03,5.342499017715454102e-01
-1.517430153978570340e-02,-3.220538748506870386e-01,1.855641036682784406e-01,-1.089018720758324135e-02,1.087226490376755643e-03,-3.408036658945454763e-03,4.432467520236968994e-01
2.192800636711822113e-02,-2.844764583240518840e-01,2.857904387553891201e-01,1.030430251078212189e-03,-1.561019151596412585e-03,1.162606477632238667e-04,4.943341314792633057e-01
-2.868096534892021487e-02,-3.118348427659346500e-01,2.308354890507657298e-01,-9.543762337092687870e-03,3.001002684893795767e-04,8.422424332537335745e-03,4.706318378448486328e-01
-1.989217306303982594e-02,-3.215619361138599697e-01,2.926433807776062102e-01,4.214809775723308422e-03,4.396733185653140105e-04,3.421424727978827126e-03,5.320287942886352539e-01
-2.053334420507864355e-02,-3.158347368728865456e-01,3.143796560440672017e-01,-1.026912862368523647e-03,-1.530373360662902341e-03,1.444102824796697796e-03,5.461559891700744629e-01
-2.179580112330392616e-02,-3.255840658793989761e-01,3.078952564384714319e-01,1.330757309400403422e-03,1.186067642490513767e-02,2.976953027452947532e-03,5.491755008697509766e-01
-2.153035193128535058e-02,-3.317085561344150224e-01,3.000841098567564313e-01,5.611984466169061235e-03,2.427255535266764305e-04,4.325869353248058824e-03,5.473161339759826660e-01
1.895927045085990872e-03,-3.907861222363485654e-01,3.585868035638314355e-01,1.612323005339419760e-02,3.642188461714675890e-02,-2.720858764448482424e-03,6.528977155685424805e-01
-1.914410932597597134e-02,-3.308518496074168702e-01,2.992881041994771008e-01,4.021311475821638670e-03,1.545984975988671205e-03,2.068487517012649636e-03,5.457903146743774414e-01
-2.222707560424560386e-02,-3.080578266684513844e-01,3.210739068156698295e-01,-1.086647181103433729e-03,-3.190093234277266605e-03,-7.609686014995794591e-03,5.457916855812072754e-01
-2.451143814907600499e-02,-3.279625842853279849e-01,3.131671200870417837e-01,-1.209221627040517940e-03,-1.764228628567603629e-03,-8.503242465988615148e-04,5.555126070976257324e-01
-1.959513960094527718e-02,-3.316164017824073662e-01,2.982675001786604385e-01,4.869383496350140374e-03,1.896551611079040460e-03,4.359092349416341522e-03,5.456306338310241699e-01
1.421984764152048331e-03,-1.233465590733156259e-01,3.064863264068920512e-01,7.457211274701618098e-02,-4.378587560852841010e-02,-3.776200072559066090e-02,4.164209365844726562e-01
-2.606827315268703607e-02,-3.238127222563172980e-01,3.221538726885706527e-01,-1.554478317403071254e-03,-2.989179677975188371e-03,4.935759992154513777e-04,5.600236058235168457e-01
-1.749490929340240947e-02,-3.209199691400073662e-01,3.066695381603392612e-01,4.204802268128597122e-03,1.056225754386571833e-02,-2.130707470070749166e-03,5.439763665199279785e-01
-3.060892666659376093e-02,-3.160643214741110096e-01,2.843731868150288777e-01,4.923167425643810123e-03,1.207655944315274166e-03,-1.799902365710566790e-04,5.202778577804565430e-01
-1.832017838455346492e-02,-3.330964925040842961e-01,2.631354410125737453e-01,7.869333492057761781e-03,9.915279240218313761e-05,1.050459735859663769e-02,5.171206593513488770e-01
3.070478532448375937e-03,-3.061206761076062377e-01,3.039953515189768307e-01,3.158574426384292387e-03,1.001001127668962052e-03,-3.006801746978811189e-03,5.284489989280700684e-01
-1.967577737581193559e-02,-3.324935879604877242e-01,2.969039555910289452e-01,5.001637536010230742e-03,1.040923915019809293e-03,6.946194401009939817e-03,5.452820658683776855e-01
2.759596129083628085e-02,-2.891605637229731629e-01,2.838426222181386072e-01,3.706144134836993325e-03,1.625305865675539347e-03,2.472787167646164365e-04,4.972063601016998291e-01
-2.237726151832081234e-02,-3.199369401340134145e-01,2.310165694862134633e-01,1.120950819987150560e-03,-3.249235517241796933e-02,-2.681234530870845942e-02,4.831953346729278564e-01
-2.619020965842957377e-02,-3.604243634920716310e-01,1.962053115700911898e-01,-1.094961275643927803e-03,-2.908046627847278229e-02,2.592758902373492463e-03,4.879192709922790527e-01
2.609376091797146677e-02,-2.814259656594212955e-01,2.802727751741992401e-01,8.876794325468140637e-03,1.159523805684804874e-03,5.153882132478206394e-04,4.874234795570373535e-01
-8.673632137530043473e-03,-3.547090205306978605e-01,1.396405314452561497e-01,-9.062517131702571560e-03,-3.366667836569551403e-02,-2.758334138553779000e-02,4.460815787315368652e-01
1.325366464485227755e-02,-3.091592486802191009e-01,2.931713219757734468e-01,9.405933421672877173e-03,-1.826125465410236666e-03,-4.733100689893597612e-03,5.223941802978515625e-01
-1.042647779758562598e-02,-3.158572077658696742e-01,1.465055001384095723e-01,5.658009566175755019e-04,-2.083671045651416809e-02,-6.607438225259240280e-03,4.090010523796081543e-01
-4.888463828952839541e-03,-3.662720128302634492e-01,1.932361355651340262e-01,-9.258634700210937370e-04,-1.292350679081902265e-02,-1.971467934758460016e-06,4.918882250785827637e-01
-1.560875899875196864e-02,-3.152861337559002552e-01,3.071107271402335748e-01,-4.106619516399350953e-03,6.413153231131631625e-03,-2.934523250998944148e-04,5.392961502075195312e-01
2.687993119308818013e-02,-2.792984934963646526e-01,2.808076955240633166e-01,-7.502659880535683928e-04,-3.022717039474210319e-04,-1.599684427469946356e-04,4.857713282108306885e-01
-1.767300516325150117e-02,-3.133317740760645509e-01,3.061631677821290975e-01,-2.861207870390142932e-03,4.978200313999457411e-04,-7.778851111477924369e-04,5.367085933685302734e-01
-2.849841365228149292e-02,-1.971922102199060722e-01,3.011843095967633999e-01,1.470029578162902403e-02,-1.346687888634458610e-02,-1.195690399190348779e-02,4.408911466598510742e-01
-1.946483971433564386e-02,-3.029324879368665013e-01,3.135566198760025847e-01,-6.533752448164645028e-04,-9.616941881400603923e-03,9.250833057890776997e-04,5.347329378128051758e-01
-1.790313899119122532e-02,-1.742040318687162748e-01,3.024686990594417368e-01,3.028895424059619215e-03,-9.784272731294322081e-03,-2.087192384357812111e-02,4.228050708770751953e-01
-2.039811613327203316e-02,-3.154542358887765796e-01,3.068488487959394884e-01,2.595415890886205740e-03,-1.013487383410507925e-02,-1.086961356103770086e-02,5.398033857345581055e-01
-5.665117259596812692e-03,-2.958957290314256916e-01,2.898752303543872810e-01,4.822590393289059169e-02,3.831539826935963407e-03,2.875195569243214552e-02,5.165791511535644531e-01
-2.194756289277944791e-02,-3.112041765451504238e-01,3.167175544675305821e-01,-2.024881862538403191e-03,-1.007856036937294052e-02,9.893605604001777607e-04,5.446508526802062988e-01
-2.466942778746647469e-02,-2.674395608174018335e-01,3.282010474612343520e-01,1.420807843327514045e-02,-1.171041549647909054e-02,-3.035394722436778395e-02,5.224006175994873047e-01
-2.272515075596790238e-02,-3.069037233693063249e-01,3.151846559746933618e-01,-2.036421295508183960e-03,-4.165879524614428224e-03,-1.187522168718265804e-02,5.398655533790588379e-01
-2.177628172290747149e-02,-3.226397550815511828e-01,3.176683482399640934e-01,-1.636952716943227120e-03,-3.316090031176069375e-03,-1.226367910980980663e-03,5.548995733261108398e-01
-1.834337466247300263e-02,-3.153230737250224403e-01,3.164090980632839334e-01,8.468286840705515511e-05,-2.206127209348772693e-03,-4.779250714998821079e-04,5.474359989166259766e-01
-1.274428989101375302e-02,-3.174486489732236683e-01,3.163212057907324182e-01,-3.934153605961536178e-04,-2.318658783755702182e-03,1.138282137149923263e-04,5.490111112594604492e-01
-1.063210854180400566e-02,-2.802139751976325810e-01,3.027102558896991313e-01,9.924552446053001506e-04,-1.297548267259038268e-02,6.429571211202182290e-04,5.058048367500305176e-01
-2.079036774892635553e-02,-2.519610001529336563e-01,2.891846523195260033e-01,-1.341273979412572342e-02,-5.145936492580697845e-03,-2.775642148963352110e-02,4.734045863151550293e-01
-1.907495917259365709e-02,-1.617277439433301434e-01,2.981275696094114469e-01,2.349275725928526987e-02,-1.286075572224025000e-02,-4.978299190717205315e-03,4.104185104370117188e-01
-4.533128447098662417e-02,-3.370924027926545108e-01,2.495718257552305142e-01,-1.020058295624192779e-03,4.061216311468004297e-02,1.180319357826428023e-02,5.133252143859863281e-01
-4.459909918391619793e-02,-3.079655986338393214e-01,2.845206052947740760e-01,3.968454078519568183e-03,8.766856645581475385e-03,1.375656409370578292e-03,5.144358873367309570e-01
-9.919873090887757882e-04,-3.085226793889868091e-01,3.114277308256537258e-01,8.564434894304184202e-05,-5.869965916851588132e-03,4.042655687606051883e-04,5.369951128959655762e-01
-9.107623568500439887e-03,-3.081237501630276765e-01,3.089914319705754364e-01,6.948397082476282012e-06,-1.667566976407286287e-03,4.095725402924110456e-04,5.345308780670166016e-01
8.349260023363433425e-03,-2.764905657756701607e-01,2.844647270111108628e-01,1.519565629527461735e-02,-9.808012561134230728e-03,-7.018037859251830685e-03,4.869817495346069336e-01
-3.600240410461168217e-02,-3.093040691865799885e-01,2.482623127085357151e-01,-2.351713951203771632e-03,1.917236088312573514e-02,6.823103736641967544e-03,4.841995835304260254e-01
-2.512049330204290873e-02,-3.105698537125059500e-01,3.073325077177901377e-01,-1.887432377678036934e-03,9.136409096963402435e-03,2.113856681881781403e-03,5.358911752700805664e-01
-3.626065137206136574e-02,-3.063686168379015085e-01,2.709686152318023789e-01,-5.337566191027627062e-03,1.120685813163946505e-03,2.446074877271782900e-03,5.004401803016662598e-01
1.827449402479688553e-02,-2.816719064411351559e-01,2.789683073612183595e-01,2.855033034989435745e-05,4.271259855109617136e-03,-3.068727111160479627e-04,4.859817922115325928e-01
-2.112490004568042326e-02,-3.272675942715331243e-01,2.964763054050457702e-01,9.711613581466837369e-03,3.792593268218162443e-03,5.972107541358441518e-03,5.406091809272766113e-01
-4.642325789661059382e-02,-3.081987925040178822e-01,2.851907311918723820e-01,-1.767944626902446213e-03,7.330021801919139532e-03,-1.968536063383973314e-03,5.152522325515747070e-01
-3.772571657518000027e-02,-3.137724062730885555e-01,2.363417398822618143e-01,-1.634559834197892676e-03,1.695890815521717762e-02,1.140060751137978931e-02,4.777351915836334229e-01
-1.612431941497560403e-02,-3.236287229469816951e-01,3.002874925616952351e-01,-9.707763828683456603e-05,6.728803675971496007e-04,6.711171216189071569e-04,5.403481721878051758e-01
-1.501224143309534687e-02,-3.090943413423238306e-01,2.981582421255461468e-01,-1.326437527229064971e-05,-1.627071890737868997e-03,-9.525293393026673704e-04,5.259929299354553223e-01
-1.061840572593043125e-02,-3.116273064030655737e-01,2.983220299337582260e-01,-7.858191829627931288e-04,-3.717085152963812804e-03,8.565584510781911777e-04,5.282895565032958984e-01
-1.898242313295952707e-02,-3.204059495586283890e-01,3.048676263881820447e-01,9.407099602538741053e-04,-7.843555608507446790e-04,1.593312228413223768e-04,5.416231155395507812e-01
-2.918681371823524887e-03,-3.148753022934865919e-01,3.002948470705800177e-01,-3.462943427774226209e-03,-8.589537175616489620e-03,5.980072028226371232e-03,5.331130027770996094e-01
-1.602102050758258400e-02,-3.180771400773304558e-01,3.039060235909568641e-01,2.468056881947922835e-04,-1.647514916014159803e-03,3.399331858958725338e-04,5.387353897094726562e-01
-1.342054237072894639e-02,-3.122668432569760122e-01,3.033921823620795433e-01,1.509511039687503556e-03,-9.687418469269075795e-04,-1.489254839624598549e-03,5.332673192024230957e-01
-1.015799572441877970e-02,-3.275572867359268781e-01,3.027156558069580283e-01,2.219672380728905658e-03,5.212924943023796928e-03,1.428753967247773683e-03,5.459308624267578125e-01
-6.501943348659659783e-03,-2.215313134882221924e-01,3.943968367497546756e-01,-6.644733878253286652e-02,2.348606107580696132e-03,2.883736856358386029e-04,5.535566806793212891e-01
-1.754991269809393073e-02,-3.261649055581650747e-01,3.095559483959137714e-01,2.009138167771415840e-03,8.693432757928632251e-03,1.857869122013727304e-03,5.508542656898498535e-01
-6.916467392903400714e-03,-3.100036623939262381e-01,3.008592501713123757e-01,1.638494699440554950e-04,-3.461379169621827973e-03,6.215688133748655843e-04,5.290631651878356934e-01
-2.264545769519126645e-02,-3.207563681697104818e-01,3.053932705890473054e-01,1.032491518949352422e-03,-3.412429630929453457e-03,5.193238669102195031e-07,5.425030589103698730e-01
-1.374023429423797127e-03,-3.127702911336295855e-01,1.865514391783507642e-01,-5.304881186536207494e-03,2.152656578808033808e-03,-2.050413924737767759e-03,4.369368851184844971e-01
-1.886087266794288231e-02,-3.329688060619687695e-01,3.095689216999401028e-01,3.455578875549532129e-03,1.091120672828794873e-02,1.971393792651850239e-04,5.568531751632690430e-01
-1.171523179908737569e-02,-3.222205143476039035e-01,2.712002346052021506e-01,1.091993309019995140e-02,-4.958501288983905957e-04,8.291304566797261244e-04,5.144530534744262695e-01
4.643209312629785479e-03,-2.947540217214497660e-01,2.925816401888913232e-01,6.585179696906572630e-04,1.204424820710632386e-02,1.855289223371541516e-03,5.091188549995422363e-01
-3.168985172454501231e-02,-2.861100400545510958e-01,3.075098704819858586e-01,5.392193657210540966e-04,1.724316383580368553e-02,6.772751187987829762e-03,5.168324708938598633e-01
-1.891168702241053517e-02,-3.187549819484245539e-01,3.038477210765310188e-01,1.576089295747730044e-03,-2.555809635025257237e-03,1.208933815336604364e-03,5.393406152725219727e-01
-1.866012070382415053e-02,-3.150130106543891362e-01,3.047658164034174888e-01,1.957650920828552638e-04,-3.434312875499451710e-03,1.781399875050666609e-03,5.369567871093750000e-01
-1.806785461458362829e-02,-2.825708418349295314e-01,3.089851812428900946e-01,1.030617962491432857e-03,1.052284825427259908e-02,6.697649314850563987e-03,5.137138962745666504e-01
-1.667237494323405358e-02,-3.195704480544647730e-01,3.036806209891996233e-01,1.049215361053158768e-03,-3.197205125521713522e-03,5.541402211870385779e-04,5.398541092872619629e-01
-2.145222706616148334e-02,-3.166884578454992605e-01,3.165307374629084403e-01,-1.308956195759382020e-03,9.866887895624949171e-04,4.178643711069063120e-03,5.488553047180175781e-01
-1.968100469419604634e-02,-3.149736192694607695e-01,3.049275597299974661e-01,6.721866233212332969e-05,-3.511633805504346933e-03,1.574781890855594512e-03,5.370916128158569336e-01
-2.099855195653228812e-02,-3.112492166714728725e-01,3.051557828098458436e-01,-7.514386949793305922e-04,-2.980228452117745716e-03,1.082628074957955834e-03,5.341539978981018066e-01
-2.162707875059868834e-02,-3.049562833536799689e-01,3.052865046307076669e-01,-5.114357728094316539e-03,-7.915859881670929757e-03,3.112601981028086454e-03,5.292141437530517578e-01
-1.872488619797208279e-02,-2.981918332170522268e-01,3.042797619572971124e-01,2.237725949312494803e-03,-8.079025167007551980e-03,-4.501242207754968527e-03,5.224696397781372070e-01
-3.194636971354687660e-02,-3.138496479175469922e-01,2.885914041147709663e-01,-7.226373273800549418e-03,-9.541161862868920238e-04,2.339360273752501534e-03,5.222551226615905762e-01
-2.294736492061335426e-02,-2.635226058272873706e-01,3.165473689366390397e-01,1.031488040978581315e-03,-8.454193535884620136e-03,9.484330592365432331e-04,5.050024390220642090e-01
-2.050412047240635083e-02,-3.184396735059306094e-01,3.124773917404898294e-01,-3.264590174037742924e-03,-2.061171419124546798e-03,-1.119071217631793140e-03,5.467154383659362793e-01
-3.951624031134858689e-02,-3.341335439288428688e-01,2.401626915083449054e-01,-5.655040161891920943e-03,4.192934736325911599e-02,-8.461692792527996179e-03,5.029938817024230957e-01
2.665755784683983276e-02,-2.842515722129907441e-01,2.810296508298111839e-01,9.076677581061397358e-04,-6.491642344778627248e-04,-6.963924383277699101e-04,4.903686940670013428e-01
-3.470693391252008958e-02,-3.106451658828128237e-01,2.773606020254166249e-01,-9.364725878039095383e-03,1.095317391217528677e-02,1.141878751485013270e-02,5.105424523353576660e-01
-1.718724573883074341e-02,-2.273741097646362896e-01,3.056474692342502353e-01,3.691056842696698731e-02,-1.179828037655528648e-02,-1.282497809618393138e-02,4.703770875930786133e-01
-4.203281790791696393e-02,-3.064046165068380900e-01,2.818429103831440186e-01,-4.522797958455316040e-04,2.022600947394115247e-03,5.272818855811432434e-04,5.103188157081604004e-01
-3.339324849218922725e-02,-3.147530386443150308e-01,2.854835335895041792e-01,-7.023471638431753525e-03,7.237196463360812820e-03,9.445283977622429905e-04,5.204542279243469238e-01
-3.395901873380618302e-02,-3.123058021774843263e-01,2.594820770808096144e-01,-5.588424205129202509e-03,8.125870531551964218e-03,-1.986665249336004406e-03,4.955467879772186279e-01
-2.926451224266698320e-02,-3.140558840151416731e-01,2.734543038134227277e-01,-5.443805353780326560e-03,1.332104835954207520e-02,3.817058343992972037e-03,5.095306634902954102e-01
-4.598605879988831857e-02,-3.031106582950032768e-01,2.786065185394859811e-01,-6.310362531753264004e-05,1.028166026336994193e-02,-5.145286817014435083e-05,5.052239894866943359e-01
-4.018519414879741236e-02,-3.121375374826378946e-01,2.852926472234547650e-01,-5.496810297705169088e-03,2.197296898959421717e-03,-1.417795659388106306e-03,5.181887149810791016e-01
-4.446745729580753315e-02,-3.104944832305979174e-01,2.995616766595347591e-01,-2.108280615190073065e-03,-1.880869461644272037e-04,4.867891417084030999e-04,5.297750830650329590e-01
2.209176193629896340e-02,-2.950608381077921560e-01,2.819244221531598815e-01,5.083773858184779948e-03,1.718326190379208763e-04,-1.605752160106903000e-03,5.005903840065002441e-01
-3.471457982795681657e-02,-3.083853861526690276e-01,2.882641174474401269e-01,-6.234909570020016065e-04,2.552196553394143509e-03,-2.366634658137335267e-04,5.173216462135314941e-01
-1.617046986865019326e-02,-3.158288668248722675e-01,3.107683484632283166e-01,-9.017741829343892514e-04,-6.015377136282172750e-03,-2.544081823691034011e-04,5.429229140281677246e-01
-3.414320209980221260e-02,-3.679163749237733261e-01,2.784875026564155864e-01,1.004753265499117899e-02,-5.037780641517624475e-02,2.665651191473968756e-02,5.688045024871826172e-01
1.917590720572518587e-02,-2.430591666702461850e-01,2.806495928415164154e-01,1.092346321643483144e-02,5.977516650481260428e-03,-1.165494580518837203e-03,4.540622532367706299e-01
2.972468949811084976e-02,-2.892609250915169627e-01,2.850064959918474639e-01,4.741926791949200269e-03,1.080381387303785447e-03,-8.567585372097493400e-04,4.984225332736968994e-01
-4.449775180384160644e-02,-3.192988652188369914e-01,2.621632527991154538e-01,-7.081744411311376511e-03,-3.165768252207205175e-02,2.173105155740928229e-03,5.069503784179687500e-01
-9.257327133410098163e-03,-3.480771182806555175e-01,3.152848808255609980e-01,-4.761690399103748333e-02,-5.750482543897481730e-02,-6.313888929935943060e-04,5.889070630073547363e-01
7.460676196852051439e-03,-2.157502177269779164e-01,2.841138482834922319e-01,5.505675895315064079e-03,-1.312564358779312254e-02,-5.140769844190819790e-04,4.344199001789093018e-01
-2.956558788257513531e-02,-4.044938208665161961e-01,3.343800736792846839e-01,-9.784827766992208742e-03,-2.016456005931513765e-02,1.534978882101840914e-02,6.416346430778503418e-01
8.629435094913248672e-03,-1.346466719483189189e-01,2.874353264821708498e-01,-2.583171676146565551e-02,5.648190583802831233e-02,-5.019582430131100739e-03,3.871111273765563965e-01
-4.508167748540775621e-02,-3.029703682953915345e-01,2.902196591492537392e-01,9.215356260017216160e-04,-9.667239112113453284e-03,1.167410714413210900e-03,5.154522061347961426e-01
1.294709698162646062e-02,-2.851927910759907703e-01,2.860687710873781597e-01,-1.019899251056714373e-03,9.343309524197892721e-03,-5.708203439592256061e-03,4.952515363693237305e-01
-3.707014890265905582e-02,-4.001746004911171384e-01,3.269123737635127869e-01,-9.205279901880418503e-02,-7.666746621519271443e-02,3.013708659870203629e-02,6.650348901748657227e-01
-2.591531586514918273e-02,-5.069407583321539068e-01,2.072809259103656765e-01,-4.615128476894001658e-02,-6.205430024149548307e-02,4.556560307859455761e-02,6.496999263763427734e-01
-8.722251892178463362e-03,-1.956431115745276561e-01,3.005272690812589298e-01,-2.883917328390329243e-02,1.224331714281560318e-02,-1.989404503480736441e-02,4.387618601322174072e-01
-2.489114141871633101e-02,-3.093493730014530985e-01,2.439235257889569297e-01,1.032021982612765613e-02,-1.510040412136036403e-02,9.322045831831278495e-03,4.805295467376708984e-01
4.448788005834210246e-03,-3.062076364363246483e-01,2.915347395402520525e-01,8.088436200791781702e-04,6.619653368561681690e-03,1.551648405771430652e-03,5.179300308227539062e-01
3.265529811060546503e-03,-3.153679264780796521e-01,2.981506329983136250e-01,2.217116414430169314e-03,5.957615830308684744e-04,1.538334026879858507e-03,5.314768552780151367e-01
-4.058450985937800404e-02,-3.381140708634681746e-01,2.804002981086621826e-01,8.849924556787481036e-03,-3.661755760330429044e-02,2.068734791463308284e-02,5.409241914749145508e-01
3.758544719840772874e-03,-3.641943462615911398e-01,2.413515396608232888e-01,-8.009974965388917678e-03,-8.004313899987874903e-02,-7.913626033249130873e-03,5.466844439506530762e-01
-9.034447014792642075e-03,-3.042522389976203834e-01,2.935670203152869195e-01,5.734312993340109910e-03,-2.249390487824123094e-03,-1.155695420709750010e-03,5.178536176681518555e-01
-8.589258760247861849e-03,-3.115164467214212585e-01,3.006445676654447285e-01,-4.906838866151248119e-03,-2.764465639631066667e-03,3.328568195992278461e-03,5.302774310111999512e-01
1.376374498604134716e-02,-2.285540297613377070e-01,3.327756202261110685e-01,4.822867048875648099e-02,-1.987665921640058980e-03,1.182944147870031507e-02,4.951751232147216797e-01
-1.008061712312361899e-02,-3.200057069071067795e-01,2.975519651496597029e-01,1.257594016101060380e-04,6.670896277142814284e-04,3.675650669354169238e-03,5.348610281944274902e-01
1.548467875268081523e-02,-2.682596581250257795e-01,2.805489538178936870e-01,-3.634024171110275276e-03,5.788252280697346250e-03,5.463142795560017211e-04,4.755222797393798828e-01
2.349083450838268874e-02,-2.971669289848649087e-01,2.925846770025559707e-01,-6.492004969226534104e-03,2.533494286589299017e-03,-3.187041775296421946e-03,5.115624070167541504e-01
-3.860657218619092945e-02,-3.133062240623917249e-01,2.825530897663759977e-01,-6.491371728105961927e-03,-4.945260870451557121e-03,-2.800764815328296489e-03,5.167680382728576660e-01
-3.240365960803318068e-02,-3.128399271223624156e-01,2.844126070989390076e-01,-1.619134789132912599e-03,-1.072534122162298575e-04,-1.162278101347137375e-03,5.175671577453613281e-01
-3.178821932035738596e-02,-3.122893233454449580e-01,2.931352104204137943e-01,-1.778012770633099473e-03,-1.741454664777274109e-04,-4.077122769817296578e-03,5.248399376869201660e-01
-1.762828030899474610e-02,-3.075256433934514533e-01,2.933735370299047074e-01,-2.451935859410028958e-03,5.333499009036755945e-03,8.826031731972612537e-04,5.206024646759033203e-01
-6.841953789518704331e-03,-3.035248193298413777e-01,3.018756032907874975e-01,2.472469767352143775e-03,1.513981266240079122e-02,5.102933187389629456e-03,5.250738859176635742e-01
-2.120855472831853147e-02,-3.142106664881044731e-01,2.895372240274273201e-01,-3.099190227371456229e-03,-4.214171204023965320e-03,-3.525193584981739948e-03,5.230504274368286133e-01
-2.436128440334995801e-02,-3.302401408219792778e-01,3.078849115113234669e-01,7.222456826431174291e-04,5.045732677563607473e-03,2.222102677249901230e-03,5.528736114501953125e-01
-2.413414466424390614e-02,-3.163067246679197031e-01,2.817330670599730857e-01,-4.514342762218656428e-03,1.404627409234948535e-03,3.653851738251864649e-03,5.180662870407104492e-01
-2.624255920374089085e-02,-2.656783276517327153e-01,3.087787722314635497e-01,-7.164722461140894021e-04,-1.361375682991024412e-02,-7.361365628424793028e-04,5.003439188003540039e-01
-2.559428229667677981e-02,-3.132572170556063296e-01,2.844571328593457071e-01,-3.354319419843670384e-03,-9.618364391832867275e-04,-4.153077038073002027e-03,5.178420543670654297e-01
-3.803560996724785620e-02,-2.222959123381090252e-01,2.985802646207851851e-01,-1.845727599636560676e-02,2.466405446005587136e-03,-3.682559400297119850e-03,4.586589038372039795e-01
-8.862803010347513472e-03,-3.016930486677706358e-01,2.962117391943519529e-01,4.504745829583014366e-03,7.569065239118869491e-03,-1.968277340172420228e-03,5.180728435516357422e-01
1.411606400245928039e-02,-2.890106916371926737e-01,2.901073229774788209e-01,1.524997101907130679e-03,1.491485281847921163e-03,3.184157550349104356e-03,5.017583370208740234e-01
-1.745187487151315248e-02,-3.203041833338159949e-01,3.054703019807975539e-01,-5.998159833660727776e-04,1.227622962906229839e-03,-2.251889268403705106e-04,5.420348048210144043e-01
-2.403696781446752403e-02,-2.655216840313805449e-01,3.066843174205259315e-01,-1.658844065869210724e-04,-1.369778575965691775e-02,-1.891782923115792358e-04,4.981150925159454346e-01
-5.756563307334768009e-03,-3.011914180786491868e-01,1.241066933217405965e-01,4.325272282289896117e-03,-2.676606124453159014e-02,3.295658303051598060e-03,3.804606795310974121e-01
-2.345056385656637057e-02,-3.167888527474068128e-01,2.944470220803295790e-01,-6.514867589820075083e-04,-9.683285837007408613e-05,-7.832888507161648705e-05,5.294894576072692871e-01
2.446780453669092359e-02,-2.900628697480771012e-01,2.873616284081549344e-01,4.759264330498768139e-03,-7.823012889871962098e-05,-3.581765738188086821e-03,5.008366107940673828e-01
1.113282550962198074e-02,-2.976794422351112801e-01,2.890993479133976418e-01,-2.946276535355185806e-03,4.436417167168714426e-03,-9.009546930109160485e-04,5.084853768348693848e-01
-7.325069407954748132e-03,-2.788289467138006517e-01,3.061127762728487189e-01,1.288825298640918805e-03,-1.585059465814376428e-02,2.745416731977702064e-04,5.077559947967529297e-01
-3.931423644052650657e-02,-3.099420196658067561e-01,2.994445290845273999e-01,-1.560038796277399406e-03,8.133918188486217267e-04,2.686975373262343644e-03,5.288717746734619141e-01
1.874775192445959915e-02,-2.925332336503036479e-01,2.885288042056808333e-01,-5.426743923687559097e-03,5.802033316787590794e-03,-3.430034457824945697e-03,5.038650631904602051e-01
2.021867323599330080e-02,-3.024952049396629206e-01,2.870474532033936432e-01,-1.866948022845536098e-02,2.308135517121430100e-03,-3.814397416014199838e-03,5.124026536941528320e-01
-3.961937689335486013e-02,-3.105462243557581270e-01,2.963303388772917657e-01,-7.246254464043702919e-04,1.362791845816120617e-03,2.566231803587909303e-04,5.265821218490600586e-01
2.351477369365655504e-02,-2.918055126201158922e-01,2.883244674466783897e-01,-9.102761424902520299e-03,3.425661075227332160e-03,-2.244629569144571905e-03,5.033386945724487305e-01
1.701841798146868159e-02,-2.973520027037880320e-01,3.097116914999557546e-01,-2.285075914056263965e-03,7.882697341663432930e-03,3.382251596351355631e-04,5.260367393493652344e-01
1.349893684972166413e-02,-2.934924439425057319e-01,2.993708705226562627e-01,6.042080619538305877e-04,-7.318377093387179108e-03,2.702029250851653032e-04,5.137009620666503906e-01
7.545195046956968896e-03,-3.012666066759130956e-01,2.980380893981639523e-01,-2.168896857680974437e-03,-1.286447468809244488e-03,7.059369843442665771e-04,5.191137194633483887e-01
1.994224735494427858e-02,-2.968852518213167535e-01,2.844570546994868443e-01,-6.253182994752655823e-04,-6.723418964442313657e-04,9.756794577003844501e-04,5.041415691375732422e-01
-2.193242016793603422e-02,-1.705316349785225005e-01,3.354153037171783702e-01,3.388861280614178118e-03,3.244790092793738145e-02,-5.324924297038351184e-02,4.632280468940734863e-01
-3.996093129540945199e-02,-3.095849463292209558e-01,2.884016475633705001e-01,-1.434332583674569582e-03,1.246709424670941783e-04,-1.153408159264537620e-03,5.187135338783264160e-01
-1.151514026656130438e-02,-3.139564946227980657e-01,2.671117523514848213e-01,-8.706560031549376300e-03,-1.412885963361866417e-03,1.394083069578249713e-02,5.041710734367370605e-01
-8.820508980553802558e-03,-3.101975844344894151e-01,3.063182718827711648e-01,-9.180544645505552340e-03,1.138448746675453649e-02,-7.700810410804559414e-03,5.347295999526977539e-01
3.811470292629974468e-03,-2.935373271643068049e-01,3.024764768773259282e-01,4.871139459973739677e-03,-8.611279536260658604e-03,-4.870941374675542487e-03,5.165168046951293945e-01
2.397795800715206427e-02,-2.847164048220864330e-01,2.819302493339835292e-01,1.258010645875781187e-03,-1.883328547210290404e-03,-2.279488667584770917e-04,4.914016127586364746e-01
-2.548242526068694724e-02,-3.203841653298935555e-01,3.052547785396782509e-01,-6.585865381765859368e-04,1.968729683146052106e-03,1.347979418128695097e-03,5.421323776245117188e-01
-2.146724726986795617e-02,-3.228660064776049388e-01,2.708175360237997098e-01,-4.345584925964322137e-03,-4.935817224198935354e-04,-6.694776756251849710e-03,5.143517255783081055e-01
-1.539777545703728025e-02,-2.530216706416351657e-01,2.490129342684053171e-01,6.199145955417922384e-03,-1.695448450296453994e-03,4.351486051890867367e-03,4.351886510848999023e-01
-1.079111946704257308e-02,-5.079329500913196682e-01,2.328525605977352364e-01,3.754687791554990606e-02,-8.295912421209244991e-02,-8.937509716361400486e-03,6.728694438934326172e-01
-4.078691363473552212e-02,-3.213824882430479923e-01,2.163426012098391138e-01,8.368696994660749719e-03,-2.871976595638283877e-02,2.173713816879769070e-02,4.702137410640716553e-01
-3.665305253395843843e-02,-3.558881426477773502e-01,3.031923383907918490e-01,-2.624665683012232910e-04,-5.044298742508646766e-02,9.619907934062638458e-03,5.777610540390014648e-01
1.809609753586869513e-02,-2.959458259015977921e-01,2.828332763149608020e-01,-2.353943459049704550e-04,3.416766510076787132e-03,6.154355589680344076e-04,5.018794536590576172e-01
-4.486698907676402170e-02,-3.040996289134176855e-01,2.690033298428383679e-01,2.853164652821696054e-03,1.036423378747763392e-02,3.189667356832361273e-04,4.974218904972076416e-01
-4.732103399712027370e-02,-3.199196572680318984e-01,2.835855051849155983e-01,-3.429578611887111692e-03,3.069553005132808279e-02,5.548630092719324981e-03,5.262776017189025879e-01
9.551169032386491037e-03,-3.080947438871481925e-01,2.948221907090994298e-01,-2.369597021603803144e-03,9.139030422033811787e-03,-2.552539615993200828e-03,5.226668119430541992e-01
-3.710718321028882299e-02,-3.670155736826941073e-01,2.993842141811712265e-01,-7.207287704606196027e-03,6.868606724758162529e-03,3.640251398013564111e-03,5.774205327033996582e-01
-2.455086716562976737e-02,-3.192451856536400734e-01,3.001277869782279506e-01,3.100309285702410392e-03,-2.393741352521501584e-03,5.953270845325662640e-04,5.366460680961608887e-01
2.308073575540174963e-02,-2.940454454123582195e-01,2.874695307151979295e-01,-2.482900644619660726e-03,9.776954698797141272e-04,-2.818917594112011100e-03,5.043414235115051270e-01
-3.975247783844638311e-02,-3.031453471432506430e-01,2.606649565676967262e-01,1.957809837657630350e-03,1.535055902852187773e-03,1.392812137153767726e-03,4.886498153209686279e-01
-2.472467423999633734e-02,-3.160813694277871955e-01,2.880667270007084557e-01,6.604798225462301005e-03,-1.240723336152830180e-03,1.320105080210850351e-03,5.234518051147460938e-01
-2.177519960302183935e-02,-3.029011254931242569e-01,2.202557546394893206e-01,5.262871628498354618e-03,3.538274507362203138e-03,1.300453992378253383e-03,4.536272287368774414e-01
-3.202547008513820237e-02,-3.079072225377597616e-01,2.160098362944433137e-01,6.481020540849862822e-04,2.227088553377617325e-02,3.880752269360592324e-03,4.556260406970977783e-01
-9.502684040825921594e-03,-3.166262278484119341e-01,2.974740510028126561e-01,-5.426914062006551282e-04,5.909229240683611280e-04,2.381072193915074672e-03,5.318442583084106445e-01
-5.127757148124113817e-02,-3.077391664572105001e-01,2.704606542132834690e-01,7.563492683022121719e-04,-9.468130316483190298e-03,3.203803758468743833e-03,5.020985603332519531e-01
1.847881621475180869e-02,-2.767773546448842881e-02,4.820769375607681373e-01,3.379748166306886792e-02,2.842943036120390218e-03,-5.488577730237041014e-02,5.009392499923706055e-01
-7.016314226741329763e-03,-1.507633162711930208e-01,3.447490552204194869e-01,4.866412212659251141e-02,-1.096833840064500784e-02,-7.488326215644750330e-03,4.501122236251831055e-01
-2.502522305826226229e-02,-3.117915498357245463e-01,2.402558989769842945e-01,1.137610238259424873e-02,-1.474346920585716154e-02,6.349650676642028084e-03,4.794204831123352051e-01
-4.270231627459548235e-02,-3.524596170759151104e-01,3.434860757150163257e-01,1.479797776100870671e-04,-2.900985114170048437e-02,6.920451761065056669e-03,6.061222553253173828e-01
-3.566432839180509046e-02,-2.988039051307208593e-01,2.565426884080908021e-01,-4.774568711555933834e-03,-1.252774586372478252e-02,-6.335693764498882483e-03,4.818487763404846191e-01
-4.780546053689967156e-02,-3.089407754583035071e-01,2.908648977985746065e-01,-2.804808333882036816e-03,-9.370867739188977127e-03,-4.309211188772140572e-03,5.212205052375793457e-01
-2.582037309019451915e-02,-3.155435309235306018e-01,3.014628272993056801e-01,-1.099139416272139894e-04,-6.955535293354813201e-03,6.236555562426985590e-03,5.349179506301879883e-01
-3.787962790030224847e-02,-3.111435572235679570e-01,2.778000373041843440e-01,-5.429596653270159397e-03,-1.190126889504715749e-02,-4.887456251003096004e-03,5.110535621643066406e-01
-4.869537234797766817e-02,-3.227861166823143280e-01,2.607033554255860364e-01,-2.566086858681431489e-03,-2.324360924862453603e-02,-6.006296340539270568e-06,5.072447061538696289e-01
-4.605364309382381505e-03,-3.796911799743958871e-01,1.580975135159810308e-01,-3.502682972346265154e-03,-9.559572061229848483e-02,2.555006225265712971e-02,5.075430870056152344e-01
-2.679281383830323104e-02,-3.172813296358826807e-01,3.135082619980869567e-01,-2.603989473104717750e-04,3.908774495905555611e-03,-6.923700122968056390e-03,5.470208525657653809e-01
-9.539872271111693447e-03,-3.426166968602529228e-01,1.522545105966811030e-01,1.559464164271444526e-02,-2.441271037606724745e-02,3.584747003483015892e-02,4.442749023437500000e-01
1.274887922448781838e-02,-2.644673008158932026e-01,3.022710233910836375e-01,3.572569062356600877e-02,-1.549497615834922147e-02,-9.987989806413178490e-03,4.957626760005950928e-01
1.672843572429767722e-02,-3.282785271298147012e-01,3.861631785825668239e-01,4.042778629595100703e-02,5.980955001735814222e-03,-1.211734951356460309e-03,6.228838562965393066e-01
1.552916180058537196e-02,-2.955986661484079625e-01,3.044444721388286923e-01,2.972755641658080331e-02,-8.853389838983897683e-03,-8.550770274778411034e-03,5.227502584457397461e-01
1.687139769899723835e-02,-2.974640558654824130e-01,2.920047940489846061e-01,4.724552254558969308e-03,2.362888699135994378e-03,2.345876332893727986e-03,5.109692215919494629e-01
-1.747085906216456347e-02,-2.065066045371766468e-01,2.838340340658957461e-01,5.599370365322119993e-03,-1.331313972453110513e-02,4.118543029994137174e-04,4.290720522403717041e-01
-4.595955733627121731e-02,-1.694515452861972415e-01,2.894408186819920070e-01,-4.754758927010609322e-03,3.242386358053352905e-03,4.795344268616334032e-03,4.114988446235656738e-01
-5.534813293051159266e-03,-2.276930181583051715e-01,3.006856898057562177e-01,2.050105113682331240e-02,-1.205688421543475893e-02,-8.385432145696262302e-03,4.615870416164398193e-01
1.049582909628773812e-02,-3.086186933225525397e-01,3.039559992977199365e-01,1.166459459096173303e-02,1.474299374176798582e-03,-5.536623171911279548e-03,5.311374664306640625e-01
7.827962853379564871e-04,-3.169810488854910013e-01,3.076949174620389749e-01,2.029529593547424720e-03,1.065700477373264662e-04,-1.454814151975477145e-03,5.410298109054565430e-01
5.745122944389759179e-03,-3.220237287683698768e-01,3.170331714960500924e-01,2.646463263162738416e-02,2.537429756105488016e-03,-3.182819897521959565e-04,5.554133057594299316e-01
-2.822513971783461445e-03,-2.512565181257581104e-01,2.986301322067407282e-01,2.756507587530755005e-03,-1.796387910543837535e-02,-1.203638134606638266e-02,4.784451425075531006e-01
-1.472774017927914320e-02,-1.716322607486301388e-01,3.229539369218888956e-01,4.554676063574216588e-02,-1.199116144213374126e-02,-2.825301253020145315e-02,4.479746818542480469e-01
3.548625385886910663e-04,-3.250202014412822416e-01,3.120635073186200925e-01,1.276755878025181935e-03,2.491652444128908146e-03,3.269291484030677208e-03,5.518233776092529297e-01
-2.889482727576720908e-02,-3.173377879771832610e-01,2.664247481218145475e-01,-5.278109650394833055e-03,1.826819274190476933e-02,-1.497999166262238037e-02,5.073004961013793945e-01
1.783755265541355634e-02,-2.713169549500619171e-01,2.826227140123228621e-01,4.097220444559689784e-03,-1.098428872447562016e-02,-6.387564581055856731e-04,4.803112447261810303e-01
-3.200900682092934491e-02,-3.149002758079240127e-01,2.914877680662135706e-01,-2.117613087700569423e-03,-1.048445771074430497e-03,1.104550745451970484e-03,5.255591869354248047e-01
-3.452039889472019452e-02,-3.131613307895322884e-01,2.930918440890235566e-01,2.471289693106733243e-03,1.058465071174828805e-03,-2.791138443694738801e-03,5.256441831588745117e-01
-4.408423119174240123e-02,-3.092707375572387174e-01,2.856546656219379754e-01,2.359276120416929894e-03,1.128679721195724722e-03,-8.038387627358615280e-04,5.162522792816162109e-01
-3.873312112421561232e-02,-3.164479703905863639e-01,2.826028475538089335e-01,2.082994673563867347e-03,3.398348933270050904e-03,-2.742157304324937921e-03,5.193191170692443848e-01
-4.375322329601807891e-02,-3.060872228178202481e-01,2.823302721987633879e-01,1.400737097432209425e-03,2.243722728359621391e-03,-8.760748601406212867e-04,5.106032490730285645e-01
-2.594333312619034188e-02,-2.463039104145324787e-01,3.082929892668104799e-01,1.042913463882123165e-02,-4.222313366308173138e-03,4.225996966862621308e-03,4.841059446334838867e-01
2.574617942692414285e-02,-2.838409548536453553e-01,2.837736851859103959e-01,3.099569912364760500e-03,-2.318321351157267250e-03,-8.397613638969188493e-04,4.922920465469360352e-01
8.343722258732148150e-03,-2.730723991636140879e-01,2.851261359096989856e-01,3.879123116306631806e-03,-7.897852413523509182e-03,-7.144538796259167950e-04,4.836614131927490234e-01
-3.487048084969603112e-02,-5.201948107239215413e-02,3.419776944377070915e-01,-5.500885526685592554e-04,-4.054828220245752096e-03,-1.340846700673905927e-02,3.864722549915313721e-01
-1.457853637133267599e-02,-4.460110943926812177e-02,3.202658352842594480e-01,9.469556305152657116e-03,7.214061465260331258e-04,-2.022390972913766863e-02,3.529484272003173828e-01
-3.397274766177620087e-02,-3.149321570244094093e-01,2.907228596032225276e-01,-7.525152071566173356e-03,-2.486285148445282946e-03,-2.842907640173481486e-03,5.251708030700683594e-01
2.636838716366071006e-02,-2.817852858574669828e-01,2.793936019947121929e-01,1.227910864259647164e-03,-1.472263560055371351e-03,-8.155335099744321086e-05,4.867875874042510986e-01
-6.016507873058854310e-03,-3.044868099831484209e-01,2.990640763893914200e-01,1.077391773821520689e-02,-4.047549667903400667e-04,-5.723311839679898552e-03,5.231282711029052734e-01
9.420855030835652288e-03,-2.108063024235919125e-01,2.748890490323589453e-01,5.858795090713277143e-03,-2.674118869927390608e-03,-8.149275544697526762e-04,4.213823676109313965e-01
-4.107522661678918163e-02,-1.947768552480401705e-01,2.950173357407673280e-01,-6.722313011261003141e-04,-6.265783778901389163e-03,-1.075628718355516739e-02,4.344037473201751709e-01
-4.020887249317864343e-02,-2.075134077563618173e-01,1.672378174314268773e-01,-2.413684625026892017e-02,-2.374440515123419845e-02,-2.217809477046833386e-02,3.326356410980224609e-01
2.407572694950753378e-02,-2.941432768633647776e-01,2.848312878542763604e-01,4.796707451759570930e-04,-9.434523771630404427e-05,3.781194177281952448e-04,5.022303462028503418e-01
4.770668149700618699e-04,-2.941214617398368869e-02,4.974917028964552790e-01,2.871159593430258356e-03,2.875363375616981493e-02,1.814170665435519206e-02,5.160084366798400879e-01
-4.256988921974944051e-02,-9.987680362119613631e-02,3.484224635497594758e-01,3.341289438272684528e-03,-5.657547223007900958e-03,-1.222428531742087397e-02,4.232534468173980713e-01
2.460423578662031957e-02,-2.907458490336667922e-01,2.840910473551940818e-01,5.296149513442896702e-04,-1.688740845247646387e-04,-1.210798719796775478e-03,4.986116588115692139e-01
-2.105869754388891082e-02,-3.209334017795602567e-01,3.047289545940635724e-01,7.830153958080911334e-04,-1.473207787560875054e-03,4.847721457668053777e-05,5.420020818710327148e-01
-7.435781245472256051e-03,-2.529580941741091382e-02,4.335768482444087302e-01,2.724678914917320893e-02,-4.510046382381061730e-02,-9.933110454482118809e-03,4.596878588199615479e-01
-5.614053366398225053e-03,-1.114600743269261451e-01,2.999210888855378121e-01,-5.599662277380642803e-03,1.469275104910001267e-02,1.942250138048830926e-02,3.725160062313079834e-01
-1.730793476905574495e-03,-3.114864340372726081e-01,3.055252918311896493e-01,-2.891060928336376071e-04,-4.914897242093240089e-03,-3.004112343073599232e-03,5.344426631927490234e-01
9.652794415237652553e-03,-3.046809075790485322e-01,2.975537841926019778e-01,1.121162648948647325e-04,-5.907189777587388765e-03,-6.130151995133635567e-03,5.219263434410095215e-01
1.362024153163687856e-02,-2.960588058263781686e-01,2.951742992211556227e-01,1.402420079130554942e-02,-6.753397158538458796e-03,-2.994307567764351030e-03,5.129511952400207520e-01
-3.292196768259921663e-02,-1.598581549734376384e-01,2.806449450360037901e-01,-4.790821472067388447e-03,3.608347263374367918e-03,1.630894343117745291e-03,3.928815126419067383e-01
6.306340950263688606e-03,-3.023978414991323471e-01,2.946059366820956149e-01,2.867931342623291930e-03,-6.981343256962338657e-03,-3.982427903070541279e-03,5.173322558403015137e-01
-2.091130235820436167e-02,-3.203595076824091725e-01,3.041941987838373551e-01,1.405892988144979419e-03,-1.867252287382262536e-03,2.891944414479255738e-04,5.410468578338623047e-01
1.294737046761007190e-02,-2.992580273304875083e-01,2.949531700658020728e-01,1.609969727262671683e-03,-3.992131352512129187e-03,-3.947330825163224838e-03,5.149228572845458984e-01
-8.656268958443860684e-03,-3.072237348169613580e-01,3.040967370173865425e-01,-1.304138667152910215e-03,-3.798457643434313084e-03,-1.790694232495574018e-03,5.295213460922241211e-01
-2.080596815340179234e-02,-3.170408824018405292e-01,3.005330767610829845e-01,-2.664917626850050320e-03,-4.921113234395735857e-03,-5.993219675765216505e-03,5.351704955101013184e-01
-2.056409853468213825e-02,-3.165472219179669700e-01,3.038569837093428871e-01,-2.746966929286391319e-03,-2.300652481258660779e-03,-3.598538305788616409e-04,5.375100970268249512e-01
-8.715863216462407803e-03,-3.278551866301748219e-01,2.093945698100363462e-01,9.459522009495806641e-03,-1.323514852801003887e-02,1.277960819654374832e-03,4.688587486743927002e-01
-2.792696167326086387e-02,-3.138904801107189613e-01,2.986790046197657644e-01,-1.946600801706468238e-04,-1.493603566944595035e-03,-7.295280321947492661e-04,5.308977365493774414e-01
-2.689433693812943310e-02,-3.185522508719503265e-01,3.040251266357769100e-01,-9.648156255916818733e-03,-1.969351469450522120e-03,2.955435755370599150e-03,5.398188829421997070e-01
-3.132364663789896642e-02,-3.148032215525195521e-01,2.822076298459678112e-01,-5.201594401426362126e-03,4.232251911542046622e-04,1.345871784521353266e-03,5.173290967941284180e-01
-2.667352550533745592e-02,-3.184535098390486318e-01,2.923983005583026262e-01,-6.721095792485805992e-03,2.116143104750754528e-03,-2.475003129576560344e-03,5.293472409248352051e-01
-3.002279641841416533e-02,-3.127192990657076122e-01,2.921898450332060526e-01,-5.017796001405402419e-03,2.834510172783200662e-03,3.514187700655539443e-03,5.243694782257080078e-01
1.730233312096068551e-02,-2.929626174834529806e-01,2.906432265369845447e-01,-2.197952961478979311e-02,-5.642933079524726364e-03,9.307758672711488254e-03,5.075356364250183105e-01
-6.464589485658912144e-03,-2.731915291046264627e-01,3.231493573580307421e-01,-4.856221504581061804e-02,2.507784392688154965e-02,-5.408599842499321221e-03,5.260749459266662598e-01
-3.234137329414230044e-02,-1.082646210289500976e-01,2.773492459427755463e-01,4.065256067293824757e-03,-2.639740496968474414e-03,1.703428988694987095e-03,3.539272844791412354e-01
9.488851679133953471e-03,-1.980959288343421276e-01,3.000358895326282749e-01,-3.733554291527640956e-02,-4.797010574882741227e-03,4.852564444793258831e-03,4.383419454097747803e-01
7.972233488814105956e-03,-1.927772963163888742e-01,2.892928555579387662e-01,-3.767617352299024863e-02,-7.789085049668582894e-04,3.182074603409784392e-03,4.245083332061767578e-01
3.882587659427204525e-03,-3.074274842718159872e-01,2.950704171836039946e-01,-7.934118316829530046e-03,-2.997311327388522007e-03,2.362109136116864998e-03,5.220982432365417480e-01
2.089708057346139833e-02,-2.893499633266684024e-01,2.888826700933776470e-01,1.730293865237534159e-02,-5.195910077199285791e-03,-7.737566101258245470e-04,5.021874308586120605e-01
5.860855385404015877e-03,-2.615293044034414649e-01,2.983694891560149109e-01,-1.242480944085577396e-02,-8.302990271397850050e-03,3.059512520364369124e-03,4.857681989669799805e-01
3.456366728298335481e-03,-2.661227189972368845e-01,2.942669363952716832e-01,-2.335762552568350359e-02,-3.922471554925957907e-03,1.597108450685456264e-03,4.871659576892852783e-01
-9.569401502541721727e-03,-6.988148942759053739e-02,3.240576884884173170e-01,6.059105050875943088e-02,-2.044376245478485635e-02,-4.544347599267790222e-02,3.918281793594360352e-01
-5.169567965945406039e-04,-2.890280608951837360e-01,2.961811853903887348e-01,-1.369800543251235457e-03,-9.525634684725184376e-03,4.162526186750072597e-03,5.071479082107543945e-01
2.267276966873913975e-04,-2.939607279370977100e-01,2.958308314790028537e-01,-5.201888299603814846e-03,-8.143617573599314444e-03,4.815701958879517811e-03,5.111171603202819824e-01
1.644152860495397446e-03,-2.786477750421399446e-01,3.031604448293521714e-01,5.353097324842326366e-02,-3.853081507448851556e-03,1.089090943253946155e-02,5.128208994865417480e-01
2.846558438982739470e-02,-2.695295635749174190e-01,2.813770416499471461e-01,6.379313135178957608e-03,9.980629187171319652e-04,1.199911874345300274e-03,4.777667820453643799e-01
-2.758713644092155790e-02,-3.149874459211864930e-01,2.906326426241809813e-01,-3.765488907866531947e-03,3.620802305523748016e-04,1.941704486910462513e-04,5.247496962547302246e-01
-1.744661396526737962e-02,-3.159207075682766153e-01,3.097381415847444419e-01,2.863676444917499981e-04,-4.113117950612231628e-03,-1.651340638393610167e-03,5.420811772346496582e-01
-2.154502946405752357e-03,-2.979203005592493403e-01,3.017390755965232430e-01,-4.792945853024226403e-04,-3.889599470100573581e-03,-3.872141610690377992e-03,5.194238424301147461e-01
1.124457258158856332e-02,-2.430057848727482095e-02,4.509891912847514006e-01,-4.409280965720737550e-03,5.546734350851904860e-02,-5.415587411842072950e-03,4.686638116836547852e-01
2.831307157247956938e-02,-2.820485184546398516e-01,2.844558714135713151e-01,2.706419000170042638e-03,2.142507357247314722e-03,-7.263558851401865496e-04,4.913935959339141846e-01
-6.142576497182415315e-03,-3.018033218690071573e-01,3.089013865231886591e-01,1.960977576296541770e-03,-8.619890642110678708e-03,-3.739713451432908394e-03,5.292357802391052246e-01
2.292943318120471349e-02,-2.746389265630810317e-01,2.798911362674830761e-01,3.348306696031610064e-03,-1.987300908025337650e-03,-4.921375194207687877e-04,4.807141721248626709e-01
-5.955971113166620180e-03,-2.995085379487047450e-01,3.092066492736763594e-01,3.932977470848874691e-04,-9.841332964427894694e-03,-3.004297036031846734e-03,5.275750756263732910e-01
2.031363269843117908e-02,-2.604930452664814267e-01,2.746350842446720342e-01,2.514282783653583927e-03,-5.855810676311548569e-04,-4.297872290634625306e-04,4.636458754539489746e-01
-1.493068662523715923e-02,-3.164801315529381931e-01,3.163647239768300756e-01,4.416941476069202472e-04,-2.836718401123412489e-03,-1.121123743698110303e-04,5.482840538024902344e-01
-5.829148627955693662e-03,-2.956738483034135889e-01,3.094081264564115807e-01,1.785854043735719604e-03,-1.584165835727643565e-02,-6.735481680197834449e-03,5.250265598297119141e-01
-1.209501495461202079e-02,-3.051868827611391444e-01,2.973722976240701921e-01,1.642633503486168670e-02,-6.227242334964342742e-03,5.591565054897319059e-03,5.228717327117919922e-01
1.626394190614235263e-02,-2.606195705908725402e-01,2.791261762216486475e-01,1.116311226040362899e-03,7.799356897941772497e-03,-2.089242552867867872e-05,4.676852524280548096e-01
6.604841726012333769e-03,-1.035771680044659526e-01,4.104236348502610099e-01,6.295916542655599635e-02,-5.359097585048461926e-02,-4.795085802058612207e-02,4.971002638339996338e-01
-1.139494043107399171e-02,-3.097709143133686172e-01,3.031996848097887609e-01,2.808048684980725841e-03,-5.367362217839596709e-03,-3.404650957721412977e-03,5.310464501380920410e-01
1.343574672206527577e-02,-2.872374643508391334e-01,2.895040539474308949e-01,5.739635764730621585e-03,6.124160024474888282e-03,-4.236232554546173453e-04,4.998362958431243896e-01
-1.098866041135026540e-02,-3.105762160778075542e-01,3.082823100614148770e-01,-1.434104891732442292e-03,-6.588716542037584625e-03,-6.323412971491062335e-04,5.361658930778503418e-01
-2.072503366354144436e-02,-3.135029802965723089e-01,3.066347883039198252e-01,-3.019993797645729745e-03,-4.724173568217599622e-03,-2.656823363579456036e-03,5.374407768249511719e-01
2.241105605633003650e-02,-2.951072772750586437e-01,2.827231438486123016e-01,-2.867848312126559506e-03,-3.337357820654225020e-05,4.473011246098543281e-04,5.012578368186950684e-01
-3.100759200264791710e-02,-3.173915775539983275e-01,3.079570008699037964e-01,-6.429771561360269824e-03,-3.049796120386085775e-04,-3.852837183813694641e-04,5.423205494880676270e-01
-2.225303348274674034e-02,-3.199626476861447411e-01,3.137634939012452495e-01,-3.562871370999801200e-03,-1.501748447090299910e-03,1.462115706044010742e-03,5.492037534713745117e-01
-1.780612648741796214e-02,-3.193818640942988063e-01,3.165986483495375481e-01,-2.521029453421383057e-03,-6.830424727394868167e-03,-2.240211406831272428e-03,5.511777400970458984e-01
-1.770656326041908021e-02,-3.077897532359444854e-01,3.111654572409698893e-01,-2.509926380331391812e-03,-1.026840599256435664e-02,-6.446225628099611256e-03,5.368102192878723145e-01
1.546170088281558289e-02,-3.136894237185062217e-01,2.931554256433321903e-01,2.157668230985439889e-02,-3.092537399468199642e-03,-1.587258738684177222e-03,5.275323390960693359e-01
-4.465153634327506671e-05,-2.548682194129951450e-01,3.531255163946500075e-01,5.131692646141984560e-02,4.664171463293541320e-02,2.365926131134013510e-02,5.438439249992370605e-01
5.658529698742968683e-03,-2.698037156239666556e-01,4.168006468497777450e-01,4.850370676248449975e-02,6.328192297499980745e-02,-9.143164379345203319e-03,6.144052743911743164e-01
-7.966530708052834558e-03,-2.852743927208827857e-01,3.585978344122590089e-01,6.934347787060725354e-02,1.337888285048264084e-02,7.574831650497760227e-04,5.726120471954345703e-01
-2.798743062580792001e-02,-1.730446343814408261e-01,2.962876114438443564e-01,3.742699438601951572e-03,-5.641047164377175661e-03,-4.865413904600682411e-03,4.164646863937377930e-01
1.968005020332266874e-02,-3.100843845507592622e-01,3.072109580219249403e-01,2.412082940821594704e-02,-9.088737499591268906e-03,-7.546742492276135167e-03,5.370290279388427734e-01
2.504703785485312348e-02,-2.791619115349093239e-01,2.850163094480956949e-01,-9.289880990261014174e-03,3.026099241847281110e-04,-1.341957663803719633e-03,4.893635213375091553e-01
-9.534393957918076840e-03,-2.983454558941530110e-01,3.031304874466872468e-01,-4.246204074607236138e-03,-7.834518855302103832e-03,4.794159797822444488e-03,5.213246941566467285e-01
-3.533279655877369363e-02,-3.142097151253900877e-01,2.930816302002601792e-01,6.996646151320011237e-04,-2.546733992561797753e-03,6.574033260273939730e-04,5.265337824821472168e-01
-4.692907390435346882e-03,-1.745908727964989859e-01,5.222188729650973915e-01,8.919809294164061930e-02,-2.220720006230495619e-02,-1.283069259386168323e-02,6.495112180709838867e-01
3.295922941418998053e-03,-2.047891447815734511e-01,2.828518773687279109e-01,-5.643884129175883585e-03,-7.523123596046594509e-03,-1.459257344778547121e-03,4.241392314434051514e-01
-7.296622635978612659e-03,-1.268028442899266361e-01,2.917283749022381301e-01,-4.820771456804941180e-02,5.041777686199230835e-02,3.289430711584710731e-03,3.925089836120605469e-01
-1.528866373950513863e-02,-3.529076020852255913e-01,1.991261198478325722e-01,-1.729391286517537735e-02,9.015420713371118111e-02,5.586577699500327142e-03,5.076661705970764160e-01
3.917679890567033613e-03,-3.258283712953264910e-01,3.082850860693054917e-01,3.375870250149364676e-02,5.733346449305488056e-03,-1.434031081648199334e-02,5.530555248260498047e-01
-2.587523069141044879e-02,-3.141756851079576252e-01,3.004935096751952806e-01,-5.619257770495835434e-03,-1.294984306617144327e-03,-8.856051397908017934e-04,5.327551960945129395e-01
-3.416124909226218864e-02,-3.098240266425115741e-01,2.855763316616462544e-01,2.753696839092415697e-03,-6.424010706206957242e-04,-2.869888334323728984e-03,5.161496996879577637e-01
-1.851924834927811542e-02,-3.118846550297952325e-01,2.941454036476834344e-01,-1.982640503375281919e-03,-3.460022484082596154e-03,1.806145858672700646e-04,5.249716639518737793e-01
1.680941710836582684e-02,-2.673357432315822679e-01,2.845452303693405405e-01,-1.214830388561693965e-03,-1.029847157039480345e-03,1.123638293208350765e-03,4.780252873897552490e-01
-1.560291396630039337e-02,-3.114160056327128223e-01,2.951309647737143660e-01,9.612415218378841508e-05,-1.782588420909108230e-03,9.753148651380626633e-04,5.253498554229736328e-01
-2.628883368244416471e-02,-3.157679765382701564e-01,2.979065647773241343e-01,2.390087014432931787e-03,4.180037450452387900e-04,-1.598360746184679859e-03,5.317649245262145996e-01
-4.471155650089501943e-02,-1.260164314493825433e-01,2.806420536503871910e-01,1.233659754322281085e-03,2.851025036925088128e-05,-3.568689084160588977e-03,3.727748095989227295e-01
-2.016408994128832122e-03,-3.250618561082387337e-01,2.202285849240885884e-01,6.247978753877173747e-03,3.493249199543720877e-03,-1.547562643920558784e-02,4.758346676826477051e-01
-2.390794177731844772e-02,-2.188657724875924249e-01,2.915579143919750371e-01,-8.636210932447564975e-04,-1.261383655027193892e-02,-3.571300836417154196e-03,4.467075467109680176e-01
-1.525439452305939886e-02,-3.197541525625118286e-01,2.965430114002620687e-01,1.728656910709240515e-03,-5.982785599059161664e-03,5.205409136651207962e-03,5.339266061782836914e-01
-2.182838742231013596e-02,-1.960026889398331640e-01,2.928933582256080248e-01,3.871563340398209360e-03,3.334048644160816314e-03,-3.335350351072339549e-03,4.293187558650970459e-01
-2.547923877757557465e-02,-3.254376905823344601e-01,2.566151528227830214e-01,-1.953713338630965607e-02,5.834428764080903940e-02,-1.568441143380039675e-03,5.152994990348815918e-01
-1.897206257292450432e-02,-3.222258280030082522e-01,3.044682655177177732e-01,-1.370312857176301993e-03,2.232780396974706760e-03,7.380050715487771222e-04,5.428473353385925293e-01
-2.104443120012043644e-02,-3.173492155169244100e-01,2.567200038713813859e-01,1.309328195158653571e-03,1.214977222933732830e-02,8.230740178235123336e-04,4.976972639560699463e-01
-3.046088099769398566e-02,-3.148770941556832126e-01,2.972328953793813011e-01,3.955348129418148097e-03,7.718315150284005624e-03,-5.418108235654559707e-03,5.308398604393005371e-01
-1.270637447973028272e-02,-1.751147000450765656e-01,2.805613200621511205e-01,6.228992592789013225e-03,6.392926645901815703e-03,-8.945729296667456580e-04,4.003160297870635986e-01
2.341342531286570716e-02,-2.893917993016656420e-01,2.878022720148069591e-01,5.938508127670071024e-03,1.462174228758381491e-03,2.633058240657654581e-03,5.005834698677062988e-01
8.736126792334571525e-03,-2.482419567149103390e-01,2.906264652068634713e-01,-1.024371074643875244e-02,1.274183025941900797e-02,-9.260847083785770859e-03,4.679729640483856201e-01
3.375855577197557633e-03,-1.845841325787721254e-01,2.903308581065492944e-01,-2.283583905852095211e-02,-1.130864088717951216e-02,6.536561337431571160e-03,4.167546629905700684e-01
6.347402477979504319e-03,-2.562335434689008706e-01,2.894228201925914123e-01,-1.142915586228535237e-02,-9.656115152573065130e-03,-1.928924382682021968e-03,4.733850657939910889e-01
1.449795798122643919e-02,-2.839227328272248552e-01,2.843706947947950980e-01,4.907502326580440860e-03,4.656477209560334375e-03,1.118745760518532681e-03,4.925067126750946045e-01
8.742216716050001113e-03,-2.529611605360445603e-01,2.880858691153461715e-01,-8.517183130294238291e-03,-6.027949228846167171e-03,-7.883804040994101675e-04,4.689938426017761230e-01
-1.932285688018730435e-02,-3.227190381269754438e-01,2.566693738875210906e-01,-5.686016845506570473e-03,-3.360045680855567544e-03,4.272975910307051130e-03,5.021370053291320801e-01
1.942837046344161466e-04,-2.962191428977295482e-01,2.957570955316359274e-01,7.533543538179539312e-03,7.376070752550005147e-03,8.141832345085149580e-03,5.131855607032775879e-01
1.980779942564771245e-02,-2.807927161145352679e-01,2.839390582517802297e-01,-6.576850732055248422e-03,-1.616774468229998252e-03,-2.542907076680478657e-04,4.895526468753814697e-01
-3.091436578278366695e-02,-3.133616296474679985e-01,3.078075403542268607e-01,-1.460340205146358310e-03,-3.120277831200398734e-03,1.666351868583799446e-03,5.387244224548339844e-01
4.365997860093027982e-03,-1.894283072194604955e-01,2.946005995885052076e-01,3.933961497109683680e-02,3.579234319352514633e-03,-1.925799635344748340e-03,4.274699389934539795e-01
-8.619681308022281857e-03,-2.925949094304680087e-01,3.008491582412844978e-01,-4.051827166260042225e-03,-7.998997175843831561e-03,-2.505330086315263587e-03,5.143485069274902344e-01
-1.573871880601700191e-02,-3.129574526244547905e-01,3.007723424571887016e-01,-9.366264205909653057e-03,-7.044506954879323907e-03,6.719416760628562496e-03,5.321078300476074219e-01
1.347790203310995916e-02,-2.810813005615250826e-01,2.899883221300420533e-01,9.448328404748617413e-04,7.112183038140228175e-03,-8.874461210339479062e-04,4.948015809059143066e-01
5.123516716520223196e-03,-2.970619214060560842e-01,2.940123589215430377e-01,-4.870235957909707820e-03,-4.263292947540930390e-03,-1.348030859372812123e-03,5.120565891265869141e-01
-1.698664158460031978e-02,-3.191440529786108149e-01,3.149318330964818169e-01,-3.495884645375275999e-04,-2.471453170322107792e-05,2.102033607234233062e-04,5.493278503417968750e-01
-1.936942233644744354e-02,-3.173782208259721682e-01,2.976521567465892359e-01,-2.700036304972013631e-03,-9.930286848037772358e-04,-1.803946761237955332e-03,5.327492356300354004e-01
-2.265959968044085893e-02,-3.229355745985258430e-01,3.087080166207907261e-01,-4.685021707300441457e-03,-1.367682105229320755e-03,-2.843825294149074367e-03,5.473276972770690918e-01
-2.163536184810943563e-02,-3.159923167120385901e-01,2.713911534335070042e-01,6.477676853084799336e-04,8.387612685345423660e-03,-7.455744462641083689e-03,5.090619325637817383e-01
1.154535509460467672e-03,-3.058038380855766514e-01,2.951457124523760300e-01,5.585869722245954266e-03,3.582847805974840368e-03,5.148271977085575697e-04,5.206056237220764160e-01
-1.548627848856757097e-02,-3.111701107935235799e-01,3.059262652259676085e-01,4.650224749134537067e-03,4.361289122977028698e-03,-2.153631387310051687e-03,5.347030162811279297e-01
-2.107922961284707658e-02,-3.198928526140307205e-01,3.124637252685231736e-01,-4.128919385593365389e-03,-1.751860835828938446e-03,9.682536945976340497e-04,5.479697585105895996e-01
-2.375684782225556679e-02,-3.082763635521771906e-01,3.096071009450408473e-01,-2.296919497610383151e-03,-6.586950018236139431e-03,-5.597251499087383536e-03,5.358837842941284180e-01
-1.849171473321975859e-02,-3.111265680414763701e-01,2.968959275802472986e-01,-1.195335607965041218e-03,5.142868605830568096e-03,6.058941454324129079e-04,5.267662405967712402e-01
-2.190598940229203720e-02,-3.235664621396108775e-01,2.848279011275988704e-01,-8.224179984499594559e-03,-1.259850542625599043e-03,1.014690670634091872e-02,5.273810625076293945e-01
-2.220389042317054765e-02,-3.202557018540476141e-01,3.162434389028616066e-01,-4.279292682070536848e-03,-7.868033487994101696e-03,-2.800689129880741882e-03,5.518337488174438477e-01
-5.853650444902861252e-03,-2.957909117534557319e-01,3.092018116982527265e-01,1.847016259254567186e-03,-1.576480561839932806e-02,-3.777841461272103078e-03,5.248509645462036133e-01
-1.777246496863163147e-02,-3.279763682604268094e-01,3.239378681518144676e-01,-2.150868700699784877e-03,-2.769142720291004837e-03,8.899255551513333929e-04,5.648287534713745117e-01
-1.477807523738668485e-02,-3.111551282654515527e-01,2.985264446743066125e-01,1.326882747516408730e-03,-1.892737556678326070e-03,-1.959338892561512252e-03,5.280936360359191895e-01
-1.319672495604863258e-02,-3.154129012656902709e-01,2.614701705201006310e-01,-5.390282232824934391e-03,4.481744092474610613e-03,1.043884421972552171e-02,5.002595782279968262e-01
-2.234576923717033689e-02,-3.249647752786337662e-01,2.846664351778306346e-01,-3.137650809636769161e-03,5.312315664272717307e-03,6.789333836147203385e-03,5.281997323036193848e-01
-2.716889431031938723e-02,-2.391317023842935985e-01,3.004796300760751993e-01,-4.451036956807672383e-03,3.858393232853862169e-04,1.108210664571818854e-02,4.713378846645355225e-01
-1.947430655871734695e-02,-3.201682243379077586e-01,3.057600820292891708e-01,9.337232861552672517e-04,-1.149413346953238879e-03,-4.537963096675972459e-04,5.422152876853942871e-01
-6.602090884643953272e-03,-2.974878461874908564e-01,3.014267836548594204e-01,-7.244892803751141119e-04,-8.954599538585322760e-03,4.716779573728715515e-03,5.190437436103820801e-01
-9.762505163952609616e-03,-2.593259453794708458e-01,2.913575138328245995e-01,-3.164772422579272947e-03,-1.036466688197515938e-02,-2.184921055639553120e-03,4.779857397079467773e-01
-1.889530856867160241e-02,-3.198637805701011194e-01,3.057844904156866717e-01,1.178699051191385181e-03,-1.041463341220564458e-03,-3.855475621180144891e-04,5.419642329216003418e-01
-2.173957793139168551e-02,-2.706033880232311950e-01,3.022906754733498680e-01,8.910480629506197306e-04,-1.071884312194029167e-02,-4.185987490876280116e-03,4.979636967182159424e-01
-4.886188411959604960e-03,-1.854090591387313192e-01,3.350256189291258568e-01,-6.249282471515641563e-02,-1.704701493853081132e-03,2.707092059812243878e-02,4.726665616035461426e-01
-6.182539637538626842e-03,-1.427724056361196481e-01,2.936841540102226311e-01,-1.983877278271079566e-03,5.080478562995070085e-03,6.925625212811247931e-04,3.868155479431152344e-01
-2.785575372925835208e-02,-3.166597458596759895e-01,2.925564768399668836e-01,2.473401009243618096e-03,1.344754889374355283e-03,-1.358168349493228449e-04,5.278559327125549316e-01
-1.669340254396068854e-02,-3.269081810795668175e-01,2.143564923370108732e-01,-1.088825566779586494e-02,9.576258109889428105e-03,1.773612346286525948e-02,4.720877408981323242e-01
-2.179214859550578087e-02,-3.185297390643170301e-01,3.004190104854888577e-01,2.704080784976942587e-03,-1.017332146903388457e-03,1.706938552798662715e-04,5.362000465393066406e-01
-1.900604415146918413e-02,-3.154207370193736759e-01,3.048379337612825979e-01,4.202224552192852162e-04,-4.740739703272648341e-03,2.646013663760270283e-03,5.374175906181335449e-01
-2.017832827730794976e-02,-3.219487791910856100e-01,3.051898296958328038e-01,-1.276998701381326391e-03,2.149637796599269870e-03,1.117933451264202429e-03,5.432668328285217285e-01
-2.000035076851874177e-02,-3.186758977091992961e-01,3.037110380350124261e-01,2.160713777010808429e-03,-3.797386301610365406e-03,7.878005890788753731e-04,5.392030477523803711e-01
-1.596450854550000159e-02,-3.278314095978565046e-01,2.283801431586107711e-01,-5.276905590017590478e-03,-7.874474776430641365e-03,5.282532433911375953e-03,4.832406938076019287e-01
-1.229139883416410957e-02,-3.088288649576108602e-01,2.935783697082388621e-01,3.997478346041759972e-03,-3.743897770207776400e-03,2.107821070191498512e-04,5.218071937561035156e-01
-3.669044684910305332e-03,-5.408041396594107098e-02,4.843647461798112897e-01,3.604211606224880932e-02,-6.908546465409324579e-03,2.972231576693885186e-02,5.215470194816589355e-01
-1.673765270630041962e-02,-3.049526793453973816e-01,2.906844705878214308e-01,-2.659323017532524373e-03,2.518825704394706769e-03,2.357079668042332595e-03,5.159814357757568359e-01
-1.891462858757140403e-02,-3.122260758729916152e-01,3.073642067407611478e-01,-1.095217510460357252e-03,8.396299259018233374e-03,-1.639922972723419428e-03,5.370418429374694824e-01
4.368076079187287186e-03,-2.978450862474013028e-01,3.152170925585822125e-01,-3.111915367333567203e-02,-4.045812081199480492e-03,1.128775001608282869e-02,5.340778231620788574e-01
-1.599845417667966965e-02,-3.134002607178052457e-01,2.969553230437494973e-01,-1.667381564148170947e-04,1.203278387996225217e-04,-7.573969121696260982e-04,5.286423563957214355e-01
-1.645488119552864642e-02,-2.864760406592111730e-01,3.094395670045038682e-01,-6.013230594281519445e-03,-7.483376952226553601e-03,1.323073653000588108e-02,5.176085829734802246e-01
5.863956970267093262e-03,-3.011143315151845745e-01,2.924093692249928877e-01,5.779210172323046794e-04,4.049490487169296431e-03,1.419981588030646592e-03,5.141628384590148926e-01
-1.622548724685383623e-02,-3.185004355635103757e-01,3.039838473202795543e-01,-6.350971379095185975e-04,1.642880513484517701e-03,-2.159017129966621503e-04,5.391705632209777832e-01
-5.167499556745384914e-02,-3.000619595491622604e-01,2.652887605270402571e-01,-1.184029546797406018e-01,7.118269495143997316e-02,2.788200430310332559e-02,5.481629967689514160e-01
-2.063434750069985044e-02,-3.189328339141806468e-01,3.009521595774488079e-01,-2.401224788177429553e-03,8.433774246464088289e-04,2.095151218985821459e-04,5.369806289672851562e-01
3.463152451018848728e-03,-2.833083571512297061e-01,2.908581863912185206e-01,-1.075016752101686087e-03,1.119851419888267217e-02,-1.170838563261164707e-03,4.976286888122558594e-01
-6.118658564583190004e-03,-3.111225935306844437e-01,2.991321224454526195e-01,-1.004699823769992768e-04,3.937412496073694652e-03,2.456626303430393282e-04,5.285403132438659668e-01
-4.994053910908093780e-03,-3.156993967895481701e-01,3.083980512426843235e-01,-1.207303405745913105e-02,-1.881620979116561346e-03,8.210609167423195756e-03,5.410870313644409180e-01
1.085964176575788913e-02,-2.973574429688067289e-01,2.894152563518437860e-01,-1.501237412421141827e-03,2.558140637750922364e-04,7.244207507556420407e-04,5.083848237991333008e-01
2.149195918431330912e-02,-2.951426588726105416e-01,2.829060648968111380e-01,-2.725558048746086481e-03,-7.293220330163894486e-04,-1.079837435876467673e-03,5.013930201530456543e-01
-8.071048050938096560e-03,-2.973087191998908252e-01,3.093254487003336273e-01,-4.822268696729347520e-02,2.288450463077020686e-02,-2.837538281172639985e-03,5.336417555809020996e-01
-3.583312300161231329e-03,-2.885523778262819028e-01,2.861643866482268539e-01,-4.170210517835654107e-02,4.210816656224073556e-02,-3.736459973984360746e-03,5.082406997680664062e-01
-1.932143686175838426e-02,-1.613616493689463416e-01,2.456368750501625176e-01,-8.704329321567434719e-02,6.561851596352547000e-02,2.183234570081423603e-02,4.063126742839813232e-01
-2.034767604727151166e-02,-3.299871190274539789e-01,3.119807717528244040e-01,3.650596343137549934e-03,4.438092735319570242e-03,-1.894924610279466806e-03,5.561749935150146484e-01
-1.398909176351066132e-02,-2.871509912831103351e-01,3.012995387901559186e-01,-4.810298619591942383e-05,-1.191984569927967592e-02,-2.399976290116804124e-03,5.104828476905822754e-01
-1.431472049838930678e-02,-3.103408880959400706e-01,2.971858613759593148e-01,-2.538061255910443754e-03,2.113569690507387418e-03,-1.532463812505437031e-03,5.262282490730285645e-01
-1.651016512914725565e-02,-3.302720969130313322e-01,2.991278470769228037e-01,6.370132491073961364e-04,6.021403734339293191e-04,7.628783195931979066e-03,5.452393889427185059e-01
-1.876903199105130551e-02,-3.184384892941349854e-01,3.033196459927781641e-01,1.404382064121057882e-03,-4.551431356195616718e-04,-9.053734171006828837e-04,5.385833382606506348e-01
-1.556727159657623517e-02,-2.877394172846956533e-01,3.000778862786047108e-01,7.598663236382467549e-05,-1.070883704004079763e-02,-2.512534141293093840e-03,5.098846554756164551e-01
-2.032803493504521664e-02,-3.296194105031413080e-01,3.114065567538963908e-01,6.366826767248304295e-04,3.334750235017795630e-03,2.126379493933038423e-03,5.553015470504760742e-01
-1.585849185970231862e-02,-3.232707547095577394e-01,2.641275564489817262e-01,-2.108556375434287103e-03,9.557921396443990955e-03,1.084414455304407235e-02,5.095152854919433594e-01
-2.043405255192858039e-02,-3.328846881754815579e-01,3.043334351796061488e-01,1.892076202806140936e-03,2.327187489790799157e-03,-1.230619588172394445e-05,5.519058704376220703e-01
-1.904515914186355463e-02,-3.186390643234370268e-01,3.037900660073376002e-01,1.620702220544189371e-03,-3.003698929213433587e-03,4.941474861352145595e-04,5.391977429389953613e-01
-2.369794663209530763e-02,-3.128253826664316728e-01,2.875385094171032385e-01,5.920878831601343421e-03,1.933341029701516082e-03,7.478157099548717827e-04,5.201613903045654297e-01
-2.148067435183705770e-02,-3.220727942649873055e-01,2.482302082883468541e-01,1.231131751049359228e-02,-5.408954076681422168e-03,1.047536874148820643e-02,4.950194060802459717e-01
-1.929863523641611386e-02,-3.327395043349419268e-01,3.043480160395257150e-01,2.297284208227543412e-03,2.451142086176936151e-03,-2.591305741438146724e-05,5.517882704734802246e-01
-1.978202707631541990e-02,-3.172421756232344792e-01,3.042421312208632989e-01,-9.957389310035014238e-04,3.879654579538860653e-03,1.566195064889535466e-04,5.384297966957092285e-01
-3.264679845683392256e-02,-2.726249472865738266e-01,3.053689528321405500e-01,2.893210906895012438e-03,-7.236688882897672308e-03,-3.511985631150120035e-03,5.031697154045104980e-01
1.033848766661150942e-02,-1.048601046256963931e-02,3.589849631631839566e-01,-2.568317366881439981e-02,-1.603989217345476448e-02,4.316705463090621080e-03,3.633937537670135498e-01
-1.980383303089688907e-02,-3.200419299868561551e-01,2.973508587083525945e-01,4.304877310758520835e-03,-1.316169872179727375e-03,1.446821000044890568e-03,5.348074436187744141e-01
-3.608234309085962821e-02,-8.589957655170957218e-02,2.799835605878991940e-01,1.387208763213061170e-02,-2.248582439373702190e-03,3.677337110263372249e-04,3.445545136928558350e-01
3.288254360076292571e-03,-3.223249431058300973e-01,5.715905695707806933e-02,1.301820436926713316e-03,-2.813763736360944383e-03,-1.293666362169893988e-02,3.563677370548248291e-01
8.674731590360189315e-03,-3.113328600201443752e-01,1.537864357683764449e-01,1.562060711960339522e-03,1.031363326497274947e-02,-7.433369501424125746e-03,4.127848148345947266e-01
1.200343347869915755e-02,-3.092414225549418583e-01,1.191403833156863823e-01,-2.380751443111785506e-03,-1.453370299414787070e-02,2.538289923986038286e-03,3.869932889938354492e-01
-2.928316295065402919e-03,-3.156535993632343384e-01,1.084647566586020295e-01,5.162367456382134512e-03,1.842112419289929776e-02,-1.183980665815559906e-02,3.828308582305908203e-01
-3.715686477336610505e-04,-3.113648209694120372e-01,1.533438078877558119e-01,4.426805025285297096e-03,1.877088209710453190e-02,-1.491442066428845352e-02,4.122290909290313721e-01
-2.218913405875600625e-02,-3.223543998635383101e-01,2.985975193345925538e-01,2.552500776544550532e-03,-1.087940867707897066e-04,-2.651808507327699238e-03,5.378968119621276855e-01
-2.280400421937620048e-02,-3.006022425823273725e-01,2.931172076816668248e-01,3.757203971063225573e-04,3.205560342332919050e-03,4.638236627537598716e-03,5.146223902702331543e-01
-6.124672253602123084e-03,-3.197310677939848023e-01,1.618685764783249215e-01,5.364199672932530062e-03,4.423362227503456479e-02,5.314109527444115313e-03,4.304594695568084717e-01
1.639277269425767902e-04,-3.234601690633903681e-01,2.128689940572945638e-01,8.786393756196116123e-03,-5.077498611862807550e-03,-1.906128631486960281e-02,4.692668914794921875e-01
2.641977138738163533e-03,-3.243530635020814845e-01,1.310317942234396904e-01,-5.781687998399813976e-03,-2.366603483923846417e-03,1.062000436039843218e-02,4.072443544864654541e-01
-1.437265141641469110e-02,-3.219651371412158292e-01,2.658175728970390006e-01,-2.482405085603819200e-03,-1.964126493836848650e-03,-5.178518940438371285e-03,5.093275904655456543e-01
-2.287024936920032878e-02,-3.034846184487978160e-01,3.092590156640209198e-01,1.198153331752702111e-03,-2.075259127314009466e-03,-2.265058375867443855e-03,5.313069820404052734e-01
-1.533199416387815567e-02,-3.215787039832197491e-01,2.702918946908058895e-01,-3.863164303191056123e-03,-3.098845049494773759e-04,-6.433521533750767747e-03,5.128437280654907227e-01
-2.489988367414720100e-02,-2.575044602970851249e-01,3.065715188877813913e-01,2.026238734360203374e-03,-4.250933648611555232e-03,-5.902921528529319478e-03,4.911730885505676270e-01
-2.222185009574575987e-02,-3.226239353908976204e-01,3.041880002728316601e-01,-1.221304842730811663e-03,8.667306505817448528e-04,1.160481119799218171e-03,5.430006980895996094e-01
-1.939527813783959928e-02,-3.155063032222966135e-01,2.948410260049574849e-01,-1.135463939856878489e-03,1.488664648737436603e-03,-1.690233060462636170e-03,5.286720395088195801e-01
-7.962086386929891069e-03,-2.922841490402782183e-01,2.983976615152962308e-01,-9.817730773405853456e-04,1.036185920817769314e-02,-2.229397075368367079e-03,5.119961500167846680e-01
-2.428429012917910149e-02,-3.087727403480204358e-01,2.575146974772297148e-01,-9.446579214954418935e-03,-7.824514847549689581e-03,-1.230310168281283957e-03,4.908857643604278564e-01
-2.312674808460252890e-02,-3.102546175226393310e-01,3.074465425179319089e-01,-2.620759327721733714e-04,8.333620032398875166e-03,-1.578533199737942785e-03,5.355874896049499512e-01
-1.543690053354025357e-02,-2.652362855401965702e-01,3.022034303409821820e-01,8.182301843649439702e-04,9.415038658949947264e-03,-1.908813900242213764e-03,4.928694963455200195e-01
1.461098970993341545e-02,-2.830569607094105544e-01,2.844406947970171129e-01,4.084530162819722393e-03,4.669277441598704108e-03,1.708712152600039193e-03,4.917907714843750000e-01
-1.663156692357400587e-02,-3.175584338323729217e-01,3.039581550689379741e-01,-4.947266905792019158e-04,5.576705869405488084e-04,-8.778924205404313799e-04,5.383426547050476074e-01
-1.369318049805061041e-02,-3.179691855826840552e-01,3.041175476028127322e-01,-1.577861315375960654e-03,3.788488222656550327e-03,-3.882287125273668174e-04,5.388327240943908691e-01
-2.083646925371632208e-02,-3.194683787136519681e-01,3.066605690209923130e-01,-1.574181188194866826e-03,2.692995427342482692e-03,-7.272918420163272408e-04,5.424639582633972168e-01
-2.080904254814245485e-02,-3.233228994394294897e-01,2.674593469058400008e-01,-1.902855407487532549e-04,6.515872595868129821e-03,-1.204858156784531682e-02,5.122318267822265625e-01
-2.207008697023518651e-02,-3.201487164210430336e-01,2.998576620507817370e-01,-1.697538929573497992e-03,5.205525511566042691e-04,-2.377647713998259915e-03,5.370982885360717773e-01
-1.813993087152258182e-02,-3.167009195629563734e-01,3.020121640413647723e-01,-2.867151455383307851e-04,1.977201010681986157e-03,-9.278796078153421631e-04,5.359435677528381348e-01
-7.250733854174885862e-03,-2.994863739638414790e-01,2.979033290395274869e-01,-1.508145503871739269e-03,9.418226832037936841e-03,-8.492101409224277891e-04,5.176607370376586914e-01
-1.357612605290566161e-02,-3.170608916160854163e-01,3.037124638664031040e-01,-6.066467068219566147e-04,3.991843645949794649e-03,-5.247542120428179803e-04,5.376960635185241699e-01
-1.338447644884731280e-02,-3.056331230550667910e-01,2.525969161245302241e-01,-5.932084512715420262e-03,-2.242266996005199894e-03,-4.505127069147219464e-03,4.838074147701263428e-01
-2.087078589798718048e-02,-3.193147288033374442e-01,3.060475413230439035e-01,-6.729761958965223539e-04,3.583909720766592817e-04,-1.086493197646764631e-03,5.417715907096862793e-01
-1.380248899537460903e-02,-3.144910441268022883e-01,2.916258665169265685e-01,1.355626620298221825e-03,1.795343730169253861e-03,2.651653294089248089e-03,5.249525308609008789e-01
-2.202576011331890127e-02,-3.231747488103304811e-01,3.031385189903772481e-01,-2.085932908254149655e-04,4.940349543067989145e-04,2.069900896888912482e-03,5.425487160682678223e-01
2.715638554964851931e-02,-2.608747395995675844e-01,2.810269057069297305e-01,1.602297715535810907e-02,-4.400775018733728110e-03,-3.959227866498579544e-03,4.705423712730407715e-01
-2.631241472554605998e-02,-3.182701656866432360e-01,2.930034269221612475e-01,-2.720643027094415273e-03,-2.307038892157273809e-03,-2.155802021706906737e-03,5.296043753623962402e-01
-2.023240710917127705e-02,-1.965465852285656345e-01,2.949757566359673122e-01,3.532132899981535457e-02,-1.166094579725064119e-02,3.607521686096988502e-03,4.361287653446197510e-01
2.483012162529989186e-03,-1.662029394267151017e-01,3.299385452009179764e-01,4.031501852282635273e-02,-2.355007302515312820e-03,-2.369692171860261418e-02,4.444056749343872070e-01
5.536293815862597389e-03,-1.992178988994249833e-01,3.277204740163639496e-01,-4.762224145373373380e-02,2.656256719568856825e-02,1.201493353638337456e-03,4.697022140026092529e-01
-1.580425250080053773e-02,-3.165435298020961574e-01,3.030834083033687731e-01,-6.684874848956316208e-04,5.421161275006934594e-05,-5.522326544371359332e-04,5.366914868354797363e-01
-1.687184317526700325e-02,-3.154143638678961747e-01,3.036759221709908196e-01,8.743436518837766416e-04,-4.121428842601251689e-03,-9.579764299553164986e-04,5.363129973411560059e-01
-5.199400799677553198e-03,-1.866847224398772154e-01,2.956837890003023994e-01,-1.331549627463870199e-02,-1.106069753797564795e-02,1.641051992454840153e-02,4.240051209926605225e-01
-4.570731613827953843e-02,-3.056403442909940149e-01,2.895471164610450288e-01,2.139442391602070729e-03,-7.572907813406958358e-03,-1.164338731765504533e-03,5.170050859451293945e-01
-4.842643097313710510e-02,-3.223204193676152407e-01,2.816181852032060839e-01,-3.926888552582432843e-03,-3.075051718601590559e-02,4.535853975749093783e-03,5.265827178955078125e-01
-1.607205366425395326e-02,-3.190402923451819972e-01,3.058628372147021990e-01,4.863059418289287844e-04,-1.093786030999808860e-03,-3.586539503990849621e-04,5.412694215774536133e-01
-5.019583441183293748e-02,-3.038425957829470891e-01,2.716329858935133124e-01,7.111292192724716138e-04,-3.177772672512997262e-03,1.045725842799161576e-03,4.995762109756469727e-01
-2.372249969264587574e-02,-3.095423590419764670e-01,2.805602656217760504e-01,-1.933835705981227539e-03,-7.748932510868234043e-03,3.439246952374437421e-04,5.113147497177124023e-01
-1.743077648608137159e-02,-3.195514497872947723e-01,3.064329840055242116e-01,1.096946704391571882e-03,-2.363508906533653541e-03,-5.104042234978758063e-04,5.422469377517700195e-01
-1.809298576710983986e-02,-2.761197161143864598e-01,3.019837919626432998e-01,-6.243278846831414562e-03,-9.502963970851794479e-03,-3.799769656873766034e-03,5.020422935485839844e-01
-4.562360259662460310e-02,-3.602491518012641558e-01,2.739573507538756725e-01,6.419565851182327870e-04,-1.978591847331266640e-02,2.335049577100275706e-02,5.517979264259338379e-01
-1.198085077727436241e-02,-3.139894132757776180e-01,3.050352847841875104e-01,-6.493864465974166604e-05,-6.902338703519727767e-03,-6.882930702932211998e-04,5.362782478332519531e-01
-1.897772878433180710e-02,-3.106351937279507314e-01,3.051810513715724205e-01,1.071404389056854851e-03,-6.388655039432165027e-03,-1.438835552978152922e-03,5.336838364601135254e-01
-2.102637048557566210e-02,-2.735563307719361958e-01,3.159398017885021170e-01,7.331703814659549633e-04,-1.123027193038236490e-02,-1.323254858261627663e-02,5.131441354751586914e-01
-1.795338499314497530e-02,-2.558855388176669576e-01,3.108452427610753355e-01,-2.585112959965963253e-04,-6.038439166366506121e-03,-1.628939412547501450e-02,4.938194453716278076e-01
-2.034439913321999319e-02,-3.190734786385877597e-01,3.071892299509200175e-01,1.593498513186636248e-03,-2.508559476417585987e-03,-1.029696368627256624e-03,5.425779819488525391e-01
-2.221420863124812586e-02,-3.127166722855194148e-01,3.076284435793868455e-01,7.610770939460994667e-04,-1.457681930215216004e-03,-2.983931501668671878e-03,5.376269817352294922e-01
-2.055144149218872049e-02,-3.205156720609810272e-01,3.028458602783025699e-01,1.126082522368252424e-03,-1.875305874734371813e-03,1.937131184892635629e-03,5.399977564811706543e-01
-4.345935656478155246e-02,-3.158549307657890770e-01,2.942073000181893438e-01,-3.656485830739668579e-03,-3.457458522551788791e-03,-1.668496163254431456e-03,5.294160246849060059e-01
-2.148511831722868179e-02,-3.031521708117169145e-01,3.092503674076244047e-01,-7.376536472197260620e-04,1.791798521987765123e-03,-2.368263036267657506e-03,5.309497714042663574e-01
-2.334791347870551412e-02,-3.210267612673436410e-01,2.999891873476234205e-01,9.122248392901576627e-04,1.164934555716227874e-03,1.732098125540274414e-03,5.379830598831176758e-01
1.118337010432102901e-02,-2.635491921061553500e-01,3.081439672703789046e-01,5.732790301769129238e-02,4.754800331521433915e-02,-3.516224928269896105e-02,5.153633356094360352e-01
-1.294754640288478531e-02,-3.739431585190320373e-01,1.386410514854561904e-01,-6.161310531841018845e-03,7.062900967995308643e-02,1.074478102937633482e-02,4.727000892162322998e-01
1.016419589945756485e-02,-3.505946904361663674e-01,1.370901779712875301e-01,-2.083011408979744405e-02,9.290290205183103500e-02,-1.953670963166985464e-02,4.694533348083496094e-01
-3.534077444487074282e-02,-2.853175950841282948e-01,3.010985008207009983e-01,-9.355357348776473757e-04,-6.759809808782172615e-03,1.758389996117662793e-02,5.107339024543762207e-01
6.297621438550199402e-03,-3.207814570149984390e-01,1.117803958555786958e-01,2.807176364658581311e-03,1.816627869987007954e-02,1.588907359514534975e-02,3.929117321968078613e-01
-1.693886919798985591e-02,-3.137081426997442302e-01,1.464492249630025278e-01,-1.531706892247718284e-03,3.037588153407501379e-02,-3.270838288627769559e-03,4.075088500976562500e-01
-2.088277825640742075e-02,-3.177846703809464879e-01,3.061452748714118544e-01,7.665759151128801114e-05,2.602138859338339136e-04,-1.153737952950827138e-03,5.405529737472534180e-01
-2.461525843635784666e-02,-3.200534515758833298e-01,3.069732578234011799e-01,-9.868437853637430576e-04,1.658452087961916977e-03,-1.179153105371662843e-03,5.433359146118164062e-01
-3.353581758533562274e-02,-3.061083123977913489e-01,3.089188732990211239e-01,-1.308789753791554655e-03,2.865448308023493037e-03,-2.260942759869701175e-03,5.338162779808044434e-01
-1.765458299090746919e-02,-2.708142005654572970e-01,3.055368163638864654e-01,4.287413432692880125e-03,-1.459300580466577589e-02,1.155474466436552010e-03,5.010583996772766113e-01
-2.323223859060782881e-02,-3.116106835923541096e-01,3.054081439981936041e-01,-8.168764538165337397e-04,2.005089836309240005e-03,5.210858978014116377e-03,5.348223447799682617e-01
-3.882352269574119996e-02,-3.439561013325486694e-01,1.732019909852826056e-01,-2.304390163905331926e-03,5.224361094604799971e-02,-8.633523389480046023e-04,4.593070447444915771e-01
-1.043432008568886959e-02,-3.438216082841061283e-01,1.294942007661356864e-01,-1.346679558982265962e-02,6.788733576922326152e-02,2.668281787972123439e-02,4.403220713138580322e-01
-1.892131392316982047e-02,-3.091234875643211755e-01,3.080608485470554547e-01,-1.162248656796464495e-03,6.165655977444920929e-03,-1.456905679634262589e-03,5.349299311637878418e-01
-3.005116699507576900e-02,-3.128021827797054510e-01,2.867090908897698687e-01,-2.555378415861973406e-03,-5.764231026582227607e-03,-2.747493978908308737e-03,5.196069478988647461e-01
-3.408748680206871717e-02,-8.893865013314300461e-02,2.789592904898332559e-01,1.203781458211847493e-03,4.455056609298977364e-04,4.815037494324394336e-04,3.437783420085906982e-01
-3.289913915167320957e-02,-7.095925953244067164e-02,3.042603774080895329e-01,1.881108732058679386e-02,2.552579278994176418e-03,1.927973702240898257e-02,3.607681989669799805e-01
-1.787708158607996534e-02,-3.200798040622578888e-01,3.058053529444654806e-01,-1.521251183070776794e-03,2.602718512952347657e-03,-7.709780605661213084e-04,5.421656370162963867e-01
-2.026688790058062822e-02,-3.222675355891811422e-01,2.976833858458973192e-01,-5.198926446828293531e-03,1.961165472394808124e-03,8.565297255442960549e-04,5.370407700538635254e-01
-4.392902838601354942e-02,-1.338184704605636932e-01,2.868627262214982210e-01,-8.562300002541588587e-03,-2.538925569854859517e-03,-4.177761120161845206e-03,3.840958476066589355e-01
-1.665409140448283198e-02,-1.126083995319496767e-01,3.311604694570119412e-01,1.907420268462301297e-02,-5.396929790425641568e-03,-4.011513967392306423e-02,4.117803275585174561e-01
-2.039839646155627850e-02,-3.216462146337445427e-01,3.040792706280794899e-01,-1.392574152436062626e-03,1.596246553968414493e-03,5.205669978014372621e-04,5.420318245887756348e-01
-2.596065477302438029e-02,-3.140202632245453485e-01,2.290450462183169500e-01,-8.709680224049443087e-03,-4.306550301445637684e-03,-3.618231197125322107e-03,4.709411561489105225e-01
-1.388124445688091770e-02,-3.126684670475223249e-01,3.051523777694419293e-01,-2.291010001041528851e-03,8.062988702349104322e-03,-2.112667606161326792e-03,5.353537201881408691e-01
-1.650839769652032857e-02,-3.129043143810927297e-01,3.073451896713281228e-01,-1.787531136926537138e-03,8.312729695199690821e-03,-1.671594152384367265e-03,5.375367999076843262e-01
-1.515683876394851443e-02,-3.177141023775112982e-01,3.036537889902032883e-01,-1.117730767251315805e-03,4.049233179488577819e-03,-5.049312049909097933e-04,5.382316112518310547e-01
-1.523699102865350326e-02,-3.166535381862773391e-01,3.048761545875387502e-01,-1.226364258632510994e-03,6.748225460225071651e-03,-8.716533131914896808e-04,5.384748578071594238e-01
-1.246356707852608152e-02,-3.007550896295138609e-01,3.003338994959094954e-01,-4.749225222641463898e-04,8.935763108408004141e-03,3.335732862711849982e-03,5.209651589393615723e-01
-1.598958268768465446e-02,-3.192312107614447281e-01,3.032539254194488443e-01,-2.030494861262167362e-03,4.131211838481485717e-03,5.284331708012386317e-04,5.392070412635803223e-01
-1.808562381999077179e-02,-3.212962370300342929e-01,3.049253656708151849e-01,-6.979126604987178619e-04,1.509180795934238596e-03,3.056398598195419732e-04,5.424220561981201172e-01
-6.959665101981311712e-03,-3.144698721920640150e-01,2.995422251844935824e-01,-2.480900876788236925e-03,4.579681999263458814e-03,7.816712396281938653e-04,5.318285822868347168e-01
1.782705875732813056e-02,-2.893213827838455043e-01,2.828967981348570193e-01,4.742045376657968016e-05,-2.405240221074308495e-03,-3.148359390359280804e-04,4.960197210311889648e-01
-1.917208183703907054e-02,-3.174898968037991320e-01,3.040433790709893280e-01,-2.055143797459847883e-03,4.223457861484947520e-03,9.305556791447366612e-04,5.384714007377624512e-01
-1.760723322074378427e-02,-3.103987296059569911e-01,3.064530178236658520e-01,-1.501474478159879351e-03,7.582428818413060843e-03,-2.210705466557689926e-03,5.346193909645080566e-01
-4.126684493723129649e-02,-3.079938354872049922e-01,2.685481112860841901e-01,-2.220927375526843706e-03,1.212021711495284496e-02,-5.434514469154951965e-04,5.002209544181823730e-01
-1.804054038090043693e-02,-3.219680093973713575e-01,3.000408723253994436e-01,-2.584753754604425784e-03,-5.559193162899514658e-03,-7.864350474807298499e-03,5.389987826347351074e-01
-1.087458709509382324e-02,-2.560772339052225788e-01,2.877736779216686913e-01,-1.974736859767588660e-03,-1.403275975011753461e-02,-2.162870036247618952e-03,4.723991453647613525e-01
-2.044266751491495560e-02,-3.203742779646840400e-01,3.052865412291753677e-01,1.309029172801072678e-03,-2.109769442594493227e-03,-1.153732495107290484e-04,5.420087575912475586e-01
-4.060533650564185359e-02,-3.097977968119726699e-01,2.827467343868923511e-01,8.441542887760285436e-04,2.563848160928105125e-03,-2.326753677725362356e-03,5.139096975326538086e-01
-5.510858684028159191e-03,-3.850212463708258537e-01,3.382105805638593310e-01,2.662877400610178663e-02,8.226244504801853707e-04,-1.818549225392118024e-02,6.290785670280456543e-01
3.140151010264414198e-03,-3.025822860164285588e-01,3.079930678036831848e-01,2.455032646415014619e-02,-6.974942596043417348e-03,-5.041507957582134873e-03,5.306903719902038574e-01
-2.597693206334511160e-02,-3.160836148788255251e-01,2.978076055792539534e-01,2.101520420134007396e-03,-2.166468815802560875e-04,-7.266379340002857793e-04,5.319260954856872559e-01
-4.375268196915105962e-02,-3.579053217147455390e-01,9.243866629596861340e-02,-6.083284257515374216e-02,4.059791219777783566e-02,1.009718633223680856e-01,4.545957148075103760e-01
1.711152250122070784e-02,-2.735490667898630712e-01,2.841317218794527366e-01,-1.121502017758896916e-03,-2.403042456358962103e-03,-5.751170211998755033e-04,4.831332266330718994e-01
1.099739567074467864e-02,-3.072101577678056916e-01,3.628108486150254941e-01,5.699631482302731922e-02,1.359518433055906771e-03,-9.515521724860021707e-03,5.890682339668273926e-01
-3.536722689704389910e-02,-1.066070772371385533e-01,2.993079435983799774e-01,7.516908987071098565e-03,-6.378790269077707666e-03,-1.880965970691070299e-02,3.771972656250000000e-01
1.134902604040567697e-02,-3.210621597931018756e-01,7.042447563472151173e-02,4.132546665092662872e-04,2.822800349932240091e-02,-1.421814394629400532e-03,3.688108921051025391e-01
-2.053338864070761854e-02,-3.197808864185749389e-01,2.771480109191074570e-01,6.144245629248422033e-03,-1.198143566957315768e-03,2.452492528127925633e-03,5.170873403549194336e-01
-8.273125491951170002e-03,-3.057936125486979684e-01,3.032049968172859655e-01,1.099276006708325461e-02,-5.611951558995053376e-04,-2.723111201732338581e-03,5.278199315071105957e-01
-1.933710535840350853e-02,-1.769759982005654764e-01,3.071187186624635967e-01,-9.064390161796016115e-03,1.876407627389288816e-03,-3.575834182381584098e-02,4.324102103710174561e-01
-3.237205165061630974e-03,-3.119013795865586136e-01,1.904747648683150218e-01,-1.280208901280248260e-03,-6.317049891303796755e-04,1.714831675547893444e-03,4.388675987720489502e-01
-1.771322368946443709e-02,-3.147347695636515952e-01,3.048860737584505598e-01,-9.336046285462568052e-04,-2.949150163381614002e-03,5.405903183151705271e-04,5.367873311042785645e-01
-2.910934332779795825e-02,-3.166840782154194955e-01,2.976795315762301719e-01,2.192504056327182135e-03,-8.787759520130740203e-05,2.429515004533427600e-04,5.324293971061706543e-01
-4.668395761872898980e-02,-3.052724461308067294e-01,2.817923548942709022e-01,4.675586719604122514e-04,2.774295181589457419e-03,-8.512862773820755683e-04,5.096378922462463379e-01
-2.403332304193148833e-02,-2.139644357684865328e-01,3.098838638144200686e-01,-7.758768165859548406e-03,9.147508787386965032e-03,-1.807575002479158439e-03,4.598230123519897461e-01
-4.669942846994343255e-02,-3.103225156441590804e-01,2.908528451903703016e-01,1.731216457205881059e-03,4.005501156025531757e-03,-1.186499069054909941e-03,5.220024585723876953e-01
-4.022121798753787447e-02,-1.675038039108393273e-01,2.893708633704301092e-01,-1.786790606062557902e-03,-1.603921881391931785e-03,4.683274499484332658e-03,4.084926247596740723e-01
-4.063054566228547354e-02,-3.035027613553380466e-01,2.745770315827533170e-01,-1.958722356628272467e-03,3.783524071801112280e-03,2.737641529536707555e-05,5.013695359230041504e-01
-3.360726198653486707e-02,-1.293862811631100451e-01,2.862063582547499374e-01,2.716393778310216838e-04,-5.311252402973111290e-03,-1.155208914149243385e-02,3.775857686996459961e-01
-3.675617189068144941e-02,-2.607518103243819940e-01,3.420635419597656823e-01,-7.993222224403687386e-04,-1.454977303825215730e-04,-2.795517484323144924e-02,5.299800634384155273e-01
-1.449904136549781675e-02,-1.136238573768509064e-01,2.882702666508637490e-01,2.338759418417067984e-02,-8.108660120705277544e-03,-6.690724635652965484e-03,3.653483688831329346e-01
-3.588643496418178480e-02,-3.760145140054744206e-01,1.091527885498163319e-01,-9.610454489902772734e-02,6.365541391393100823e-02,2.995015922177165710e-02,4.781325459480285645e-01
-3.697343205816881750e-02,-1.033977161978322235e-01,2.880149098817265663e-01,4.017002430477035341e-02,-8.573833517743074647e-04,-1.003816452688043558e-02,3.698136210441589355e-01
-4.125663341547755603e-02,-1.423224694101299370e-01,3.064309076086934591e-01,4.193968103320534074e-02,-7.829089081588054902e-03,-3.954460645143018788e-02,4.199908077716827393e-01
-2.551710546751113917e-02,-3.175384082549669862e-01,3.068535510401717015e-01,1.978151023187481490e-04,-8.420369526465313215e-04,-1.242672528566366678e-03,5.411219000816345215e-01
2.080486433829770165e-03,-4.792674614255532095e-02,3.531218647109335973e-01,3.570281721038878753e-02,1.056013620969197160e-02,-1.965808791848040055e-02,3.854910135269165039e-01
1.526948863957017233e-03,-3.048192243690230341e-01,2.941853699743542383e-01,5.432405065508807106e-03,1.026753965310673103e-02,-1.045975725441441930e-03,5.191915035247802734e-01
-2.893772477896432160e-02,-4.558521427800107384e-01,1.552936659583800116e-01,6.712911139958351037e-02,-7.645224599978435454e-02,4.153661885901026307e-02,5.753936171531677246e-01
7.030830049964343492e-03,-2.788127295245333981e-01,2.865794964107841736e-01,9.186641138104231774e-03,1.212512961923279189e-02,8.520768137042973936e-03,4.905845820903778076e-01
-4.487482947711195214e-02,-3.046311964073562528e-01,2.886491463135074653e-01,-8.021072039507418571e-04,1.901938264568574016e-03,1.879816122381092755e-03,5.151407122611999512e-01
-4.308367470177655589e-02,-3.057931865017129991e-01,2.829562016254143497e-01,1.513807643819498408e-03,1.595097146910937156e-03,-1.011321336635009503e-03,5.108714699745178223e-01
-3.741687940877981566e-02,-2.982977577556920612e-01,2.580848345844921621e-01,5.474691367384986428e-03,1.696300321197830247e-03,-1.504646096771225256e-03,4.822615385055541992e-01
-4.104594007847203740e-02,-3.011660011404189152e-01,2.794114773590358203e-01,-2.135760530749507280e-03,7.544417844654564484e-03,2.132540232286063257e-03,5.038956999778747559e-01
2.046859279981394497e-02,-2.660008229984509587e-01,2.843350956527773699e-01,6.780935642723496908e-03,5.644561261174700986e-03,3.086496077824422025e-03,4.770136773586273193e-01
-3.962261130406945220e-02,-3.148354759548278037e-01,2.667822927352692663e-01,-6.858112780250656161e-03,4.758244627871928076e-04,-7.776447664494806752e-04,5.040795803070068359e-01
-2.224005314023515950e-02,-3.097829818334508212e-01,2.954623452769096770e-01,1.846033129755366570e-03,3.091994310135539898e-03,-1.778500690235214387e-03,5.244208574295043945e-01
-8.260085467278993621e-03,-8.914349536783927608e-02,2.898900551149187210e-01,-3.613572762206767458e-02,9.323267660198352250e-03,-8.956826484943704314e-03,3.520935177803039551e-01
-4.521597277125244396e-02,-3.040334574576043503e-01,2.818835393650330756e-01,-6.849131510949829811e-04,1.395431567354546952e-03,-3.370167796948677925e-04,5.085737109184265137e-01
-2.644627127526618868e-02,-3.142794517458462611e-01,3.002910652934244751e-01,-1.557266714772849924e-03,8.337743681145516617e-04,-1.317608870983719670e-03,5.326027274131774902e-01
1.592426950353514892e-02,-2.497347245734012899e-01,2.866986681648511781e-01,1.517419225514231827e-02,6.405009738921722123e-03,-3.446595024036941922e-03,4.654853343963623047e-01
1.433419778375310399e-02,-2.851878561105431475e-01,2.842195838744310810e-01,3.042471243311526460e-03,5.591482901946344918e-03,3.886797886878379216e-04,4.934675395488739014e-01
-1.422064766740071574e-02,-3.096528408293462986e-01,2.978142328808824901e-01,-4.186296353220457923e-04,1.277501207724019089e-03,-1.582441658159627678e-03,5.261597037315368652e-01
-2.176082601469807656e-02,-3.080766082220245949e-01,2.715491067149000126e-01,1.546358720881078723e-02,-2.468173147133926118e-02,4.118723719584229358e-03,5.045617222785949707e-01
-2.675915910878043716e-02,-3.133218984380287675e-01,3.078393629783931496e-01,-2.128631826806116813e-03,1.984271877664555307e-03,-1.708986576648770846e-03,5.385090708732604980e-01
-3.289572076458206762e-02,-3.077444772967669606e-01,2.883237739494469154e-01,-4.311598506266234483e-03,-1.159130557299981306e-03,-6.068262100882258487e-05,5.167885422706604004e-01
-2.202275567069642004e-02,-3.194120617784331206e-01,3.200286269348418533e-01,-1.687281285232620403e-03,-3.962453469334810061e-03,2.859214050487353994e-04,5.542723536491394043e-01
-8.186991139172488871e-03,-3.134864276051450571e-01,3.129853324953724147e-01,1.099108534970161385e-03,-1.054563186529071904e-02,-8.259771072691845118e-04,5.429110527038574219e-01
-2.982123776253863684e-02,-3.377198651364360926e-01,3.168802174784061676e-01,-3.040994225768089976e-02,2.158343827112842173e-02,-6.801417970449807893e-03,5.710192322731018066e-01
-2.391427249243562037e-02,-3.122798524388273878e-01,3.061764596329130672e-01,-6.909187723486808885e-04,-6.809476353572025027e-04,4.956026304134390510e-04,5.360083580017089844e-01
2.952898302756183646e-03,-3.046882459913027863e-01,2.980805744953146652e-01,3.779472187257347515e-03,-6.715604122806654187e-04,-4.510966162566746457e-03,5.221514105796813965e-01
-3.309792539168834868e-02,-3.159393254019369768e-01,3.002622337090748994e-01,-4.020129706357036120e-03,-5.249248781899305697e-04,-1.217432352910643913e-03,5.342940092086791992e-01
-2.055022482511587728e-02,-3.186452297723847971e-01,3.106938797566159427e-01,-2.165905055106430357e-03,-3.277067224108541881e-03,-2.802918938336547514e-03,5.453397035598754883e-01
-2.053931108710854714e-02,-3.209397743614519904e-01,3.156436167183691577e-01,-1.141861985071713961e-03,-1.319230895477775277e-03,-6.428386615129933227e-04,5.515969991683959961e-01
-1.542098786085115310e-02,-3.142399656548958142e-01,3.184283202868581908e-01,-7.260688684675012166e-04,-4.387598099941670757e-03,1.644020405388088980e-04,5.482409000396728516e-01
-9.766449577634422896e-03,-3.080008625051720017e-01,2.950874314211449634e-01,-2.223975298969700556e-03,-1.281722948804272675e-03,-6.191525584982951209e-04,5.223202705383300781e-01
-2.099630657183534574e-02,-3.226384631013756166e-01,3.166270382076492584e-01,-2.360665432993567289e-03,-3.197049793826969421e-03,-1.549807094208493271e-03,5.539616942405700684e-01
-2.003474063015031614e-02,-3.176484318097939075e-01,3.143374249020402522e-01,-1.474407651299673759e-03,-1.147188496912641834e-03,2.190828743229562663e-04,5.476340055465698242e-01
-1.565727159000861179e-02,-3.129955797993602129e-01,3.033149740254111881e-01,-6.171189841856605796e-03,3.501497718843813150e-03,-2.743731625617007105e-04,5.339918732643127441e-01
7.605223662592159456e-03,-2.987057189528495305e-01,2.917931081671382709e-01,2.902868983968525220e-04,-8.147333963852039507e-04,-6.166586836705517747e-04,5.115098953247070312e-01
-2.760856187020519631e-02,-3.124330109362158381e-01,2.814025462537311228e-01,-4.968502114656328343e-03,-7.016894190504223156e-04,-2.334382627304153798e-03,5.145081281661987305e-01
-2.103295174473809176e-02,-3.097836145200289493e-01,2.935912732800050051e-01,-3.264035227884463670e-03,-1.703981431299725346e-03,-3.157066063320289155e-03,5.227655768394470215e-01
-2.549711716466079858e-02,-3.119980991168511131e-01,2.903360038945197452e-01,-1.673378060724147170e-03,-9.762402969574950160e-04,-8.143132059625595017e-04,5.218554735183715820e-01
-2.524092783319526259e-02,-3.076541682726567362e-01,2.828110176827608457e-01,-2.499043126499335150e-03,-1.793350357631499697e-03,1.187649775309901172e-03,5.115503668785095215e-01
-1.933881307783876305e-02,-3.150304036457866608e-01,2.976239781964034048e-01,-3.056487279974117333e-03,3.316963324283365381e-03,-7.820296605307721716e-04,5.307400822639465332e-01
-2.577554001280185636e-02,-4.899675666401580032e-01,1.827325073742649963e-01,-4.320423280021491730e-02,8.393939709303722962e-02,1.700087848034045543e-02,6.191461682319641113e-01
-1.594642176830322888e-02,-3.115953653746847407e-01,3.051522247597730497e-01,3.455676033187253483e-04,-6.185249742619969293e-03,-1.344772526001296710e-03,5.343834757804870605e-01
-1.934104897342776158e-02,-3.192343605326208866e-01,2.959298864275254348e-01,3.954197933970519420e-03,-1.897256861397904771e-03,1.652442121649814197e-03,5.328651666641235352e-01
-4.628332446440644628e-03,-3.179068796601264291e-01,3.288281597480984808e-01,4.302800289584910592e-02,1.676371269322209090e-02,-1.214419081385788649e-02,5.662518739700317383e-01
-2.421742838571033785e-02,-3.167629986493744609e-01,2.957962299866804257e-01,4.534737158008334337e-03,2.378728922793210427e-03,-1.091802815749261983e-03,5.307471156120300293e-01
-1.086890256246408025e-02,-3.068543197398361788e-01,3.028506630117486220e-01,5.981373004071652310e-05,-6.727447755094601543e-03,1.470737619571313697e-03,5.282291173934936523e-01
-3.637283803648230784e-02,-3.107145072800854280e-01,2.900347234998479351e-01,9.765470422337726043e-04,4.611969459333788504e-03,-2.895172207977033708e-03,5.210031270980834961e-01
-1.646156253528786167e-02,-2.940017122469131827e-01,3.034101611661367270e-01,-5.199381746163461845e-04,-9.110883825852209711e-03,4.021579744257850614e-03,5.180946588516235352e-01
-2.017263228492342450e-02,-3.193915365246691174e-01,3.011453670912869751e-01,-2.381631026569153934e-03,-4.997207094051235587e-04,-2.583462801003407177e-03,5.375494360923767090e-01
-3.944824958007641519e-02,-3.115533001809369096e-01,2.294340681218594580e-01,5.494298936181953898e-03,1.737178183338650497e-02,-7.039184485346825588e-05,4.695732295513153076e-01
-1.670881752327438297e-02,-3.156866521981594453e-01,3.044287350761253341e-01,1.533576230343801144e-03,-6.095867166931758820e-03,-3.894105696045460662e-04,5.372607111930847168e-01
-3.849481041467032322e-02,-3.090849346201426373e-01,2.747617584122249990e-01,4.740238536165988260e-03,5.420362953185581430e-03,1.766193711415121469e-04,5.062296390533447266e-01
-2.526311143464405815e-02,-3.214709549900025554e-01,2.960791234726286580e-01,4.710612891847530161e-03,-6.635830058414624380e-03,6.045379762559398469e-03,5.352497696876525879e-01
-3.556618929412515284e-02,-3.142432346469573590e-01,3.006661052725732031e-01,4.485437840768618459e-04,6.659420805063600082e-03,-2.262680574009308821e-03,5.334438085556030273e-01
-1.872323562254344514e-02,-3.118739560690165780e-01,3.053673110259336743e-01,1.572687601734238955e-03,-8.514501132108035289e-03,7.007588395829055872e-04,5.349820256233215332e-01
-3.804449008047743747e-02,-3.049796386100177004e-01,2.656356438917334972e-01,6.365398078322412334e-03,6.654617568094460620e-04,-1.612716804547758643e-03,4.946408569812774658e-01
-1.860858085361529000e-03,-3.021487550500212560e-01,2.973406957265317674e-01,-1.736181952442881126e-03,1.605843304793136070e-03,-2.255079477912144432e-03,5.192042589187622070e-01
-2.162155958609174311e-02,-3.237739230024110348e-01,2.941092913133722120e-01,1.738189187150592559e-03,-1.394744664216519521e-03,2.272591179850044166e-03,5.351740121841430664e-01
-2.004938775629669725e-02,-3.185978675188368414e-01,3.028254615073270872e-01,2.063309949419623798e-03,-1.475470857625894150e-05,-2.700571050478077148e-03,5.383380055427551270e-01
-1.448246639677451889e-02,-3.145793544140694231e-01,3.016875202972246206e-01,3.510184466735789084e-04,4.237470443276803952e-04,-4.350517892458627758e-04,5.337646603584289551e-01
-2.921596797175168500e-02,-3.076430452466009102e-01,2.104883669690701953e-01,-6.006864944141018618e-03,3.160756734277047827e-03,-2.492914902081233650e-03,4.493070840835571289e-01
-2.048071968267835621e-02,-3.198677509265850927e-01,2.992028601295655954e-01,3.467304916631954413e-03,-8.262539841679845129e-04,5.466549081613071570e-04,5.362632870674133301e-01
-4.181087730826468785e-02,-3.044388462988818489e-01,2.576275940153246458e-01,1.961472187121924855e-03,2.433512506181750249e-03,-4.813680622843730019e-04,4.871424436569213867e-01
-2.066535796020721807e-02,-3.195200351617927259e-01,2.812769264088936239e-01,5.106984452786625210e-03,-4.338807959183599056e-04,-4.129381883485129349e-03,5.204325914382934570e-01
-2.157544350247145998e-02,-3.187236891137582018e-01,2.725801106795819884e-01,3.276049659087243177e-03,-1.353628819306326074e-03,-6.420409268700735458e-03,5.122438073158264160e-01
-4.649589880399451064e-02,-3.040769502496847299e-01,2.790802852222258323e-01,-1.779792712790499026e-03,5.341267816543598381e-04,-6.394089148215934795e-05,5.061822533607482910e-01
-2.616979642582275764e-02,-3.054715070102236307e-01,2.094480391787598705e-01,2.646281103956701864e-04,2.052051017939092101e-03,2.646123103434926105e-05,4.464823901653289795e-01
-4.496282196840420409e-02,-2.570230235737394620e-01,3.090752716519876153e-01,-2.060927759225929246e-03,-1.722409702357653857e-03,3.197960700529981371e-03,4.954212605953216553e-01
-3.475131550767088240e-02,-3.016007752260239094e-01,3.173234435812273824e-01,-2.693348055927927143e-03,-7.016831102203414635e-04,-6.293905893542792358e-05,5.377169251441955566e-01
-2.052841921404087444e-02,-3.220037714098876735e-01,3.008001809436641194e-01,1.972995342739876801e-03,-6.370121317702512375e-04,-2.220951274931055441e-03,5.394810438156127930e-01
-1.843012140456658232e-02,-3.300972236383564185e-01,2.993423098902859847e-01,3.941495615503481237e-03,1.758659487575145930e-03,1.711806194437198291e-03,5.451784729957580566e-01
-2.676694350441134046e-02,-3.233224734276676227e-01,3.121189765540477445e-01,-6.857840731087894680e-03,-1.612183040050914947e-03,-8.682959425069116484e-04,5.508525371551513672e-01
-2.300089423815911832e-02,-3.244813385972966091e-01,3.185705492257685512e-01,2.184053925652944955e-03,-4.594900194567764530e-03,1.259812664019433533e-03,5.573338866233825684e-01
-2.214334862005672838e-02,-3.151019457689815950e-01,3.174703122330163052e-01,-1.340024787500188530e-03,-1.919673689076039497e-03,2.260078354395823885e-04,5.483351945877075195e-01
-3.005653675882852260e-02,-2.046043852592050460e-01,3.038425353194229572e-01,1.465976382670497458e-02,-1.191700105060090192e-02,-2.462892434239895637e-02,4.506966173648834229e-01
-3.222068010479828271e-02,-3.159909417356250305e-01,3.056779299596915633e-01,4.775233041544281291e-03,-3.577573390738311189e-03,6.606881995514317894e-03,5.392813682556152344e-01
-2.633011341773488015e-02,-3.188062721640014252e-01,3.062286382074509428e-01,-6.426527448191076720e-03,-2.005516721505969276e-03,9.355720767758604834e-04,5.417948961257934570e-01
-2.626615207080722908e-02,-3.260202997481347897e-01,2.839602941419249182e-01,-6.295698667319393066e-03,1.744000214814417664e-03,8.109943854205471647e-03,5.285924673080444336e-01
1.676108415707129595e-02,-2.960463408682994513e-01,2.840771941349872209e-01,-2.877642067851103799e-06,-2.356139949527253415e-03,1.839091373239720327e-03,5.029429793357849121e-01
-3.004545497866612652e-02,-3.299381135701979773e-01,3.023300596211819236e-01,3.703712192306427356e-03,-1.878584185476997459e-03,9.469391961569128754e-03,5.480937957763671875e-01
-2.153691409269684748e-02,-3.242050217467267736e-01,3.175719398187477616e-01,-2.078659337290655103e-03,-3.268249894076758356e-03,-1.364370746940955868e-03,5.561392307281494141e-01
2.288336109158486606e-02,-2.880078651394065159e-01,2.835039225660862527e-01,6.192792671536345597e-05,9.258079391379585429e-05,-3.129654047189503658e-04,4.955818951129913330e-01
-1.358354360481250390e-02,-3.012908059236896197e-01,3.148087025441249631e-01,-1.406824930043909386e-03,-1.276102989553746549e-02,1.081291357365605490e-03,5.344116091728210449e-01
-2.487097461168882168e-02,-3.228012177256233683e-01,2.602291571830507855e-01,-1.097745478263375922e-02,-8.292789748175382388e-04,-3.140989697156894127e-03,5.053490400314331055e-01
-1.987546750398822004e-02,-3.203112552122883705e-01,3.233242201858347320e-01,4.541433397980977268e-03,2.453915709197060108e-03,5.824765823872402569e-03,5.579774975776672363e-01
-1.445402824562887559e-02,-3.431900304920040279e-01,3.383896090698036430e-01,-3.655162875808855554e-03,7.681586114706722215e-03,-1.373961308041744388e-03,5.905769467353820801e-01
-2.428418571295356404e-02,-3.174416381250524388e-01,2.994063598174038221e-01,-1.119706496810145453e-02,1.841532611166733779e-02,6.293201464258272454e-04,5.357273817062377930e-01
-4.484989734319971832e-02,-5.750461866179028547e-01,3.016000298661627999e-02,-2.399650191573911642e-02,1.097736256411024729e-02,8.161345341292522426e-02,5.904031395912170410e-01
-2.633472614333388917e-02,-3.187811248911302520e-01,2.996349592098782044e-01,2.335073069028725942e-04,-1.322685956343036106e-03,3.590562288647916600e-04,5.358316898345947266e-01
-2.605007042494144123e-02,-3.376941355975423553e-01,3.205975107404466229e-01,-2.530176019968999844e-03,1.764782820932079416e-02,-8.311418182661076473e-03,5.713825225830078125e-01
-1.753717054630014871e-02,-1.801766629500619610e-01,2.598361851636560305e-01,6.945217432125185518e-03,3.961940579936089335e-03,3.989723622498727446e-02,3.917481601238250732e-01
-1.798424540096699858e-02,-2.977102665004777715e-01,1.014673141985270033e-01,6.561558573961017056e-03,-3.551558017525172778e-02,3.238481262479116218e-02,3.646759986877441406e-01
-3.284467132320076366e-02,-3.108607423202709996e-01,2.972715333414653882e-01,2.400381922066770202e-03,3.097065923766386536e-02,4.184115799990231364e-04,5.300402045249938965e-01
-2.563515180851511088e-02,-3.227927615842480225e-01,3.182844509387062759e-01,-1.868236316464885445e-03,4.670524136581884374e-03,-4.537549509661380361e-04,5.557501316070556641e-01
-2.605936954295145006e-02,-3.042822833230571788e-01,2.081447840236244073e-01,2.814201649297660458e-03,3.487468479366057778e-03,-9.116963430061113954e-04,4.443908929824829102e-01
-1.588334219999145563e-02,-3.162839304247447858e-01,3.288782075627834089e-01,2.656801517911286208e-03,-3.379096140597141404e-03,-6.018670023857699940e-03,5.593135952949523926e-01
-1.639230122795833078e-02,-1.716897497606816869e-01,2.049667066971498641e-01,2.481069186628526851e-02,-2.670901668746968396e-02,1.214489387134917893e-02,3.345488309860229492e-01
-3.685280483993683218e-03,-3.033827969363972477e-01,2.940588730873746059e-01,1.572947302078849668e-02,-5.709899465830018707e-03,-3.870450297323184191e-04,5.182121992111206055e-01
-1.232802329269642311e-02,-1.941519606727494518e-01,1.955007416649101604e-01,-6.972693523149323114e-02,6.991229054065174753e-02,1.688686170536031483e-02,3.796645998954772949e-01
-2.857110036892385879e-02,-2.593950394851219921e-01,2.876595575898752699e-01,5.866170968076852600e-03,4.573744807245040157e-03,1.390810021490922893e-02,4.764676392078399658e-01
-1.546211277588461358e-02,-3.235342026212860711e-01,2.750978089122009251e-01,-2.289445834864984198e-03,8.511101366719641933e-04,2.822262941624936738e-03,5.185447931289672852e-01
-4.370916861505320938e-03,-2.292864530661591349e-01,3.814327379489687586e-01,7.346086131981748035e-02,8.417969668283138002e-03,8.084536222822680251e-03,5.502752661705017090e-01
3.983753377306137322e-04,-1.775015100967917425e-01,3.902861419715533686e-01,8.993623581575063697e-02,-9.189431341516207663e-02,1.570306703649218885e-02,5.507820248603820801e-01
-4.856575156566494966e-02,-3.472294204724911126e-01,3.353695666588241142e-01,-1.893018858898969786e-02,3.950120078335644935e-02,6.176977242574576907e-03,5.976155996322631836e-01
-5.731842027875286294e-03,-3.160074085627834206e-01,2.158273080929503096e-01,5.274999271920204069e-03,8.022349745745231643e-04,5.062442989100671489e-03,4.628888368606567383e-01
-2.390554059631233574e-02,-3.303886815842854707e-01,3.190940856865823183e-01,8.442462718145216441e-03,-2.685996511010795007e-02,-1.569348847628392746e-02,5.655274391174316406e-01
9.855898299995641265e-03,-3.160875884025665661e-01,1.580158464554501374e-01,5.247674169200740139e-03,-3.162035627576104038e-03,-3.200861664087357203e-04,4.202323257923126221e-01
5.475216514199052024e-03,-3.443540994979887304e-01,3.450888199443631343e-01,2.876813521033816032e-02,2.208238040945947108e-03,-1.639675751040498399e-03,5.991913080215454102e-01
-1.914747344368268600e-02,-3.231289515004300283e-01,3.173186881003356996e-01,5.839994098477848533e-02,-2.687236617400988806e-02,1.615441837898691849e-02,5.666344761848449707e-01
-2.713730581139829623e-02,-5.091548604704383418e-01,4.826155051432952092e-01,3.224812327106045540e-02,-3.953969916555309660e-02,-6.102315129151265720e-03,8.636088967323303223e-01
-8.530200037692052539e-03,-3.300317166302961236e-01,2.556537178705350355e-01,4.424355529877450552e-03,3.550799432059076333e-03,1.325608694020628808e-02,5.086409449577331543e-01
-1.861471220696064161e-02,-3.706005878922015717e-01,3.328478934032176317e-01,2.407266317212649817e-02,-1.443446312347987544e-02,8.773421875125657701e-03,6.113299727439880371e-01
-3.777800030347880453e-03,-3.139656422703592797e-01,3.106919179029433153e-01,1.678391803983959180e-02,-9.721643592530979441e-03,-3.520348308742021065e-04,5.420160293579101562e-01
-2.005460141862540346e-02,-3.360313594543802851e-01,1.876348071985306509e-01,5.292806926656922796e-03,-4.030166135291300689e-02,3.855635149041061055e-02,4.669236838817596436e-01
-7.854784220156466046e-03,-3.467284776319354833e-01,7.149663259831540163e-02,-2.480355696352934056e-02,-6.052111320053732424e-02,-7.928238886338135477e-03,4.013038277626037598e-01
-9.301886273005344555e-03,-3.176538815773891633e-01,3.258990935446697268e-01,1.497639837987200032e-02,-2.921884034644468744e-03,1.618696601949818313e-04,5.581210255622863770e-01
-1.584123799374841796e-02,-3.186562354448404522e-01,3.130722841758538100e-01,-2.850487079057744365e-03,1.560932838739173502e-03,-2.583450873903419837e-03,5.472958087921142578e-01
-2.331255070873267804e-02,-3.158536744550742292e-01,3.320778579926019214e-01,1.140361053243247984e-02,-2.192942992280233830e-02,-2.638274600792114323e-03,5.636512041091918945e-01
8.874505486798547199e-03,-3.017405622185647673e-01,3.087377102645758598e-01,2.496950561909813682e-02,1.726456446298482456e-03,-1.317160638232578495e-03,5.304962396621704102e-01
-1.906767457922790843e-02,-3.263120102547717449e-01,3.098381722917531444e-01,-3.006602663112483906e-03,3.131271264807566207e-03,4.893105605401264734e-03,5.511451363563537598e-01
-6.064867948536001308e-03,-3.084188224062909267e-01,1.334852393466735010e-01,-6.360637876912098639e-04,-2.788178232278496274e-02,-6.560705030800331912e-03,3.943959772586822510e-01
-1.056916613231310281e-02,-1.741423851975187065e-01,2.790275947210058560e-01,2.999634409595462736e-03,4.805949347668114248e-03,7.988142672281824119e-03,3.978447914123535156e-01
-1.952483114518412805e-02,-3.310921165377436748e-01,3.141692983310855891e-01,-3.906792132519779949e-03,3.332308779618649991e-03,3.479271363120551349e-03,5.590255260467529297e-01
-3.193819951510395994e-02,-3.062189225748717658e-01,1.947141698700622925e-01,4.049436695826310641e-03,-2.975944035425008224e-02,3.187395210275202617e-03,4.376118481159210205e-01
8.781455417687039980e-04,-3.196360724640863182e-01,3.043114038489852513e-01,7.084870149512163123e-05,1.157036798560935002e-03,1.470463266146432562e-03,5.404315590858459473e-01
-2.344427059204946123e-02,-2.994307349325485701e-01,3.141696841187761047e-01,-3.044398137836605111e-04,-4.402017992660883436e-03,7.273710729147436728e-04,5.323425531387329102e-01
-2.826619921248976763e-02,-3.265991930795671960e-01,3.150789532382448632e-01,-4.471570136330023349e-04,3.496636773970383458e-03,2.459438739719459720e-03,5.562149882316589355e-01
1.829979019178798461e-02,-2.907932350722068349e-01,3.018505625371268319e-01,4.283011791316283096e-03,1.618082828360234643e-03,-5.328401641542260259e-03,5.135476589202880859e-01
-2.112113559811091071e-02,-3.187335242344451203e-01,3.116915981352958998e-01,-3.255380032760900755e-03,-2.837155314417195897e-03,-1.112524587187900885e-03,5.463023781776428223e-01
-1.417994168929133034e-02,-3.135080205185102886e-01,3.068905430236558707e-01,4.069932558255180211e-04,-3.331809337868109171e-03,-3.055881963428183461e-03,5.374484062194824219e-01
-2.306013802926551795e-02,-3.234214009608682994e-01,3.031543889607816178e-01,-8.439391809061600998e-04,7.000164938049897650e-04,2.417056978289474061e-03,5.428039431571960449e-01
-1.244259124633175471e-03,-3.173046048861595803e-01,3.070203663804692007e-01,-2.633136531763063818e-04,-7.019252856197776003e-03,-7.114981827961455729e-03,5.409725904464721680e-01
5.542462321579083410e-04,-3.245214705664401511e-01,3.153690130345090936e-01,1.181958420792287396e-03,-2.882189681208333944e-03,-4.471624189608396256e-03,5.542655587196350098e-01
-1.212274350127110455e-02,-3.049382707223551314e-01,3.061583215697644134e-01,-4.418873387390407324e-03,-8.902387319579218444e-03,-6.686060009797288595e-03,5.297847390174865723e-01
2.922384108079014581e-03,-2.306782446288069832e-01,2.929949130433587290e-01,-2.068707431228151202e-03,1.367544636293222850e-02,-1.748168301541995484e-02,4.560298025608062744e-01
-7.921650389843333528e-03,-2.426383711422066547e-01,2.923736456674896345e-01,-1.284615479259010491e-02,8.302611988024425835e-03,6.926639748481842537e-03,4.654023349285125732e-01
-2.106399054800484061e-02,-3.255808578717215851e-01,3.050606665916955063e-01,-5.812025371429795084e-03,-2.823678447006651351e-03,-3.806274802693371088e-03,5.464128255844116211e-01
-2.321641318539294924e-03,-2.186482071543513483e-01,3.056115883497661501e-01,5.363563275304407407e-02,-2.466881644897873926e-02,-5.670424338948775594e-02,4.778454899787902832e-01
1.145326532680599960e-02,-2.137683394144820337e-01,3.176514830128332467e-01,-4.603399456216433761e-02,6.459181611368366993e-03,-2.710226612203397306e-02,4.713074564933776855e-01
-2.109505265698152082e-02,-2.072172980450510960e-01,2.619389453559515246e-01,-5.203139446064914547e-02,-2.461247980949112478e-03,-5.121160994257378807e-02,4.282948970794677734e-01
-2.251720958493731717e-02,-3.116871680646046694e-01,3.061157661295472732e-01,-2.140387429675156617e-04,2.639432057198287055e-03,4.056058305547918970e-03,5.354624986648559570e-01
-1.853313219171478024e-02,-3.250575928142671600e-01,2.723587551514500826e-01,5.370625430359054348e-03,-1.633959506592488550e-02,1.306157691997121215e-02,5.187871456146240234e-01
1.215792092457613008e-02,-2.479219839899123867e-01,2.937747033745560232e-01,-1.142128413772283864e-02,9.181407772571916967e-03,-1.296468544148001237e-02,4.704688191413879395e-01
4.774798615202946114e-03,-2.794644751631641388e-01,2.987986093028725532e-01,-1.256554802166936179e-02,1.121045451706369905e-02,-3.012971370826537801e-04,5.016632676124572754e-01
-1.396712603477361439e-03,-3.058831765228660626e-01,2.955705804543595216e-01,-7.257661043427244326e-04,5.910014058043194275e-03,3.052883272729698793e-03,5.210167169570922852e-01
-1.084300211242674242e-02,-3.223839234284743283e-01,2.403883178851993208e-01,-9.582024594831958612e-04,-8.565089732686095511e-03,4.412312665865423394e-03,4.885949194431304932e-01
-2.101515616271786707e-02,-3.218694633620529655e-01,3.036722946772787979e-01,-1.579104702751964705e-03,2.047870993810615645e-03,7.101049877092634752e-04,5.418860316276550293e-01
-3.694906017203767028e-03,-3.105764015897584107e-01,2.998317537860880067e-01,-1.287102660153134018e-03,1.577159085657547921e-02,-5.295627876740763990e-03,5.294211506843566895e-01
-1.599468958796083917e-03,-3.035852476032395719e-01,1.515502538896290330e-01,3.949591591647501516e-03,3.071473865680086988e-03,1.082618960078475306e-03,4.012205302715301514e-01
1.808405097074151924e-02,-3.059905979107974128e-01,9.741185454328740723e-02,6.062614077052017134e-04,-1.403502668489108084e-03,2.603600772806874235e-03,3.702063560485839844e-01
-1.094267071561478601e-02,-3.198324014889741274e-01,2.644335533544553973e-01,7.819765053394231100e-03,-9.913822578115300075e-04,5.477485658353655265e-03,5.065394639968872070e-01
-2.125061041852711191e-02,-3.208519003907187583e-01,2.981249183991551699e-01,-4.847835396576420999e-03,2.152630588354075523e-03,1.298083760184753042e-03,5.362242460250854492e-01
-1.420198042941839961e-02,-3.228063112115556188e-01,2.896812365774072973e-01,9.829989563406248652e-04,2.072567225715607215e-03,2.386002667737554400e-03,5.304660201072692871e-01
-2.439802526521547832e-02,-3.108192488126323427e-01,3.058027795672517146e-01,1.168542378833777804e-04,5.785783805523600802e-04,4.312043449982722737e-03,5.345119833946228027e-01
-2.085684300212519923e-02,-3.090944490409534007e-01,2.701764460025707359e-01,1.907742698743644736e-04,-1.693390078700290772e-04,-2.897944166803861042e-03,5.016905665397644043e-01
-1.981908060652862527e-02,-3.214076662385705885e-01,3.046238052508927763e-01,-1.466580721099745117e-03,2.106730330056558707e-03,4.177379955197079039e-04,5.422982573509216309e-01
-1.028547752315198127e-02,-3.207598271524835787e-01,2.727556733990012527e-01,-6.712068767781342697e-03,-4.499483769183598193e-03,-3.588886564134860253e-03,5.144104957580566406e-01
-1.864485100365555204e-02,-3.102504215171386082e-01,2.191814188564312760e-01,-8.651047053960215019e-03,1.937667827698723658e-02,-3.430011089238987464e-03,4.607958197593688965e-01
-1.263822356335424918e-02,-3.091974868838248125e-01,1.332785894648572944e-01,-3.306345573851390916e-03,-2.830358460075121929e-02,-7.033051608601858379e-03,3.938229978084564209e-01
-2.561729727680913532e-02,-3.178695135170226949e-01,3.060983827884564690e-01,2.645629924367714136e-04,9.205547670955000449e-04,-1.475586578886631207e-03,5.407407879829406738e-01
-1.979527055511092273e-02,-3.209366280351614309e-01,2.953134677063660729e-01,3.389287183421564771e-03,-1.567986820180570758e-03,1.215727508006012253e-03,5.337772965431213379e-01
-1.379593619992337816e-02,-3.049730962635983089e-01,1.783395558726951768e-01,7.336797210001427642e-03,-2.945539867002345841e-03,6.811230898984333738e-03,4.218676984310150146e-01
-9.489291049340126127e-03,-3.286991368448198836e-01,5.950150296762571345e-02,1.780570067398109732e-02,8.016944631509795652e-03,8.249665626800616047e-02,3.876057863235473633e-01
-4.375585333679856553e-02,-3.909301704540300015e-01,1.595064898887835203e-01,-5.713073226342023359e-02,4.123743377793215141e-03,-3.043335189013088998e-02,4.950094819068908691e-01
-2.627878722628170655e-02,-2.525649471658069078e-01,3.096854667334634215e-01,-1.579802052928996415e-03,-1.007711322026058100e-02,3.180791592657818741e-03,4.903508424758911133e-01
-4.620832208778492822e-03,-3.285871877983267964e-01,2.179443275748960684e-01,-2.203631929690354815e-03,-4.792447205782886417e-03,-1.756605001860349347e-02,4.770767688751220703e-01
-8.030151168101101744e-03,-3.213119631078835692e-01,1.355909864090649453e-01,1.746020849862560355e-03,-1.296352012412487972e-02,-1.544302826835085643e-03,4.053231775760650635e-01
8.194361801203767226e-04,-3.081930058375501602e-01,1.487388478879146103e-01,-4.619425069567873084e-03,-2.226047627560934303e-03,4.230177802117937938e-03,4.039930105209350586e-01
-3.997116397986964775e-03,-3.190026774583702984e-01,2.004099360238382199e-01,-3.316063137857800432e-03,-5.098918053751264751e-03,4.537631841449850205e-03,4.534014463424682617e-01
-2.867090794428324430e-03,-3.085157373708570794e-01,1.397159990808732877e-01,-2.149332955243222956e-03,4.041981038528454778e-03,-1.942681615013564737e-03,3.967436850070953369e-01
2.146896388906628650e-02,-2.797683360831054178e-01,2.834490409088223362e-01,-8.162152747434925359e-03,-1.844362072546318560e-03,-3.242351784665872946e-04,4.883707761764526367e-01
-1.862290291102048495e-02,-3.198578654062315674e-01,3.023859324606123500e-01,-2.054807816009457996e-03,7.786073226774452641e-04,-4.757656927222812934e-04,5.389837026596069336e-01
-1.193084328704305253e-02,-3.410407018854219041e-01,1.510938078021887010e-01,-2.635078268060502080e-03,-2.645511643496251813e-02,-7.577895496644627624e-03,4.368478953838348389e-01
-1.662331637045801058e-03,-3.029416114532309523e-01,1.526505324938232655e-01,-2.883769380718270280e-03,-1.372603259436775032e-02,1.416885056752348803e-03,4.020809829235076904e-01
-1.657169801158338979e-02,-2.906039039216516406e-01,3.075833833520864591e-01,7.698796041831984863e-04,9.411552374687288253e-03,-3.618386253897102039e-03,5.189468860626220703e-01
-2.644587404268784747e-02,-3.087860661203640777e-01,3.169818064738010310e-01,-2.343095435256220289e-03,2.412360028781061847e-03,2.852681284265933849e-03,5.428446531295776367e-01
-1.523319775198059452e-02,-2.987472479344239762e-01,3.090949252556529636e-01,-1.171336049403325433e-03,-8.927766807848978858e-03,-2.407805142207808304e-03,5.270494818687438965e-01
-2.410491141795199910e-02,-3.237597908460874696e-01,3.221729555794416444e-01,-1.130533438496298271e-03,-2.508339831210731593e-04,2.511885854636815036e-03,5.599001646041870117e-01
-2.589567705553761506e-02,-3.408773460676185474e-01,2.869138664229747837e-01,-1.741678661538547529e-02,1.344105139935082224e-02,-1.684218349992492106e-02,5.457980632781982422e-01
-2.441359555205024900e-02,-2.265594396252649245e-01,2.880615256309684291e-01,-1.267220119767800864e-02,8.336184774360724803e-03,-1.764021437901853659e-02,4.508801996707916260e-01
-2.361035918341011786e-02,-2.354821709565911303e-01,3.111092871086348910e-01,-3.645739055854541315e-03,1.948124263447534917e-04,4.709723283461339331e-03,4.774422347545623779e-01
-9.418994071085963482e-04,-3.260537341908456010e-01,2.325587910064465524e-01,-3.247823351938964649e-05,-7.754635870186037550e-04,-4.502415922363299516e-03,4.860007464885711670e-01
-1.891696953918059129e-02,-3.322571052388081925e-01,3.075414284908388751e-01,1.602780882948741511e-03,1.078394900244517484e-03,-1.308821180441383783e-03,5.541353225708007812e-01
-2.383478755877277422e-02,-3.267920156840817825e-01,3.186853464024332894e-01,-2.119703601918120940e-03,-2.630970028404147794e-03,-5.370696792681307202e-04,5.593810677528381348e-01
-2.011380116460636733e-02,-3.281533156373423465e-01,3.083874386012422364e-01,-4.595054504745417663e-03,-2.032737425395913546e-03,-3.349661731509358167e-03,5.514546036720275879e-01
-2.549315333466510222e-02,-3.122231811103054477e-01,3.185751682244366556e-01,1.309775523765537020e-03,-6.696465004633708100e-04,-9.886190913830273166e-03,5.473130345344543457e-01
-2.296329569943016471e-02,-2.789969239710467508e-01,3.041016898219615072e-01,4.931702843597860451e-03,7.293297169345500965e-03,7.646444322405587975e-03,5.066283941268920898e-01
-2.710293913243994740e-02,-2.591162129189729657e-01,3.072481946992290380e-01,9.194925138789652574e-04,3.048239570416394571e-03,-5.689694826906388329e-03,4.932770729064941406e-01
-2.396513964492074863e-02,-3.219795267690023222e-01,3.116250028239976322e-01,-3.360121391711854994e-03,-1.226090596167824897e-04,5.955662069035271445e-04,5.490710139274597168e-01
-1.954050993807195102e-02,-1.920095100488775075e-01,2.327515761541051609e-01,5.931279780886114517e-02,-5.006364099761026476e-02,8.514313214291014537e-03,3.939543366432189941e-01
-1.970971863272765606e-02,-1.779208694121855172e-01,2.909397599898257969e-01,1.231997327359944314e-02,6.928267346013083743e-03,3.360126102842093954e-02,4.179336726665496826e-01
-2.011190003305311780e-02,-1.775768085819127984e-01,2.870411210209860009e-01,2.091267206058469025e-02,5.930299511225117781e-03,2.437809895756664139e-02,4.131639003753662109e-01
-1.385275464738766615e-02,-1.810566032290233107e-01,2.893001079198844749e-01,4.309483629896020129e-03,-1.316798336359548301e-02,5.923130043486361622e-04,4.136714339256286621e-01
-4.278824157792723848e-03,-3.116439713263841060e-01,1.976401740777165850e-01,-3.429416400042293363e-03,-9.427232611750316002e-03,-1.497371955526933737e-02,4.452886879444122314e-01
-2.156278732606695808e-02,-3.223480402762889940e-01,2.896432349103162385e-01,-1.203583591467830699e-03,2.714083506410187169e-04,2.881611818823272709e-03,5.300534367561340332e-01
-2.207696296079515730e-02,-3.173557761116008735e-01,3.068955363120747792e-01,3.771472520222756471e-04,-1.102473324119128753e-03,-1.362973085356917460e-03,5.408888459205627441e-01
-2.062074412015905620e-02,-3.070405166075520498e-01,2.820707092155429474e-01,2.169703673038145264e-02,-6.670785180793071742e-03,2.319365652371498110e-02,5.133369565010070801e-01
-1.887077838027780355e-02,-3.039813679252373335e-01,2.916164350895348867e-01,-6.842076596470972327e-03,4.954708783422511267e-03,3.160106354935244156e-03,5.161952972412109375e-01
-2.919271651615464036e-02,-1.824502013038787618e-01,2.935899409701416829e-01,7.079617243401092538e-03,1.811897574900565334e-03,-4.646149508310741180e-03,4.211535751819610596e-01
1.529537057029317637e-02,-3.084627827939013800e-01,9.620801516792110153e-02,5.004623321282842055e-03,8.067649148111211656e-06,3.254328612813230733e-04,3.709956705570220947e-01
-1.704272703514947418e-02,-1.315346126817091565e-01,3.351054052867101785e-01,6.570938656757319141e-02,-4.452104073119446392e-03,3.436454582986503414e-02,4.404431879520416260e-01
-2.596961859836630429e-02,-3.003013139989221814e-01,2.982690723810532130e-01,4.858629244131628701e-03,-5.189907466414292285e-03,1.551935304121707278e-02,5.198189616203308105e-01
-1.700538854169489356e-02,-3.283962520966139387e-01,2.562911139073302258e-01,-3.389185810799572301e-03,1.044108426637000873e-03,9.421919378094518321e-03,5.070121884346008301e-01
-2.086455971770232592e-02,-3.215675414233878371e-01,2.936512594109232377e-01,-4.848182955007804100e-03,2.420782595661038952e-03,1.679840406351760769e-03,5.329304933547973633e-01
-3.632766700912411217e-02,-2.247227870081557888e-01,3.027324228959730190e-01,1.031287481170939553e-02,2.900665059266016761e-03,2.343867191787624149e-02,4.651066064834594727e-01
-2.286651024606620175e-02,-2.287813830192771958e-01,2.997405570580806144e-01,1.456232895054994760e-03,7.367361367942799714e-03,1.278037836646540859e-02,4.621309936046600342e-01
-1.544599554627854032e-02,-1.451244442551639369e-01,3.117156531370084416e-01,3.931226444641492540e-02,5.194002708089698502e-03,3.985923567142289625e-02,4.192381501197814941e-01
3.832908456099118344e-02,-1.448068719817488526e-02,5.134573532113477778e-01,-3.421759062629572880e-03,6.431658327397793591e-03,-4.083951515605221266e-02,5.087140202522277832e-01
7.840694213966971360e-03,-1.530098803544672204e-01,2.855945504518804245e-01,5.907318343189796317e-02,-9.403472476595202065e-03,-1.118551857861547517e-02,3.985053598880767822e-01
3.441369779733447626e-03,-2.018656168613010560e-01,2.815452342940969466e-01,3.225059048900054404e-02,-5.067315810369057635e-03,1.962124936685371614e-03,4.240262508392333984e-01
-6.203251165720694016e-04,-3.187518659366822549e-01,1.478518849519368517e-01,-2.044935472691962724e-03,-3.543241204261646585e-03,6.267343777864039546e-03,4.131021797657012939e-01
-1.073960021915995600e-03,-1.845571060801845520e-01,2.819030267155493430e-01,1.747986604654155895e-02,-1.004493950775354159e-02,-1.567196419411925196e-02,4.094138741493225098e-01
7.268909943600049273e-04,-1.862527199533640931e-01,2.763904327381310200e-01,3.141043354718277281e-02,-4.297960623645127811e-04,3.769036682344706530e-05,4.067623615264892578e-01
-3.260836518777184001e-02,-9.892984531801818360e-02,3.349913618934733384e-01,3.714084766763735973e-02,-4.254201267689105247e-03,-1.540576237023036019e-02,4.108679592609405518e-01
-1.412989005235738837e-02,-1.261889263634134728e-01,3.040247509410073379e-01,2.905389547016035134e-02,-1.560449520784146053e-03,5.220332350699706525e-03,3.899399340152740479e-01
4.660483600012130245e-03,-3.146168265326659830e-01,9.535386010897287101e-02,-1.049046333247558764e-03,3.381526621116961399e-03,1.591577779202183731e-03,3.730480372905731201e-01
-6.998333237458668858e-04,-3.041767343081403507e-01,3.042336511829845103e-01,5.747821385832844153e-04,-3.755249106684413907e-03,-1.096292408967366062e-03,5.269438624382019043e-01
-3.572452351605063386e-02,-3.276151969850767953e-01,1.062750687931012239e-01,1.123163168771339378e-02,-1.590403250802743113e-02,7.573752406050687780e-02,4.063965976238250732e-01
-1.863600682684403431e-02,-3.548553840242146817e-01,1.696583066162272724e-01,8.627650218215028241e-03,-2.138593303318846867e-03,-2.349481429603534136e-02,4.622763991355895996e-01
-1.345621401260897396e-02,-3.162343469661976214e-01,3.125009281689601903e-01,2.548330821516607905e-04,-3.724868940391621881e-03,-1.211674402849545647e-03,5.446664690971374512e-01
-8.467540546438646898e-03,-3.131395799841935057e-01,3.054694082106885755e-01,1.890356790390519790e-04,-6.903062930400710208e-03,-3.024480071638939536e-03,5.359102487564086914e-01
-7.287973257741030449e-03,-3.080899594227440308e-01,3.104958878883334328e-01,2.133179857503858957e-03,-6.289603630921629558e-03,-2.296892213422369814e-04,5.359019637107849121e-01
-2.230894174895314136e-02,-2.847978971326650122e-01,3.035086870531124026e-01,-3.440607477116546832e-03,6.004159238555741582e-04,1.316223849452010861e-02,5.110160708427429199e-01
-1.507207248223802441e-02,-3.128784519115377361e-01,2.530340526564539561e-01,-2.420965502369380653e-03,1.393378740587825678e-03,4.181212404958618845e-03,4.903968870639801025e-01
-1.673423387751196006e-02,-3.332108318078749742e-01,1.563373493854326446e-01,5.232381090166556004e-04,3.651743123065777363e-02,2.171780726289509328e-02,4.362346827983856201e-01
-2.324706099791348790e-02,-2.161998517588184787e-01,3.045429286648734801e-01,6.067718422980637977e-05,5.813786244154820642e-05,2.563518316074359440e-02,4.581446945667266846e-01
-1.979595788411205037e-02,-3.184922859884891655e-01,2.971210744070667542e-01,-6.405900189378100837e-03,5.296000471931155106e-03,9.374462037346722358e-04,5.334114432334899902e-01
-2.849220703209768765e-02,-1.453518457741103664e-01,1.747353912990788904e-01,-4.184607043070319443e-02,2.478645834628336736e-02,2.443679533203340845e-02,2.959638237953186035e-01
-2.031144956028008153e-02,-3.309088752238316111e-01,3.130068955050411272e-01,-8.690497325203269414e-04,-6.968530677716454911e-04,-1.661859209086308069e-03,5.577738881111145020e-01
2.269833292360093346e-03,-3.365744064990207063e-01,1.965451753805534663e-01,-5.975478663543981259e-03,1.528481738491724827e-02,1.816014038421060253e-02,4.692385196685791016e-01
-2.639165438458142277e-02,-3.161631655103316896e-01,2.289145260986782393e-01,1.115647283495552200e-02,-1.413357129808350161e-02,1.068346679564632744e-02,4.737555384635925293e-01
-2.772180821743952528e-02,-1.564479862989095749e-01,3.033562579327190312e-01,-1.713073422263639706e-02,3.543383848212140058e-04,3.929068330545142096e-02,4.175087511539459229e-01
-2.104710866212486375e-04,-3.260797268527914072e-01,2.256629017962688555e-01,8.897721657461124534e-03,1.432551315617918092e-03,-3.421065142806001443e-03,4.807218611240386963e-01
-1.169157739327015590e-02,-3.222871013114790850e-01,2.524545989401988377e-01,-3.316896960771527065e-04,5.241848858911361049e-05,1.145130357609714039e-03,4.982867240905761719e-01
-3.445548690008758130e-02,-3.080686971996809964e-01,3.010730561896268753e-01,6.576682438086284841e-04,7.071718250021653829e-03,2.279891647637240747e-03,5.285977125167846680e-01
-4.511940362889078904e-03,-2.108274995219689418e-01,2.840184150616673064e-01,9.608333737652208564e-03,-1.216431475782857666e-02,-7.616020050819497032e-05,4.313526153564453125e-01
-3.613742730991757746e-02,-1.986254145668395199e-01,3.233327312715537083e-01,-1.700769507924029464e-02,1.415079639909970141e-02,3.113533977948759225e-04,4.642192721366882324e-01
-1.169263589984602739e-02,-3.311882158619872119e-01,2.931524191152813374e-01,-7.789772851697037478e-04,-1.699914762304198350e-03,-2.012535809755799498e-03,5.407654047012329102e-01
-2.190398783333112262e-02,-3.221801955145561225e-01,3.078369689146475130e-01,-2.859486098749807110e-04,4.095966658948485550e-03,-7.416386951786356615e-04,5.458575487136840820e-01
1.149424645799199118e-02,-3.887353190861495555e-01,-1.721834159659881014e-02,1.217111082024809228e-02,-2.071088022057105890e-02,1.285667236003646026e-02,3.895428180694580078e-01
-3.896969034073583665e-02,-3.211151910159062428e-01,3.157241862171690228e-01,-1.317308885480756534e-03,9.285006653914028990e-03,4.205282059002537522e-03,5.529972910881042480e-01
-2.012787274979837074e-02,-3.199582080514785098e-01,3.159216384774199415e-01,-3.248651740203516505e-04,6.136387390215141541e-03,2.739442748072331429e-03,5.511090159416198730e-01
1.211673978018321107e-02,-3.163562720428764741e-01,1.398765530317024608e-01,-2.270163419342727598e-03,1.021588110799792441e-02,1.706047100132455799e-04,4.080580472946166992e-01
-2.463345064429932341e-03,-2.120917749323882329e-01,3.193208000396506319e-01,3.973985796233069773e-02,-9.868771184278075578e-03,7.975504156321845672e-03,4.692174196243286133e-01
1.208095291508985702e-02,-3.006618981550295833e-01,1.307140147535384156e-01,3.945964723061272904e-03,-1.795535242776681150e-03,-2.098344519560249241e-03,3.860740065574645996e-01
-1.483879428252401350e-02,-3.200318928573097077e-01,1.263761672580450690e-01,8.336897975819927264e-04,3.964946901288068926e-02,-1.883740838938338571e-03,4.011375010013580322e-01
-2.440686983799409543e-02,-3.104080271450589401e-01,3.046079348997125513e-01,2.001577301092187847e-04,-8.257881372886920679e-04,5.122264169160267895e-03,5.331293344497680664e-01
2.141108054604860811e-02,-5.987372415629901856e-02,4.713739623392155242e-01,-3.199823761965854552e-02,9.563435585506364217e-03,-6.390715921321066468e-04,4.989952147006988525e-01
-1.526039195384354397e-03,-3.371156863193572328e-01,1.858815947034930804e-01,2.493635068894588941e-03,-2.547335570054388293e-02,4.416383706758673922e-02,4.673871695995330811e-01
-1.571959415857379638e-02,-3.140425641977009352e-01,3.028312956312502746e-01,3.329694852111915953e-05,3.655495785903109009e-03,-6.731585036118810199e-04,5.343629717826843262e-01
2.468903173097641846e-03,-3.768855447958417981e-01,7.552882112931841307e-02,4.665436517375063166e-03,-4.564631615563943812e-02,1.776871333175282508e-02,4.292160272598266602e-01
-2.326979835545298775e-02,-3.182725918717251301e-01,3.072649806359117330e-01,2.264637576546831583e-06,-2.555519030172516848e-03,-2.790434944463983640e-03,5.420622825622558594e-01
-1.982939603103760218e-02,-3.168630254728870277e-01,3.059951724442792620e-01,1.314125206414114885e-04,1.115336277078997091e-03,-1.281735316737256641e-03,5.396111607551574707e-01
-8.683123314846274976e-04,-3.180192916098179001e-01,1.490877966767102381e-01,1.081028128622859436e-02,-1.827952894247087540e-02,1.620121677468061225e-02,4.156570136547088623e-01
-7.884159968793838513e-03,-3.064837613341725442e-01,1.693886392214465075e-01,-3.578259988513382561e-03,-2.126552428118435104e-02,3.725619927525121704e-03,4.182794094085693359e-01
-7.669847699889514869e-03,-3.228332015991572934e-01,2.752249612304990545e-01,-4.466366592136591755e-03,3.301226634591855613e-03,2.144973622780300959e-03,5.182874202728271484e-01
-4.986092284948104303e-03,-3.070712377027601248e-01,2.936867710770007522e-01,3.456891127701737336e-03,5.314145377205503097e-03,2.424836080627995692e-03,5.204073190689086914e-01
-6.033643143017464183e-03,-3.144636772018939430e-01,1.372021613795602890e-01,4.793280434912772052e-03,-4.697944904415641415e-02,2.165059608570504487e-02,4.097806513309478760e-01
1.372014858577731700e-02,-3.209753843026366682e-01,1.150378519566485347e-01,7.126601995034222972e-04,3.765474208478385848e-02,1.272934322120069205e-02,4.011710882186889648e-01
-3.041984392408878662e-02,-3.820250414596997324e-01,2.019020657459242307e-01,1.768408308667719295e-02,-4.758377511399843746e-02,5.094468552290074698e-02,5.242157578468322754e-01
-1.500248972684796456e-02,-2.245190399750672527e-01,1.413166065646377645e-01,5.182439869029372564e-02,-4.545545645900352788e-02,2.548585181223307974e-02,3.424744904041290283e-01
-2.044910502548332593e-02,-3.197990827578472972e-01,3.033238478530040916e-01,1.192667803260075111e-03,-1.800912951706710617e-03,1.113362327637946000e-04,5.397914648056030273e-01
-1.613767108501859907e-02,-3.168193596098105580e-01,3.039302497923935809e-01,1.401506219849567487e-04,3.463787759267932236e-03,1.024556740924252975e-03,5.377087593078613281e-01
-1.832285452554123506e-02,-3.281136732907450337e-01,3.109953075015277624e-01,-1.739320074754369116e-02,-2.837350346538084454e-03,1.970082102924090167e-02,5.554607510566711426e-01
-1.576248627406541536e-02,-3.123811382273857240e-01,2.325552292166704338e-01,-8.564276366198173354e-03,-1.032549233212972815e-03,1.145691633578913406e-03,4.727865755558013916e-01
-6.997244369621117253e-03,-2.929836296688160258e-01,3.000534411523776979e-01,-1.027795891507399988e-03,1.299740187951577836e-02,-2.886193778729772945e-03,5.142135620117187500e-01
-2.586796046694090148e-02,-3.415281629716112599e-01,2.233902170353177508e-01,9.987978077928897497e-03,-1.583801078106206878e-02,2.580816532049997475e-02,4.934591054916381836e-01
-2.063486335363848984e-02,-3.325941792854116286e-01,2.332653133222900022e-01,1.211821979462845457e-02,-4.226984612949612891e-02,1.279896296344157358e-02,4.972752332687377930e-01
-4.173847849378998359e-02,-3.168063422940490814e-01,3.019991594318836570e-01,1.997409296565152547e-03,-1.205320414763538968e-02,3.260754152762249721e-03,5.374465584754943848e-01
-2.491274165707867833e-02,-3.235521965669410638e-01,2.394256571073876683e-01,4.052279893797746529e-03,-2.714784302639199065e-02,9.654547044366357245e-03,4.904509186744689941e-01
-2.643478799303431576e-02,-3.370424993853551876e-01,3.092922759732003590e-01,1.003442557927714841e-02,1.080530988138613674e-02,-8.711672209052278285e-06,5.604655146598815918e-01
-2.323257971897253749e-02,-6.257115389045070364e-02,3.118307163899717294e-01,2.826658170214150709e-02,-1.327925069346424895e-02,5.027080308412364834e-03,3.605518937110900879e-01
-1.390525897573497566e-02,-3.358403838174728873e-01,2.357746523286720075e-01,-2.671519690062058080e-03,-6.522935651895501660e-03,-1.311782481724049071e-02,4.970194101333618164e-01
-1.376358688844427081e-02,-3.068095132308649720e-01,2.998279214013767624e-01,3.663782793821341102e-03,-5.589390823280328095e-03,-2.693125284904593179e-03,5.256120562553405762e-01
-2.118781912841362705e-02,-3.338267308435637903e-01,2.890973111642120563e-01,5.164546324950907222e-03,6.533848924702276642e-03,8.508978565885826420e-03,5.398633480072021484e-01
-1.687230882052051517e-02,-3.053273741892383875e-01,1.943957737435978161e-01,-6.237647351613990337e-03,-2.834198726972022957e-03,2.582171507931443726e-03,4.346753954887390137e-01
-4.352009850339855213e-02,-3.139698224413385863e-01,2.582080423468418595e-01,5.601130618629254765e-03,-2.787455145657250638e-02,6.397402688303360438e-03,4.983302950859069824e-01
-2.151703526075097669e-02,-3.304952548482816832e-01,2.875329691214122407e-01,7.137906409414048088e-03,4.890733311075036796e-03,4.472980867861871225e-04,5.354384779930114746e-01
-2.390277004293281382e-02,-3.220870101196848245e-01,2.396610769552133813e-01,-1.078969891756492022e-02,1.963737371080138960e-03,1.599830531658712543e-02,4.879538714885711670e-01
-3.363812346252450375e-02,-3.141008852134016260e-01,2.951275827889300873e-01,1.919568085504878103e-03,-2.280452345472651875e-03,2.391109475219201433e-03,5.282012820243835449e-01
-4.378046388406050399e-02,-3.090638177297005407e-01,2.329494486990916213e-01,6.294928739061492542e-03,-1.681727711232160888e-02,9.900060674694826507e-03,4.707737565040588379e-01
-6.154972295595320664e-03,-3.109880546937296986e-01,1.346055481468840520e-01,7.675614412199187851e-03,-2.300954177254951882e-02,4.336777489977736329e-03,3.968207240104675293e-01
-9.592746792642159459e-03,-5.332494751477495631e-01,8.705847808832001267e-02,-4.305809012368352895e-02,6.001080373157297032e-02,1.748259740842977080e-03,5.920683741569519043e-01
9.066767961195570935e-03,-3.147004643679345848e-01,1.433638623900377884e-01,-4.671032854985489834e-03,1.951454790250161872e-02,1.862559955133280543e-02,4.105978310108184814e-01
-1.027415467820540045e-02,-3.298044114249375491e-01,2.909685426373114780e-01,5.915802954130816409e-03,2.075166709418211817e-04,-3.186416097463218560e-03,5.378089547157287598e-01
-2.442392252244439052e-02,-3.026687305150383422e-01,2.961864675742696407e-01,-1.288320742954524208e-02,7.719470722774551992e-03,4.774304151725354550e-03,5.197734832763671875e-01
1.300025917742625436e-02,-3.062793455831038236e-01,1.347348621838864169e-01,-3.306413869542581131e-05,7.819932687020650364e-03,-2.791508528040578547e-03,3.947568833827972412e-01
-3.104451387447737520e-02,-3.966578042362537415e-01,5.007039364847939988e-02,5.395960641486220039e-02,-4.618087940168622701e-02,1.164769856080240772e-02,4.306382834911346436e-01
-1.819323758084933143e-02,-3.326719418348774160e-01,2.972566401753569676e-01,5.558804658026798504e-03,1.437999798679017154e-03,7.448245962941259755e-03,5.457774996757507324e-01
8.078740809294424063e-03,-3.138240691856556408e-01,1.208596795188116024e-01,4.460346311798616022e-03,1.538652987422597061e-02,1.442921913766301127e-03,3.916907310485839844e-01
-2.589883916663188179e-02,-3.809512271220396595e-01,-1.258525446131605885e-02,6.954118930922518343e-03,-4.970603354177142302e-02,-1.683989318839835755e-02,3.733287751674652100e-01
6.848928669762298360e-04,-3.041080894120362643e-01,2.990220889211759325e-01,1.566059016901876237e-03,1.066801202563115100e-02,-5.893406902455705990e-04,5.226708054542541504e-01
-1.724470110755841473e-02,-3.204885853795805262e-01,3.020933211598386681e-01,-7.246293213886852679e-04,7.929349772463468006e-04,9.139252716426947767e-04,5.392373204231262207e-01
-1.764084926611903664e-02,-3.197528166045295328e-01,3.030727335662116717e-01,-1.053080438053140061e-03,8.298187651320581507e-04,-4.630045771681283277e-04,5.394685268402099609e-01
-1.989324443686889266e-02,-3.217285515665657125e-01,3.049813904323032676e-01,-7.568157027298989944e-04,-1.233238479664048822e-04,2.814615702718269743e-05,5.428705811500549316e-01
-1.234933391478576156e-02,-3.100866997642704459e-01,3.015645127475319875e-01,2.855224625340612040e-04,6.046867736515366965e-03,1.159443725025110063e-03,5.298748016357421875e-01
-1.520501152674095385e-02,-3.036174832390633460e-01,1.945613600457168357e-01,-5.071388884540594874e-03,-2.541073367180014288e-03,2.831470805617480706e-03,4.333630204200744629e-01
2.153165738054158007e-03,-1.643714887718110695e-01,3.217909469602929784e-01,-3.758477038281804461e-02,-3.098816012883198745e-03,1.924359591687995613e-02,4.341703951358795166e-01
-1.937102746870915729e-02,-3.197859858802449828e-01,2.751974320889215009e-01,-6.748978702559286016e-03,9.759746557216388832e-04,1.781753165044626256e-03,5.154236555099487305e-01
-1.773501862340655377e-02,-3.209852165590894590e-01,3.059477376415710714e-01,-1.031940530133499670e-03,1.422385021988240841e-03,-2.643857585196314475e-04,5.430446863174438477e-01
-1.840834940236421580e-02,-3.212740730715831772e-01,3.055047200129658580e-01,-8.196785550929374439e-04,1.286611384685324615e-03,8.108825106849545494e-05,5.429148077964782715e-01
-1.984208283631129152e-02,-3.215290631216312645e-01,3.054763778927254703e-01,-1.356618749822873036e-03,1.349608052226497403e-03,7.711807899799327597e-05,5.431413054466247559e-01
-3.567127348325112302e-02,-3.147901670803359142e-01,2.955645694443562732e-01,-3.670947803773816093e-03,-2.031048805839440891e-02,-1.397064309768278681e-02,5.309823155403137207e-01
-2.295011503317864049e-02,-2.989943410923299738e-01,2.200663381614753056e-01,-5.980712824150855207e-03,-2.126863000991780633e-02,-3.506605514309323306e-03,4.514886140823364258e-01
-1.333607813386196439e-02,-2.959388448735972288e-01,1.637022337104308278e-01,4.327541821915899777e-03,-5.905517277734207045e-03,3.361066271313844014e-03,4.017873704433441162e-01
-2.130583825910195919e-02,-3.161786783944765533e-01,2.836923898062322369e-01,-6.469180370429278119e-03,1.212043944599048174e-03,1.140657614715505277e-03,5.196570754051208496e-01
-7.520476874344706776e-03,-3.112339483947395014e-01,2.954189311790308414e-01,-2.586757618333382185e-03,-3.333912407896197361e-03,-3.038451645339967835e-03,5.254541635513305664e-01
9.585740600880476164e-03,-2.291475448923948610e-01,2.807313092913494845e-01,2.297104455542577084e-03,5.761045660389979908e-03,3.944545433455595024e-03,4.420486986637115479e-01
-5.977056419231961334e-03,-2.790774103180762022e-01,2.989720035087785055e-01,9.090629911717256189e-04,1.238838521633266535e-02,8.077643510669949706e-03,5.015157461166381836e-01
-1.503193985591738321e-02,-3.130653704443415175e-01,2.941706023458756092e-01,-6.404814760344750045e-04,1.554373626014830638e-03,1.040380980452518256e-03,5.259225964546203613e-01
-1.570394708849135942e-02,-3.127190402655855017e-01,2.986124523420694010e-01,-1.182023925702612582e-03,1.780770163039381571e-03,-1.782131066158547991e-03,5.295212268829345703e-01
-2.004158750658571395e-02,-3.166043478905197772e-01,3.018543292477876006e-01,-3.812630524965470412e-03,1.426412773201740864e-03,-1.908887508864611860e-03,5.358072519302368164e-01
-1.520716097868681643e-02,-3.143242434426941068e-01,1.854784542420527538e-01,8.699568330756878021e-03,-4.615562480447379934e-03,-3.342787698990140350e-04,4.359650611877441406e-01
-1.407583707868429942e-02,-3.081904575737027252e-01,2.443409653309673302e-01,3.801808447916468076e-02,-5.598912911083234883e-02,1.469022080446385180e-02,4.936341643333435059e-01
-2.882410183375737345e-02,-3.378912686177604208e-01,2.502586864365972108e-01,2.228291488203891502e-02,-6.449574155661352837e-02,6.673742497578226754e-03,5.232278108596801758e-01
-1.748661047925600953e-02,-3.556723363466845478e-01,3.358624448541162044e-01,3.636406904781834537e-02,-2.641735478399023090e-02,1.220377162485723754e-02,6.043428182601928711e-01
-1.082475861003026098e-02,-3.025418071411504206e-01,2.911309770879966785e-01,7.261387584232635584e-03,-1.951751874725019030e-03,3.187900434118464722e-03,5.143557786941528320e-01
-4.529447345632268973e-02,-3.055760204043435069e-01,2.726326940526568876e-01,7.416157896097856173e-05,1.151906221307986544e-03,-7.665383948549970997e-04,5.015780329704284668e-01
-1.231641926262697778e-02,-3.030830550813888857e-01,2.983843881503935869e-01,1.572397078691306627e-02,-1.665551714243128020e-02,-1.218899404896737169e-02,5.229161977767944336e-01
-1.095839017748038297e-02,-4.958329237983496451e-01,3.160332326547255488e-01,3.944184309641821096e-02,-1.051544743089889988e-01,-3.227560163992022630e-03,7.337897419929504395e-01
-2.030606494237844478e-02,-1.964394714616605753e-01,3.060805126068948945e-01,4.549740988454517056e-03,-8.919624758425295785e-03,-2.901017913046390409e-02,4.448194205760955811e-01
-1.092478599824567125e-02,-3.036340252224663527e-01,3.066603672300560746e-01,2.586662418622857722e-03,1.494141504888337954e-02,5.237208153487815480e-03,5.294064879417419434e-01
-2.317202467457848969e-02,-7.192066765218596558e-02,2.972760616549049439e-01,-6.293087477342964794e-03,-5.496331741502283319e-03,-2.151882346913328720e-02,3.496904671192169189e-01
-1.954272134665036020e-02,-3.133829543851298083e-01,2.972038012497099646e-01,3.324428937690328094e-04,-4.579856786978917134e-03,3.841033394205453210e-03,5.290092825889587402e-01
-2.962374656547488855e-02,-2.571285514686545981e-01,2.761123472245710087e-01,1.001235783151019874e-02,-2.141732251155894563e-04,-1.976678603815338470e-02,4.650402963161468506e-01
-1.960560620314209107e-02,-3.315784012656957103e-01,2.553509173983671277e-01,1.865819518655623338e-03,-3.864835173606816915e-03,1.606878527488504738e-02,5.094476938247680664e-01
-3.046231911071673598e-02,-2.731462246435054086e-01,3.134501454036441870e-01,8.107588992418887077e-04,6.659062768302117553e-03,-1.381751794086199213e-02,5.112152695655822754e-01
-1.847063891478890191e-02,-3.311700121022448373e-01,2.705472583658492525e-01,7.479810214449336692e-03,1.313287139551025037e-03,8.488913298486631953e-04,5.214049816131591797e-01
-3.124535283161489208e-02,-2.616933820285339274e-01,3.110890019940152906e-01,6.351847959745622856e-05,-4.726908050994850854e-03,-1.475561138539713442e-02,4.999096095561981201e-01
-3.017448138240515915e-02,-2.533955987390446585e-01,3.095272061555034981e-01,-4.803753263580208565e-04,-1.076080626271603766e-02,3.661175674644995270e-03,4.913672506809234619e-01
-1.647483382578534064e-02,-3.144438229341661173e-01,3.041585323420360476e-01,-8.321132320755078929e-04,-3.400141254778803277e-03,1.105884056485874258e-03,5.358828902244567871e-01
6.462270636960523382e-03,-2.837030750289155079e-01,3.301656246815569684e-01,-4.182578836927363514e-02,-1.152648660032612633e-02,7.415910488725066009e-03,5.373257994651794434e-01
-1.802191850736155343e-02,-3.336535329271478889e-01,3.033639976100129809e-01,2.430907949169075748e-03,2.488061907254714676e-03,-1.565323669353249235e-03,5.517204403877258301e-01
2.927299085873229928e-03,-3.055338427158361680e-01,2.949375987164339352e-01,-3.881701124530261308e-04,1.084606287764204938e-02,-1.739524131118706058e-03,5.204368829727172852e-01
-1.749083364858352793e-02,-3.314036129477753723e-01,3.036365059117916432e-01,2.308994109396562532e-03,1.576800365598697963e-03,5.835543432361495891e-04,5.499949455261230469e-01
-2.191612447700869853e-02,-3.118523908113174370e-01,3.010802778674455671e-01,-1.381660957088442403e-03,-4.011971201111217875e-04,4.916910476578594327e-03,5.311467051506042480e-01
-5.096133292614204655e-03,-2.904867336754193285e-01,3.041498309243008680e-01,-4.048196559940411832e-02,8.959574343731511667e-03,-1.975014156815609739e-02,5.212141275405883789e-01
-2.204447128720349314e-02,-3.272958676405282041e-01,2.735370365192782427e-01,9.200211964443337498e-03,-8.074452385269979089e-04,8.136236979760524263e-03,5.207955241203308105e-01
-3.087917646767279062e-02,-3.222935322552373250e-01,2.871057534125093791e-01,2.532785782863351473e-03,-1.143632548142497433e-03,2.232297619332666155e-03,5.279585719108581543e-01
-3.473202379397319350e-02,-3.173937318931635554e-01,2.867785959308535859e-01,2.262157571568674651e-03,-4.337209613808159538e-03,6.736907524321249924e-03,5.237875580787658691e-01
-1.519740331102258785e-02,-3.305520747430462647e-01,2.874600417993304902e-01,9.597845772425828842e-03,4.310726939566410752e-03,8.139668939503266927e-04,5.355638265609741211e-01
-4.251448134193470257e-02,-3.079500604689573984e-01,2.872668761261505943e-01,5.834576234399274468e-03,-1.050390803967300377e-02,9.053457942929967611e-03,5.171329975128173828e-01
-6.657092012102641676e-03,-3.735286138994801663e-01,9.432758794777881817e-02,-1.694338637730309974e-02,2.246932321198045362e-04,-7.953327979886497950e-03,4.276589453220367432e-01
-1.996459460983955603e-02,-3.200754963300386224e-01,2.981874228624601386e-01,-4.179761177894364757e-03,2.130783118004227726e-03,1.289870799743075402e-03,5.355736613273620605e-01
-1.635426480735354543e-02,-3.221882235135122841e-01,2.376174728504391598e-01,-1.105708741550724336e-02,2.811983702366649618e-05,1.430641687869670109e-02,4.865080118179321289e-01
-2.747487474600222856e-02,-3.144950714158818439e-01,2.880683928790987447e-01,-1.007011041798229088e-03,-9.062714414054274517e-04,9.050456810378482327e-04,5.220377445220947266e-01
-1.446289827631225960e-02,-3.188203928635364170e-01,2.655244948069304112e-01,1.351891529762434038e-03,3.800792986605290406e-03,-4.895987965659470871e-03,5.063234567642211914e-01
-6.856531458103387600e-03,-3.344609082121272614e-01,9.298033935575211739e-02,-1.078336969754443986e-02,6.796467717022348920e-02,-2.543623365005108668e-03,4.052466750144958496e-01
8.237312642431354748e-03,-3.484963449084679810e-01,1.492114793297856512e-01,-5.648943886881853567e-03,9.580435668488797296e-03,-4.927754678014147766e-03,4.448221921920776367e-01
-4.140972499482147712e-02,-3.039108931394965962e-01,2.772066213608573304e-01,8.604051663249837468e-05,-2.858914956741165619e-03,-7.890772081521545914e-04,5.040702223777770996e-01
-6.079222283622461032e-03,-3.299006675754320161e-01,1.405187019891560862e-01,-5.183530155046701601e-03,4.635287117183062994e-02,1.564307420842305299e-02,4.255388677120208740e-01
-3.071586309093585210e-03,-3.194904731737850390e-01,1.611521176190651161e-01,2.587613263785176754e-03,5.225910873661249526e-03,-1.673971072482717190e-02,4.242599308490753174e-01
-1.475504625528303339e-02,-3.231010552748656006e-01,2.963784628356862516e-01,1.452780188069998681e-03,1.238557589610219745e-03,1.931537147193568196e-03,5.365074276924133301e-01
-2.520805525031788105e-02,-3.132216043814228246e-01,2.975431424457382623e-01,1.140686129153066844e-03,-2.624521053110063541e-03,3.959320429750532583e-03,5.292904973030090332e-01
4.012286178606959408e-03,-3.208344129206276429e-01,1.597228702691662894e-01,3.655555992583701865e-03,6.082856886190960224e-03,-1.841792926924163201e-02,4.260539710521697998e-01
-2.540943941939902487e-02,-3.128865843273998526e-01,2.534485267665598229e-01,-7.809348761056589087e-03,-1.063062678800977701e-03,2.239378782022152532e-03,4.906847774982452393e-01
-2.903701570084495781e-02,-3.152750775471420686e-01,2.883010319736101223e-01,-1.104246843364752083e-03,1.286710593177399064e-03,1.645829279158939800e-03,5.229595303535461426e-01
3.058634243181437840e-03,-3.682026129178544438e-01,4.357425239394546734e-02,-1.041652708160296925e-02,2.202821300961113615e-02,9.207089950480895277e-03,3.956688642501831055e-01
1.579605395380571931e-02,-3.461224988879457731e-01,1.268724685442510214e-01,9.287494970070949221e-03,-2.098734409059352032e-02,-2.210810278984597782e-02,4.319376051425933838e-01
-3.421753211510693976e-03,-3.698270966315584385e-01,3.066635512354795035e-01,-4.412165635886298315e-02,-5.125651584226428858e-02,1.723056638949335695e-02,5.988615751266479492e-01
-5.069687985845426625e-02,-3.192230911430191109e-01,3.060739791278802024e-01,3.824338820565370469e-03,-2.347546328618088651e-02,4.891477324579760616e-03,5.449431538581848145e-01
5.949300520478414955e-03,-3.081443541078137116e-01,9.794386309588362649e-02,9.113685638507427545e-04,-5.708705603430177904e-03,2.881746070484602230e-03,3.689686954021453857e-01
-1.680929040634221439e-02,-4.173214297816732476e-02,3.160897781735317880e-01,3.343786423425478688e-02,-1.875412391159682899e-03,1.519127281955122595e-02,3.518477976322174072e-01
-3.783749969898000942e-02,-3.119129839236869928e-01,2.753898024854359861e-01,-8.419918412965127566e-03,-1.821058778094295123e-03,2.959838705289508337e-04,5.092146396636962891e-01
-3.757825465794585595e-02,-1.467856971925573517e-01,2.938064981405553167e-01,-1.646247300212062489e-02,-7.499182207371723162e-03,-1.533246178441457835e-03,3.986484706401824951e-01
-2.377946271235275785e-02,-3.192370463573910300e-01,3.248565168394982328e-01,-3.652760281717242624e-02,-2.757956625820620622e-02,1.386387278386811729e-02,5.645446777343750000e-01
-3.136498770125715346e-02,-3.014504651909925559e-01,1.849966594486624483e-01,2.671058704003307499e-03,-2.714265438710572118e-02,1.578609491100489617e-03,4.247749149799346924e-01
-1.686243485080105714e-02,-3.216644187820605905e-01,2.711858693026648059e-01,9.476232909903816587e-03,1.027613655326719676e-03,3.638505962852909810e-04,5.137574672698974609e-01
-3.861172799916183507e-02,-3.184710814682209512e-01,2.722526604867936406e-01,-7.257236079370517345e-03,-1.419025187597387772e-02,-6.576121235016116687e-03,5.126870870590209961e-01
-3.346195082124352183e-02,-1.185252773106106883e-01,2.988684016029221624e-01,2.312159160478286738e-03,-8.783550076255633096e-03,-1.996425844871669436e-02,3.839160799980163574e-01
-1.968867067011920505e-02,-3.222242862811522945e-01,2.963926742415467497e-01,1.823366912959827892e-04,-1.354239313533639997e-04,2.441037537248378665e-03,5.357976555824279785e-01
-4.599068476342805037e-03,-2.734406232222481581e-01,2.939662453301663536e-01,-8.950912921893873627e-04,1.232922498880226030e-02,3.454765664309310952e-03,4.921158850193023682e-01
-1.942464718836360224e-02,-3.207167023742951706e-01,2.964916721412031442e-01,1.887957843115208294e-03,-2.842646304691052550e-04,2.392408418925606392e-03,5.345944166183471680e-01
-1.964056492784755151e-02,-3.320254450205064600e-01,3.043113953932637394e-01,2.276581065956413685e-03,2.183139355226776553e-03,7.716527801507337865e-04,5.511429309844970703e-01
-1.503870316440696596e-02,-3.264054483994662803e-01,3.049321968084130474e-01,2.010461036721936968e-03,9.545137416994441126e-03,1.859093548580223378e-03,5.470418334007263184e-01
-2.126072058927989950e-02,-1.359392069430174210e-01,2.975752346295130746e-01,1.938174137112720283e-02,-7.849628833739777725e-03,-2.355621196756676680e-02,3.928710222244262695e-01
-1.158003674748138423e-02,-1.541993507798981866e-01,2.871670181471254191e-01,5.337093905371793900e-02,-8.169193405623336943e-03,-1.134360607081860185e-02,4.016575515270233154e-01
-1.969946068992235733e-02,-1.020289526813988323e-01,3.172655077055072659e-01,5.954276231263052471e-02,4.392302089977094190e-03,-1.284385415851540396e-02,3.990670144557952881e-01
-1.930434000610255912e-02,-3.231028749529452626e-01,3.003008226030794425e-01,6.643426139589814769e-04,4.366743506597189949e-04,2.404589219791655741e-03,5.399590730667114258e-01
-1.260586728956428204e-02,-1.023056690424929416e-01,2.860405077349850167e-01,3.332671497900543955e-02,-1.558885168911277415e-04,4.418750136685655784e-03,3.569522202014923096e-01
-2.506576426076764785e-02,-1.187206893750669956e-01,3.297824087769578028e-01,4.936496252518167427e-02,9.377506202610626923e-03,2.554867353379852712e-02,4.212534427642822266e-01
-1.838919124684645912e-03,-3.393970444556299593e-01,1.443729061542388947e-01,-1.902246337400861215e-02,4.330039334559107611e-02,2.281575651614616701e-02,4.392611682415008545e-01
-2.464738306883951582e-02,-3.257468375594340659e-01,2.975443043977395452e-01,4.539815556328769507e-03,8.550756930073010213e-04,7.869901851614796804e-04,5.399500131607055664e-01
-2.043128857557665809e-02,-3.287788180450617048e-01,2.902008828129816753e-01,6.803730439091896544e-03,1.157397859459205524e-03,2.776724881044001264e-04,5.361868143081665039e-01
1.750267880178126012e-02,-3.120661259369979512e-01,9.925509412017080590e-02,4.773287957195326663e-03,-2.333592621425281677e-03,2.132342933863265542e-03,3.772802948951721191e-01
-1.618065658461145459e-02,-3.284363809329102213e-01,3.028814173150007338e-01,-3.014932452006683717e-04,3.988234253343735970e-03,-1.762240199446973003e-05,5.467917323112487793e-01
-2.335322076215353565e-02,-3.047098830004165149e-01,2.979363192105597413e-01,-5.261392991830868456e-04,-3.034036642473413384e-03,-2.885084775578715833e-03,5.223398208618164062e-01
-8.101527152788376429e-04,-3.227866112953136080e-01,1.890681945405356112e-01,4.393386136038568424e-03,-6.877614742258515712e-04,2.081133202845597205e-02,4.496861696243286133e-01
-2.118308666947103791e-02,-3.337175832156420996e-01,2.802369413936622866e-01,-3.894864004938726997e-03,-1.372706942938125821e-05,-1.472441597464771261e-02,5.323832631111145020e-01
-2.153933455172536010e-02,-3.304841820545295628e-01,2.992189248632847187e-01,3.288797968775948773e-03,-8.868860715826306978e-04,2.288107616566677216e-03,5.454171895980834961e-01
-6.621423393533141383e-03,-3.298573368300297126e-01,2.363346316624151400e-01,-1.480724665102104050e-02,4.308113539367346839e-02,6.257009493207454920e-03,4.983817636966705322e-01
-3.823660754599670503e-02,-3.132905646776274478e-01,2.806695279887172489e-01,-5.989501664342161517e-03,-1.201753777962935588e-02,-4.780941840017996491e-03,5.154431462287902832e-01
-1.967379899690660516e-02,-3.101408037625582037e-01,3.050239179980324677e-01,4.329391846976435418e-04,1.413867185184792489e-03,4.902324349376001658e-03,5.330969095230102539e-01
-2.961611797581962732e-02,-3.015523457772735783e-01,2.449907400206867703e-01,3.387372011453265719e-02,5.652617708665128721e-02,1.648267315399130559e-02,4.877260923385620117e-01
-1.158586752265056488e-02,-2.376779888569426069e-01,1.602252444112312324e-01,-1.197903040634472728e-03,4.501652733573234359e-03,-3.886554098577854610e-03,3.458211421966552734e-01
-5.573918137193328501e-03,-3.114417181375036536e-01,2.963978801847078626e-01,-4.344395725521356562e-03,-8.986030341655543803e-04,3.001384965184243896e-04,5.264644622802734375e-01
-1.921903954054698938e-02,-3.193208513855646524e-01,3.022876950281463415e-01,-2.146580560931648281e-03,1.339249095363956624e-04,-1.115503136277814448e-03,5.384514927864074707e-01
-2.171487480639208364e-02,-3.142147486415818314e-01,2.961798895477208426e-01,-2.370894714233442481e-03,-1.252549043377046249e-03,-1.192160346367968429e-03,5.287941694259643555e-01
-1.317993881001852316e-02,-3.022926364017355927e-01,2.944536248240695597e-01,3.554713423182519227e-04,-1.386420290107119504e-03,-5.789469119313663328e-03,5.169835686683654785e-01
-2.806097698682701036e-02,-3.129541539876269374e-01,2.976107600821049082e-01,-1.087243719657243410e-03,9.652390879875385934e-04,-2.615791836214245974e-03,5.291830897331237793e-01
-5.290847144170239547e-03,-2.237105063858116638e-01,1.079905529989497459e-01,1.477809391224842173e-02,-2.123412979453202787e-02,4.693970034210073750e-02,3.064319789409637451e-01
-5.164619255147403706e-03,-3.067742305229361199e-01,2.936983648435751437e-01,2.678184442473089538e-03,6.392627891340683238e-03,3.152704553558859004e-03,5.201935172080993652e-01
2.291287251203317187e-03,-2.932158967095849778e-01,2.947071397213462673e-01,2.195004222648641026e-04,9.057204210904270733e-03,2.091751751335196950e-03,5.094132423400878906e-01
-9.029628300217241305e-03,-2.213385259213562495e-01,2.729341797697424910e-01,3.023666936762873028e-02,-1.405023370710442197e-03,1.698937264942396164e-02,4.336550235748291016e-01
7.987911927971776127e-04,-2.247938057442527005e-01,2.888382197452550315e-01,1.265453383104550925e-02,1.204578504341099685e-02,5.644366743297099705e-03,4.470453858375549316e-01
-3.910657446591078029e-03,-2.551077948310184751e-01,3.006528744582503410e-01,1.073464662645803001e-02,1.239531474693771063e-02,1.005711608270810041e-02,4.831919968128204346e-01
7.087515743732492220e-03,-2.713640503122345393e-01,2.887165481005986023e-01,4.769711217792852592e-03,9.673393229789264622e-03,-7.572905847893656762e-04,4.854080080986022949e-01
-3.442303995237552122e-02,-3.113219248438448550e-01,2.904214435432841968e-01,-3.883057955759916611e-03,-1.201343053552173662e-03,-1.071471376813076023e-03,5.217269659042358398e-01
1.118997871506169361e-02,-2.506059537359844880e-01,2.864862481772758596e-01,8.293010910256267895e-03,1.056073844877478997e-02,1.062704527031194980e-02,4.661290645599365234e-01
-2.246336660855318204e-03,-3.008691126420293682e-01,3.011724037977521196e-01,-4.392525472491637384e-03,-8.995349690782000751e-03,5.469458249784371097e-03,5.217629671096801758e-01
-1.489066752939231277e-02,-3.204269180550202156e-01,3.060084688718413548e-01,4.310300137511295871e-05,1.386739078057702560e-03,-2.954309436805198580e-04,5.425689220428466797e-01
-2.026985756173158362e-02,-3.670988149909151232e-01,3.935882399378639040e-01,3.259386570212769590e-02,-3.437618517632665127e-02,-1.529773837779468612e-02,6.652376651763916016e-01
-3.573340146866797740e-02,-3.079460378451777669e-01,2.393984655254847715e-01,8.363667070497732628e-03,-3.342781674112821951e-03,6.487284342919023535e-04,4.742744565010070801e-01
1.384158693597382223e-02,-3.129153363258772025e-01,3.351345654226813298e-01,-6.053664097033496089e-02,7.865713864345870443e-02,-1.223797328802829834e-02,5.873569250106811523e-01
1.272032637570172722e-02,-3.142251625513754476e-01,3.214710095842245319e-01,-4.612139816621109618e-03,9.736918328853171045e-03,1.980685176113408078e-04,5.509204268455505371e-01
2.175616465855240503e-02,-2.997495648359703169e-01,3.103590906344847467e-01,-1.860305364589323260e-02,7.419784256422745465e-03,-6.224799498362747381e-03,5.298723578453063965e-01
-1.977940780607488971e-02,-3.203311241673051368e-01,3.028115393145675016e-01,-6.948115138723415284e-04,-5.782456192197035387e-05,-4.027176407203109814e-04,5.397716760635375977e-01
-1.365496485366838111e-02,-3.189740187639047431e-01,3.116963932740771104e-01,-1.136132690105175029e-03,-3.116051063747705355e-03,6.556478032477643970e-04,5.462998151779174805e-01
-4.837691834639340493e-02,-3.055332337650761287e-01,2.770427442068036927e-01,-3.261453667585830461e-05,-4.267760440547994352e-04,-9.604260070130651600e-04,5.056820511817932129e-01
-1.546525493528239786e-02,-3.143896072808773368e-01,3.056927671838430838e-01,2.629378910584549960e-03,-1.225577024301243573e-03,-3.047243141486470804e-03,5.371716022491455078e-01
-1.637380631301504907e-03,-2.576116240009837521e-01,3.158982668575961994e-01,-4.754042659023915290e-02,1.419669459444158552e-02,1.103202407680828681e-02,5.053539872169494629e-01
-1.434186675664004835e-03,-3.026555161600668620e-01,2.959197106115091236e-01,1.017267030217294680e-03,1.112768539431715966e-03,-1.331456024900281882e-03,5.183966755867004395e-01
-4.631449320948777260e-02,-3.102336056810472975e-01,2.907847436883713721e-01,1.513105793216520945e-03,-9.590626665935523404e-03,3.871034714700648683e-03,5.220956802368164062e-01
-1.777392785871458047e-02,-3.375868333607496830e-01,3.091308060488522913e-01,-2.247272774044906107e-02,-9.334707777707800316e-03,-1.391738659328617227e-02,5.621858239173889160e-01
-4.990012187219078355e-02,-3.107992685134600142e-01,2.791610688120458317e-01,-3.614877893765283418e-03,-6.081223078140824724e-03,-1.630907657427065061e-03,5.122104287147521973e-01
-4.091969242933837098e-02,-3.192175197000172160e-01,2.952602464700902485e-01,2.847113787768944769e-03,-2.374169096281511168e-03,8.167640598664262577e-03,5.331661701202392578e-01
-3.182395864936981428e-02,-3.309968425618410870e-01,3.111866247204846947e-01,9.382872051028853452e-03,-7.335074332062083147e-03,4.820064021269819012e-03,5.570236444473266602e-01
4.251133021203612472e-03,-3.154557044033809432e-01,2.969718035585723892e-01,-4.874872844570598066e-03,-8.946472218408793673e-04,2.437489429245411933e-03,5.306356549263000488e-01
3.801303140611074667e-03,-3.021003179435279851e-01,2.920079243238739575e-01,2.894972023779612390e-03,5.912882641406631314e-03,3.012426485756530825e-03,5.147416591644287109e-01
-2.826198650969368939e-02,-3.182085857428698095e-01,2.764115293017338493e-01,9.019335803125232837e-03,1.314744455361689830e-03,-1.098185159227737932e-04,5.152507424354553223e-01
8.732645769075376985e-03,-2.708591462611740774e-01,2.852952813582553815e-01,-1.152397880544163769e-02,-7.441596364326417967e-03,-2.463769038073873249e-03,4.822508096694946289e-01
5.089082026996170904e-03,-1.896871785814477074e-01,2.952676878166759500e-01,4.290455706968658578e-02,-2.402462682327883604e-03,-1.600708293292242654e-03,4.291954338550567627e-01
-2.102549864383746608e-02,-3.303551917551254546e-01,3.043588245200368192e-01,5.688538724926478149e-03,3.712630323735570653e-03,2.879719337049171327e-03,5.498855710029602051e-01
-1.516749388145845201e-02,-3.160925980991821094e-01,2.372080962543450244e-01,-8.979189920878984446e-03,-9.064631276184068748e-03,-8.002703219375208871e-03,4.804956018924713135e-01
-1.611118475236667305e-02,-3.242819991079791131e-01,3.022041217488664611e-01,2.075492154435515987e-03,1.831337874626031911e-03,2.722251775698556354e-03,5.426182746887207031e-01
-2.353760405323347682e-02,-3.299716018734636380e-01,3.037869776776873643e-01,3.526582702863020175e-04,1.471434504460614103e-03,1.904871916964462136e-04,5.489567518234252930e-01
-8.391646284799294392e-03,-3.139061387355488453e-01,2.172838057372530329e-01,-4.166291676231441421e-03,-1.436299986151414604e-02,-1.008165460767300632e-02,4.628082811832427979e-01
-2.606852085392273588e-02,-3.138641341110116612e-01,2.095613582658573115e-01,-1.069901225935013071e-02,-1.347960212222231932e-02,-1.382183398241464307e-02,4.556562602519989014e-01
-1.387746226818833278e-02,-3.148126591127544116e-01,2.763961936473031678e-01,-9.984130891909201791e-03,-1.427738977336461511e-02,9.300057947734053157e-03,5.131709575653076172e-01
-2.856928549998043534e-02,-3.268937702984343607e-01,2.963976696171206071e-01,5.363733931506197566e-03,3.004386585020122572e-03,5.515517720985600629e-06,5.400555729866027832e-01
-2.278403544333246905e-02,-3.286279666406593525e-01,3.001643082211068458e-01,1.500188881807087591e-03,3.918023148381065001e-05,1.385389324056441294e-03,5.446287393569946289e-01
-1.440344918941474650e-02,-3.246291423190246772e-01,2.260970140596948452e-01,-4.510463631928630229e-03,-1.003594509805637303e-02,-6.810804231475185537e-03,4.787402451038360596e-01
-3.433085140939661634e-03,-2.201334442708512973e-01,3.053852228942741109e-01,7.009048665015935042e-02,-4.969037225003698072e-02,-1.549762965720372782e-02,4.817829132080078125e-01
1.393861583666984941e-02,-2.908344008519941348e-01,2.914545327796734253e-01,1.972779177591012234e-03,6.156190215437790623e-03,2.388349999277344579e-03,5.046023130416870117e-01
-2.054072514890711160e-02,-3.331139728473719308e-01,2.719197315630294542e-01,7.631891585787821050e-03,-9.885089746548820708e-03,1.202003561777442546e-02,5.249302983283996582e-01
-7.255469532270020228e-03,-3.002937658106314411e-01,2.984053402756927653e-01,5.287994213137962862e-02,-1.531018579898816255e-02,2.897002606545008574e-02,5.296037793159484863e-01
-1.525476178373945738e-02,-3.095363619480439588e-01,2.843341620238318823e-01,1.907850595962167417e-03,2.756533371744128349e-03,1.261487317306117300e-03,5.143512487411499023e-01
1.283146411992222569e-02,-2.133133857959583768e-01,3.086932930995503477e-01,-2.611233136597941942e-02,1.120352978035257970e-02,-3.175345275351400265e-02,4.593803584575653076e-01
-3.455153560636040067e-02,-3.164517729104370791e-01,2.916465883295927264e-01,-3.790831880913570536e-03,-6.564259918561297577e-04,1.831678265884072350e-04,5.271363854408264160e-01
-2.107234172745112155e-02,-3.195224093434199109e-01,2.972537398962382116e-01,-9.736649090048760981e-04,1.563213901086120796e-03,1.447752988119317338e-03,5.342516899108886719e-01
1.785492151915888531e-02,-2.843721892584968880e-01,3.363456727418681624e-01,5.303613944349516718e-02,-1.415790561185366510e-02,-1.170391085848856462e-02,5.463377237319946289e-01
-2.603263829709621252e-02,-3.202055338638745696e-01,3.010850552038346062e-01,-2.581257230501018008e-03,-1.748141887746595025e-04,1.145950656889823126e-04,5.383242368698120117e-01
-1.026495384689495027e-02,-8.846796188324870802e-02,3.858240974511658594e-01,-5.548943674574642604e-02,4.021790765463604395e-02,-1.042430961022381385e-02,4.565011262893676758e-01
-3.727767552912285287e-02,-3.029974540944685435e-01,2.607759793311240637e-01,-3.692693563237723752e-03,-1.946684269843255337e-03,3.377370449234459401e-04,4.885635673999786377e-01
-4.008464078911294637e-02,-1.722620981663287865e-01,3.044903298023565186e-01,4.430676479852502063e-03,-5.071496782559583097e-03,-2.495107277512966307e-02,4.286625087261199951e-01
-1.263636059659413446e-02,-3.314821664504194465e-01,2.529913219014905956e-01,5.693193720442482619e-03,5.643775258860516319e-04,1.452971251540130515e-02,5.075889229774475098e-01
-4.032202161513492866e-02,-3.087012608624542520e-01,3.044194315777412618e-01,-2.349222269593660706e-02,7.709890066810761410e-03,3.303824101945965035e-03,5.340994596481323242e-01
-2.065996088922294333e-02,-2.311722591774673097e-01,3.026834769088349031e-01,-1.220979318094398379e-02,1.185048071602623834e-02,1.704484991978568549e-03,4.667027294635772705e-01
-2.515288582878342019e-02,-2.826718869739502371e-01,3.130861751474378063e-01,-8.189281192192325934e-03,8.105390948144967564e-03,-1.413924522472103859e-02,5.184811949729919434e-01
-4.267678163001895064e-02,-3.031652138933714768e-01,2.690905155290108097e-01,-5.809019846094444191e-04,-2.866556819163039189e-03,2.307023545722042810e-04,4.962767958641052246e-01
-3.743449418600354461e-02,-3.153879607664816787e-01,2.914372738096620008e-01,1.459571879163340004e-03,-3.559700721103834040e-03,-5.292195035395276092e-04,5.261853933334350586e-01
-1.312870304771628430e-02,-3.151022047529383752e-01,2.263874300359920433e-01,1.184818324290446735e-02,-1.033145426623552961e-03,1.582398716084947032e-02,4.712314009666442871e-01
-1.630819353045001585e-03,-3.138080003638369919e-01,1.721927751681308905e-01,6.906253966126216573e-03,-5.633639994081309638e-03,-2.021498563964635019e-03,4.268296658992767334e-01
-1.101802489040413016e-02,-3.256639571310273595e-01,2.132809995479116316e-01,1.080276373687204423e-02,-5.534985124600629372e-03,9.164357451451493955e-03,4.696603715419769287e-01
-4.006805467480917260e-03,-3.206386214534651113e-01,1.201995023207614310e-01,6.264094957613593022e-03,-1.950739399353568215e-02,1.136895265458618721e-02,3.958000540733337402e-01
-2.979007107707732499e-02,-3.112000331246722040e-01,2.689113249442044995e-01,-7.545221009890031028e-03,-9.137125656518209002e-03,2.060479290971978326e-03,5.028972625732421875e-01
-2.420594362704672070e-02,-3.462744073870084871e-01,3.444706378995537888e-01,-2.342933908782351624e-02,-1.808303642229432823e-02,2.939844206275054120e-02,6.030009984970092773e-01
-3.808503369895795132e-02,-3.096959696561623065e-01,2.655839895456172939e-01,-6.883880020049129231e-03,-7.313086278118429166e-05,-2.620339634069856691e-03,4.986281096935272217e-01
-1.021901683592774807e-02,-3.238269518261994717e-01,1.437429991373110894e-01,-1.087679946838966509e-02,6.751740011915667583e-02,1.204957455440617414e-02,4.298886358737945557e-01
-2.567877023002344827e-02,-3.333411765287287998e-01,3.223498854508854983e-01,-1.998847786993905931e-02,-4.203331882436712325e-02,1.132147548175402134e-02,5.742290019989013672e-01
-3.062204207308515461e-02,-3.096486781246271525e-01,1.868935253182618106e-01,-2.611050452631872697e-03,-2.479310941318465383e-02,-1.205115608404157442e-03,4.332786798477172852e-01
-3.681429033382727090e-03,-3.242432028221156060e-01,1.629794196096353287e-01,9.041423537049656303e-03,-1.766317419775025738e-02,1.273623828754490150e-02,4.308463931083679199e-01
2.066721243013419987e-02,-2.710249365026109469e-01,2.907374575567697184e-01,-2.081989371684631746e-02,-4.766282602131446423e-03,7.101449227509324010e-03,4.881797432899475098e-01
-4.776626405774685169e-02,-3.071972279159142505e-01,2.734199987613544214e-01,1.883062412738696102e-03,6.609537707160412242e-07,4.084865944440381610e-04,5.037875175476074219e-01
4.998233666841548489e-03,-2.077562104628419559e-01,2.885839302452675170e-01,-2.176115501113977738e-03,5.245326245533241767e-04,-4.341349087091344976e-03,4.313826560974121094e-01
2.226792423696595524e-02,-2.662382211946085486e-01,2.844277215509177781e-01,-1.892218579591022770e-02,-2.856777227335338502e-03,-3.121890670001972626e-04,4.782229661941528320e-01
-1.354383800416979200e-02,-2.048264128186848276e-01,3.055488872656539345e-01,-9.505058279666925292e-02,-2.517583268425493265e-02,-1.412640245406125532e-02,4.785917401313781738e-01
6.795781093322593447e-03,-1.771054692264975861e-01,3.183298091053997081e-01,-5.731347694748761129e-02,7.133339666998762471e-03,-1.303746739461206401e-02,4.457372426986694336e-01
-2.017007252115033886e-02,-3.191400687272937797e-01,3.008662937148866012e-01,1.069026183167081376e-03,-1.317348871211119175e-03,-1.580235778540568532e-03,5.370696187019348145e-01
-6.052707525537343730e-04,-2.503393402549949354e-01,2.844427393859992326e-01,-2.109232357855470030e-02,2.362177440847065910e-03,-5.731796665820130523e-04,4.649280011653900146e-01
-1.514223403055451472e-02,-2.922456359902241840e-01,2.096844358846761958e-01,-1.884695286751714507e-02,1.665503841578458780e-02,-3.911119003444761544e-02,4.428548514842987061e-01
-1.924690501677527379e-02,-3.135426239022202632e-01,2.954657626674757620e-01,-4.565033023705592635e-03,3.343837273000667756e-03,3.957575098407364357e-03,5.276510715484619141e-01
-1.850185124322471092e-02,-3.301252049665849286e-01,3.034289565037394665e-01,9.097493977450778202e-04,1.368876915764638265e-04,-3.865310486008929799e-05,5.487005114555358887e-01
-2.988836748297323681e-02,-3.243151737073627916e-01,2.286166656580083112e-01,4.767584212191351353e-03,2.391378097793360122e-02,-1.172699560748650602e-02,4.814760386943817139e-01
-2.419649362009204663e-02,-3.195329584328571726e-01,3.109924498928399728e-01,1.290917557780942243e-03,7.849367063537070893e-03,-3.278837561862044895e-03,5.466176271438598633e-01
-2.150837176405870355e-02,-3.171972615123778705e-01,3.113677317705384473e-01,-4.394571138300823812e-03,-1.499244435698614828e-03,2.354855269634880278e-03,5.447453260421752930e-01
-4.306264506048909993e-04,-3.330825867969669507e-01,3.455757084350464248e-01,-1.556811754633917119e-02,1.127757332897832976e-01,-9.707199463406133088e-05,6.199674606323242188e-01
-5.140654881069339592e-03,-3.067420534487677597e-01,2.980864904782359881e-01,-1.154756505489533316e-04,4.192889659589681475e-03,1.584365227564049758e-03,5.238550901412963867e-01
-2.178006435439839433e-02,-3.117778281582376243e-01,3.057069879802550849e-01,-2.812312687478600061e-03,7.558639001233177432e-04,8.224926567066681831e-04,5.351116061210632324e-01
-1.729478219279783485e-02,-3.151671573370422585e-01,2.569194570406495015e-01,4.639874166514493595e-03,1.064101354974075113e-03,-1.347960800442353675e-02,4.962008893489837646e-01
-2.225275809210887704e-02,-3.128211300291776631e-01,3.071351737327563947e-01,1.125716473380349806e-03,-5.911362099173553784e-03,-2.964043295147428172e-03,5.373742580413818359e-01
-2.819555011664036381e-02,-1.338161355761091909e-01,3.096792167319781242e-01,-1.488258954769363512e-02,2.949481383876018537e-03,-1.252378056625279637e-02,4.026943147182464600e-01
-2.715371331494554133e-02,-3.033046357457517272e-01,3.092240073827149383e-01,1.400107759251437373e-03,-3.393562175245588581e-03,-4.879055070060958101e-03,5.314246416091918945e-01
1.632446473832114414e-02,-2.412255000475100331e-01,2.798386994480068779e-01,1.915455167228715186e-02,4.195854001654219893e-03,4.783667123069052472e-03,4.526168107986450195e-01
1.514187559289063498e-02,-2.721255388441729539e-01,2.867080255036387193e-01,-1.596672803782594324e-02,-5.787694100319967089e-03,-1.139893274545539844e-03,4.849247932434082031e-01
-3.112118176038651540e-02,-3.103006019980311114e-01,2.902910398458239949e-01,-1.651031315290303050e-03,1.482249335557222515e-04,-1.179971182738207740e-03,5.205680131912231445e-01
-1.564118678158806994e-02,-2.688113252604739656e-01,3.106591317424409748e-01,-5.774174434828643204e-02,6.465785506299801498e-03,-2.726953227202459813e-03,5.131535530090332031e-01
6.253203187219051606e-03,-1.434368200958624495e-01,3.336963446270063138e-01,-5.770498724185279399e-02,-2.680366676680243955e-03,2.155213110988701483e-02,4.359423220157623291e-01
-3.001845494874235895e-02,-2.681307923903193946e-01,1.237823859882106470e-01,-5.899201035163376822e-02,3.932408711199372742e-02,5.883576724242179506e-02,3.774100244045257568e-01
-4.437495581300376218e-02,-3.048127126421627531e-01,2.752504799980238226e-01,-3.796448647525975991e-03,-5.183931945243041954e-03,3.926224387079160739e-05,5.033434629440307617e-01
-2.179716949336373347e-02,-3.206402040813047805e-01,2.882325183866633056e-01,-5.973608947522317594e-03,9.736258188280349883e-04,-2.581070128052363830e-03,5.274520516395568848e-01
-3.648728505314982086e-03,-3.117643059682149720e-01,2.952317719313664046e-01,-6.687294124329240628e-05,1.300615139610916335e-03,2.258061107784900372e-03,5.257136821746826172e-01
-2.095812930891011519e-02,-3.227071522090104727e-01,2.750943418279935826e-01,-3.775922991002707979e-03,2.412124120337541013e-03,2.291477388347064673e-03,5.177924633026123047e-01
-1.203880895856705713e-02,-2.433896176011208223e-01,2.975073257023162498e-01,-1.479221798773577845e-02,-1.109409107792042742e-02,1.677241518242320040e-02,4.720438122749328613e-01
-4.834135581768622680e-02,-3.034926250701691086e-01,2.722698166175868684e-01,-4.871573154196188614e-04,-1.463461714030451621e-03,7.612623022810703632e-04,4.997068345546722412e-01
-2.910657214981206969e-02,-2.453394701155940938e-01,2.990545566810932643e-01,-8.598233894593413501e-03,-1.552140714522030202e-02,1.496784776245098890e-02,4.764685332775115967e-01
2.204721492684877729e-02,-2.927608399138822981e-01,2.829616809711633652e-01,-1.255222220690267992e-03,2.068093143046371638e-03,6.640040434050761310e-04,4.993368983268737793e-01
-3.929915017781920872e-02,-2.978992374944417487e-01,2.548707527649197724e-01,3.241650196985061943e-03,-1.746546612402579898e-03,1.267285960303904694e-03,4.790906012058258057e-01
-5.270839092395333825e-03,-2.437966554328402924e-01,2.854396179493688401e-01,-2.629385668887361874e-03,-1.209674058421870632e-02,3.274283926631541691e-03,4.596095979213714600e-01
1.855558265651741784e-02,-2.741530021240537462e-01,3.000422058476985843e-01,2.090457256844002742e-02,-5.959659489992625431e-03,-3.724511154755240534e-03,4.987642168998718262e-01
-8.521500688378418065e-03,-1.825809068327025608e-01,2.486922034537317749e-01,-3.421206440312096059e-02,-1.430562384834277792e-02,-2.792380427361966511e-02,3.843053281307220459e-01
4.274182966394892563e-03,-3.024943670935379414e-01,2.889802115276711714e-01,8.068769840614090430e-03,9.105887077831421872e-03,5.697084178390238174e-03,5.128788948059082031e-01
5.751180402733657021e-03,-1.915521899642621262e-01,2.825507927028675370e-01,2.387092612992596993e-02,9.733154710359600073e-03,1.980557936801397283e-03,4.149284064769744873e-01
-3.852321020607789304e-02,-3.178047112311698785e-01,2.805275230173883139e-01,1.420844034698569638e-03,-1.423042089450472216e-03,4.399293461919575807e-03,5.186199545860290527e-01
9.387659144379931209e-03,-2.142977453388024145e-01,2.819460141940589026e-01,4.409954743133335901e-03,7.077066336616108164e-03,1.093974834745486437e-02,4.311127066612243652e-01
5.918143078404651536e-03,-3.049045420261680683e-01,2.974904349417630267e-01,3.388058963992154546e-03,-5.873647862672605295e-03,-5.963272414171851693e-03,5.220124721527099609e-01
-3.109248785199476839e-03,-2.807666748653361299e-01,2.973609102739188659e-01,3.386963248554602460e-03,1.171999514760581167e-02,6.622046489538118731e-03,5.013798475265502930e-01
6.278668579584371218e-03,-2.125151276417633350e-01,2.927911831303501855e-01,1.853845843742886121e-02,1.043898836336236424e-02,7.152820568542073501e-03,4.406344592571258545e-01
-4.740243517335782086e-02,-3.038922747798932233e-01,2.689792683585336408e-01,-2.356453669720832284e-03,-8.442331881354769299e-04,8.304117712450834513e-05,4.970431923866271973e-01
-9.415286778739779400e-03,-2.891591167562082010e-01,2.869897458444501392e-01,5.132566875192928410e-03,7.500804128586392207e-03,9.834178505339803700e-03,4.995678067207336426e-01
-1.326068783571416991e-02,-3.155036824827644470e-01,3.002662826368869275e-01,-2.371246017479350463e-03,6.336840891546553431e-03,4.882121220305651985e-04,5.334317088127136230e-01
2.036781654271609815e-02,-2.333805138028895443e-01,2.807803287081195309e-01,1.657206973503303274e-02,5.414468692334421969e-03,7.219439961929871065e-03,4.464866518974304199e-01
1.947352081763865927e-03,-2.133972346004127107e-01,2.903972293509593516e-01,1.215835102267450243e-02,1.321793482127532615e-02,1.246584662434677138e-02,4.394616484642028809e-01
-1.561698240508201281e-02,-3.230481864545790560e-01,2.963937378461042882e-01,3.041271378435012399e-03,5.896221052354864468e-03,1.362376886598293474e-03,5.365855693817138672e-01
-8.363461320060612547e-03,-3.144432794218866567e-01,3.000619733630363051e-01,-2.520058455770262176e-03,5.432210495311244960e-03,3.280593750301078371e-04,5.322798490524291992e-01
-1.700860630510665425e-02,-3.188997053085165234e-01,3.044800103926834089e-01,3.003021409091950235e-04,4.785288719331941623e-03,1.907583931304169872e-03,5.400255322456359863e-01
1.789519301257200962e-02,-2.935058581420160184e-01,2.842420748581372392e-01,-1.541100859685229146e-03,7.725201662664282071e-04,7.687960991880287516e-04,5.008619427680969238e-01
2.274377572532805189e-02,-2.893759005161440356e-01,2.849775863329259140e-01,1.069629006300985450e-04,2.012072066121038769e-04,-1.453851611147794626e-03,4.980362355709075928e-01
3.554759913503856283e-02,-2.094397388852941022e-01,3.341769502865081787e-01,6.116843065134359297e-02,4.605957872257560384e-03,1.236600360573420279e-02,4.838448464870452881e-01
-4.249481877315831879e-02,-3.114716087842658854e-01,2.390784425664439494e-01,4.941190761475307107e-03,-1.103683901897925697e-04,1.620767951603381551e-03,4.769170284271240234e-01
-4.634495485108031804e-02,-3.118888513176449884e-01,2.798298777671345827e-01,2.465181567768382539e-03,-6.813458172093404298e-03,6.555697219468544987e-03,5.136182904243469238e-01
-4.777978602352925264e-02,-3.181322964059278835e-01,2.893126646042950001e-01,-8.152423237104561033e-04,-7.800536898002190245e-03,7.276767434899091523e-03,5.274457335472106934e-01
-4.920828188194428798e-02,-3.040296562126120206e-01,2.602009312601232249e-01,1.069393843194265791e-03,-6.972728279472610938e-03,2.586348093736819446e-04,4.895524084568023682e-01
-1.814591476450699847e-02,-3.190330242960185969e-01,3.039283172765961383e-01,-5.787407529375317725e-04,3.936853854533149677e-03,7.126997550502842463e-04,5.396497845649719238e-01
-1.564694968159573499e-02,-3.185884319529567743e-01,3.038322394681730043e-01,-1.014936809457790917e-04,3.931756174737425710e-03,8.917660480599722342e-04,5.391407608985900879e-01
-2.058339570206868183e-02,-3.287346556045813162e-01,3.001716277714653880e-01,5.979567013614155244e-04,4.192312411377127146e-04,9.587354261672094338e-04,5.446892976760864258e-01
-2.323389649408633476e-02,-3.164543660138818826e-01,3.000597387793240145e-01,-2.766096728371095648e-03,3.015437433692039898e-03,-1.573830881738560008e-03,5.341825485229492188e-01
-2.095646387950814843e-02,-3.300750788928448753e-01,3.031485886004862129e-01,4.190702978614275695e-03,3.361627833765091101e-03,1.978767730443779446e-03,5.485286116600036621e-01
-9.972232866248379596e-03,-3.258158031924535680e-01,3.023621455764832766e-01,2.926415584692685246e-03,3.659777435076698969e-04,1.088552736692135038e-03,5.440481305122375488e-01
-1.813054205946930744e-02,-3.277430740573456514e-01,3.026479995517266097e-01,1.227226525298747957e-03,3.954542777752557796e-03,9.819603368184043682e-04,5.460129976272583008e-01
-2.026027988701623733e-02,-3.174110159313017765e-01,2.993954674200433597e-01,-3.635061354255278952e-03,1.838225445238657980e-03,-1.016373605584502569e-03,5.343380570411682129e-01
-1.672307959768610380e-02,-3.174400392068241206e-01,2.960084992877956012e-01,-1.588016898966819208e-03,1.707143273261303284e-03,1.740532754310252644e-03,5.313198566436767578e-01
-3.565381779667371742e-02,-1.312655993374043928e-01,2.933843338999549966e-01,-8.549710539191159031e-03,-5.819384572128454350e-03,-2.569413914212255109e-02,3.888047039508819580e-01
-3.068948840289850710e-02,-1.272728115452233244e-01,3.120277569982026211e-01,4.007380512688818106e-03,1.184907513206676956e-02,-3.088287014912719495e-04,4.004421234130859375e-01
-2.832681572629659750e-02,-1.456718454781960326e-01,2.882599023590782239e-01,5.081059287342521054e-03,-4.612502208310746352e-04,2.768908920105761159e-02,3.918226957321166992e-01
-9.483544420508589756e-03,-1.247436948218955677e-01,2.594332427014395814e-01,-2.212025700379423310e-02,1.243369007390833503e-02,-3.291546751523421327e-02,3.489677906036376953e-01
-1.966983929405143050e-02,-1.851628915634769001e-01,2.954998465747632475e-01,2.322546472785623484e-02,6.628553802280781442e-03,1.005018309176702873e-02,4.253602921962738037e-01
1.000999367528202476e-02,-3.058552801171676161e-01,2.953874831108981858e-01,-1.538391602878518873e-03,9.255998246820209760e-03,1.034262545922979984e-03,5.211711525917053223e-01
-3.220559578736938156e-02,-3.033691204564455957e-01,2.131887742515739537e-01,1.666842651394178157e-03,-3.895632567855433250e-03,1.263799198960930542e-03,4.476032853126525879e-01
-3.035432920190296591e-03,-3.176638986252279806e-01,3.006489906470415363e-01,-2.096378870453423295e-04,7.225995502897166432e-03,1.805048018811043504e-03,5.356581211090087891e-01
-8.684379911213084904e-03,-3.218473872290225080e-01,3.002113123751336543e-01,-2.194512040793973259e-04,4.083929729334064528e-03,5.383400318141174203e-04,5.387702584266662598e-01
-4.202170277356244432e-02,-3.095191786186866079e-01,2.826438557282003883e-01,-4.257637346114673694e-04,-3.968383729374289071e-03,-2.111528736763845348e-03,5.136837363243103027e-01
-2.406467207100044040e-02,-3.207772033370581144e-01,2.974541851836950968e-01,3.580951801367123887e-03,5.571637483504181514e-04,6.483324994170134616e-03,5.357022285461425781e-01
-1.407785622601080873e-02,-3.052262497970551491e-01,2.724196990158231912e-01,2.006299387234039989e-03,-6.724363090423961416e-03,-8.651401371924279105e-03,5.006334185600280762e-01
1.216974233961058520e-02,-3.063004671720128691e-01,2.935171590404567765e-01,-1.184060219098383767e-03,6.247607762228951471e-03,2.342850714369844149e-03,5.199213027954101562e-01
-6.246113933527533239e-03,-3.192739212954353589e-01,2.976311152396680093e-01,3.158239425392356942e-03,3.092738569743653094e-05,2.483107575032480856e-03,5.343203544616699219e-01
-3.253886634049681092e-02,-3.072278929812423121e-01,2.394959659705642729e-01,8.656901925823851443e-03,-3.801826429606042484e-03,5.479454021569234168e-04,4.737626910209655762e-01
1.959233985633748037e-02,-2.674492285121699564e-01,2.807191439543929579e-01,2.169928392462290318e-03,5.441908707481736031e-03,-8.058052935670188257e-04,4.750149846076965332e-01
-2.257403606044627170e-02,-3.294481533775273641e-01,2.976843966325353197e-01,2.683927126977206108e-03,-1.293262565658224571e-03,1.000840739081998269e-02,5.434550046920776367e-01
-1.716285249808814639e-02,-3.136454339505061473e-01,2.936497295914119454e-01,-1.199591493183313701e-03,4.049410585766438642e-03,-1.568147264502451667e-04,5.260328054428100586e-01
-1.190776814789807833e-02,-3.244724181631101212e-01,2.526240395432316488e-01,9.616829130362094732e-03,-1.193241016760821990e-02,-4.462436787551107842e-03,5.011200904846191406e-01
2.182831572347415650e-03,-3.049536843634186867e-01,2.959599483185364477e-01,4.688505991220100720e-03,-1.723177150679479526e-03,-3.349410308926746528e-04,5.205215811729431152e-01
9.517160913514982612e-03,-3.213059953460819518e-01,6.892056669198143304e-02,-2.861911150683790935e-03,2.195933885988644169e-02,9.760125218465684482e-03,3.665811419486999512e-01
-9.950935070155812745e-03,-3.244973813129347073e-01,2.497356577280547829e-01,3.500404259442858618e-03,-2.741254238423307399e-03,-3.477919224936454334e-03,4.981522560119628906e-01
-1.801306329848668258e-02,-3.045201837541115508e-01,2.933664160686370037e-01,3.324804440148008966e-03,2.111623819010459522e-04,1.367904787635021305e-03,5.179718732833862305e-01
-4.153694054242197675e-02,-3.067638942224247822e-01,2.828153787414710574e-01,-5.800436054892447102e-04,-4.032086657051077438e-03,-1.672556511339056123e-03,5.115026235580444336e-01
-1.254823750826083995e-03,-3.258723132012479318e-01,1.515656762180607742e-01,3.831534267346422607e-04,5.661611166110871139e-03,1.360384820990518523e-02,4.230728447437286377e-01
-9.275906275617813723e-03,-3.151246800493091582e-01,1.550226308117447771e-01,8.544419144644519598e-03,-1.169412133940511689e-02,1.190315630420283807e-02,4.145386815071105957e-01
2.124052718911689092e-02,-2.857009491333249995e-01,2.835579056451206781e-01,5.957402053240147197e-03,-4.584342939166339247e-03,-6.241712937238020871e-04,4.936701953411102295e-01
-2.358880785434121566e-02,-3.507247604508998973e-01,3.856757274719033179e-01,9.653282713333033449e-02,-8.769869720089755460e-02,1.460293638566892600e-02,6.782840490341186523e-01
9.898487056358859504e-03,-2.892744266998641955e-01,2.903639199811362537e-01,1.758747810374600498e-03,-6.978255567873767155e-03,-3.870191581340796938e-03,5.022681355476379395e-01
-3.684007678696955834e-02,-1.771395732408410639e-01,1.696763763675299963e-01,4.999216100143674506e-03,-5.667043708398111085e-03,-7.660396134755310948e-03,3.027449548244476318e-01
-6.356218629113896679e-03,-1.162608565491196899e-01,3.417776094529627051e-01,5.874420932510593385e-02,2.677600779105924686e-02,-1.555349283154110326e-03,4.290087223052978516e-01
-1.215909401067491458e-02,-1.224560975871870905e-01,3.143022748441364200e-01,6.112973588780957340e-02,2.130821109370551955e-02,1.050156148435353078e-02,4.094553291797637939e-01
-6.989353819797441969e-03,-2.157365111921002443e-01,2.801090667950360547e-01,1.885751188618857432e-02,-1.013479668037134233e-02,-1.592857087899314170e-02,4.336680471897125244e-01
-4.101995494786608853e-02,-3.133768559327456127e-01,2.839471973250440318e-01,2.212554347977800043e-03,-1.806075058804226113e-03,5.615357742309251901e-03,5.180811285972595215e-01
1.203877092731731741e-02,-2.929620348301621435e-01,2.926497380923805958e-01,-7.472985850882391153e-04,8.702747717849273340e-03,1.805767318599674643e-03,5.075364708900451660e-01
-3.466287982548571338e-03,-3.165935218981396071e-01,3.061073411801906730e-01,1.816660958268068171e-02,-9.957496339834275012e-03,3.232596376416601788e-03,5.404991507530212402e-01
-1.259850837955310554e-02,-1.179929929461058791e-01,3.451065163966973715e-01,7.624512511063330500e-02,2.654237867590348438e-02,1.596769273002440759e-02,4.439362287521362305e-01
-2.550278981219619712e-02,-1.595376449620008741e-01,3.497662587887290231e-01,9.130334940884743400e-02,-1.525238709497693523e-02,-3.380279968561610004e-02,4.880840480327606201e-01
-1.967576889980630905e-02,-3.207631751209230053e-01,2.963803964580628003e-01,3.999240311494015737e-03,3.693541479640644314e-03,2.747440256927156065e-03,5.346187353134155273e-01
-2.983768213957836007e-02,-3.235977535398986693e-01,2.945841176078886625e-01,4.267802281319363865e-03,-1.031610443810219773e-03,4.645983687072198845e-03,5.356950759887695312e-01
-3.524825466897340415e-02,-3.185564290913473484e-01,2.763235226228068497e-01,6.673373045262546120e-03,-3.630746086967661821e-04,1.750727572362847646e-04,5.155050158500671387e-01
-2.570936623152077216e-02,-5.616521530261473494e-01,2.313450773319746800e-01,-1.715473476806626861e-03,-8.281132552890367593e-02,6.745302690536390117e-03,7.153996229171752930e-01
1.681017723872553493e-02,-1.998817826641378359e-01,3.234290160192073160e-01,4.430075326937991248e-02,-1.432693424636719524e-02,-3.191977893536988853e-02,4.658029973506927490e-01
-2.736778768390065592e-02,-3.660833565699836978e-01,3.074331659173611953e-01,-3.906687475553096735e-03,1.775381084099996593e-02,1.227907621621831917e-02,5.845219492912292480e-01
2.295912898178838375e-03,-3.105568634213793922e-01,2.989564308141154925e-01,7.418841995931324410e-04,8.270245069682382114e-03,2.236480714058450281e-03,5.281261801719665527e-01
-4.815629171890163651e-03,-3.260957026380794099e-01,2.844899680833391509e-01,-1.253166237117632996e-02,-8.952957274731740932e-04,-5.088799003265091943e-03,5.295450687408447266e-01
-3.828174429040161197e-03,-2.403892929561382563e-01,3.489777253209915275e-01,-7.692731167605944276e-02,1.188924120042920453e-02,-7.559429376206174174e-03,5.312647819519042969e-01
9.281395714465344102e-03,-2.587988544484391418e-01,2.920226947819505314e-01,1.723707773549220182e-02,5.515807198635883091e-03,2.624235961198873902e-03,4.781320989131927490e-01
-2.078895568982241232e-02,-3.120576194766801481e-01,3.161028493077115420e-01,-5.026370692230798699e-05,-7.057593967616310020e-03,-4.138079394790321330e-03,5.446653366088867188e-01
-2.008362207990947029e-02,-3.176001063959025261e-01,3.145731674605018457e-01,-2.081466119576309923e-03,-1.357782084143398715e-03,5.451332236933133842e-04,5.478106737136840820e-01
-2.469819679808714363e-02,-3.226751865140748965e-01,2.922166450737538890e-01,3.347256100100155871e-03,2.697008693887555358e-04,3.868271013695100558e-03,5.326700210571289062e-01
-2.880160961447587875e-03,-2.496764361070574201e-01,2.956318065445919241e-01,2.466258026222084652e-03,-1.727108066106022854e-02,-1.203884713805646739e-02,4.743810296058654785e-01
-4.144998273640657094e-02,-3.118545073558566250e-01,2.783394342102295527e-01,5.814979480751388853e-03,-6.962038133690774851e-03,7.199794688800983077e-03,5.121120214462280273e-01
-1.585688642298978268e-02,-2.704458507850671101e-01,3.065234754909089698e-01,2.577241957299445090e-03,-1.532937546048209615e-02,6.846810222876734695e-04,5.015430450439453125e-01
-2.659288593607439521e-02,-3.173331336391685409e-01,2.985321069423776397e-01,-4.887794768692045773e-03,6.695751137084196862e-04,4.062891438796411648e-04,5.337008237838745117e-01
-8.434234288425192239e-03,-2.723138546698621321e-01,2.861829785194171527e-01,5.139602105163010304e-02,4.239073686907437327e-02,-1.651611208142403364e-02,4.983062744140625000e-01
1.234258848897621698e-03,-3.150218181110369664e-01,2.951901218372239843e-01,-1.008696085994941751e-03,2.875329674030212539e-03,-9.870165965012501520e-04,5.286057591438293457e-01
-2.775095742707761604e-02,-2.161667845486579531e-01,2.908080326266234694e-01,-8.551971378600149720e-02,-2.714656274079373793e-02,-2.481553118293414184e-02,4.722298383712768555e-01
-1.958299393324592144e-02,-3.228065966443943724e-01,2.947191652472541668e-01,4.245014016048225111e-04,-7.096897366383255346e-04,4.295402906394543002e-03,5.348753333091735840e-01
-2.302655347981819034e-02,-3.308994404904574971e-01,3.032615535343954338e-01,1.696647924727322622e-03,9.688601671404276821e-04,4.107197313057845203e-04,5.492876172065734863e-01
-2.391592749794885231e-02,-3.203311095693920918e-01,2.921006540153523456e-01,3.018382615761099671e-03,6.533304863728116622e-05,4.001651758730199494e-03,5.305430293083190918e-01
-3.875077439421646675e-02,-3.126454640352679948e-01,2.879261651004707545e-01,2.996186506113503612e-03,-4.157398562311453993e-03,5.707481255884929924e-03,5.209488868713378906e-01
-2.275552639407016353e-02,-3.271152816494196092e-01,2.963488415719792157e-01,7.007771831164712889e-03,1.927294760081589434e-03,4.018594102055084659e-04,5.401332378387451172e-01
2.546940646483215193e-02,-2.911123118773846219e-01,2.878272117348854575e-01,4.264978186932038423e-03,-9.047727076088467107e-04,-4.857423499541288253e-04,5.021663308143615723e-01
2.946936671672200844e-02,-2.885821484948271065e-01,2.863468953415705953e-01,5.649846755117382720e-03,-1.483488798493860913e-03,-2.549776323361978812e-03,4.989639222621917725e-01
-8.983475628388339074e-03,-1.724491159399698659e-01,3.049251723534547875e-01,5.839386050637376813e-02,-5.165972154845774322e-02,-1.238878288128558020e-02,4.418926239013671875e-01
-3.878168140413167098e-02,-3.046866170014199682e-01,2.912059206920062926e-01,1.824595628380899217e-03,-7.581639836091656239e-03,-2.433208702617566197e-03,5.172453522682189941e-01
-3.152874839969999066e-02,-3.214963980522809739e-01,2.916281752285013185e-01,2.769655183106022739e-03,-8.122939669254668421e-04,3.059812406756589644e-03,5.312906503677368164e-01
-3.117174776054491489e-02,-3.254246273644379461e-01,2.960487556805512233e-01,9.627281340738838740e-04,2.178791795874761728e-03,4.044889955132639536e-05,5.384799242019653320e-01
-2.231654667275878579e-02,-3.249726405449763211e-01,2.961399845520922836e-01,3.916256316821191581e-03,1.902970747085620936e-03,8.755002342157796409e-05,5.380101799964904785e-01
-4.024718673924687629e-02,-3.129383417484495333e-01,2.907043448654125783e-01,1.389640190620574809e-03,-7.604456459496183179e-03,1.060119556169991564e-03,5.237552523612976074e-01
2.288183220290668923e-02,-2.810320241905489569e-01,2.823280216356060524e-01,6.261324231333565337e-04,-2.766162187939621726e-03,-1.302348638899875977e-03,4.884203672409057617e-01
-2.016942026358498063e-02,-3.138168750638848370e-01,3.061878299274344295e-01,-1.223724153900827448e-03,2.024056555368590297e-03,-1.933395774471453844e-03,5.372149348258972168e-01
-2.772049542008535317e-02,-3.259038985837706681e-01,2.246242872449878414e-01,-1.177422785090991714e-02,3.979147410240483490e-02,1.415869439614859081e-02,4.833256006240844727e-01
-2.975413152727001895e-02,-3.186962866220766077e-01,1.953615731603004779e-01,-7.463531887567141990e-03,3.258309927073217704e-02,1.521100759936099348e-02,4.508395195007324219e-01
-1.975601463074032338e-02,-3.208483082711162671e-01,2.838935538937933378e-01,-2.969197433586425686e-03,-4.892924749050950491e-03,1.792987850360609195e-03,5.238264203071594238e-01
-2.565021693053254337e-02,-3.109297952866842962e-01,2.925880099576189664e-01,1.313191564846408156e-03,-3.456617828461758767e-03,-1.338051342359994345e-03,5.229658484458923340e-01
-1.562332893771499129e-02,-3.126684522979692460e-01,2.688325400338772986e-01,3.696250864791794915e-03,-4.627004005347394068e-03,-5.706921794256118556e-03,5.038353800773620605e-01
-2.016982307128354496e-02,-3.207701052659531205e-01,2.990011489328927019e-01,-1.797126335797780226e-03,1.419310155151092077e-03,-1.381522446436060690e-03,5.368379354476928711e-01
-2.811181499091973401e-02,-2.945862840979366348e-01,4.674113865770962994e-01,1.030686358108529876e-01,-6.152283740445200350e-02,1.607336079937074849e-02,7.018517255783081055e-01
-2.388337912103454669e-02,-3.227188604151053353e-01,3.025893450087573378e-01,-5.201500309867413156e-04,1.051107006793098762e-03,2.429372652394892404e-03,5.417292118072509766e-01
-2.287164209428330097e-02,-2.838342932658849960e-01,3.109860619243439150e-01,6.053959899896978365e-03,5.506116963245962295e-03,8.138587552267923311e-03,5.168040990829467773e-01
-1.898291057945013238e-02,-2.941459586483831101e-01,2.991636573825741108e-01,-2.947886998172912312e-04,1.599571029969406449e-03,-2.163470210249339443e-03,5.142918229103088379e-01
-4.273537961752117698e-02,-3.040349257410340789e-01,2.785233577012208306e-01,1.447263444636774405e-04,2.149736966696361596e-03,-5.148177942802666541e-04,5.054147839546203613e-01
-3.282291632534850567e-02,-3.166486033751919615e-01,3.037762797789385072e-01,-5.526918869400550272e-03,5.545581601043787605e-03,3.802492809853249764e-03,5.381624698638916016e-01
-1.967692700319577381e-02,-3.099336412072791758e-01,3.104366643022143935e-01,-2.226303175349657760e-03,5.968557751898417862e-03,-2.257489222555655872e-03,5.377533435821533203e-01
-4.652022115724455814e-02,-3.035210553982076731e-01,2.785044499402123397e-01,-9.006306948556394186e-04,1.230796900845069694e-03,-2.105672405227305760e-04,5.052021145820617676e-01
2.510014764709535273e-02,-2.893547009507692058e-01,2.856984206038993834e-01,1.823265961500109694e-02,-4.512484934402486575e-03,-5.795304107203187553e-03,4.998988211154937744e-01
-2.243087266564208065e-02,-3.112251881829987132e-01,3.045713201073077525e-01,-1.107490059723653767e-04,-6.382633625478790042e-04,4.930531297329936863e-03,5.337070226669311523e-01
-3.136468993290840446e-02,-5.567060857070098567e-01,3.488310207042112365e-01,4.555722114125898732e-03,-3.853659468485457623e-02,3.723028833438084273e-02,7.930577993392944336e-01
1.330623241952659519e-02,-3.974048579999461261e-01,2.085357403027960910e-01,1.254858720081364343e-01,-1.254061583315292938e-01,7.750540856776788612e-03,6.177228689193725586e-01
1.971735469094530735e-02,-2.995860913785782786e-01,3.061101928610348577e-01,4.830041917038137463e-03,6.055403801330042253e-03,5.204471149153944197e-04,5.249786376953125000e-01
-1.509095044174776912e-02,-3.154213668334353016e-01,3.126745505568139238e-01,-1.405547273818412218e-03,-2.760727872918796420e-03,1.542078479023300901e-04,5.441464781761169434e-01
-8.192847126121099305e-03,-3.122415121517034264e-01,3.122553567656536910e-01,5.870491459782392315e-04,-8.334550905434690363e-03,-2.895756787946788310e-03,5.411091446876525879e-01
-8.699622343355306597e-03,-3.166098513713017648e-01,3.139732452930290019e-01,-1.371608452018505326e-04,-7.526320146631851164e-03,-2.749787636568321991e-03,5.463272333145141602e-01
-1.690343494249376896e-02,-3.189749018961994254e-01,3.141607232301843466e-01,-2.390893572321601841e-03,-9.347023999639278999e-04,7.950847243546174583e-04,5.485228896141052246e-01
-1.979104968031708198e-02,-3.205839965882541498e-01,3.153432904557195715e-01,-9.802183922761192880e-04,-1.040524899692021974e-03,-1.824202315485943496e-04,5.510024428367614746e-01
-1.779823267968368150e-02,-3.195067186793174585e-01,3.154276875090180066e-01,1.613002299792294309e-08,-6.226975636776296017e-04,-6.078771022148577472e-05,5.500961542129516602e-01
-1.294253537109120097e-02,-3.166608072596290291e-01,3.124703205223376967e-01,2.217382861951229902e-04,-3.504422270061248196e-03,-1.428473117402168698e-03,5.449910759925842285e-01
-1.644161360391675764e-02,-3.191651589994498051e-01,3.154770290577418868e-01,5.673315787497617446e-05,7.937168933114832113e-06,2.236232499190895880e-10,5.498101115226745605e-01
-2.574714192139369168e-02,-3.147227430272605542e-01,2.931016956506826698e-01,1.250962858017676651e-03,-3.587171025548635799e-03,6.163910533227565276e-03,5.267525911331176758e-01
-1.172281300137415286e-02,-3.413350288246622677e-01,3.659057259784439520e-01,-1.649304585896568462e-02,-9.030805435732588288e-03,-1.099998861610974876e-03,6.138263940811157227e-01
2.512247564997901333e-03,-2.193944350514344943e-01,2.840728922211994134e-01,-4.266065110757122532e-03,2.887439964678994563e-03,1.722326876195571111e-03,4.371357560157775879e-01
3.487251540994933119e-03,-3.188810246586176178e-01,1.923244511756803943e-01,-2.216368592144370240e-03,2.395545513169881815e-03,2.018867802756633620e-02,4.491220414638519287e-01
4.102388042009739652e-03,-3.130536134391728731e-01,2.947030262355272434e-01,-9.834690201349167906e-04,4.626264285517217231e-03,-7.939719849677683494e-04,5.265656709671020508e-01
-3.079688161157972948e-03,-3.128353754665536557e-01,1.468780668022393321e-01,7.499974429139545044e-04,1.760948167273603416e-03,-4.980725858422599579e-03,4.061669409275054932e-01
1.369039277704063584e-02,-3.128877007499632490e-01,1.151026229202498086e-01,3.035274830987055123e-04,1.328570777302953698e-02,7.165189492400893256e-03,3.882531821727752686e-01
-4.779538066246273066e-03,-3.128590980739443528e-01,2.972771396268172328e-01,1.566160410809190520e-03,-2.941782241269880367e-03,5.361240551744002672e-03,5.285151600837707520e-01
-1.707602313683140131e-03,-2.847194083203161141e-01,3.017356496421297329e-01,-3.165908286910640475e-03,1.422439987086364897e-02,-1.064935955907896949e-02,5.089487433433532715e-01
5.716554835545807449e-03,-3.096672363664963457e-01,3.004455424326382129e-01,4.430658181127423469e-04,3.603490530179297591e-03,4.079257764864873022e-03,5.285587310791015625e-01
-2.867105230981257039e-02,-3.508218991209762216e-01,3.610970432393685869e-01,-2.685935922060286168e-03,-1.500950206504175245e-02,-1.482465100521699643e-02,6.185638904571533203e-01
4.399613678965196700e-03,-3.113534262832410859e-01,2.916377370637683319e-01,-5.374507752140681924e-03,-1.580963210450999842e-03,2.705287003690126559e-03,5.225113630294799805e-01
1.769560229334709960e-03,-3.089927849431974849e-01,2.975740400204380243e-01,-4.037569409204838818e-03,3.403668813918580855e-04,-1.097715814085124374e-03,5.254058241844177246e-01
6.778857923870952075e-04,-3.040403471915468780e-01,2.975864461160738772e-01,-2.452557010611742389e-02,7.795899398471612708e-03,-1.592992004774031970e-03,5.229491591453552246e-01
-1.591196907311660108e-02,-1.538771273019130248e-01,2.910978258698838639e-01,-6.950799455829703710e-02,1.099455274234465048e-03,-2.710834743191018609e-02,4.151485860347747803e-01
1.310208670292266342e-02,-2.750916619387218653e-01,3.117851107206787709e-01,3.030385785085544167e-02,2.190799060498082457e-03,6.175969546678684863e-03,5.111061930656433105e-01
2.799425053402752536e-02,-2.868766245558569405e-01,2.864521346224900289e-01,5.746957244683143125e-03,4.810707566797711824e-05,-1.139155418271184600e-03,4.974213242530822754e-01
-1.452000141065702687e-02,-1.535221337267101138e-01,3.284498388598369178e-01,-6.499259222008220427e-02,8.255683224135390574e-03,-2.976893821714327037e-02,4.473908841609954834e-01
-2.406381005498375164e-03,-2.427895072856949832e-01,2.907061146917160332e-01,1.137068890552401373e-02,1.169723290281581875e-02,-2.090736836842349046e-03,4.636482894420623779e-01
-2.948135091794383544e-02,-3.087938984403038045e-01,2.875978102010860460e-01,-4.389483422044997488e-03,-1.635646416646248900e-03,-6.351400986994934234e-04,5.169003009796142578e-01
-7.043948301434857506e-03,-8.157577678636721008e-02,3.321193078231610141e-01,-5.883277270134684711e-02,9.858522473332848382e-03,-7.867263788632984645e-03,3.958867192268371582e-01
1.867992439044211320e-02,-2.993613878533313288e-01,2.971397417839073407e-01,8.058069088602669641e-03,-2.634223117012264668e-03,-2.699856184004163513e-03,5.171937346458435059e-01
1.749952978544839707e-02,-2.626466665749572771e-01,2.739006779935986846e-01,2.586866959371767524e-03,-4.116630415228364308e-03,-1.442516356496641909e-03,4.648982882499694824e-01
-2.225959371055255542e-02,-3.157565066665563025e-01,2.804527334195333621e-01,-1.271129671020522489e-02,-3.348350110359444610e-03,-9.950397738597753852e-04,5.168575048446655273e-01
-2.845631300165970753e-02,-3.167610736114884196e-01,2.990115440301047700e-01,4.550526563442787269e-03,-1.051504597585095797e-02,2.271884328888338061e-03,5.340175032615661621e-01
1.977819461646424665e-03,-3.044698328352294370e-01,2.912608978400984538e-01,4.646552386250260049e-03,-1.910883192178668968e-03,1.114628214032573235e-03,5.160663127899169922e-01
-4.288683603925581844e-02,-3.020577826079137163e-01,2.782593380881470124e-01,2.607684820053826798e-03,6.922705210323027358e-04,4.292470390025688665e-04,5.035459995269775391e-01
1.780232695017956723e-02,-3.008628255593120970e-01,2.868991934395008769e-01,8.060665577389375738e-03,-3.106892098443420069e-03,1.440653269205555056e-03,5.098455548286437988e-01
2.575814370044593113e-02,-2.823740609985486150e-01,2.801026688070569759e-01,8.577869554244242634e-03,9.222563573562414822e-04,-8.602772053605631936e-04,4.880920350551605225e-01
-2.167191511873923712e-02,-3.331895999369142158e-01,2.985917297774060009e-01,3.725471603980865052e-03,1.872106626871286117e-03,6.479898298299285875e-03,5.473188757896423340e-01
2.261071449027760721e-02,-2.844610340119226866e-01,2.871896727602312183e-01,-7.520187946783371546e-04,-4.532355151449084674e-04,-1.160852435342058333e-04,4.955221116542816162e-01
-4.021006725590584030e-02,-1.938766920442252240e-01,3.036928450299876681e-01,-1.000751822865941212e-03,-7.027340291622395478e-03,-2.662066803292152325e-02,4.438537955284118652e-01
-9.751844526596900598e-03,-3.319903800080469813e-01,2.808699817665488707e-01,-8.752304270872198616e-03,2.722485839767881804e-02,2.752356070297840365e-02,5.354197621345520020e-01
-6.632952075651713311e-03,-3.084169906635016445e-01,2.999157973791982124e-01,-4.501179134703895725e-03,-3.886862905049721408e-03,2.103968487239491706e-03,5.269502997398376465e-01
-4.994919659994539324e-02,-3.066521626351212393e-01,2.971537053920972893e-01,-1.815024404610623369e-03,2.493855308441956728e-02,-5.060145630612377515e-02,5.338879823684692383e-01
-1.495920847785114915e-02,-3.313919433951979521e-01,1.984633217253051751e-01,1.195631452502991451e-02,-6.687964189177835091e-03,2.546418083234252769e-02,4.644578099250793457e-01
-1.310847990936903767e-02,-2.305068419793517287e-01,3.042534089337512460e-01,-7.109777600155904424e-03,1.483481106314426222e-02,-1.297097299593645559e-02,4.672164022922515869e-01
-3.132811712414221295e-02,-2.189311152996482601e-01,3.058708266663632824e-01,-2.341846566176797578e-03,6.166530820760097835e-03,-4.529858594918232534e-02,4.673798978328704834e-01
-4.456495090646812179e-02,-3.064511268859123616e-01,2.306796106838703841e-01,-1.331036663267203815e-03,-1.272544920749550668e-02,-1.571157208788285435e-04,4.657444357872009277e-01
-2.537873012361741704e-02,-2.118204415682534147e-01,2.994563077560720710e-01,-8.675066620330476597e-03,-1.049472518407892907e-02,1.738058987668080618e-02,4.497816860675811768e-01
-3.396106173248575073e-03,-3.142120761889621305e-01,3.046299513132186276e-01,7.778056709408840905e-03,1.223230894791660535e-03,1.290488014792929043e-03,5.361129045486450195e-01
-2.496092740451037045e-02,-1.794893698564284101e-01,3.026344752353573586e-01,2.637154715975763633e-02,6.149039587809435915e-03,3.649407363176142283e-02,4.336079359054565430e-01
-2.746193729229984629e-02,-3.139595171200419421e-01,3.145537695887561935e-01,-2.387004201872067969e-03,2.275844704579483636e-04,-1.924784764930322122e-03,5.450418591499328613e-01
5.792775772884611353e-03,-3.037048895997723208e-01,2.977891167378437509e-01,-6.136771907936961357e-04,-6.304257234217388282e-03,-5.429413543389182513e-04,5.210989117622375488e-01
-4.417038608819348622e-02,-1.363267839367255374e-01,3.030881624039765687e-01,-4.336077896417944895e-03,-4.396723729326320641e-03,7.003676233509755281e-03,4.016776680946350098e-01
-3.915921502109344365e-02,-4.179544900018380416e-01,5.205709628607029238e-01,9.505883285355493095e-02,-2.242950562630239772e-02,-1.398459957390950532e-02,8.354707360267639160e-01
-8.536892584634983572e-03,-9.068315986008446128e-02,2.951586192792657881e-01,1.263550092297276162e-02,-8.807952518076202567e-03,8.154124460027945432e-04,3.530440926551818848e-01
1.910216853273141377e-02,-3.017107536563187753e-01,2.925560231769535613e-01,-3.000344308827323798e-03,1.611474829145307427e-03,-2.867425708055184631e-03,5.152522921562194824e-01
-1.071801852804654676e-02,-3.219837483033091696e-01,3.530499611889519884e-01,5.171830591019825618e-03,2.867429165383333662e-03,2.942060129343736057e-03,5.852972865104675293e-01
-2.286576844369798273e-02,-3.121322583411037521e-01,3.103420849450994612e-01,3.502216111209494574e-03,-2.954508524087262090e-03,-5.064813326030756686e-03,5.396558046340942383e-01
8.088804816761597377e-03,-2.698109997976692598e-01,2.832856536052221763e-01,-4.197374852580960936e-03,-4.928272072392307461e-03,-6.475394557319064581e-04,4.791301786899566650e-01
-2.944182531630112204e-02,-3.409398857868798927e-01,2.977863867995805824e-01,-3.662764211774953253e-03,2.370740767822231490e-02,-5.514301645059757444e-03,5.548494458198547363e-01
-6.095395795952609358e-03,-3.118660054837331108e-01,3.261109738125154700e-01,-1.301818039983757523e-02,1.691099350802344799e-03,5.340411914248896844e-03,5.532072186470031738e-01
-2.646676043229802266e-02,-3.185777835642502054e-01,2.529596037299218225e-01,3.863672386939721003e-03,1.679197745822282387e-02,-3.168556440868171287e-03,4.959357678890228271e-01
-1.917450306400055038e-02,-8.813385805426551811e-02,3.142956718509014591e-01,-3.078028093965336567e-02,-7.305329876748211521e-03,-1.946606507896829832e-02,3.782760798931121826e-01
2.132621787777590899e-02,-2.948471507644362388e-01,2.842048921898541192e-01,-8.803431789153437059e-04,2.396744799307744256e-04,2.727284970370830088e-04,5.021839737892150879e-01
1.225647202549048735e-02,-3.072548763973680375e-01,2.934651093381085429e-01,-2.105914571811339994e-03,4.288081357483913142e-03,1.291604950854135245e-03,5.206617116928100586e-01
1.332824018705284184e-02,-3.032656977252566333e-01,2.887408292159977519e-01,-3.341312868353425985e-03,5.349599996227988145e-03,5.425349428485498919e-04,5.132231712341308594e-01
2.239408242716893829e-02,-2.781979220845369749e-01,2.829653095179930911e-01,-9.500681959418704609e-03,-3.344299521791598874e-03,1.542483814649660105e-04,4.867062270641326904e-01
-2.583001479229818029e-02,-3.140435348515670522e-01,2.969555091053715512e-01,-9.215720144072805497e-04,-4.721202592769688233e-03,4.434537993384099486e-03,5.295442342758178711e-01
1.674296812601201029e-02,-2.925674141272666673e-01,2.862743989032390246e-01,-6.962415424219739859e-04,-2.928800399835515024e-03,-9.740549124378028532e-04,5.017160773277282715e-01
-7.956594318548325731e-03,-3.238993699233552181e-01,3.018743510815103392e-01,-7.740176072423855629e-03,4.077888560057566295e-03,-5.469299219603838725e-05,5.421563982963562012e-01
2.046119939115349437e-02,-3.008886664662506760e-01,2.867827783291296284e-01,-1.718336685225273436e-03,7.104435644699225736e-04,-1.160103602312975756e-03,5.096957087516784668e-01
-2.668748708973255751e-02,-3.370531891992639695e-01,2.883119343520457178e-01,-1.504313764992385805e-03,4.067809603917453554e-02,1.067031158545250682e-03,5.461601018905639648e-01
-2.594167231115218630e-02,-5.038013869303548109e-01,9.225207763644921455e-02,-4.273052264973548064e-02,6.951079793981947141e-02,1.190421045967614624e-02,5.649759173393249512e-01
-1.990292209182301097e-02,-4.515443037587834607e-01,3.839897541697219752e-01,-1.204850855169942170e-02,8.357959633047168380e-02,-1.112537460229664002e-02,7.386093735694885254e-01
4.160587024893440053e-04,-3.151492002353781796e-01,2.925548128585506169e-01,-3.805304997604382587e-03,7.235065746985332364e-05,3.079538153260094873e-03,5.264857411384582520e-01
-2.991329792609815491e-02,-3.144726746391178773e-01,2.981272193444632346e-01,-1.445201452079405936e-03,4.091538086093105767e-04,1.950256489310924282e-03,5.309894680976867676e-01
4.947311514046141834e-03,-3.368669192018346470e-01,3.569360707910388397e-01,-2.115295539873402256e-02,-2.858110609614951045e-02,4.733135030494688665e-03,6.040761470794677734e-01
-3.289240568271243476e-02,-3.244249264060457549e-01,3.611126369843584705e-01,1.066104779212776344e-03,-2.217046974068535847e-02,-9.955829943078468424e-04,5.971410274505615234e-01
1.606403634602473346e-02,-2.923793459966345654e-01,3.008297292916907173e-01,-2.462383948092164519e-03,1.052999980877775479e-03,-7.298684584362190308e-03,5.140469074249267578e-01
2.818838412908879903e-02,-2.685384878774318418e-01,2.812796557152931753e-01,8.527109823128296157e-03,9.160377232597650922e-04,9.381444775667210543e-05,4.768874943256378174e-01
-4.300980259396296190e-02,-3.094204509079273580e-01,2.885538966647286929e-01,-3.144206351149772538e-03,7.348383346775500240e-04,-8.751890313572127916e-04,5.189169645309448242e-01
-1.646678678858262343e-02,-2.675671131333915431e-01,2.918404052662328385e-01,-1.768890796454580805e-02,-5.371942376270292044e-03,1.249471750639718874e-02,4.868412017822265625e-01
9.454185586609853073e-03,-3.029030133356409582e-01,2.976808165429721265e-01,-1.179739520561362207e-02,-5.921329519298919319e-03,2.373211343446763721e-03,5.207791328430175781e-01
-1.477475861651749746e-02,-3.165976707381559785e-01,3.012175527671200337e-01,-1.878221134181411005e-03,4.290467993666324486e-06,6.602414082431400273e-04,5.351017117500305176e-01
-3.043800874893320269e-03,-3.119424838723524607e-01,3.814934661820386097e-01,2.764370159326754936e-02,-6.850712287588849557e-03,-3.306401927958949744e-03,6.037685871124267578e-01
9.355565031321677605e-03,-3.442402222987436256e-01,3.998578385136264401e-02,3.385537356129630221e-02,-5.508378379391266205e-02,3.815744652077442817e-02,3.920562565326690674e-01
-2.225429895226534172e-02,-3.591710549252485341e-01,1.408742864483887580e-01,4.805979266534784848e-03,-6.236812806081704075e-02,1.337314026438951933e-02,4.553677141666412354e-01
-1.527974667398428535e-02,-3.138735283669016884e-01,2.951066708915045522e-01,3.955556867907130542e-03,-5.843022053462546689e-03,1.773721267334412008e-03,5.275757908821105957e-01
1.602387373060616682e-02,-3.015422138620978965e-01,2.889531573904421946e-01,-1.523122939810697381e-03,3.186671845466765469e-03,-1.478460019658655146e-03,5.119137167930603027e-01
-2.857438348836910391e-02,-1.966928454773188006e-01,3.617396123713754741e-01,8.928798749713047489e-02,-3.076935238078057355e-02,2.692252323731838398e-02,5.245565772056579590e-01
-1.408203528895393686e-02,-5.672764291507540468e-01,2.230467271619218650e-02,4.171312407978580716e-02,-5.129236645635344705e-02,2.774348230030289700e-02,5.855755805969238281e-01
-9.016989852972223662e-03,-5.039420064385545794e-01,5.624947234883068137e-02,-1.594729266990885935e-02,2.537195333944903403e-02,2.120904981969878172e-02,5.343745350837707520e-01
-1.364957633854536542e-02,-3.182815278754048682e-01,3.045740450618686923e-01,5.116405244371762494e-03,-5.663398195045531852e-03,1.032862597483055062e-03,5.396164655685424805e-01
-3.005141698036353781e-03,-3.453082802900329096e-01,8.726548323531618800e-02,-5.321243178318207229e-03,5.183889038039947439e-02,-1.630652170296991799e-03,4.054317176342010498e-01
3.837064341016944991e-03,-3.074998119397857610e-01,1.413463955514232262e-01,-1.643092630773153621e-03,-1.850374737975808356e-02,-4.266458167524148082e-03,3.996762037277221680e-01
1.854551618910566316e-03,-2.935555887347851001e-01,2.994227664375483378e-01,-1.944488550256604290e-02,3.930888430747414737e-03,-2.197636051955218113e-03,5.146977901458740234e-01
-1.941420473588421208e-05,-2.827328902920003828e-01,2.889975709719027064e-01,-1.622835934016017946e-03,-7.082871594079275489e-03,-1.538389415001395260e-03,4.953102171421051025e-01
-5.290581758395328238e-03,-3.120377731851317615e-01,1.389251190505676192e-01,3.139266734614674578e-03,-2.860297112469095335e-02,5.434740000770659114e-03,4.021222889423370361e-01
1.248385445599872225e-02,-3.044507253027071147e-01,2.916038309552563268e-01,5.042049184588562154e-03,4.954573484894278496e-05,-2.022358046152924072e-03,5.166302323341369629e-01
-3.477825183847937235e-02,-3.180286626516743431e-01,2.685269538866454364e-01,-7.012661466875270110e-03,9.313506380693038766e-03,2.080420183025796267e-03,5.084848999977111816e-01
-1.146037600981425139e-02,-2.739121073761898173e-01,2.978009910363075274e-01,1.844457392783510966e-02,-1.474577569436582615e-02,-9.954643855237081673e-03,4.976543784141540527e-01
-2.664426680660903629e-02,-5.547909144920033508e-01,5.052858070091433840e-01,-2.993740418143552018e-02,7.497075663633875897e-02,-3.193651314240996547e-03,9.286586046218872070e-01
-1.297659030478125891e-02,-1.726788785377235680e-01,3.035351168032356939e-01,5.839972368093823696e-02,1.921816797039195210e-02,-6.180385018607334469e-02,4.461287558078765869e-01
4.979746900988086394e-03,-2.046277812463897228e-01,2.815829257890959947e-01,-5.293256464821753660e-03,-7.717582707266773534e-03,-1.173832929015117092e-03,4.227169454097747803e-01
1.436024047296021941e-02,-2.498541446983910119e-01,2.942102501735837650e-01,-2.908187082307917351e-02,-1.520829331381255787e-03,1.099846734558061756e-03,4.739340543746948242e-01
2.460577011330359123e-02,-2.211757062424127285e-01,2.977571777878125214e-01,3.317894969090030149e-02,-5.990634447458239621e-03,-7.911605306068063628e-03,4.536008834838867188e-01
-2.776289756073719445e-02,-3.193934275368511821e-01,3.084658336024279635e-01,3.717451909101504234e-03,-8.000047454499921787e-03,2.585614784692211350e-03,5.444319844245910645e-01
-9.158391943687919576e-03,-3.766575774644869701e-01,4.042437901771852027e-01,-4.650241497883000202e-02,-6.596007631543487904e-02,-6.921154584003479798e-03,6.910610198974609375e-01
-3.020367952533307629e-02,-3.170527174423045658e-01,2.303650284233509371e-01,8.842798319971048593e-03,1.021751907180403970e-02,-1.030715768686548198e-02,4.751724004745483398e-01
2.504005612052719043e-02,-2.875239539090402308e-01,2.822890796394309509e-01,-1.405870487738910277e-03,-3.014239081856166964e-03,1.142756809666027400e-05,4.942805767059326172e-01
1.002236252125654307e-02,-3.017016334739285321e-01,2.924250633514214881e-01,-1.280589167835865865e-04,-2.425444357176506811e-03,8.593313170775581820e-04,5.147569775581359863e-01
-8.603630740553008804e-03,-5.351823195140041900e-01,3.252367460871222193e-02,-1.531609975786888886e-02,1.095654916816247298e-02,3.858926085693320518e-02,5.533214211463928223e-01
-1.873631861127988962e-02,-5.172923859887519349e-01,2.008599725656318169e-01,-3.121560935201116507e-02,9.403972690833442560e-02,7.141233705547992729e-03,6.602032780647277832e-01
1.879304992575816374e-02,-2.888424278300154024e-01,2.831451281160737854e-01,-1.994825671524763297e-03,-6.182802302781114897e-04,-1.002069565998120134e-04,4.958415031433105469e-01
-3.878239417446860404e-02,-3.146557456790925467e-01,2.985047958444985161e-01,-2.031198140278776560e-03,9.928411284796210753e-03,3.530868123737318943e-03,5.322244167327880859e-01
1.866974445742185587e-02,-2.916707585532112845e-01,2.887041262307953882e-01,-1.011821374018162349e-03,-6.086233982517452734e-03,-4.511223371494226192e-04,5.031373500823974609e-01
-4.421209971957477253e-02,-3.804521627380086368e-01,2.158688861436151574e-01,5.932366107056627133e-03,3.309305650280297550e-02,5.041199859476389739e-02,5.283600091934204102e-01
-6.651073087618222107e-03,-3.069234956304113249e-01,2.965208110628298477e-01,-1.754464153569501150e-03,-2.006639433782367342e-04,-4.570206107804228595e-04,5.226096510887145996e-01
-3.275568019112651275e-02,-3.189151468980495063e-01,2.817700427369205785e-01,3.194995465165366682e-04,1.912303746613631256e-02,-7.239539845724791978e-03,5.216059684753417969e-01
2.748759504120421721e-02,-2.818880197234536755e-01,2.812895773396008603e-01,2.937018474298057867e-03,-1.338085457567298917e-04,-1.192813545226807746e-03,4.885479211807250977e-01
1.422128530906952015e-03,-3.036046795284090272e-01,1.152831052623558283e-01,8.250963198432456278e-03,2.746598260807955882e-02,2.003941034435815279e-03,3.784385621547698975e-01
2.868128927524781976e-02,-2.911382943779919352e-01,2.805563347318599798e-01,5.402379964838451010e-03,-1.555303025423098590e-04,4.490398219613701510e-04,4.963551163673400879e-01
-2.776634139192506526e-02,-3.781693631108931641e-01,3.616021353786906811e-01,5.153156483595017212e-03,1.196626039893695925e-02,-1.973714286217615962e-04,6.413543224334716797e-01
-4.220416277901580665e-02,-3.167989032733931620e-01,2.645375823574109275e-01,7.106793613356091749e-03,4.979135197049093520e-02,8.277923951697473397e-04,5.111883878707885742e-01
-4.634179138677069210e-02,-3.032371168705912390e-01,2.881004833293103751e-01,-3.241035182897219688e-04,4.487290349226873663e-03,-1.032171596249156298e-03,5.136413574218750000e-01
7.659120271866480013e-04,-3.110783333418979946e-01,3.060958416446247776e-01,7.131460906652291494e-03,1.273612101623576012e-03,-4.966612738970401821e-03,5.347148776054382324e-01
2.471062915421303602e-02,-3.008416384980864833e-01,2.852583449334135102e-01,9.051178181373730272e-03,-1.144665976895316165e-03,1.165259906893655311e-03,5.088664293289184570e-01
-3.649572805471782561e-02,-3.041555494785192493e-01,2.614055551240954678e-01,-3.025553406178464397e-03,3.742774901967806361e-03,-2.785252077156460688e-04,4.900947511196136475e-01
-2.085608336334408841e-02,-3.393792512619751567e-01,2.799871905077281897e-01,9.380920112139333467e-03,1.145948383545087462e-02,-3.159142491039457559e-03,5.371006727218627930e-01
-1.797500437814888649e-02,-4.701752499880827996e-01,4.268468226128180887e-01,-6.594352077027693625e-03,9.548610213889641152e-02,-3.073580043214558036e-03,7.943624258041381836e-01
-2.311919399887480547e-02,-3.141531862090297667e-01,2.156215394565459964e-01,-1.198314805842559325e-02,1.127799765535435206e-02,-6.627832489548506935e-03,4.605689346790313721e-01
-2.572162041650313813e-02,-3.173225483920160683e-01,2.948251646737882203e-01,-1.657424316745127963e-03,-6.946518652674003869e-04,1.592986185521485935e-04,5.303422212600708008e-01
-2.645926567372442698e-03,-3.018086980159876420e-01,2.993065085599663777e-01,-1.553325502302462359e-03,-1.094701648355817826e-02,-2.798439714618413602e-04,5.209352374076843262e-01
-1.728662110575212782e-02,-3.191394731594988654e-01,3.030219709201792955e-01,-2.084230658200591970e-03,6.570618720108110152e-04,-1.035949028768105504e-03,5.389029383659362793e-01
-3.770567117503030585e-02,-3.071388062883785852e-01,3.042785542212570471e-01,-1.784481576542217701e-03,8.894147848020127894e-03,-2.764102386848786997e-03,5.309982299804687500e-01
-3.909628574004363200e-02,-3.078594505047807517e-01,2.933651887387037083e-01,1.590436962033185079e-03,-7.174496961822332541e-03,2.390396105929813459e-03,5.218206644058227539e-01
-2.044731705264584559e-02,-3.196432226543616251e-01,3.010172641766703516e-01,-2.581492261828730039e-03,1.330186593892952089e-03,6.589508722483824067e-04,5.376477837562561035e-01
1.554205636366531168e-02,-3.097488471446501190e-01,2.940996960066170063e-01,1.079880949404395801e-02,-7.123909137356084723e-04,8.390186613610757906e-04,5.238074660301208496e-01
-2.012849241967261046e-02,-3.159085623005823407e-01,2.961429065705508124e-01,-2.549743518766336894e-03,1.737343530088073830e-03,-4.010478810827923079e-04,5.301785469055175781e-01
-2.171544246340079143e-02,-3.116805097582300843e-01,2.841543401847878014e-01,-4.719218623175280326e-03,-2.822455335609993978e-03,-3.541740832649903706e-03,5.161937475204467773e-01
-3.353164143117261242e-02,-2.208679559515349389e-01,2.925227593481114496e-01,1.275830867566255964e-03,-8.925468955237596258e-03,-3.225947358655385181e-03,4.502924382686614990e-01
-2.825161098969286577e-02,-3.086839301961799009e-01,2.942410009194569298e-01,-2.171200956196500751e-03,6.124969300281933723e-05,-4.136208055119971680e-03,5.226342678070068359e-01
-1.135815792375154121e-02,-3.264684828901213698e-01,2.079388167129300191e-01,-9.965054439689409113e-03,1.626253048118882216e-02,2.139621406016319408e-02,4.679242670536041260e-01
-1.265214229829602494e-02,-3.294672055123114007e-01,1.891102861078510500e-01,-1.009398178247434587e-02,1.501171044502002880e-02,3.082084835839335804e-03,4.538848400115966797e-01
-1.618931431760729789e-02,-3.138040569606191377e-01,3.125249625253059826e-01,-8.474333054276393185e-04,-1.345089254998877749e-03,-2.066567357452243642e-03,5.426584482192993164e-01
-2.178631700035084037e-02,-4.367331909778644494e-01,4.220928087177028276e-01,-6.034220902278789045e-02,4.568944463070710379e-03,1.564309481834257401e-02,7.517420649528503418e-01
2.212275304789634855e-02,-3.024763903614726690e-01,2.847229477754665838e-01,-5.822568483594877872e-03,8.214901075319365042e-04,1.606718258890987025e-03,5.095829367637634277e-01
-2.330033424110897894e-04,-3.059777388281376131e-01,2.978483238132526023e-01,-5.780056885521426364e-04,-5.611766852500478867e-03,-1.496110114572948065e-03,5.230404734611511230e-01
1.443179526978189374e-02,-3.057409618260440443e-01,3.082575740039563694e-01,-1.099326253912827171e-02,3.108339397035575317e-03,-5.725347937346068374e-03,5.323618054389953613e-01
-2.221316256910680839e-02,-3.113344365209175790e-01,2.394034115542086338e-01,7.793602305686844062e-03,1.407321253602600080e-03,2.612533736577473276e-03,4.773697853088378906e-01
-2.650370745322997573e-02,-3.164409178383565391e-01,2.136278914100687709e-01,-6.814749225961067719e-03,1.868124749828780837e-02,-2.306599923418738499e-03,4.610337316989898682e-01
-1.349515466828786481e-02,-3.158369628412592833e-01,1.801279552455830324e-01,1.335425170576915984e-03,2.929700360897295394e-02,-4.072447175358273781e-03,4.359712004661560059e-01
-1.188367167680615122e-02,-1.686861272701157821e-01,3.310843171092261450e-01,4.301140323950148475e-02,-1.714151333031471366e-02,-2.556905162708533741e-02,4.520896375179290771e-01
-1.308532794801487570e-02,-3.261721589991120052e-01,1.438849061414206598e-01,-6.827836990438202261e-03,2.135582070470752603e-02,1.978725030989251024e-02,4.177212119102478027e-01
-2.203727780872595521e-02,-3.308460721731619203e-01,3.219742663258550186e-01,-8.642020391504336152e-03,2.230172298663059965e-02,1.682900930869439234e-03,5.671554207801818848e-01
-6.822537282837888573e-03,-3.502599378034437771e-01,2.096433445883080227e-01,-8.484834639197606429e-03,2.833128774863371765e-02,3.599006647698230893e-02,4.956400096416473389e-01
1.046032510632175644e-02,-2.871652436456045843e-01,2.888812772243600224e-01,-4.987315397156957472e-03,-5.387214600994462074e-03,-7.537046695993715071e-04,4.991270303726196289e-01
2.684097174173796785e-03,-3.189993390260326134e-01,8.939413366368825775e-02,-5.831460114102857487e-03,-1.727784026572413284e-02,-1.849544861521920311e-02,3.753876388072967529e-01
-9.504970152050193355e-03,-6.633808177382180538e-02,3.264872245959190566e-01,6.037859769146929068e-02,1.704523236244655932e-02,1.467300673939320871e-02,3.842791616916656494e-01
-1.063706504764840716e-02,-2.768275927282747295e-01,3.598619909892858404e-01,-6.230265573433595161e-02,2.837560172293251970e-02,-2.670893116740978134e-03,5.664203763008117676e-01
1.331604134661518168e-02,-2.943031724242413105e-01,2.923371323568899061e-01,7.714800537831274264e-04,-3.216214297483135139e-03,-2.785846283882948641e-03,5.083017945289611816e-01
3.767884510561965092e-03,-2.548913954258058556e-01,2.978117189006888044e-01,7.580826314270569348e-03,-1.701596042164041714e-02,-1.386704349698786830e-02,4.806677401065826416e-01
-6.230911738792574428e-03,-3.193520238100813202e-01,1.420948852035545384e-01,-5.391954622793753218e-03,3.908159740106871213e-03,-2.984915631587578989e-03,4.082267582416534424e-01
-7.460742513478731130e-03,-3.142066882706991970e-01,1.956464214307257754e-01,-8.152749429338272333e-03,3.039534684063362885e-02,1.477391840397751857e-02,4.486353993415832520e-01
8.611426160602356217e-03,-3.114702103275260869e-01,1.100006062730204404e-01,1.672923732778555759e-04,1.325876194513047474e-02,1.183247139664388332e-02,3.822725713253021240e-01
1.895576561628787432e-02,-2.911386483956283633e-01,2.927215487140964467e-01,4.349277639938254648e-03,-2.382175845607142298e-03,-6.381988397848236891e-03,5.061575174331665039e-01
-1.856498095962862832e-02,-3.404047671819265819e-01,2.000750024740702848e-01,9.896451683125388407e-03,-1.994275202643410252e-02,5.051205314290945630e-02,4.805129468441009521e-01
3.516781957412758522e-03,-3.004741384811897564e-01,3.005503336428427263e-01,2.559685016299244418e-03,-2.182168673471831209e-03,-4.999052217303608624e-03,5.206186771392822266e-01
1.083130539134573994e-02,-2.850668287207910323e-01,1.738253627728402750e-01,-2.896659640563059232e-02,-5.306656212583230059e-02,4.245644374992287029e-02,4.227592945098876953e-01
-1.978945712979886945e-02,-3.105529599210805625e-01,3.018934100846902835e-01,7.436206460539310139e-04,2.368568795677599911e-03,-1.167765272965499458e-03,5.306406617164611816e-01
-2.355647521252561549e-02,-3.479209457471346134e-01,1.531703016843557474e-01,5.940291712562684526e-03,-6.340005445372570714e-02,1.226550646043723415e-02,4.542955458164215088e-01
-1.609494082307467641e-02,-3.162354077946858966e-01,3.104616549150239768e-01,3.610479218841750916e-03,3.324370723474140941e-03,-1.801488042621323749e-03,5.429717898368835449e-01
-3.995954608889308590e-02,-3.182090159234517435e-01,2.996158897314334935e-01,-3.481469499812159599e-03,9.748349902481519974e-03,3.322579430589474650e-03,5.362606644630432129e-01
-9.205994138622219936e-03,-3.169332715245303800e-01,1.422751700645704109e-01,9.174178545717845759e-03,-1.472051338834871881e-02,1.161068303264821064e-02,4.068961739540100098e-01
-4.202808259927107853e-02,-3.094349001760670625e-01,2.718387336980096491e-01,2.868667826050337708e-04,1.151895140981754745e-02,-4.007229430552234663e-03,5.043762326240539551e-01
-1.626998652255177980e-03,-3.116601259842814442e-01,2.115431220498095177e-01,-4.373438786148396706e-03,-2.084602844011783276e-03,-3.716267051136920747e-03,4.558110237121582031e-01
-3.490699486244923377e-02,-2.702737420514634836e-01,5.097161143836889119e-01,1.135737582231125947e-01,-1.311531661618138556e-02,-3.537920534421553492e-02,7.233022451400756836e-01
-3.601003990912239605e-02,-1.146201071659552484e-01,3.076191588177514258e-01,-1.341393466164313673e-02,5.584240316554402346e-03,9.492477816942257798e-03,3.900986611843109131e-01
3.064702242048114936e-04,-3.109340678613837228e-01,2.980178014309814438e-01,7.463018241734366114e-03,2.979890396686959986e-03,-2.144168149885915860e-03,5.276078581809997559e-01
6.765843076318389659e-03,-5.552703832799929518e-02,3.463166567038571397e-01,3.923774566656509921e-02,4.061238611325446168e-02,-7.172159185915265300e-02,4.066025316715240479e-01
-1.042147787854001695e-02,-8.885749731536782270e-02,3.092602239086430504e-01,-2.987140743269734236e-02,1.104562987153651261e-02,3.167090868966427469e-03,3.694538772106170654e-01
-3.378745487002501185e-02,-3.402321269103001367e-01,2.888030658629899272e-01,1.455350581295557428e-04,1.323261305745529644e-02,-2.215198969393029557e-02,5.466503500938415527e-01
-1.214121622151829658e-02,-3.083450898315278632e-01,3.118277208221097441e-01,-6.310325671768039074e-03,7.860821316521580254e-03,-3.312478939153059351e-03,5.375790596008300781e-01
-3.942508712555117811e-02,-3.074037870245998061e-01,2.890059736668301182e-01,-1.856116511822847458e-05,4.808994917335254228e-03,-1.961852181806638361e-03,5.174678564071655273e-01
-1.427742608237651811e-02,-3.487023179737606116e-01,2.331211400286615221e-01,7.302564608576514807e-03,-8.186914544570022753e-03,4.446625418935750557e-02,5.119327306747436523e-01
7.464228005953869177e-03,-2.829565978749677413e-01,2.900371001257972536e-01,1.767473994805482222e-03,-1.008367821180299051e-02,-2.380973091153564068e-03,4.965764284133911133e-01
-3.014845881238321923e-02,-1.632083426678772042e-01,3.362576255070461317e-01,1.568963989173390592e-03,1.221223481220745123e-02,-5.572356211414741800e-02,4.587836563587188721e-01
-9.109740013925997359e-03,-2.149033516075436467e-01,3.780170426698660213e-01,2.843779268885923694e-02,5.592542964991633475e-02,-1.284922792042991237e-02,5.330954790115356445e-01
-4.145942410831505651e-03,-3.067762020598991946e-01,3.000014713187105220e-01,-1.950693001269345611e-03,2.535612351638555318e-04,-2.760614870174720684e-03,5.255182385444641113e-01
-2.817071157241678864e-02,-2.039954763219444522e-01,2.336649537549621847e-01,-2.237357251555038146e-02,9.814388834227985581e-03,-5.534620275521370814e-02,3.955878615379333496e-01
-1.082948443325972314e-03,-3.008001933021015040e-01,2.945959644647537790e-01,-1.944636438516974706e-03,5.106265889801646016e-03,6.017562607781750447e-04,5.157200694084167480e-01
-3.340622861598807614e-03,-1.517140178387239025e-01,2.748568964337031462e-01,6.404105216570429859e-02,3.623548605221106611e-02,-3.633836640489249842e-02,4.011107981204986572e-01
-1.862021630688915144e-02,-3.186053529423455433e-01,3.059808157377545412e-01,4.716171612219666252e-04,-5.152929055033938230e-04,-8.059008117854695938e-04,5.410506725311279297e-01
-1.071546180297845013e-02,-3.040544412453721757e-01,2.975213737093974076e-01,1.336992788467100132e-05,-6.597239249779680847e-03,-6.178483691453704645e-04,5.211595892906188965e-01
-3.650909327464951087e-02,-3.028832354720144560e-01,2.816556805164559529e-01,9.691521657146533186e-02,3.800299515267763911e-02,-1.197708679483051875e-02,5.384009480476379395e-01
-9.217154811928793268e-03,-2.214533983103724180e-01,3.232849600412972535e-01,2.509061597605001873e-02,6.749850874565467562e-02,-1.916564309708655711e-02,4.927774369716644287e-01
6.306402834838208127e-03,-2.990527083327026991e-01,2.932037127113267250e-01,3.473776453049282043e-04,-4.869100374452033954e-03,7.577047477059201770e-04,5.130634903907775879e-01
-4.392804655335790995e-03,-2.484419893835527748e-01,2.850225453620997551e-01,-3.526898285125208265e-03,-1.037375474959310526e-02,1.649356169260257285e-02,4.638201296329498291e-01
1.107620982605994793e-02,-3.023707603387009724e-01,2.956928960980889642e-01,-3.396337159273496876e-03,1.724786503211371298e-03,1.096765626808326712e-04,5.181809067726135254e-01
1.054574745795561902e-02,-2.848338718159570959e-01,2.943176858725621847e-01,-1.050840761962530505e-02,-3.630717355279761225e-03,8.363875435886560352e-04,5.019651651382446289e-01
-2.378058282119990124e-02,-3.246564142051374113e-01,2.818764014406154872e-01,-5.290819560110745536e-03,9.723015486201381022e-03,2.489243830661624565e-02,5.273933410644531250e-01
-9.581678420245792749e-03,-3.136022689799359831e-01,3.006520135424539109e-01,1.289847468396317174e-03,-2.490678380225829630e-03,-2.455853041576642657e-04,5.319912433624267578e-01
-1.241774912543982395e-03,-3.051835213533570235e-01,2.965242429053411288e-01,-1.458081347334903854e-03,-4.386940886790084704e-04,-2.310013194690801433e-04,5.211101770401000977e-01
-1.900684107677611326e-02,-2.293347248251694226e-01,2.462595857625316798e-01,3.182287375817003522e-02,5.761343854958245192e-02,2.409951702321475042e-02,4.302736222743988037e-01
1.456788690158226929e-02,-3.089087656069777754e-01,1.048597029316465923e-01,-5.339874879052649778e-03,-5.031408729820897527e-03,-1.366690166047299267e-02,3.777815401554107666e-01
-2.549381921823311303e-02,-3.158509738688388135e-01,3.090880742235049272e-01,-3.294624464496354044e-03,-4.939171210199914128e-04,-7.571091672489709164e-04,5.416969656944274902e-01
-3.159326248346749910e-04,-3.180472246411776283e-01,1.649888364594158385e-01,7.161132253589343709e-03,2.004376139288293474e-02,1.160979066032696849e-02,4.272760152816772461e-01
-3.369042363095609005e-02,-3.106163239346065863e-01,2.978508311378434970e-01,5.548886862971753571e-04,-6.242142189650347513e-03,-6.854174219667979974e-05,5.277667641639709473e-01
1.315524829000945181e-02,-3.007724967721729370e-01,2.948425246169218972e-01,1.534356621478103746e-03,-4.014479207806686406e-03,-3.912918365701656062e-03,5.161677598953247070e-01
3.983228453955957142e-03,-3.029164724511080875e-01,3.035056967575748277e-01,2.763060729277720153e-03,-1.005547998452526598e-02,-3.831039214307706189e-03,5.255423784255981445e-01
-2.041694805050829967e-02,-3.148765243631516109e-01,3.039649378559966530e-01,-1.831428419528320954e-04,1.805146938545028248e-03,-2.224573560263601009e-04,5.361505746841430664e-01
-2.500105513920484676e-02,-3.122266025249135213e-01,3.007637628298932553e-01,-7.872563699000762394e-04,1.413620266125923145e-03,2.912087233479736898e-04,5.312224626541137695e-01
-1.888782213336265281e-02,-3.270170752553742677e-01,9.066212038845244958e-02,1.222300035342655314e-02,-2.205997618135656022e-02,7.536023329925965741e-02,3.995572626590728760e-01
-1.569043353290703463e-02,-3.112591176608898169e-01,3.054946650073185888e-01,-3.182887598808809958e-04,-3.074403857721738870e-04,-1.954366175783429395e-03,5.342892408370971680e-01
-1.614770424911309010e-02,-3.181743274085133688e-01,3.157148848963173271e-01,-3.084911748663034421e-03,-6.764960525776762823e-03,-9.956852323974958383e-04,5.493205189704895020e-01
-2.860342415548174089e-02,-3.440202305757694701e-01,3.486329324098519367e-02,-2.864905432380635344e-02,1.690369401911826289e-02,2.664399495119109187e-02,3.591426908969879150e-01
-8.226411612410004098e-04,-2.766261623320970253e-01,3.027025601749334105e-01,6.083991133498463377e-02,-9.126403445903806880e-03,-1.293504023300067092e-02,5.135803222656250000e-01
-9.968930262715725021e-03,-3.153081131425307104e-01,2.159921243002430047e-02,-9.038288278345910781e-03,-1.323824466513709962e-03,1.255140835642893325e-02,3.234045505523681641e-01
-4.356310573224275728e-02,-3.107220665456150166e-01,2.916915270832940998e-01,-9.956481728095492416e-04,6.813526698801102358e-03,2.459964763264653985e-03,5.229687094688415527e-01
-2.582797999877425518e-02,-3.069147857423140113e-01,2.991191996354936600e-01,-4.104280556637602412e-03,7.686783049265888228e-03,-3.045150512734152385e-03,5.255420207977294922e-01
-2.040924292538580376e-02,-3.126810485026865760e-01,2.482093932628010591e-01,-2.207530520506145646e-03,3.140380685728199478e-02,-2.774099958676225219e-02,4.912945628166198730e-01
-4.438493752282217375e-02,-3.025117802012093349e-01,2.706680758647311835e-01,2.201848230331106791e-03,9.597051468170593111e-03,1.548461041160488104e-03,4.975033104419708252e-01
-1.719724714505084170e-02,-3.132759899718456365e-01,2.202597197004455554e-01,-3.276663625072685077e-02,4.667921091803354378e-02,-4.674318006572082511e-03,4.734741151332855225e-01
1.920227199927408007e-02,-1.515745274399074305e-01,3.030261095007072969e-01,6.680435528308917292e-02,1.048575463960139996e-03,-3.298084359960933628e-03,4.142651557922363281e-01
-1.777440163993686262e-02,-1.345011821947924013e-01,2.867175575960555500e-01,2.659962920458696853e-02,-5.858653676128972379e-03,-7.783736231462350455e-03,3.798555135726928711e-01
-2.570134512682605704e-02,-1.612470524024364471e-01,2.968095837107000978e-01,2.385918450728185397e-02,-6.972915125820470031e-03,-8.309282996491616086e-03,4.100752174854278564e-01
-4.187957140059246630e-02,-3.024643715082205864e-01,2.952927867309086962e-01,4.158286789472072430e-04,6.088590275930393612e-03,-2.140335752405829201e-03,5.192081332206726074e-01
-4.263639525051411000e-02,-3.059434386074460499e-01,2.850775620875622418e-01,-1.852622374107132375e-03,-6.490114955170471370e-05,1.290128230253869551e-03,5.128661990165710449e-01
-3.100020116716488763e-02,-3.164137993143261163e-01,1.885597870457607628e-01,-6.049432704370720157e-03,3.614725987610739599e-02,6.370802870198120221e-03,4.432655274868011475e-01
-4.854497976881345239e-02,-3.100546559313853701e-01,2.887382379310123870e-01,-1.002063991477115988e-03,4.262455905181314515e-03,2.454095718167614241e-03,5.200247168540954590e-01
-3.624414090056482518e-02,-3.025670177934329796e-01,2.591621388532360237e-01,4.555794382436287662e-03,2.341318529869827487e-03,1.821068024511686857e-04,4.867699742317199707e-01
-1.597652583586616631e-02,-1.596789392925286044e-01,3.091896528715908921e-01,2.405861238097570590e-02,-7.534009254730408139e-03,4.816168516471610282e-04,4.183515608310699463e-01
-3.990775920436888391e-02,-3.114249450039341949e-01,2.923461821434366614e-01,-9.467414927915067868e-04,3.950375676618832904e-03,-1.556943081038268846e-03,5.238164663314819336e-01
-3.702158008919619048e-02,-3.053490577560056818e-01,3.004084186941811674e-01,-2.330826330703889438e-03,9.947560516010096887e-03,-8.712422056087964183e-04,5.260378718376159668e-01
-2.809926067103710873e-02,-2.611118885992448901e-01,3.164181694872307826e-01,9.756640307046251723e-03,-4.740830727376652530e-03,-1.027598952655139203e-02,5.039184689521789551e-01
-3.553216957306223195e-02,-3.129759172115676447e-01,2.864884779969790740e-01,3.331425251020799037e-03,3.946789540986351988e-04,-1.377124985581821203e-03,5.196675658226013184e-01
-2.430514484568641054e-02,-3.175917329641150255e-01,2.790124471943346562e-01,5.788313606349823441e-03,2.489326257041255073e-03,2.215151555059327333e-03,5.168281793594360352e-01
-1.749622205741388275e-03,-3.040124322545357805e-01,2.958119736971238090e-01,2.277459846065697606e-04,-1.244213767704809752e-03,1.439947449313721661e-03,5.194790959358215332e-01
-8.103374226720663071e-03,-2.888720402424592160e-01,2.656415130006664627e-01,-8.471668794862908039e-03,8.674922782247821915e-03,-1.214402711736948907e-02,4.811546504497528076e-01
-2.735961940795220496e-02,-3.558012342765730085e-01,2.664623594471222656e-01,-2.792469249557651828e-02,5.885925119176309284e-02,1.402792929299550434e-02,5.513905882835388184e-01
-7.498229380526999152e-03,-3.143980606153695123e-01,3.038427926837249937e-01,-2.384857713696320188e-04,-4.014601443249021274e-03,-5.812614449614813064e-04,5.354631543159484863e-01
-1.021159120914807983e-02,-3.104352789767237941e-01,1.379316881757592095e-01,-4.078723532806807599e-03,-2.384325380341349720e-02,-1.172330879468089053e-02,3.984024822711944580e-01
-2.535787819822098166e-02,-3.676753628260965856e-01,1.994002992540460095e-01,9.686066262461208269e-04,-3.206503468228009968e-02,-4.896825840751508827e-03,4.977905154228210449e-01
-1.668433521103897255e-02,-4.810761872078330725e-01,7.870218787094565571e-02,8.524880717641995787e-02,-8.200216066470998599e-02,7.608362810989420522e-02,5.730587840080261230e-01
-2.937927174560843804e-02,-3.131663486700325683e-01,2.923417772619750221e-01,8.129501253404795326e-04,9.970720458542566954e-04,-6.105755502687119180e-04,5.247341394424438477e-01
-1.943257980137047796e-03,-3.096560296629295439e-01,2.976767057836151031e-01,-5.269033247397994025e-04,-8.507231589039726961e-05,1.120192562506320492e-03,5.259855389595031738e-01
-2.100746332511611858e-02,-3.198614848259692667e-01,3.024504572606839248e-01,2.309017023789072722e-03,-5.768932154142393780e-04,-1.687823028346063315e-03,5.391020178794860840e-01
-8.527875485005151357e-03,-3.604265716735005065e-01,4.860355755552983603e-02,2.959893722532759217e-02,-5.782045696623233644e-02,3.475047922039058851e-02,4.043289124965667725e-01
6.590971933010447703e-03,-3.834288697154923931e-01,-7.137130479997561006e-02,-1.051917216789524786e-03,-2.958473618993704216e-02,-2.886522382662786573e-02,3.645757138729095459e-01
-2.126868637048909272e-02,-3.212997397245855868e-01,2.869750243397230505e-01,4.058190966002712431e-03,-4.727703183767521800e-03,2.935660034689273248e-03,5.269324779510498047e-01
-2.566272896646265567e-03,-3.281379175556182193e-01,1.020807958424392314e-01,2.397699141611154064e-02,-5.197505095029403971e-02,-6.009493873678207337e-03,4.011923074722290039e-01
-1.468469339394806034e-02,-3.119692801973036889e-01,3.018639656085009837e-01,5.231769709852695984e-04,-5.275109212356866081e-04,-1.920679645527970710e-03,5.316944122314453125e-01
-1.631701693620614402e-02,-3.159811928053308794e-01,3.087867552107690372e-01,-2.557130783877317672e-04,-2.562495008930586985e-04,-1.280880495749957444e-03,5.412192940711975098e-01
-3.948571399807201260e-02,-3.062614715028789125e-01,2.788715794823327654e-01,-2.609450088178504566e-03,5.360887156198223570e-03,1.583603016708359356e-03,5.075084567070007324e-01
-2.124269733675326205e-02,-3.173054826450524279e-01,3.081056164763195659e-01,-6.482910497334328165e-04,3.851342399676038552e-05,7.509811136173480178e-04,5.418802499771118164e-01
-1.873035524418133202e-02,-3.165224716896954393e-01,3.090487762561053287e-01,3.642037051073862655e-05,-2.360066957969420877e-03,-6.805764915459025163e-04,5.419847369194030762e-01
-5.706022768261662884e-04,-3.069256636986154585e-01,3.040133782713163590e-01,6.213578120002489482e-04,-4.374887860393187299e-03,-2.356189146367367298e-03,5.291605591773986816e-01
7.464967803973762868e-03,-2.930807394577203961e-01,2.992349724836067537e-01,6.471809144825820849e-03,-7.906563159479740310e-03,-4.816937046253389767e-04,5.132851004600524902e-01
-1.958184684847847842e-02,-3.178983964110860261e-01,3.109726687835612791e-01,-2.357176623359815858e-04,8.195312776131351415e-04,-8.030894563791678500e-04,5.448606014251708984e-01
1.258552696992988607e-02,-1.087928147938577728e-01,5.049420568880426119e-01,5.459955510728453643e-02,4.043829334238447509e-02,6.302018070750753723e-03,5.752193927764892578e-01
5.982181944177530908e-03,-3.484203017305665950e-01,8.762517849909140510e-02,1.163874099609795223e-02,2.434943698209843244e-02,-4.999778052174814677e-03,4.043034017086029053e-01
8.096812008100140456e-03,-3.056876764761745635e-01,1.206566658762472655e-01,3.606731591795479114e-03,1.435608308842850622e-02,-6.202639202116738085e-04,3.835471868515014648e-01
1.019081851919560744e-02,-3.503697582125541721e-01,1.336522178903550018e-01,-3.951469557037534143e-03,-2.977934719236577377e-02,-2.770831983696202261e-02,4.413303434848785400e-01
-3.982992102700635972e-02,-3.130655275951486072e-01,2.914853448619523224e-01,-3.901638231150379894e-03,6.218942157457638814e-03,1.975436706320201231e-03,5.245264768600463867e-01
-6.917692064255839823e-03,-2.043072348731901355e-01,3.625084863839553306e-01,9.431156913114792373e-02,2.378701378949889603e-02,-1.432669102173630147e-03,5.260673165321350098e-01
-3.263990305723355606e-02,-3.101436954376248223e-01,2.983652457451513307e-01,-3.614131471761088555e-03,2.977340680769285540e-04,1.749239105548555011e-03,5.277088284492492676e-01
2.849379593235906380e-02,-2.001802584941705376e-01,3.154199543402166905e-01,6.024847249281951173e-02,-7.782468789833589008e-03,-1.765858557793064862e-04,4.596764445304870605e-01
-7.222454393634430286e-04,-3.215082727083247160e-01,3.487721141507207911e-01,1.698635026458512887e-02,-2.639938705443214354e-03,-5.946352886440292931e-04,5.814210772514343262e-01
-4.120739901638501707e-02,-3.141972552225963944e-01,2.875067818990066359e-01,-1.118504834154496327e-03,2.339547075873609026e-03,3.676241058157580979e-03,5.218935012817382812e-01
-1.780437578220799011e-02,-3.160452485613811091e-01,3.125287883872178707e-01,-3.497700961038408864e-03,-5.028210713623092014e-03,1.460710721369183238e-04,5.447009205818176270e-01
-2.047117573607361643e-02,-3.119905339516909626e-01,2.949637872134397432e-01,2.123903168704682071e-03,1.154550618604881793e-03,2.827543734119539534e-03,5.258133411407470703e-01
-3.195909613643550806e-02,-3.092668619142633912e-01,3.571879888015163651e-01,1.125935805345971569e-01,2.440459520837785432e-02,2.615137264580691141e-03,6.132599711418151855e-01
1.055667302133734414e-02,-2.684318270224670400e-01,2.832324371060805923e-01,1.546931723508055030e-02,-7.610222523759818322e-03,-5.354205525132078348e-03,4.787877500057220459e-01
2.101174706433953099e-02,-2.814256111299648366e-01,3.222125675899303876e-01,4.249019089234974678e-02,2.875926003010478914e-05,-8.956733819292369767e-03,5.281491875648498535e-01
-2.929715453487777982e-02,-3.145470363407161241e-01,3.082040806243063757e-01,-1.105010311204341397e-03,2.372749477087109787e-03,-1.651132387631240074e-03,5.399773120880126953e-01
2.153814107641960005e-02,-2.991648305677664932e-01,2.911952477864801492e-01,6.566630074081218106e-03,3.953680270063112496e-04,-5.776346518609442844e-04,5.120312571525573730e-01
-4.714857896164029172e-02,-3.058455004207757955e-01,2.827187345334279955e-01,-3.547125073704898208e-05,3.338316041153818661e-03,1.976103180884301782e-03,5.109964013099670410e-01
-8.256911735276406192e-03,-3.061408313777987389e-01,3.181768632639708216e-01,1.377040231298074825e-02,1.332529227984663965e-02,2.521482569645564897e-03,5.418983697891235352e-01
-4.722708950888468427e-02,-3.037634266755309120e-01,2.920451381492046861e-01,9.166653183321925487e-05,3.566815626745002774e-03,-1.272959500117829251e-03,5.176825523376464844e-01
-3.626588950227484925e-02,-3.126604509827155542e-01,2.353378159152678117e-01,6.068003631983980538e-03,1.370637925000219720e-02,-2.985759289620440633e-03,4.753242135047912598e-01
-1.825690616103983754e-02,-3.368232422426939432e-01,3.071653359662256388e-01,-2.478158935276064678e-02,2.822429277368472197e-02,2.531427789548141780e-02,5.632116794586181641e-01
-4.624899641242434523e-02,-3.051044579367308551e-01,2.828313574728118507e-01,6.151158037092917816e-04,2.271954127613831902e-03,4.713318896001913809e-04,5.103935599327087402e-01
-2.300382117671677037e-02,-3.156895731967326868e-01,3.102642315480504398e-01,4.990173996600064284e-03,5.499003703641070894e-04,-1.470922462894040487e-02,5.431391000747680664e-01
-3.827681727609774653e-02,-3.069866249743804509e-01,2.898408362653138726e-01,1.375024559331435199e-03,1.409107565466062584e-03,-2.053529767507942302e-03,5.177440047264099121e-01
-3.873311355864274969e-02,-3.070092862785188115e-01,2.828076936999641133e-01,1.113114317522885489e-03,-2.474713400660491893e-04,4.973151698479538621e-04,5.114948153495788574e-01
-2.433089992476357433e-02,-3.842812871877137604e-01,3.763702353214265495e-01,2.991716900687594119e-02,-3.266903780103372346e-02,1.291711582566399492e-03,6.635134816169738770e-01
-2.357604467843551696e-02,-3.246210462513511863e-01,2.947051166953307821e-01,-5.639614916123260845e-03,6.946280556960323987e-04,-1.740743153887481208e-03,5.365201830863952637e-01
-1.697334703182197535e-02,-3.086574291604732290e-01,3.140304033403873429e-01,-3.144596492940608407e-03,-9.739731580059789867e-03,7.476913488557280314e-04,5.399143695831298828e-01
-2.911743927043645985e-02,-3.137164171690526859e-01,2.980946640208835818e-01,4.751694492227350234e-04,-3.893477292079011590e-04,-2.445972096815684626e-03,5.302901268005371094e-01
-2.870107482425769338e-02,-3.152719235771092587e-01,2.804779721659394487e-01,5.382213645455886063e-03,3.644918680987908454e-03,-3.455312352354072448e-03,5.162158608436584473e-01
-3.921057788738466915e-02,-3.095794732357433077e-01,2.300672085893945562e-01,1.327100690064603877e-03,1.829848594818947460e-02,-3.322989480900682274e-03,4.684624969959259033e-01
-1.318290384187549222e-02,-2.873082449722111908e-01,3.135831078665511917e-01,8.615770176061707340e-04,-1.399634790515232041e-02,-7.756909878658570581e-03,5.217911601066589355e-01
-2.934570909326495933e-02,-3.121431605032028433e-01,2.981073785200270554e-01,1.127543776217998029e-03,-2.629885222902154408e-04,-2.591750469514150518e-03,5.289867520332336426e-01
-1.932385008382288966e-02,-3.180302207390634517e-01,3.163514064406242610e-01,-2.480953551641567213e-03,-5.917018800601467517e-03,-3.493232847225418922e-04,5.498141050338745117e-01
-1.461789713316246492e-02,-3.184657788816182555e-01,3.014248104516511484e-01,6.567347040600142460e-04,-6.931808651054904456e-04,1.654509669133729082e-03,5.368857979774475098e-01
-2.162298966125894562e-02,-3.195402440043300651e-01,3.034362041387042574e-01,2.546577497206963490e-03,-3.038014316400935414e-04,-1.199845968418622802e-03,5.397063493728637695e-01
-1.358665379967834673e-02,-3.028740054839920148e-01,3.133137948528877392e-01,-9.782919992824884101e-04,-1.374425956230501678e-02,-4.973275553863202789e-03,5.345680713653564453e-01
6.050772066396345288e-04,-3.023503503560664440e-01,2.959640853470981714e-01,-1.176337022521761972e-03,-2.057539486277828924e-03,2.352706350386147595e-03,5.182017087936401367e-01
-2.189399917283503527e-02,-3.094243291209899938e-01,3.145101948553261639e-01,-3.082165637584937962e-03,-1.140161876300704868e-02,-1.052115574339940011e-02,5.415888428688049316e-01
-1.835016886086349511e-02,-3.183582229644869033e-01,3.038542572799354247e-01,1.162250405563718331e-03,-1.269441741911145425e-03,-3.963027116321452079e-04,5.389747619628906250e-01
-2.021563094413226375e-02,-3.187166083375223002e-01,3.041438077188539091e-01,1.110792607573268158e-03,3.640960400016791661e-04,-5.932880688545865040e-04,5.395726561546325684e-01
-3.806808698864003193e-03,-3.134893179219820913e-01,2.042054223901666743e-01,9.573958911527439067e-03,1.604977105823375940e-03,1.501114071986360239e-03,4.515302479267120361e-01
-1.144071547333710276e-02,-3.203510562406470807e-01,2.035665209690482591e-01,4.635401347800942491e-03,2.688433350354598687e-03,2.272858669970473627e-03,4.562601447105407715e-01
-2.017510980933912013e-02,-3.312400954935728059e-01,3.525738346282304425e-01,-9.685668315568713230e-03,3.813845743100409934e-03,-2.745989116200384713e-03,5.932959318161010742e-01
-3.323924670710617923e-03,-3.067264308872252876e-01,1.647755763122935591e-01,-2.449319170233757101e-02,4.164944104853852969e-02,2.742033647816936436e-03,4.223016202449798584e-01
4.804534836729532077e-03,-3.079223527251721548e-01,1.194381055395348501e-01,-6.720998614925154579e-05,-5.785154651654166426e-04,2.582321910566603724e-03,3.831565976142883301e-01
6.961906112582898210e-04,-1.938242405846110350e-01,2.806641214778062832e-01,3.137533702160801713e-02,4.904441163402523118e-03,1.231041338286337217e-02,4.173245131969451904e-01
-3.405436021249381995e-02,-3.512524985136751821e-01,9.303582412202157648e-02,5.376845718006437874e-02,-4.433775243380838615e-02,7.068302455896399716e-02,4.320165216922760010e-01
6.354836859348865497e-03,-3.032372135021739190e-01,1.303260968998814218e-01,1.019636283128193179e-03,3.963992595594145133e-04,-1.578273578444678053e-03,3.867915272712707520e-01
-2.233896375419964012e-02,-3.138497194811447621e-01,2.762560709713792195e-01,-8.467278476563666958e-03,-1.739388418496213944e-03,-6.971203788326696058e-03,5.114207267761230469e-01
4.761075435938128507e-03,-3.057045439744739412e-01,2.972183683360746231e-01,1.116574570293834461e-03,-7.154155428324540699e-04,-8.867171716437698093e-04,5.222315192222595215e-01
1.280211214893404829e-02,-3.094310532516537093e-01,2.914574524010261070e-01,-1.105104627895216705e-02,1.501893246781427996e-03,1.595808203879882370e-03,5.212060809135437012e-01
-4.355836783892928776e-02,-3.065658791146110285e-01,2.798041569434163156e-01,3.432681453693492857e-03,2.106717679191449694e-04,-1.480191670746994735e-04,5.087421536445617676e-01
-2.040280192090029865e-03,-3.611230547736938856e-01,9.480493366026615520e-02,-1.104940651532371199e-02,-7.446481801317525462e-02,-1.036289515674236432e-02,4.363695085048675537e-01
-3.708578950082996872e-02,-3.302227419109975415e-01,2.891148621267182195e-01,-1.228029266248905210e-01,1.103180760967138602e-01,4.352513866583009733e-02,6.126930713653564453e-01
-2.707896595228630882e-02,-3.138104434352890215e-01,3.110200548780336360e-01,-1.508072448036106320e-03,-8.594207911161028113e-03,6.462360907921668729e-03,5.420545935630798340e-01
-1.742802087400425332e-02,-2.151203724212388813e-01,3.522088538097302157e-01,-9.279547435885627041e-03,4.757160043060837396e-02,1.306839779635843649e-02,5.063081383705139160e-01
-8.555179581467573305e-04,-3.120018394838716125e-01,2.948161502372528275e-01,-5.365897093981318935e-03,1.545824670887937114e-03,2.526449174366981196e-04,5.256659388542175293e-01
-1.505699141339661776e-02,-3.288390615151099428e-01,2.661202540644315162e-01,-5.484575077033220294e-03,5.927282236596638845e-03,8.934583691268723968e-03,5.159295797348022461e-01
-2.005660776215030527e-02,-3.151551563797850286e-01,3.213858015924130340e-01,1.541347919537395310e-05,5.966187455267301255e-04,-2.343849335472313836e-03,5.517633557319641113e-01
6.639018224155407780e-03,-2.809657142228972337e-01,2.901376703954456904e-01,-2.919682264713517866e-03,-1.048466101337618139e-02,-1.342159232203417839e-03,4.949588775634765625e-01
-6.272601512506970067e-03,-3.286890637173874863e-01,1.956767140430556717e-01,2.850949404705370102e-03,-9.279709408557764577e-03,-2.043648656829286786e-02,4.597644507884979248e-01
-1.459196923559764533e-02,-3.120086806332122986e-01,2.973709980355795368e-01,-2.544393394568062079e-03,2.113528207325994848e-03,-9.370735370601157447e-04,5.278219580650329590e-01
-1.634317763965426745e-02,-4.670871022766082126e-01,5.067984154514255657e-01,4.609950700828299719e-02,6.222225688684909078e-02,3.003007426703783013e-04,8.547752499580383301e-01
-2.633912481276194217e-03,-3.135712505904801883e-01,3.154288068955526381e-01,7.258916028957989458e-03,-2.776348053191761422e-03,-2.790933704597284813e-03,5.449293851852416992e-01
-1.042013585127885694e-02,-3.154093607306230895e-01,2.060783960649851809e-01,-6.513536988842144777e-03,-2.368395541493275810e-04,4.844000216123232373e-03,4.540017545223236084e-01
-1.740677207139904037e-02,-4.297223052285660261e-01,1.867422919835026174e-01,9.520698876040910308e-02,-8.145170549991295750e-02,2.982474950774542666e-02,5.878942012786865234e-01
-4.146037594696518752e-02,-3.175779241724046575e-01,3.222789771486170296e-01,-6.514530824122164755e-03,-1.728229945871353861e-03,-9.248715081692318943e-03,5.562148094177246094e-01
-1.430936990658400118e-02,-3.149850262014405322e-01,2.653836403643865527e-01,-7.506683075136627711e-04,6.176807921928020612e-05,-3.306634755761555470e-03,5.027577877044677734e-01
-3.051974230885963479e-02,-4.412414660230071783e-01,4.889230495175319047e-01,-7.632388435650946934e-02,-2.186593661842453282e-02,2.520685561497091470e-02,8.201683163642883301e-01
-2.275609289996039647e-02,-2.353892862593542912e-01,3.294219074601829611e-01,7.848237963750471016e-03,-1.461090852524189222e-03,-4.305004646919397687e-02,4.998780488967895508e-01
-2.036097351264135741e-02,-3.226265322579942030e-01,3.028830691932292152e-01,3.709816999794046926e-03,-1.294823164955296235e-03,-2.092993747359536694e-03,5.418636202812194824e-01
-1.209825627694003335e-02,-3.109919258357919380e-01,3.091443195169462088e-01,5.677020394302099288e-03,-6.095460866892226000e-03,-3.459957542325333129e-03,5.373970866203308105e-01
2.554763310599977855e-03,-1.973555825243156758e-01,3.090740969327160359e-01,4.502189264952294323e-02,-6.073062286687366286e-03,-1.545881563918921967e-02,4.495587944984436035e-01
6.155561647482417006e-04,-3.026391932654902139e-01,2.923464827928833332e-01,7.534387232865504902e-04,-4.234448884562059916e-03,1.048141018815386362e-03,5.153619647026062012e-01
-2.707804938678557219e-02,-3.185683671212348744e-01,2.644749533807793651e-01,1.052042020097258661e-02,8.745860865160867258e-04,-2.809791995143864516e-04,5.052615404129028320e-01
1.376272765456029723e-02,-2.518579433510457211e-01,2.926016472782856925e-01,1.400198504567696026e-02,-1.013681390220336730e-02,-2.511583460534393998e-03,4.725317060947418213e-01
5.870416787731737307e-03,-2.435185119982090085e-01,2.866926141106430626e-01,2.970601884226303953e-03,-1.025235105929683116e-02,1.123610220921931937e-03,4.598211348056793213e-01
5.270633275443034962e-03,-3.066094994454720002e-01,2.981208922723277421e-01,2.791359473694811442e-03,-2.007280816727650529e-03,1.040365850395395071e-03,5.238352417945861816e-01
-2.712398018619843060e-02,-1.734825718421406648e-01,2.892718905369000559e-01,7.047395451193208364e-03,-8.351972908918365093e-03,3.621421994071076424e-03,4.101609885692596436e-01
-9.361828713418215986e-03,-9.757373144539072118e-02,2.907284323956964567e-01,-3.206382449426438408e-02,-6.335602494088312872e-03,3.291794170545305539e-03,3.571333587169647217e-01
2.529783841650262363e-02,-2.876831447978693834e-01,2.919868588234099671e-01,2.933497442387856570e-03,1.599444757810719120e-03,-2.686766078081470697e-03,5.025970935821533203e-01
-2.264727502554733651e-02,-3.195765797878566961e-01,3.041448991376821120e-01,9.177574714962777325e-04,-1.160049754376865682e-03,2.773799514301096038e-03,5.403923988342285156e-01
2.890555610538053655e-03,-3.219550585576745338e-01,2.618197437766801583e-01,5.687633005461313195e-05,-4.921137067151534240e-03,-3.621735432629021641e-03,5.067474842071533203e-01
-6.867527959129371418e-03,7.389228083268140068e-03,3.519650302923987284e-01,5.017000136991399753e-03,2.114135452381605759e-03,-3.587014146400960279e-02,3.574873208999633789e-01
-4.311590056878912558e-02,-1.110860629577208603e-01,2.808114234413683352e-01,-6.313540565797721472e-03,-1.949754953317521435e-03,-1.754859135968699730e-03,3.629138767719268799e-01
-2.148734572627927775e-02,-3.733591275963709655e-01,1.346250775386910459e-01,2.028055504940940237e-02,2.565916326256790017e-02,-5.312186654929065832e-02,4.634557962417602539e-01
-1.687673161944637165e-02,-3.190518338701722745e-01,2.718253140124144429e-01,4.211912256000289491e-03,-8.781517470612252478e-04,-4.955391261499503437e-03,5.118851661682128906e-01
-1.355313607845658186e-02,-3.149428260342340691e-01,2.301700201556680647e-01,-9.181359782492461499e-03,-9.018040387407725428e-03,8.124869652947317583e-03,4.736953377723693848e-01
-2.362095732971448286e-02,-3.100815828944333830e-01,3.045738591263179029e-01,-2.021241811153746287e-04,-3.017297016703067263e-03,3.493956622190494757e-03,5.327761769294738770e-01
2.836692425270329054e-02,-3.209359761197744243e-02,4.791601415761809202e-01,-7.135200802736160275e-04,3.725358940708463351e-02,5.177046869929547053e-03,4.882321357727050781e-01
-2.123186296000913187e-02,-3.082676398518429117e-01,3.026533397401994785e-01,2.056283879140132550e-03,4.544976992420509537e-03,-1.798007436478437499e-04,5.294644236564636230e-01
-1.398125682933992753e-02,-3.185862070747844110e-01,2.922335625849115659e-01,1.977006534513951665e-03,-2.163632875519825010e-03,7.922591897128701066e-04,5.290122032165527344e-01
-2.975439311750203986e-02,-1.180125730864945988e-01,2.905182086406428166e-01,2.782473304007438905e-02,-5.734512394817033870e-03,5.456181566809742423e-03,3.756878077983856201e-01
-4.422385270321335660e-03,-3.595023120919241255e-01,1.105756688944047328e-01,-1.699117006424998716e-02,3.470787962398568655e-02,4.506176089580120336e-02,4.367052912712097168e-01
-3.151194751309163711e-02,-2.984390938493534096e-01,2.109960032140320019e-01,4.947044737727073274e-03,-3.466454211584172815e-03,1.508860044986316644e-03,4.414843916893005371e-01
-2.441853052218733583e-03,-2.052607849264348472e-01,2.870582385931948477e-01,2.347513424888586497e-02,-1.504039370820723157e-02,1.203267529350225597e-03,4.312750399112701416e-01
-3.506304854512451441e-02,-5.699935971920541689e-02,3.138958959743728960e-01,2.695180412132107666e-03,8.822070761857191482e-03,2.764035437238111792e-03,3.608138263225555420e-01
-1.870866141232162966e-02,-3.192146090362583677e-01,3.007120370108398721e-01,1.291510719870525006e-03,3.144220427690466247e-04,5.483723721071857848e-03,5.370444655418395996e-01
-2.652217688053026129e-02,-3.313253352528650608e-01,2.014697971020256717e-01,1.054127593803705354e-02,-5.079442365546308485e-02,2.261648242616840984e-02,4.732716679573059082e-01
-1.276169738064370646e-02,-1.689851155623775247e-01,2.743166894325496097e-01,4.613553153027894448e-03,-5.740331554737061401e-03,-2.183404245088910005e-03,3.896731138229370117e-01
-7.886520739074134520e-03,-3.086930409902616246e-01,2.975510379618367396e-01,2.475384965354560356e-03,-6.263025361325588562e-03,-9.764157951689179157e-04,5.251601338386535645e-01
-1.715808778837373677e-02,-3.045106670705600704e-01,2.922038015370349018e-01,1.573091894941890763e-03,-2.549418679472182855e-03,2.573898350472031849e-03,5.169323086738586426e-01
-1.411383809318195875e-02,-1.859306008889919370e-01,3.105963158765082111e-01,-1.639852802090775025e-02,6.077574314013798468e-02,-3.807573853029134342e-02,4.549565017223358154e-01
-2.209741635029888185e-02,-4.920044879909988289e-01,4.224475981427923688e-01,-3.659047795952807911e-03,1.021118253203320420e-01,-1.678606459153096642e-02,8.120921850204467773e-01
-1.105809802644070611e-02,-3.196838933435031671e-01,3.093794068507655926e-01,-4.154594060976469052e-04,-4.410579646135654721e-04,-3.133379223842748095e-03,5.448448657989501953e-01
-3.576896020337776150e-03,-2.449848858179465294e-01,2.869743010447782239e-01,-3.459400229870785229e-03,-1.043362649859754833e-02,2.724719196667619702e-03,4.617618024349212646e-01
-2.804064868511770003e-02,-9.893042572585084016e-02,3.313539168420665537e-01,4.641568510258926861e-02,-2.512689647598545344e-03,-3.867854136049721919e-02,4.130828976631164551e-01
-2.247276902280335390e-03,-3.142850843614660716e-01,3.056325146995363951e-01,4.531937514649777426e-03,1.389249762305974373e-03,-3.218420011603399279e-03,5.369601249694824219e-01
-4.560990126513063403e-02,-3.432998859122682322e-01,2.515204825508766673e-01,1.105693305515940104e-02,-7.169988403907562313e-02,2.571540276007432471e-02,5.321012735366821289e-01
1.759716809865871884e-04,-3.175928762948536654e-01,3.169753026014545672e-01,-1.825195520699794639e-03,-3.968644842547830454e-03,1.940860105767396124e-03,5.496147274971008301e-01
-2.519077497623279510e-02,-5.554422976565336345e-01,4.602023649632838165e-01,-2.725831089054294235e-02,6.312380579477777642e-02,-2.763966863767527982e-02,8.891728520393371582e-01
-2.066283805885304678e-02,-3.163828252776438865e-01,2.909586033167120278e-01,-4.670194661546439065e-03,1.034466044361563846e-03,-9.465330886906980681e-04,5.261009931564331055e-01
-2.164931900047305235e-02,-1.316690804658553759e-01,3.242545792454440412e-01,4.963350666007704942e-02,8.468616028311996835e-03,-3.226971037538722137e-02,4.248996675014495850e-01
5.223722366066013527e-03,-3.012279567481722653e-01,2.921734369915666707e-01,-7.192966366784964019e-04,-4.084594570865894905e-03,1.316952191799343258e-03,5.140484571456909180e-01
8.268065733024501998e-03,-3.483835481445587967e-01,3.190948039383741941e-01,2.782511561181707019e-02,4.067387078001940409e-03,-7.247686718159536542e-04,5.805552601814270020e-01
-1.417206132649896991e-02,-3.609217630068584648e-01,3.668170508204097735e-01,1.582915281300684845e-02,-3.179204199228543443e-02,-1.487017599073436717e-02,6.339898705482482910e-01
7.931701755846582574e-03,-2.820779299296373721e-01,2.946778285205520764e-01,1.207054281915465911e-02,8.758188390383406241e-03,9.975495764478151811e-03,5.004535913467407227e-01
2.348193350011848826e-02,-2.748601546409611407e-01,2.887560614742028520e-01,4.141331359854630301e-02,2.236878832580130576e-03,6.547986157691373411e-03,4.937708377838134766e-01
1.396039138474285471e-02,-3.034133289597875094e-01,3.079442850537489895e-01,-1.394360833183828983e-04,-4.572892439340496551e-03,2.361322519153745555e-04,5.296398401260375977e-01
-3.681161883733741202e-02,-6.059614359035943032e-01,3.907243657196221576e-02,-2.298071246769265580e-02,-3.212220587366333008e-02,9.949740552432752641e-03,6.147000193595886230e-01
-3.203446112767922155e-02,-1.596731914187098922e-01,2.813843498864355697e-01,-7.374875250035780629e-03,2.926207081258036871e-03,4.421986778198456342e-03,3.934144079685211182e-01
-1.079754894332478126e-03,-3.093185721937586341e-01,3.093294554368423155e-01,7.027192959880318272e-03,-7.559995929508231578e-03,-5.512595721989853662e-04,5.360650420188903809e-01
-2.122773730899372643e-02,-3.296305469936290922e-01,3.011108098285590340e-01,-2.518996657092818000e-03,1.400404012933334367e-03,-1.222516662220039969e-03,5.463094115257263184e-01
-4.586369762428094132e-02,-3.352954120687136608e-01,2.934915054531251899e-01,9.043105312803955548e-03,-3.032716796077881971e-02,1.538270409302075481e-02,5.485136508941650391e-01
-3.336065609678105781e-02,-3.093256342121283864e-01,2.654852481770000883e-01,-8.189479037879953890e-03,-6.561610906050217330e-03,-5.273310268863084377e-03,4.983476102352142334e-01
-2.615098729779137543e-02,-3.305915671868251415e-01,3.250760940699133350e-01,-5.396784473524887660e-03,1.225624409103988344e-03,9.202695971705828208e-06,5.683873295783996582e-01
-7.534448786311608720e-03,-3.007099645523831910e-01,3.043824964216792495e-01,-3.603964305175661603e-02,-9.418394579567862523e-03,1.622878483578999928e-02,5.288130640983581543e-01
-4.118989930246731712e-02,-2.992680739468245865e-01,2.727733880072346073e-01,1.739573821609847332e-03,-1.992943331572236305e-03,3.842483032330986249e-03,4.962556362152099609e-01
-1.864777834413573754e-02,-2.185787356003007775e-01,3.080974143148904609e-01,-1.135476697589653423e-02,1.586319155325970412e-02,-2.088695224026040909e-02,4.631541967391967773e-01
-2.558172771000431084e-02,-3.173676404951913388e-01,3.055232157568166240e-01,-3.762489776245304084e-03,-1.103127789629035523e-02,4.620474113618516787e-03,5.402340888977050781e-01
2.232306409171086470e-02,-1.990581944595575803e-01,3.997703631674723868e-01,-3.168349076936718967e-02,-1.254338762180249797e-02,-8.634257493939358208e-02,5.485294461250305176e-01
-1.166606612806528331e-02,-1.362188673290804508e-01,3.099283154254027228e-01,-3.864060484372638937e-02,-1.946432585067118994e-03,-1.212528043515462978e-02,4.048747420310974121e-01
-4.466205643870400921e-02,-3.067989699255791458e-01,2.800036851338191246e-01,3.748950489183869653e-03,8.724563075317640429e-03,3.042377757417397328e-04,5.094127058982849121e-01
-3.389628991048644624e-03,-1.729976221489475385e-01,2.906338639443539207e-01,-3.080827811684277995e-02,3.862795606423552897e-03,-4.325566637679202284e-03,4.099192321300506592e-01
-2.412867450057931337e-02,-3.206038341650317980e-01,2.875776014497023469e-01,-9.896185752840956293e-03,-1.642702880542599346e-03,-3.285494000178843833e-03,5.270728468894958496e-01
-5.368806394738904163e-03,-3.126773795416250556e-01,3.006005745837740939e-01,-4.294851890254312789e-04,-3.066844098264494625e-03,2.334434936003822007e-03,5.311571955680847168e-01
2.987195203520468488e-04,-3.076595685097879285e-01,3.015747504537668600e-01,-5.367664908967160510e-03,1.593817590054000212e-03,-3.820417946800794013e-03,5.277535915374755859e-01
-1.405055467745935406e-02,-3.154118541031193379e-01,3.008572177235209755e-01,-5.469565807465607415e-03,5.580655604497494066e-03,3.368661416317465535e-03,5.339511036872863770e-01
-1.563082131052100435e-02,-3.160874569872796913e-01,2.980646855448986776e-01,1.045704360781539791e-03,-1.194832374197607201e-03,1.053941943639450079e-03,5.319228172302246094e-01
-3.719069116527355667e-02,-3.770833168141638492e-01,3.440309870555578464e-01,-1.473545728169008313e-02,1.848351664792275903e-02,-8.363075958695936202e-03,6.263525485992431641e-01
-1.672666396352285451e-02,-3.019967057501416474e-01,1.631504533933688106e-01,1.001124560705510605e-03,-6.447139407318937428e-03,2.357732534110044357e-03,4.064390659332275391e-01
-8.552884903196701638e-03,-2.073219869648745273e-01,3.252003044706495705e-01,-2.988509099317702977e-02,1.051152259565189297e-02,-1.725967837032175295e-02,4.702602326869964600e-01
-2.529975056597534577e-02,-3.083831667359694384e-01,2.911625810048618646e-01,1.236333195046088055e-03,-3.506863746393997210e-03,-1.848619224752480646e-03,5.195397734642028809e-01
-2.220314960483930899e-02,-5.200694584417447919e-01,4.704059483714531642e-01,1.322519109289678474e-02,-5.675267860886870630e-02,-5.692164997775041833e-03,8.637549281120300293e-01
-1.702706038453453974e-02,-5.646786243729681187e-01,3.910331785102458824e-01,-3.461204635428651814e-03,-9.697439370895374888e-02,8.356860939854588929e-03,8.475657701492309570e-01
-4.265610393542257350e-03,-3.619860897526556709e-01,3.505327472546041490e-01,4.372382225709769976e-02,-7.774904333932107503e-02,-3.783987501380284019e-03,6.361426711082458496e-01
-3.151371264935264732e-02,-3.033386108448866691e-01,2.244277324246826133e-01,-5.535955436121720724e-03,-3.476115795684579096e-03,1.442296889809255821e-03,4.572750627994537354e-01
-1.933448681483115536e-02,-3.334536834146088480e-01,3.246566147747023123e-01,1.119628733121112718e-01,-1.039090467979278398e-01,-2.521735152498982401e-03,6.285477876663208008e-01
-4.148410047999584460e-02,-3.045535451114328440e-01,2.732819044171848066e-01,-1.846045666344548050e-03,-1.526525486087810775e-03,-5.325893161398423652e-04,5.011053085327148438e-01
-1.586999975200689694e-03,-1.989277818932023156e-01,4.306416332925222523e-01,-8.735748209062783876e-02,-1.704124861612702282e-02,-2.933532505082308076e-02,5.808684825897216797e-01
-2.631782261222741226e-02,-3.135200885583281361e-01,2.878273301143986496e-01,3.730732955399057235e-03,1.930143759500870665e-03,-1.217201935241467200e-04,5.210071802139282227e-01
-1.793957248785572195e-02,-3.269695610600738545e-01,3.131846403195862605e-01,-2.234518172270865983e-03,-2.485636344950665089e-03,-4.077712832813063133e-03,5.545750260353088379e-01
8.736835183618847644e-03,-3.454270686276518232e-01,5.132870054738398746e-01,1.910593923952676534e-02,6.748131224957949759e-02,-1.369477124981769052e-02,7.576379776000976562e-01
-3.819141378869234105e-02,-3.358067654586187056e-01,5.092038122402609002e-01,1.235660905380894931e-01,-6.604398696921387479e-02,-3.812638475004146571e-02,7.838250398635864258e-01
-1.380224019708040095e-02,-1.447382950538877722e-01,3.020316401124066297e-01,-2.578034757279678083e-02,1.430673130852518245e-02,-4.890965072750716198e-04,4.010710418224334717e-01
-3.986229431749043622e-02,-2.221833700255632649e-01,3.016812656367275358e-01,-1.845586264094955728e-02,8.045749580839809886e-03,-2.853938628904577335e-02,4.645676612854003906e-01
2.105608756526247162e-03,-3.121892851958689152e-01,2.959271061794070956e-01,7.555486958146912652e-03,-5.164070284881421176e-03,1.376858347669670081e-03,5.269875526428222656e-01
3.502735985471387963e-03,-3.074428559748453305e-01,3.055269184747894107e-01,7.434115022908198596e-03,-4.778836856417893915e-03,-3.840562362695110980e-03,5.311284661293029785e-01
-1.386294979127226240e-02,-3.302575678873705400e-01,2.251891772584630469e-01,2.984455425584731092e-03,-1.445602204304555303e-03,-3.658881578700799199e-03,4.826587140560150146e-01
1.588380996868539452e-02,-3.016781985258084053e-01,2.945055254381980792e-01,-1.360362308786307144e-02,6.365076193991271725e-03,-8.658503505190635538e-03,5.175490379333496094e-01
1.551405573465707011e-02,-3.066449462602204301e-01,9.637834787255991631e-02,3.877040538023825145e-03,2.932614601312956242e-05,3.120833219971661269e-04,3.693535029888153076e-01
-3.594979531355012303e-02,-1.089368143811018652e-01,2.850597396156025476e-01,-1.751339521568711852e-02,-1.698578317681381810e-04,-1.002832661361238546e-02,3.647268712520599365e-01
-3.027674464802318152e-02,-3.129503263987903905e-01,2.387274789816498655e-01,-1.033802980332986649e-02,-5.978908120781978829e-04,-5.630714716373803365e-03,4.782518446445465088e-01
1.074025309896496638e-02,-3.087159898511488976e-01,1.230730665461678142e-01,-1.109545562974323385e-03,4.647908763024642133e-04,-3.684510579036694242e-03,3.880740106105804443e-01
-3.583479794591401535e-02,-3.119849518206088135e-01,2.722849964669710188e-01,4.749857071129834352e-03,-2.759095426845260129e-03,3.187447352091691243e-03,5.063645243644714355e-01
-4.321030690248325867e-02,-5.946726156194807045e-01,5.875032835600790815e-02,-1.344493542960277857e-02,-6.811890333182908479e-03,4.090455689033497405e-02,6.135430932044982910e-01
-1.674061838238950078e-02,-3.125221007705923926e-01,2.325277021613502137e-01,-8.937579423768221218e-03,-1.242409618587654498e-03,1.162378934677810128e-03,4.728622138500213623e-01
-3.845209388247437104e-02,-3.129661181505615231e-01,2.527701265582614765e-01,-6.294656511492389278e-03,-9.383516167540070091e-03,-7.739542521471396742e-03,4.905870258808135986e-01
-4.244059084412268174e-02,-3.100317108581926995e-01,2.657690428869569632e-01,6.134341855610059117e-03,-2.822164284896287734e-02,1.637834381960930671e-03,5.015801787376403809e-01
-4.099434509897521839e-02,-3.174809615817849040e-01,2.841865436002500855e-01,1.132369635305290620e-03,1.274694481605240107e-03,-1.865127166805394645e-04,5.216363072395324707e-01
-1.462638683399537440e-02,-3.290395788742614958e-01,2.321594109536667117e-01,-5.550694801029893571e-03,-2.175078408929889077e-03,-4.509806533323865857e-03,4.873594641685485840e-01
-4.830302612423226227e-02,-3.024201534659034518e-01,2.704236782112345305e-01,1.167726610159649158e-03,-6.294548215976067396e-03,-3.434295180444495361e-04,4.972720146179199219e-01
-1.219104721057184121e-02,-5.177731865002577205e-01,3.141392431768452176e-01,4.043489427413750337e-02,-9.867515181906313937e-02,2.074888409681088439e-02,7.499989271163940430e-01
-5.514847537669738398e-03,-3.087194884271817208e-01,1.396292328921574233e-01,-3.140309877667403580e-03,4.060111561211688161e-03,-1.946009727758768459e-03,3.963566720485687256e-01
-3.841563277125067954e-02,-3.168410894201247885e-01,2.880459557256532799e-01,5.277750101554519457e-03,-2.958000552878443674e-03,8.460328196198570877e-03,5.247071981430053711e-01
-2.830814779089477207e-02,-3.148442764221169310e-01,2.925968568815466853e-01,6.749245614050575649e-04,1.078722751189560049e-03,5.059704512308852396e-03,5.264176130294799805e-01
-9.397595637322951265e-03,-3.146987266110249926e-01,2.946443469802531023e-01,2.560861576342153469e-03,2.862778119296798419e-03,3.157772535538876362e-03,5.277772545814514160e-01
-2.749784552686133227e-02,-3.032585028356850620e-01,2.539580773278764525e-01,-7.830804796419998937e-02,-2.562988188585503535e-02,4.520556253645663380e-02,5.092873573303222656e-01
-2.596760321213213013e-02,-3.167114054773169651e-01,3.023140719979422464e-01,-2.039028196140986286e-03,-6.736590146618069881e-03,3.547281623213712192e-03,5.365939140319824219e-01
-1.321532889136112221e-02,-5.774958064820275849e-01,1.539390230689342554e-01,-1.969085407847329106e-02,9.258367613206644475e-02,1.999907248688622633e-03,6.837875247001647949e-01
-1.640320136859787711e-02,-3.295581897890269563e-01,3.015025857377179319e-01,6.413781651352865217e-03,1.076266561651687687e-02,-5.414107743927735203e-04,5.469512939453125000e-01
-4.085411147947635990e-02,-3.049263185401950849e-01,2.486284100394138830e-01,5.402233322365098366e-03,-5.494781403401033078e-04,-5.211683868040344406e-03,4.797379374504089355e-01
-3.045064871154807423e-02,-3.131714872209500622e-01,2.998212817829065679e-01,-2.134746255086228048e-03,3.551985334220285253e-03,1.707432010974761945e-03,5.314561724662780762e-01
-2.771485499274890102e-02,-3.059681935388019469e-01,3.002072882777512275e-01,-5.894118879574606240e-05,-1.048321119195870683e-03,-8.264100753925092413e-03,5.257484912872314453e-01
-2.068951117263609016e-02,-3.223482681771038805e-01,3.049208704000093140e-01,5.876489909349202206e-03,5.537290026409628224e-03,-4.432215311835463467e-03,5.435971617698669434e-01
-2.289722379951548981e-02,-7.104629750857829884e-02,3.571937009990283629e-01,-1.563949271223833565e-02,1.754697138186210462e-03,-2.532924040502752133e-02,4.095805287361145020e-01
-2.071986719458591628e-02,-3.196251146378478181e-01,2.727053514239961007e-01,-9.696359697234474898e-03,-1.416848273548676181e-03,-4.552184002196137287e-03,5.133218169212341309e-01
-2.703334622895599629e-02,-3.089706410405138604e-01,3.185516290882817736e-01,-6.395621340112182330e-04,-5.763946029554093374e-03,1.590097561715314405e-03,5.444808602333068848e-01
-9.156512229704087680e-03,-3.209108069280230402e-01,2.195831992089926077e-01,3.035690766813256732e-03,-5.388540385322825770e-04,1.739497273843053013e-02,4.709134399890899658e-01
-2.076167107185922234e-02,-3.153403167648755612e-01,3.160199656424679815e-01,-5.522615791312439001e-04,-2.823177022356616840e-04,-6.743844340613941273e-03,5.473067760467529297e-01
-3.144087899315184398e-02,-1.904176346113616858e-01,3.053675706274293078e-01,1.883395654261429053e-03,-1.028764385686199018e-02,-2.823135403464874585e-02,4.415625035762786865e-01
-2.803587356146373596e-02,-3.203579957569907544e-01,2.639117151738787914e-01,1.063321023102528629e-02,4.356453931218958972e-04,-5.820964473192396377e-04,5.063290596008300781e-01
-1.986796780441023313e-02,-3.200295971955253171e-01,3.046018554219099839e-01,-3.097571359607339050e-03,5.468972352890602052e-03,-2.821560083923965734e-04,5.411929488182067871e-01
-3.244892849005477642e-02,-1.664258616924002843e-01,2.898399544405343975e-01,-1.537488459409847019e-03,-2.506344532249879780e-03,4.907565417087573698e-03,4.063217937946319580e-01
-2.030412325624459530e-02,-3.197662198583530180e-01,3.045688387488604265e-01,-2.714617184854809743e-03,3.155870062893677535e-03,-6.114706062126260217e-04,5.408883690834045410e-01
-1.738313422786190096e-02,-3.197886862576264644e-01,2.867123222961489581e-01,-1.305389528220377189e-02,-2.112054983463370478e-02,8.088604127325519700e-05,5.270035862922668457e-01
-2.527360152053671066e-02,-3.394013418186732078e-01,4.520299579423195935e-01,-8.697302387835331716e-02,-4.280506502701390825e-02,5.154192898283899843e-02,7.159529924392700195e-01
-1.942726715384295727e-02,-3.221761159966545773e-01,3.044676792909412066e-01,-1.497526511311748909e-03,2.285162176943563404e-03,7.216767104006690430e-04,5.428144931793212891e-01
-1.866968599978486784e-02,-3.221148683338814767e-01,3.046743715946949593e-01,-1.262870043074471212e-03,2.004542719846752735e-03,6.586549539150176680e-04,5.429232716560363770e-01
-2.683194209939144051e-02,-3.115252355340240586e-01,2.609498972872778544e-01,-9.793460181570439599e-03,7.510161049631520688e-04,-2.453057008053883756e-03,4.960904121398925781e-01
-1.922526295908073141e-02,-3.016600258150792802e-01,3.249525335696892281e-01,-1.045164492198937499e-02,3.837175759622538096e-02,-1.389358687782856101e-02,5.484154224395751953e-01
-1.846572202521171158e-02,-3.200699003739075899e-01,3.066424733125269753e-01,-1.603462615162257014e-03,2.509304168602640057e-03,-8.863451326455814476e-04,5.429027080535888672e-01
-4.756662751947698942e-02,-3.022792185218847183e-01,2.720652479320305739e-01,-7.570978080007485355e-04,-4.145218200443718040e-03,1.941607868457396633e-03,4.985196888446807861e-01
9.697250775676886578e-04,-2.938791375264583894e-01,3.113888178766923698e-01,9.209176176036214592e-03,-1.067753831853140295e-02,-1.054761823570534059e-02,5.251216888427734375e-01
-2.308506912468827679e-02,-3.120767204867367917e-01,2.609693783363419284e-01,-8.759955503538825045e-03,-2.551267540108356443e-04,-2.111054246988076488e-03,4.965241551399230957e-01
-1.803015861857333590e-02,-1.399560540512078677e-01,3.007045477672650735e-01,-2.862545428822671576e-03,9.506080240831733114e-03,-3.404782133343629141e-02,3.988648951053619385e-01
-7.439184422723468804e-04,-3.144170326465705045e-01,4.193656530962834306e-01,-1.373071196759275726e-02,9.477216834433138670e-02,-3.816370657556606566e-02,6.622236967086791992e-01
-2.450630253542314743e-02,-3.091203999903592292e-01,3.105259634936181623e-01,2.202436433616586104e-03,1.592169661752348498e-03,-2.237891764220135624e-03,5.372558832168579102e-01
-3.512547865152509941e-02,-3.098881930372354154e-01,2.861322713956203634e-01,1.394918993511811388e-02,-3.486098298600861026e-03,1.430178261767539594e-02,5.178846716880798340e-01
-2.046473967294026516e-02,-3.186574683164206667e-01,2.972875507808531714e-01,-5.711752993534780116e-03,4.245846620577496677e-03,-2.111336591868029204e-04,5.336561799049377441e-01
-9.843677890184664159e-03,-3.146138462159985272e-01,2.123423503969706916e-01,-9.707597883774255268e-03,2.353958112493970373e-04,8.166311738619674854e-03,4.587484002113342285e-01
4.351698409163668423e-03,-3.026494481060706954e-01,2.926157518848224726e-01,1.696095783883388433e-03,-3.338899308385546907e-03,1.154304148267880923e-03,5.156446099281311035e-01
-2.399347384061099875e-02,-1.991849066646390609e-01,2.941637132971255397e-01,-3.749229906551249081e-04,-1.049112326111445101e-02,-2.881681271798325252e-03,4.336011707782745361e-01
5.121330522748171465e-03,-3.188453852402096667e-01,7.343670287729059387e-02,-2.928348035156343003e-03,2.001094875641757503e-02,6.541074550970377849e-03,3.648406863212585449e-01
-3.752565909689466184e-02,-3.630632856796561225e-01,3.459500755799849725e-01,-8.459012785338455148e-05,2.713876923317724149e-02,-7.058448166680734472e-03,6.166223883628845215e-01
1.140474139679387502e-02,-3.083905452797397473e-01,2.987567796210413573e-01,-9.879868197775958788e-03,-3.227637135614975410e-04,7.408461487622631375e-03,5.264901518821716309e-01
-1.892690641538342239e-02,-3.115933891637494568e-01,3.073639012534368220e-01,1.253550853634003304e-03,-6.266466205440144981e-03,-1.368077743929501863e-03,5.364157557487487793e-01
-1.543311759431965219e-02,-2.912477557683588181e-01,2.458089938408580810e-01,1.174389467511437538e-02,-1.887576725318220947e-02,-1.046443619046394450e-04,4.667528569698333740e-01
1.452831600259725520e-03,-1.825937236369719330e-01,2.938720492296758580e-01,-3.073929926803435631e-02,-1.142718390133002498e-02,-4.202883431644698423e-03,4.200956225395202637e-01
-1.282846488339656546e-02,-2.070571239487438986e-01,1.860948821077410276e-01,1.620462285571730096e-02,-1.509830054810585784e-02,2.652338399431953056e-02,3.457079827785491943e-01
-1.772675779856677791e-02,-2.660892347341627939e-01,3.004501343348462972e-01,4.424624139403152590e-04,1.116027433975323724e-02,-1.583750347517434622e-03,4.922656118869781494e-01
-1.267620686688494813e-02,-2.830195239438514365e-01,1.112789161160470108e-01,7.561097446282670671e-03,-2.885735612335384170e-02,-2.739160823471404813e-02,3.562042713165283203e-01
-4.568372048111747630e-02,-3.091221224210249918e-01,2.595017974548504691e-01,2.255661445364724868e-04,1.830063196498942293e-02,3.814555871496305098e-04,4.939037561416625977e-01
-1.183466438994800266e-02,-3.095385346741781341e-01,2.962035354284444089e-01,-1.865009405908747957e-03,6.681298398323467320e-04,-1.728538450477701965e-03,5.246332287788391113e-01
-3.712090444848800685e-02,-8.947012948463850535e-02,2.796499783058755129e-01,1.548038861350172673e-03,-2.256321849280886003e-03,3.669181627859744647e-04,3.459621369838714600e-01
-1.370196268311485444e-02,-9.119026105630972934e-02,3.588052179915686701e-01,4.227955991924683271e-02,-6.433873525039690219e-03,8.641672783175322753e-03,4.234877526760101318e-01
-3.569806774206529809e-02,-4.044524793964173748e-01,2.920334676956998221e-02,2.604895328366292964e-02,-2.351498762732229242e-02,1.235768734776627881e-01,4.622044265270233154e-01
-2.466840907451035500e-02,-2.793832336799255689e-01,3.040715874475900526e-01,-3.195713283065557088e-04,-8.084799502968312984e-03,7.335316175243587582e-03,5.069934725761413574e-01
-2.966166825031498616e-02,-2.995601778477957056e-01,1.822183675816180792e-01,-9.062120572851775635e-02,7.751706388678761273e-02,3.481236944824461776e-02,4.703439772129058838e-01
-1.799620650516086523e-02,-1.759059288402917698e-01,2.551464176389799388e-01,-6.672196826855586460e-02,4.582540678153770169e-02,-2.015229238827206254e-02,4.044106304645538330e-01
-1.747966395915861657e-02,-3.088216882910276295e-01,2.967914604792162847e-01,8.853643453898917383e-04,-2.252989879206691772e-03,-1.304585197648040979e-03,5.246232748031616211e-01
-4.167421335726486514e-02,-3.045634649008286399e-01,2.601231228782133753e-01,-2.029576440274811350e-03,1.507276075155782307e-04,1.636414710188917971e-03,4.894406199455261230e-01
-3.874194784480751441e-02,-3.045912560851827822e-01,2.401708958489502943e-01,-4.075060116180464695e-03,-8.397210676250980999e-03,6.690698131894079557e-04,4.721013903617858887e-01
-1.962790255326539446e-02,-3.197475226003276827e-01,2.990491001626974232e-01,1.903470368066070883e-03,-1.247924849390096534e-03,-1.574865795877728250e-03,5.359953641891479492e-01
9.618568071303425920e-03,-2.926783999239339074e-01,2.933728408079893657e-01,-7.865588179466521251e-03,-5.788264635479465486e-03,1.995843316363616910e-03,5.079134702682495117e-01
-2.651470719965078049e-02,-1.759659380682185303e-01,4.017441701959313938e-01,-1.007340120842338399e-01,7.820965271908067451e-02,-2.410198065373493972e-02,5.659329891204833984e-01
-4.637412952954986234e-02,-3.038638547215314900e-01,2.912417134000390151e-01,-5.355030317026526548e-04,4.850528961827190594e-03,-1.987174653755973807e-03,5.170119404792785645e-01
-2.305328691805176577e-02,-3.204507453932078920e-01,2.991248339134595091e-01,7.335247621525192024e-04,-6.618521735078358031e-04,-2.232746042753082621e-03,5.367279052734375000e-01
-2.771128745499194454e-02,-3.075273485145380570e-01,2.972889086199747011e-01,2.454329726790902520e-03,-6.885426176254216997e-03,1.750037509579769083e-03,5.244348645210266113e-01
5.557279471049520608e-03,-2.364719044466480624e-01,3.040114001847998848e-01,-3.245004786784545792e-02,-6.416798316093860755e-03,1.362218980115151648e-02,4.729976952075958252e-01
6.330333052484340278e-03,-3.076743539461376242e-01,2.968108705358754040e-01,-4.215643619331529458e-03,5.504585813715218677e-04,-9.564978378901663214e-05,5.236834883689880371e-01
3.351270314404616868e-03,-9.363599581467135780e-02,3.166692792760383290e-01,-9.383915274632335587e-03,1.607369582058603558e-02,-1.307774642390879295e-02,3.735169470310211182e-01
2.372619865282921126e-03,-2.164814877409066973e-01,2.865497898079019112e-01,6.408994726433221191e-03,-1.197185235592791545e-02,-1.570523422680981883e-05,4.374932348728179932e-01
9.602548306409764561e-03,-3.080040791354887175e-01,2.923025660806949921e-01,-2.319228578020901543e-03,5.100120790801366752e-03,-1.696249591317100036e-03,5.202724933624267578e-01
-3.760974069472093617e-02,-1.427920524652442624e-01,2.821973970676111554e-01,8.905390961728728129e-04,-7.864097071873694944e-03,2.104024434942185912e-02,3.853491544723510742e-01
-2.061605594214543577e-02,-3.193621659419590419e-01,2.970336810940170102e-01,3.473999417914862406e-04,-6.313604482254534704e-04,-3.799981017931226834e-03,5.339401364326477051e-01
7.402424339417817967e-03,-8.243256570533630256e-02,3.249119654019234638e-01,2.176343776816057080e-03,1.350590656570798027e-02,-4.146470952014587319e-02,3.783193230628967285e-01
-4.158508796864161805e-02,-3.053237414132695671e-01,2.779883168751403066e-01,-2.182488657845565137e-03,-6.302768622831366385e-04,-1.130034247620636482e-03,5.059529542922973633e-01
1.721147518200747892e-02,-2.105107478871054982e-01,3.069420679808919084e-01,4.351735554449845389e-02,6.345422797619570086e-03,-3.148270047727625559e-03,4.556436538696289062e-01
-3.221638040804940262e-02,-1.359721716370006495e-01,2.979494629207001255e-01,5.295270397300946147e-02,-6.272869726662946323e-03,-1.136740824712117494e-02,4.036694467067718506e-01
3.274617004446034318e-02,-2.968333421767302416e-02,4.985993410213066523e-01,-1.983321532923271180e-02,2.199988198892549596e-02,-3.437722353577855189e-02,5.061393380165100098e-01
-2.375917939134362944e-02,-3.314149909389170756e-01,3.147659341996392190e-01,2.046469939596089541e-02,1.204208195554165063e-02,-4.901779226809154129e-03,5.613947510719299316e-01
-2.555928871360951121e-02,-3.145401523867423776e-01,2.152853581290920526e-01,-7.882210745579376621e-03,1.959231136985922772e-02,-3.859802664973092066e-03,4.609753191471099854e-01
-4.692553032827667669e-02,-3.067543846773565508e-01,2.789915384593598668e-01,-9.203633666235187588e-04,5.093915193984640058e-03,2.162028722407462276e-03,5.084388256072998047e-01
-3.436995589550485841e-02,-3.110722164738820017e-01,2.466574012299347918e-01,-5.526666615717670816e-03,1.228204340384737858e-02,9.665577337690800519e-03,4.838655591011047363e-01
2.477075026506105754e-02,-2.872009049380630508e-01,2.859245475277182313e-01,3.909250409561773783e-03,-3.402325033390541514e-03,-5.849610211236269675e-03,4.971754550933837891e-01
-4.203384570142601473e-02,-1.141690785243532347e-01,2.985886296641791504e-01,9.902109472555195580e-03,2.235777121256271507e-03,3.453466162462320160e-03,3.822865188121795654e-01
2.009123263765066891e-03,-5.973016393509977817e-02,4.624727038544279023e-01,5.040932265186391648e-02,-6.007963378738899463e-03,-2.115902199807838044e-02,5.033307671546936035e-01
-2.450511152812431814e-02,-5.094677804852629777e-01,4.090597274690292995e-01,8.874707189612569824e-02,8.539156486601658103e-02,-2.966130669999268027e-02,8.255741596221923828e-01
2.787028623463777555e-03,-4.288464187505000580e-02,4.847718045434851741e-01,3.824496540098289155e-02,-2.406865660450164049e-02,-2.100621231391963661e-02,5.136711001396179199e-01
-1.820579987952205409e-02,-3.137721119345793785e-01,2.400121918865233961e-01,-1.081988527362184871e-02,7.222182952385279098e-05,4.068007260268807594e-03,4.803721308708190918e-01
2.036551706165488917e-02,-2.864773935518346581e-01,2.834205016780912967e-01,8.607361803054767654e-03,7.310735711533431630e-03,5.215801493926543707e-03,4.945010244846343994e-01
-1.640909157940650606e-02,-3.283833696568409510e-01,2.956274785002819816e-01,-6.282663141903602547e-03,-6.464839637340669392e-04,-6.396617845118125062e-03,5.406334996223449707e-01
-3.663481983201108405e-02,-1.118124422276514651e-01,2.889468056406946372e-01,1.613090391511250469e-04,-2.509670819605570348e-03,-5.386813895678476544e-03,3.691036999225616455e-01
-4.166306763122289147e-02,-3.101970056060139314e-01,2.277097373235757449e-01,-2.296609479213721026e-03,1.645871021949796287e-02,4.251756779849687196e-03,4.667875766754150391e-01
7.821572842788560020e-03,-7.130773038241064454e-02,4.706538564599008767e-01,4.472049306746277153e-02,-2.333230088184745643e-02,-4.241490006343479058e-02,5.197391510009765625e-01
-1.870755808958782240e-02,1.069547770848068569e-02,3.560676381294595738e-01,5.954872568424726502e-03,-1.802792525821128285e-03,5.344472762308724242e-03,3.612523674964904785e-01
-1.017407577732786991e-02,-3.173605198326214238e-01,3.055786852063730463e-01,4.549606121930429713e-04,4.009091511430393912e-03,-1.495269821055572948e-03,5.395496487617492676e-01
-1.013441139075449415e-02,-2.671093584092589235e-01,4.444127642340165441e-01,8.871542943655699731e-02,6.907048479381809603e-02,-2.222931721898178600e-02,6.548758745193481445e-01
-1.879604768305563958e-02,-3.320105351861357690e-01,2.983362896692097754e-01,5.247599395949481028e-03,2.938766785088492688e-03,4.292306964571225049e-03,5.460498929023742676e-01
2.701091586404731626e-02,-2.837937363136671665e-01,2.788672159092362435e-01,3.068877315138087303e-03,-3.830366466356105188e-04,3.824049168474246752e-04,4.881991147994995117e-01
-7.726094324108879682e-03,-3.149670803250914641e-01,2.961192735019433364e-01,2.781771407368178409e-03,1.084492279371576055e-03,-6.128059167640422964e-04,5.292453765869140625e-01
1.036752333165684437e-02,-3.134402277749054888e-01,1.217213656378189068e-01,-5.704363415516439670e-04,1.803203063881879398e-02,4.743182286898299689e-03,3.928769528865814209e-01
2.006138711114813060e-03,-3.083532492360303023e-01,2.980973343098080042e-01,1.116670844037069349e-03,-1.740195768464948079e-03,-1.080611058064732044e-03,5.252656340599060059e-01
-2.605905377168241110e-02,-3.111748894088351980e-01,3.124222872950768171e-01,3.732040850945990158e-03,-7.985496764958665769e-03,-2.087781924425326143e-03,5.409373641014099121e-01
-2.107821828961702407e-02,-3.291463989701354231e-01,3.049045636578541774e-01,1.548396721294754454e-03,5.827588515488269991e-03,-1.046946615853136054e-03,5.492795705795288086e-01
-4.127825875546524935e-03,-3.063807676380013167e-01,2.977631022146471351e-01,-5.142374142508807392e-04,-6.642582138906222636e-03,-1.121499678677398328e-03,5.233348011970520020e-01
-1.686889506928605093e-02,-3.189074493982047565e-01,3.164020369522011489e-01,-9.474955047185969073e-04,-2.157383791282403446e-03,3.156289572067702076e-04,5.504311323165893555e-01
-2.095374999369887040e-02,-3.312184785143461596e-01,2.963351800638859834e-01,6.136799396265604604e-03,8.396903974128417086e-04,4.782570344105239839e-03,5.436577200889587402e-01
7.579182836950734692e-03,-3.087390958031673849e-01,1.146880918617508571e-01,-2.405647485498717091e-03,-2.633227944898389704e-03,-1.130471031463607841e-02,3.818790912628173828e-01
-4.374608055843422910e-02,-3.017466216862066397e-01,2.576077322769397271e-01,-1.818713381628248764e-03,-7.582407281435035859e-05,-6.354073508549164598e-04,4.849113225936889648e-01
9.832740775631364227e-03,-3.044116999981155147e-01,1.492972856133052695e-01,-1.427529695837442705e-04,-3.750477626027237427e-04,4.588839821949284616e-03,4.026034474372863770e-01
-9.118413184621665737e-03,-3.208655677648635796e-01,3.003821139032701870e-01,4.809662270723762448e-04,8.314547991527990178e-03,4.058893414479168051e-03,5.382567048072814941e-01
-2.598702688809366446e-02,-4.857082566958857428e-01,1.278850179085638250e-01,9.309667791619134769e-02,-7.687636977046313769e-02,7.521040505000452236e-02,6.053587198257446289e-01
-1.965049075896843633e-02,-3.187603092869076837e-01,3.005992647156656705e-01,-2.524330618628640912e-03,7.511697404636233496e-04,3.054051673247198018e-04,5.365049242973327637e-01
-2.231691039652247688e-02,-3.711237221390845109e-01,3.593318701494509493e-01,1.894241526238018419e-02,8.579798086022396696e-04,4.236113101714580886e-03,6.337003707885742188e-01
-2.402719886480636155e-02,-3.613945366595092135e-01,2.523192266416273144e-01,-2.285533539949990631e-02,5.563134402075992080e-02,2.246365084596844280e-02,5.438564419746398926e-01
-2.110900864787455117e-02,-3.242890393828531947e-01,2.904850374808707336e-01,3.801169791269487942e-03,3.746710424950665686e-03,4.506043646786778156e-03,5.325640439987182617e-01
-1.501097636974106642e-02,-3.105126164848091563e-01,1.758886777725637840e-01,-1.097832880869994759e-03,2.711889314175342999e-02,2.757342726176306019e-03,4.270922541618347168e-01
-8.726395217832770557e-03,-2.070875629663741502e-01,3.694147166700658680e-01,-8.267761299911316475e-02,-2.671310698003186504e-02,-2.502743722863957909e-02,5.309171676635742188e-01
-2.533244262398900298e-02,-3.996747455144185057e-01,4.225918612092376958e-01,-7.378791712636782740e-02,-3.250576913902968740e-02,-8.879840527842475413e-04,7.266027331352233887e-01
-2.191427126902429495e-02,-3.312789275156373670e-01,2.994472376191663066e-01,5.562147313555818387e-03,-7.042715191789495266e-04,4.230929709886150324e-03,5.463932752609252930e-01
8.122810544443460207e-03,-2.959237346409985814e-01,2.933562184428959441e-01,-5.859998947894812064e-03,-4.384867452187329005e-03,1.758670207025460515e-03,5.105845928192138672e-01
-5.016321692674061139e-03,-3.584613675192240834e-01,1.421141266821087379e-01,3.496567694705574741e-02,-7.726667768066071418e-02,3.559420094583145427e-02,4.732360541820526123e-01
-2.636913376201880863e-02,-3.155382377140757422e-01,3.021563191827821293e-01,-1.763219670164670617e-03,-6.967355057082394963e-03,4.278035921167935678e-03,5.354970097541809082e-01
-2.507955763519694597e-02,-3.611813170071612178e-01,3.137550367658277772e-01,-6.266660313225274129e-03,-1.708965724341196882e-02,1.832026448663718211e-03,5.853718519210815430e-01
-1.957223338278653649e-02,-3.199777843221774942e-01,2.264508048815004893e-01,-4.699445506003186411e-03,-4.262827620754951197e-03,-1.189104408210025013e-02,4.745761156082153320e-01
-8.255072330755869325e-03,-5.543580921712396581e-01,3.396016109663622107e-01,-3.701770714489507202e-02,-1.165206127498827210e-01,2.081987566330393766e-02,8.095312714576721191e-01
-4.647391385270197017e-02,-3.035139787256396771e-01,2.803088805201855993e-01,1.846263382565348221e-03,-4.819712626407813942e-03,3.146003618050546152e-03,5.069146752357482910e-01
-1.874449677920479729e-02,-1.707100886290910946e-01,4.372867986593611533e-01,-1.129453348810601360e-01,7.764683375909409158e-02,-4.277989613724200724e-02,6.018359661102294922e-01
-2.652233362941772143e-02,-2.836898129612685504e-01,3.207747856490233973e-01,-1.223950370979507846e-01,1.087722139506556163e-01,5.012732378310199785e-03,5.971391201019287109e-01
-1.768927075420396663e-02,-3.174355236056418672e-01,2.944100767146156095e-01,2.326742433488691202e-04,4.663185172709653249e-03,9.090070207386126075e-03,5.302053689956665039e-01
-2.048636310192025398e-02,-3.170182988429093851e-01,2.214032586733394314e-01,-1.092483607309495397e-02,-1.810060482236861348e-02,-1.253957637972069432e-02,4.690228700637817383e-01
-2.194780142187196040e-02,-3.026239312615702781e-01,3.100885775188137461e-01,-4.747015968763575915e-04,-2.334387554041761088e-03,-3.032047457363590531e-03,5.312876105308532715e-01
-1.495787237395177632e-02,-3.196202931761087385e-01,2.330411184755621923e-01,-6.207921318656236739e-03,-1.071207356242701199e-02,-1.478110458119160503e-02,4.806183278560638428e-01
-2.204611997502753037e-02,-4.387285986556340167e-01,4.697355982416161480e-01,-8.163673294677389891e-02,-2.894126628688974481e-02,2.699507061034877795e-02,8.031706213951110840e-01
-5.680071788324339913e-03,-2.673233615104286254e-01,2.988510944096900435e-01,-4.211875410797198682e-03,-1.184121165129395532e-02,9.643578037952401510e-03,4.915565550327301025e-01
-1.121560248400763418e-02,-3.206611198417604891e-01,3.006510713990863670e-01,1.560408373411399131e-03,2.737588908087732614e-03,3.200808246726123771e-03,5.381297469139099121e-01
-1.576545568867208924e-02,-1.380003572855061089e-01,3.194229439926595249e-01,-3.060241276515284978e-02,1.984270116518830338e-04,8.336610849225057837e-03,4.138628840446472168e-01
-8.360184885231415619e-03,-3.015247545370204341e-01,3.164520250458913719e-01,-3.067418118650667644e-02,4.572948318224973573e-03,-8.252082981002014858e-03,5.382950901985168457e-01
-1.266523198036551001e-02,-1.012895279826567241e-02,3.302303620413707952e-01,-2.743478217051887463e-02,-4.578855950464956904e-04,-6.065982274267878518e-03,3.450842797756195068e-01
-2.954027099269855572e-02,-3.252525673043242804e-01,2.751787217419829346e-01,9.332630144668788846e-03,-7.357658896230425370e-03,5.145829998877850427e-03,5.204917788505554199e-01
-2.412759175909043319e-02,-3.429113981830050895e-01,2.819903669454123518e-01,-8.474415082984161976e-03,-2.343806929292032229e-02,3.138686352346110962e-03,5.429639220237731934e-01
-1.545884891178885001e-03,-3.119606334209769072e-01,1.600736829219534529e-01,4.504655963801114209e-03,-7.782546222368919280e-04,-2.803881550412347465e-03,4.156122803688049316e-01
-1.797008402990077011e-02,-3.197773236471424529e-01,2.735698080971000201e-01,2.629035799280390624e-03,4.534642588015128095e-03,-2.921501969233347620e-03,5.139844417572021484e-01
-2.010436120035424129e-02,-3.336654209609833388e-01,2.906562952358276997e-01,1.514613925480542186e-03,-1.334419074478918521e-04,-3.248433372281018302e-03,5.407159924507141113e-01
-2.062016179601214999e-02,-3.044143888037550427e-01,2.921800551720613037e-01,7.636981600423711119e-04,-3.708807860148385406e-03,1.637548825622253679e-03,5.169188380241394043e-01
-3.126708626351874798e-02,-2.851681393632168882e-01,3.168279590051484851e-01,2.574849773121988018e-03,7.247911923490734515e-03,1.193228683412793020e-02,5.240440964698791504e-01
-3.384145503808576316e-02,-3.436308166906363315e-01,2.371435206930544437e-01,-5.538097412997165098e-02,3.713399822813504871e-03,2.188566942532628110e-02,5.138385295867919922e-01
-1.759988356385141367e-02,-3.099939724502938643e-01,3.029786016402251092e-01,-2.176547857180113378e-03,9.185651716911559170e-03,7.663231814190463317e-05,5.312885046005249023e-01
-3.302909393999368948e-02,-3.177939641924823477e-01,2.855010098081995906e-01,1.704450709098530997e-02,-5.539404092428960175e-02,-1.136737728945486602e-02,5.326568484306335449e-01
-2.211172594183305473e-02,-3.347116515470778264e-01,2.500138975079866377e-01,7.288662621238522869e-03,-8.990459421410031127e-03,1.024043243660111490e-03,5.071908235549926758e-01
-2.937785111757698631e-02,-1.632081556442817882e-01,2.863115233492368183e-01,1.047429414812735705e-03,-9.693787158812623359e-03,1.860927488305429362e-03,4.001433849334716797e-01
-1.309034221406810659e-02,-2.476456262636000938e-01,2.634302754049506756e-01,2.884048477214386577e-02,1.115840692944815138e-05,6.835693478241005282e-03,4.460658133029937744e-01
-2.624636049205555238e-02,-3.287839039703067123e-01,3.093403032323748247e-01,7.988551958166708288e-04,1.281974054612222864e-02,3.302139990104099344e-03,5.533557534217834473e-01
-1.953076006825157571e-02,-3.488388429623335840e-01,3.370848117201460936e-01,7.181344136316758497e-02,1.040722171320701411e-01,-3.111350319420560714e-02,6.355498433113098145e-01
-2.417915557746259242e-02,-2.886013904643694450e-01,3.112141048449135194e-01,2.044099727784946796e-04,1.012576381256465735e-02,5.777570277946277207e-03,5.210576057434082031e-01
-2.094504573472684428e-02,-3.207798724824575953e-01,2.829753521619666756e-01,-6.185755742179883769e-03,-4.689591073960821198e-04,-4.171207870160709673e-03,5.230316519737243652e-01
-3.672037672229490346e-02,-3.173393810735598008e-01,2.639596407639757669e-01,1.875399326088823945e-03,2.310632557464803449e-02,-2.098164098552339919e-04,5.051181912422180176e-01
-4.230380851971922429e-02,-4.684069402383048697e-01,1.362735345547215204e-01,-3.696492903048417128e-02,3.359834687030217783e-03,-9.753466112017410020e-04,5.419244170188903809e-01
-1.774143679286693462e-02,-2.970094912023019118e-01,2.752336385464372315e-01,3.271476977824802623e-03,-5.136578126331106317e-03,-1.164855250351638956e-02,4.961470961570739746e-01
-1.232824928129813355e-02,-3.112841459793631027e-01,2.160542946754794857e-01,4.751661701213533325e-03,1.607246922916753492e-04,5.556216330717279189e-03,4.582247734069824219e-01
3.763753239243326429e-03,-2.380220417455461424e-01,2.761649354955894031e-01,3.529077136206032819e-03,8.386583183141891815e-03,-1.091728219964486438e-03,4.458446502685546875e-01
8.912583257115240520e-03,-3.091678330967910227e-01,1.589873553789884764e-01,2.875437390688259306e-03,-7.015928779760129130e-03,-1.271504321888902722e-02,4.148384332656860352e-01
-1.426531928766078608e-02,-3.180453797242231428e-01,3.034607482338728124e-01,-5.961571170540027123e-04,3.345789642232002009e-03,2.697727859564718255e-04,5.383176207542419434e-01
-1.772582886532807905e-02,-3.168061597572353061e-01,3.044867514009702569e-01,-7.709811463355179591e-05,4.505951019815166228e-03,5.871785924113624190e-04,5.382373332977294922e-01
-3.955899445436908413e-02,-3.300848817095023424e-01,2.282189617411751748e-01,-2.969562430373160530e-03,3.826467381623765984e-02,1.657660850235764469e-02,4.890297651290893555e-01
-1.704171440518997827e-02,-3.141510861279862565e-01,2.048598126256847562e-01,-7.930973832085692898e-03,3.179844144540194123e-02,9.867481669700984767e-03,4.549258351325988770e-01
-2.139457898977879455e-02,-2.933629498812436731e-01,2.010098717656159106e-01,-9.580355088125610792e-04,-5.776957246322345432e-03,-1.559592142250843146e-02,4.298256337642669678e-01
-2.296817047631960484e-03,-3.275226719230324157e-01,1.514192951084517846e-01,4.631193523941349102e-03,1.935732841980692884e-02,-1.876778398707242002e-02,4.261902272701263428e-01
-1.901574876552084709e-02,-3.158265389443615234e-01,3.041314457502747870e-01,2.917483227923915973e-04,4.168450967762251172e-03,1.950339918019412594e-03,5.371202230453491211e-01
-3.677207497192382102e-02,-3.064381454276741135e-01,2.964486716222365370e-01,9.988138031497868774e-02,3.097766902394807897e-02,-6.297586780354173797e-02,5.641983747482299805e-01
9.857601590249051582e-03,-3.218984950288854008e-01,3.093837785634176440e-02,-6.298130642885519867e-03,8.135540929985366626e-03,1.793495337703030282e-02,3.446487188339233398e-01
-2.599010384235558857e-02,-5.410140397186687933e-01,1.610624735422532261e-01,-1.267805543427897620e-02,5.209210862186983149e-02,2.996921784620304105e-02,6.386644840240478516e-01
-3.661166374839964349e-02,-3.119133135012510105e-01,3.154216077409049412e-01,1.409254462080306546e-02,-7.527288248798312716e-03,-4.530156288543606136e-03,5.453999638557434082e-01
-4.581156794089914774e-02,-3.865833747404282539e-01,3.330048457487360669e-01,-9.271449129702026559e-02,8.094073368609162877e-02,2.205412712528492802e-02,6.600140333175659180e-01
-4.386444674078626704e-02,-3.038845218349806032e-01,2.807534457029896569e-01,4.239848975188924458e-03,9.622549148522341333e-03,-2.327167874328250636e-03,5.076833367347717285e-01
-2.534751884495971969e-02,-3.006870771332857961e-01,2.110574967651348277e-01,-2.277948389083315171e-03,3.349189017238743665e-03,-2.086401245818384625e-03,4.436813294887542725e-01
-3.389877686587806221e-02,-3.145922374856275350e-01,3.044520742216247355e-01,-4.364810721197046745e-03,4.077136997140892727e-03,3.689832625564079364e-03,5.370203256607055664e-01
1.812055713128530449e-02,-2.954995859646045164e-01,2.882810565662933255e-01,-6.661482006310399072e-03,5.826606469846913779e-03,-3.369018693241715868e-03,5.063014030456542969e-01
-1.444200303277188430e-02,-3.412000273500077618e-01,3.761587552139853408e-01,-1.721327381157860756e-02,-2.904091215830000017e-02,-7.167964243438677829e-03,6.249358654022216797e-01
-3.067993543593856495e-02,-4.474048462836928142e-01,3.245303262143618972e-01,-7.657208184924600702e-02,1.042446173876093313e-01,8.116883578187898685e-03,7.058663368225097656e-01
-2.013783973328554106e-02,-3.207215937239164538e-01,3.044462702894356054e-01,-3.294125957898940901e-03,2.864799276699569845e-03,-4.520484084245150530e-04,5.415976047515869141e-01
-2.152047239416620544e-02,-3.235233202708758804e-01,3.092386013876425310e-01,-8.464907320514214809e-03,1.925120392929059038e-02,9.631264562387890655e-04,5.493878722190856934e-01
-4.253840296333379761e-03,-2.937632917014839640e-01,2.173690378089248032e-01,-4.714244096436495668e-02,7.173673934411044228e-02,-6.020121966587688167e-02,4.796588420867919922e-01
-3.820253959515858277e-02,-3.043127869918483830e-01,2.282138506310841253e-01,7.309442024341335567e-04,1.603231384330029707e-02,3.718099732634820749e-03,4.620634913444519043e-01
-2.202061660216126510e-02,-5.018978029190684920e-01,2.775386125115076874e-01,-3.195568795570437326e-02,8.779493242306513068e-02,-3.545078157095128257e-03,6.999961137771606445e-01
-2.057532087810927390e-02,-3.138083593035326246e-01,3.043491725416372917e-01,-3.016315233000369965e-04,4.066167596871300520e-03,2.389228167789780952e-03,5.356371402740478516e-01
-3.830407227971607820e-03,-2.859431714863799323e-01,2.994291315450329782e-01,-4.273513085514249812e-03,1.289269179485000479e-02,-8.693137690434482243e-03,5.078262686729431152e-01
-2.704697590374290084e-02,-3.080045983697269896e-01,2.360782763550564045e-01,1.145095254907879320e-02,-2.428309473268196791e-03,-1.018840803317691660e-04,4.717099070549011230e-01
-2.960183809116977323e-03,-3.209284756517856163e-01,2.976954419183465150e-01,-1.606997685788170375e-03,1.548872573937371336e-03,2.432896750226375311e-03,5.358444452285766602e-01
-1.250535866198265733e-02,-1.135795983354264960e-01,4.882862953341893242e-01,-6.953618499984758061e-02,-1.889731249328826428e-03,-1.063365662474758354e-02,5.713853240013122559e-01
-2.114690161174336003e-02,-1.545168803911383393e-01,3.458154746272537050e-01,-9.028854958224186156e-02,8.003443530660950267e-02,-1.497100710603151835e-02,4.957173466682434082e-01
-6.723987771668504115e-03,-2.972903577878725501e-01,2.478050007998849891e-01,-7.486004195372135406e-02,-5.299783779075516177e-02,3.805381745350296932e-04,4.984076619148254395e-01
-4.083203349274888011e-02,-3.175744585082391214e-01,3.019858848201626977e-01,5.157740037175402581e-03,-1.018906493990829297e-02,8.415120349303126246e-03,5.381323695182800293e-01
-1.680998514801020083e-02,-1.696269285105081182e-01,2.376792199712628173e-01,-4.499353824428597992e-02,2.241517028018913393e-02,-1.509578542749823692e-02,3.677937686443328857e-01
1.854293994776255857e-03,-2.929564667149376356e-01,2.920244787956681742e-01,1.118360035874095895e-03,8.707957182371524676e-03,2.185056350151245996e-03,5.068559646606445312e-01
6.947106423937678132e-04,-3.035040719202707904e-01,2.941188496797852436e-01,2.527132620267067385e-03,2.174980912972379686e-04,1.659835479204477878e-03,5.176113247871398926e-01
-7.148110816282882488e-03,-2.812995838586767605e-01,2.994890659881074835e-01,1.655128050402698088e-04,1.561759576180751265e-02,-7.826953228711077196e-03,5.041487812995910645e-01
-2.253365626052647452e-03,-3.163497208175093944e-01,1.518785535844637546e-01,2.374419305204775524e-02,-8.188400963413636213e-02,3.643899765767597693e-02,4.434131085872650146e-01
-2.409123155943874300e-02,-3.201193234133684062e-01,1.631448665054893443e-01,3.019895514786058704e-03,-4.943170442459537267e-02,-2.845520862483415670e-03,4.306962490081787109e-01
-1.809706800285178913e-02,-3.782417369767369086e-01,2.175147495699777389e-01,-6.594881981013099234e-03,-7.048137267006988893e-02,-1.047490957675367013e-02,5.342602133750915527e-01
-1.720605088188234544e-03,-3.138328021580708005e-01,2.980477803756688138e-01,-7.653682647453699354e-04,1.567761569455785892e-03,-4.635672919621619818e-04,5.299493074417114258e-01
-1.815617404401680818e-02,-3.252087765497861938e-01,3.001716700649357250e-01,1.390196104939951270e-03,3.013498266540184895e-05,1.670935069653210845e-03,5.416377782821655273e-01
-1.776600762883029372e-02,-4.004797009867315793e-01,1.398759837321074950e-01,7.554400553964236639e-03,-5.385368454548460082e-02,5.335101752214990722e-02,4.990625083446502686e-01
4.354415225896526853e-02,-2.071369434523562258e-02,4.925665051241217007e-01,8.866580872819426751e-03,2.817059791440661154e-02,2.264901211350957982e-02,4.886296093463897705e-01
2.086457345183204137e-02,-4.472607623883795291e-02,5.020503842034388375e-01,-4.434342338961282104e-02,3.888077770689089569e-03,-2.962189312894460830e-02,5.253379344940185547e-01
-3.602232422222226282e-03,-3.771495582219321352e-01,5.674539642674703011e-02,8.208687948939303106e-03,-5.041128616464485290e-02,5.145777175166562495e-02,4.260186553001403809e-01
-3.906707860278101074e-02,-9.988645680156080231e-02,2.849494159157792694e-01,-2.658220796713445418e-03,-1.774915066879672113e-03,1.249316611549730280e-04,3.583613634109497070e-01
-2.949423250637280003e-02,-9.579433656335836766e-02,3.095677093427601778e-01,1.922866323653618301e-02,6.054470910220917899e-03,2.964854724635163086e-02,3.816999495029449463e-01
2.214737415358733474e-02,-3.679543806731697120e-02,4.793664140456064260e-01,8.198472128000792308e-03,-6.989911549590295710e-03,-3.365211456190080747e-02,4.931722879409790039e-01
-1.840177797101361437e-02,-3.294478768921585421e-01,3.049159190557397259e-01,8.586128555681905384e-04,6.013898861683356772e-03,-1.103276538969835598e-03,5.495135188102722168e-01
-3.342520019323368813e-02,-3.406905451996548040e-01,2.618826233644025447e-01,1.754111747455412013e-02,-1.298021513128154447e-02,5.875647726197651827e-03,5.233437418937683105e-01
-2.142970307107234726e-02,-3.119850008278235443e-01,3.263768742547216717e-01,-4.138881556121474029e-03,6.246593874779702606e-03,-7.914220103234609685e-03,5.539000034332275391e-01
-9.694991267710867389e-03,-1.492869701856716635e-01,3.328881929376737436e-01,-4.728066492239117041e-02,4.343504716558629908e-03,-3.978437191854664046e-02,4.429248273372650146e-01
-3.580494120702447380e-02,-1.247591260891206255e-01,2.764851607138870682e-01,1.516296027463469960e-03,-1.978882163071943052e-03,-3.402105758682831289e-03,3.650627732276916504e-01
-4.010094589356739958e-02,-3.371572670684770956e-01,2.934611142320710520e-01,6.827302891538504850e-03,-2.921740315196774684e-02,1.045818975402264261e-02,5.492010116577148438e-01
-2.584871704637067141e-02,-3.117251574340774156e-01,3.102272782747294011e-01,1.867087890215560209e-02,-3.794083553292895705e-02,-1.620985279449769015e-03,5.441698431968688965e-01
-2.114745444155376186e-02,-3.324755381471872773e-01,2.544811885670645313e-01,1.435401847072210872e-04,1.446977627924425632e-05,1.127858514950842890e-02,5.090078115463256836e-01
-3.928895651165574543e-02,-3.091407871326386503e-01,3.024526816111767213e-01,1.918507615522335643e-03,-1.016060504975333303e-02,-6.154068580741468755e-04,5.311768651008605957e-01
3.336883440267390810e-03,-8.449744526693936386e-02,4.781440632454289630e-01,-4.695170082669792438e-02,9.336256802706087172e-04,1.395629480794397144e-02,5.310945510864257812e-01
1.126281194865924595e-02,-5.174955746982379257e-02,4.861418323664975505e-01,5.011262453046080173e-02,-1.376314230821454494e-02,-2.600854337652741891e-02,5.191679000854492188e-01
-3.488514301231870895e-03,-1.104387567421300509e-01,3.362505984277187054e-01,-3.934405782038267324e-02,-2.271167743024475431e-03,1.517726705099458305e-02,4.105442464351654053e-01
-2.707191559701684069e-02,-3.134066688598207140e-01,2.913109873362663693e-01,7.170531147735657862e-03,-6.344040585931891990e-03,6.759661897951755628e-03,5.243390202522277832e-01
-2.020408732465748050e-02,-3.359405564646124054e-01,2.702290516554859412e-01,5.304001254671196486e-03,9.533635331189379246e-04,-6.644884484188016277e-04,5.251949429512023926e-01
-1.857376061368555195e-02,-3.301507414352882197e-01,3.106542416189941314e-01,-2.714631997870553017e-03,-1.053025704928443494e-03,-7.012442784622581991e-04,5.550478100776672363e-01
-2.707727115484206276e-02,-3.152563365224331782e-01,2.975855206132972386e-01,-4.761121714299328123e-03,2.020023453092356647e-02,1.180993538645892620e-03,5.322691798210144043e-01
-1.645916710519879089e-02,-3.252396550445010304e-01,2.975964281482285090e-01,2.041166372280967412e-03,3.406820738318668430e-03,6.864837836778384366e-04,5.394434928894042969e-01
-2.131642694676285851e-02,-3.801457820123879117e-01,2.775187954943348911e-01,-2.930399113763818442e-03,7.400267748313753280e-02,2.232095092043957091e-02,5.858681201934814453e-01
-1.846980282154427749e-02,-2.640751733078706698e-01,2.998798142298210734e-01,-1.810250415573772323e-02,-7.320623368886154322e-03,7.792351828857129077e-03,4.911037385463714600e-01
-4.798526300972318775e-02,-3.090551276610576381e-01,2.749219756268834747e-01,1.389464442021977645e-04,2.183430904230710800e-03,7.403127691372645347e-04,5.066990256309509277e-01
-1.244036105499854959e-02,-3.109908732856829783e-01,3.071157406816358293e-01,-1.024930987040302641e-03,-2.792669400614708301e-03,-2.599612481755505557e-03,5.354427695274353027e-01
2.126558661799191757e-02,-2.921705617174760183e-01,2.883166825765076102e-01,-1.641094376033124620e-03,3.243729398032418106e-04,-2.331790450205704131e-03,5.032759308815002441e-01
-4.543229281946724318e-02,-3.092833767903149789e-01,2.721887977846065843e-01,1.437411678237992662e-03,-4.019744825135764844e-03,3.806457743845837859e-03,5.043841600418090820e-01
-3.203984357639488162e-02,-3.107406476697930353e-01,2.956098219054717480e-01,-1.612643475788211539e-03,3.809394612602503682e-03,3.546951449717523647e-03,5.257696509361267090e-01
-1.924993325643827025e-02,-3.085958494021461274e-01,2.936161931202799225e-01,-1.600288684182325219e-03,5.535043835483765412e-03,7.601753962449305088e-04,5.217605829238891602e-01
-1.402521368183508657e-02,-3.190323957480122319e-01,2.606165219300390912e-01,6.193032432596601126e-03,1.390221310286686961e-02,-1.128004208086714719e-05,5.029115676879882812e-01
-2.519337315785468226e-02,-3.028397841591436435e-01,2.315307919886231414e-01,4.914007500420447018e-03,-2.653806659052160982e-02,4.459629158752149991e-03,4.653152525424957275e-01
-2.066396092733506495e-02,-3.223491032482955765e-01,3.051602879967541537e-01,-1.563304380040091363e-03,2.212350758942994034e-03,1.156196707911584997e-03,5.435970425605773926e-01
-4.245126648995727059e-02,-3.128586212490314655e-01,2.869715980106722908e-01,1.357085109156480575e-03,-5.143084837061372497e-03,1.373503208969399821e-03,5.203925967216491699e-01
-5.363361542806933599e-03,-3.219416566646258748e-01,2.998640520300405732e-01,-1.313828069202244153e-04,5.038156926557684108e-03,2.763440073465573722e-03,5.386214852333068848e-01
-4.236551792808317118e-02,-4.260110278830408492e-01,3.229387333802982152e-01,-7.833652357675123523e-02,-6.128692510583887143e-02,-5.155598803299867548e-03,6.712199449539184570e-01
-3.951493346731661110e-03,-3.103991301982710338e-01,2.954117838617625336e-01,2.067144411130228583e-04,-1.318742725751177389e-03,4.476432304270651016e-03,5.247219800949096680e-01
-1.066944248444041260e-02,-3.073686355653048596e-01,3.043447603796168854e-01,-2.571916693012296293e-02,1.502808564274948043e-02,5.012158427981736053e-03,5.324153900146484375e-01
5.974109318737021168e-03,-2.966418407321272932e-01,2.934169539473442945e-01,-4.444815562330412667e-03,-2.034723558064370757e-03,-4.060418450925844202e-06,5.111323595046997070e-01
1.061572247114220269e-02,-1.842606154214109226e-01,4.289892804877684096e-01,-5.139370938522851845e-02,1.838973703481138963e-02,-1.745030661372418915e-03,5.509010553359985352e-01
-1.812709714845371634e-02,-1.331628480891421107e-01,2.860829790561402186e-01,-2.326743232831344089e-03,3.989305139964107426e-03,1.120959423149145645e-03,3.752862811088562012e-01
-4.409050819562487789e-02,-3.053168600104693708e-01,2.875140260735761788e-01,3.203669244453287608e-03,-2.951488097599554161e-02,-2.782656796319310510e-03,5.171962976455688477e-01
-9.754097662830196747e-03,-1.244824345429451362e-01,2.829093261420837502e-01,2.612945363113772582e-02,6.209166228823209850e-03,5.843528884250538853e-03,3.669572174549102783e-01
-1.880004337484229154e-02,-1.275992309205820074e-01,2.773220695633293320e-01,2.361886127832238391e-02,-2.490383595263879948e-03,1.321816475422471591e-04,3.652884066104888916e-01
9.772685058205610176e-03,-2.676319931884292846e-01,3.039355234983974197e-01,3.462918439686339667e-02,-6.035097248648493840e-03,-1.242622523740721970e-02,4.992567598819732666e-01
-2.067642709697097014e-02,-3.173999583993392104e-01,3.158938490354325501e-01,-8.493520080293859081e-04,-3.624452932416762953e-03,-7.646462177321098046e-04,5.488497614860534668e-01
-4.855726961458661090e-02,-3.087437085776943979e-01,2.703900669387214739e-01,2.780125540933186742e-03,-1.564531586007463990e-03,1.863892149707537188e-03,5.024451613426208496e-01
4.414064049123572059e-03,-2.180245177983941296e-01,2.764875038091491044e-01,3.468189950701976859e-02,5.004453208550309687e-03,1.306122640377031276e-02,4.338409006595611572e-01
-1.939422594304866104e-02,-3.314743324448570783e-01,2.850784754663723275e-01,-1.561515081779699847e-03,1.554541527114263475e-03,-3.058241847823439988e-04,5.339778661727905273e-01
-4.965561995374026538e-03,-3.157909347071651274e-01,1.628984824619830463e-01,-1.169921715098832214e-02,2.111600658926564289e-03,3.585056347655497105e-02,4.257310628890991211e-01
-2.892393300710592238e-02,-3.128740319047366714e-01,3.110954186968558077e-01,-6.630612656607011088e-03,6.399503537462988140e-03,-8.896680899759501840e-03,5.415547490119934082e-01
-2.029704274995788871e-02,-3.219694470571069500e-01,9.049933495824705187e-02,-5.201450198946475437e-03,-1.158287000001407586e-02,-2.501822329758567141e-03,3.704169392585754395e-01
-4.331243349854697194e-02,-3.069265077018422661e-01,2.811274460542732001e-01,1.061875231779905050e-03,-2.496137462127717439e-03,-4.123405709495611476e-04,5.101990699768066406e-01
-3.583564059467681667e-03,-3.208025565518252131e-01,3.004160996073238499e-01,-6.572335274394193027e-04,7.248009814999558861e-03,-1.000696967179704952e-03,5.381821990013122559e-01
-2.323607701758405308e-02,-3.184772885214915417e-01,2.877259524214068609e-01,-8.894690461144116184e-03,-1.733130360945168546e-03,-3.587620056765251919e-03,5.253175497055053711e-01
-1.861819265319354308e-02,-2.794847623197884712e-01,3.138732695911933268e-01,4.814485685549346750e-03,-1.300557256776893947e-02,-8.086985368658447179e-03,5.158594846725463867e-01
-1.714855298121276128e-02,-3.474004683709099317e-01,1.579302550896277135e-01,3.120139020831303941e-02,8.525246608454392638e-02,-1.903432088635512165e-02,4.725996851921081543e-01
-2.696847308513472541e-02,-3.255220468167635550e-01,4.621323182070599112e-01,1.006146189627413062e-01,3.724006839330740865e-02,-3.159168795497421800e-02,7.154726386070251465e-01
-2.889235697484514309e-02,-4.827964789393268119e-01,2.286426031272527082e-01,-3.865028421485296878e-02,-8.289389474051722662e-02,4.319879643985696793e-02,6.480305194854736328e-01
-4.659360488584232685e-02,-1.805203097462524386e-01,3.477146974012922387e-01,-2.278527722894592433e-02,3.708000857013991382e-03,-4.645958464969020263e-02,4.840434193611145020e-01
-3.090560170385539540e-02,-6.459922372239942923e-02,3.327644455423223180e-01,1.312889780072218522e-02,1.332622903920489561e-03,-1.500573382257530154e-02,3.832003176212310791e-01
-5.638089550340417977e-03,-4.946093719906413111e-01,3.888838848701730022e-01,5.672251169258946818e-02,1.254843886822330223e-01,-1.158325611326197629e-02,8.030841946601867676e-01
-1.064889767169800716e-02,-3.605367474394909899e-01,1.009079891413011409e-01,-3.235562323500849793e-03,1.905126832103663445e-02,-4.323542092327003344e-02,4.250023663043975830e-01
-1.629618711826965466e-02,-3.223175371406158396e-01,2.550401601808448548e-01,-5.990773511414654133e-03,1.100004089648591197e-03,4.327287709049673116e-03,5.004744529724121094e-01
-2.268544038048960279e-02,-1.886310507224966126e-01,1.534761862435894963e-01,-2.753467957860840365e-02,3.016236828868691308e-02,2.018026639560046090e-02,3.066425025463104248e-01
-2.616508103645842631e-02,-3.084816247430417491e-01,2.115012136908831497e-01,2.769203855002452114e-03,2.942357731473066625e-03,-3.258507193052432444e-03,4.509610235691070557e-01
-4.219598469648266903e-02,-5.524288588529921995e-01,1.010529852291584541e-01,2.800193455875470833e-02,-5.872779344358203257e-02,5.354049489078635538e-02,6.125741600990295410e-01
3.576064807166870474e-02,-2.137214444356501652e-01,3.100573692063960940e-01,6.225702871013810008e-02,3.952703568185422442e-03,1.280178162380036892e-02,4.669887125492095947e-01
-1.209122073252466567e-02,-2.505406481884450698e-03,3.436098417496669111e-01,3.747445891540364393e-02,-5.358415426175807371e-03,-1.042787516449020756e-02,3.575343489646911621e-01
-3.406638798802860690e-02,-3.117637644817234932e-01,2.925500164351595989e-01,2.466586487191773681e-03,-8.867903705648961903e-04,-1.270034104541109890e-03,5.239466428756713867e-01
3.822957024841325269e-03,-1.678093932744079697e-01,2.867985732247628761e-01,3.701581749472619004e-02,4.317858923406516988e-03,1.387662930467328977e-02,4.035402834415435791e-01
-4.097113808353454456e-02,-1.362281460493221519e-01,3.172228592799031244e-01,-2.099851002573369790e-02,8.830542924270609953e-03,-2.521223236741624782e-02,4.182834625244140625e-01
-7.129783662014358044e-03,-3.091196936042731047e-01,2.964101527317562490e-01,-1.079569468362600714e-03,9.959528366093260351e-03,-9.515743674007308851e-04,5.246943831443786621e-01
-1.692021669902129405e-02,-5.110011314868792009e-01,3.497876773166342379e-01,3.811835934773293022e-02,1.032493827781510304e-01,-3.527831489967631073e-02,7.744985818862915039e-01
-2.391979437287095750e-02,-3.206687734760894082e-01,2.972044938382653601e-01,-7.380351472584604751e-04,2.905158175709662014e-04,-3.506981584623464383e-03,5.352689623832702637e-01
-1.152413906605578853e-02,-5.450029782629717268e-02,3.583122595608020378e-01,-4.009676479849874631e-02,-1.599795927919840308e-02,1.547922134576783714e-03,4.001478552818298340e-01
-3.540322245058239586e-02,-3.267790475330866196e-01,3.097222460978655278e-01,-5.829033776376997154e-04,2.786820653388173696e-02,-6.185755103434338598e-03,5.540924072265625000e-01
3.088596855444589173e-02,-4.390206174737265599e-02,4.818886086738619623e-01,2.408320214594029951e-02,-1.209244977328479721e-02,-1.513118912850503969e-02,4.955721795558929443e-01
1.160576934855610254e-02,-6.984973788220094626e-02,3.378325409558667891e-01,2.369331963628862683e-02,-3.180865364319684224e-02,-5.231753207260471383e-02,3.905928134918212891e-01
7.045815091360971283e-04,-1.809930384608369747e-01,2.116925528488379782e-01,4.541349179157454230e-02,-4.569610006917615430e-02,-3.068737171724095214e-03,3.582537770271301270e-01
4.365273289973835985e-03,-2.074971820671544509e-01,2.818786283018429040e-01,2.308251847326551337e-02,8.511238092825829452e-03,-1.579823960668440361e-03,4.272203743457794189e-01
-3.769635139868768997e-02,-4.148837452286628369e-01,4.733902278125916019e-01,-1.091534383703912370e-01,3.355774779955451870e-02,-7.311702371422082111e-03,7.972059845924377441e-01
8.804229755148343384e-07,-3.266871948078189369e-01,3.158004183492389982e-01,-2.242954031824089325e-02,1.097285617436499251e-02,-4.095065775017748926e-03,5.581605434417724609e-01
-2.142303787540549703e-02,-3.315230007990451755e-01,3.043293239759429780e-01,4.757490102921272702e-03,5.758432759180700036e-03,3.790732641341518737e-03,5.509109497070312500e-01
-1.101621908891259240e-03,-2.780876782185428553e-01,2.738374477967250864e-01,-6.524594076945398891e-02,4.947300573111205330e-02,4.687307007638230258e-03,4.986449778079986572e-01
-1.241368244069145782e-02,-1.920802364949949492e-01,3.418792865910821877e-01,9.240916466682350117e-02,1.192329682961543701e-02,-1.514415182791095313e-02,4.981877803802490234e-01
1.285618077880017716e-02,-3.077856654565098160e-01,3.077666594592299854e-01,8.906905211220951871e-03,-7.008368323782258012e-03,-7.623554836043035417e-03,5.337637662887573242e-01
-5.260531893453268548e-03,-2.745506187806912024e-01,2.920668929220259780e-01,9.794887503654159996e-04,1.343487702143970550e-02,-2.264130901697132808e-03,4.914751350879669189e-01
-3.751971237269198511e-02,-2.730776925031019320e-01,4.125185983135805645e-01,-9.375632582268189630e-02,7.306520848306231886e-02,-1.320588725983513380e-02,6.379197835922241211e-01
-5.327296398203901738e-03,-3.416691524172210115e-01,3.442537632703492889e-01,1.424296991006955559e-02,-4.175482952440859145e-03,-8.191101859532659568e-03,5.947887897491455078e-01
-4.346832906493379618e-03,-3.280190365163571653e-01,3.052582279262383014e-01,8.658976277380964204e-03,-8.608076900255020800e-03,-1.024009510063198826e-02,5.491733551025390625e-01
1.410737122226424743e-02,-3.120889973841102227e-01,2.969651949532585711e-01,2.082972303807487102e-02,-5.679579267134377690e-03,-5.795499538682815331e-03,5.293193459510803223e-01
-3.935963075253728904e-02,-3.046234155495768370e-01,2.753002243031413276e-01,4.407425536272692457e-03,1.162038113712476531e-04,1.561194636111341025e-04,5.028935670852661133e-01
-3.326900530093981900e-02,-6.052509428425324467e-01,8.431545528352607510e-02,-1.563145433782090615e-02,-5.699324014648232684e-02,2.693846533138419957e-02,6.487683653831481934e-01
-3.407435621479400212e-02,-5.598738896719842595e-01,1.281646418833789491e-01,-4.165186871369493116e-02,-6.248964635769183040e-02,3.250403242855511021e-02,6.388903260231018066e-01
-6.989640749285456253e-04,-3.050346838427020479e-01,3.006691814083287673e-01,2.312966419021556669e-03,-4.390201988232927607e-03,-5.379930998459249089e-03,5.247101783752441406e-01
-1.596021439704779082e-02,-3.288225062319402037e-01,3.112272750909830243e-01,1.192041646547900308e-03,3.991102052152615404e-03,-4.560511619539731423e-04,5.543931722640991211e-01
-2.214638531443207520e-02,-3.332860256570705504e-01,2.644503221647992453e-01,7.994214091345803672e-03,2.039646011356868293e-04,1.121948556017363270e-02,5.183498859405517578e-01
-2.175090394297542196e-02,-3.277537025311797469e-01,3.115135295530293558e-01,1.240367507008391466e-03,1.935806232682996553e-03,1.134264615990609928e-03,5.538072586059570312e-01
-2.323853350525881614e-02,-3.467188998933034561e-01,2.402204520652606590e-01,-3.441994290884591023e-03,-1.791058493909363164e-04,4.209694647980653098e-02,5.144181847572326660e-01
-1.116179604082831456e-02,-3.274079158880545681e-01,2.030021838905201048e-01,1.056990965520153945e-02,3.719263056897739120e-03,9.489003915279840828e-03,4.628748595714569092e-01
-2.372215800831985882e-02,-3.332616677815655182e-01,3.076416827009109678e-01,5.247960501596108480e-04,7.598634116107846372e-03,2.286937851077952642e-03,5.553166866302490234e-01
-3.411924887408733509e-02,-2.502794749633489024e-01,3.097906452526798526e-01,4.838871791553663558e-03,1.128224185687931114e-03,3.978854194497671859e-03,4.893469810485839844e-01
-9.149178143721323903e-03,-3.282562622930383367e-01,2.305298931477142155e-01,1.550407315914432158e-03,3.086721633609747738e-03,-5.052366409178343093e-03,4.856655895709991455e-01
-2.913536923821855029e-02,-8.643804037448629685e-02,3.229064073826176107e-01,-5.137049362484677473e-02,-2.609373655165852894e-03,-2.218232012532425721e-03,3.941343724727630615e-01
-3.054805550586334878e-02,-2.215871686677960695e-01,3.336646688300828334e-01,-2.058779011562004643e-02,-4.281464923677904579e-03,2.293436006836958776e-03,4.899674057960510254e-01
-3.669636057344550367e-02,-3.056377147570019104e-01,2.607421969377417548e-01,5.346637314480401360e-03,1.710229776261002269e-02,-1.612697721587135705e-03,4.916947185993194580e-01
-4.118789127890333523e-02,-3.122137906872883839e-01,2.808339453947509279e-01,2.219666074292229833e-03,-5.155767412531239973e-04,3.076506454376580317e-03,5.142697095870971680e-01
-2.089002509726809939e-02,-3.115519793042189067e-01,3.155553080158621237e-01,3.775641246456286088e-04,-7.802277607956912067e-03,-4.314213881824217715e-03,5.437927842140197754e-01
3.984118284040924496e-03,-1.312035568100571037e-02,3.437347619016122291e-01,-1.443069986908585836e-03,1.617962236432836723e-02,1.197473859667894450e-02,3.503656387329101562e-01
-2.912575601227773703e-02,-2.775930956986607523e-01,1.719570106875967508e-01,1.543713902973074294e-02,3.193486888942487917e-02,-4.946612282531817617e-02,4.040395021438598633e-01
5.818400240367185838e-03,-2.958796259134768847e-01,2.869428882933260927e-01,5.715919220600895051e-04,-6.100178163548216140e-03,-5.554995299912083521e-04,5.049563646316528320e-01
-3.067272618222441349e-02,-5.378505590051466667e-01,9.709281261291041742e-02,-4.699871484514561715e-03,6.612721569765506180e-02,4.105300943838130143e-03,5.929489731788635254e-01
-4.421870202064007160e-02,-4.606597909779944211e-01,1.364884964297192749e-01,-2.074060126393519055e-02,1.484423295263323506e-02,8.907266558296534926e-04,5.322462916374206543e-01
2.576305779623691561e-02,-5.292320951136772478e-02,5.289577450933595770e-01,2.612884721125898618e-02,3.053538038651163952e-02,-1.328728773569159277e-02,5.516937375068664551e-01
-1.099186807352227346e-02,-4.915783759904346351e-02,3.153470897777059800e-01,4.813416802418933604e-02,-1.615604997825248815e-02,-1.685840213059804429e-02,3.591589629650115967e-01
-2.164876529867100496e-02,-2.332809880167222016e-01,3.205320393581064242e-01,1.464630685288456288e-02,3.329355182314359257e-02,-1.730194464701263757e-02,4.890392422676086426e-01
-3.237887434577370327e-02,-9.621185640797672023e-02,3.246605727348368386e-01,-3.819078865141320445e-02,-3.810641186456804452e-03,3.323592232897628479e-02,4.025863409042358398e-01
-3.361507027844732459e-02,-2.486774039209681542e-01,2.997300394066868545e-01,2.803453573416836171e-03,5.998120226996019868e-04,9.922919375122650487e-03,4.789371490478515625e-01
-3.579707070532294616e-02,-2.804372753601541146e-01,3.772577731716106886e-01,-1.252379456203727426e-01,9.222808010021463221e-02,-1.503210504006735962e-02,6.362094879150390625e-01
-1.733046072780064506e-02,-3.234980847987701247e-01,2.521510314901405647e-01,-2.900056509158772250e-03,-1.747964071826049440e-06,6.423926860162011004e-03,4.990134537220001221e-01
-4.377991871783877553e-02,-2.619029083998197782e-01,3.066736626755736661e-01,1.251389075983534238e-03,3.974466650953929932e-03,-5.980354825794686330e-03,4.969876408576965332e-01
-1.163003949577726126e-02,-4.428615872609326098e-02,3.619906909428100561e-01,1.332192513237800274e-02,-4.224469076120098560e-02,-4.305939466954123579e-02,4.053498208522796631e-01
3.663207910240218190e-03,-3.261938695562002777e-02,4.936663808504150319e-01,-3.592781090305081915e-02,2.614997642713889903e-02,-2.767723192328628082e-02,5.171267986297607422e-01
-4.438051296522031730e-02,-3.050345097307083919e-01,2.746437152138168081e-01,4.257925522459030977e-03,7.400474415227256859e-03,-2.498231796556741637e-03,5.030997395515441895e-01
-2.808830915653382637e-02,-4.315500806906786835e-01,2.705600490256903079e-01,-9.287468661669369407e-02,1.016483477294073262e-01,2.300283528800847396e-02,6.564503908157348633e-01
-1.134738234409856175e-02,-3.273149362920643179e-01,3.967703692620135891e-01,-8.295262307253756240e-02,5.194819105123645725e-02,-1.040398396926431844e-02,6.514687538146972656e-01
-3.343811955773341726e-02,-5.000852874816446025e-01,1.494191809920045189e-01,-8.442475206829408441e-02,1.067273954530842395e-01,8.286062091169016375e-02,6.424007415771484375e-01
-3.868242223958974491e-02,-3.127294302611438592e-01,2.816850720241051986e-01,3.877408040601005787e-03,6.402256713649209438e-03,-8.728783421673760303e-04,5.154640674591064453e-01
-2.961074157068965471e-02,-3.053028765139605971e-01,3.081843597372145860e-01,1.914615282075905972e-03,5.905988670892687795e-03,-2.681235802268421963e-03,5.323310494422912598e-01
1.029626240082377395e-02,-3.010160951865287760e-01,2.983022889548314627e-01,1.797531256385363069e-02,-6.428598147479805056e-03,-9.676318658854153251e-03,5.204775929450988770e-01
-4.404612084123446514e-03,-3.267204031910810880e-01,1.281226727616097960e-01,-3.259508605364772570e-03,-2.853942008944823552e-03,-3.108763373302090259e-03,4.052800238132476807e-01
-3.968390180472779888e-02,-3.069761059787897706e-01,2.895089251551532517e-01,1.003747438513566967e-03,3.415755348075072157e-03,1.257317195075626426e-03,5.175388455390930176e-01
-3.065572890851279639e-02,-3.166638991804852643e-01,2.592438408452120147e-01,5.438718307564170684e-03,1.002050333728545829e-02,-1.297385582520307239e-03,4.991503655910491943e-01
-3.241504075958676068e-02,-3.136765246555571207e-01,2.525192961481087517e-01,6.477381361208656672e-03,6.372246747426746176e-03,2.884994543366715871e-03,4.906213581562042236e-01
-9.044717410676859567e-03,-3.203598497060969885e-01,3.003934085879332305e-01,-3.471913409362489627e-04,8.183941497063269149e-03,-5.740568730377862503e-04,5.377770066261291504e-01
-7.913475722541030155e-03,-3.275295837120894005e-01,2.174957235218796803e-01,5.388398641522895542e-03,7.746022862311367253e-03,-1.181003407334556277e-02,4.750723242759704590e-01
-2.293521244660223779e-02,-3.164025285591746672e-01,2.940910738323667117e-01,3.899514577094923256e-03,1.584260247752651389e-03,-2.775253441832523787e-03,5.289062857627868652e-01
-2.196391761801464587e-02,-3.167755716509086383e-01,2.968389157835404912e-01,2.808887133755759869e-03,3.128226015808538950e-03,-2.918372505985221410e-03,5.316150188446044922e-01
-1.862492353363750380e-02,-3.044032443840558044e-01,3.077219178659632570e-01,6.152788209223747883e-03,-9.358241458994082107e-03,-5.185031303043085085e-03,5.309343934059143066e-01
-4.571610272496997446e-02,-3.302535400923841680e-01,2.226305661901831767e-01,6.913730513663586368e-03,5.110290066308756374e-02,-1.307312916345930963e-02,4.876646399497985840e-01
1.337216656156289818e-02,-3.157042258179101335e-01,6.564420064393969301e-02,4.813001244662859328e-03,6.228196197131103187e-03,5.864771036371760164e-03,3.584887385368347168e-01
-2.856022128308807750e-02,-5.334166993630884424e-01,1.565165681451626822e-01,1.311856312085566030e-02,6.870613809839114239e-02,-5.105339767348438668e-02,6.364494562149047852e-01
-1.573452645946771256e-02,-3.106942062561717788e-01,2.972005744048620834e-01,-8.835563949757174653e-04,-3.202306512971414294e-03,3.344125803065660612e-04,5.265607833862304688e-01
-1.409927592071664971e-03,-3.103924069875411140e-01,3.039014784862603680e-01,7.003096921672041959e-03,4.154566946139006713e-03,-2.314192910608561717e-03,5.321992635726928711e-01
-8.256029862430982330e-03,-4.126568953063431411e-01,4.463485661551428452e-01,-3.262716375589209961e-02,7.163658749734676257e-02,-4.831489661528724083e-02,7.613408565521240234e-01
-2.131143033707995002e-02,-4.382367421114972683e-01,3.349156825176777263e-01,6.825833449944135323e-02,2.760212973628220490e-02,-3.056517640806765204e-03,6.823018789291381836e-01
-3.389278062317052642e-02,-3.067440811639263742e-01,2.821172588153068594e-01,4.063575157015692808e-03,-9.398345185234903811e-04,6.449774728932066098e-04,5.104776024818420410e-01
-2.022696667177635577e-02,-3.240417216851792515e-01,2.954191305732777884e-01,-3.333229004555366987e-03,6.514114134920560937e-04,2.389115332814763411e-03,5.365496277809143066e-01
-1.948662116375156697e-02,-3.187375881157518132e-01,2.304430237332082410e-01,5.225991777987242654e-02,-7.491018769246968190e-02,9.698726450100888380e-03,5.021132826805114746e-01
-1.048602636508144843e-03,-3.102155415011725315e-01,2.948377906880708665e-01,-7.739733384509890884e-04,5.285228758767649727e-03,-8.187339567480621597e-04,5.241172313690185547e-01
-1.985946933355220954e-03,-3.151586317013070349e-01,2.955279261421843162e-01,-2.797500541689056531e-03,3.136104597068826039e-03,-2.431479753696520513e-05,5.289781093597412109e-01
-3.769066683556754338e-03,-3.354656699022454669e-01,9.215913579439594105e-02,2.601407386967470245e-02,-6.869832097477171495e-02,1.189920957689887850e-02,4.094597101211547852e-01
-2.400051389990909279e-02,-3.058422035816434348e-01,2.198152101016805360e-01,-7.145642612378108084e-03,-1.457399732880554355e-02,-1.276898802986800238e-02,4.570315182209014893e-01
-1.308858723069844868e-02,-3.060641403858889720e-01,2.022107186048648642e-01,-9.179593533171274272e-03,-1.682344821109661064e-03,-1.586567376419487779e-02,4.430376291275024414e-01
-2.156709186118134502e-02,-2.907632572515682634e-01,5.356988559351991142e-02,3.493642001444697155e-03,-2.283441001206020643e-02,1.344079593233778527e-02,3.169882297515869141e-01
-3.389450938302936145e-02,-2.655170974932260508e-01,3.017582777352796897e-01,4.745160527953716121e-04,1.128357320840363623e-02,-4.635123904934650325e-03,4.944731295108795166e-01
-1.805966730586257979e-02,-3.284606857422500692e-01,1.471256518740455821e-01,4.469581958081442902e-02,-7.319501737468378511e-02,3.114759064916555395e-02,4.470848441123962402e-01
1.438934191295787590e-03,-3.158588076094771546e-01,1.007054686191801995e-01,-9.870655605228330874e-04,-3.011062876784668246e-02,2.399583924642956867e-06,3.804623782634735107e-01
-2.219025958209137547e-02,-3.042853139462656786e-01,1.913781567352983159e-01,-1.648645027721291315e-04,-2.005576935539087058e-02,-3.346368459909603195e-03,4.320602416992187500e-01
-1.352413335158479321e-02,-3.148864137526918294e-01,2.322211911664056050e-01,-1.049846573853693669e-02,-9.445531735933730688e-03,-1.357676535146047810e-02,4.758357405662536621e-01
-3.427820312424383065e-02,-3.064910244313281407e-01,2.336729140260342397e-01,3.633967463065482326e-03,1.274792262948647170e-02,1.189493746221564592e-03,4.683681726455688477e-01
-8.318642017288642096e-03,-3.202642150021403067e-01,2.609692357876106095e-01,7.445689159704498017e-03,-7.799486276980869019e-04,5.623305147219325589e-03,5.040755867958068848e-01
-1.469649452809692475e-02,-1.665016838437994029e-01,1.992846848628084810e-01,-4.568775097974924621e-02,4.352237042933706362e-02,1.172799918108499186e-02,3.371551036834716797e-01
-1.023431353942165674e-02,-3.036500831202157968e-01,3.039508643993976134e-01,-4.419560146829116035e-03,-8.504075371825244034e-03,3.013779654823947086e-03,5.265879034996032715e-01
-2.736529588601932517e-02,-3.073499273776763019e-01,2.905487978655310055e-01,1.433553646375871401e-03,1.083641101180777937e-03,-1.765946364426580935e-03,5.181610584259033203e-01
-3.205922338178229802e-02,-3.067843010352097055e-01,2.303731871739135850e-01,4.532803454288923499e-03,1.941142536662120860e-02,-3.097830702202329905e-03,4.665428698062896729e-01
-2.575426780313272088e-02,-2.616257840430664672e-01,2.883448487977534613e-01,-3.202922434458599713e-03,9.872903117114860926e-04,2.768500444563933363e-02,4.803267121315002441e-01
1.092568317594314053e-02,-4.556048301138954093e-02,3.521301107460512725e-01,1.347532351582841036e-02,-1.227711421496736378e-02,-5.750191688008687851e-02,3.870411217212677002e-01
-4.647973795106714878e-02,-3.073340568132996720e-01,2.793700617830471300e-01,-4.143657706712531620e-03,6.957210626717522627e-03,2.876845819610110953e-03,5.093563795089721680e-01
-3.786684474647952769e-02,-3.176361380074915752e-01,2.932406539695660008e-01,6.677127723766751975e-03,-3.609254851681212642e-03,7.179742280280366866e-03,5.299662351608276367e-01
2.519470455448438728e-03,-3.142015514358829087e-01,1.038699997797714603e-01,-1.683052876669481135e-03,-2.728755786453134283e-02,-2.855511458346615683e-03,3.807240128517150879e-01
-3.642233760747196764e-02,-3.037728778979442157e-01,2.277530571397461401e-01,-2.773332257036046408e-03,1.814086058651291633e-02,6.465103487510372605e-04,4.614152014255523682e-01
-5.725980862604104771e-03,-3.715042100855584506e-01,1.247772589125102083e-01,-8.270359799672890103e-03,-2.060219680645042351e-02,-2.227643487925887178e-02,4.489179551601409912e-01
-2.826966170378339069e-02,-3.286329174030293010e-01,1.889954688219641077e-01,-1.261668135348346410e-02,2.532610225955057859e-02,2.063918188310594898e-02,4.542690813541412354e-01
-4.200988102210517772e-02,-3.057370043618338196e-01,2.744059541366044574e-01,-1.958010870362835235e-03,-1.863956910524911708e-03,-1.248273200398205673e-03,5.031352043151855469e-01
-1.331956615437173558e-02,-3.076845107005073410e-01,1.600590931993887411e-01,1.276071884813933751e-04,-3.814029437527031996e-03,-3.532630834062971178e-03,4.096688926219940186e-01
-3.568395952514256259e-02,-3.352696160569160755e-01,2.701359814732769982e-01,-6.972889398337829558e-02,-3.281831362096213761e-02,-4.030939465521535259e-03,5.410757064819335938e-01
-8.461806042167632769e-03,-3.106253255610643138e-01,1.771684292700849983e-01,1.262428204248617269e-03,2.794447399391172468e-02,-5.259199266265576420e-03,4.292813837528228760e-01
-2.126226829845457786e-02,-3.200607008592698532e-01,2.971487594066233306e-01,4.330944580155223107e-03,-2.121655072245030773e-03,4.919735400740317399e-03,5.347421765327453613e-01
-1.017788554315803007e-02,-3.452632039696792998e-01,1.120390868630954939e-01,2.493487973423287596e-02,-6.105983115207699874e-02,7.199957214166695374e-02,4.435924291610717773e-01
-2.859953863898670456e-02,-4.914589863004447667e-01,2.974419374848893960e-02,-4.877542537547765317e-02,5.253887731445024134e-02,4.102016941552218132e-02,5.148921012878417969e-01
7.720488817779938562e-03,-3.155776756603807520e-01,1.121584969604277338e-01,4.611108583739928837e-03,-2.342545821897404866e-03,1.853389989655231801e-02,3.876910805702209473e-01
-4.741840400733121630e-02,-5.523425532242695057e-01,7.443045532721395685e-02,-1.459652305015433568e-02,3.419207929927541717e-02,3.900592091624279379e-03,5.792340636253356934e-01
-2.125741316761904642e-02,-1.107100275714301418e-01,3.187139914358176895e-01,4.287357694114337509e-02,1.830743119412949621e-02,3.946830399486238317e-02,4.064317941665649414e-01
2.670534393625495495e-03,-3.327124264260263864e-01,6.999786213257275236e-02,6.384981687288729044e-03,3.577154434069157452e-02,-1.473196106149406680e-02,3.797464072704315186e-01
-2.637686450863496734e-02,-3.161211112166523174e-01,3.085537401112665723e-01,-6.388455647260110441e-03,-2.463606154444330718e-03,3.434589973762953562e-03,5.416184067726135254e-01
-3.531492607789255000e-02,-3.176282621419557195e-01,2.957716514037221911e-01,-6.729013443380406877e-03,3.516619985582918745e-02,-3.425640260087571554e-02,5.386609435081481934e-01
-3.750090906933274681e-02,-1.535667773360510358e-01,3.136429320428386625e-01,1.495236935579914023e-02,-2.348616265501615903e-03,-6.513795147399646657e-02,4.369727969169616699e-01
-4.756029554988470964e-02,-1.863479555953121147e-01,2.971340718685164251e-01,-6.460186010217667564e-03,3.470862096591326423e-03,-1.648554260442370439e-02,4.323103129863739014e-01
-2.604113656225086337e-02,-4.943250676815115763e-01,1.396735799893393803e-01,4.778027359757415493e-02,-8.059680232779668774e-02,1.352493244787906189e-02,5.926532745361328125e-01
-1.175004842961828444e-02,-3.080777564535853164e-01,2.163865787751818592e-01,1.070847058260011690e-02,-2.010461530162019166e-03,-1.000530856112750045e-03,4.558714628219604492e-01
-2.706633555452055140e-02,-1.010861761667569414e-01,3.018113110924381948e-01,2.408451798319731149e-02,7.170762864458535583e-04,-6.236336589720340579e-02,3.890915215015411377e-01
-2.011254437016937388e-02,-2.846586954975283135e-01,2.970022664603774176e-01,2.689488159950880267e-02,1.987231672641207730e-02,-2.969682096767464405e-02,5.103316903114318848e-01
1.691574562982505608e-02,-1.205270618891444434e-01,2.633113348352257299e-01,1.641381854364284618e-02,2.568728462914107030e-02,4.378788893736993565e-02,3.492943048477172852e-01
-2.332961629172813911e-02,-1.929071289567129421e-01,3.708035617534962136e-01,7.918298834100985159e-03,2.445489791762384818e-02,-3.686392781428743902e-03,5.029479265213012695e-01
-7.702654005882082766e-03,-2.923156823461536824e-01,2.964855882322569025e-01,8.369688755441927891e-03,7.048687594958448488e-03,5.260511058132432728e-03,5.104441642761230469e-01
-3.721337053021259167e-02,-1.155097409765147853e-01,2.941725875342753316e-01,-3.910831194419051200e-03,-1.688980508343448797e-03,4.064285618054826014e-03,3.768252730369567871e-01
-4.209921535237003132e-02,-4.829311347776036878e-01,1.243808767550422245e-01,-1.788326636651910162e-02,3.577341673138306061e-02,-3.647013565019104758e-02,5.515677928924560547e-01
-4.244488445046452896e-02,-3.103049469029046659e-01,1.529995992858538822e-01,-7.324282919188167262e-02,6.581819356307317889e-03,1.552366854037042464e-02,4.233742654323577881e-01
-1.713245661560660812e-02,-3.211604565509321718e-01,3.271486840982714694e-01,7.855491439682173085e-04,4.240697646174500061e-03,-3.096349349456309352e-03,5.618880391120910645e-01
-1.810577465294128247e-02,-3.287540796581870373e-01,3.197673106482031291e-01,-2.993469314762827686e-03,5.795539227194149504e-03,4.767428236886606455e-03,5.619751811027526855e-01
9.711482124172445343e-03,-3.041570910940966654e-01,2.909693809763477246e-01,-1.539006423706741232e-03,-2.137782543939701404e-03,-3.528566345316042053e-04,5.156730413436889648e-01
-3.079571527278095536e-02,-3.979347443906366966e-01,3.284523085901072670e-01,-1.341464198865133239e-03,2.195359199095469477e-02,-7.758605698338265702e-03,6.303777098655700684e-01
-3.399695809300624927e-02,-5.266754857672878432e-01,4.044916719743596456e-01,-3.251003388409093309e-02,-8.763400560698296482e-02,-1.134442231965719985e-02,8.231854438781738281e-01
-3.788650056053693982e-02,-3.194355311965622612e-01,2.941469582212860034e-01,6.321928545474521551e-03,-2.750652412998623279e-03,7.991566168893463745e-03,5.322912335395812988e-01
-2.818368695234935856e-02,-3.268176920903341220e-01,3.117943122806564604e-01,4.469055523365711435e-03,-9.831537673678687056e-03,3.956759798717689007e-03,5.537988543510437012e-01
-4.176632942167385343e-03,-1.706404629417280217e-01,3.207458696264159914e-01,-7.603549626275893369e-02,-1.795648902878763803e-02,8.650051669623905551e-03,4.537715911865234375e-01
1.383364987161977977e-02,-5.538955457681397077e-01,1.665879056792890500e-02,-4.101033731694394766e-03,4.433046910333669939e-03,-1.844780994518345138e-02,5.701392292976379395e-01
-2.819975961284796120e-02,-3.248097854711922139e-01,3.236527744234962145e-01,2.925601466808945127e-03,-5.764973626275642950e-03,-2.267441201896841507e-03,5.623891353607177734e-01
-4.225857781723933726e-02,-3.122660014842518761e-01,2.984276939450238308e-01,6.170803093071789737e-03,-3.116708333010469872e-02,2.411264975246946336e-03,5.329210162162780762e-01
-3.244425090793694871e-02,-3.167228267283553889e-01,1.884933761105971883e-01,-8.087582480121110681e-03,-3.312222251288777369e-02,-1.529876447757897925e-02,4.434244036674499512e-01
2.577942394019754058e-03,-2.411471923773738091e-01,3.442687357751457178e-01,5.896815337697599441e-02,4.178853824081431301e-03,1.301699713957855942e-02,5.200246572494506836e-01
-2.214752668357718168e-02,-3.149639983589672121e-01,3.312389311597351838e-01,-4.889171837221837963e-04,6.699148486159864791e-04,-3.072243100946030290e-04,5.604491233825683594e-01
-2.067040390346216311e-02,-3.267763373908205149e-01,3.304461037625580633e-01,2.638588819479707054e-03,1.098852599925448934e-03,1.340503143801888850e-03,5.696423649787902832e-01
-1.432212151070758228e-02,-3.314831622250327681e-01,3.307772220719507050e-01,-2.095456703502441079e-02,1.362177464437310664e-02,1.847688360608209200e-03,5.753442049026489258e-01
-2.342809456884621319e-02,-3.380130071126834501e-01,3.306984317221483005e-01,-1.054667701628159496e-02,2.401286819966644628e-02,9.386026962746705712e-03,5.814636349678039551e-01
-1.962349596402805998e-02,-3.263887883960297498e-01,3.154319476442507542e-01,2.726828717863173136e-03,-1.598058097196645554e-03,3.647031966015041953e-04,5.560403466224670410e-01
-3.823599451177341763e-02,-4.291946986814074716e-01,3.047119872740365332e-01,-9.453703897698823022e-02,-5.795818708409134629e-02,1.569788330163584406e-02,6.649578809738159180e-01
1.102770175426827370e-02,-3.049251192421031376e-01,3.173715094245295187e-01,-8.697509866938787221e-03,9.657121497061387991e-03,-5.583997681415021029e-03,5.395026803016662598e-01
-5.314264162423335165e-03,-3.053613853965418401e-01,2.989040517233883532e-01,-1.918635397406823510e-03,-4.742407218081485729e-03,1.515542055189746584e-03,5.233949422836303711e-01
-7.059836615477019933e-03,-3.120290267862895761e-01,2.952380695221908380e-01,-3.266851198512093352e-03,-2.235335022274057351e-03,2.114193991293563616e-03,5.259678363800048828e-01
1.462346812382387187e-02,-3.044027830737204288e-01,2.898554032816715309e-01,-1.745054182788273803e-02,-1.946220269090612231e-03,-1.615259940934582602e-03,5.160129070281982422e-01
-4.879147736783748940e-02,-3.055696902493847955e-01,2.887624503469457538e-01,9.272822443232758881e-04,-5.977743033874691019e-03,3.081859086830384623e-03,5.164227485656738281e-01
-9.300655754372732370e-03,-3.153722669403185019e-01,3.000699415272677362e-01,-1.200246921288613839e-03,2.692758735254499602e-03,9.026619755232979068e-04,5.330178737640380859e-01
-7.135534541390370702e-03,-3.116971876212153436e-01,3.001735256386190986e-01,6.073391847389330613e-04,2.832686496987119485e-03,1.087826490812901893e-03,5.299244523048400879e-01
5.459588193019033510e-03,-3.041875058753942263e-01,2.980388334182353383e-01,1.293203495580056957e-03,5.457900209538969413e-03,-9.398410187613575554e-04,5.217061042785644531e-01
1.267623446594130961e-02,-3.110382395814247913e-01,3.088349741134684967e-01,-6.389966554394000721e-03,7.726575771727296066e-03,1.801678458024783599e-04,5.372835397720336914e-01
3.322660720547834790e-03,-1.233630192648033641e-01,3.963374948140318543e-01,-7.803079655143364823e-02,-4.074386680765205299e-02,-3.428462786791548755e-03,4.935393929481506348e-01
-2.282291553881116847e-02,-3.249982853974491825e-01,3.127766370797474549e-01,-2.058236128945201918e-03,-3.295733176591293580e-03,-1.270358061502440588e-03,5.526274442672729492e-01
-3.346872238562274143e-02,-2.891555967125682969e-01,4.061215269370628822e-01,-9.536132271309066821e-02,-3.991131841544732356e-02,1.713563212922007001e-02,6.355736255645751953e-01
-5.480402989630904671e-03,-3.070159680497574484e-01,2.969432039168870552e-01,1.066692766404286332e-03,9.864425225026208675e-05,-9.613183851072411952e-04,5.230501294136047363e-01
-1.886796415227377094e-02,-3.133864673626465258e-01,3.022115017484051092e-01,3.916097453155675638e-03,4.012159739952125131e-04,4.204732175887180776e-03,5.333821773529052734e-01
-3.304429661203561047e-02,-3.150565731693843463e-01,2.697226121044483671e-01,-6.696225222235296232e-03,-5.163346852826141385e-03,-8.606924605114482998e-03,5.069708824157714844e-01
-6.588768203200416618e-03,-3.115592275751857820e-01,3.017425900009272355e-01,-3.143665809935274578e-03,-3.274766018013334015e-03,4.579146218907072241e-03,5.312550067901611328e-01
1.698491357435311794e-02,-2.955663308731468208e-01,2.863768180477838654e-01,1.672927444688924009e-06,-3.002217148050568066e-03,-2.402262751605349200e-03,5.044832825660705566e-01
-3.723470613617223257e-02,-5.412258736113316759e-01,1.283628724342115723e-01,-8.551232910937607568e-02,-6.097159385756750066e-02,4.166441839311480454e-03,6.308971047401428223e-01
-2.385913067510513075e-02,-3.165728990539823373e-01,2.970522662891676990e-01,-2.696252080770231691e-05,-2.833023746647689474e-03,5.951850506411168924e-03,5.317245721817016602e-01
-4.442207430112438127e-02,-3.165605238510247887e-01,2.935413995116927799e-01,4.968856693902278963e-04,-2.542464306621188344e-02,-1.107113944903643024e-03,5.312204360961914062e-01
-4.342241957229671379e-02,-3.311898969778473423e-01,3.094805165351521836e-01,5.568061279828523218e-03,-2.689653559355817403e-02,5.964598381863643779e-03,5.579198598861694336e-01
-3.430841621046309270e-02,-5.390284058591106042e-01,3.310285788359253467e-01,-7.580741771611271274e-02,-8.282308847288535891e-02,-4.397107879385435056e-03,7.813344597816467285e-01
-1.280826599265243518e-02,-3.017165190276967501e-01,3.009400684245792656e-01,1.128771475369696065e-03,1.244977874945519744e-02,3.611936876486310666e-03,5.225499272346496582e-01
-2.689242154810962682e-02,-3.348712074607936295e-01,2.594106603063127126e-01,-1.384462563684431800e-04,-2.268276359824623195e-02,-2.831865596485775953e-03,5.162976980209350586e-01
-5.877075510805223474e-03,-2.500062142900389972e-01,3.029624798328790503e-01,-1.091911347346519873e-02,1.356231510159639810e-02,-1.418862494942502508e-02,4.815506935119628906e-01
-4.478788963266960160e-02,-4.299819256722445249e-01,1.745207724911844727e-01,-5.767593771709184081e-02,-6.016130969158475436e-03,1.068337479437593204e-02,5.397940874099731445e-01
-2.718654220715632092e-02,-3.026144590004771207e-01,3.115291123885780555e-01,-1.893741348481136743e-03,-3.175735778952518107e-04,-4.860254366640772046e-03,5.328813195228576660e-01
-1.354210600514134388e-02,-1.782509940643123292e-01,2.837967629871273600e-01,3.273578759952009386e-03,-7.922828968631598356e-03,-5.846988302276985572e-03,4.060009717941284180e-01
-1.783203683871056183e-02,-2.987324271143442789e-01,3.208677328191803513e-01,1.267158847232178163e-02,-2.569293621773855590e-02,-1.363154787430781965e-02,5.401694178581237793e-01
-2.816097875405138354e-02,-3.273624565097645323e-01,3.335445352874391034e-01,1.117684635288158923e-02,-3.142924759757084741e-02,-5.995344174866606111e-03,5.762128233909606934e-01
-1.620217364856731818e-02,-3.207092592969267852e-01,3.029762678562635259e-01,6.047401891523631820e-03,7.086116847387113546e-03,7.730109500437405690e-03,5.405840873718261719e-01
-1.715608023309645944e-02,-3.280529109358255035e-01,3.030717137593465504e-01,1.056835952459560983e-03,4.541491773469527940e-03,7.777108689707023939e-04,5.466511845588684082e-01
-1.920275522830255585e-02,-3.193374960741607316e-01,3.330817513099794680e-01,1.193268834785415483e-01,-9.729536533294326495e-02,4.847955726796472978e-03,6.253834366798400879e-01
2.363250443897004990e-02,-3.047762405408594999e-01,3.517697905988593221e-01,6.010904764696441832e-02,-1.289564150735304608e-02,-2.882967490628730520e-02,5.806213617324829102e-01
-2.028838745216762079e-02,-3.312578084420863545e-01,3.043709750185911167e-01,1.461917972152100001e-03,1.123439640293354526e-03,4.692898374171802626e-04,5.505231022834777832e-01
-1.869718202739906188e-02,-1.596871575839223512e-01,3.604958511693228118e-01,-2.462524929500844312e-02,5.179372150464877332e-03,-2.278727054094843111e-03,4.680205285549163818e-01
-1.074618374242830576e-02,-1.651273208411478122e-01,2.777548490944944382e-01,6.102296565607640694e-03,-4.246221880154114198e-03,1.312794374847138078e-03,3.895849883556365967e-01
-2.305715318756694499e-02,-1.722088383080339069e-01,3.129130845143927031e-01,2.604654614509657046e-02,9.424404851500207958e-03,3.904373002479089722e-02,4.383009374141693115e-01
-2.006783758517744279e-02,-3.296861481140467842e-01,2.909908278504771406e-01,7.000465824045498490e-03,1.229055609848321530e-03,2.008193312321211613e-04,5.376635789871215820e-01
-1.911320399245852730e-02,-3.301523466120388495e-01,3.064886586862344275e-01,5.015517701131956031e-03,5.706551795941333487e-03,9.330223454846299849e-04,5.515547394752502441e-01
-3.096074993738391276e-02,-3.127709018116658912e-01,3.005106048116194528e-01,-2.979035812378745540e-03,-8.568367364458641779e-04,5.365040409151958581e-04,5.317254066467285156e-01
-1.666127592264775303e-02,-2.334466100318502435e-01,3.625317705475472052e-01,3.336690363707297408e-02,7.071846930080531723e-02,-1.182062269392942025e-02,5.401381850242614746e-01
-3.149479646195446625e-02,-3.197661368928478298e-01,2.869805037335984577e-01,7.892552513628031327e-03,-1.616906481286004742e-03,3.970377595466239445e-03,5.259051322937011719e-01
-2.424609380061364811e-02,-3.257252475852978058e-01,3.085123571668731968e-01,-5.092501676565931029e-03,-2.033637063079115747e-03,-3.351140480411639571e-03,5.496011972427368164e-01
-3.408296903389401722e-02,-1.304782634384659135e-01,2.792109676722058231e-01,4.550509293981199951e-03,3.550091803084460488e-03,-1.655186910957855704e-03,3.711513876914978027e-01
-1.286192442726818985e-04,-1.340461780245910672e-02,4.373590838529543001e-01,-1.769237320031880403e-02,-5.537238416863556750e-02,-1.969026304277563671e-02,4.568153917789459229e-01
-2.001423351127612493e-02,-3.323635519216515677e-01,3.051814680642245814e-01,2.368365340553302018e-03,2.414023208870988597e-03,9.965001200278004057e-04,5.522013306617736816e-01
-2.024004266699327287e-02,-3.313707122790139348e-01,3.052430628002428814e-01,2.661854445706142956e-03,1.265053723945551217e-03,-2.550825353359140126e-07,5.513940453529357910e-01
-2.367167118727246666e-03,-2.013660554641243661e-01,3.308631677688659845e-01,-6.787892568611349209e-02,-3.104519439104008738e-02,-2.026702553031090384e-02,4.846666753292083740e-01
3.681636247515412963e-03,-8.699817399705758736e-02,4.866635258762450067e-01,-5.921337031352118252e-02,1.798946751393238133e-02,-2.374719715517939131e-02,5.463262200355529785e-01
-3.808531168290148206e-02,-7.539281466090039241e-02,2.956508261252228653e-01,-4.750058013542454195e-03,-7.092978920751748934e-03,-2.139978313119148684e-02,3.561109304428100586e-01
-4.159923571363066674e-02,-1.044355219122010958e-01,2.760563155088312515e-01,2.721535686237930816e-03,-2.181975622865826251e-03,2.875496599767279199e-03,3.533766567707061768e-01
-3.315146064490967492e-02,-1.941014737297122594e-01,3.029092115626435544e-01,-9.051753497451891367e-03,-4.210063396806618813e-03,1.299782298896910888e-02,4.401550292968750000e-01
1.174978243564653302e-02,-7.459023747344653565e-02,3.464749364555818056e-01,-3.710983118555152144e-02,4.003203276881810158e-02,-4.221789140868660584e-02,4.033384025096893311e-01
-2.792983230393991656e-02,-2.935741796537797987e-01,1.748223232126942250e-01,-6.008110770325750249e-02,4.718309938276685211e-02,4.125684466392945393e-02,4.337622225284576416e-01
-1.475352612198882474e-02,-8.283703641572426335e-02,2.698618915882401992e-01,2.643504654957472971e-02,-1.158723627790429929e-02,7.558753691318179438e-03,3.281608521938323975e-01
-2.400080973531398126e-02,-3.146303834541119282e-01,2.938695204685264351e-01,-5.638566213900594523e-03,3.093414612274976438e-03,5.549146872325659867e-04,5.272709131240844727e-01
-1.413116396359531679e-02,-9.626351834692858933e-02,2.863022458779151402e-01,6.749113028439318596e-02,-3.573700994301191869e-02,-2.114253887771527091e-02,3.748584389686584473e-01
-1.886822068274437991e-03,-1.205864886523248802e-01,4.879420273146237719e-01,-8.167889862082218511e-02,3.502368334195922472e-02,-3.382612333703145097e-02,5.824872255325317383e-01
-1.586524016240439122e-02,-3.095515938372684905e-01,2.972469028093119858e-01,-1.370832468728032079e-03,6.509502870793832351e-03,1.306996868346470188e-03,5.257238149642944336e-01
3.552774875857958592e-02,2.477843406859894793e-02,5.064597456934838426e-01,-4.481021399820926329e-03,2.303747801844508412e-03,-7.519269995973769383e-02,4.939561486244201660e-01
-5.858394174631215146e-03,-2.588105179624695107e-01,2.891644763857738054e-01,-3.946308498748090504e-03,-1.113706577402773755e-02,-2.674833883657432975e-03,4.754894673824310303e-01
-3.629238225890756009e-02,-1.435329596420987230e-01,3.169503943449112349e-01,-3.549720421393948860e-02,7.205380346235809065e-03,-1.581901518175888796e-02,4.229061305522918701e-01
-2.669046761582002242e-02,-1.789072658295594587e-01,2.822011553090296720e-01,-2.135982976033280484e-03,-1.056378080015046676e-02,-2.443628022579472786e-03,4.073927700519561768e-01
-2.271503865661329488e-02,-2.717686829803728776e-01,2.694420506878571486e-01,-7.231738783881639862e-03,1.482329038146450000e-02,3.618913887103885653e-03,4.701081216335296631e-01
-1.924611604914898758e-02,-2.763331473754299661e-01,2.922053405697248030e-01,-6.870409156453712897e-03,-6.681289852853551647e-03,1.462473269115457941e-02,4.940476119518280029e-01
-2.621275997286490883e-02,-6.317902370224733055e-02,1.895640455826733684e-01,-8.281299977424707789e-03,2.666458934778495951e-03,-7.528155818828692484e-04,2.369205951690673828e-01
-4.781531609719821829e-03,-8.496951284897633072e-02,3.090291112629248715e-01,3.058902085639929672e-02,-2.969259330859979826e-02,-2.835186409449741082e-02,3.713954389095306396e-01
-2.644223197877765275e-02,-1.223299308266367624e-01,1.937228857347106648e-01,2.149630887933914186e-02,-1.230580966183589253e-02,1.470591141247692968e-02,2.850747704505920410e-01
-4.190032421546419084e-02,-3.136638135827266582e-01,2.933353637324760399e-01,5.894050950081796726e-03,-3.281101163355466810e-02,5.055556735400651945e-03,5.298620462417602539e-01
1.971880847673021520e-02,-2.990541047752504067e-02,5.061748330305579913e-01,-3.629205527484018895e-02,2.865681250965472840e-02,-2.773229627000265221e-02,5.215018987655639648e-01
-3.856292463251021624e-03,-2.510155763756135583e-01,1.723847038966995482e-01,-6.762494394166222722e-02,7.433708647537523584e-02,-8.263269073574455725e-03,4.076891541481018066e-01
1.021274198584480597e-02,-5.744183375166089789e-02,3.910914620064454561e-01,-2.219665737204760264e-02,3.174762899084643958e-02,-3.213439386078274090e-02,4.278008937835693359e-01
-1.704567669037115873e-02,-3.151161614219412654e-01,2.979667970505462393e-01,1.015113363411203470e-03,-3.815881051175488460e-03,-1.797833075670202563e-04,5.310571193695068359e-01
-2.654787065964453463e-02,-3.035083389996880987e-01,1.967545954235178640e-01,-6.031970524761324885e-03,-2.173850396519450348e-02,1.535483717175253459e-03,4.358336329460144043e-01
-1.998846069857214761e-02,-3.160894858891610815e-01,3.073870266280302466e-01,-6.717853004688576326e-04,-5.536964797596758943e-04,-1.950871856253958434e-03,5.401855707168579102e-01
-4.306126389129123766e-02,-3.315714543564646788e-01,1.911597151851378018e-01,-8.996483507846610161e-02,-1.479436721558430833e-02,4.180750386683484282e-02,4.856480062007904053e-01
-2.596105793503578757e-02,-3.102251542533179252e-01,1.884746631663326288e-01,8.187942697993147792e-03,-1.639434088510400775e-02,1.171997888744248997e-02,4.349306225776672363e-01
-3.880916516650517734e-02,-5.716483717896979622e-01,1.157058107976217665e-01,-4.255059539130217477e-02,-4.312715445338183295e-02,-1.330843314077475963e-02,6.337720155715942383e-01
-3.520635095654961466e-02,-5.653158672030137444e-01,1.231050578435989307e-01,-4.926477450090556431e-02,-5.037849046811270631e-02,-7.569254936823224984e-03,6.364494562149047852e-01
1.581598596689033631e-02,-2.978514277382011688e-01,2.952449535336433839e-01,-4.759823232806499604e-03,-1.127967160983695243e-03,2.207632947041010454e-03,5.140057802200317383e-01
-2.348011761430175703e-02,-3.204337934742962357e-01,3.125743485260956134e-01,-4.065538220100420146e-03,-1.100434505657538805e-03,1.034548263093696069e-03,5.486010909080505371e-01
-4.375596561657772721e-02,-3.538855786096231082e-01,2.971636907042020659e-01,6.468712471067778261e-03,-6.317732306589415869e-02,1.469117683026962932e-02,5.752243399620056152e-01
-2.285316169494147967e-02,-3.321141765656345224e-01,3.314778746189456782e-01,4.496437430178365502e-02,8.349956059463374547e-02,-3.208181911860162605e-02,6.007023453712463379e-01
9.336041466913580500e-04,-2.168149175760625824e-01,3.072651918357899303e-01,2.172713697499150526e-02,-2.187073843201529574e-02,-2.213097434871329899e-02,4.607355594635009766e-01
-1.455534735709686917e-02,-2.965168654893619027e-01,2.152615717113520177e-01,4.536754081686877882e-02,-8.106421858686180260e-02,3.156952864962224437e-02,4.753907918930053711e-01
-1.819090777471606829e-02,-3.233625266661113162e-01,3.125225230517128527e-01,3.904687039652137478e-04,1.340542727423627749e-03,2.082918597910418668e-03,5.508577823638916016e-01
8.568833089848947385e-03,-2.517082694747064253e-01,2.762644656407476917e-01,2.112038995678133455e-02,-7.989966294365267660e-03,-5.863936253170433550e-03,4.590349197387695312e-01
-3.490474648133326876e-03,-2.852911384673737505e-01,3.024851924402563452e-01,4.464082742690288902e-03,-1.305638779588741416e-02,6.790093420948232301e-04,5.097346901893615723e-01
-2.150822231223339237e-02,-3.312820183994075185e-01,2.930778578531832990e-01,-3.920708390921308524e-03,-1.704682660356388393e-03,-2.018175749085942671e-03,5.407788753509521484e-01
-2.817139184598077550e-02,-5.708076751943780280e-02,3.482429658291946173e-01,-2.373645241105876331e-03,2.604247897713444886e-03,1.204137351403031329e-03,3.917231559753417969e-01
8.106942028851666510e-03,-2.243214559774633909e-01,2.980877667131133779e-01,6.974848884028209128e-02,-1.874395451337192717e-03,-2.649356196754817146e-03,4.691884219646453857e-01
2.922377320202258419e-02,-2.626014867028644284e-01,2.852335746755984558e-01,1.913574775443103310e-02,-3.238096540563845625e-03,-1.068659977680406700e-03,4.759690463542938232e-01
-1.093642007753865830e-02,-1.555406976556853449e-01,4.585314000727684358e-01,8.435878565726631639e-02,-2.774176261919343925e-02,-2.180162116229706487e-02,5.781707763671875000e-01
-1.956161068002015141e-02,-2.781833662171120936e-01,3.166679525783137605e-01,1.023071062720645914e-02,-1.115179100570278664e-02,-2.036724471091977060e-02,5.184817910194396973e-01
1.909628801924889707e-02,-6.058039828593281273e-02,4.820119505145821215e-01,3.040265624192008131e-02,-1.249661893086753336e-02,-4.424881682622130302e-02,5.163702368736267090e-01
-1.640164675504155595e-02,-1.411671310972568427e-01,2.793557724645353568e-01,1.664546797721924015e-02,3.459101219769112213e-03,-1.612190563294218669e-03,3.752520382404327393e-01
-1.725563870307657982e-02,-1.865324701087317794e-01,2.919225462288804196e-01,1.390294765140904880e-02,1.291681694002125985e-02,1.028779324705571437e-02,4.218772649765014648e-01
-4.916478399823605294e-02,-3.469302523809301708e-01,3.225778187427444377e-01,1.164211699099833297e-01,-7.774748412979311241e-02,4.310221866227279680e-02,6.339700818061828613e-01
-2.490696561184302729e-02,-3.074311216709578187e-01,1.766037871554951566e-01,1.651845264584241870e-04,-2.761443500508283314e-02,-2.843246921747657162e-04,4.238468408584594727e-01
-2.506360283831164659e-02,-2.639013208105764896e-01,3.607985708209445752e-01,2.149463126035008886e-02,-6.357153234484045831e-03,-2.606713180720209369e-02,5.492151379585266113e-01
-2.739270356570807155e-02,-4.688642169317597252e-01,3.362722427798680580e-01,5.542224600926745626e-02,1.041354364242477182e-01,-5.120139783788680427e-02,7.330137491226196289e-01
-2.772862479866968974e-02,-3.177758356455334110e-01,2.034144975076880302e-01,9.053866836521214101e-03,2.240585850186083486e-02,-1.171052677733128676e-02,4.547090828418731689e-01
1.353939102730064223e-02,-2.878741832101546216e-01,2.909869502427548382e-01,1.084876565538775125e-03,-4.570667455003706199e-03,-4.891911004578228077e-03,5.015892386436462402e-01
-3.796612835049720247e-02,-3.103061956064968596e-01,2.150119684054785374e-01,-2.097173967008393418e-03,4.121365184444720359e-02,1.475676227023143931e-02,4.613299071788787842e-01
-3.824500356023059766e-03,-3.002005419758437821e-01,3.008273444152613219e-01,3.827244614136144328e-03,-1.272565133871096654e-02,-1.028141602333555553e-02,5.213347077369689941e-01
-1.611584265633422830e-02,-2.667995920094605178e-01,2.808179855732506613e-01,-5.484628930789211404e-03,-5.889534052554957003e-03,-1.385461298926708024e-02,4.756245017051696777e-01
-2.329187984970977621e-02,-3.240916531093028241e-01,3.221593033639392756e-01,-1.258010330256510018e-03,-1.824439641593768530e-03,3.915912037475178901e-03,5.601691007614135742e-01
-3.083770688839634899e-02,-2.639205651181937839e-01,3.469751694271862030e-01,-4.109646969141787440e-03,-9.000090269325538087e-03,-3.006296963462029917e-02,5.367838740348815918e-01
-4.350740378375490131e-02,-3.750847137226668293e-01,2.749914419355701245e-01,6.466306684334438299e-04,4.006225516143788190e-02,1.903325726547690569e-02,5.682384967803955078e-01
1.791391639400316538e-02,-8.431894274645060361e-02,5.357065996689411858e-01,4.718441588301669487e-02,2.504898832284151167e-02,-2.888753086984799032e-02,5.852872729301452637e-01
2.478495615133945174e-02,-2.895942615212722671e-01,2.963309294251140202e-01,3.967260348760291711e-03,-4.839242771818492474e-03,-7.329670915204639439e-03,5.081521272659301758e-01
-1.694374323361262299e-02,-3.119699558780485438e-01,3.131703425115476280e-01,1.372264295616024490e-02,5.826049035067659525e-03,-6.005947865382926971e-03,5.423864722251892090e-01
1.252449256897018859e-02,-4.227838644700224191e-02,4.186892382402914170e-01,-2.434402431470825828e-02,6.382463066236216710e-03,-4.395227139245235642e-02,4.448906183242797852e-01
2.541668528529636428e-02,-5.316280227059647090e-02,5.099207679472226307e-01,-6.290093458292977426e-04,2.462268191799933323e-02,1.649599235725664886e-02,5.306857824325561523e-01
-6.039727167758792911e-03,-3.488478698499055675e-01,3.721240506603673559e-01,-7.997864486868167672e-03,1.060271272360066991e-01,-3.314046110324435357e-02,6.537391543388366699e-01
-1.117018331718322433e-02,-6.135289516537784094e-02,4.152874446791534613e-01,-1.117065091567221585e-02,3.821984095665326847e-03,-4.161915355581230491e-02,4.597823917865753174e-01
-1.009925217092276506e-02,-1.148984065181340719e-01,4.247120717121452560e-01,-5.086646231352853070e-02,-9.613074882288475884e-03,-1.668302165444268334e-02,5.044660568237304688e-01
-9.875649086627497075e-03,-1.751202021563149080e-01,4.847652308960541667e-01,-7.592570850066468480e-02,3.079126012164696072e-03,-3.723563272420782159e-03,6.091603040695190430e-01
3.087372152866157959e-02,-2.889771666967272390e-03,5.101550307798942141e-01,1.609117109851944567e-03,2.198500539769243645e-02,-2.390765760541721172e-02,5.002052187919616699e-01
-1.899320209125428954e-02,-1.983494358851166928e-01,2.967078934323867934e-01,1.401439791375355855e-02,1.274404820852748782e-02,3.283889737222937984e-03,4.353936016559600830e-01
2.066372502750021822e-02,-3.196908598799372281e-02,4.939793386375224693e-01,-3.563432154526158940e-02,2.950831298710612782e-02,-2.986402697314117366e-02,5.106927156448364258e-01
-5.491641999817905781e-03,-3.312516982563560863e-01,2.824579412923168276e-01,-5.031549703899339254e-02,9.105974604743960477e-02,-8.300916898256382667e-03,5.617066621780395508e-01
-1.974146557327327925e-02,-3.149877305223288682e-01,3.052725053826393919e-01,4.804612122574939770e-04,-5.035253802403289597e-03,2.197884775724648788e-03,5.374521613121032715e-01
-2.229011177136061561e-02,-3.175268655014068520e-01,2.606179351051494120e-01,-8.335790156468816242e-03,-2.516696086255783131e-04,-1.699166331972609776e-03,5.009430050849914551e-01
-2.058657120066507973e-02,-3.192706318337250604e-01,3.064237423061403343e-01,1.565868304920833799e-03,-2.069295938657240985e-03,-8.900525396751789034e-04,5.420731306076049805e-01
4.412581483465044530e-03,-2.962805425243086321e-01,3.001635277436395244e-01,6.140694761423656257e-03,1.684907855295019515e-03,-7.500469390807700497e-04,5.166609883308410645e-01
-3.973020251307132766e-02,-3.216104966514712338e-01,3.281481310330676693e-01,-6.682301592986079376e-03,3.658009566756185299e-02,-1.546409257427369850e-02,5.686424970626831055e-01
-3.830582445817104931e-03,-3.208134432138559089e-01,3.051918716251445507e-01,-6.175254975373746427e-04,1.483732622396629871e-03,-3.949427403479135231e-04,5.421587228775024414e-01
2.395049678870554005e-02,-2.719773357682571668e-01,2.798841785690083794e-01,8.212122158525238594e-03,4.570641564082179691e-03,-1.698868128622068859e-04,4.786212444305419922e-01
-2.010596017105271624e-02,-3.103878890343322317e-01,2.979205632298912998e-01,-8.859527573286169258e-03,1.771435545562541347e-02,-3.655258628577639254e-04,5.281089544296264648e-01
-3.039362050599269879e-02,-4.848522601922445885e-01,4.093920329855796902e-01,5.504973861147924481e-03,1.007694563081960593e-01,-1.280708505334255710e-02,7.942637205123901367e-01
-2.136869899310075635e-02,-4.750276415877953129e-01,4.036093585611447154e-01,1.049319885731319615e-03,-9.044538605632014561e-02,-8.104594470091217029e-02,7.895933389663696289e-01
2.980993614051054286e-03,-2.922452125460621164e-01,2.944332182529386666e-01,7.821740868122000270e-03,3.057659755096782308e-03,-3.967980619810079638e-04,5.082905888557434082e-01
-1.296302062388468915e-02,-3.120959602094391938e-01,3.016256516253027486e-01,6.227277330301619201e-03,-5.353908014845519016e-03,-1.153118647975934262e-03,5.317487120628356934e-01
-1.895696520999067122e-03,-3.158800911795472954e-01,3.150578687302009184e-01,6.893774031913375670e-03,-7.775056121414653312e-03,-5.635266390023643476e-03,5.467937588691711426e-01
1.711280694780229622e-02,-3.003261296604017860e-01,4.735483880910276722e-01,2.058603038692676662e-02,-8.441527354958036633e-02,-7.385283671521521154e-02,7.021418809890747070e-01
3.833168538943387826e-03,-2.863806798486553951e-01,3.531721857463860914e-01,6.750199672698896369e-02,-3.883904286311368886e-02,-4.117029472569089937e-02,5.752606391906738281e-01
-2.482184980383657022e-02,-3.173797343890720213e-01,3.593178196692728976e-01,1.292034546722339028e-01,-1.132312995231252312e-01,-3.096139603241242905e-03,6.588701009750366211e-01
-7.581640712881845302e-04,-3.059309209027332166e-01,2.934738129610550139e-01,2.353684046658779689e-03,5.313082959790636946e-03,1.705900007736263014e-03,5.192345380783081055e-01
2.016857549093160201e-02,-2.827588391819554348e-01,2.845968476562302230e-01,2.599152957177765840e-03,2.274228931010096374e-03,1.030755220931058340e-03,4.917609989643096924e-01
5.419550828919374522e-04,-2.979045579438305280e-01,2.925586016875935669e-01,2.153100954162743847e-03,5.117746049769052868e-03,1.398283224273205423e-03,5.114623308181762695e-01
5.732572566922165477e-03,-2.947347365921689222e-01,2.887898647302230004e-01,-4.800540170619529198e-04,5.668269807456532278e-03,-6.292193511839311998e-04,5.055193305015563965e-01
-1.612028574483581264e-02,-3.203346407129444295e-01,3.047007653289588447e-01,2.940363444382271957e-03,9.293246186451817759e-04,3.489960841778642301e-03,5.414203405380249023e-01
1.834751370685062596e-02,-2.891431614278572315e-01,2.840474428886884395e-01,8.550361080570610109e-04,2.820369549753519271e-03,2.109778643427641116e-03,4.968768656253814697e-01
-2.717605717215509226e-02,-3.211145611896670804e-01,3.388558561760310894e-01,3.001663380770906893e-03,-5.860716563258973506e-03,-5.104564548642562608e-03,5.728685259819030762e-01
-4.327169466117523899e-02,-4.795644893464767744e-01,4.739531257897852679e-01,-4.835528495523733206e-02,-2.329097165933505589e-02,8.923396605075316346e-03,8.321149945259094238e-01
-4.941016183236534784e-03,-3.231589379606242818e-01,3.148443427652687920e-01,2.789803595532770655e-03,3.402484022884825002e-03,-9.229410579135431409e-04,5.525825023651123047e-01
-2.013321300627865865e-02,-3.206357068710852798e-01,3.045009380251634812e-01,1.147793311790234940e-03,-1.324601370455681659e-03,2.575653573879629378e-04,5.415273308753967285e-01
-2.220195911509365017e-02,-1.844848823269450155e-01,1.820765527412209484e-01,-2.985534114136934036e-02,2.620788447835033230e-02,2.523457867522531720e-02,3.284224569797515869e-01
1.718352865599249643e-02,-2.919208550731690055e-01,2.892278237562962984e-01,-1.530460517025747282e-03,3.831405843978154800e-04,-6.267001502016398629e-04,5.036391019821166992e-01
-2.183671058035291032e-02,-3.251262768274296167e-01,2.945699627096666218e-01,7.695702978046899990e-04,-6.481669659134268666e-04,2.345727696979261340e-03,5.367309451103210449e-01
-2.276307865338063688e-02,-3.144401144019772776e-01,2.909682854693728116e-01,-3.545463834300600827e-03,-6.450527440008776330e-04,-4.418421952103988165e-03,5.245079994201660156e-01
-4.373115376444190738e-02,-3.131045756149168358e-01,1.905466376890639357e-01,-1.176304268289961735e-01,7.806030657046718335e-02,2.763174855438357835e-02,5.026309490203857422e-01
-2.171637784666999305e-02,-3.158059126398214400e-01,3.030083778593553601e-01,-2.051263683642104516e-03,-2.223565994847455547e-03,-1.329209360325228455e-03,5.361583232879638672e-01
-2.131395823170819867e-02,-3.226443776312427625e-01,3.170221088189696945e-01,-2.136064468642724905e-03,-3.490701071110641381e-03,-1.672879795664520761e-03,5.543292164802551270e-01
-2.659375489202547155e-02,-3.180476425606617030e-01,2.938770265916443858e-01,-2.977387295086904740e-03,-1.697126841546895294e-03,-9.170438457529567992e-04,5.301764607429504395e-01
-2.593865559503075527e-02,-2.941286735409171516e-01,3.003611408228314961e-01,-8.345703470423187923e-04,3.179269134282171946e-03,-3.456575249206460948e-03,5.157286524772644043e-01
-1.568053591725844173e-02,-3.161692618941881472e-01,2.977744863331329150e-01,-1.736367274828244526e-03,1.430501205917744049e-03,1.266108098058977768e-04,5.317447185516357422e-01
-1.666427509391562103e-02,-3.262122276208153093e-01,3.080802170315490862e-01,1.544118869792081598e-03,9.964349747462544066e-03,1.558606572471283843e-03,5.496500730514526367e-01
-2.430660793551857324e-02,-3.152151285355597743e-01,2.940504105406814284e-01,-2.317825834630479233e-03,1.408121626947797739e-03,-1.280723352058592453e-03,5.278434753417968750e-01
-2.514909560036944838e-02,-3.170148529061288523e-01,2.973769828253068348e-01,-1.896166857657218810e-03,-4.656905803878049225e-04,-7.096319852641040909e-04,5.323119163513183594e-01
-1.038921927004046036e-02,-3.142831021902545707e-01,3.037212981319771243e-01,8.501289777248557380e-04,-3.535335191309529109e-03,-2.855350068499083456e-04,5.352691411972045898e-01
-2.548427606022330566e-02,-3.137981944371201481e-01,2.919080952937974094e-01,-1.144547595826717809e-05,-1.931899129722042946e-03,1.194379924277927656e-04,5.247691869735717773e-01
-3.426556991061939506e-02,-3.121944422343632675e-01,2.845064004501410837e-01,-2.869196874391353666e-03,4.154339559748198587e-04,-7.579732941873521066e-04,5.171874761581420898e-01
-2.300873597518160452e-02,-3.299693710980837746e-01,4.231179776568795847e-01,-9.199517803125803472e-02,1.845755466609897907e-02,-2.115040695721002659e-02,6.767204999923706055e-01
-5.706984269745096067e-03,-3.144464963628110787e-01,2.967427959439455365e-01,1.275108636506590634e-02,-6.855203211266346248e-03,6.081825767900291761e-05,5.299084186553955078e-01
-2.076948085996974114e-02,-3.281530800738183262e-01,2.902380887194054293e-01,6.907221015061532597e-03,1.265329919478480484e-03,1.226543549995775129e-04,5.356836915016174316e-01
1.169643250113105125e-02,-2.975410867671348103e-01,2.983032985434776463e-01,-3.780659815364089630e-03,-4.297196457323388882e-03,3.130970195289929474e-03,5.162640810012817383e-01
1.694172442500421066e-02,-3.062070551325595802e-01,2.897419269260458896e-01,-8.670758037122783994e-04,-7.293756927534114816e-04,-1.157304240832124050e-03,5.167281627655029297e-01
4.593838106611565324e-05,-2.863315872708137588e-01,2.885112990374164021e-01,-8.103160848851908779e-03,-9.554260389340119355e-03,-6.102890657740359277e-04,4.983034133911132812e-01
9.468220710199391765e-03,-2.927873911099168058e-01,2.887224360741881268e-01,-9.358798915384110295e-03,-1.936122930432379336e-03,1.722498791651815324e-03,5.040143132209777832e-01
-1.772013255677205509e-02,-2.545400646249028620e-01,2.944755897901631947e-01,-1.573576235576364807e-02,-1.312301276682383520e-02,3.558215317279673552e-04,4.782717525959014893e-01
-2.297689046019751880e-02,-1.098560442186598263e-01,2.969632855704019692e-01,-1.061641880861909776e-02,-5.820681516299057619e-03,7.256367522691873836e-03,3.718918859958648682e-01
-2.206803933638587512e-02,-1.816055570167489641e-01,2.552979312602308148e-01,-8.868248917001546328e-02,6.580584446577411595e-02,1.403453860957228592e-02,4.287309944629669189e-01
-1.909353317513033665e-02,-4.989542626002944070e-01,2.530690234623477752e-01,3.851773807236352071e-02,-1.065676777280284981e-01,3.508434816065685719e-02,6.907622814178466797e-01
-2.001358540839823924e-02,-3.208974286003941634e-01,2.958171951955185230e-01,3.186072684128140719e-03,-1.990806487154530603e-03,1.324901914449913868e-03,5.341873764991760254e-01
1.399644787409199710e-02,-2.846511998167840507e-01,2.891648407988520186e-01,-9.599678924493950521e-03,-6.453284701403271505e-03,-9.273410389592809887e-05,4.974815249443054199e-01
3.233936151148602937e-03,-2.668008163670108623e-01,2.902003098354085098e-01,2.124574226958959519e-02,2.622878935523972888e-03,1.047492796782030326e-02,4.842141270637512207e-01
-1.603731487678514145e-02,-3.483064428762565612e-01,3.154987103517179481e-01,-1.445437019514792150e-02,-1.430234434162656366e-02,1.108688351310191909e-02,5.762701630592346191e-01
-5.508569525053613053e-03,-2.695188652325231637e-01,2.932927152813720184e-01,-8.453997065724797120e-04,1.273182048577813780e-02,3.514703201227706037e-03,4.882578849792480469e-01
-1.309878540478037756e-02,-2.887116592361704259e-01,3.040938950081439329e-01,-5.773147400137185713e-03,1.349116961220188718e-02,3.950620459603914128e-03,5.144792199134826660e-01
-4.563026241655500359e-02,-3.079076670393936510e-01,2.941483728882832160e-01,1.460287852273419373e-03,-7.898750109436995445e-03,4.643914551789193185e-03,5.230807662010192871e-01
-1.787701992380315991e-02,-3.403032267732332139e-01,3.504892249228635515e-01,5.024028000878374457e-03,5.800241293250819712e-03,1.774832193063654098e-02,5.996206402778625488e-01
-1.678092179806410858e-02,-3.703082344739194176e-01,3.773086101532504566e-01,-4.777593269285626901e-03,-4.800562606506544178e-03,-4.031028332411177445e-03,6.479165554046630859e-01
-3.581138796533477053e-02,-3.794939428707240769e-01,3.730658660558614503e-01,2.645191275413089071e-02,-8.017703803826327705e-03,4.442419487960112823e-03,6.543496251106262207e-01
-2.886246925196427754e-02,-3.118215575255438021e-01,2.931640770467277557e-01,3.267857648379626778e-03,1.142554020751360101e-03,-2.669446843054780732e-03,5.243515968322753906e-01
-1.794748996657969525e-02,-3.852827250052219266e-01,4.841244446336984697e-01,1.987439821032319434e-02,-4.587297953316066962e-02,2.585007133274421290e-02,7.621960043907165527e-01
-1.263456691501774545e-02,-3.106210684619669093e-01,2.161881263119423413e-01,9.531860135007971455e-03,-2.015948459386181918e-03,-1.016391068959471115e-03,4.578533768653869629e-01
-3.134278451207252181e-02,-3.122197878565372009e-01,3.022113450015773140e-01,-1.496898389669126805e-03,4.010399714494999185e-03,2.687692287555121413e-03,5.328363776206970215e-01
-4.330976215619922187e-02,-3.004531202309778659e-01,2.608401768330464998e-01,-4.795319978766372782e-03,-3.350473627637026632e-03,1.118500684861983233e-03,4.867714643478393555e-01
-9.337568020852622663e-03,-3.738217776495278422e-01,3.104049687910025446e-01,4.106106481708152872e-02,-7.167288497525244051e-02,1.253524372765502104e-02,6.103814840316772461e-01
-2.965225351833897585e-02,-3.544532858694492972e-01,3.390595585563881964e-01,-5.066786857465402708e-04,-1.665722888782677699e-02,-7.052548260885540231e-03,6.018176078796386719e-01
-1.924165774526805442e-02,-3.208373560806772606e-01,3.058634905496123157e-01,1.479272880441827743e-03,-2.111917304638048776e-03,1.003508114468448027e-04,5.428845286369323730e-01
-1.745262581651776251e-02,-3.203937167027601784e-01,3.059161804698292131e-01,1.456707203405618314e-03,-1.277399878562739946e-03,1.001697746566519991e-04,5.425068736076354980e-01
-2.394766960002010087e-02,-3.159093024473586531e-01,2.963713221238273299e-01,4.164091989986720178e-03,1.119424794093478630e-03,-1.503721037591923678e-03,5.304991006851196289e-01
-2.102528983459514555e-02,-3.181655198053998657e-01,3.039710019721713619e-01,2.675652590943790581e-03,-3.260016617939019446e-05,-1.659722835476091281e-03,5.389935970306396484e-01
-1.498888993529638898e-02,-3.050579033327316392e-01,3.019350670915544321e-01,2.883933248092678762e-03,9.953603775816015700e-03,1.653178671734515520e-02,5.269276499748229980e-01
-2.354068707344593794e-02,-3.180584908119877818e-01,2.838184886896637504e-01,3.897038016406930306e-03,4.787838727710803065e-03,-3.471257173877160119e-04,5.213903188705444336e-01
-2.504638397848804945e-02,-3.162836830068920246e-01,2.957427477197379084e-01,4.700121712176184158e-03,3.088188001917495959e-04,-1.217549602511261864e-03,5.303032994270324707e-01
-1.501129263718429391e-02,-3.145431943183104040e-01,3.028809333413857718e-01,-2.955013323336834561e-04,-3.462281305493719510e-03,3.904672936027059229e-04,5.348180532455444336e-01
-2.007392565120654990e-02,-3.198104788551427435e-01,3.023087761793636363e-01,2.221621764964818498e-03,-7.575669522555647560e-04,-1.513595714139637791e-03,5.389117598533630371e-01
-1.542639381582428144e-02,-3.198125295206202812e-01,3.053458968985234279e-01,-6.856439443693299095e-04,8.392559007994400725e-05,-2.313027977305953556e-04,5.414665341377258301e-01
-2.150470865761676398e-02,-3.213045642292875481e-01,3.028041268755361504e-01,2.680913227411233987e-03,-7.890068303465831321e-04,-9.096519733310851454e-04,5.406568646430969238e-01
-1.611876287473842234e-02,-3.147308488225463718e-01,3.140520765305008788e-01,8.170255850027763420e-04,-6.866801683076565431e-03,-3.068903448651741622e-03,5.449281334877014160e-01
-2.001994616200805654e-02,-1.203807233426184564e-01,2.783743078947578109e-01,6.186164958830325800e-02,-3.445310828469252962e-02,7.170663500904604984e-03,3.798083662986755371e-01
5.958630044129159878e-03,-3.042207051487400005e-01,2.917406356894303721e-01,4.075285360358596801e-04,-4.078625523133025399e-03,2.519085708161629932e-03,5.163290500640869141e-01
-1.596473656244618705e-02,-3.200296472487032529e-01,3.032858298850092393e-01,-3.444535299745475816e-04,-3.283593756672715819e-03,-2.785422872872398456e-04,5.398909449577331543e-01
-1.885003840021344176e-02,-1.898406551651037055e-01,2.212240761124019406e-01,7.666547554029230771e-02,-5.643938828587487244e-02,3.016261805683180183e-02,3.972935080528259277e-01
8.046969463252826027e-03,-1.868886714838319807e-01,3.299570655359357341e-01,4.713876568429150454e-02,1.744367349623285324e-02,5.736839501136555518e-03,4.604948759078979492e-01
-1.304703458924487414e-02,-1.740797324207885577e-01,3.918427523764724807e-01,-1.093322971561414697e-01,7.876554035715549462e-02,-4.748339086218698185e-02,5.624095201492309570e-01
5.882898815367972045e-04,-2.237668382751183127e-01,2.836559497729154167e-01,2.208917658477937279e-02,7.906103556341408101e-03,-9.844624301378862141e-04,4.422945082187652588e-01
-2.827842353051775171e-02,-3.134007794976625405e-01,2.977738046922841497e-01,1.466004704181917122e-03,1.264418194068640290e-03,1.320159877021569736e-03,5.297037363052368164e-01
-2.438659159420247802e-02,-3.160988607955828589e-01,2.586354796244676457e-01,7.857076910158862504e-03,2.657522121384963548e-03,-8.555161235412524906e-03,4.981811940670013428e-01
-2.397160126816713643e-02,-3.175047757980008489e-01,2.814722269986463243e-01,5.768774689343983755e-03,3.643446224011974606e-03,2.003842421314329814e-03,5.189096927642822266e-01
6.471832131302118762e-03,-3.080659907349183602e-01,2.952649322383787411e-01,-2.608340366245430150e-04,-2.672857656227990621e-03,-3.941514521383996002e-03,5.227237343788146973e-01
-2.275418074662847318e-02,-3.113849118232908664e-01,2.878744613077493519e-01,3.215390851809062350e-03,2.178353904228183275e-03,-3.211951604659375736e-03,5.191637873649597168e-01
-2.408944717544256320e-02,-3.154725995892341817e-01,2.975619830427396195e-01,1.845376448777504876e-03,-1.255021378428210687e-03,3.426594473056828773e-04,5.311335921287536621e-01
-2.577294888239982373e-02,-3.139949386901688677e-01,2.951604201882354062e-01,3.786208950357908797e-03,-1.596815883798239580e-03,2.336832975548612220e-04,5.278456211090087891e-01
1.603228043403732289e-02,-3.563919009402188864e-01,2.422402329851686686e-01,-1.445244238106977060e-02,-9.165305989834249267e-02,5.957790174961585502e-04,5.476711392402648926e-01
-3.688498085759731038e-02,-1.816073651604973582e-01,2.988404092150419578e-01,-3.250370921249082223e-02,-3.084561313430726238e-03,1.935180223899830507e-02,4.319312274456024170e-01
-4.051811670085760791e-02,-3.203794878810219404e-01,1.973505551364443389e-01,-2.112805797731931012e-03,-4.461588777845944265e-02,-7.679680383446008812e-03,4.556711614131927490e-01
-4.910580922600166209e-02,-1.462383838159767302e-01,2.962489365951062048e-01,6.753007911902293367e-03,2.282309725337641673e-03,4.983499710298054490e-03,4.030840694904327393e-01
-4.839363236546044555e-02,-3.062392064243308898e-01,2.563660552306205043e-01,-3.346096093797621264e-04,-1.535324865712285776e-02,1.479493225818572248e-04,4.885195195674896240e-01
-2.073973198699143039e-02,-3.201862685268268005e-01,3.031070852069486787e-01,-2.127167783102745964e-03,6.865086303409742487e-04,-7.778762510158026980e-04,5.399413108825683594e-01
-4.794661834551704194e-03,-3.061235130603115473e-01,2.977515080866159902e-01,-8.911974368882677900e-04,5.666865483559579628e-03,-8.338477984716154059e-04,5.230678319931030273e-01
1.541936815731952647e-02,-2.804016690934340583e-01,3.454503972937892353e-01,4.106160767280044033e-02,1.739122796417270737e-03,5.666049165065758196e-03,5.470139384269714355e-01
-1.568730255567963444e-02,-3.163848917854568676e-01,3.117289896766931023e-01,-6.475780896395076213e-04,-4.482643937286496377e-03,-2.007314907390149190e-03,5.441942811012268066e-01
-2.630683191992962133e-02,-1.440435366249473714e-01,2.824075456878044621e-01,7.856128734102981945e-03,-3.766778900944649754e-03,1.780573972932691582e-02,3.830043971538543701e-01
-2.606634443829121406e-02,-2.113177014855507074e-01,3.037337220887049161e-01,6.753525846885393216e-03,9.577751612568845274e-03,1.693056929774454031e-02,4.532703757286071777e-01
-2.746122870190347010e-02,-2.607068879251045468e-01,3.122193590335660129e-01,5.136652085517118792e-03,3.396478806488143713e-03,1.771796262072550254e-02,5.000709891319274902e-01
-2.015825614281462064e-02,-1.724194536856137605e-01,3.007371452228534414e-01,-1.587302229652066618e-02,-1.013519541667597459e-02,1.197521314242449599e-02,4.201326966285705566e-01
1.611917515315859986e-02,-2.689011401616742680e-01,2.780561157515506476e-01,-5.740406845943044761e-03,-6.226842884024271114e-03,-1.744004098771342621e-03,4.740560948848724365e-01
1.689612819669037910e-02,-2.670895667901079240e-01,2.850921486337280042e-01,-3.691447783252430840e-03,3.260193096947375680e-03,8.830380286224823660e-04,4.783470630645751953e-01
-1.483430951883844655e-02,-4.509810910626365632e-01,3.806526039375952575e-01,-1.923357247949293233e-02,-2.822300694596930476e-02,3.948823270624309684e-02,7.261554002761840820e-01
-2.857520953094075389e-02,-1.083127922124794140e-01,2.947923409583881327e-01,1.558343044998385975e-02,-3.856094695596868423e-04,2.870540177257654719e-03,3.707599043846130371e-01
-3.514098069417973674e-02,-3.203954105360143911e-01,2.915774879564783095e-01,-5.851658566179594127e-04,-2.335942062533104616e-02,6.551238889519530109e-03,5.320523381233215332e-01
9.074923525171236724e-03,-2.884465238244389163e-01,2.926063142958736929e-01,4.319993503804008331e-03,-6.740827690693761316e-03,-2.252513336211381476e-03,5.034613013267517090e-01
1.716356527988929098e-02,-2.997082003021501739e-01,2.872412686330160780e-01,2.902246237824732816e-03,-1.243415436635137653e-03,-1.167635835205451875e-03,5.088847279548645020e-01
-2.156756064208129389e-02,-4.478158761435260815e-01,3.519074215471293954e-01,-3.123215529862176029e-02,-8.546946565249673167e-02,2.810892411037566735e-02,7.124437093734741211e-01
2.105106305567883140e-02,-2.970643662306436394e-01,2.843785997159527512e-01,-7.195563131900814362e-03,1.110248956461729357e-03,1.160134913610240360e-03,5.044506192207336426e-01
-1.914484990059757419e-04,-3.697768546655329502e-01,3.125836855687163518e-01,2.612845190821098951e-02,-8.719581636414441839e-02,9.294879840880301836e-03,6.124829649925231934e-01
-1.128652794295715092e-02,-3.121975300640412176e-01,3.029193014207708923e-01,-1.125350967001085114e-03,7.581032177019641919e-04,-1.636662023085303083e-03,5.327609777450561523e-01
-2.079529582927154563e-02,-3.455295553509216133e-01,3.499040049094160332e-01,-1.612340238017474087e-02,-1.834448312499670566e-02,-7.841610694355776595e-03,6.043367981910705566e-01
-9.545640051786770386e-03,-3.569751011870287427e-01,2.420815396371133188e-01,-1.372295666220966874e-02,-8.624099306300073153e-02,1.760573052256874174e-02,5.433723926544189453e-01
-1.944505041534072901e-02,-3.273286338896765346e-01,3.045937031625864377e-01,-3.935049553427088370e-02,2.432653076869746925e-02,8.024567714321457698e-03,5.533295273780822754e-01
-1.285713347810706064e-02,-3.223348417066098093e-01,2.497302178715578025e-01,1.116767642153797604e-02,1.231220554749355711e-02,3.989228931816508547e-03,4.968602955341339111e-01
-2.921583974381536386e-02,-3.663872156656938217e-01,2.763437237611379715e-01,-2.074595770791532248e-02,3.974181426049035182e-02,4.543844247589823868e-04,5.622341036796569824e-01
-7.559042257664301545e-03,-3.001784822076066783e-01,1.971766472143948457e-01,6.819401390788523178e-03,1.577909445900935528e-02,-1.095772900685137823e-02,4.343951642513275146e-01
-1.549019904276112067e-02,-3.252697096776008823e-01,2.424688565726451084e-01,8.170765773041847521e-03,1.107249788118099335e-02,-1.300288705747447426e-02,4.934490323066711426e-01
-6.308683061604106190e-03,-3.201096005116022547e-01,2.421097740609144400e-01,6.680698871034180218e-03,6.604520658784879088e-03,7.428121290202115362e-04,4.882653951644897461e-01
-2.519142595985523689e-02,-3.323988508842517509e-01,2.176068225238562692e-01,-4.245547098016986577e-03,3.564936130617479132e-02,4.398112115516294475e-03,4.814992845058441162e-01
-2.889568322650512208e-02,-4.762295164592884600e-01,4.678816488819502184e-01,-9.126278983430402558e-02,7.851633648363709472e-02,-1.067297614099293850e-02,8.443598151206970215e-01
-2.050476282640483969e-02,-3.154843005075058104e-01,3.131594079313766432e-01,-9.025352180340258292e-04,-3.550472992095389177e-03,-9.756850212649401197e-04,5.448045134544372559e-01
3.213533743894146123e-03,-3.070802383165054938e-01,3.035615923083234691e-01,-5.277177476981611409e-03,1.520935210102036415e-03,2.277229280003172530e-03,5.289549827575683594e-01
-1.254392818906403459e-02,-3.188012999169768658e-01,3.010924100259288472e-01,-1.477431654562821666e-03,8.538043138303414879e-04,1.612734890652659046e-03,5.368717908859252930e-01
1.544707988615397209e-02,-3.015381250114402278e-01,2.895714667504925011e-01,-4.013252236796433295e-03,-2.559195910074422726e-03,-4.803975449926903285e-04,5.124313235282897949e-01
8.041231705278893693e-03,-3.079362301522734491e-01,1.503406063204826837e-01,-1.519359595060407707e-03,-2.777221898188264940e-03,-1.454335658023613032e-02,4.070858061313629150e-01
-3.522879609320105770e-02,-5.802936628956179010e-01,3.284206484467701026e-01,-2.546217598284676240e-02,7.185193826379643323e-02,6.371562849538441042e-02,8.106548190116882324e-01
7.921349454800406809e-03,-2.731406995887143418e-01,2.993411526911780030e-01,-2.682356918944129101e-02,6.618738356321242355e-03,-5.920178608743136527e-03,4.982203245162963867e-01
-3.435768715245372806e-02,-3.111081601145538333e-01,2.855677814386070601e-01,1.608078498011828806e-03,1.254671186284854034e-03,-1.586284701514733327e-03,5.172066092491149902e-01
-3.559287834679036866e-02,-3.110918568669525097e-01,2.761816703002933915e-01,4.771122908433471713e-03,-2.227536438796518664e-03,2.193542539097629532e-03,5.090129971504211426e-01
-1.552196082935058952e-02,-3.584919453143083912e-01,3.217987701204201856e-01,4.969170747587412298e-03,-8.518801881047739430e-03,9.770745218071522596e-05,5.894033908843994141e-01
9.340605372086686203e-03,-2.368721539748100957e-01,2.803997693239095312e-01,-1.637713925785956939e-02,-7.060412350016343451e-03,-1.011156126830628716e-03,4.492096006870269775e-01
-9.109812752247018267e-03,-2.897878537627592843e-01,2.757014646901898569e-01,2.772982557292321890e-02,-2.937175216945027423e-02,-1.117676281462679465e-02,4.950834214687347412e-01
-3.902999044876371160e-03,-3.054370831254832885e-01,2.954186607323512903e-01,1.365695425571639013e-03,7.310129512874445016e-04,9.160112003039686110e-04,5.203668475151062012e-01
-1.896178948381158427e-02,-3.126100315646007655e-01,2.872826929927189687e-01,-2.474424979895058132e-03,1.060796874478832363e-02,1.167352831996709868e-02,5.202959775924682617e-01
-2.328006007419933243e-02,-4.952665683981030131e-01,2.069125836490013359e-01,3.683172500100543451e-02,-7.588466168324810301e-02,7.020603142505923121e-03,6.371034383773803711e-01
-2.366347278829849035e-02,-3.186922166785508548e-01,2.709292320242639995e-01,-7.922889727097894713e-03,7.384533470574082287e-04,1.773972305863630826e-03,5.108224153518676758e-01
-1.683343155043475273e-02,-2.393270294137814780e-01,2.930673427316244917e-01,-1.051824762005950861e-02,1.398991440215046310e-02,9.182217535017371882e-03,4.643972814083099365e-01
-4.669186557727476178e-02,-3.072523064497950651e-01,2.739164155519550059e-01,-5.455187191592983462e-04,-3.266805685723027635e-03,1.568143099549955660e-03,5.042415261268615723e-01
-1.113052875054602875e-02,-3.982609510482481019e-01,1.346636478845545104e-01,7.060957618148230169e-03,5.857490342103072178e-02,7.323674538145268087e-02,5.040840506553649902e-01
-2.671902024295681050e-02,-3.120497275532500003e-01,2.524223058306090950e-01,1.289681633696801964e-02,-8.733776788163085530e-04,5.602536306057946322e-03,4.894655346870422363e-01
-2.504738492643368217e-02,-3.208039169413471892e-01,3.126552296145947984e-01,-5.027613026525527655e-03,-6.369401303969358811e-04,1.126467430471148976e-05,5.490626692771911621e-01
-1.959152239842998702e-02,-3.175509545614894069e-01,3.142286783452787891e-01,-2.192072186548063659e-03,-8.773477506959006253e-04,7.646035044083558880e-04,5.474478006362915039e-01
2.213828981171954077e-02,-2.317076684135418452e-01,2.770652085900587314e-01,1.813498959601208757e-02,-1.675984454387160214e-03,-1.136155049721639587e-03,4.417426884174346924e-01
-6.720692261943314594e-04,-3.043711240988603572e-01,2.330320325518665525e-01,-4.731363819422385736e-02,8.436854468092636061e-02,-5.772439457470076446e-02,5.058583021163940430e-01
-6.297799467745213847e-03,-3.041297852239597255e-01,1.991130681920522116e-01,2.957222296636272205e-03,2.443488914576901622e-02,-1.871079026683147156e-02,4.415236711502075195e-01
-1.171345352636447151e-02,-3.033734656001400021e-01,1.820845037560366309e-01,-3.541458480697316519e-03,2.413882262971326145e-02,1.088290589202184008e-03,4.253652095794677734e-01
-1.481430327852180373e-02,-3.191507860169535138e-01,3.035580819671884201e-01,4.321074469293328994e-05,1.385883697940046332e-03,-4.787441999967649944e-04,5.393333435058593750e-01
-2.852700003317517122e-02,-3.152846834269815712e-01,2.733828129742426061e-01,7.616630636896525204e-03,1.058434059595194168e-02,-7.783270397933137082e-03,5.105353593826293945e-01
-1.300591798892211659e-02,-3.032419261522230625e-01,3.442481590348785425e-01,7.662574275136159463e-02,1.709990628669099538e-02,-5.081603369702846970e-03,5.780351161956787109e-01
-7.016924978352843956e-03,-3.275695595807299187e-01,2.027978146273060611e-01,-2.594616014500385898e-02,9.222212283632882923e-02,-1.035236313524277646e-03,4.914982020854949951e-01
2.016996688506016155e-03,-2.548305951153235216e-01,3.218500215107668039e-01,3.113953211384730760e-02,-7.783127696065407497e-03,-3.110728549270079871e-02,5.063654184341430664e-01
-3.536916587798290268e-02,-5.344038065162268758e-01,2.367691248516584079e-01,5.318046816776976493e-02,5.938358526241133833e-02,2.451766041875273056e-02,6.926531195640563965e-01
-5.394400124335897197e-03,-3.086417608648116540e-01,3.004804986067011185e-01,1.381377998283763635e-04,3.918604361275531203e-03,9.579620945247943782e-04,5.275633335113525391e-01
-2.937279155253754229e-02,-3.150398606058322781e-01,2.604541024550432460e-01,-6.561052515054973007e-03,1.454255887469808883e-02,5.030836231626042467e-03,4.992382526397705078e-01
-1.885098213932569905e-02,-3.167681823646764649e-01,2.966129612010067196e-01,1.848142546734651576e-03,-4.727035261603211407e-03,-4.977277093556185805e-03,5.314187407493591309e-01
-3.802671837989494291e-02,-3.639202403861545587e-01,2.923951270359123611e-01,-1.351501829394163856e-02,3.680090109141566368e-02,5.104976659106369961e-03,5.725002884864807129e-01
-6.499905151120482713e-03,-3.149984928400992867e-01,3.028668627097312882e-01,-4.382098305988295887e-05,3.791712890808129552e-03,-7.210141693931308889e-04,5.351290106773376465e-01
-5.715232508808699811e-03,-3.096528188347474897e-01,3.005150917531565491e-01,-4.819705978620841889e-04,3.263164280848637570e-03,5.982661180602113138e-04,5.284540653228759766e-01
-1.972448173522047682e-02,-2.912586719823892500e-01,2.611290680428197675e-01,-2.453959741846677492e-02,2.816794217691679161e-02,3.269288120930271407e-02,4.860701858997344971e-01
-1.994907745134947424e-02,-3.164503564508995281e-01,2.969648354930548018e-01,-5.137426271705473500e-04,3.804317509650523266e-04,8.702217384637234545e-04,5.313344597816467285e-01
-2.508341331057831886e-02,-3.184339965936756611e-01,3.013118974864877342e-01,3.005574084682208300e-03,-1.652245617447531140e-03,-7.183313903262657251e-05,5.370028018951416016e-01
-8.404383988368159530e-03,-3.132559815242897949e-01,3.022492625055290261e-01,0.000000000000000000e+00,-3.674172486224379949e-04,2.860386714432649894e-04,5.330516695976257324e-01
-1.651338713810759917e-02,-3.244628598156645838e-01,3.060604369336444863e-01,-4.677873286628659449e-02,5.219365336675200334e-02,-2.714961661622486422e-02,5.614016056060791016e-01
-7.880939146568163856e-03,-3.239012670297586327e-01,1.744931477770671202e-01,1.515625321426128597e-03,-1.063902256231727753e-02,-1.665170280771178027e-02,4.381111264228820801e-01
-1.449710426695187925e-02,-3.169861101252494096e-01,3.025648697828315914e-01,1.413350853408765380e-03,5.728312228293554767e-05,-7.054851103609027611e-04,5.366033315658569336e-01
1.508806982356783281e-03,-2.946108532989502038e-01,2.907341904286790957e-01,-1.172432895080291124e-02,-1.100953424371311183e-02,8.745294278602435203e-03,5.079261064529418945e-01
-4.925578798702308359e-02,-3.052586232264059563e-01,2.757539561552859730e-01,-2.466059197227481355e-03,-1.762186791600119096e-02,-3.268330040353779626e-03,5.053257346153259277e-01
-5.016493782337184959e-02,-3.063864747042506775e-01,2.769552962397847096e-01,8.879877679466431466e-04,-7.094526329797445734e-03,3.416437517133310165e-03,5.066169500350952148e-01
-4.924607117217923158e-02,-3.023470549727779177e-01,2.803503941793365484e-01,1.344667909566804815e-03,-7.589580273472899125e-03,5.492805207965219825e-04,5.062551498413085938e-01
-2.015398040702989779e-02,-5.519824742002346074e-01,3.116871200280433851e-01,-3.269658105691590488e-02,-9.758314134763002023e-02,1.395488463119264576e-02,7.757586240768432617e-01
-1.896445217662106122e-02,-2.956148336267236387e-01,2.983242776043191213e-01,-4.998074160405293481e-02,-2.579866467986126517e-03,8.063226379198654842e-03,5.222019553184509277e-01
3.573809728463479482e-03,-3.479929450053910189e-01,3.272210638892910084e-01,2.181809041117603598e-02,-5.229089814578998137e-03,-1.049533553400126308e-02,5.864903330802917480e-01
-4.803799426417823537e-02,-3.022691423544144884e-01,2.737149967055726996e-01,-7.699710606423854997e-05,-2.171247815807601008e-03,-2.582668621856886717e-04,4.999724626541137695e-01
-3.674453707971277183e-02,-1.627313294734124283e-01,2.842624329445310183e-01,-1.004512988934678011e-02,-4.228878364665382243e-03,8.620204476591857359e-03,3.999250829219818115e-01
-4.941783484104782243e-02,-3.044262477513594023e-01,2.681713268279637963e-01,1.782560780781963154e-04,-3.123787639993492928e-03,2.001718854616187700e-03,4.969119429588317871e-01
-5.090402326199427313e-02,-3.031463369680720832e-01,2.971452290591009571e-01,1.462662355417816262e-03,-9.426820655710051178e-03,5.186032424005446997e-04,5.223323106765747070e-01
-2.161092108099840065e-02,-3.128766014288106301e-01,2.983203314936285211e-01,8.426943798764179256e-04,2.988428345686635354e-04,-1.177632016035350636e-03,5.295122861862182617e-01
-1.683263510056965881e-02,-2.985600009735403515e-01,2.971350339706409494e-01,-2.750493470100816686e-04,3.564337145781033616e-04,5.972421531434465337e-03,5.162431001663208008e-01
-3.120578363537993005e-02,-1.160739511799649404e-01,2.788114503635822361e-01,-1.407279453073799480e-02,-1.805032436403255147e-03,-8.553401388049043175e-04,3.608739078044891357e-01
-3.841352808282964826e-02,-3.041782617053723214e-01,2.285028220053599290e-01,-5.100465527486658726e-03,-1.019997675423203742e-02,-4.355985179698269871e-03,4.618000388145446777e-01
-9.147071852802168834e-03,-3.107694258985855829e-01,2.988380681598743482e-01,-9.563419954398160632e-04,-4.118671128330329834e-03,1.724113146848757754e-03,5.280044078826904297e-01
-2.780760760767790607e-02,-1.946152856299722400e-01,2.917563518494409869e-01,-6.641797992234319947e-04,-1.377797582577457679e-02,-4.112895420679397659e-03,4.288043975830078125e-01
-2.697983067696824167e-02,-2.443429647204813371e-01,2.969328580931201444e-01,-9.781746508282703270e-03,-1.201458886431180581e-02,1.169166635834393599e-02,4.729725420475006104e-01
-3.421519516267479410e-02,-3.104296905560833264e-01,2.893605974147531179e-01,1.797565549447544637e-03,2.248835286086146661e-04,-1.849647395527370458e-03,5.199924707412719727e-01
-1.175896046062462758e-02,-2.871442022142059458e-01,2.906715577713034349e-01,-9.240827061322834032e-03,6.442592312684018079e-05,4.275210455244327253e-03,5.008963942527770996e-01
-2.294648957485426188e-02,-3.168231720686094377e-01,2.983311142557255602e-01,3.451174724096443716e-04,-1.538731743549489174e-04,-3.645899846857738528e-04,5.329161286354064941e-01
-4.523630237830509465e-03,-3.095203074275038047e-01,3.000271222429706230e-01,-6.344421915985057597e-04,-6.268228591838126071e-03,1.445488196347946130e-03,5.280023217201232910e-01
-4.858535032034369539e-02,-3.055996742089925888e-01,2.714712900837845666e-01,-2.002905332437418008e-03,-1.412094606192933980e-03,-1.033945743331530966e-03,5.007723569869995117e-01
6.451402299391782377e-03,-3.066056336489779155e-01,2.957503891988268463e-01,-3.373939498086683721e-03,-3.551764682266985861e-04,-5.533564032386727779e-05,5.218239426612854004e-01
-5.800255352744703927e-03,-3.082891390259867581e-01,2.987320948831097556e-01,-2.866687038996872713e-03,-2.488116981156958049e-03,9.107177481672156958e-04,5.257402658462524414e-01
-2.728718789719231791e-02,-3.175502208967977968e-01,2.285509306565901011e-01,1.194176016284975717e-02,-1.294921659921373369e-02,8.703627508642352434e-03,4.744725823402404785e-01
-2.199008609421826063e-02,-3.178316615015368551e-01,3.005349136817062616e-01,3.121853926690034125e-03,-1.726445820791054761e-03,-8.405226252728395343e-06,5.357229709625244141e-01
-8.684981626652838599e-03,-3.064465448504125056e-01,2.987641025576286413e-01,1.032020377825768531e-03,-3.369767886002702703e-03,1.449852555975777958e-03,5.241917371749877930e-01
-1.903842389873920335e-02,-3.186766363667972168e-01,2.978382363028332369e-01,7.013616478428220946e-04,2.532249376147288318e-05,6.038313811716707101e-04,5.339894890785217285e-01
-2.901575329147712545e-02,-3.170743604641232949e-01,2.962742168664528886e-01,2.240739528243286625e-03,1.788552826309715857e-03,-8.761388892099164667e-04,5.315269231796264648e-01
-2.082291264664928518e-02,-3.222959607545155536e-01,3.129570157876980230e-01,-4.467479640374826845e-03,-1.891762144145648934e-03,-2.323829215800884019e-03,5.504611730575561523e-01
-3.147312397585648458e-02,-3.167733030651276871e-01,1.824929294528438994e-01,6.939790065402122454e-03,-3.716912980502917047e-02,2.028523856487652807e-02,4.401656687259674072e-01
-4.207861512201932497e-02,-2.601117472603839409e-01,2.970935727808922122e-01,2.913560241641895143e-02,-3.814042414494634922e-03,1.775935677854418443e-02,4.899627268314361572e-01
-2.541825700506715469e-02,-3.125738980266392630e-01,1.490121695673553848e-01,-1.841873630460810459e-03,-5.517325564189350107e-02,-1.007353361981224577e-02,4.152347445487976074e-01
-2.172872156380259434e-02,-3.238342490614378733e-01,2.867030021882812085e-01,-8.667147436474209252e-03,-2.257046759348695433e-03,1.238782688634593523e-02,5.294126868247985840e-01
-2.177681484600109060e-02,-2.121841800991172422e-01,1.859528214425402171e-01,2.194572879320818778e-02,-2.059233291621304779e-02,3.405164054958192965e-02,3.537729978561401367e-01
-2.156899085853906245e-02,-3.264276915078089258e-01,3.126954781422531804e-01,-2.137028890732395846e-03,-2.878441110974746132e-03,-1.704058339757804838e-03,5.537348389625549316e-01
-2.215346523982837657e-02,-3.284252623572063157e-01,3.043879748634915061e-01,-3.845195451196612227e-03,5.338728083253593305e-03,-1.798755108546124318e-03,5.482533574104309082e-01
-2.236186282248286278e-02,-3.206047184713984310e-01,3.175272288763861250e-01,-2.289062052301549504e-03,-2.168298209264128956e-03,8.785739017238067402e-04,5.530596971511840820e-01
-4.222829217579631561e-02,-3.099874409447225809e-01,2.248562531850464286e-01,1.845647402007766441e-03,-4.360482289833471359e-02,-1.246128074748331996e-02,4.698123633861541748e-01
-5.210719148632757952e-02,-3.108527476527601086e-01,2.907137356352916258e-01,3.271869517837598922e-03,-1.251578625150680246e-02,6.315267407493350971e-03,5.232595205307006836e-01
-3.077068072018175268e-02,-3.142310042859475239e-01,2.562170704378674557e-01,1.131881678918672356e-02,-6.851143164696527760e-03,6.439756655453310157e-03,4.946826696395874023e-01
-2.684122344778282210e-02,-3.041437420400919800e-01,2.397900107589749363e-01,1.157005116870421513e-02,-2.859251633295965735e-03,8.433247599151383073e-04,4.715449810028076172e-01
-3.021557148216955785e-02,-3.596346257872742869e-01,1.900281096720208285e-01,-1.505358172246443280e-03,-6.036323993444968339e-02,6.039936213246841282e-03,4.905344545841217041e-01
-1.246423709912905520e-02,-5.211681873805196208e-01,1.348719201060755157e-01,-2.704550728264319345e-02,-7.098108116110422861e-02,3.630624451618202908e-02,6.137604713439941406e-01
-1.349162608035013068e-03,-2.737320448251310268e-01,2.914667951306632587e-01,5.650441622332327135e-04,1.194887981307264126e-02,-2.348617069617722503e-03,4.900382757186889648e-01
-1.725903427795820455e-03,-1.661235602486530738e-01,2.852226702334879072e-01,4.241066287876206486e-02,1.740683480469407346e-03,1.741733377342507064e-02,4.035528600215911865e-01
-3.126891431713088587e-02,-3.104981017535553001e-01,2.693692385483580920e-01,8.005603759854429402e-03,-1.458023101371333334e-03,1.201960721046888177e-03,5.024959444999694824e-01
-3.500086997219867269e-02,-3.149269804814288642e-01,2.938377179543895656e-01,-1.136615125434301237e-04,1.952887597656854241e-02,-5.455883054900894508e-04,5.288563370704650879e-01
-3.179675449900643686e-02,-4.122269277192195380e-01,5.176886782780456553e-01,6.456293084972472562e-02,4.700037149319317986e-03,-2.402862327776016799e-02,8.185387849807739258e-01
-2.981159845163797173e-03,-5.419538962347029143e-01,3.587847805447983429e-01,-4.621629395634661852e-02,1.423806771184358000e-01,4.076803812273434649e-03,8.268147706985473633e-01
-2.276830967463429334e-02,-3.240644710040707088e-01,3.109524552622202620e-01,-4.999497040191232386e-04,4.525722175244509260e-03,3.682395249296319898e-03,5.502731800079345703e-01
3.053296720302689504e-03,-3.504576270688431472e-01,3.074773526597359696e-01,-2.850926267434161776e-02,5.386376579973661989e-03,8.726840382239850480e-03,5.727260112762451172e-01
-7.526925961723433811e-03,-3.170522444849180888e-01,3.160273629886157787e-01,-5.806557356473947100e-03,-5.583411003113909478e-05,5.631884124381521554e-04,5.484009981155395508e-01
-1.515377276771085607e-02,-3.112375564845715759e-01,3.030707761050634996e-01,-5.415574709754903543e-03,7.828019597310864261e-03,-1.554397079031506225e-04,5.323771834373474121e-01
-9.456861291740684128e-03,-2.415032472800238972e-01,2.481409283498024199e-01,2.989257863562052100e-03,2.733823017619341450e-04,7.456342255643032269e-03,4.244650900363922119e-01
-2.093003435904650447e-02,-3.179076769943939840e-01,2.967788322811744650e-01,-7.907883474227236789e-04,-8.683126706090704347e-04,-1.836395431938545042e-03,5.324484109878540039e-01
-1.962070763766553261e-02,-3.185751275368368662e-01,3.015244355650702479e-01,-3.227538165429482786e-04,-4.678767737076397221e-04,1.338275742028836098e-04,5.371375083923339844e-01
-1.836200167545682521e-02,-3.193344130698754779e-01,3.037415538990098085e-01,-1.245213033871988770e-03,-5.726813505446695326e-05,-7.633165439737230485e-04,5.397089719772338867e-01
-1.989796127854260438e-02,-3.223820714060574022e-01,3.048404923896276819e-01,-1.630572537647093784e-03,1.753386229415796263e-03,3.923444452204933762e-04,5.433208942413330078e-01
-2.260832856992968376e-02,-2.930399710949664893e-01,2.996091994551475790e-01,4.189457618148528946e-04,4.121717601872149778e-03,-3.552412238700061037e-03,5.139889121055603027e-01
-1.578395203003829517e-02,-3.199307459439829082e-01,3.055089027880090180e-01,-1.101529749133629008e-03,1.368523874587108426e-03,-3.274546282301880580e-04,5.417233109474182129e-01
-1.648932096372300593e-02,-3.157541023546376890e-01,3.049230870437518170e-01,-4.286038859568606658e-04,6.668839392634937774e-03,-9.058583776079502789e-04,5.377631187438964844e-01
-7.920281075941219395e-04,-3.066904333728021625e-01,2.995858451276528500e-01,3.624249355788027906e-03,4.960091705648726756e-03,7.465032016513797625e-04,5.251672863960266113e-01
-8.388417451628037494e-03,-3.071810095755579950e-01,3.013032523040579114e-01,-1.798733948005204656e-05,7.477999865438145558e-03,1.689466202208840962e-03,5.271582603454589844e-01
-1.662047760369234073e-02,-2.761962822190379141e-01,2.804004871855083625e-01,2.837625431647580396e-02,-1.711458449475236230e-03,1.351769666301601801e-02,4.854617416858673096e-01
-1.787459379712001348e-02,-3.203876019434384603e-01,3.057856399231650979e-01,-1.297233141342329400e-03,2.197583774562858645e-03,-3.610280564413208011e-04,5.424033999443054199e-01
-3.530343160756597293e-03,-3.136573265081938899e-01,2.156195873066778235e-01,-1.152920285554371801e-02,-4.194513780024677202e-03,-1.312775484843614789e-02,4.616690576076507568e-01
-2.247573868666830760e-02,-3.129630594406995758e-01,3.044477587647858030e-01,4.663399098243657713e-04,-3.400912993632877225e-03,3.688612039018033563e-03,5.350748896598815918e-01
-1.086874145487759166e-02,-1.680389554783660311e-01,1.985291048690955018e-01,-2.666117496092269140e-02,3.064904299759814779e-02,8.525915432841974298e-03,3.265419602394104004e-01
-2.141273803981220275e-02,-3.191690217245712891e-01,2.967727594953129544e-01,-5.841988994403064447e-03,3.482081023251237892e-03,2.090246200129577438e-03,5.336613059043884277e-01
-1.922425018729723850e-02,-3.198419004801122401e-01,2.965975918140685841e-01,-2.612142133837354416e-03,7.851917903769746682e-04,-4.576552028600413061e-03,5.339861512184143066e-01
-1.524906140050643830e-02,-3.223506981237139191e-01,2.751718207215658185e-01,-6.743150156779694100e-03,8.101248415907179702e-04,2.825032172114240719e-03,5.176936984062194824e-01
-1.727749083021440021e-02,-3.141790294964346697e-01,3.041826535409246635e-01,-1.259616688174737542e-03,6.715381971121838628e-03,-1.122118771813579918e-03,5.357919335365295410e-01
2.160088839812811246e-02,-4.139077412370079090e-02,4.448698402247097672e-01,-2.185955656894825877e-02,3.385606559636018115e-02,-3.250435195549019468e-02,4.667213261127471924e-01
-2.089247509848314848e-03,-3.141862381912866597e-01,2.986444428617381353e-01,-2.111912776719025546e-03,6.351690697182769962e-03,1.350079797504708011e-03,5.308890938758850098e-01
-2.652966226613770809e-02,-3.067495077881388088e-01,1.836412506469458361e-01,-5.259102503969991481e-03,-1.475742977610711680e-02,-8.727549998902512166e-03,4.272632300853729248e-01
-1.193103026632204300e-02,-3.264279317884056786e-01,1.902211736134890030e-01,4.512626031103935016e-03,-2.995380337378273066e-03,2.372863772667717017e-02,4.529097080230712891e-01
-2.770096064919069789e-02,-3.419564810075597650e-01,2.177429341605144342e-01,3.993428854470734875e-03,-1.394087630652634038e-02,4.331578675394938405e-02,4.923321902751922607e-01
-2.140950601767473843e-02,-3.258296260771968433e-01,2.636252466027451669e-01,1.088837431428048459e-02,4.740971692547652438e-04,-6.145597629480915132e-04,5.109248757362365723e-01
-2.220606130211722276e-02,-3.280871403050104607e-01,2.963640133642029828e-01,6.970516631758952829e-03,1.755327965388389123e-03,4.742456256650788115e-04,5.409716963768005371e-01
8.201846614008939662e-03,-3.139010314840372518e-01,1.601447320369207006e-01,7.107964582313205937e-03,-2.483497449061288897e-03,-2.185818635911233789e-03,4.194788932800292969e-01
8.016300726446795588e-04,-3.398607009695644998e-01,1.030234342683473137e-01,2.605913086572683550e-03,7.995598750105296915e-03,4.301509037065521374e-02,4.087619185447692871e-01
-2.016832053040374870e-02,-3.271877674951793602e-01,2.888185146683073801e-01,-2.670540127693494560e-03,3.735014766280413839e-04,3.551087691990836674e-03,5.335338711738586426e-01
-1.974002774986535758e-02,-3.260427843393646219e-01,3.155377794784454126e-01,1.995708332834458896e-03,7.154603241084266096e-03,1.928273266389380486e-03,5.559728145599365234e-01
-1.928261905976769164e-02,-3.326636883486131513e-01,2.986356282813449337e-01,5.643462900890456116e-03,-9.632195616020782858e-06,7.298253029349171736e-03,5.469594001770019531e-01
-3.426908086949920912e-02,-5.081345756377515510e-01,3.310405192769236282e-01,5.199073053116744919e-02,2.822063407161933338e-02,1.878866755575004863e-02,7.366577386856079102e-01
-4.011365216936374489e-03,-1.349972591707833125e-01,4.692127801353213057e-01,8.032583761132022770e-02,-4.184094074266347246e-02,-2.910780003256576223e-02,5.746604204177856445e-01
2.163992538312860606e-02,-2.998607824799492394e-01,2.942033096751959786e-01,5.951615862104665811e-03,-3.617391507822813497e-03,-6.571733282366559563e-03,5.153231024742126465e-01
2.525058810804441459e-02,-2.903610551642964444e-01,2.822738889383748506e-01,4.561507316753469175e-03,1.075826681449606239e-04,1.156480601797759506e-03,4.968477785587310791e-01
1.122616792085413817e-02,-2.942582768024181172e-01,2.891685085585838366e-01,3.149514250180744570e-03,3.396052150231826210e-04,7.056491597044716856e-04,5.054813027381896973e-01
-1.339224616456613157e-03,-2.838208309697770049e-01,2.969194039709696642e-01,1.144703874986330479e-02,1.458382670098483380e-02,1.154697223905817166e-02,5.044183135032653809e-01
-1.942445221517928589e-02,-3.015356605077169072e-01,1.179145086583683333e-01,1.007999032910551936e-02,-3.182924680452497990e-02,-2.061510689997732987e-02,3.765802085399627686e-01
-9.874711988361813825e-03,-2.984374225698401828e-01,3.690857393099888362e-01,7.746086673308358317e-02,-4.719157019893577276e-02,-3.066757751412514318e-02,6.031057238578796387e-01
1.906481353145225710e-02,-2.944976437294895000e-01,2.869860713510867245e-01,1.315319848585240654e-02,3.758559601024337796e-03,3.439225979504203622e-03,5.046881437301635742e-01
2.196671512204037210e-02,-2.669078540808154654e-01,2.837176156915315883e-01,1.101353983963546633e-02,4.840552214765744821e-03,1.127425731833507709e-05,4.775033295154571533e-01
5.078756062373758311e-03,-3.007984203522809930e-01,2.927863344100978815e-01,1.344880667485852084e-03,2.876160323290360196e-03,8.055038919734264918e-04,5.141710638999938965e-01
-2.593341111782800773e-02,-3.136091603068830169e-01,2.855067313523310668e-01,-4.315109663223149275e-03,-1.024274207462047732e-02,-4.222008578271104796e-03,5.193940401077270508e-01
-3.979620121876235178e-02,-2.877782476246322219e-01,3.388585093166192608e-01,1.134522193146107333e-01,-2.622504317734469098e-02,8.441761706310238478e-03,5.828081369400024414e-01
1.753668308545189986e-02,-2.718504865187245656e-01,2.799797598451301828e-01,6.388547413788775659e-04,-3.032374493932370706e-03,-6.462266069499604678e-05,4.781190156936645508e-01
7.233281743613397680e-03,-2.145553827839664640e-01,2.793929656507954662e-01,3.373488027380892700e-03,-7.303416745189277547e-03,-1.788410828151858331e-03,4.287502765655517578e-01
-2.996495995366329351e-03,-2.312651226207784183e-01,3.007833838727508868e-01,2.805285032529027459e-02,1.061948081161758102e-02,1.341043226181946012e-02,4.658013880252838135e-01
-1.177021850586393303e-02,-1.732378519980044829e-01,2.827402619655022264e-01,4.525288914709530916e-03,-1.155590662227880261e-02,-1.357940113857146990e-02,4.017180502414703369e-01
-2.866403068172079099e-02,-2.270897400801951960e-01,1.283825466944004678e-01,2.288256758131609545e-02,-2.242654634219241536e-02,4.914708593565432493e-02,3.248452842235565186e-01
-2.817276894752990257e-02,-6.904271006964757262e-02,2.561346917183476846e-01,-4.024234207671855551e-02,3.023978990510020962e-02,1.864076463532915451e-02,3.205695152282714844e-01
3.674013969542713753e-03,-3.325110381289789196e-02,3.406507513794307940e-01,-1.482671595496210491e-02,3.930446819620529199e-03,-4.515500722289701035e-02,3.663092255592346191e-01
-3.058235952843404992e-02,-1.236345484725549226e-01,3.335084768468081773e-01,-5.774794453502878760e-02,8.508317165410800992e-03,-3.839841378498736347e-04,4.304908812046051025e-01
-4.820862602359227145e-03,-1.630612742795102821e-01,3.202586074548219863e-01,-3.079888069841199214e-02,4.207226810562078936e-03,-3.197436559834595377e-02,4.337318241596221924e-01
-4.300585560751768802e-03,-3.369448597644723598e-01,3.116405233076368075e-01,-6.620628657981991738e-03,-1.136990245012264866e-02,1.305708013573385687e-02,5.626702308654785156e-01
-3.091303821082111436e-02,-1.757715866519570791e-01,3.041423134112019588e-01,-1.710508062164700291e-02,5.564093936711905948e-03,4.580373554726223720e-03,4.275690317153930664e-01
-1.010364689564238749e-02,-1.061103962456978189e-01,3.187285302149230892e-01,3.705935128190777916e-02,1.301285483267744861e-02,2.926322197399787092e-02,3.951141536235809326e-01
-1.080741920004490639e-02,-2.114085411461293085e-01,2.671507686005762938e-01,-5.300265277418551163e-02,-2.788536624619105536e-02,-6.630281347727989827e-02,4.440823197364807129e-01
-3.381799255412265559e-02,-9.936747096730738638e-02,3.015798295813580943e-01,1.066925817193452482e-02,-6.604394178057649764e-03,-4.844063247590746531e-03,3.732510209083557129e-01
1.205121786306874096e-02,-2.539214852292183133e-01,2.914213127950650017e-01,-1.519455177281614326e-02,3.257093906119933827e-03,-3.947674192276299891e-03,4.731439054012298584e-01
-2.415522255681705824e-02,-4.121712138378448853e-01,4.011845096629109708e-01,8.640272648654104271e-02,-6.894356948858797185e-02,2.694561121651376998e-02,7.316713929176330566e-01
-1.960234282097429032e-02,-3.504259265092983244e-01,3.469546931896679287e-01,2.150865106109260390e-04,7.028843945925876587e-03,-2.733381483602915097e-03,6.043548583984375000e-01
3.963641001851663306e-03,-3.067765791352879412e-01,2.976431669513498468e-01,5.740088669085410301e-04,4.079882301751047713e-03,-5.904893837418187345e-05,5.235610008239746094e-01
-1.598828133656979636e-02,-3.174921389682902051e-01,3.089937883499458415e-01,-6.237329390481170409e-04,-1.357154202852570851e-03,-1.681409055865831521e-03,5.426936745643615723e-01
-2.662661991853254237e-02,-3.076242701057508855e-01,3.027088029753356446e-01,5.060210505980100582e-03,-1.070861789516690428e-02,-2.690443302286133886e-03,5.295342803001403809e-01
-8.423158708499141334e-03,-3.170337002109324120e-01,3.047217697935213909e-01,2.214858979636499412e-04,-3.856918150050125515e-03,-2.867318502744962191e-03,5.385252833366394043e-01
7.260256772120049842e-03,-3.060467966927932770e-01,2.964766752536400207e-01,7.416103851123572290e-04,-3.564425702654682240e-03,-3.992033251750985376e-03,5.220235586166381836e-01
-1.176407323718696440e-02,-2.101408489578778238e-01,4.418795427567302481e-01,9.808375859211791725e-02,-6.338074823792261281e-02,-3.240480220870986527e-02,6.157930493354797363e-01
-2.349251523852810900e-02,-3.185580727496113984e-01,2.755905077269211745e-01,1.897855336067062748e-02,-1.988304898241428573e-02,-1.402145070663320505e-03,5.167551636695861816e-01
1.670643757755900169e-02,-3.068343159649626339e-01,3.054072891863732209e-01,1.083958724404037247e-02,-3.031505141245673454e-03,-4.254141224244230302e-03,5.309121012687683105e-01
-2.416926012689378511e-02,-1.161253583790344268e-01,2.847539240416938622e-01,-1.211774493054884562e-03,-1.491365633457156226e-03,-2.204652767405319846e-02,3.657404184341430664e-01
2.321695921846053667e-02,-2.903154876873942358e-01,2.840843265326697398e-01,-1.033383313663243167e-02,3.486370405303572850e-04,-1.925595932605313285e-03,4.984742999076843262e-01
1.800318435545539969e-02,-2.987883225824335409e-01,2.891648887218860597e-01,1.580277663440594828e-04,4.099810933174599832e-03,-6.033915171078976363e-05,5.097428560256958008e-01
-1.274923919059305077e-02,-1.261602945901391659e-01,3.392783683405455886e-01,-5.848125840970074679e-02,-5.308053330041966056e-03,2.468035275829122410e-02,4.346048533916473389e-01
-1.823280875851180510e-02,-1.921112175203219530e-01,3.222298755545288662e-01,-7.049500736074597318e-02,9.960368430990258065e-03,-8.940932308913478524e-03,4.698869287967681885e-01
7.571636943767234146e-03,-3.067884323266131807e-01,2.932522192233280034e-01,1.366651846940526585e-03,-5.972098310617649994e-04,2.240374825382338269e-03,5.198691487312316895e-01
2.144640111836653915e-02,-3.025243523475818486e-01,2.841190946310682142e-01,-3.205194367403076030e-03,1.275973277483243538e-03,1.612878382927616580e-03,5.090144872665405273e-01
1.478103871410994634e-02,-2.950450020811716811e-01,2.893906197107695699e-01,-3.070746941380863518e-03,5.291282911745166795e-03,-5.698220867987450512e-04,5.065540671348571777e-01
1.751766061646320427e-02,-7.766392151985257453e-02,5.033078967812674165e-01,-5.200862053561682019e-02,-3.997523775095020507e-03,-2.897099679982609310e-02,5.495184659957885742e-01
-2.473487904835336773e-02,-3.195790480937892308e-01,2.834295495106505802e-01,-8.716318486583635172e-03,6.059510055298095469e-04,6.448490203121814805e-04,5.224836468696594238e-01
-3.565947649764013294e-02,-5.472758866934214206e-01,1.272107834032471518e-01,4.302300314129322428e-02,-9.834773780332738136e-02,4.895270030742840395e-02,6.429339051246643066e-01
-2.902532245026295463e-02,-3.116074148007006994e-01,2.534793860787460940e-01,-8.559636659517838586e-03,-1.150459843218839965e-03,2.284272698914291844e-03,4.896240830421447754e-01
-4.342999764202674917e-02,-3.107293102489416259e-01,2.773050307321016650e-01,-4.335415917711733444e-03,-7.193098459769589571e-04,3.018733305988745307e-04,5.100101232528686523e-01
-9.191050217996783039e-03,-3.081344056176869572e-01,3.027548652620672964e-01,-1.201689513748563799e-03,7.752787871675797214e-03,2.698542148167309539e-04,5.292602777481079102e-01
-1.752330317708125640e-02,-1.987090586560344707e-01,2.942357690479076582e-01,1.508673996570311995e-02,1.077208250194963690e-02,-4.061746938599865991e-03,4.331151545047760010e-01
-8.215719598691252623e-03,-3.718635569476894664e-01,2.357540076773321225e-01,4.770358204566266247e-02,-8.234888582733514151e-02,-1.617362090621534895e-02,5.553699135780334473e-01
-9.590868170829588979e-03,-2.835611670384476368e-01,2.961782961320370000e-01,8.453679821415215762e-03,1.136801413637546047e-02,-1.630736547699961794e-05,5.029197335243225098e-01
-4.149616005664141793e-02,-3.022166496628506116e-01,2.522081285527540961e-01,-1.276265391664289494e-03,-1.795653563951109255e-02,-1.574715010657751180e-04,4.814399182796478271e-01
1.114561670998837246e-03,-3.070079786197820737e-01,2.905471390642104801e-01,1.490937878608028858e-02,-2.845412247821461991e-03,2.227347255576255652e-03,5.182638764381408691e-01
-3.523413115270054158e-02,-3.578361771952914272e-01,2.327573770244958928e-01,4.322931223919085873e-03,-5.773415064232131216e-02,6.402431863244131653e-03,5.220391750335693359e-01
-2.512997916526527389e-02,-2.995605157129788698e-01,2.972448976184619007e-01,1.851161964731560736e-03,1.385233812813751889e-03,4.908035173512692757e-03,5.174896121025085449e-01
-3.731970651666738359e-02,-3.775013498611225482e-01,1.001203822105543872e-01,4.234478537140506232e-02,-4.140752331064222885e-02,8.390886760944746281e-02,4.615333378314971924e-01
1.743290061694036108e-02,-3.694943581376242125e-01,5.498498733541973271e-02,4.785245576618782381e-04,1.814279501918444545e-03,5.943340278855134377e-03,4.071477949619293213e-01
-1.644217249189545982e-02,-3.123504222428933885e-01,3.034067492737854144e-01,-8.777542506597374450e-04,7.268547383030934429e-03,8.886868401801541499e-04,5.335486531257629395e-01
-1.755387875389994440e-02,-3.188679059545945216e-01,3.029032765283554696e-01,-9.521482559870800494e-04,1.592423611432525199e-03,-1.989460172213770503e-04,5.385643839836120605e-01
-2.432873002845687554e-02,-3.083241372639392575e-01,2.996539864571384770e-01,-1.902995416100411062e-03,-8.675692627372911039e-03,-6.682349488258091698e-03,5.272555351257324219e-01
-4.676491907156091199e-02,-3.026366978497994631e-01,2.748310192823822939e-01,-2.107756953644191085e-04,-1.507533336201612173e-02,1.940342244336172237e-03,5.018713474273681641e-01
-1.249270983205746227e-02,-3.294509520974678862e-01,2.494925079168784365e-01,-1.636586239024047503e-03,-5.331037453465726182e-03,2.384784486855313478e-03,5.022425055503845215e-01
-2.484600334737788879e-02,-2.087053249734113491e-01,2.264261227785499542e-01,6.450205089629885979e-02,-4.555037484358702427e-02,-1.293546959716151837e-03,4.023079872131347656e-01
-2.012859317837958559e-02,-3.111363590310027294e-01,3.045780471490913688e-01,1.897883368904055472e-03,-2.832390428386573778e-03,3.941454349607577748e-03,5.335668325424194336e-01
-6.809952313156404646e-03,-3.253414975824243660e-01,1.423388372417872527e-01,-6.131111754029237339e-03,6.949780754498480206e-02,1.195635231479859860e-02,4.315643310546875000e-01
-4.663160692725765860e-02,-3.039779279795237210e-01,2.767688003447904554e-01,-2.370241923859461083e-04,7.746177287108274795e-05,-4.559287863383912950e-04,5.040254592895507812e-01
-4.690371987788428954e-02,-3.033088432654076905e-01,2.783805002654373695e-01,-5.443453372206423675e-04,3.689397712152191460e-03,1.139082855099175686e-04,5.049749612808227539e-01
-2.022464340412402292e-02,-2.976709911637018813e-01,2.087346592479217833e-01,7.063421289159333913e-03,2.441840393548911151e-03,-1.956454317900322218e-03,4.394335150718688965e-01
-4.551692735553562741e-02,-3.023838390466948023e-01,2.819801411922395751e-01,-6.607212446884614060e-04,1.871505749203608527e-03,3.945221356056305808e-04,5.073168277740478516e-01
-1.786013466248205506e-02,-3.010558514538159702e-01,3.172853309910892983e-01,-2.669293962553110494e-02,5.714529194650534022e-02,-1.031081121017252827e-02,5.474370121955871582e-01
-1.849936097896161258e-02,-3.845870860560369198e-01,2.077716941561288388e-01,-2.357295601001439291e-03,9.367058164458572089e-02,-3.894947169074034453e-03,5.426219701766967773e-01
-4.173791891050115943e-02,-3.011318816704188772e-01,2.770096077156384839e-01,2.295285035870486042e-03,5.663525894794233916e-04,-2.809385190269233818e-04,5.015808939933776855e-01
-7.565083154184993122e-03,-2.715844668513768267e-01,2.964993614263990995e-01,1.358774464622321092e-02,1.646978690704256273e-02,1.389323139053239183e-02,4.943551719188690186e-01
-1.675563368205473108e-02,-2.423839848492960192e-01,1.872069498232468709e-01,5.406093169449260188e-02,-3.818833600032237041e-02,3.717006833182274345e-02,3.947356939315795898e-01
-5.241983619745649303e-03,-3.228066090879843086e-01,1.972632787353606199e-01,-2.083548495667914002e-03,1.040531158975911176e-02,-2.346833331954767746e-02,4.562393128871917725e-01
-1.684566721450368385e-02,-3.165739540510774663e-01,2.569471590455765786e-01,1.223008329127681744e-03,1.647855031017645419e-03,-8.886499710520254572e-03,4.971041679382324219e-01
-3.212392435483191894e-02,-3.029901367564207249e-01,2.554380805450424674e-01,1.089090514574001661e-02,-1.043355540321303301e-02,2.088721948208203949e-02,4.857391119003295898e-01
-2.608756703708429645e-02,-3.117972944700099225e-01,2.929727990076171906e-01,-3.190186281916757103e-03,-2.380965077343694895e-03,-3.096214334452895411e-03,5.240844488143920898e-01
-3.529636597568275302e-02,-3.047115821978956807e-01,3.068285586179597679e-01,3.321243323797989488e-03,4.095081027831857026e-03,2.787191923313722848e-03,5.309560894966125488e-01
1.100699200355548767e-02,-3.006855586674611058e-01,2.898567335666805689e-01,-3.967837645346280855e-03,3.239628762260966300e-04,1.498407676047593985e-03,5.117412209510803223e-01
1.403831825755680329e-03,-2.576238954618670363e-02,3.270359710411989140e-01,9.430632673844554364e-03,6.135326824078892773e-03,-3.269466529714797759e-02,3.452637493610382080e-01
-1.478371495159132472e-03,-3.036961311836948174e-01,2.966257013226691885e-01,-1.558875564638135007e-03,-3.377191999034368452e-04,-4.803751807799665522e-05,5.199053883552551270e-01
-2.320533574570133456e-02,-2.591457138941674065e-01,3.065067067001519541e-01,-4.914559883379869890e-03,-2.641346062676454449e-03,-7.094402543833464893e-03,4.923562407493591309e-01
-2.791019421444091569e-02,-2.828761047937819462e-01,3.020455212160020331e-01,-4.201835050019346422e-03,-3.211528537113110017e-03,1.700075584386228841e-02,5.088779926300048828e-01
-1.717028527368215374e-02,-2.909817047109339305e-01,2.916205576629899432e-01,-1.295849259227196786e-02,-5.307266410050697110e-03,1.369579938479557370e-02,5.059900283813476562e-01
-2.088965345869033680e-02,-3.191418232264740529e-01,3.009392443069873191e-01,2.399006421011413200e-03,-1.208006643394550928e-03,-2.343394905661070823e-03,5.371708273887634277e-01
-2.733332132306316373e-02,-3.147192658788803832e-01,2.967582350298563210e-01,-2.854779772858458218e-03,7.326431061252480954e-03,9.075509621553778548e-04,5.300502777099609375e-01
-8.574634436989700750e-03,-3.112088590588844572e-01,3.012218212395470496e-01,-6.734149767518667800e-04,1.829854306529101263e-03,-4.118056418012347973e-03,5.304512977600097656e-01
-1.242524427853457236e-02,-3.142797714470032533e-01,3.178892980166881377e-01,-1.972390825392278044e-02,4.826078014631480194e-03,-2.096792878749702011e-03,5.487995743751525879e-01
-1.668467318351755241e-02,-2.776561240747589254e-01,2.908013996501003784e-01,-1.943202916297454355e-02,1.248402716990460598e-02,2.015690559294336034e-02,4.956996440887451172e-01
-2.079999325401486396e-02,-3.200475313174802050e-01,3.111035672292161713e-01,-3.390293090040978532e-03,-1.829679269950467433e-03,-1.712925493699689978e-03,5.468854904174804688e-01
-1.628824407688786099e-02,-3.232974060218449242e-01,2.528041935548172581e-01,-1.621236308093057217e-03,2.917782823357928986e-04,1.979218482349216106e-04,4.992869496345520020e-01
1.270238764791187074e-02,-2.936059998496733381e-01,2.904300996422888859e-01,-2.257715411863361974e-03,-5.398151233366601338e-04,-1.357983963995362863e-04,5.060079693794250488e-01
-1.801807832555657463e-02,-3.804901635238817914e-02,3.010153222714706533e-01,-3.059085466272937551e-02,1.396672654529231223e-03,-2.262162933515608071e-02,3.360395133495330811e-01
-2.726632788881154512e-02,-3.116139074964590638e-01,2.751792948718209675e-01,1.001199592481867573e-02,8.074440955082881274e-03,-1.218887289487150492e-02,5.091842412948608398e-01
-7.373233151620339418e-03,-2.977624895461294385e-01,2.480128432287513895e-01,-5.587085777199527620e-02,3.271801493995089155e-02,-2.901883937794535670e-02,4.886836111545562744e-01
-2.613801005646810421e-02,-2.780907516575604199e-01,2.842778805335737791e-01,-1.259606777417794990e-02,-4.717875696778035290e-03,2.168123792190176230e-02,4.898993074893951416e-01
-1.953063034125700898e-02,-3.113324924242374947e-01,3.058795848556072339e-01,-6.581027530032930450e-03,1.710737765422607262e-02,-6.044387947360987424e-03,5.358292460441589355e-01
-3.821865279049149050e-02,-3.103964468021989109e-01,3.000830714387896503e-01,-6.725307513173056379e-04,7.991941396150201854e-03,1.502971566004520894e-03,5.299120545387268066e-01
7.951021914665915014e-03,-3.642153884073542902e-01,6.870664208870952416e-02,-4.964329428960172035e-03,3.937051135714138977e-02,-1.770438963752916928e-02,4.128857851028442383e-01
-2.556240432780792007e-02,-3.161243535582258235e-01,3.080704970583828528e-01,-2.874011096469311372e-03,-7.560698241958153844e-04,4.575531522795961881e-04,5.410224795341491699e-01
6.949645356706446453e-03,-3.059923679594257484e-01,1.284860339812799734e-01,-8.031895813227223242e-04,-1.083929770075776552e-02,2.902505755993508782e-03,3.887381255626678467e-01
2.914170865728774040e-03,-3.114467794519999999e-01,1.447864389626583592e-01,5.723074766863111076e-03,-1.265471172080200393e-02,-9.458788116123147214e-04,4.051308631896972656e-01
-1.864746256826754767e-03,-3.775023281063542013e-01,-1.935862715919714483e-02,-1.034713977020819582e-02,1.776259204783022308e-02,-4.122235304619066218e-03,3.689945340156555176e-01
-2.073439842742450662e-02,-3.897511579175989560e-01,1.650501165174346474e-01,-2.740661159807086106e-02,6.643285559562664422e-02,-3.007962575455935816e-02,5.073997974395751953e-01
-1.057127633928349117e-02,-3.177740387193894178e-01,2.085893925628846401e-01,9.691920102238122184e-03,-8.460800822135584529e-03,1.351533949254955964e-02,4.591037333011627197e-01
-2.612942165242895104e-02,-3.631524611251367163e-01,1.710051104392805998e-01,-3.957955469692153033e-02,-7.124381422143319376e-02,-1.275209246269167103e-02,4.891829490661621094e-01
-4.174508181666009010e-02,-3.104052308900965840e-01,2.836691868129750937e-01,-8.482052282407771772e-04,4.874208158865619110e-03,1.588850960441050199e-03,5.153441429138183594e-01
-4.043657805364448549e-02,-3.175674297435070459e-01,2.671289387944836835e-01,4.044339923220521826e-03,1.377582645660722395e-02,2.321855094007011216e-03,5.072164535522460938e-01
-4.642380060551439674e-02,-3.049994664264030209e-01,2.830410819378589848e-01,-6.851054980137535888e-05,2.364103482718233219e-03,3.958679258508492711e-04,5.105069279670715332e-01
-3.979887448278263129e-02,-3.064648673995489236e-01,2.603737118558164809e-01,4.290903411995445130e-03,1.625080663233162762e-02,-1.991523588606888742e-03,4.920564591884613037e-01
-2.315638548711849987e-02,-3.246138313887459992e-01,3.153293047168386209e-01,-2.271858965252809837e-03,-2.232818814159946621e-03,-1.486465853715480219e-03,5.545495748519897461e-01
-1.895937770258922239e-02,-2.801960677403438349e-01,3.189801292144043288e-01,2.534977174410349421e-02,6.695940220782532759e-02,-2.917444238010867899e-02,5.372726321220397949e-01
-2.353102448606721533e-02,-3.242546326461454576e-01,3.178167606827209668e-01,-3.147782448654106932e-03,-3.287210446951183574e-03,-6.271302199576424263e-04,5.564779043197631836e-01
-1.997622063431340328e-02,-3.208855116137586672e-01,3.169134461715645834e-01,-1.433289438689681504e-03,-3.156553579615015582e-03,-6.372176763416942738e-04,5.526767373085021973e-01
-4.667535199017384950e-02,-2.393087104448879399e-01,3.383278659028747803e-01,6.569148385304326120e-03,-1.402957775732491426e-02,-4.668022218495785497e-02,5.164848566055297852e-01
-2.309370408424631094e-02,-3.243383051886022939e-01,3.047055724240398389e-01,-3.213291995043873750e-03,-1.016780610283261974e-03,-4.971072563137060411e-03,5.450290441513061523e-01
-2.233158955517085612e-02,-3.220548630389473699e-01,2.770773455012904840e-01,-8.418498472536188951e-03,3.712762159174673102e-03,-4.565858972157525383e-03,5.191686749458312988e-01
-7.381224804997435496e-03,-1.356285919239272331e-01,3.401267987188858477e-01,-5.290485485678352029e-02,4.013332489569008260e-03,-4.164656852293736194e-02,4.420685470104217529e-01
4.144321617665064350e-03,-3.177176239816769110e-01,2.990094045374793175e-01,-1.269294920766430960e-02,9.163087049403727952e-03,-3.042921004678188473e-03,5.349854230880737305e-01
-2.992546096414782156e-02,-3.255990299221589446e-01,2.640507033053215435e-01,8.366561886501918538e-03,-1.848082031784168897e-02,1.395238639812637627e-02,5.124299526214599609e-01
-2.398350583995673482e-02,-3.152469307032860768e-01,2.912058664675747366e-01,-5.123733655842623345e-05,-2.767269933362477303e-03,4.408323290262091722e-03,5.254170894622802734e-01
-4.344420931608256042e-02,-3.084269738431834607e-01,2.881310965419194847e-01,1.208568571236935934e-03,-4.126032169465415622e-03,5.767744516605631533e-03,5.178561806678771973e-01
-1.482601761114509670e-02,-3.517863538164728854e-01,1.463826742090402477e-01,-2.277595146087366823e-02,4.895134937764412985e-04,3.284612969129360738e-02,4.456960856914520264e-01
-1.646247904803888051e-03,-2.857877511316782027e-01,1.762057762349680812e-01,-2.919486271958001214e-02,-4.174189370015531780e-02,4.650640178034140537e-02,4.209223091602325439e-01
-3.334164364306964334e-02,-1.905869824594372264e-01,2.942578631006922407e-01,-2.301458580669723392e-02,8.858159364449069012e-03,4.454394252868214624e-03,4.306332170963287354e-01
-4.752537081068972102e-02,-3.048283110048743971e-01,2.767249320933615753e-01,-9.458905664976694242e-04,-4.044177778734331721e-03,-1.080128060782332804e-03,5.048057436943054199e-01
-3.202491121399617113e-02,-3.212937559041700863e-01,2.741914632725006573e-01,7.346714192446116183e-03,-4.757692763837635501e-03,6.233192150393730702e-03,5.161105990409851074e-01
-2.752538405940393312e-02,-3.218094429779859711e-01,3.039568847670858776e-01,-6.697018737207056580e-03,-1.941336204046905344e-03,-3.140380447065087548e-03,5.424103736877441406e-01
-1.067896722156400427e-02,-3.257197575787419974e-01,2.338010218174718102e-01,8.240845175856529106e-03,-3.406040849626480217e-04,-1.349286318097672396e-02,4.866133928298950195e-01
-9.621546433793717878e-03,-3.148404047093298352e-01,1.551165780619082335e-01,-8.040393997768598274e-04,2.785445167844793554e-02,2.287722169725523412e-03,4.158408641815185547e-01
-2.069333233948414744e-02,-3.216442416123759251e-01,2.963980862942540706e-01,2.836012607941826389e-03,-1.073933231259142484e-03,1.373145277500802380e-03,5.353322625160217285e-01
-3.156406776374853784e-03,-3.182695039227191880e-01,2.051502100727814193e-01,-2.476688347232956257e-04,-1.344226516762796414e-03,6.692702386328172603e-03,4.565829932689666748e-01
-1.214786985525054090e-02,-3.232651711818828599e-01,2.526683439492533600e-01,3.806537750971026278e-03,-7.693510592526655320e-04,7.414906609211059825e-03,4.995204508304595947e-01
-2.658915456812254580e-02,-3.159821522075157429e-01,2.970456927630323873e-01,2.493054311120633353e-03,-1.018128706748648002e-04,-1.506274116092413398e-03,5.311976671218872070e-01
-3.013523463768890548e-02,-3.136109726279852072e-01,2.895174066531996382e-01,1.094518113938564149e-03,-1.777191197895976529e-03,1.074510374984383263e-03,5.226534008979797363e-01
-4.298445184179881112e-03,-3.129876710436594323e-01,3.116496855195465265e-01,-1.158615027363141259e-02,-6.546097412355913157e-03,5.578165110047503825e-04,5.414556860923767090e-01
-4.936133548135747395e-03,-2.408785317252603586e-01,2.949753370902827854e-01,-1.131716026718618436e-02,1.263098220348693110e-02,4.553157154790315499e-03,4.661572575569152832e-01
-1.586231783562510461e-02,-2.025053654551482174e-01,2.935684842434641006e-01,-2.225698106242296817e-02,5.988594161491164053e-03,-4.112185454915500207e-03,4.358676373958587646e-01
-4.074168382226843466e-02,-1.340466754940505545e-01,2.921297224334221676e-01,-1.016388129458123575e-02,3.821243451947668734e-03,-1.432985995772645925e-02,3.892782032489776611e-01
-1.012214372412222237e-02,-3.185266109566725068e-01,3.000732210971781000e-01,5.035710539253335661e-04,7.787925970574998205e-03,-1.433684715939170101e-03,5.359001755714416504e-01
-3.760883312812467183e-02,-1.171456099419750096e-01,2.806603084980688889e-01,-1.368514335513294246e-02,9.936426248883124118e-04,-7.273406228853677817e-04,3.653790354728698730e-01
-3.452302909266229125e-02,-1.045204310369738376e-01,2.952468600473084903e-01,-7.039473279736825151e-04,3.518768054422401724e-03,-2.251665397773766966e-02,3.718742728233337402e-01
-1.380430057861457838e-02,-1.734219737505424686e-01,3.839805592034978843e-01,-3.673480195579883339e-02,-1.653934431741700250e-03,3.257485062853492097e-02,5.044243931770324707e-01
-8.200829505672607711e-03,-1.918053583603814005e-01,2.970095245241022863e-01,-2.730652298020698476e-02,7.549155544587319785e-03,-2.789049412203545991e-02,4.331783950328826904e-01
-3.414331859357249560e-02,-1.977024888562019800e-01,3.094733401087974567e-01,6.514146349064310398e-04,6.463121826958954062e-03,-3.416433194623528374e-02,4.523868560791015625e-01
-6.416257344712128496e-04,-2.145405809404701825e-02,4.574927823809974980e-01,-2.247848557747622253e-02,2.555904238819795699e-02,-1.594049505637093120e-02,4.733847379684448242e-01
-2.541978184609473834e-02,-4.561832831004788980e-02,2.954927365985456356e-01,-1.026742147306238841e-02,-2.277921619261617705e-03,-6.875264087321340117e-03,3.321873247623443604e-01
-2.955562958558426156e-02,-2.310562251524664601e-01,2.986463618577428480e-01,7.415775902867650969e-04,1.167745725967646482e-02,2.459806661911983355e-02,4.654867053031921387e-01
-3.737925141127197010e-02,-2.057259253875172722e-01,2.967228608159788172e-01,1.846173394397939652e-03,4.745476729339534287e-03,-8.639861877898870335e-03,4.432961940765380859e-01
9.329529546826031972e-03,-7.049145378503926529e-02,4.752653659249858054e-01,3.973637235551669838e-02,-2.489030049396642394e-02,-3.418087688762184995e-02,5.203456282615661621e-01
-2.884086893693392495e-02,-7.916639777654158050e-02,2.893613982094374038e-01,1.136911045913481175e-02,1.642825550963801593e-03,4.736841054159119345e-03,3.467884361743927002e-01
-3.287592072462876269e-02,-3.021670651134180652e-01,1.900040431523819517e-01,-4.965958880846171181e-02,4.310597636878099603e-02,5.644411964389166314e-02,4.524855911731719971e-01
-1.232925067445418688e-02,-1.470951475684057763e-01,2.253970735550358262e-01,5.442780452413160247e-02,-4.521013763876943065e-02,3.196911156310014174e-03,3.489451706409454346e-01
1.273613343460496677e-02,-2.870488397944461756e-01,2.859109727257381217e-01,1.479645113906902058e-04,-5.368168586150448042e-03,-2.931175402477893951e-05,4.964632391929626465e-01
2.091030173162835085e-02,-2.807786733301750881e-01,2.822866576493611723e-01,7.503800915356342513e-03,-4.100284840599560492e-03,-2.719848972897730231e-03,4.882926940917968750e-01
1.914503230878116316e-02,-2.940339708029834354e-01,2.863567733896480449e-01,3.496956274318910752e-03,-1.628045392346160174e-03,9.775811541498132928e-04,5.032055377960205078e-01
-2.203795651135077166e-02,-2.994798997879621338e-01,2.688287217888894465e-01,5.507294621887922487e-03,-1.855871277546860057e-02,-4.023760965144795171e-03,4.934054315090179443e-01
-2.177031489255712091e-02,-3.154104906339462722e-01,2.706114847544818791e-01,-9.829934616769593972e-03,-5.041208479215037591e-03,3.034407336722760602e-03,5.078980922698974609e-01
-3.021588284099678556e-02,-3.084309672703919869e-01,2.540345990786491703e-01,-8.006559818335328219e-03,-9.155225875006934438e-03,-4.367063296093909829e-03,4.876327812671661377e-01
-2.091747178078853103e-02,-3.099420390650451385e-01,3.046993660345425070e-01,5.613922852775719320e-04,-1.185909600693406873e-03,4.993031406450331930e-03,5.326844453811645508e-01
-1.717514374201176142e-02,-3.257807815806098017e-01,1.984944219628082540e-01,-1.739902089504160448e-02,-6.816679617398830812e-03,-9.337358300711593243e-03,4.578392505645751953e-01
-1.998164391619181718e-02,-3.172390788140469486e-01,2.910949475852983581e-01,-3.212722350366656906e-04,1.274125187854703231e-03,5.148002301297320907e-03,5.269584059715270996e-01
-2.045557818165907177e-02,-3.197374771247967762e-01,2.890221689616195300e-01,-5.289151873809357952e-03,7.862910288776294788e-05,-3.105520769101447094e-03,5.273330211639404297e-01
3.125603878955232617e-03,-3.572000567319864039e-01,1.209886447824749522e-01,2.964895307940310781e-03,-6.036622837737181529e-02,-1.261396736735372927e-02,4.445574283599853516e-01
-2.239617528896293425e-02,-3.231056310477577465e-01,2.466152939960218893e-01,-2.660526735101653023e-03,-2.230398973930846750e-03,6.993760713083486263e-03,4.938324987888336182e-01
-1.552267773439070658e-02,-3.311551051217606623e-01,1.890791627629744287e-01,-1.810806455683944716e-04,-3.309063708874922932e-02,9.497435933735590835e-03,4.578431844711303711e-01
-3.881114308623419967e-02,-3.127947960031466357e-01,2.806778743739142268e-01,-4.606904580235421549e-03,2.530967899403312096e-03,-2.403039439413832620e-03,5.145631432533264160e-01
-3.435985351406323218e-02,-3.911030338608329493e-01,1.304922160891772431e-01,4.286281870379760744e-02,5.264623340377255767e-02,-5.554207485492818758e-02,4.861409962177276611e-01
-3.246497670935918900e-02,-5.623132722935465511e-01,9.033061509534795475e-02,-8.303396379874971103e-03,6.740754200317276845e-02,-2.504670157672381908e-02,6.136783957481384277e-01
-1.692405001620040858e-02,-3.279444249949454160e-01,3.082478836545315959e-01,2.884499913294788758e-03,4.472712804307201785e-03,3.649741657444701727e-03,5.511174798011779785e-01
1.241922455455120311e-02,-2.223562357418788493e-01,3.039755148928365847e-01,3.851642494429372010e-02,-1.061707552866940872e-02,-1.469227038448458859e-02,4.626134037971496582e-01
9.788548419181045124e-03,-3.162144133533438262e-01,1.224074185603202525e-01,3.341455871586953771e-03,-6.544638560451398156e-04,-2.977021142420752543e-03,3.946345150470733643e-01
-1.900052952574671911e-02,-3.346153713600630852e-01,1.695842070407842794e-01,7.096749100833073080e-03,4.895680865029180401e-02,-1.803564140235694793e-02,4.505711197853088379e-01
-2.114577316564376225e-02,-3.292932516927263853e-01,3.065596080460852302e-01,-1.093353713508810445e-03,-5.045219540689574803e-03,-1.029219270030406162e-02,5.511125326156616211e-01
5.044000348287037104e-03,-2.965192070180353578e-01,3.018989923807963716e-01,8.869572994732413673e-03,-7.106827951206742301e-03,-5.963908246901143163e-03,5.187273025512695312e-01
-1.372264906847406318e-02,-3.303652900875700960e-01,2.537169493766465722e-01,-2.176710181655077802e-03,-9.322763278810427135e-05,1.192494211361080220e-02,5.068630576133728027e-01
-3.100481126550682157e-02,-3.484363828018271492e-01,1.949893852601445876e-01,5.309856795599633000e-02,7.665350796325984262e-02,-1.383470453305235548e-02,5.002336502075195312e-01
-1.261865102576255337e-02,-3.551041631386860908e-01,2.698325586758934524e-01,1.683737187803540508e-02,-6.851209208470415701e-02,-7.473923150618900320e-04,5.556476712226867676e-01
-2.148630146125804496e-03,-3.525766848077823146e-01,3.169859323298643838e-01,-1.460541900806942676e-02,-7.577938302868357512e-02,2.332079089010923555e-03,5.952849984169006348e-01
-1.909950814285058321e-03,-3.287990921861558835e-01,3.491301422358983886e-01,-2.413549344391326817e-02,1.094830033964507010e-02,-1.445622342342644216e-02,5.895515084266662598e-01
-1.715112754674582435e-02,-3.259068716200282378e-01,1.958023210449150731e-01,-4.884287142745255897e-03,-3.505507745407870912e-02,-2.988369374527937231e-02,4.613752663135528564e-01
-3.646735136772139008e-02,-3.181499254061057047e-01,2.692977036638694588e-01,6.279126946608859332e-03,-2.243748863064478228e-03,1.037555918939088136e-03,5.090212821960449219e-01
-2.220834790995512842e-02,-2.839884081548132433e-01,3.820046735939289784e-01,-8.337528366806649938e-02,-7.533619023519570919e-03,1.946780720789412569e-02,5.999112129211425781e-01
-1.219316904074841876e-02,-3.046905925688848660e-01,2.933258517914780206e-01,-6.927896722431412229e-04,2.345270950304094958e-03,-1.126235430113398410e-03,5.179593563079833984e-01
-7.463998220383146961e-03,-3.034460282586768365e-01,2.940355834675928981e-01,-5.460638266614080069e-04,-2.896082778518158703e-03,-1.592530150779350364e-03,5.174741148948669434e-01
-1.628896473681250290e-02,-3.114171743574593587e-01,1.452313537542908317e-01,-3.722889485350204964e-03,-6.140552467896494282e-02,-1.727723818044825475e-03,4.149953424930572510e-01
-4.297628602740597575e-02,-3.127078331540659173e-01,2.884355249970762536e-01,-6.673449306449702120e-04,-9.198870238159134391e-03,-4.075619815185874475e-03,5.218104720115661621e-01
-5.257486076182152357e-02,-3.388509664587195935e-01,3.008046038628129915e-01,4.294986930453196031e-03,-2.755550640036984189e-02,1.297286417237057676e-02,5.575242638587951660e-01
-1.418672433514500675e-02,-3.143653262330936560e-01,3.009453150016128120e-01,-1.022620333965858783e-03,-2.331549314343925436e-04,-9.232337444582997769e-04,5.329325795173645020e-01
2.430304274858148192e-02,-2.817121925694720530e-01,2.848286256976211295e-01,1.913369707058008330e-03,-5.322652238929683963e-03,-3.122203719253638138e-04,4.912636578083038330e-01
1.260455739723747616e-02,-2.946101905043561620e-01,2.909744709103166960e-01,1.643656512915414852e-03,-4.553499007731936533e-03,-3.081119769661382589e-03,5.074335932731628418e-01
2.345491063589920377e-02,-2.849289567322381145e-01,2.877558387120772720e-01,4.566486618030812968e-03,-1.219972117923904739e-03,-1.953010439292158238e-03,4.965281486511230469e-01
1.425954838757974470e-02,-2.839318744360668778e-01,2.856598155627693147e-01,3.097312375489683686e-03,-1.253535872747471580e-03,-1.550949990099264762e-04,4.934967458248138428e-01
2.223989806791713125e-02,-2.839768796582425314e-01,2.776905822758015119e-01,7.011333721858221436e-03,-2.218685436090310752e-03,-2.341841012114347607e-03,4.872635304927825928e-01
2.155734001625718085e-02,-2.823872403001376208e-01,2.922090980276627614e-01,6.160607993243560551e-03,-6.378347102846274388e-03,-2.277444274403953549e-03,4.981458485126495361e-01
2.523485761657332654e-02,-2.829549126965915651e-01,2.798617477290656352e-01,1.010051625608395474e-03,2.839515107854563634e-04,-7.444241457779851015e-04,4.881538152694702148e-01
-1.705025642187526710e-02,-3.113712249786110831e-01,2.923904313143020905e-01,1.006038492926002864e-03,2.211748964882088216e-03,-9.258650212751979658e-04,5.229469537734985352e-01
-1.176454984307867199e-02,-3.044741248302930137e-01,2.992736818832440471e-01,1.813922592042085859e-03,1.093210506223799266e-03,-4.094812606307079821e-03,5.230022072792053223e-01
1.024601207609018155e-02,-3.022471352899952501e-01,1.463905763678730321e-01,-1.589449807679336546e-03,-1.023559075720363414e-04,2.195053780059067882e-03,3.984389901161193848e-01
-1.931628976726979668e-02,-3.220504207775292671e-01,2.806100236229530087e-01,-6.387339025207130344e-03,6.059343365283517918e-05,-4.677159528626734578e-03,5.221012234687805176e-01
-1.351191750687622851e-02,-2.680765943330848944e-01,2.844399692044291550e-01,2.193223313451376014e-02,-1.869550170330459143e-02,-1.034868503476884909e-02,4.819122850894927979e-01
-2.464169164337257079e-02,-3.168047989625862870e-01,2.929723344549037267e-01,-5.114872661534032756e-03,8.082895774894870156e-04,-1.595869432085501687e-03,5.283191800117492676e-01
-1.466311177283482516e-02,-3.151100512137150478e-01,2.483637926594866041e-01,3.007182118013134939e-02,-3.717555706859038134e-02,1.578851444559838460e-02,4.960685372352600098e-01
-4.382729017821470133e-03,-2.940274868268296093e-01,2.968944538280215983e-01,4.343097342599896342e-04,1.266698440613409082e-02,1.470186079306254551e-03,5.122634172439575195e-01
-5.315655089912288411e-03,-2.616460293009172378e-01,3.289267677839681769e-01,4.935879034698793105e-02,-1.246067756913386490e-02,-6.096667567700448341e-03,5.205630660057067871e-01
-3.073150364439496129e-02,-3.107735585252538457e-01,2.575678749636803877e-01,-4.980745684679745156e-03,-9.028647578571033852e-03,-1.576932414033213603e-03,4.925469160079956055e-01
-1.920803237606579991e-02,-2.871051157925739172e-01,3.045099051184677608e-01,8.224751768166717932e-04,9.532218771852651526e-03,7.004915163954763407e-03,5.135241746902465820e-01
-1.971198319140382571e-02,-2.629902575311226509e-01,3.022687133056290998e-01,4.823848617090462218e-04,7.358382878507829100e-03,-3.687697384887381278e-03,4.913153052330017090e-01
-2.468507201623602182e-02,-2.400666456475212818e-01,2.971385340028833699e-01,7.408154507385351743e-04,8.832344632089650371e-03,2.140418479174327655e-03,4.685338437557220459e-01
-3.386847136119528617e-02,-3.088907968702330753e-01,2.795145318547633262e-01,-2.256603398290239477e-04,-2.488290348461177220e-03,4.633729201424634518e-04,5.099537968635559082e-01
-2.577392147960860455e-02,-2.547864724744595133e-01,2.570158485744354904e-01,1.347843904447183945e-02,-8.251417173116060155e-03,1.275149921339906699e-02,4.454394280910491943e-01
1.334055664840596775e-02,-2.882308400639416734e-01,3.251969307622820660e-01,-3.902163071790556298e-02,4.866416184297166214e-03,1.328420517173647302e-03,5.356221199035644531e-01
-2.038701216635607771e-02,-3.198229973074794841e-01,3.137872502347167081e-01,-1.834468340047459064e-03,-5.695017026206569168e-03,-2.589354954574709083e-03,5.491135120391845703e-01
8.411708806884729550e-03,-3.364253521322713714e-01,3.613218504905388873e-01,3.899260187279512263e-02,-1.310292134487932303e-02,-9.491744804717943199e-03,6.086881756782531738e-01
2.422553345941508285e-02,-2.746524376609832951e-01,2.798747848120014536e-01,6.741215505362272049e-03,-3.323948487344661768e-03,-2.590900734316187864e-03,4.809179902076721191e-01
-2.737089277754570227e-02,-1.450626694616901358e-01,3.527054250809366076e-01,8.406281716740462984e-02,1.906979119235918934e-03,-3.147569280254867725e-04,4.735526442527770996e-01
-9.060419111575733139e-03,-3.095813778506880665e-01,3.045438923112196994e-01,-1.117725606645097406e-03,-3.810172620841006334e-03,-2.098689526663367801e-03,5.319451689720153809e-01
-1.485238677801962830e-02,-3.172105803963183313e-01,2.967574234643809428e-01,1.573448582772044371e-02,-1.673382951527822848e-02,-9.534800748352438571e-03,5.334739685058593750e-01
-7.761587092398661986e-03,-2.850140073322868228e-01,2.942347009235080080e-01,9.649507008645672596e-03,6.502652265798192742e-03,2.195407161180422222e-03,5.022156238555908203e-01
2.639413651861492044e-02,-2.796784396898763791e-01,2.824577466628427902e-01,3.572234219284051941e-03,-1.745256517784565375e-03,-2.608484922896595840e-03,4.875355064868927002e-01
1.572046306446654024e-02,-2.888765883370156273e-01,2.854751358993258270e-01,3.921900433279432163e-03,4.060211263292295286e-03,6.634942654124043352e-04,4.978055357933044434e-01
-5.254840807986195517e-03,-3.206966884636708870e-01,2.993336308746392671e-01,1.610835956393917925e-02,-1.323520314060551949e-02,-3.905168469058645968e-04,5.382026433944702148e-01
-1.460801541044449287e-02,-2.042314833823192788e-01,2.915286574514319717e-01,1.879963852126223653e-03,1.289770393787174028e-02,1.023499581326447160e-02,4.342249929904937744e-01
-1.935978981382762559e-02,-2.200096402525390238e-01,3.029794791514654473e-01,-5.344098670615491341e-03,-8.426415037074091660e-03,1.799044885826349763e-02,4.583775103092193604e-01
-3.655105056616674702e-02,-3.680009666744760710e-01,4.493120551892372250e-01,-9.516706155022783276e-02,-1.688020884070776800e-02,1.092029677189952121e-02,7.316721677780151367e-01
-7.094602386764313484e-04,-2.330636126563975230e-01,2.938254511695070348e-01,-2.727944488564986933e-02,-6.133535679303578521e-03,-1.767910566715893321e-04,4.599142670631408691e-01
-4.155904513458742733e-04,-2.343965623728521130e-01,2.857327573587582492e-01,-2.682332408252021891e-02,-3.458883413961198923e-03,-7.924419597412418401e-04,4.536270499229431152e-01
1.277678145287808147e-02,-2.957996706937180420e-01,2.904579629947416919e-01,-2.316288702212326162e-03,-1.558185718690792117e-03,9.710001575605492095e-04,5.079747438430786133e-01
2.725631516691216782e-03,-2.179355766902126013e-01,2.865377708575635451e-01,-2.065107134719534193e-03,-1.465976715949954831e-04,3.591360708611782571e-03,4.380851387977600098e-01
-2.431214830870236793e-02,-2.975716434249402464e-01,3.070883757946101245e-01,1.604111632632494646e-03,6.966364649257690425e-04,1.763460586107517235e-03,5.244748592376708984e-01
-1.512720790156546653e-02,-3.108860089708223584e-01,3.082085506889867821e-01,-3.133401140611006847e-04,-2.848932698229406785e-03,-7.182384679851642421e-04,5.363532900810241699e-01
9.038962747784732785e-03,-2.943676480305827403e-01,3.277266373361599205e-01,-3.796809833139060814e-02,-4.396660875432494009e-03,-1.539415932620634593e-02,5.435099005699157715e-01
-2.205143322823836100e-02,-3.352397579992874022e-01,3.269198982415503774e-01,-1.928108700671008272e-02,-3.440180360617599298e-02,6.675590197035582637e-03,5.778936743736267090e-01
-2.297973200166884833e-02,-1.854432690888652147e-01,3.331624636072424983e-01,-2.569263420410230689e-02,-1.895797910015640728e-02,1.780830525152190744e-02,4.637906253337860107e-01
1.545201561159147835e-02,-3.055941834289966352e-01,2.893333695232651603e-01,-1.564838231917045630e-02,-1.896521752428604202e-03,1.256496561447004731e-03,5.164884924888610840e-01
1.284571847960594079e-02,-2.497654196527744341e-01,2.889399073065958556e-01,-1.480793745020174586e-02,8.540394529934587295e-03,-3.970009286720363635e-03,4.675702452659606934e-01
2.042614561615500521e-02,-2.472042868591873832e-01,2.862202099795024268e-01,-1.029871556341573416e-02,-1.919953967323464019e-03,1.516968024910824104e-03,4.623237550258636475e-01
7.871051191944155451e-03,-2.761291513256489694e-01,2.940446202179872182e-01,-7.248669033185268888e-03,1.062480080412415810e-02,2.975638000298288371e-03,4.943153262138366699e-01
-7.745337989890051580e-04,-3.079725699048526111e-01,2.994087390381137137e-01,2.085680991620546005e-03,4.932251773170287686e-03,-9.412285461109928613e-05,5.261011123657226562e-01
1.698228075304358126e-02,-2.457797284855853248e-01,2.860407669858501256e-01,-1.739577905677185121e-02,-1.111230630270081121e-02,7.946763327051808296e-03,4.621714353561401367e-01
1.285711474018134612e-02,-2.565946224817037269e-01,2.882591275579756696e-01,-2.280886486692031492e-02,-1.182564114394777342e-02,1.079718852087894684e-02,4.743290841579437256e-01
-1.694494279037320889e-02,-2.282146091942215960e-01,3.189700349669026269e-01,-9.449728735925312650e-02,-2.667764754059651078e-02,-4.045271838149371718e-02,5.121288299560546875e-01
-3.698450472393738364e-02,-4.273110143789812798e-01,6.408614217792529821e-02,-3.466621715246840513e-02,1.647334913121280622e-02,7.358177357444789513e-02,4.718927741050720215e-01
-1.630198933968061634e-02,-3.248495990133272171e-01,2.705298700239144871e-01,-7.349909953628911037e-04,1.751344187411556274e-03,-5.518844479025899856e-03,5.158271193504333496e-01
-2.068889977277044850e-02,-3.174818103486217180e-01,2.772958156395483598e-01,6.871799332317123088e-03,-1.194076448040896779e-03,2.438129081536894241e-03,5.152518153190612793e-01
-2.257974794920951378e-03,-3.234704989926262542e-01,2.417880782168577714e-01,4.555576482447159029e-03,-3.750871230265229650e-04,8.020538894553806697e-03,4.913066923618316650e-01
-3.401351015162806107e-02,-2.394483200811851065e-01,2.993669604574620835e-01,-3.617120065029827587e-03,-2.560918209627296559e-03,6.533111678861967808e-03,4.711909592151641846e-01
-2.207964493542225598e-02,-3.144700938107046206e-01,2.451095856755531321e-01,7.088666412775998689e-03,9.591294259012371004e-04,3.759604168403842244e-03,4.849760234355926514e-01
-2.086791673699351160e-02,-2.817039611068481442e-01,2.174385857715305514e-01,-2.572596010913047807e-02,3.420497380051672892e-02,3.760006910293361287e-02,4.435324966907501221e-01
-1.741355718259602128e-02,-3.149379636492444234e-01,2.063790340753962615e-01,8.243663438364049953e-03,1.423557460744040437e-02,3.354925300726764592e-03,4.539088606834411621e-01
-4.615804232744963320e-03,-7.503609906541397478e-02,2.847283168315443147e-01,-1.788940237066891439e-02,3.677664512327131346e-02,-1.923434461178394686e-02,3.393851518630981445e-01
-3.126127249816572362e-02,-2.094135576662872755e-01,2.685505977654458754e-01,-4.630927913808190535e-03,-3.374930659932797155e-03,1.904721491130131894e-02,4.197909832000732422e-01
-2.947282828621413525e-02,-2.629856145869031159e-01,3.033097304020997975e-01,3.471697601692722381e-04,2.719636949465950842e-03,-4.365006594577171620e-03,4.930123090744018555e-01
-2.815764409346603603e-02,-2.849761835554993072e-01,2.805374367674632330e-01,9.001719621187828646e-03,-1.673894821656546697e-02,2.309469088342757867e-02,4.931640625000000000e-01
-1.445822605853908094e-03,-3.034541132655643736e-01,8.483279579876037979e-02,5.857087692005491508e-02,-5.778436031544133267e-02,4.731828780921248229e-02,3.895326256752014160e-01
-4.014958222779721475e-02,-3.125028264460880667e-01,2.919860905759387726e-01,-6.455795194086149345e-03,1.596549112704958098e-02,6.271421221062249349e-03,5.253154635429382324e-01
-2.836990576342313108e-02,-3.175492090510398935e-01,2.978255266982196003e-01,4.186673406433340781e-04,5.264500758290885894e-04,-6.097272932521022789e-07,5.332527160644531250e-01
-1.611999157798299151e-02,-2.700231688053987833e-01,2.949035496875290208e-01,-1.611106368822354945e-02,-1.201412981271058472e-02,1.262601041271821725e-02,4.917949736118316650e-01
-1.581426314578498332e-02,-2.711904978176021830e-01,3.050784858220182971e-01,-7.449484073826526630e-03,-8.421096061672048855e-03,-4.718918346428448325e-03,5.005832314491271973e-01
-9.545680006151354563e-03,-2.962902732483031487e-01,3.008581776766161009e-01,-5.397059156339842172e-03,-4.972890154067812971e-03,8.021708164088914988e-04,5.174390077590942383e-01
-1.786988926926149149e-02,-2.994205046138602166e-01,2.586922841143445839e-01,-4.958410572914340869e-04,-3.019679905930314212e-03,-9.761049001877394882e-03,4.836709201335906982e-01
-8.125479039267545500e-03,-3.095517531727237093e-01,1.773488015506364535e-01,-9.748395043724730410e-03,-2.738063621968019057e-02,-1.772014681133319419e-02,4.296993613243103027e-01
-6.224584272960159703e-03,-3.226182312533301677e-01,1.527874269440956112e-01,-1.028797214228919241e-03,-7.887120281012729647e-03,-2.061082389614148427e-02,4.209089577198028564e-01
-2.758036526457049997e-02,-2.298100211555406114e-01,2.992946592711479004e-01,-1.834796426699132274e-04,9.995371100862609354e-03,1.501355635441439101e-02,4.634910821914672852e-01
-3.127162149232200206e-02,-2.205756209836703952e-01,2.644432733220732357e-01,8.670350544968322484e-03,-1.815151619381560194e-02,2.887463386826696551e-02,4.277598559856414795e-01
-1.471084215809249918e-02,-3.314910698379424092e-01,2.178172215361152131e-01,6.797570422038103424e-04,-9.776003297633447959e-04,-1.773388338353919583e-02,4.785676896572113037e-01
4.130375796857231607e-03,-3.219498109838727085e-01,1.444534678475833944e-01,-1.481116161169759653e-04,-5.419138473305353670e-04,-2.080189785275586567e-02,4.160222709178924561e-01
-1.209711867982982136e-02,-3.405574059123058772e-01,1.956117610972174514e-02,-1.997701947212445622e-02,3.466682095890200044e-02,1.234657906101392817e-02,3.529119193553924561e-01
-1.599669576347773070e-03,-6.085952102175826717e-01,-7.264447416294367299e-03,-4.530909834384528462e-02,-1.867024669982372820e-02,2.799143442758518160e-02,6.120393872261047363e-01
-1.355185070767030153e-02,-3.263087328733345616e-01,9.591356589526989218e-02,2.230075044330378543e-03,-7.255851699776907221e-03,-2.764947444528710954e-02,3.827557265758514404e-01
-1.322521773174518273e-02,-2.802897625786940905e-01,2.401747000949114308e-01,-8.612429667267220215e-03,-1.165404524296595121e-02,-4.857246667363360713e-03,4.515638053417205811e-01
-1.622310491930015197e-02,-2.867614296500645144e-01,1.967414421999777729e-01,1.033492171993345178e-02,-1.895836996960878831e-02,-2.031977278530471345e-02,4.228443205356597900e-01
-2.095723827901787781e-02,-3.218270306628755462e-01,2.998327412187223318e-01,2.177490850163432516e-03,-1.510308800429336880e-03,-2.440995876042488175e-03,5.385014414787292480e-01
-5.091016976237094926e-03,-3.107190674454109458e-01,1.893575529235305144e-01,-1.784332526892330392e-02,3.928623835147549564e-02,-9.064700167387940502e-03,4.432601630687713623e-01
-1.709773901737716983e-03,-1.459385169714103037e-01,2.791404115078730541e-01,-2.559949518752112352e-02,2.577608246504752357e-02,-3.530977606593742324e-02,3.845581710338592529e-01
-2.040112577725780585e-03,-3.289321744147956639e-01,1.390815363169358443e-01,-8.862682206151547420e-03,-3.141728255401630976e-02,-5.591232534193812248e-03,4.197568893432617188e-01
-1.761975561810630656e-02,-2.358875763331836906e-01,1.947052210943385764e-01,6.207095800856777396e-02,-6.005597564073576755e-02,2.939691765423430372e-02,4.050154983997344971e-01
-1.850367880994121736e-02,-3.194244003287490807e-01,2.450472409025226672e-01,6.461988681313143162e-03,5.619344646288488947e-03,-8.053020932917839478e-03,4.896272718906402588e-01
-1.796419563885886389e-02,-3.216721653808751746e-01,2.654987613305953564e-01,4.265029175866495888e-03,4.951112270970202574e-03,4.561321358423412603e-03,5.087929368019104004e-01
-3.881757475773409127e-02,-4.857027211866862815e-01,1.289185324176868597e-01,-8.998843531292037567e-02,9.162045253520277599e-02,8.629236446388931225e-02,6.120590567588806152e-01
-1.983271980919943181e-02,-3.147927936025296525e-01,2.953785174007976799e-01,2.184699643303429206e-03,-2.000562472703734662e-03,-5.891381339048980086e-03,5.286442637443542480e-01
-3.372563004855080177e-02,-1.927697444366384683e-01,2.945323448786434928e-01,-9.678314383927641776e-03,-6.401699558280204462e-03,-5.279330480655123822e-03,4.309795796871185303e-01
-2.248484318633537510e-02,-3.016174874124893934e-01,3.040191827389910340e-01,9.516066252393928348e-04,-5.375020973186692141e-03,-1.437773942543319914e-03,5.251222848892211914e-01
-2.068099468085880452e-02,-3.200265122868111711e-01,2.873215646097513898e-01,-6.409296117889294554e-04,4.951256213608237018e-04,2.666370678958277125e-03,5.260187983512878418e-01
-2.426011503613122178e-02,-3.165181522109856149e-01,2.498905856342303333e-01,-7.728849219041964563e-03,-9.032803669975114289e-03,-6.812379772082677656e-03,4.911815524101257324e-01
-2.498280502941872122e-02,-3.147107206236683941e-01,2.432919379068028132e-01,-9.029333188656032266e-03,-6.494597368259901263e-03,3.644319078416046690e-03,4.837884306907653809e-01
-3.443483188783772603e-02,-3.117646367307940203e-01,2.826501628622474782e-01,-1.682165074698571336e-03,-3.853638860908473358e-03,-4.606493906855381286e-03,5.152751803398132324e-01
-3.371122154497004086e-02,-3.124224325476669395e-01,2.871397552129675290e-01,-1.727220617860228489e-03,-2.841842699526702320e-04,-1.922851014430773577e-03,5.196829438209533691e-01
-2.229708432096623449e-02,-3.153749992848218220e-01,2.886518097135786776e-01,-3.840285386908490195e-03,-3.417030426929947712e-03,-2.682152973185464220e-03,5.232752561569213867e-01
-2.014202154986333149e-02,-3.222855252066009757e-01,3.048148599390882452e-01,-1.271592543541797500e-03,2.233337906518851040e-03,9.131312566349128338e-04,5.432251691818237305e-01
-3.014824594390571461e-02,-2.740640670385119382e-01,3.041307511438136046e-01,1.987189969425321584e-03,2.483557599888184218e-03,9.238751619523715222e-03,5.030504465103149414e-01
-1.933818526140573466e-02,-3.206829773073590073e-01,2.997708700084486533e-01,-2.822499925934441982e-03,1.926696192089117059e-04,-1.821743373791400193e-03,5.374338030815124512e-01
-2.144392539531984887e-02,-8.566036742186247666e-02,3.094417725496786398e-01,5.845616707254959465e-02,-1.875604055588208502e-02,-6.680122105347506035e-03,3.824892342090606689e-01
-1.928469975045614751e-02,-3.170067967688724453e-01,3.045365438441515749e-01,-6.636883692863292236e-04,5.327281486326081519e-03,1.746449604379557647e-03,5.385192632675170898e-01
-1.986904345422685347e-02,-3.146530942918436269e-01,2.995658720286446530e-01,-4.642232233545930467e-03,2.258245781354476216e-03,-1.403805177865704310e-03,5.321527123451232910e-01
-4.708904270872270315e-02,-3.041225616508710372e-01,2.767337337089844640e-01,1.748456259290576869e-03,-3.549723995911023208e-03,3.014845947123158051e-03,5.042172074317932129e-01
-4.302068393736869362e-02,-3.127161815114703480e-01,2.627915462257670587e-01,2.311224649023505689e-03,-2.021859630003681324e-02,3.512533358729638417e-03,5.000123977661132812e-01
-1.626654727385296040e-02,-3.292839587536399715e-01,3.037622708599335697e-01,3.766079737492778086e-03,4.947679661741821028e-03,1.971585712893044167e-03,5.483617186546325684e-01
-1.367411452037498379e-02,-3.225167325329589274e-01,3.003878214122523982e-01,2.103900272025853793e-03,3.711546713535756117e-03,7.640154561044109303e-03,5.396703481674194336e-01
-4.058297096284158717e-02,-3.121699269703050450e-01,2.750347090727655597e-01,6.326824763995733854e-03,-6.179026482949589831e-03,6.671179473484391623e-03,5.093719363212585449e-01
-4.018957634803063672e-02,-3.062598031950973798e-01,2.668940083037301125e-01,5.369602675836664639e-03,-7.275516439385374540e-03,6.983027676688606999e-04,4.970374703407287598e-01
-2.811112610995072925e-02,-9.820478186996839387e-02,2.467074975576630247e-01,2.705930712652957620e-02,-2.718266881837168997e-02,1.239817494703182588e-02,3.233819603919982910e-01
-3.593425760104945049e-02,-1.818320395958066826e-01,2.973825054055452277e-01,9.100998138779710367e-02,-3.331733518872700972e-02,2.996361018332140483e-02,4.603134095668792725e-01
-4.313147642313441832e-03,-2.776912421447756407e-01,2.997897505812848751e-01,-2.413248466738547875e-04,1.429475621232881646e-02,7.261370883189028486e-03,5.011193752288818359e-01
2.364584304074858478e-02,-2.650196973956526203e-01,2.808086366751690321e-01,1.223318578919479344e-02,4.477189631743108689e-03,4.164378890146744339e-03,4.735563695430755615e-01
-1.073503943172404024e-02,-2.076314401598307602e-01,3.344585333663948057e-01,5.544714264124259162e-02,6.109244359689156717e-03,1.683466803990103441e-02,4.858801364898681641e-01
-3.766531800514106437e-03,-2.391331510558931672e-01,2.902112423557051679e-01,3.262437021597903303e-02,1.312196635188567564e-02,3.432427293755221237e-02,4.671798348426818848e-01
-3.535208514482135467e-02,-3.843832042836179963e-01,2.183959668252727915e-01,1.092975521550123702e-01,-9.087768243476801455e-02,4.698204423499396237e-02,5.848186016082763672e-01
-4.368637130452188849e-02,-3.095359838200634206e-01,2.912360423089056516e-01,7.469100191054839485e-04,-7.086068569893811883e-03,2.195939311813695140e-03,5.215887427330017090e-01
2.147083113545249569e-02,-2.995057037309178383e-01,2.895671768785808009e-01,-8.288970319829825489e-03,1.194644085098844986e-03,-2.297348755406293779e-03,5.110581517219543457e-01
-2.568600593694106773e-02,-3.494375582566359717e-01,2.946219167878789680e-01,-2.375591072598150222e-02,4.570849372030174468e-02,-1.374166026878547928e-02,5.653669238090515137e-01
-1.275186156154282198e-03,-3.045670256628658090e-01,3.003564301966022421e-01,-4.513708845370292713e-04,-5.252846510182041830e-03,1.616330308793139086e-03,5.239667892456054688e-01
2.593026576506101549e-03,-3.049597830697868273e-01,2.927281863827115305e-01,-2.232051251065021290e-03,-3.399318820148098004e-03,1.399423432049125109e-03,5.177398324012756348e-01
-1.702358841395415490e-02,-1.503072081662135129e-01,4.486149478284553460e-01,-9.602592804125148485e-02,6.340908102127447432e-02,-5.336885891828550832e-02,5.872951149940490723e-01
3.242572315504213022e-03,-2.858777218361268080e-01,2.947534128235821393e-01,-1.017053898801086563e-02,-7.663362600199057073e-03,2.325107696754618713e-03,5.033423900604248047e-01
-1.347436746397639128e-02,-2.979117729291120842e-01,2.971907322157246178e-01,-5.526275668063045619e-03,5.899793514097975526e-03,-6.015976405354664033e-03,5.158360600471496582e-01
-2.008300584699901012e-02,-2.893696846059575778e-01,3.088816500697885714e-01,-7.194188974132998023e-03,-7.793895097181060411e-03,1.052874686489826440e-02,5.196045637130737305e-01
-1.685002495955445490e-02,-3.210321846955867531e-01,2.280818283988521045e-01,7.859591665414673856e-03,1.856881609833868976e-02,-1.754178195148102873e-02,4.787119925022125244e-01
-1.359368921940418487e-02,-3.003899298242552196e-01,2.002443623290511288e-01,1.077258969137077915e-02,-3.164754792234967390e-02,-8.879221164591425200e-03,4.391993880271911621e-01
-2.008649371522059149e-02,-3.197694306885575655e-01,3.006469219776892188e-01,-2.394638342078098201e-03,1.016147563807443888e-03,-8.424954221847647581e-04,5.374202728271484375e-01
-1.916333373743971114e-02,-3.205745667214571770e-01,3.058671861785000057e-01,-1.399357939339640521e-03,2.100301957301283981e-03,-3.956081204670128682e-04,5.426610112190246582e-01
-2.138148254486579858e-02,-1.485528790739923943e-01,3.079354848157931368e-01,2.607174331149582011e-02,-4.483231512455236947e-03,1.750678527196303626e-03,4.106222391128540039e-01
-1.894199068007674028e-02,-2.992100725925287419e-01,2.474926946640437775e-01,4.739466718363224279e-03,-3.168414083879723953e-02,-7.425096095727983653e-03,4.769226610660552979e-01
-1.231596045773796638e-02,-2.795322186888943850e-01,2.750871760700906443e-01,1.220294021324219193e-02,-8.566780555937771047e-03,-4.279813778789313787e-03,4.811712205410003662e-01
-1.978265587990262961e-02,-2.912635956884125354e-01,3.066468785353095305e-01,1.405188427463265879e-03,1.212491819298536222e-02,-5.088329030285968120e-03,5.190396904945373535e-01
-4.408903951884073774e-03,-2.436660498027599098e-01,2.915243853011385555e-01,-5.547803078562209278e-02,-5.606991736833381867e-02,2.980236693245846835e-02,4.867793619632720947e-01
-4.108234736017797595e-03,-3.104933735272299988e-01,3.072855011207616949e-01,-4.540141469157941805e-03,6.019107683834719856e-03,5.848424084199454554e-04,5.351783633232116699e-01
-2.806274406551641926e-02,-3.076664731438606415e-01,2.970855043193640355e-01,2.765119708419816209e-03,3.476916232596650308e-04,2.544674930103391249e-03,5.242661833763122559e-01
-3.619478159232168701e-02,-3.163399624259226606e-01,2.858169996926790413e-01,1.182487923773357583e-03,1.484871531665618236e-03,3.946367498121132987e-03,5.219582915306091309e-01
8.808105075347016921e-03,-2.676823700325753896e-01,2.874321729757342014e-01,-1.884845931621413270e-02,8.853665273854678663e-03,-3.756016398476835771e-03,4.821395277976989746e-01
-1.395494917831305304e-02,-2.192148474960667892e-01,2.961845071654075068e-01,-3.175555110156966926e-02,1.485261837833678523e-02,-5.300989458472776979e-03,4.535952508449554443e-01
-2.934916568837531853e-03,-2.817465370479123044e-01,3.027899925861482489e-01,5.164940773947271748e-04,1.840691427622207638e-02,-8.944755503909555122e-03,5.076421499252319336e-01
-2.549141109127950680e-02,-3.155295505495386288e-01,3.307711646645043468e-01,-8.054494493808021793e-02,-2.910739230165857935e-02,4.788049360278485295e-02,5.858811140060424805e-01
-3.226245137290948556e-02,-1.811457405341928839e-01,3.032812953762892283e-01,-8.683426322574550049e-02,2.098374735081766362e-02,2.920468314195641055e-02,4.595791101455688477e-01
-7.196617278029204465e-03,-2.732131403218568400e-01,3.007952420468111288e-01,-8.999049328372532575e-03,-2.018321075521264593e-02,1.801920821616989979e-02,4.999938011169433594e-01
2.178676775569515778e-03,-1.352952700410162412e-01,3.197677868230265896e-01,-3.843272696813614803e-02,-4.212187250961767215e-02,7.712954499140652585e-03,4.163587391376495361e-01
-3.127997096899169660e-02,-1.964490694093919132e-02,3.204952919971748027e-01,-1.765145996546485171e-02,1.236931885016366757e-02,-3.468799435278754895e-02,3.532587885856628418e-01
-1.840918783834064043e-02,-1.738942978607059542e-01,2.891946679938501297e-01,-3.904839781674292187e-02,-1.377027844626947141e-02,1.689053025493687452e-02,4.154787957668304443e-01
-2.685018874834591701e-02,-1.796697804905854068e-01,2.829826050157738249e-01,-2.895246720189621065e-02,-7.019537463391087827e-03,-3.256739481250245632e-03,4.115739166736602783e-01
-2.322789428777650989e-02,-2.670687609497830461e-01,3.045272907469241952e-01,-5.804232176908988641e-03,-9.277227317593391559e-03,6.053725339144036023e-03,4.972636699676513672e-01
1.823943265080174569e-03,-3.104895685550989604e-01,2.990742131426823991e-01,7.967013820923737194e-03,2.781859017445445503e-03,-3.959946211581108315e-03,5.281982421875000000e-01
-2.896916258546006900e-02,-3.118004509797996926e-01,3.023503091970882184e-01,-6.124277322290419632e-04,8.772021485909126809e-03,-2.008190421217588128e-03,5.326516032218933105e-01
-3.835947183474867905e-02,-3.155251414599435367e-01,3.062674921689456098e-01,-1.717616651974558694e-03,6.626429577117979794e-03,-4.487865204252107477e-04,5.396744608879089355e-01
-1.774285004157512974e-02,-3.236714649797883814e-01,3.126567679299971370e-01,2.388431233224846332e-04,-2.768335089935890572e-03,-1.819816774994929267e-03,5.512422323226928711e-01
-7.972780766864327739e-03,-2.861191896446282357e-01,3.210708533415393418e-01,4.730049604996519608e-02,-2.425312834905707371e-02,1.093740521686883786e-02,5.347831249237060547e-01
-4.327968619271152506e-02,-3.102156866348220743e-01,2.880518907775633242e-01,-3.978233245015146483e-03,4.781452600485731940e-04,-1.888124758851095382e-04,5.191609263420104980e-01
-4.788158883389447007e-02,-3.760793452339632470e-01,4.954861522509000915e-01,1.195478971837154875e-01,8.468284839796454133e-03,-3.770484234398827766e-02,7.928742170333862305e-01
-1.452505017860567654e-02,-3.167893237076417345e-01,3.085397088908534702e-01,3.430089989341311447e-03,-2.303123173197624881e-03,2.242797198765813041e-04,5.416980981826782227e-01
-1.480611101884738053e-02,-3.042702538947588131e-01,3.029609226629904062e-01,4.295582721449262465e-04,-5.964774831782890772e-03,7.986558645009067363e-04,5.261718034744262695e-01
2.738893926504965687e-04,-2.548315360563306875e-01,2.956340104295872573e-01,-1.894335720971423304e-02,-8.225694203907422605e-03,3.888449277698562915e-03,4.785282015800476074e-01
-1.113352610359773232e-02,-2.699055192202280407e-01,2.981428980332760381e-01,-1.623312598876607829e-03,-1.444348607389267861e-02,7.505655130898758812e-03,4.934062063694000244e-01
4.161909682234593566e-03,-6.621082819713103307e-02,3.335467954639578791e-01,-3.460987663710354129e-02,6.206465903251340982e-02,-2.505007619336561964e-02,3.919930458068847656e-01
8.093332623343309218e-03,-2.723496546403359475e-01,2.895598134265882084e-01,-2.344885312550743211e-03,-9.780729534410182932e-03,1.781296058825736087e-03,4.869496524333953857e-01
5.349549577810041451e-03,-2.568135678297494007e-01,2.907837127201521876e-01,-7.300556414579486772e-03,-9.324281264531169774e-03,6.769189990732067458e-04,4.748205542564392090e-01
-1.734023399615677863e-02,-3.136966096016752803e-01,3.067814736989939450e-01,-4.318995645420791590e-02,2.414228230172472262e-02,-2.121509310439464221e-03,5.443304777145385742e-01
2.518584208581772788e-02,-2.675255720729364795e-01,2.920855677353681457e-01,-1.855221950356816460e-02,1.585992947387330522e-03,-1.010999450482876318e-03,4.858839213848114014e-01
5.497002616020547905e-03,-2.989977178082391940e-01,2.927073856384594386e-01,3.765585945063162823e-04,3.158409314003719336e-03,-3.362700942289239842e-04,5.125344395637512207e-01
-2.217681850057053039e-02,-3.007927312086618454e-01,2.569216462854954641e-01,-2.149623786951930949e-03,-5.563379880595245618e-04,-8.845481888096121473e-03,4.832531213760375977e-01
3.154836628188774708e-03,-2.750595470189534097e-01,2.983344969585096096e-01,2.145482362602996532e-02,1.088915131652721212e-02,1.640572552988907654e-02,4.992009699344635010e-01
-2.162512868719850337e-02,-3.200135453751636883e-01,2.966614770564512393e-01,-1.648832721161396907e-03,3.286088733974104094e-03,-2.792220189335398693e-03,5.342087745666503906e-01
-4.942418217053601293e-03,-3.218928276617101236e-01,2.387386551382132960e-01,-2.892882788344760397e-03,6.676453001994230897e-03,-7.022215680391073397e-03,4.872161746025085449e-01
2.979836198040895778e-03,-1.718470962568856009e-01,8.304920890336647821e-02,2.882022987939881955e-03,1.721517018854495928e-02,4.265290811142000149e-02,2.394695430994033813e-01
-1.218619932296230446e-02,-2.107805199852801903e-01,2.901949016709572393e-01,2.172858768962486736e-03,1.405737695644115187e-02,1.163738403351284589e-02,4.381078481674194336e-01
-4.051215407005580305e-02,-1.994012377868967789e-01,2.978720563044258141e-01,1.689810076425469825e-03,9.273279734451514086e-03,-4.116782845187110657e-03,4.402641952037811279e-01
-5.457089181566480637e-03,-2.778354869369946689e-01,2.975918931791338706e-01,1.019628799278294445e-03,1.345462944896284006e-02,5.769796599931437640e-03,4.992181360721588135e-01
-2.167005046502593069e-02,-1.449708410005429993e-01,2.863562506091202886e-01,-3.149309430862758802e-02,-4.952552177768883637e-03,5.373027877418065125e-03,3.888429105281829834e-01
-9.165572359976370195e-03,-2.748821421881743610e-01,3.000075543891775331e-01,8.214580687969846862e-03,1.192023295197255049e-02,-1.891968005583482193e-03,4.989841580390930176e-01
-1.251437929819472494e-03,-1.582634109150833635e-01,2.885671964759098929e-01,3.567681355799062759e-02,5.569116935179476846e-06,-4.961507105301752110e-03,3.975486755371093750e-01
-9.281332778950948659e-03,-3.315939200815116727e-01,1.888933262614576336e-01,7.924055616721074544e-03,2.225320514846891237e-02,-2.975204452604196179e-02,4.597415924072265625e-01
2.754998946647828090e-04,-3.011584305179383358e-01,2.967582115141532695e-01,2.417410422757569448e-03,5.853599496646194784e-03,-6.308926029012745622e-04,5.179342627525329590e-01
-1.606524624771246690e-02,-3.241830438735168185e-01,2.525268661174412954e-01,1.327834718916187824e-03,4.031547655249011208e-03,7.433575051445344938e-03,5.000561475753784180e-01
-2.149232012757215302e-02,-3.249117762196935266e-01,2.953070363873830928e-01,1.483507074411660439e-03,-1.398395444368300163e-03,1.955924320295639781e-03,5.371891856193542480e-01
-5.465929946029353392e-03,-3.132693510332675291e-01,1.609169769937063843e-01,-7.102824298776036884e-04,7.393593912979855298e-03,-1.486482134863932082e-02,4.176934659481048584e-01
-1.562922555907306568e-02,-3.135311251290759937e-01,2.188695326561336252e-01,9.739053042292741477e-03,1.869899588895389264e-02,1.608751425717044360e-03,4.636098742485046387e-01
-6.485322344105634573e-03,-3.300463842801200087e-01,2.142162740154890943e-01,-9.980085664477833084e-04,-1.622433449734092526e-04,-1.864406290438798408e-02,4.752444326877593994e-01
8.630287506665369757e-03,-2.005823936215660463e-01,2.823877892369831555e-01,2.523544431037463842e-02,-1.070801210591768374e-02,-1.418359046061828943e-02,4.229002892971038818e-01
4.275750479369155518e-03,-2.887226843859652115e-01,3.010696900725309821e-01,9.501867848507591224e-03,-1.288639894612229886e-02,-1.101009484997874863e-02,5.118862986564636230e-01
7.696835520844625203e-03,-2.328976595011863493e-01,2.860367125663626497e-01,2.011713604719304188e-03,-8.839183745225978606e-03,-3.958631352722227943e-03,4.501326382160186768e-01
-2.154697164679909155e-03,-2.961369768719134266e-01,3.478410517846522443e-01,8.593446819020345018e-02,-6.256657957202507725e-02,-1.464588119316757864e-02,5.885207056999206543e-01
-1.874985472446288187e-02,-3.870997973947433723e-01,3.595168011903153160e-01,5.544797208699388247e-02,7.371882372142909978e-02,-7.444199489963108929e-02,6.784198284149169922e-01
1.883127296107019177e-03,-1.620656566833149070e-01,3.401741050643443121e-01,7.891969627695784306e-02,4.554492962229865494e-02,2.240206018671956831e-02,4.724361598491668701e-01
-1.380371913346047086e-02,-1.847578557879123451e-01,3.075490866954087577e-01,-2.620467367662624759e-03,-4.112312982590656321e-03,-3.079660430309254585e-02,4.362867772579193115e-01
-6.943099569458305483e-03,-3.093810771149450578e-01,2.991552348672246175e-01,-2.239578217219362062e-04,2.664576844405166546e-03,-9.340326746938660478e-05,5.270314812660217285e-01
-8.886093881011778578e-03,-3.429570041668162927e-01,2.491550439750961354e-01,2.753197704156156323e-04,-1.145872622814793872e-02,4.015754239467636544e-02,5.192539691925048828e-01
-3.483909305220805885e-02,-2.469816581754166185e-01,3.107608000339884824e-01,-8.883394755837027701e-03,-8.467679350366325453e-04,8.400579828905773913e-03,4.880684316158294678e-01
-6.978557080020874291e-03,-3.047874527013691437e-01,3.041207562815700927e-01,1.515484542202391594e-03,-5.901437726122124063e-03,-1.954713719301346634e-03,5.274882912635803223e-01
-1.137140693865686114e-02,-1.238576397238921878e-01,3.140511333474931832e-01,3.466883443819896576e-02,8.675157447644582173e-03,-5.051751266880063346e-03,3.988316059112548828e-01
-1.759259326524655748e-02,-3.124683770903005642e-01,2.594391477924015144e-01,-5.315694735060310511e-03,8.934089206177686995e-03,6.326597220779337297e-03,4.958150386810302734e-01
-1.827331331684312402e-02,-2.695938803228612457e-01,2.892704970664343733e-01,-7.825316753328143485e-03,9.986051369362773785e-05,-3.031130612797541812e-02,4.878292381763458252e-01
-1.622157793056445974e-02,-3.239551865640668549e-01,2.480514330901272824e-01,1.955973577878675207e-03,2.334196283232771625e-03,-3.585472147881194841e-03,4.959155917167663574e-01
-1.473498312628219661e-02,-1.951214213687571530e-01,1.820712913793106069e-01,-5.134327368558948973e-02,3.954901861197708535e-02,2.394822763930202006e-02,3.479863107204437256e-01
-2.984724062668940581e-03,-3.103945056824446991e-01,1.988202096613653491e-01,-6.421622346139223281e-03,9.943546634965152661e-03,-1.763856347227354612e-02,4.456641077995300293e-01
6.702701184783423083e-04,-3.195065375131445062e-01,2.528312429994664656e-01,3.342951981085012098e-03,5.704496324509919676e-04,1.194633910043320715e-03,4.968633949756622314e-01
-1.854647448673072546e-02,-3.287571682698124942e-01,2.197301873736825506e-01,2.026176554577278389e-03,4.363586749965268734e-03,-1.555314196952594340e-02,4.771975874900817871e-01
-2.428475749415189011e-02,-2.866162633605908172e-01,3.076558755325838335e-01,-1.474656113888581316e-04,-7.882928188291518645e-03,1.336697360198927514e-02,5.165301561355590820e-01
-2.120803030723936514e-02,-3.110031407376385171e-01,3.017128915010512391e-01,-1.604703968840177431e-03,-7.993821914624675822e-04,9.519571149795428341e-04,5.308977365493774414e-01
-6.777201859830279951e-03,-3.320701961702974270e-01,1.869659255061316139e-01,-7.889378660395258286e-03,1.001452803713099270e-02,2.998435898406073830e-02,4.577772319316864014e-01
-1.794661559332611650e-02,-3.145530452955558331e-01,2.469765422007135225e-01,-1.001250745377566150e-02,-7.225893700763287293e-05,-8.996245763070237142e-03,4.871151149272918701e-01
-2.527964346836997916e-02,-3.163866314495100696e-01,2.871430225399853597e-01,-7.594946108104776855e-03,-1.294015247590665631e-05,-1.939432599280833339e-03,5.229569077491760254e-01
-1.392862430929353752e-02,-3.036339231245549497e-01,3.031534882451839552e-01,3.067461900208818138e-03,9.752683180140650498e-03,4.646288958512329015e-04,5.259703397750854492e-01
-7.528786059455032029e-03,-2.926477367877521885e-01,3.102967247649531801e-01,1.323092978621218281e-02,-1.248427642549063740e-03,-4.817544311902096157e-03,5.229946374893188477e-01
-2.011346883235110711e-02,-3.200877546858005851e-01,2.988763487931842544e-01,-1.838893347931912746e-03,6.425295826915445110e-04,-1.943910183693706379e-03,5.361441373825073242e-01
-1.500893460361582034e-02,-3.228383733561920876e-01,2.528804922254102583e-01,-1.425096937691829827e-03,-1.362604833883017223e-03,5.943848913623715584e-03,4.991047978401184082e-01
-2.021624087875817377e-02,-3.144132229112417964e-01,3.061219635799649619e-01,-3.842860031801279409e-04,4.275750034140648678e-03,2.943217284937039817e-03,5.377150774002075195e-01
-9.038826073692031449e-03,-3.154211037373138016e-01,2.043136478499430198e-01,-5.747635307909820974e-03,1.147782294220689881e-03,4.443364924829152490e-03,4.526799023151397705e-01
6.286042513019174383e-03,-3.157922403105248854e-01,9.824391395504347702e-02,3.075315536521536306e-04,-4.410032908319681116e-03,1.459609248956650600e-03,3.766607642173767090e-01
-1.860633490797606454e-02,-1.578566435201081697e-01,1.375991072407745097e-01,1.076187478026983078e-02,-1.197139424732470390e-02,1.386991675926653976e-02,2.586444616317749023e-01
-1.881102960557213752e-02,-3.041431592945576523e-01,2.923456439492392311e-01,-2.464796506039900956e-03,-1.156709899249889735e-03,-1.423188497359879120e-03,5.167632102966308594e-01
-2.812272785414472037e-02,-3.112955963867231057e-01,2.548174149502967500e-01,6.245954037420469243e-03,7.960032243582158482e-03,1.455784330165025425e-03,4.905878603458404541e-01
-3.687792376723964677e-02,-3.079959806143642842e-01,2.633754005458149861e-01,6.324872274467618384e-03,1.397403329162523163e-03,-3.024617974943293042e-03,4.951913356781005859e-01
-2.676339227703665100e-02,-3.095229560867461815e-01,2.871030594265962521e-01,-5.663222972368541462e-03,1.214798169027785438e-02,9.002173137871901862e-03,5.176832079887390137e-01
-4.011895666092145374e-02,-3.047101594352888965e-01,2.589683632051756890e-01,2.571473595601693734e-03,2.261964189485092102e-03,1.550912440437853933e-04,4.885006248950958252e-01
-4.320048151924951729e-02,-3.077879687272485620e-01,2.844324540938681922e-01,2.061331065494716435e-03,1.477226798243255236e-03,1.141578260682651327e-03,5.138683319091796875e-01
-2.865786783431595319e-02,-3.160404288172953269e-01,2.931263620588536178e-01,4.802326385235719183e-03,-9.314246133137376107e-04,-2.538358988319576893e-03,5.279205441474914551e-01
-3.654033768201476323e-02,-3.084106960065765013e-01,2.786216627955644953e-01,5.113702261856450069e-03,4.915980435816053734e-03,-6.857903178815257677e-05,5.089938640594482422e-01
-6.423004861142625477e-03,-3.910253436765392943e-01,3.286957112561653682e-01,-7.888635947543347349e-02,8.802074171130637448e-02,8.717500137154703815e-03,6.566970944404602051e-01
-1.085581419568530485e-02,-3.141757669365434769e-01,2.598380042270568846e-01,-3.666517437521353562e-02,3.653139415273563145e-02,1.671889909769698132e-02,5.062214732170104980e-01
-2.239855622516943867e-02,-4.522120486356287494e-01,5.018689846361015228e-01,-5.654490717617844525e-02,8.542140787232253493e-03,-1.534942171615268081e-03,8.335174322128295898e-01
-1.390712762578018291e-02,-3.188453155729228383e-01,3.038699153497548822e-01,-4.035354485163955779e-04,3.678569984817481927e-03,9.335450821269090406e-04,5.393659472465515137e-01
-2.386005920221821036e-02,-3.195501989193748615e-01,3.051624536013567424e-01,-1.099906887969355658e-02,1.996796813225720085e-02,1.368022768862758387e-03,5.427171587944030762e-01
-4.820878574604887945e-02,-3.086818336466224943e-01,2.845719263982367520e-01,-1.295141121405124322e-03,5.300543095031541889e-04,-2.084015214785715948e-03,5.150616765022277832e-01
-2.847185957072848744e-02,-3.123844590020935508e-01,3.035661098572951522e-01,1.533415091096809561e-03,1.189834067643490709e-03,-3.508526461907367049e-03,5.340164303779602051e-01
-1.657763798699363536e-02,-3.159548342645935315e-01,3.123853814368803827e-01,-1.101831360430619976e-03,-7.092279994199986821e-04,-1.360418642474709458e-04,5.443643927574157715e-01
-4.064764537299357661e-02,-1.265486684018063135e-01,2.808506331216940599e-01,3.470790213052977677e-03,-1.304721453696120175e-03,-3.273725119212107966e-03,3.720625638961791992e-01
-1.667790459001269182e-02,-1.891233710180670324e-01,2.818087339932414670e-01,-1.922648947527856242e-02,-7.025251154239449923e-03,-1.490640972995288614e-03,4.142077863216400146e-01
-2.588089360103559833e-02,-1.815582016317004166e-01,2.956562770124868123e-01,-1.963871102479744588e-03,-1.261978775076653958e-02,1.439751964996093328e-02,4.228342771530151367e-01
-2.444265387969128678e-02,-6.210020913607464110e-02,3.257989926586866702e-01,-4.063395957022691851e-02,-1.468184786410412900e-03,3.293630123152314058e-04,3.771428167819976807e-01
-3.327520507379333470e-02,-1.587468963133448485e-01,2.915058294901902713e-01,-1.265874846563593871e-02,-5.780803328780757117e-03,2.280191952734834243e-02,4.051141440868377686e-01
-8.620478340531589900e-03,-1.960622628700609826e-01,2.875200200562029740e-01,-3.404007816734392483e-02,5.173404957906730869e-03,3.236683211692572941e-03,4.265332520008087158e-01
7.677298979106910934e-03,-2.769416588235338317e-01,2.882423613547147601e-01,-9.724096251391266960e-03,1.003723091474444801e-02,-1.808381254050349081e-03,4.900760650634765625e-01
-2.449604948880704236e-02,-1.090603395973035461e-01,2.444443401530703996e-01,-4.099281619329227244e-02,1.347600298970899960e-02,2.954065314382116336e-03,3.283824324607849121e-01
-1.837420474194959019e-02,-1.269575019664290205e-01,2.830299184730524775e-01,2.292502545578432166e-02,5.607506612611709790e-04,3.092932187398968798e-03,3.700926005840301514e-01
-3.433240552355004693e-02,-1.087121348824566514e-01,2.885735686268496858e-01,-3.033161879782598352e-02,-5.189293880480965902e-04,1.235730656203061061e-03,3.695722818374633789e-01
-1.922673634318543268e-02,-3.129689278826809640e-02,3.112135626745555772e-01,-1.334963513173057469e-02,9.926021488215391875e-03,7.103256783072422510e-03,3.380924761295318604e-01
-1.043220077415529974e-02,-3.066506953524709700e-01,3.033513164189531319e-01,1.746453358304677402e-03,-5.447209308494473622e-03,-3.442373428372042573e-03,5.284767746925354004e-01
-5.717957707077212827e-03,-3.071577833314598216e-01,3.094930058179897192e-01,7.553486438056409387e-04,-1.645598930506353462e-03,-2.611606265551594426e-03,5.341079831123352051e-01
-2.491671480479795697e-03,-2.814127584366201695e-01,3.014875923534100499e-01,1.863932718258884879e-03,-1.339483453528098750e-02,4.376229972212440362e-04,5.055055618286132812e-01
-1.156326019365969127e-02,-2.896091089415888109e-01,3.126696187874897226e-01,1.967075790168230313e-03,-1.295864731760522880e-02,-9.036294026799092730e-03,5.228273272514343262e-01
-1.206091174088803116e-03,-2.991164714760723431e-01,3.054250972625994209e-01,7.821809004285067840e-03,-5.910266182736646952e-03,-3.697666020418702813e-03,5.238809585571289062e-01
-1.820823946834213697e-02,-3.112792183363925491e-01,3.054750296446255842e-01,-2.335910487428455740e-03,6.369533716885529811e-04,-1.565045746263179279e-04,5.343606472015380859e-01
-7.269809531964325361e-03,-3.158808924266623963e-01,3.091851456489312922e-01,2.055303079789193993e-03,-1.594699076202171295e-03,9.079762214329028386e-04,5.413582921028137207e-01
-1.682795513467292073e-02,-3.170615931855427228e-01,3.124269736035206746e-01,-3.854102004550986850e-04,-3.617749256685539108e-03,-1.140373320496654470e-03,5.453861355781555176e-01
-2.099992117797140623e-02,-3.177891227840489718e-01,3.134720738714505961e-01,-3.851502050397888149e-04,1.131668268865968071e-03,-9.756021352840508901e-04,5.470193624496459961e-01
-5.544689204901705193e-03,-2.998603283416123033e-01,3.037558527240627471e-01,1.339365771648851067e-03,-1.083809547214386465e-02,-2.935210096633941029e-03,5.231673717498779297e-01
-1.532243616356614678e-02,-3.105465846213500414e-01,3.051155230362987414e-01,-1.408307016387522724e-02,-2.239095150132753859e-03,9.782003968669353983e-03,5.341684222221374512e-01
-5.310588605244748184e-02,-3.147224994090218053e-01,2.578665560793847455e-01,3.666452737664954026e-03,-2.954343510009468585e-02,6.482122327066713874e-03,4.992869794368743896e-01
-1.857288487813675559e-02,-3.298201106394821336e-01,2.058785483135528449e-01,-3.390612597832873276e-02,-5.460568766919770417e-02,3.594739243043391930e-02,4.830983579158782959e-01
1.088942367770558660e-04,-3.126479161555895114e-01,3.227633040674808829e-01,-2.700561406467947775e-02,-8.678443713129660453e-02,2.584899602223791198e-02,5.741272568702697754e-01
-3.290924369894075024e-02,-3.480484804658834364e-01,3.416590659752721248e-01,-9.361472291964437198e-02,-4.619273724275899107e-02,1.252601778388680830e-02,6.251547932624816895e-01
-9.314588594412987962e-03,-3.607222732980471802e-01,3.139503025568968764e-01,-3.525841407129241128e-02,-1.050294412652174741e-01,-1.040722937359192003e-02,6.154130697250366211e-01
-5.048092168971834992e-02,-3.133347474034146041e-01,2.623125946238716311e-01,3.025608339104604583e-03,-2.511097364862489856e-02,7.628154888930490686e-03,5.012430548667907715e-01
-5.887410094328474758e-03,-2.962096430941818515e-01,3.503814448351181277e-01,-2.917890674661634959e-02,4.070499559920014859e-03,-2.579258008534169536e-03,5.632683038711547852e-01
-9.680193258307285414e-03,-3.257679282267684773e-01,2.430097673229141275e-01,1.163664810430873990e-02,-3.891256027575384305e-03,1.883019310203587308e-03,4.940629303455352783e-01
-1.714936066883413629e-02,-2.107371498165563628e-01,2.901481532222234816e-01,-6.473422004610719649e-02,-1.270712912352925210e-03,-5.274884534458010310e-02,4.607827663421630859e-01
-8.158797008818465674e-03,-3.078618574224188942e-01,3.012034512518366181e-01,-1.132615794316507545e-03,7.889306494092919800e-03,-3.345347624059468415e-03,5.277005434036254883e-01
-3.313218286657144962e-02,-1.923600953033445249e-01,3.058721265796484068e-01,2.122530518078895399e-03,-7.267542876621873281e-03,-2.752061761146966032e-02,4.435093104839324951e-01
-1.274493746962319929e-02,-3.117618129093153168e-01,3.006990277310885862e-01,9.283818108282545145e-04,1.073574584960551928e-02,-2.378694078206641891e-03,5.307999253273010254e-01
-6.747838232689769289e-03,-1.815706568991238556e-01,2.800500277918936964e-01,-3.272321466119076233e-02,6.323537801150747907e-03,2.468730491507511483e-03,4.078057408332824707e-01
-2.170988528133784012e-02,-2.513725491363101860e-01,3.030001846421809253e-01,-5.653672988387482314e-03,8.899979708605180312e-03,-1.523066637999492996e-02,4.835129678249359131e-01
-9.152722184406325567e-03,-7.018856163450981622e-02,3.252926452734068996e-01,-1.159195115437319096e-02,-1.037966782921594596e-05,-1.160964986547165581e-02,3.698644340038299561e-01
-2.022329563056086965e-02,-3.168892095334324144e-01,3.037492931389483841e-01,-8.260138945227823515e-04,7.074443498735984073e-04,-1.910897983639099585e-03,5.376755595207214355e-01
-1.954265025882317638e-02,-3.184319384109066120e-01,3.012565481230239928e-01,6.344655857340637545e-05,-6.431144168736820273e-04,1.017021072140254822e-04,5.367789864540100098e-01
-2.584261683540274926e-02,-3.173722244285250293e-01,2.961232534048948151e-01,-2.165004225311194068e-03,3.407002546893360146e-04,-3.538344776675567409e-04,5.315344929695129395e-01
3.383814541302956197e-03,-2.205847046959714119e-01,3.133661946139622567e-01,3.577825397946977903e-02,-8.613686986613832905e-03,-1.425922296814749631e-04,4.687645137310028076e-01
-2.206897674911566243e-02,-3.150499019277328006e-01,2.932059615508860184e-01,-3.996232258273701640e-03,-1.829426107132254989e-03,-3.619264018126228458e-03,5.269752144813537598e-01
-1.792560474428991912e-02,-3.170975500923143842e-01,3.041075841174527561e-01,1.291224791456121719e-04,3.952910273682509398e-03,8.429640702255558138e-04,5.381464362144470215e-01
-1.989220636017124955e-02,-3.198387176860951753e-01,2.993939974383119096e-01,-3.848714399239017755e-03,1.556668329448934480e-03,9.474062103526416931e-04,5.364091396331787109e-01
5.854757950716060061e-04,-3.038831079105825395e-01,2.911402351792035659e-01,2.571956876811743245e-02,-9.719007843392499495e-04,6.078808361567201307e-03,5.173839330673217773e-01
-8.401626118572563806e-03,-3.031273738466120360e-01,3.010952719168599745e-01,2.544666470164927505e-03,6.614360273158217951e-03,3.087769126324538694e-03,5.234955549240112305e-01
-8.643321259979571541e-03,-3.095362547962256516e-01,3.019157692210592825e-01,1.603407583628332564e-03,7.654000863173611793e-03,9.217902647220190676e-04,5.297306180000305176e-01
-2.789945923060791616e-02,-3.142113875439999648e-01,2.902853798095017535e-01,-8.191578974393874701e-05,-8.587803844342700764e-04,-1.055384988283160092e-03,5.237573981285095215e-01
-1.981634286309386789e-02,-3.327029869109057736e-01,2.126117764785732667e-01,1.419410293170966959e-02,-2.831200044157720225e-02,1.347231236001902692e-02,4.777009189128875732e-01
-7.177222551470151257e-03,-1.078663134883114383e-01,2.007264340503637501e-01,3.282881289821602822e-02,-2.187981202594335359e-02,8.406917442416747197e-03,2.813845276832580566e-01
-6.017259686993223222e-03,-3.187174637537205646e-01,1.158941700831732091e-01,2.642870226519631813e-02,-5.819379541436030256e-02,-1.009051218962905838e-02,4.041360914707183838e-01
-1.886896559692513922e-02,-3.231044923265412594e-01,2.684395585715034227e-01,-1.079099302678552738e-02,2.318430133965615741e-03,2.063189059465864953e-03,5.127310752868652344e-01
-2.342146649873465963e-02,-2.105287147008442494e-01,2.092162462999044570e-01,7.984984672906278447e-02,-5.469897508600462394e-02,1.816327733288180743e-02,4.021831452846527100e-01
-2.113786341751526521e-02,-1.276060739120114251e-01,3.040528950960729726e-01,6.966790935242117566e-02,-3.056214018531147603e-02,-3.899623772160557694e-02,4.166918396949768066e-01
-8.764162355186740083e-03,-2.408615822828909514e-01,1.358826815828393930e-01,1.821670432380243301e-02,-2.640542758710080415e-02,1.469147872875024158e-02,3.348117172718048096e-01
-2.628192068384394009e-02,-3.419225483046017811e-01,-1.403889617889760022e-02,-2.885741006182645368e-02,1.293099913779296832e-02,1.357521041262762518e-01,4.024041295051574707e-01
-1.462786082061653253e-02,-3.096882712992382602e-01,2.939399792051041738e-01,-1.769594657834265127e-03,2.859243658793329812e-03,-1.047365680045424892e-03,5.228366255760192871e-01
-2.383040520962842468e-02,-5.466883786732495976e-02,3.012945080495419981e-01,1.318081514021530141e-02,1.130822224434265520e-02,2.234647589345196972e-03,3.429334759712219238e-01
-1.665314176075283897e-02,-2.183283262436562788e-01,3.153035660608229929e-01,4.868326962150618803e-02,-1.670376956559530696e-04,3.238232469772971134e-02,4.775685071945190430e-01
1.925275997343636400e-02,-3.000234599273262082e-01,2.898882327452229624e-01,8.315315889652149031e-03,-2.282407125384881483e-03,4.753887079868639957e-04,5.116757750511169434e-01
-1.520470570741039307e-02,-2.969919381017229187e-01,2.951481431749592432e-01,5.811067932306278674e-03,4.374761765585689910e-03,1.361753060944148434e-03,5.131673216819763184e-01
-2.477307920082154682e-02,-3.160135103789050715e-01,3.055225033489841202e-01,1.144312613220751932e-03,1.909313705473065755e-03,4.464695927180887050e-03,5.386893749237060547e-01
-2.382494835547595280e-03,-1.881528708711467379e-01,2.117872016767427534e-01,6.133509156365979376e-02,-4.974363994975841696e-02,-4.893916578033175903e-03,3.727556765079498291e-01
-6.074583943167371179e-03,-1.973948297585030875e-01,2.084045594849087413e-01,5.197389217444301629e-02,-4.355238809671480027e-02,-8.035243248558010185e-03,3.709810376167297363e-01
-2.841079480717677297e-02,-3.386419778381025147e-01,2.936065910905665821e-01,8.810147958048589190e-02,-5.692329986462755370e-02,6.662420169314246278e-03,5.770424604415893555e-01
1.615319594699473477e-02,-2.841328028517307036e-01,1.810382782449406480e-01,5.457276280112022260e-02,-8.607333772627587254e-02,5.118169973055203270e-02,4.537516534328460693e-01
-1.807193211627492607e-02,-1.302967640816619643e-01,2.664642167512152326e-01,6.895306646058113609e-02,-3.034130343655758524e-02,3.935917681622764890e-03,3.775699734687805176e-01
-1.686527837606337232e-02,-5.066381884700207894e-02,3.355056160449629288e-01,4.759042867624969919e-02,-4.989752573293341912e-04,9.916710216635701153e-03,3.798783123493194580e-01
-1.832922445637738540e-02,-3.168867469782613022e-01,2.989599616389292946e-01,3.052409950701387258e-04,1.333193620295121569e-03,-3.378821039429262215e-04,5.334267020225524902e-01
3.326511169780150753e-03,-2.844375871963046865e-01,2.874429865953949115e-01,2.546531622232585650e-03,5.963240022307909720e-03,2.159473955456001504e-04,4.953939318656921387e-01
1.485702375612070469e-02,-2.823721472503712970e-01,2.843844304551135793e-01,2.801456030070399207e-03,5.412800688505347950e-03,1.961119208009840572e-03,4.911462068557739258e-01
1.242975247972284356e-02,-2.054860148488269200e-01,3.070537500722392288e-01,5.356648322150154434e-02,-1.316102372199758758e-02,-1.015341360908460396e-02,4.559943079948425293e-01
-1.979096632526455152e-02,-3.159049356986229906e-01,2.994740337329134805e-01,-1.134542119237517315e-03,1.718312162586081368e-03,-4.531055430260016396e-04,5.330720543861389160e-01
-2.859998204056746207e-03,-7.550262193237297637e-02,2.968303493160225903e-01,5.805665861135760747e-02,-2.498615346439587645e-02,-3.328622848915483573e-02,3.635520935058593750e-01
-3.447471721004598255e-02,-1.115114477425952766e-01,2.917342000134188207e-01,1.324735433359106214e-02,-4.532612523393850928e-03,-3.229332415735560466e-05,3.715711236000061035e-01
-2.876017508875130385e-02,-3.803227214002962153e-01,3.302451800725089703e-01,1.029102480667162985e-02,1.740655507168567193e-02,3.983734184858683976e-03,6.164156198501586914e-01
-1.134934879981984446e-02,-1.305169267702558644e-01,2.808898105176487192e-01,2.983233348170444971e-02,6.704571104178679020e-03,-1.723950305561773935e-03,3.704642355442047119e-01
-3.408194614568305081e-02,-1.617805272852221588e-01,2.893528291007955167e-01,2.465819033504939879e-03,7.167503936254942913e-03,1.777808110313606679e-02,4.041530489921569824e-01
-2.062891769484780091e-02,-1.288144210308140580e-01,2.823263369426990410e-01,2.193972552954141786e-02,-2.103252738206969844e-03,-4.874436041064269935e-04,3.711056411266326904e-01
2.285140963364212796e-03,-1.902395906631522415e-01,3.081267492206412051e-01,6.662739658434939372e-02,2.339411167463013082e-03,2.412244814981105712e-02,4.522904753684997559e-01
-2.741782967260074366e-02,-9.174484709919494829e-02,2.891184840625222741e-01,5.643341649796219939e-02,-1.396305263552652734e-02,-1.914787857675987783e-03,3.672126531600952148e-01
1.185942943535997149e-02,-1.776242855835033774e-01,2.761220744057172327e-01,2.902012527246724052e-02,-3.654484288534525643e-03,-1.922252001902919824e-03,3.979823291301727295e-01
-1.665423843804883508e-02,-1.900237922133180823e-01,3.450312913862774167e-01,9.631049558530499488e-02,-2.297282777025704686e-02,-2.421328208636539512e-05,5.029801726341247559e-01
1.760527298978705607e-02,-2.804091585314711366e-01,3.550084498975516478e-01,2.009952537267040845e-02,1.744278928699937088e-04,1.445369491752603389e-02,5.523072481155395508e-01
-1.624127532331428453e-03,-2.118760761401708714e-01,2.986417058814723746e-01,3.381985230795699071e-02,9.914910921688075557e-03,1.591696697895325988e-02,4.494254589080810547e-01
-1.420705873982652107e-02,-3.136496292510987938e-01,3.025864988192710769e-01,-1.939909897192737282e-03,1.875189483780670017e-03,9.032660726418027374e-04,5.337694287300109863e-01
-1.876601553489402191e-02,-3.201762004914654458e-01,3.101880010032077584e-01,1.517470440561944278e-03,3.632824583137282595e-03,-1.489692996406260595e-03,5.461337566375732422e-01
2.253306793206358988e-02,-2.993746156351391741e-01,2.896228525818230759e-01,6.652370573891040056e-03,1.927502997558001039e-03,-2.679447190926993619e-05,5.109634995460510254e-01
1.061689067021313188e-03,-2.825853592498421274e-01,3.481017994408517335e-01,6.551571176508669270e-02,1.271541808978626613e-02,-1.108100518622393205e-04,5.591881871223449707e-01
-3.185846679762687622e-02,-3.113285144713455743e-01,2.884930172442953800e-01,3.134028603061345727e-03,-3.218840080809403162e-03,3.504307002655228376e-03,5.199563503265380859e-01
2.457188466891258374e-02,-2.920637514318376038e-01,2.949128027747732750e-01,3.226982593805504101e-03,-4.479448705930164608e-03,-4.845836111627466886e-03,5.090224146842956543e-01
-3.714739554588465664e-02,-1.407497557647580111e-01,2.927065105490018748e-01,1.469791107877454822e-03,-1.982511929768988532e-03,2.196489806094578320e-02,3.939242660999298096e-01
-1.791560098382031022e-02,-2.775028219634992355e-01,3.039480925836575143e-01,7.970959920969650702e-04,6.584642410348976078e-03,9.647151164189647632e-03,5.049204230308532715e-01
-1.671709518075140122e-02,-3.198026205187545767e-01,2.005381697827584853e-01,-1.232120887588741181e-03,-3.005417167079045201e-02,-1.475346370656275587e-02,4.563714861869812012e-01
-3.809438353720771830e-02,-1.872524008467215673e-01,3.299857145945131465e-01,-3.551201263097645416e-02,-1.585763516194480622e-03,1.460464547206660919e-02,4.659011662006378174e-01
1.266434952172024869e-02,-2.185691136316125216e-01,3.319431611985669828e-01,8.233100115678089470e-02,-9.708417634918369010e-02,-1.296710566984049344e-02,5.275902152061462402e-01
-2.002985109460580886e-03,-3.604535230968606285e-01,3.606077251684112750e-01,4.188401426873706451e-02,-7.051277100622486971e-02,-2.244644665949517559e-02,6.415931582450866699e-01
2.585099091451036404e-02,-2.902521195931687670e-01,2.825393289014012099e-01,1.896622801516155768e-02,-2.009024550146054297e-04,1.704175385001443317e-03,4.980341792106628418e-01
1.673843684794458497e-02,-2.926523641005478460e-01,3.090621395058950061e-01,5.542472221571479590e-03,-6.263816559831186792e-03,-1.010641784307979643e-02,5.216649770736694336e-01
-1.944377548551841015e-02,-2.871037630732803381e-01,1.654255000049391355e-01,7.140685989081027585e-02,-6.073992809440049989e-02,4.869173900061498500e-02,4.344860315322875977e-01
-1.882852738778675178e-02,-3.076019054012577025e-01,1.861513223164751041e-01,-2.578878275553662513e-03,-3.606628305910332399e-02,-2.638618471470169716e-02,4.365896284580230713e-01
-1.356508276409084182e-02,-2.517283516207456939e-01,2.864846288683535747e-01,2.213209784483509759e-02,-8.352513189868902496e-03,1.528540919683473234e-02,4.696723520755767822e-01
-1.749726672135640260e-02,-3.221409323725707430e-01,2.462611400005091933e-01,-9.345087066938767215e-03,-9.515940615171074313e-04,-1.090993194664782728e-02,4.933055639266967773e-01
-2.868891318279474540e-03,-3.327557597434152581e-01,3.347492093953237102e-01,3.144806209509792838e-02,-5.543333409296676700e-02,-1.937284687370280714e-02,5.894900560379028320e-01
-3.607573114276308585e-02,-3.620706196345892525e-01,3.024154506088145844e-01,1.244860401538422064e-03,-2.879715124511296812e-02,-4.278325892104911134e-03,5.777047276496887207e-01
-2.538210272986009958e-02,-3.164659807219304399e-01,2.637428870978695272e-01,-9.470696969456912986e-03,-8.575253650101349781e-05,-6.356120023266760739e-03,5.028647780418395996e-01
-5.871695165461538260e-03,-3.010327377565581441e-01,2.985015076469013651e-01,1.674042713388626102e-03,2.333428466972383743e-03,-8.312773806857779075e-05,5.192561745643615723e-01
-1.040026229018332048e-02,-2.755193975186214783e-01,2.956546345971856060e-01,1.315669010305244892e-02,-1.329914542332594034e-02,-6.316940245060273344e-03,4.962543547153472900e-01
-3.017889507826661613e-02,-3.118585252280540177e-01,2.348466287366249849e-01,-8.806240090539506349e-03,-1.271352806634390258e-03,-7.301736852240578099e-03,4.739532470703125000e-01
-2.353785479518551854e-02,-3.123148095240128042e-01,2.424577555813338114e-01,-9.795459870089983853e-03,-9.708957799337907327e-03,1.607304781447306975e-03,4.811835289001464844e-01
-2.897330860283967024e-02,-3.120509045708159124e-01,3.023859892578639186e-01,-2.086984282970702920e-03,8.685999739434964451e-03,4.412544896431144607e-03,5.329447388648986816e-01
-1.302069221356924600e-02,-3.516043347366701322e-01,1.429722707690302130e-01,-3.485842928328889735e-03,4.036681055246454930e-02,-1.482794642487639605e-02,4.442677795886993408e-01
-2.377243078072525939e-02,-3.047833685774095636e-01,2.945584151252428340e-01,5.689725319351040915e-03,5.488070868694469931e-03,-9.017369369711642282e-03,5.197956562042236328e-01
-5.121117644920353262e-02,-3.085855044148687609e-01,2.558535465126206554e-01,1.678047766148857900e-03,-1.636096671389912841e-02,1.330786861216799516e-03,4.902832508087158203e-01
-2.608632821248250619e-02,-3.148642630202571069e-01,2.926603643699822177e-01,-6.850789287184321169e-04,-3.932655733685936836e-03,3.897621124322964668e-03,5.264337658882141113e-01
-2.564231318610812188e-02,-3.146686402102621960e-01,2.934427395895446433e-01,2.726804253576342856e-03,-5.683507969140230709e-03,4.240865666318727537e-03,5.270186066627502441e-01
-6.878858578027124276e-03,-3.129506947583583498e-01,3.006365429297308545e-01,-5.636541798193106132e-04,-4.259925748826189768e-03,-2.912879090909295879e-04,5.314350128173828125e-01
-2.139634563524493022e-02,-3.105357440557684479e-01,2.983156315719485696e-01,-4.127798525533864921e-03,-3.047369030485360189e-03,4.327289773359222695e-04,5.275776982307434082e-01
-9.431516983262507037e-03,-3.174533251707629122e-01,2.975315959147623035e-01,2.326568300121326441e-03,3.738423039107436740e-03,2.342924950833269893e-03,5.326628684997558594e-01
-7.451237796832644450e-03,-3.094006037816615651e-01,3.040822862979963848e-01,-3.932272519989107006e-03,1.015180371230905119e-02,-8.857222354755953445e-03,5.318691730499267578e-01
-9.824152468628180590e-03,-3.326994130113085646e-01,1.333618092457706517e-01,-4.615652992659567688e-02,-6.209373343040040794e-02,-2.576313681839962483e-02,4.369567930698394775e-01
-2.885340829326870152e-02,-3.130422576890360964e-01,2.266164674647782040e-01,1.242081440909240456e-02,-3.897528231633969054e-02,9.830763738585695383e-03,4.732228219509124756e-01
3.295021083094165637e-03,-4.630271904972098063e-01,3.376164290172261051e-01,-2.284675073743676690e-02,-1.054990588676044949e-01,2.696870328192706515e-02,7.226802110671997070e-01
1.301335277053936035e-03,-3.912926937538063199e-01,2.003049239204598986e-01,1.609272661556520809e-02,-1.113918936224113643e-01,-3.287935788785372598e-02,5.595575571060180664e-01
-4.134212153311636606e-02,-1.338098235155997240e-01,2.863363093820433525e-01,3.169527081948955109e-03,-2.537177784460337669e-03,2.518824268724736276e-02,3.849362134933471680e-01
-3.039295686451736617e-03,-3.172067920024957965e-01,3.086312047407942516e-01,-9.667256002525303907e-04,1.358886086524958327e-03,2.628327359311683018e-03,5.420198440551757812e-01
-2.534426067802769342e-02,-2.767366574445164207e-01,3.027150041876680575e-01,1.278324811140323092e-02,-5.459798419901639582e-03,-4.728741152682559151e-02,5.104709267616271973e-01
1.985762043431219676e-02,-2.708692159084213902e-01,2.965755625394925210e-01,2.254267282324100632e-02,-3.173661130054047323e-03,-5.378197945371164740e-04,4.930515587329864502e-01
-7.709915503776199053e-03,-8.977348407967133959e-02,3.330101166524214173e-01,7.758213349217280008e-02,-2.618632919898565906e-02,-3.544305045956100408e-02,4.179330468177795410e-01
-1.326220175592077166e-02,-9.076219560100068362e-02,3.262472921039558105e-01,7.877864103406519158e-02,-3.912569902229398600e-02,-2.520945740832307436e-02,4.155744910240173340e-01
-3.987853607606301615e-03,-2.244042754440636334e-01,3.013007355668100296e-01,1.636833454005996030e-02,-1.049138095248357098e-02,-9.145835711606280574e-03,4.587592482566833496e-01
-4.333019400981630298e-04,-3.216069730748710720e-01,1.989750806729716770e-01,-1.481522297610750154e-03,-6.141247684262482682e-04,2.013795093377305015e-02,4.562732577323913574e-01
-8.604597250854037482e-03,-1.006111988848709948e-01,2.901157030434267092e-01,3.754479777637934057e-02,-4.160818176120759625e-03,-5.588300454152330364e-03,3.599413037300109863e-01
-3.069419923606083941e-02,-3.155686393615735330e-01,2.928702704893078601e-01,4.898598679609649474e-03,-7.916146306705445970e-04,1.085181276006678833e-03,5.273519158363342285e-01
-2.348414540473050399e-02,-3.170868955097267960e-01,2.975922211712216381e-01,8.265442990466721025e-04,4.598797894953754396e-04,-1.434865350908744348e-03,5.325132608413696289e-01
-9.746250798982392105e-03,-3.083299895672128588e-01,2.971130123916224108e-01,1.754682683226241238e-03,-5.083336013134455260e-03,4.841791722824527900e-04,5.244287252426147461e-01
-1.173390097594714451e-02,-2.997059040919934358e-01,3.029963476228747510e-01,-4.674650591182632608e-04,1.037533310047167312e-02,3.051657750603536078e-03,5.224634408950805664e-01
-2.052461356629105282e-02,-3.203665659159967705e-01,3.010233585761544206e-01,-2.471557746710378520e-03,-2.849366270694439073e-04,-1.000211880974092487e-03,5.382689237594604492e-01
-2.019506100503578455e-02,-3.206803786545913693e-01,3.014025450820320695e-01,-3.168631878757882745e-03,1.030907991089095302e-03,-1.832439143556330178e-03,5.388832688331604004e-01
-2.010057714944771257e-02,-3.207613302652175813e-01,3.014537138111844095e-01,-3.192222159656939780e-03,1.188712804679905146e-03,-2.008150500090153528e-03,5.389987826347351074e-01
-1.435124733305705690e-02,-3.020112790353061683e-01,3.019186073195519460e-01,1.051411426520290583e-03,8.707060008572834256e-03,4.195636993067836280e-03,5.234851241111755371e-01
-2.473396160641279373e-02,-2.767782477203761804e-01,3.049279869951599387e-01,1.080952168760297228e-03,4.807855423373031713e-03,8.106019565329908652e-03,5.055320858955383301e-01
-1.988181896092482137e-02,-3.173947250229947059e-01,3.052813174256380768e-01,2.043851575960437341e-04,5.252118523357972475e-03,2.851144024106972829e-03,5.395298600196838379e-01
-1.041525044119436666e-02,-2.880888531525235274e-01,3.037020327026058730e-01,6.616145841670553925e-03,1.000481920477970348e-02,4.505549978780431890e-03,5.133097171783447266e-01
-3.864902678677816644e-02,-3.060756888465805958e-01,2.737013948738735158e-01,3.629030732241739568e-03,4.304047774708680968e-03,8.365476223730353091e-05,5.026984810829162598e-01
-4.568459695396819009e-02,-3.035606162141692432e-01,2.681019502323923054e-01,2.302370524284374793e-03,1.042910815456867153e-02,-2.783208668167847237e-04,4.962081313133239746e-01
-4.569819348843567886e-02,-3.052065517097264369e-01,2.823235244987407078e-01,4.638083257810255984e-04,8.873558464768267415e-03,7.439773490836709821e-06,5.102000236511230469e-01
-4.116233186537864713e-02,-3.038292066669721625e-01,2.846116784222834650e-01,-2.268902409321238954e-03,5.298511803281683898e-03,-5.325592006812602733e-05,5.106782913208007812e-01
-4.687669522266228739e-02,-3.049517449243394629e-01,2.688928325837245392e-01,-3.840618217534994428e-05,9.017524321698054332e-03,4.446321632274438982e-05,4.980455040931701660e-01
-2.970994840970756293e-02,-4.468483856625509731e-01,3.785262923030043303e-01,9.987159470668773020e-02,-6.705157610143669400e-02,3.784340602862171395e-03,7.445845007896423340e-01
7.702402273712570524e-03,-1.904721324310249542e-01,2.842434647163270545e-01,2.209044561578120056e-02,7.371613894160591873e-03,7.669194307203471700e-03,4.151565134525299072e-01
-4.357677183719547986e-02,-3.749904249682330382e-01,3.124401702222450172e-01,4.822285546346772450e-03,-4.475848729778539314e-02,5.927810043812409800e-03,6.006305813789367676e-01
-4.696932172077841749e-02,-3.041230718791012033e-01,2.771243219442774963e-01,-1.632901300419671315e-03,-4.074403334761840523e-03,-1.871168898220603458e-03,5.045542120933532715e-01
-4.857860426921658398e-02,-3.052119728840955726e-01,2.704645777878407764e-01,2.556968792110850611e-03,-9.485101365159427991e-03,3.314387311556841326e-03,4.998488128185272217e-01
-9.003559504597018204e-03,-3.027181082940049728e-01,2.978270610764349735e-01,-2.391038624544319750e-03,6.206156568171785660e-03,2.666269756874773984e-03,5.202767848968505859e-01
-4.510657368269198331e-02,-3.076689622718699613e-01,2.878339078827932274e-01,2.778316982732292970e-03,-6.427117317065086412e-03,7.367213868633412654e-03,5.172194242477416992e-01
-1.321757295895378478e-02,-3.559294775556118284e-01,3.838581743808674451e-01,1.874139286528903742e-02,-5.624327978435627803e-03,-7.073562518130436377e-03,6.422631144523620605e-01
-1.406911813611923592e-02,-3.103633520189973405e-01,3.164919458342195790e-01,1.525703047525604587e-02,1.314890195995455785e-02,3.694857592204339996e-03,5.442997217178344727e-01
-4.087874726551818383e-02,-3.236371228719038262e-01,2.870114495952085232e-01,1.026156894284860170e-02,-2.069188783972680454e-02,1.980317575211421044e-02,5.319349765777587891e-01
-6.542281526575079165e-04,-2.340837720792777188e-01,1.530279356824708614e-01,-3.985477383302245963e-02,-5.078183299481613816e-02,3.582859499020833727e-02,3.610182404518127441e-01
-1.446825910208586474e-02,-3.218899852040322807e-01,1.623283742620613701e-01,9.384502372933636524e-03,-1.507469938893657262e-02,1.309097237703646215e-02,4.261177778244018555e-01
-2.746201628223275681e-02,-3.109066439352222155e-01,2.011574666798275346e-01,1.102725857952313593e-02,-1.745386538061188125e-02,-1.931441676887079979e-05,4.457436501979827881e-01
-2.776343659997412838e-02,-3.144724112834915708e-01,2.520218961426106130e-01,1.325743678797600654e-02,-1.471924468681871847e-03,5.496594000628843811e-03,4.912466406822204590e-01
-6.587042093654569760e-03,-3.100878544134665349e-01,3.080633020587333348e-01,1.164182454287936500e-02,-2.288876492327399895e-04,-4.908351197822876169e-03,5.358108282089233398e-01
-1.906446400972692037e-02,-3.245262775638695363e-01,2.679336611161034498e-01,1.208420026496414244e-02,4.125773287128228425e-03,2.563541862551448579e-04,5.136449933052062988e-01
-1.753313255176225383e-02,-1.539229140199979973e-01,2.998679367878857582e-01,5.111942862147115380e-02,2.580176780888722432e-02,-5.005449062066286148e-02,4.242511093616485596e-01
-1.171977983968663928e-02,-3.370386499085745724e-01,1.173402766753015025e-01,-1.103234195828795353e-02,2.115018527668941981e-02,-5.525671305403061923e-02,4.187380671501159668e-01
-1.939754888932121446e-02,-1.655708536910591722e-01,3.034003893842955879e-01,5.420385159937043257e-02,2.588376286817170580e-02,-3.503584194034845695e-02,4.327310919761657715e-01
-1.049115887121469803e-02,-5.013653123428813974e-01,2.503362761440395823e-01,2.348874010174209145e-02,1.228497825517339687e-01,-2.678263372054518008e-03,6.956829428672790527e-01
1.801546631547156288e-02,-2.762167435825699791e-01,3.030832802552202443e-01,3.274836612051892221e-02,-3.520567692290601201e-03,-5.873095878317816099e-03,5.050449371337890625e-01
-3.190997847355482586e-02,-3.090145240920977865e-01,2.760416057193887940e-01,-4.713671591460352923e-03,1.784780490833681775e-03,-9.336760158462409148e-04,5.069859027862548828e-01
-2.163076027933465845e-02,-4.407590966832746204e-01,3.658081485916369058e-01,6.384381943406208793e-02,2.944384014116991494e-02,-1.534494819689142565e-02,7.097178697586059570e-01
-8.755449112859383515e-03,-3.086896444237333670e-01,3.019258322782663595e-01,1.520901083493900663e-03,-4.159979390866087173e-03,-4.323610122650266979e-03,5.289444923400878906e-01
-2.098923848789709806e-02,-2.997124249755190317e-01,2.883109015176968382e-01,1.210207297978609965e-02,-2.046792132311970464e-02,-5.287250659796544072e-03,5.112165808677673340e-01
-1.714906217478132794e-02,-3.325314570583080553e-01,3.250755820380222261e-01,1.197035102794061050e-02,1.068113842073875261e-02,7.569336654134863757e-03,5.704904794692993164e-01
-6.346130496494940820e-03,-3.446359248457210311e-01,1.987804971573722823e-01,-4.724264086238187665e-02,1.001275677648411216e-01,1.159584551671143278e-02,5.129178762435913086e-01
8.893578132770762340e-04,-3.237872311276369652e-01,3.580139911843822631e-01,2.239773216516200566e-02,-1.040976452572587273e-02,-8.641903428125582987e-03,5.924162268638610840e-01
-3.159663256983714918e-02,-3.136085674104904797e-01,2.632991700619735642e-01,-6.558599429823193556e-03,3.644404789327001940e-04,-9.910973827861550151e-04,4.997907578945159912e-01
-5.867443279898895692e-03,-3.789486870162367960e-01,3.428549177089723621e-01,9.060885702980765732e-02,6.955250096630970214e-02,-2.519737272550252871e-02,6.572259664535522461e-01
-5.414752765850530669e-03,-3.020127184215048999e-01,5.228782438907664254e-01,5.438141420817971944e-02,4.046322305283003504e-03,-1.670861536963723359e-02,7.304198145866394043e-01
-4.943628849542254511e-02,-3.906645434742335166e-01,5.185365828417577427e-01,1.238981907960730600e-01,1.197076248258809213e-02,-1.520558635905970915e-02,8.246296644210815430e-01
1.974439945628249024e-02,-2.988359894645612469e-01,2.953204329157647079e-01,8.242946854889795366e-03,-4.058367184587981409e-03,-8.471820271075618247e-03,5.154583454132080078e-01
-3.643599997692283793e-03,-2.239225406078769187e-01,3.095992462614997054e-01,6.707130154419999046e-02,1.183915734958044304e-03,1.814003418023768174e-02,4.797205030918121338e-01
-5.556814641326516396e-03,-2.964041296777971124e-01,3.104392264622062858e-01,-2.311275450821963576e-02,-6.583620485716945928e-03,-7.316077123138335289e-03,5.274897813796997070e-01
1.944074946795813774e-02,-2.978572038756638340e-01,2.950812224745247292e-01,6.668099547643326769e-03,-3.205990095423552123e-04,-6.002590650212501168e-04,5.140531063079833984e-01
-1.261094242062018450e-02,-3.157097325587508441e-01,3.171704259818957095e-01,5.243927795886406049e-03,8.223330306804652913e-04,-6.831574399742057144e-04,5.483310222625732422e-01
-1.358716385317117539e-02,-3.358171724787328838e-01,3.395662973589504974e-01,3.986882675882473526e-02,-2.690009856995139240e-02,7.924969460059991862e-04,5.910055041313171387e-01
-2.250192933813475321e-02,-4.622147764925290669e-01,4.512695476491150881e-01,9.777692689001764303e-02,-9.260783136919795155e-02,-1.142698543666184792e-02,8.251857757568359375e-01
-2.726962476072912131e-02,-3.102857780660626674e-01,2.001406080812647148e-01,1.142314158466155652e-02,-1.746488844276192220e-02,6.699955307957139667e-04,4.443897008895874023e-01
-2.596739951760089135e-02,-3.044080335945095750e-01,1.958975317256763660e-01,6.869640169444529362e-03,-2.467093491154999721e-02,8.215049963473079406e-03,4.366914927959442139e-01
-4.480432336631742785e-02,-6.069267748977690280e-01,3.122752795662114833e-02,-1.145132339310377112e-02,-3.742350064945778459e-02,8.428794463477191912e-02,6.248279809951782227e-01
-3.118246672111866374e-02,-3.267769986973437235e-01,1.692366315685178979e-01,8.050661819656884655e-03,-5.151210574880469434e-02,6.842246328666328273e-03,4.416809976100921631e-01
6.296946584467916219e-03,-3.172861961387435370e-01,1.301221745639739857e-01,5.553972693868867647e-03,-9.123811426408515819e-04,1.286373473485137066e-02,4.008714854717254639e-01
-1.686845695431699738e-02,-3.065478180939475439e-01,1.722740608978843291e-01,-6.327939559986415184e-03,-3.603473884272762919e-03,-9.035807648906981834e-03,4.181910157203674316e-01
3.765365985018323536e-03,-3.658394506680018310e-01,9.852522882266187554e-02,-2.237597704839495993e-02,-6.947108424972366081e-02,-1.911710943062013696e-02,4.446211755275726318e-01
1.278624702302079592e-02,-3.088447610067535654e-01,2.922858501583373569e-01,-3.720558372257387787e-03,4.629390192307692060e-03,-6.875750632020539987e-04,5.211232900619506836e-01
-7.335879937738916043e-03,-3.144810873605183299e-01,2.967402009075866820e-01,-1.800245211300118041e-03,1.467939947379634513e-02,-6.261602001868989131e-03,5.300657749176025391e-01
-1.981090183122029280e-03,-3.421257115812119109e-01,3.459571108990812105e-01,2.139934383076637012e-02,-5.417734976305509098e-03,-1.772264610327848461e-02,5.979237556457519531e-01
1.205326845438936707e-02,-2.853846045581051594e-01,2.908591388196586913e-01,-4.558029710578848787e-02,-1.475825118057407653e-03,-9.429124140420441433e-03,5.056039690971374512e-01
2.414394864108741420e-03,-2.402114178151212309e-01,2.912596184088767082e-01,-2.058652597825536262e-03,1.447325483491824182e-02,-8.068473437713174351e-03,4.617538154125213623e-01
2.389707497358853350e-03,-1.106110321595271118e-01,3.317183417128543033e-01,-6.932437675717770253e-02,-1.091370318864848732e-03,1.378991414092331155e-03,4.157737195491790771e-01
-1.157936788183525079e-02,-1.147122094240466128e-01,3.712859639348503604e-01,7.548925946512495544e-02,-5.705321044016801665e-03,-5.365570248869090675e-02,4.717399477958679199e-01
1.536749131326245466e-04,-2.834110951734474249e-01,3.705069471925942493e-01,6.348572014404300912e-02,-1.014239816873084704e-01,-3.652079178801374837e-02,6.079002618789672852e-01
6.917601086021598483e-03,-1.839404628758299076e-01,2.821103397343130981e-01,2.987475650064850066e-02,-5.448471559594744544e-03,1.174083194872369788e-03,4.092081189155578613e-01
2.589525752383648599e-02,-2.505735159776324439e-01,2.801159879247067108e-01,1.034699559866012787e-02,-3.658125737965541024e-03,-8.160313224425091560e-04,4.601201713085174561e-01
6.222859885590986684e-03,-8.306613768637438611e-02,5.270282203749950822e-01,6.442526812549810578e-02,1.564651958986560884e-02,-2.002801255828891638e-02,5.831831693649291992e-01
-1.200839462876923669e-02,2.432790790926007973e-02,3.423845642241555298e-01,2.139728704965161016e-02,1.156413608260775530e-03,-8.248635430772770574e-03,3.400279879570007324e-01
-1.269088189869319039e-02,-1.272146228376579147e-01,2.769685923331275390e-01,2.084999172728312783e-02,5.753765501994035627e-04,3.034327674135786656e-04,3.626246154308319092e-01
-5.911573685887487259e-03,-3.170362869245397230e-01,3.194879391899049792e-01,-2.186554638272495549e-02,7.384023279783903486e-03,2.426131153165333489e-03,5.527556538581848145e-01
-9.870769407972254661e-03,-3.130394547039198061e-01,3.116671606220454138e-01,-5.272285055832009841e-03,1.651573307323387588e-03,1.305645981754229371e-03,5.411791205406188965e-01
-1.202832724674852624e-02,-3.103300582777559491e-01,3.032075812102921208e-01,5.658814994847810760e-03,6.965901483155763699e-03,-6.907620617628487149e-03,5.317685604095458984e-01
-1.133130782411970010e-02,-3.240807069383170314e-01,3.019736390628678380e-01,-2.444508040558772063e-02,1.462659908385258341e-02,9.026501924103993990e-03,5.446439385414123535e-01
-1.924278580286131746e-02,-3.288296258259429949e-01,3.151978598673346177e-01,1.787803128243931452e-03,-2.308629673939680514e-03,2.793080111061160137e-03,5.579264760017395020e-01
-2.141189618030615860e-02,-3.195175472039879505e-01,3.097317614078062276e-01,-7.410871701407257227e-03,-8.716863018987762793e-03,-9.616653428460388876e-04,5.455588102340698242e-01
-1.219309571804247198e-02,-3.669850056789211168e-01,3.749260494334674676e-01,-1.097593070712383654e-03,3.432798778833234116e-02,1.922809921056336732e-02,6.463229060173034668e-01
1.185290393382072011e-02,-3.008044846700180242e-01,2.898661825845330053e-01,-1.352597255058882088e-03,-1.102593473383609675e-03,1.005665590293495495e-03,5.118408799171447754e-01
2.290703035901098250e-02,-2.787577866014188110e-01,2.874780699571449771e-01,-9.458274304445662278e-03,-4.481626316687596992e-03,1.797949848350828626e-04,4.910600781440734863e-01
4.114763729647722031e-03,-3.027760463690087889e-01,2.928846806550362003e-01,-2.702432438085081395e-04,-3.400739270421589047e-03,5.328059498760195240e-06,5.159707069396972656e-01
1.461906187479217537e-02,-3.001472681799847719e-01,2.881538018262340684e-01,-3.460586535336933507e-03,-3.418853378740127277e-03,2.157127850362484749e-04,5.099703669548034668e-01
1.274212408068550045e-02,-2.950357620752129817e-01,2.883236115560069424e-01,-7.925565975053589169e-04,-8.801150732540367330e-04,-6.913677280866807042e-04,5.054660439491271973e-01
1.878449458783132409e-02,-2.901503635950745674e-01,2.864993948794337664e-01,1.073254533974646937e-04,-4.162108216660128507e-03,9.656642266103041190e-05,4.998705089092254639e-01
-4.334822784292869692e-03,-3.090535940515480862e-01,2.999690536375754224e-01,-3.959072528890954581e-03,-5.614564117924829463e-03,1.340937988784422557e-03,5.275684595108032227e-01
1.456041976832343071e-02,-2.978604073238909078e-01,2.910421891023100005e-01,-1.745968734332166428e-02,-3.580483778136873702e-03,-1.068163726334611608e-03,5.112572908401489258e-01
-1.902459301540242176e-02,-3.178041721877872816e-01,2.492806475923813325e-01,5.883358452840129968e-03,4.459506818956600685e-03,-5.542901248149237521e-03,4.916062951087951660e-01
-2.421661173530390357e-02,-3.175499514295891390e-01,2.875294707417329620e-01,4.110938235200142093e-03,2.982021098889590157e-03,7.393198042859398236e-04,5.241703987121582031e-01
-1.983284537384322893e-02,-3.202346864116603631e-01,2.570590024318906708e-01,7.641254660619175784e-03,4.747095607597437861e-04,9.629479358635100600e-03,5.005429387092590332e-01
-3.753322342710438408e-02,-3.160898760001308871e-01,2.950544530885405581e-01,1.324089743652962425e-03,2.046865812902645340e-02,-1.972076020307282455e-03,5.311560034751892090e-01
-1.344667232654919026e-02,-3.225690994796283628e-01,2.275535743468314887e-01,8.225834331699021992e-03,-8.356645595758279083e-04,-1.662897780334442188e-02,4.787181019783020020e-01
-1.865738364832700280e-02,-3.209704104233067068e-01,2.680005574036182225e-01,3.985511287086114171e-03,3.608149742293214907e-03,4.212478494295072290e-03,5.102609992027282715e-01
-2.373235679888874988e-02,-3.155173739842360159e-01,2.982585236029646203e-01,4.153482441993823493e-03,-1.563307029336934249e-03,-3.970755015267988120e-04,5.318160653114318848e-01
-2.940400085119521112e-02,-3.052272794679272705e-01,2.727334401303622702e-01,4.682645413599889617e-03,1.288180189838700196e-02,-7.727789590046458407e-03,5.014427304267883301e-01
-3.184679741596609104e-02,-3.413855898852971582e-01,2.657638494448195665e-01,5.508915645314613023e-03,1.929975774768279140e-02,-4.104354240031560762e-03,5.270364284515380859e-01
-2.694369055386234418e-02,-3.179579980872664913e-01,3.078392876767769848e-01,-4.191797380564177104e-03,1.989849787233238104e-02,-4.387323357032730034e-03,5.435935258865356445e-01
1.984694568683147142e-02,-2.925012549756976221e-01,2.913774820290992440e-01,5.251348308762624276e-03,-6.418444029218362684e-03,-2.260673115695927601e-03,5.062844753265380859e-01
-1.441184742332332278e-02,-3.220979218989456494e-01,3.221161697125587975e-01,-2.737269526530004479e-02,3.028932964238137057e-02,1.099393592945798782e-02,5.628761053085327148e-01
-9.016856713024833797e-03,-3.515391230473919881e-01,3.583210688514909537e-01,-1.146647491658647246e-02,-1.723596577267359417e-02,-9.764104310579854382e-03,6.161589026451110840e-01
-1.213947674256213305e-02,-1.036912414342625044e-01,2.896001811691296668e-01,-2.560176679603082608e-02,-6.190753099546482396e-03,-1.938454224642921931e-03,3.593688011169433594e-01
-8.186410575318440325e-03,-3.133389087746422663e-01,3.124491738596197332e-01,-4.942338829577796327e-03,-2.926131056500430854e-03,-1.754801894745746684e-04,5.420950651168823242e-01
2.057509266851037175e-02,-2.924503959053096347e-01,2.863047483915221458e-01,-8.007337422762647594e-03,-4.508847120663811263e-03,-1.136639998098699662e-03,5.020304322242736816e-01
2.095937686033912117e-02,-2.922592096350910551e-01,2.886859663671219045e-01,-8.448016282068990593e-03,-5.216308988997478760e-03,-7.809602119752765282e-05,5.039207339286804199e-01
-1.340195163241459514e-02,-2.290102844817899219e-01,2.911482225425969794e-01,-1.265792807791506908e-02,-1.080075075500679799e-02,-2.906719735447935941e-03,4.536047875881195068e-01
-5.754291256441258773e-04,-3.017275130211496403e-01,2.929760226480924157e-01,-2.203999938974688256e-03,-3.010643272006648021e-03,8.231204571028698713e-04,5.150849223136901855e-01
-1.734486046302737006e-02,-3.173995538620240642e-01,2.943624327438042476e-01,2.302818756101677241e-03,-4.549808379867420309e-03,-5.164643793004337338e-04,5.299078226089477539e-01
-2.210707092228126128e-02,-3.296025047839641342e-01,2.978688477091047671e-01,2.660736893221597298e-03,3.207186373495650531e-04,4.749680742285464045e-03,5.435240268707275391e-01
-8.238413833007206602e-03,-2.835792610453297669e-01,3.004837984132366913e-01,-3.201040385320282761e-02,1.746162975400837591e-02,-5.191324704144354568e-03,5.100935101509094238e-01
-1.808348098079226932e-02,-3.326720624629827538e-01,2.855499601615685279e-01,3.520345173158582336e-03,9.243740039322326935e-03,-2.385680429123805766e-03,5.357139706611633301e-01
-1.642873149582234696e-02,-3.285680152070047932e-01,2.321565405139053850e-01,6.141303344367625427e-03,-1.791936297241954537e-02,-2.953665623561265406e-03,4.877718985080718994e-01
-2.385935005937504794e-02,-3.252948510872812338e-01,2.274861835357274709e-01,1.127893700855295625e-02,-1.030258660326052039e-02,1.214660630504246601e-02,4.805674850940704346e-01
-1.161830131096406454e-02,-3.208364582082393057e-01,2.314502055836483163e-01,-4.374507855559871781e-03,-1.073190187390092934e-02,2.054724864423866995e-02,4.811744689941406250e-01
-1.454208299316170697e-02,-3.242677457734206570e-01,2.256851391660656958e-01,1.147408052401507027e-02,-1.076372147940863905e-03,9.726362616592758303e-03,4.782529473304748535e-01
-5.015878695404506205e-02,-5.083391335230121877e-01,1.204067721679649705e-01,-1.160863974424057032e-01,-4.956739043274275419e-02,8.104753173964529545e-02,6.202231049537658691e-01
-1.700839751123824073e-02,-2.400821900312782586e-01,2.444985870365695146e-01,-6.903047453669293454e-02,-3.002596758494823978e-02,-5.867339372197750980e-02,4.514545202255249023e-01
-2.520811363644334668e-03,-3.184211007021983675e-01,1.277884794756298514e-01,4.758908014224486061e-02,-2.376354066036331231e-02,1.239699703588429194e-02,4.085187613964080811e-01
-3.435425171525724464e-02,-3.781214074039020989e-01,2.245376023548153466e-01,-6.709830762296800644e-02,-1.535162582846525715e-02,-8.780067455562284851e-04,5.370430350303649902e-01
-1.203099724840314688e-02,-1.663703192263442376e-01,2.064600958292306943e-01,8.009076265680023510e-03,2.576375735720828550e-02,-3.771447296074446898e-03,3.278828561305999756e-01
-4.118001867237967156e-02,-3.156970104715992043e-01,2.281980619955983336e-01,1.049108909525535080e-02,-2.693921948325591481e-02,1.123427189801115035e-02,4.740875065326690674e-01
-3.050821079928734206e-02,-3.218575243000239561e-01,2.599868131290681839e-01,-3.769627477808918520e-03,2.722749865065079294e-02,9.006866374149347446e-03,5.063766837120056152e-01
9.231253059996724630e-03,-1.157283009221302117e-01,3.467124158356025831e-01,-1.284564027008962099e-02,6.154830057819728889e-02,-7.768349251052511506e-02,4.490475654602050781e-01
-6.300799736962103478e-03,-3.263810369884230789e-01,2.859081292520344042e-01,3.828711171792737421e-03,3.666442077187252475e-03,8.172177302625523252e-04,5.305224061012268066e-01
-2.172354965286814321e-02,-3.268260252740599614e-01,2.430994804773792262e-01,1.028791340076073112e-02,-4.619995229771895959e-03,2.516216596338969897e-03,4.943859577178955078e-01
-1.289408479202070260e-02,-3.570529309564851039e-01,3.429866578144326605e-01,5.322056749880442819e-03,-3.282854519924888713e-03,3.138038122100871193e-03,6.064015030860900879e-01
-1.829048592859170569e-02,-3.210436555704353490e-01,3.266519781101967501e-01,-5.941621038692140866e-04,5.826457723873906076e-04,-3.577129302891562598e-03,5.613534450531005859e-01
-2.980088424201448802e-02,-5.330599582820760851e-01,4.084618472423784397e-01,1.587997336591617098e-02,-8.976115130184519897e-02,2.149607011337360124e-02,8.319961428642272949e-01
2.912120568133822612e-02,-2.801823032068189723e-01,2.814679505467702625e-01,4.399962675642380035e-03,2.810217010338409002e-04,-3.513697901363841401e-04,4.872965812683105469e-01
2.011311545179160498e-04,-3.517947842963768390e-01,3.041574240489413605e-01,-2.814737215152888355e-02,1.287754480635452947e-02,5.924410757413325380e-03,5.711930990219116211e-01
-4.392512240853774230e-02,-3.203920176642970907e-01,2.890679364640211246e-01,5.340220471185484416e-03,-4.756150194922007142e-03,8.753700471704093863e-03,5.289264321327209473e-01
-1.908800566964416467e-02,-2.459835989872285467e-01,3.021046727723178948e-01,1.877072699371842802e-03,1.364571613332960995e-02,9.267076790333748926e-03,4.778602123260498047e-01
-1.115755174291577223e-02,-2.569072552772590501e-01,2.993649310951203568e-01,5.367446271227889650e-03,1.600071515827853827e-02,1.566591117169596759e-02,4.844777584075927734e-01
-1.509276843428369180e-02,-2.832550358847178429e-01,3.005857834780543136e-01,4.850271881148031893e-03,1.202952506249263011e-02,-3.404429705165402682e-03,5.067114830017089844e-01
-1.704245139825801350e-02,-2.862435090017948491e-01,2.950719960707672840e-01,2.700650529943459093e-03,1.492265673805427510e-02,5.705996902840535477e-03,5.046719908714294434e-01
-5.024844002404348087e-03,-2.326832532808590925e-01,2.957178034017219903e-01,2.267442373151658599e-02,1.355140496477415940e-02,1.945704754353346638e-02,4.625690579414367676e-01
-1.514624183949028757e-02,-1.555716079052588408e-01,3.156290408274050052e-01,2.592863302330827152e-02,-1.301663073963237917e-02,7.795848716487210894e-03,4.222420156002044678e-01
-1.450573237457251918e-04,-2.311775489226906011e-01,2.910636684355548676e-01,1.950323133409407814e-02,9.974674211380318845e-03,5.548314354865862760e-03,4.549606144428253174e-01
-1.949670987149136961e-02,-3.102663288790847296e-01,2.876994676922537408e-01,3.040777650581925722e-03,-1.067422030906396528e-02,-1.495172110999700918e-02,5.189219713211059570e-01
-4.762315776780381982e-02,-3.036408456301388226e-01,2.627107831819943673e-01,-4.023573875294724845e-04,-5.590191232803194687e-03,2.729232690825906843e-04,4.913223385810852051e-01
-2.672756864053286996e-02,-3.376838394729766435e-01,1.599730004846860454e-01,1.023470400957520506e-03,-4.915878204296502546e-02,2.430144078118904108e-03,4.437085092067718506e-01
-2.407360676472718869e-02,-4.746799076549181873e-01,2.576159636274969467e-01,6.950169556623594924e-02,-8.334960086988732475e-02,1.970306026656909459e-02,6.677002906799316406e-01
-2.968395130123408637e-02,-3.160720119508602100e-01,2.924294412866244031e-01,-2.636922276973460537e-03,4.324145310409154485e-04,-5.742030783616252580e-04,5.273016095161437988e-01
-3.224332398163930191e-02,-3.089432539489137541e-01,2.953401304343806766e-01,2.867575397517974512e-03,-9.345812891359408592e-04,5.606038595765646705e-04,5.239697694778442383e-01
-2.442724421390757295e-02,-3.605625385915648407e-01,2.609269460058957768e-01,5.003180320537340547e-02,-7.422988524143168954e-02,-1.924762066308948263e-02,5.616785287857055664e-01
-3.598439923828149201e-02,-3.938261554802803821e-01,9.718617487712466474e-02,2.254701096921952683e-02,-4.806005798583594391e-02,7.783253197371312049e-02,4.691132307052612305e-01
-3.150953241603757227e-02,-3.152881272368707744e-01,2.599493857961908128e-01,-6.996448239691417485e-03,-1.356399959994169548e-02,-5.248707319767678507e-03,4.989687800407409668e-01
-2.951086170070987141e-02,-4.686576333903320624e-01,2.572422218410427286e-01,-1.811035115306121974e-04,-6.722406013261922331e-02,2.354979721206729507e-02,6.451550126075744629e-01
-2.270249647597324949e-02,-4.484010569672408075e-01,2.983770828151318666e-01,-4.168677647713631140e-02,-8.973444786177187105e-02,8.131668524633255124e-02,6.857126951217651367e-01
-3.447535090984750472e-02,-3.119753634759283023e-01,2.802611416849044024e-01,-1.947918942764888381e-03,-7.285297026165909323e-03,3.084461334305387339e-04,5.133961439132690430e-01
-5.210249964003997201e-04,-2.889064457638190198e-01,2.873012693833366105e-01,3.092930876925406233e-02,-9.180289046256158306e-04,2.091193235388546850e-04,5.018805861473083496e-01
-4.259687771531395217e-02,-3.109007436140495129e-01,2.655803676438948657e-01,-3.479426732804588151e-03,-1.267679002188902733e-02,-2.473735323559317703e-03,5.001820921897888184e-01
-3.751587160567703555e-02,-3.113016265160880591e-01,2.913097418648877834e-01,-3.035540212890656692e-03,-5.987187100051733109e-03,-5.388827767146219493e-03,5.228145122528076172e-01
-3.262351459286527700e-02,-3.105403760576263550e-01,2.612859023268063186e-01,-6.708393674566755747e-03,-2.432035266902972739e-03,1.826326302703953561e-03,4.954449236392974854e-01
-2.931963075185033823e-02,-3.115064766443675359e-01,2.838894401096102582e-01,-3.473822520747194172e-03,-1.461967995992469161e-04,-8.291214455980290077e-04,5.158984065055847168e-01
-2.195448680486389303e-02,-3.177748914255565382e-01,2.967133087385737666e-01,-7.092854179329872999e-03,-5.712600388953320042e-03,-1.904675051512326077e-03,5.325288772583007812e-01
-5.685715168217007204e-03,-3.169132276824382921e-01,3.143324159853116417e-01,-4.542880517462707241e-03,-2.024751080710841746e-04,-8.345222844731852189e-04,5.467510819435119629e-01
-2.777443779374245622e-02,-3.176965951693501711e-01,3.107410397942840796e-01,-1.216362154539824209e-03,-7.328444741717866744e-03,3.756169623242294211e-04,5.449373126029968262e-01
-7.927960357353634052e-03,-3.074858841702680090e-01,3.097046904124099997e-01,1.428065282032886171e-02,1.174069509344916919e-02,5.421132738386349190e-04,5.355380773544311523e-01
1.553642545354638055e-02,-2.945507961121550666e-01,2.924046180633311787e-01,2.132857982397102625e-03,7.838580076452478403e-04,-3.470312928794831980e-03,5.086403489112854004e-01
-1.511894785656989898e-02,-3.096253368695843777e-01,3.020153431927956045e-01,-3.007156427975538667e-03,1.834598833061012318e-03,-1.994532542157045473e-04,5.298524498939514160e-01
1.149395653919094672e-02,-2.998091810507378940e-01,2.942695980391851207e-01,2.142511899759348346e-03,9.110319233776832334e-05,-2.603093548944326527e-03,5.147181749343872070e-01
-1.824739614245351332e-03,-3.059850096875350589e-01,3.684304677410541462e-01,6.379863950674870277e-02,-1.020659727573567238e-01,-3.365909844522693706e-02,6.237637996673583984e-01
-4.037912122415379668e-02,-3.098043447891907221e-01,2.926459511073178366e-01,-5.285781492967041566e-05,4.877412039223551730e-03,1.358389656870542545e-03,5.227790474891662598e-01
-4.564603442434975872e-02,-3.031237306493655415e-01,2.849876586591432726e-01,-9.579256304963928211e-05,9.269467558703331847e-03,-3.406246491453219924e-05,5.108835697174072266e-01
-4.669868978139561644e-02,-3.044738933265024317e-01,2.783095745833693013e-01,9.362070718423672229e-04,1.142191903961016204e-04,1.111816123320918834e-04,5.058262348175048828e-01
-3.599634415379981273e-02,-3.139022138273683815e-01,2.946900024611947000e-01,-4.521897091204723877e-03,2.788304930911489950e-03,4.631666496289295679e-03,5.278577804565429688e-01
-3.729581438162016954e-02,-3.176044482705316918e-01,2.890943463134923452e-01,8.735171636287983148e-04,2.917465628653159726e-02,-9.703408678191680070e-03,5.286129713058471680e-01
-4.322469295610223416e-02,-3.063790372559285768e-01,2.804373090856045470e-01,1.895434835956740774e-03,1.220984361881616515e-03,3.503759590221118244e-04,5.091129541397094727e-01
-1.344091796749480360e-04,-3.006742766920534882e-01,2.975804684398832278e-01,2.315922765570983116e-03,-4.447081645938905960e-03,-4.765157848666543190e-03,5.182442665100097656e-01
-3.639875960225247287e-03,-3.091328361008257586e-01,1.830237066169623783e-01,1.873707016507241210e-02,7.367960467687517667e-02,1.126043334977692816e-02,4.504590332508087158e-01
-4.668529476682222595e-02,-3.146162895240728896e-01,3.065676033240267717e-01,-3.194793167619158162e-03,3.255374888210781081e-02,1.027766516199014359e-02,5.429077148437500000e-01
-2.150816792057560350e-02,-3.061994228585254718e-01,2.982552053172932149e-01,1.275394097957259065e-03,1.107263130569036526e-03,-8.830444508254507935e-04,5.237771272659301758e-01
-1.967276652376624690e-02,-3.940204531067120208e-01,2.153382116068660590e-01,5.485383926662699625e-03,5.072265369069539620e-02,7.898021627080661564e-03,5.397573113441467285e-01
-4.027749275479351743e-03,-3.345885876717212826e-01,1.926004289502403766e-01,-5.626698517541592337e-03,7.941033502119639043e-02,8.288132378122968838e-03,4.818192124366760254e-01
-2.079143633777913447e-02,-3.519654362241654288e-01,2.561087184928294569e-01,4.456689383072649779e-02,-8.229690716455667632e-02,1.303801568372389523e-02,5.521222352981567383e-01
-1.246308508355966488e-02,-2.452132450999330859e-01,1.681102005838616964e-01,6.747812290439937633e-02,-7.162969133100879904e-02,3.775414479915219267e-04,3.973166942596435547e-01
-4.199962952649351558e-03,-2.177736837152331184e-01,2.017639678923001390e-01,8.860241215096917311e-02,-6.902796201718587599e-02,2.577735987340151746e-02,4.145630300045013428e-01
-1.872868522925164730e-02,-2.107235721682978735e-01,2.712193963254643791e-01,7.322471999387246411e-02,-4.337493592452566771e-02,2.258208333374909019e-02,4.470570981502532959e-01
-3.930300711922907198e-02,-3.804199694737346316e-01,3.153961534972917202e-01,9.785062113803866257e-03,-3.772388599644565382e-02,7.063921346839040910e-03,6.065248250961303711e-01
1.935347236701407542e-02,-2.931607732385607124e-01,2.851490855569326910e-01,1.808652455814753826e-02,3.115397590132964415e-03,-2.231765323459716181e-03,5.023970603942871094e-01
-2.108358350679781501e-02,-3.249263144696203365e-01,2.890136204243134999e-01,5.175721667072538147e-03,-9.684421528346880484e-03,2.448350623783730577e-03,5.320537090301513672e-01
1.917139381056324338e-02,-3.014277335892813769e-01,2.993307116930354894e-01,2.244313356995189523e-02,-8.728413729240248452e-04,-2.906661274810741057e-03,5.221403837203979492e-01
-5.240546761375391993e-03,-2.380246789650922734e-01,2.890484690927153655e-01,3.699047491022751377e-02,-2.557532908450734638e-02,-4.312570246459346973e-02,4.700499475002288818e-01
-2.033317308626776676e-02,-3.218736566633061957e-01,3.036777302575142667e-01,-1.365006292181962641e-03,1.951089461282304273e-03,7.319017878915553546e-04,5.418770909309387207e-01
-1.994148582222052268e-02,-3.202372237115906906e-01,3.066087533807070331e-01,-1.854068515730064506e-03,2.366498178097807201e-03,-7.732094534703246209e-04,5.430498719215393066e-01
-2.053207925530419614e-02,-3.201151091555674566e-01,3.066115455976298754e-01,-1.856277273343011781e-03,2.518582285666359603e-03,-8.645249114398940223e-04,5.429652333259582520e-01
-1.604736283690555432e-02,-2.978426218305389450e-01,3.027719089616917603e-01,4.037658220220653738e-03,8.597136400568397910e-03,7.087932370674618517e-03,5.208813548088073730e-01
-2.077376716868207032e-02,-2.846446199859928305e-01,3.032061330334991367e-01,1.204600901131008036e-03,1.036502653693148479e-02,6.668127248368715607e-03,5.104308724403381348e-01
-1.333927196666874829e-02,-3.202670334876398517e-01,2.264060015263854031e-01,-2.588884815282699488e-03,7.389089214652858366e-04,-6.395220482930326009e-03,4.747750759124755859e-01
-1.777324853802039056e-02,-3.039752774935786106e-01,3.028369616417830867e-01,1.772657676102214544e-03,8.335338307067060443e-03,4.352357880673204775e-03,5.260574817657470703e-01
-2.262854407317996946e-02,-3.036267747392134009e-01,2.755847125510540452e-01,-1.589801602178890364e-03,1.814928552590704038e-03,-8.072789380461332931e-03,5.018979310989379883e-01
1.080306501147708896e-02,-2.749200612791309339e-01,2.888636309587587769e-01,1.754922643995365100e-02,-1.041585597452064638e-02,-6.706662374950852004e-03,4.896815717220306396e-01
-2.036470630918051083e-02,-2.209454173468776428e-01,2.996278541570602250e-01,3.035860708366133146e-03,-1.508268417210720247e-02,-1.378874851952027747e-02,4.561717808246612549e-01
8.575530030182729191e-03,-8.376147250371704378e-02,3.631213530684686552e-01,5.699383468766548722e-02,-4.299858577896679968e-02,-1.362687816180539919e-02,4.275689125061035156e-01
-1.399131412940796820e-02,-1.974876162165702942e-01,3.086679317841353742e-01,5.592253197730286812e-02,-1.997815726442931424e-03,1.588012701783017913e-02,4.551232457160949707e-01
-1.385376351190080457e-02,-6.334571764210297773e-02,3.562824509188156075e-01,5.352713027253305084e-02,-1.204086903535302178e-02,1.159229831607510273e-02,4.089041352272033691e-01
-6.058190690306775039e-03,-7.243750484084032770e-02,4.849342154451208309e-01,4.590347253839063141e-02,4.895706752566449105e-02,-3.490199316629929299e-02,5.433577895164489746e-01
-1.344743700510171724e-02,-4.424331973466152923e-02,3.293832803667809950e-01,4.265068232013002891e-02,-3.617080508065319971e-02,-4.502093530969725893e-02,3.801341056823730469e-01
-3.018423231785415800e-02,-3.098559271035455365e-01,2.868520286366264549e-01,-3.756862891233507702e-03,-5.968990339153605780e-03,-3.588009767185392114e-03,5.172834396362304688e-01
-4.115872126769402894e-02,-3.076477199354846759e-01,2.828094081644801916e-01,-2.659045952923579526e-03,-2.133176334474802104e-03,-2.975090684494921794e-03,5.122178196907043457e-01
-2.901170225642486084e-02,-3.098668517255019350e-01,2.861142291796908155e-01,1.332173256864838725e-03,1.184237292279507168e-04,-1.215305285728172100e-03,5.164285898208618164e-01
-8.008315847015751165e-03,-2.121156868166745868e-01,2.863600004986436853e-01,3.440440548948713040e-02,-5.347947530903601927e-03,2.935365509602003934e-03,4.382441043853759766e-01
-2.546943453527583667e-02,-3.141274368213974877e-01,2.937925101917476245e-01,-6.428246955224334400e-04,-7.068446062389332780e-04,6.731561509954974137e-04,5.267003178596496582e-01
-3.504440701569606909e-02,-3.129218983396583886e-01,2.462804434740638593e-01,-8.152704890467534979e-03,-6.642950767127068362e-03,-6.454875876860833618e-03,4.847578704357147217e-01
-2.955320992829313376e-02,-3.147417948448424374e-01,2.797022045345508579e-01,-1.423058843304701943e-03,-5.295421100352126591e-03,-6.731478552500174783e-05,5.150318145751953125e-01
6.550249073966475481e-03,-2.965797078343201942e-01,2.926602491281082297e-01,-6.451848354418214439e-04,-3.617583065810120978e-03,1.049023162518385741e-03,5.104106664657592773e-01
-2.042749262275225797e-03,-3.322575064957957180e-01,2.970556331374378800e-01,-2.292878095369539626e-02,1.192695454345797657e-02,2.274397715077802144e-03,5.470719933509826660e-01
1.761111418563694742e-02,-2.927392663772928616e-01,2.887048554954444457e-01,1.870223075599657244e-03,-9.554310240545342374e-05,-3.931969044366570858e-04,5.039386749267578125e-01
-1.223667821214867793e-02,-2.392878407064815693e-01,3.004707541590717623e-01,-1.235428898014558942e-02,-9.314980672039443674e-03,6.297976388930909449e-03,4.702934622764587402e-01
4.300451078158065363e-03,-3.064741733890621322e-01,2.929909236166668429e-01,-3.987691373856813368e-03,5.522241881455764741e-05,-7.516427101618384718e-05,5.193153619766235352e-01
-2.233177450153434052e-02,-2.993791192347713404e-01,2.952160757935492486e-01,1.210991180850387637e-04,-2.611144748696754905e-03,6.407123451489376079e-03,5.154719352722167969e-01
-3.120436889420822452e-02,-2.219398392745658144e-01,3.004000524111138937e-01,-1.921634195166235792e-03,-2.726939008393197434e-03,1.444861925776509508e-02,4.585301578044891357e-01
-9.039827126700851478e-03,-2.164058545942919021e-01,2.363729798782653047e-01,-2.088266003730334872e-02,3.016178469678737484e-02,1.127835507669179213e-02,3.981676101684570312e-01
-1.079703605781399955e-02,-3.051412422610750297e-01,2.962792297840168287e-01,-2.980714228022354664e-03,-1.257398897864250333e-02,9.024356259095872232e-03,5.215992331504821777e-01
2.554884992221829326e-02,-2.909112692573981862e-01,2.856478152252027725e-01,2.919150306736730763e-03,-2.289320138847066727e-03,-4.828002751658259581e-03,5.002205967903137207e-01
1.344221414935183566e-02,-2.962784396487456173e-01,2.942984675386815518e-01,1.428485999736708693e-02,-6.445761442344371574e-03,-4.670261905227719376e-03,5.124415755271911621e-01
2.692716930896073974e-02,-2.811046796812063375e-01,2.834308278167538275e-01,2.911891328240120633e-03,5.691363095552452950e-04,9.471680570480747827e-04,4.896101951599121094e-01
1.756483733469189207e-02,-2.701916605596402787e-01,2.893938479863339963e-01,1.131315464099193029e-02,-8.217818726348429317e-03,-7.060227380378109735e-03,4.854394793510437012e-01
1.784377941685731314e-02,-2.895340974956029934e-01,2.897405519618329039e-01,6.916374839286741107e-03,-8.049974224213664667e-03,-2.846722704971608748e-03,5.023407936096191406e-01
1.331462601917721318e-02,-2.820411991455509804e-01,2.811307908629812613e-01,-1.783351566100358250e-05,4.474958004377728449e-03,5.744104886857560980e-05,4.879771769046783447e-01
-5.037248481398173307e-03,-3.078941414625994688e-01,2.962248177975230767e-01,-3.393338176360631477e-03,-2.806567590703155490e-03,1.161634185954667122e-04,5.232385993003845215e-01
-4.100225992458207680e-02,-2.774609049042848774e-01,2.988725409145271961e-01,-2.679494485326153544e-03,-1.770957714903045920e-03,4.570215267248435055e-03,5.018839836120605469e-01
-3.562130625202009071e-02,-3.130575108412227969e-01,2.985483443280476656e-01,1.888151503305567601e-03,8.113027410201222034e-03,-3.276937934546818136e-03,5.306518077850341797e-01
-3.573237252763204752e-02,-3.070859885334323858e-01,2.850272748898627917e-01,-5.812860587230486448e-04,1.612328990465596587e-03,1.375750050914875200e-03,5.133939385414123535e-01
-2.141456239574152098e-02,-3.230397920606606910e-01,3.162424690539764049e-01,-1.462108573762070825e-02,1.229526470582492474e-02,1.683847932716645360e-02,5.556809902191162109e-01
-2.477494240560395786e-02,-3.209583961745249847e-01,3.008485379005248483e-01,-2.285626358602849476e-02,1.672160339119329459e-02,-5.340950887265740604e-03,5.410094261169433594e-01
-4.071660707900957854e-03,-3.773701370357360751e-01,2.837361790291889618e-01,-3.533920862032503829e-02,7.433542833702795616e-02,2.690460404619461621e-02,5.933959484100341797e-01
-2.265988494262719671e-02,-3.312203974306985876e-01,2.233546055680528664e-01,-4.472393185116601590e-03,3.069658630509748687e-02,1.843354186743451084e-02,4.853342175483703613e-01
4.780237629318419973e-03,-3.003194043867409291e-01,2.988589642039287675e-01,2.396402212524423141e-03,2.807148698046820195e-03,-1.617850019133948002e-03,5.189799070358276367e-01
-2.723042229154190585e-02,-1.568331647230051806e-01,4.821533203254524391e-01,9.645715482865858947e-02,-2.361968201874408563e-02,3.246674463166470542e-02,6.124002933502197266e-01
-3.952246148747085019e-02,-3.085020746502541988e-01,2.983895262871081866e-01,-1.778094000141453284e-03,4.716063255126130664e-03,-2.551914763240126661e-03,5.268033146858215332e-01
2.201902654829183265e-02,-2.760963305651424893e-01,3.080026689516532357e-01,3.712601514073415876e-02,-1.512384549402793869e-02,-1.015399149329244272e-02,5.109266638755798340e-01
5.480190222382788634e-03,-1.118879599288167548e-01,4.901941422606518328e-01,7.511586220172024320e-02,-6.050089287561436630e-02,1.758634986620453283e-02,5.783156156539916992e-01
4.581483616104180603e-03,-2.633770290311924778e-01,3.024463686768081305e-01,3.146435982602338588e-02,-1.798768300545914613e-03,-6.680926446828603857e-03,4.934108853340148926e-01
-1.241222825460791546e-02,-3.421091117520317915e-01,2.241784811802377542e-01,-4.474196064097494619e-04,5.204190020892793256e-02,-6.590135040389669477e-03,5.009335279464721680e-01
3.573354981176120326e-03,-3.306661640035368221e-01,1.934809439353143423e-01,-3.565677656925844187e-03,8.880322568589628027e-03,-1.806925483725486600e-02,4.609878361225128174e-01
-1.683031500768990274e-03,-3.179740846824006817e-01,2.051254113681875990e-01,6.743600522995748907e-03,5.260861579488264154e-03,6.655366660421563156e-03,4.566987752914428711e-01
6.919172753524521768e-03,-3.452960073288565135e-01,5.615097647106595535e-02,-1.812430267198517943e-03,2.611450244884338731e-02,3.337098398547587441e-02,3.862850069999694824e-01
-1.784991618277686695e-02,-3.137426565581071247e-01,1.991543056936940503e-01,-9.820357042370136957e-03,-2.165553494336192389e-03,-1.298827588835599171e-02,4.468364417552947998e-01
6.821701064084362276e-03,-3.654321730184644235e-01,7.692269103318985501e-02,-9.521464860469570912e-04,2.969202270600157512e-02,7.731342161277055501e-03,4.152220487594604492e-01
-3.284034122948530088e-02,-3.105911867036356133e-01,1.309237599259850671e-01,7.320817749366573257e-02,-5.275233539033905017e-02,4.123410179503333994e-02,4.230571091175079346e-01
-3.022840877063857207e-02,-3.358548942039004115e-01,1.864335284374575019e-01,-1.154763908065496204e-02,-4.373710027963487179e-02,2.065189317845049499e-02,4.625861048698425293e-01
-2.453289618448379478e-02,-3.166105387712741526e-01,2.378791854176912635e-01,-1.110525205720400838e-02,-9.763125908674549769e-03,-9.432234100491179024e-03,4.813906848430633545e-01
-1.987841830893345360e-02,-2.226152652177878499e-01,1.278580815890509037e-01,1.719298698564057301e-02,-1.749343219726847906e-02,4.210241575867811753e-02,3.162319362163543701e-01
-1.012056790250373886e-02,-3.202474894205448175e-01,2.232459786740522145e-01,-7.217978774643517628e-03,-4.485064551410851310e-04,-9.705490843421352501e-03,4.727064669132232666e-01
-2.147377643668933050e-03,-3.181823742885659945e-01,2.482647738587848152e-01,1.201148846003492711e-03,2.322872290974339806e-03,8.231603136479050814e-03,4.918812513351440430e-01
4.132093947138003320e-03,-3.128051162810847052e-01,1.767105236972384141e-01,-4.991230734935635932e-03,1.256409532408881390e-02,3.424951933120061118e-03,4.307116568088531494e-01
1.930941524052368595e-04,-3.001361369357394837e-01,2.925442024249044759e-01,2.005061422761333575e-03,5.261986199028572883e-03,-2.560062455207317580e-04,5.133845806121826172e-01
4.798421348475029845e-03,-3.030332826983610506e-01,2.968065270022868796e-01,-1.420870534743070429e-03,3.839293972578751717e-04,-9.567100744839789278e-04,5.195456743240356445e-01
-5.320742344076831963e-03,-3.055490747051897715e-01,2.963648850531724888e-01,-1.121429133158873426e-03,5.113202688636396022e-03,-9.638304754603431272e-04,5.213547945022583008e-01
-3.564950264890224228e-04,-3.017595981664483729e-01,2.936607173563194340e-01,1.826986901780032545e-04,2.584737487758152156e-03,-8.259974042270463394e-04,5.156838297843933105e-01
-1.051832490315650695e-02,-3.084903425426162582e-01,2.951293068802529063e-01,-1.810403683653793658e-03,-1.240980029519863585e-03,-9.718981055471116433e-04,5.227805972099304199e-01
3.042326327482910292e-03,-2.755535027601200837e-01,2.866716629325330445e-01,3.438318592482558778e-02,5.013105179385641229e-03,1.279215508398564606e-02,4.911131262779235840e-01
-8.288077813357320328e-03,-3.015054618206847170e-01,3.015606395433622633e-01,3.021425313638941967e-03,7.104584463573355643e-03,2.443580169466646329e-03,5.225250124931335449e-01
9.117350346900358893e-04,-1.947588184361679631e-01,2.882713567712552605e-01,-9.045064838203648039e-02,9.329148366888580235e-02,-9.586726896622531271e-04,4.772284030914306641e-01
-3.742461709305904688e-02,-2.230668699750456563e-01,3.050738378705070697e-01,-6.856848301400060748e-03,-2.026761709258945166e-03,2.292600734450350383e-02,4.659190773963928223e-01
-1.970035652538013049e-02,-1.492298088536646583e-01,3.807013306777487505e-01,-9.042178185854729544e-02,7.346458325544334700e-02,-1.405693576788366941e-02,5.198801755905151367e-01
-1.791691100974641265e-02,-2.671069560603415161e-01,1.259189723310507325e-01,-2.813790120429499400e-02,2.449091181333426515e-02,5.854983532730163864e-02,3.648092746734619141e-01
-3.712875712962958319e-02,-1.459596482514151916e-01,3.026440796233796915e-01,-2.686842239493491408e-02,-4.108604395253553053e-03,4.299154624276100992e-04,4.080250561237335205e-01
-3.805817338869060817e-02,-1.641241137415547224e-01,3.127719164871752833e-01,-3.449763603692503761e-02,-8.734610190329859802e-03,1.048292734603835721e-02,4.328174293041229248e-01
-1.458818482594497964e-02,-2.403845218704891429e-01,2.996284011437783112e-01,-1.386832830521941493e-02,-1.227352130237420111e-02,1.115288234444313659e-02,4.712399244308471680e-01
-2.536136130558735990e-02,-5.484629439721723509e-02,1.939124255086452364e-01,-1.040565191057742957e-02,-8.429823858646968981e-04,-2.321976566460505140e-02,2.394996136426925659e-01
-1.136302393861252785e-02,-2.731174231418906917e-01,2.142312403265286269e-01,-1.657524845774583505e-02,1.885949936886642878e-02,-1.504849078298560981e-02,4.254750907421112061e-01
-7.038726309778413348e-03,-2.510488420812401200e-01,1.235593951716068006e-01,-1.154403124942507408e-02,1.884144294023662458e-02,1.878129237624713219e-02,3.331472277641296387e-01
-1.711562364587455864e-02,-2.227056956648854336e-01,1.942656840774178439e-01,-8.772696668452113766e-02,7.424811702693290272e-02,2.585007519780760377e-02,4.147750139236450195e-01
-2.489583346277857503e-02,-3.060655346434513202e-01,3.051700424421780466e-01,-4.113249220406791262e-04,-7.684774683536687440e-03,2.991428066946950556e-03,5.301027297973632812e-01
-7.669751110652253678e-03,-2.092038597625994756e-01,3.467137065490758507e-01,-4.765258135055626398e-02,-3.466724078159519242e-04,2.413231874635445723e-02,4.961690902709960938e-01
-2.041242132620705446e-02,-2.900012349246747223e-01,2.776583302890868188e-01,-3.384276356382615036e-02,2.245680702394396017e-02,6.261605963573185600e-03,4.969380199909210205e-01
1.098574410224517454e-02,-3.058630395410354974e-01,2.941804947880692356e-01,-1.417687888815727555e-02,-5.003189548185099644e-03,5.405093844572889626e-03,5.206611156463623047e-01
-1.188558798832305835e-02,-2.667607416098349837e-01,2.998546971737767741e-01,-1.914842112423998863e-03,-1.438185920897813545e-02,8.370484415563783989e-03,4.923818707466125488e-01
-1.955950991071694900e-03,-1.747616677481971248e-01,4.235546579256054267e-01,-5.851088947942503088e-02,5.037478689032851009e-02,-3.882519278190330742e-02,5.539470911026000977e-01
3.751552034285540998e-03,-2.719528137642190924e-01,2.864565133000293029e-01,-1.294977570436367173e-02,-6.193588565003923727e-03,-1.274329518708396157e-03,4.842530488967895508e-01
2.235290699669281733e-03,-2.143058381775001520e-01,3.367624459744283372e-01,-5.898820581173466054e-02,5.496754301441827625e-03,2.473352717442672127e-02,4.935606122016906738e-01
-2.064844069720782327e-02,-2.075194808912716460e-01,2.937816922303761458e-01,-5.299935964096490898e-02,2.761156899091012085e-02,1.109320954580867401e-02,4.512517452239990234e-01
-1.855299563058324802e-02,-2.862280294678650194e-01,3.034247712127964847e-01,-7.638923365985650360e-03,-7.141810018516131509e-03,8.777714984912043245e-03,5.119221210479736328e-01
5.936604322731270367e-03,-3.153867775395017836e-01,1.054411190707061075e-01,2.116815164223313089e-03,1.202882441887616165e-02,-5.646999729191986075e-03,3.816623985767364502e-01
-1.713828016218602729e-02,-3.170420418454034661e-01,3.024658748921834062e-01,4.142682286597671772e-03,-4.805500548119909579e-03,-8.205526010906006879e-04,5.367144346237182617e-01
-2.148934956056413464e-02,-3.150039850570245936e-01,3.091187422743960078e-01,-2.012169790024627165e-03,-2.454138967540647233e-03,-6.626862324312481891e-04,5.408533811569213867e-01
-2.323933094021092202e-02,-3.208134467911880616e-01,2.944520355204475193e-01,-7.843076588644144753e-03,-1.243449728146986052e-03,2.878928606985860662e-03,5.331312417984008789e-01
-1.329582864270424138e-02,-3.089254158104204340e-01,3.034309392042051079e-01,8.152181115904386446e-04,-6.300205952456836185e-03,-1.910834511838350276e-03,5.305454730987548828e-01
-2.420423684477870929e-02,-3.077780984410014020e-01,3.010454589268897196e-01,-3.992434409881046747e-04,9.639358443185504785e-04,-1.559881965842310802e-03,5.276783108711242676e-01
6.803659899704665032e-03,-2.471791391320982134e-01,3.416089148064016534e-01,6.055216232803010967e-02,-9.523583068971115673e-03,-3.740906516728205455e-02,5.264092683792114258e-01
-2.076310701348289475e-02,-3.190127756256505021e-01,3.091187347293006260e-01,-4.958686267618987210e-03,-7.843747026410578457e-03,-4.377539991545027244e-03,5.444977879524230957e-01
-3.564834519983084427e-02,-3.173582491240004022e-01,3.023074024367880530e-01,-4.479390151447809783e-03,-5.828312048487634036e-04,-8.661306419687859678e-04,5.374416112899780273e-01
-3.152997728532932337e-02,-3.110705986405068457e-01,2.788673237747528177e-01,-3.548040675126650032e-03,-3.013651262465093933e-03,-4.528106893077922654e-04,5.111983418464660645e-01
-3.397722663862167564e-02,-3.095324308221880094e-01,2.787934945261172914e-01,1.104886263037393318e-02,-2.379673434391586448e-02,1.107702267792436308e-02,5.122255086898803711e-01
1.837216072184374820e-03,-3.004862145075398727e-01,2.982316285847774195e-01,-3.099556370798002558e-02,7.361354758323087125e-03,-1.593852090000446968e-03,5.214484333992004395e-01
9.564438917603165086e-03,-3.040013534748006174e-01,2.898577466019718329e-01,-1.019776954197967401e-03,-1.797798101876995529e-03,-1.767211927901709981e-03,5.145876407623291016e-01
1.680291382158672492e-02,-2.753003922449113738e-01,2.908240075741081454e-01,1.127372548495495647e-02,-7.827433376569254905e-03,-2.654612925998935287e-03,4.909588694572448730e-01
-2.838605897435807213e-02,-3.160415933773909059e-01,3.001711857695829044e-01,-1.003793855413321126e-03,-7.051529265665748038e-03,3.025230115768655793e-03,5.342158079147338867e-01
9.913787973506045167e-03,-2.767345478563419947e-01,2.862611299740663862e-01,-1.045444351532483001e-03,-7.010579471418082811e-03,8.367432470560684282e-05,4.877503216266632080e-01
-2.774307072820947004e-02,-3.195466580212638630e-01,3.010427193833439818e-01,6.398815957572754134e-03,-6.472679829266613123e-03,7.695716744352416525e-03,5.381602644920349121e-01
-9.354957316477716112e-03,-2.872650410309676161e-01,2.816753886879945767e-01,-2.188787200897293356e-03,8.099283255904581036e-03,-7.890726792386542482e-03,4.931641817092895508e-01
1.999613718802416285e-02,-2.959855925259357590e-01,2.871588616163819885e-01,-1.699088317490049299e-03,3.208287951589029676e-04,-4.612743169622866737e-04,5.056169629096984863e-01
3.010076671718963856e-03,-3.206309438998866668e-01,2.975877859112682766e-01,-2.581824653569931172e-03,4.267180588096275429e-03,-1.906922233864461998e-03,5.356701612472534180e-01
-8.078616571436219793e-03,-3.214935120214132414e-01,3.173977369080025479e-01,4.237813049981666833e-05,-1.071243846453926070e-02,2.759049253449574659e-03,5.536605715751647949e-01
1.924248989862938075e-02,-3.013855176722074480e-01,2.876714902659209261e-01,-4.263477696557054983e-03,5.422862281421436366e-04,-2.519738429915737224e-03,5.108784437179565430e-01
5.680227446177743555e-03,-3.112596134586460006e-01,2.982403603443910534e-01,-9.842348891559283761e-03,9.315556548244379592e-03,2.579359315990989270e-03,5.285235643386840820e-01
-1.004820725464155781e-02,-3.186505309102822259e-01,2.342323033867683701e-01,1.344983813129407325e-02,1.873910011158903344e-03,2.948126435413549185e-02,4.831713438034057617e-01
-3.806984533421042816e-02,-2.751154808056539003e-01,3.418674436137696948e-01,-6.124659570529807605e-03,1.367929155732988938e-03,-2.062936674416507299e-02,5.403705239295959473e-01
-1.792864349639758381e-02,-3.262727696401053201e-01,3.158195594191096633e-01,-2.599173982730652692e-03,1.846476903103391222e-03,-1.677740445855249035e-03,5.562483072280883789e-01
-3.369615889847067669e-02,-3.692642582845711008e-01,7.926141672352254863e-02,1.265253206816109414e-02,-7.326509972349119770e-02,8.983736676269133553e-03,4.243772327899932861e-01
-4.041485432427188718e-03,-7.718819814297173121e-02,3.264690635943879871e-01,-4.079632333335302119e-02,-9.690942041509418431e-03,3.194251426077535788e-02,3.835350871086120605e-01
-2.131395059455194751e-02,-3.296142561497470980e-01,2.967099715426979034e-01,-4.926378420958288547e-03,-1.772139139068405278e-03,-2.362698012646547319e-03,5.425257086753845215e-01
-9.419594570928481458e-03,-3.259246407475828722e-01,1.955459283347637245e-01,8.036792880113380680e-03,-1.139663680694750179e-02,1.405553352476333548e-02,4.563277661800384521e-01
-7.789314817432314852e-03,-3.139335735429878982e-01,1.912413963165731645e-01,5.804711657201229794e-03,-1.125525860296288684e-02,-4.853537445505477776e-03,4.413858056068420410e-01
-2.232402368301655837e-02,-3.232907952751544189e-01,2.846696263637247815e-01,-5.943494562707855693e-03,2.849020091465778032e-02,-1.086239601511313651e-04,5.289254188537597656e-01
-1.895810371850316367e-02,-3.318822714997801127e-01,3.048101045319863145e-01,2.364881061078013842e-03,2.447054090062269430e-03,1.067606687126764148e-03,5.514530539512634277e-01
-1.767432129848749839e-02,-3.316439370782509610e-01,2.983996235756101179e-01,4.205298752125994841e-03,2.326621834411765014e-03,6.370002353546047082e-03,5.458097457885742188e-01
-2.991630106266243011e-02,-2.652330069108735922e-01,3.136610298061245916e-01,-2.266105891435583365e-03,8.733982441489505921e-03,-1.531735575997657250e-02,5.051900148391723633e-01
-2.046769455861889922e-02,-3.285331631676459696e-01,3.080090228337377667e-01,2.178240657630768976e-03,3.620047365574451722e-03,1.327660485659446074e-03,5.514095425605773926e-01
-1.878283361124727727e-02,-3.271615078399811027e-01,3.081089065075141575e-01,1.211804882630320747e-03,1.667562143613583519e-03,2.896254959271377192e-03,5.502726435661315918e-01
-1.481315162228394149e-02,-2.946679733936570789e-01,3.022328373495435372e-01,-6.305601081250292173e-03,1.025508040020659158e-02,3.271301627446398879e-04,5.176860094070434570e-01
-1.592187457696180725e-02,-3.610776730264105283e-01,2.357086111851103838e-01,8.854965666868760965e-03,-4.476442586072579971e-03,1.079695122588204478e-02,5.195644497871398926e-01
-1.899856880952802488e-02,-3.293204216153614583e-01,2.971974811679460315e-01,2.551341221258962479e-03,3.558148758851068807e-04,4.302276231255277791e-03,5.426578521728515625e-01
-2.082491102859075280e-02,-3.323734826642438800e-01,3.021797031926111710e-01,3.000464667571617339e-03,2.551470491796100498e-03,-3.177369282317832615e-04,5.496116280555725098e-01
2.323674317481026763e-02,-2.804752738994458761e-01,2.793525541277754320e-01,8.360678635396478348e-03,-3.290957160888997608e-03,-2.972238281105877601e-03,4.856855273246765137e-01
-8.436082763022274833e-03,-2.843590274622699310e-01,3.294919191592416419e-01,8.199127351519865103e-02,-4.975447344221407137e-02,1.991529716573531977e-03,5.578324198722839355e-01
-4.503320276065153269e-03,-3.672913031783697768e-01,3.151387792221522766e-01,1.828414447713024721e-02,2.374598621442078903e-04,-1.211276171585263725e-02,5.926143527030944824e-01
-2.154785783312929137e-02,-5.616842012283711494e-01,4.076444753359081963e-01,-4.716390234967197601e-03,-9.905822143789889955e-02,1.173840743186597632e-02,8.588907718658447266e-01
-6.096279512523089528e-03,-2.907467108227047015e-01,3.383621750525133143e-01,4.283576333292566513e-02,-2.811759548839898315e-02,6.889692133161372765e-03,5.529436469078063965e-01
-2.687161840594730344e-02,-3.238167848488255895e-01,3.170222510523713622e-01,-6.327844972534656977e-03,-1.341726687718579336e-02,3.228229618403379605e-04,5.560733079910278320e-01
-2.789746951793430074e-02,-4.031509519841197098e-01,4.162905311549749410e-01,6.949477398138018125e-02,1.055371567176463174e-02,3.637830489065374019e-03,7.208769917488098145e-01
3.987756964086042188e-03,-4.278066778649410318e-01,3.060486803628957309e-01,4.280435484370861098e-03,-8.661129305936275669e-02,3.385069713073788483e-02,6.588721871376037598e-01
-2.588221890596814276e-02,-3.366171070340425175e-01,3.216691026138744913e-01,-1.027541495124676373e-02,-9.359208689153944785e-03,-2.679786300634896291e-03,5.709163546562194824e-01
-1.779777304984964809e-02,-3.200825482757590490e-01,3.157193930663725889e-01,1.587218343063215941e-07,-6.208672101923996085e-04,-6.000582418595320697e-04,5.508440732955932617e-01
-1.753587016350777184e-02,-3.186892999751512745e-01,3.159622355729344578e-01,5.027120527263531169e-04,1.871899794805099265e-08,6.372920133397904231e-05,5.498629212379455566e-01
-2.145200756807993242e-02,-3.186638265322095376e-01,3.075507169058314116e-01,-1.072736115457804040e-03,-1.777981447651766876e-03,-2.106267926006073678e-03,5.425747632980346680e-01
-2.684056744246163251e-02,-3.202612803157093291e-01,3.109207709752025428e-01,-2.987041619385853546e-03,-9.487288564500854669e-04,-1.258423281593023472e-03,5.471003651618957520e-01
-1.211285248859582907e-02,-3.115610030613573667e-01,3.096357002518774770e-01,1.708936841818733086e-03,-1.144489990519692986e-04,1.649165646601652554e-04,5.380958914756774902e-01
-2.138515617710078087e-03,-3.071035119002608615e-01,3.030519849779210739e-01,7.835731224625492979e-04,-3.408100839728468463e-03,-2.648019230512300808e-03,5.284647941589355469e-01
-5.081626296027698386e-02,-3.155662279844122509e-01,2.858300614824341723e-01,5.502063305982714606e-03,-2.373051253356776510e-02,6.624884722324068768e-03,5.238915085792541504e-01
1.393674047383717217e-02,-2.519987443548534767e-01,2.817674072861852119e-01,1.608964054959081957e-02,3.943534904341589736e-03,-1.422371999508127054e-03,4.631522297859191895e-01
-3.030727019835043404e-02,-3.241082223682564267e-01,3.157334203900331593e-01,4.839345925386769704e-04,5.874274759567902141e-04,3.554598849467037469e-03,5.547701120376586914e-01
-2.571374845840049966e-02,-3.105201286014688256e-01,3.017772315973045738e-01,-2.004538597076773593e-03,-6.537342380686097035e-03,5.896815888409019657e-03,5.309247970581054688e-01
-3.569863966325413640e-02,-3.137256881937691144e-01,2.982023886750329034e-01,-1.856381487241383571e-03,4.706737026971658314e-03,4.971654981748563351e-03,5.308233499526977539e-01
-2.585057435997579339e-02,-3.271496808213794072e-01,3.060338541434158843e-01,8.316088730509728355e-03,1.199503374192718245e-03,5.206521193937268567e-03,5.488333106040954590e-01
2.067917827184082361e-02,-2.956707676492018599e-01,2.862246092252857532e-01,-8.003585369085694859e-03,6.080250207329296677e-03,-5.539033360081263915e-03,5.049673914909362793e-01
2.382149850728253193e-02,-2.827591478648405210e-01,2.839806911316627991e-01,-1.119860459885589458e-02,3.069719605953749250e-03,7.516422688338489106e-04,4.917727708816528320e-01
-1.519508572775226177e-02,-3.742071868381247057e-01,3.688291190943699949e-01,-6.369182038809223338e-03,1.884793646576238269e-02,6.992625040394184234e-03,6.446454524993896484e-01
1.817608360531344086e-02,-2.909025146700075504e-01,2.929734157463640964e-01,-5.903127906667248424e-03,6.713087524527461790e-04,-1.156359235654812103e-03,5.060504078865051270e-01
-1.324430518368280296e-03,-2.569976394943765396e-01,3.271323263241163182e-01,-5.594304515636576436e-02,9.901462267922676863e-03,7.243007765133805363e-03,5.167887210845947266e-01
8.968864893779796704e-03,-2.824899698594766084e-01,3.137962495472482738e-01,2.473681789319834984e-02,-8.861678681933961993e-03,-1.887939514722768164e-02,5.194739699363708496e-01
2.188509781514310498e-02,-2.824017481590782586e-01,2.828915328282946007e-01,6.889169198846268986e-03,-4.009151810926996420e-03,-3.855107444172548763e-04,4.902312755584716797e-01
5.000987880559727705e-03,-3.205715940049357893e-01,3.329007770881325934e-01,4.134746982261350984e-02,9.937415033208833043e-03,-9.452863470370565999e-03,5.709326863288879395e-01
-2.026016084419181990e-02,-3.138918150776823235e-01,3.017376439048065628e-01,-2.564434787010073848e-03,-2.099851165322314233e-03,-7.667809430238804204e-06,5.333702564239501953e-01
-2.187039104828055608e-02,-3.152411891846700343e-01,2.334216721556224283e-01,-6.760462235263730441e-03,1.536998552393945006e-02,-4.981874363874913558e-03,4.765039086341857910e-01
3.296697425765500455e-04,-2.812629341044703413e-01,2.969845623060818340e-01,3.125103977970527386e-02,-1.544483592991016674e-02,-3.063279148852226033e-02,5.072425007820129395e-01
-2.403813395240832554e-02,-3.165604837844810393e-01,2.975043527558343115e-01,2.986049503992718387e-03,-1.298684527022364935e-02,1.144788177354477687e-02,5.328631401062011719e-01
-3.550234476974514775e-02,-3.149270872374341779e-01,2.815564850512496387e-01,5.514946947641419933e-03,-2.857539537197647129e-03,8.565993399166263456e-03,5.172373056411743164e-01
-1.520483926416393156e-02,-3.204533243980359769e-01,2.920159923475392771e-01,3.208401362793225197e-03,2.488302128693707562e-03,3.753789914547089532e-03,5.305013656616210938e-01
-3.880522867905745327e-02,-3.132908913009884722e-01,2.802011624840906046e-01,5.150524011286066774e-03,-5.134548344997168917e-03,8.478858637560197919e-03,5.148246884346008301e-01
-1.844542486883457566e-02,-3.126551940061033652e-01,2.984527516897926280e-01,-4.062156397902474785e-03,3.614742114896618585e-04,1.444235479726600009e-04,5.294037461280822754e-01
-1.674525874701467479e-02,-3.283374558363330586e-01,3.026189621457349155e-01,1.569661398359363264e-03,4.089924770091938125e-03,9.120824530508641172e-04,5.464930534362792969e-01
-6.996156396207093078e-03,-3.081943228260739520e-01,3.228869823562370289e-01,-3.420858515532900629e-02,-7.125091708029772895e-03,-1.425819923722774878e-02,5.506144762039184570e-01
-1.544847580115943364e-04,-3.112818969315895856e-01,2.947835679817319976e-01,-5.469873857053316434e-03,4.426593703747969989e-03,3.500025391778207456e-03,5.251069664955139160e-01
-2.706592030163385704e-02,-3.131209944433851478e-01,2.966727381245373718e-01,4.828579664533587390e-03,1.549787317335689146e-03,6.363194489074321808e-03,5.286207795143127441e-01
-3.680233647082133824e-02,-3.155531351475397428e-01,2.929570448990491682e-01,5.516878208209702317e-03,-5.311834998072244296e-03,7.964869813623168260e-03,5.279490947723388672e-01
-2.139392926514412790e-02,-3.293336894244466295e-01,3.048953751699468584e-01,9.143177224001934784e-04,5.498650955476159889e-03,-1.331868031694430224e-03,5.494247674942016602e-01
-1.917358089681826111e-02,-3.300814568484280453e-01,3.046996754368995752e-01,4.980642127741198230e-03,5.876910372184435127e-03,8.081050350313628361e-04,5.499384999275207520e-01
-1.856355007539511187e-02,-3.292316516757165523e-01,3.049806050026331317e-01,1.278118336891484073e-03,2.569381045009333422e-03,9.605337535043369018e-04,5.493066906929016113e-01
-1.878443766765779468e-02,-3.267590584410724475e-01,3.095079975372281300e-01,2.594022797382040686e-03,9.198223400206187797e-03,1.398002662326757860e-03,5.513709187507629395e-01
-1.980399552333433899e-02,-3.341575442262764706e-01,3.029789429121885758e-01,2.186937008039957497e-03,3.237025033742318546e-03,-1.465938087516582703e-03,5.518398284912109375e-01
-2.320429482751919931e-02,-3.285412705131238176e-01,2.739240703510837371e-01,8.563092811844698685e-03,-2.810531839477322952e-03,8.560812564260387655e-03,5.222104191780090332e-01
-2.153766492854404177e-02,-3.288952012837697558e-01,2.708313243285621064e-01,8.380452820832755972e-03,-5.788316710049784975e-04,7.305982147851953698e-03,5.197902917861938477e-01
-1.959393366663070291e-02,-3.296941304113930604e-01,2.802484141973977105e-01,7.878625838664474884e-03,-7.846578503101931529e-03,6.229750283970302829e-04,5.286027193069458008e-01
2.343149533276922547e-02,-2.309414663372628129e-01,2.767277687396471064e-01,1.509475481788533253e-02,-4.190349062236653661e-03,-1.557999562723027046e-03,4.404995441436767578e-01
-2.239006782077658866e-02,-3.281597928325414304e-01,2.721619616998778857e-01,9.785819051412049385e-03,2.809304082984983458e-04,7.394683789788386585e-03,5.203582048416137695e-01
-1.791727127160345698e-02,-3.237596385932959286e-01,3.082302272383360409e-01,1.127560118189504515e-03,9.150206791557775193e-03,2.305397388240648660e-03,5.476608276367187500e-01
-5.378001289881861879e-03,-3.554332677654561401e-01,1.073367165349770613e-01,-1.155269285216463729e-02,-4.678095979491089795e-02,-1.933528611472364392e-02,4.275359809398651123e-01
-2.429209896047664075e-02,-3.307732497974861796e-01,2.727758854680390477e-01,-6.553691155120330847e-02,-4.141686090527960107e-02,-5.859325566928832302e-03,5.397778749465942383e-01
-1.672410559308387668e-02,-3.680431245853174604e-01,1.042911594570754830e-01,8.264688384181338721e-03,-6.209104422912496007e-02,4.630386987769506690e-02,4.458560943603515625e-01
-2.641158377270844126e-03,-3.527736302639544741e-01,1.580253022868911561e-01,1.511587679468510623e-02,-9.495447597135613094e-02,9.984084092153743678e-03,4.823842644691467285e-01
-1.875173187818005016e-02,-3.288896530150511865e-01,2.761681937757319849e-01,-7.437516958361748386e-03,6.106685517667942951e-03,1.048844757772374008e-02,5.246303677558898926e-01
-6.145559842044578253e-03,-2.516287341294852209e-01,3.011933699895282257e-01,-1.320958096729263516e-02,1.407485429318951035e-02,-1.088333386222705909e-02,4.812887609004974365e-01
-1.932193921209925808e-02,-3.299526734388261717e-01,3.042198704495573391e-01,1.253900351405609539e-03,6.193138668383757137e-03,-9.552619990797974359e-05,5.493565201759338379e-01
-2.251395337728704163e-02,-3.200140857385687654e-01,2.780374307946880119e-01,-7.260551573001336120e-03,-1.179226372218156703e-03,2.043664919377325730e-03,5.180988311767578125e-01
-2.072084005189969713e-02,-1.484324776273929225e-01,2.987088483837519459e-01,2.762087939024307839e-02,9.828542766695079827e-03,2.139974212460851732e-02,4.038475751876831055e-01
-1.492107217799587202e-02,-3.021816339049583910e-01,2.674762916089296616e-01,-4.119904871021849019e-03,-2.037520677908126032e-03,-6.030438412069209428e-03,4.935190081596374512e-01
-1.929846852788348957e-02,-3.125556236550599554e-01,2.974845955973169920e-01,-2.955905164469789775e-03,3.965746902274019416e-03,5.745051013909647890e-03,5.286043882369995117e-01
-1.518284758322893668e-02,-4.182370509262119396e-01,-8.637884478445739811e-03,5.455735013760701357e-02,9.882478251264920424e-03,-2.816078667642407315e-02,4.203987419605255127e-01
1.241990527200770474e-02,-3.010633071896672841e-01,2.919950752305768837e-01,4.703905867810801063e-03,5.040712007177761134e-03,4.116589507593127611e-03,5.140715837478637695e-01
1.767271221125536057e-02,-2.377994219550460531e-01,2.989457845539125191e-01,2.725357766207118365e-02,1.023501374357233332e-02,1.877020665921186673e-02,4.688683152198791504e-01
-2.865133725452080529e-03,-3.205568652241561067e-01,3.221797930181004022e-01,3.019035038026932766e-02,-1.860485480946745887e-02,-3.374934632910833125e-03,5.600475668907165527e-01
2.374018986992555702e-02,-2.732632183160733086e-01,2.839334548963047822e-01,4.619944701109395327e-03,-3.755607860318825944e-03,-2.258315587903270659e-03,4.830232858657836914e-01
2.148726418273036801e-02,-2.120575425889028864e-01,2.989076432111275605e-01,3.327721900388914272e-02,1.164266205964112257e-03,3.875338506263248210e-03,4.468406438827514648e-01
1.221496758400246463e-02,-3.060295982302819184e-01,3.071767140838590482e-01,1.575262129344338858e-03,-3.264022760132923723e-03,-2.801408210549710502e-03,5.312390923500061035e-01
2.102209097125726928e-02,-2.643396917234344667e-01,3.092702819551983451e-01,5.534052680243007477e-02,-1.640193999304388663e-03,6.902048989245202285e-03,5.060752034187316895e-01
-1.287626937757385681e-03,-2.584015119028099106e-01,3.409221334047604635e-01,4.832471593040919833e-02,-2.650298870902349779e-02,-8.797385210936087621e-03,5.296670794486999512e-01
-7.173533924525616820e-03,-2.678616118350910513e-01,2.870910748260441792e-01,1.480904888123114188e-02,1.487181225578035858e-02,9.314431865581026745e-03,4.825380146503448486e-01
-1.564898142925199437e-02,-3.066278179913941027e-01,2.971313840163682940e-01,-7.619596878207705523e-03,7.376769955798839415e-03,-3.040209123200289694e-03,5.233334302902221680e-01
-4.339527958159149386e-03,-2.939180139928850855e-01,3.059035616522462475e-01,-1.989851985513114638e-02,-6.004386342289713512e-03,1.145584476314914259e-02,5.211870074272155762e-01
-2.376306656380125504e-04,-2.317329764042800333e-01,3.294785595785610921e-01,-6.749783992144550715e-02,1.897459235178169945e-02,2.779436595918891202e-03,5.033903121948242188e-01
-2.236428849465126739e-02,-3.113933287320738152e-01,3.029887749242034523e-01,-6.170319019974919786e-04,-2.155244664825538975e-03,4.304380959467332853e-03,5.324467420578002930e-01
-2.439762939943100617e-02,-3.071283414003155299e-01,3.039420980074348799e-01,-2.050324223172880420e-03,-2.784305136431206550e-03,2.704319213965703829e-04,5.297276973724365234e-01
-2.117883570898264345e-02,-3.242862473224216724e-01,2.998468997002323722e-01,8.809439929597019008e-04,6.763642497906590138e-04,4.163867423218590730e-04,5.405933260917663574e-01
-1.989194515467756705e-02,-3.168658309974914378e-01,3.018825492713204106e-01,3.892728181843278204e-04,-1.077993959686346197e-03,-7.604257797350188596e-04,5.360005497932434082e-01
-1.315571301887227991e-02,-3.456245498683932493e-01,3.236400304469627676e-01,-6.378954979029655137e-02,4.471182863215369258e-02,4.624659611658461442e-03,5.951553583145141602e-01
-2.838060013817538668e-02,-3.770618023950740860e-01,3.127480583707145101e-01,-4.325219507647784858e-03,1.250655252046737817e-02,1.117788106282576605e-02,5.981577634811401367e-01
-3.955577387645942133e-02,-3.178544340462953199e-01,2.234127208280946575e-01,1.473932983392896648e-02,5.136432987841184350e-02,-1.095540043543880883e-02,4.782395362854003906e-01
-1.982977531321244991e-02,-3.189674133284401414e-01,3.108093571545516576e-01,6.821611309836694706e-05,3.874989017395617623e-03,-6.590784979717192061e-04,5.456725358963012695e-01
-3.105707766439357032e-02,-3.269131435728628854e-01,2.988327733527829655e-01,4.326726376907659953e-03,7.268843918421930396e-04,3.161639052442504708e-03,5.422598719596862793e-01
-2.236428163944402178e-02,-3.561437106711092815e-01,3.485465529357117953e-01,3.747280061001204057e-03,5.399249756258668598e-03,-9.462845371220829360e-03,6.108880043029785156e-01
-1.982503155257116234e-02,-3.223223402220901090e-01,2.607631131974736949e-01,1.105031083436830083e-02,-1.207726953866656563e-03,-1.794772650237400036e-04,5.054525732994079590e-01
-1.454944579660958498e-02,-3.246925826150348637e-01,2.204169666313771647e-01,1.228709364283698049e-02,-1.493722928664073003e-03,1.480568598529230159e-02,4.747509360313415527e-01
-2.030654753939611229e-02,-3.447618645627822387e-01,3.078175107748491457e-01,-1.841843291884236178e-02,-1.762980681493997795e-02,1.076477925375450215e-02,5.671825408935546875e-01
-1.810451141158192501e-02,-3.199976654658989728e-01,2.963634736709356288e-01,4.862168563995969764e-03,4.421875976840593248e-03,2.014080545914369823e-03,5.339542031288146973e-01
-1.545835684995025203e-02,-3.190338011251649397e-01,2.297437279592879911e-01,4.197203058871266414e-03,-2.232632111652143800e-02,1.155339078417390655e-02,4.781925678253173828e-01
4.598779068428190953e-03,-2.994183276850228559e-01,1.344615542673814057e-01,4.257714531883519983e-04,-2.041065972766736847e-02,-4.042240613691543659e-03,3.873894512653350830e-01
-2.398958319257410085e-02,-3.376635786413131890e-01,2.350403761601164154e-01,-1.853284386959849111e-03,3.565649414136190520e-02,-4.081755764915553919e-03,5.006129145622253418e-01
-3.573204090167440145e-02,-3.078406339089758692e-01,2.756391036189929644e-01,-4.788557816712068343e-03,-1.910371190316026294e-03,-1.478667957025439931e-03,5.057747960090637207e-01
-2.979057133631222987e-02,-3.102827493026158456e-01,1.503319120160103994e-01,-1.554068661498452398e-03,-6.048398351692130248e-02,-6.960285642758527042e-03,4.156566262245178223e-01
-3.139614552997787439e-02,-3.105950336902308373e-01,2.790004995193328119e-01,-2.590665828328811600e-03,-9.553774824344717228e-05,-3.428084344085371819e-03,5.108971595764160156e-01
-1.171842980563005121e-02,-3.578099854294002902e-01,1.447746211510125558e-01,4.574860827319592038e-02,-6.982163447164832504e-02,9.441740248033814523e-03,4.686169028282165527e-01
-1.899001733785151552e-02,-3.558760077890061879e-01,1.441259573983953712e-01,1.097986266581919487e-02,-7.394095659084951033e-02,4.575168664928221975e-03,4.603007137775421143e-01
1.097297160759041351e-02,-2.551496613392081336e-01,1.164707219109678837e-01,7.055017813763442280e-02,-7.214652035427561449e-02,1.350583476818126294e-02,3.756606578826904297e-01
-2.301035034129161883e-02,-1.051908671986796773e-01,3.376212321706101305e-01,7.702540535468119232e-02,-4.940577414069834659e-03,-4.900083228442640715e-02,4.376309812068939209e-01
-1.204748949169837102e-02,-7.049321943225447806e-02,3.196629339873874320e-01,6.203800294166555290e-02,2.022055101000902466e-02,1.105324800228542174e-02,3.820655047893524170e-01
1.122393916177900214e-03,-2.220401843612124781e-01,2.865482232673992602e-01,2.660337846908144080e-02,-9.442773487033663191e-03,-1.799542332609133490e-03,4.442591965198516846e-01
-2.291673275964748249e-02,-3.166949241194727538e-01,3.193792037461091193e-01,-1.091098063437651164e-03,-5.478771140986254257e-03,-4.161707826506594668e-03,5.515222549438476562e-01
-1.966659456092963512e-02,-2.808621495435010829e-01,3.024652667289955965e-01,-1.413357525950049206e-03,1.828568458643365507e-02,5.111206369698710096e-03,5.071675777435302734e-01
1.693447520582197149e-02,-2.685500114798569649e-01,2.802906295153219096e-01,1.836529322327831899e-03,-4.995958648465498309e-03,-1.595232343580355169e-03,4.755361080169677734e-01
4.310731813551686026e-03,-1.975615145320510635e-01,2.887451045482675172e-01,1.884564719550681569e-02,-9.599901248661280029e-03,-4.526737512896420075e-03,4.248271882534027100e-01
4.183471021218861108e-03,-1.747991124785248651e-01,3.668537580570548906e-01,7.740880975421138288e-02,6.530682206558122149e-02,-3.318774435818117735e-02,5.123980641365051270e-01
-1.982076860616449610e-02,-1.372536578830386156e-01,2.740057229314157849e-01,4.624969455842124072e-02,2.448425962097182731e-02,-3.407379105679365916e-02,3.825284242630004883e-01
-4.518077410408383177e-03,-2.857155529222473733e-01,3.031854981257171011e-01,-9.614818885314498076e-02,-6.667802705419685616e-02,4.059895447030186649e-02,5.534393191337585449e-01
-2.862773672593239838e-02,-5.273285567251322359e-01,3.149996813424749131e-01,-6.009660425735813272e-02,-9.093120620178286873e-02,6.516747058350390309e-03,7.575732469558715820e-01
-1.403219617509534646e-02,-2.674378423193210508e-01,2.734156860904576880e-01,-3.997796642248562654e-02,-3.727700369238821226e-02,7.467475480941741621e-03,4.783433377742767334e-01
2.237092966386810405e-03,-3.414132470117982598e-01,3.426954178669512352e-01,-2.766329042445744846e-02,1.083138188086851285e-02,-1.158107201154382664e-03,5.946913361549377441e-01
-2.890217606752759627e-03,-2.782068172275139473e-01,4.770045149030947562e-01,-3.127833006758984347e-02,-4.522339857616898551e-02,-2.632407936380177713e-02,6.703510284423828125e-01
-4.168175798731517216e-03,-3.320664362648313439e-01,3.075023334492656968e-01,-6.142078808411648855e-03,-1.281953039753335431e-02,1.608804223069815534e-02,5.551888346672058105e-01
-3.660808435001811079e-02,-3.911661819002794083e-01,2.545319372695368232e-01,-4.758068353465586507e-03,-3.591569459415345361e-02,-2.262362845002282782e-02,5.649541616439819336e-01
-2.001299310268839574e-02,-3.838342840594868854e-01,3.117018593472145604e-01,-8.850881826320097789e-02,-6.210824393124725340e-02,-7.040163389703479012e-03,6.311165094375610352e-01
-1.091971665033635019e-02,-1.518112110364751299e-01,3.409529758206227279e-01,-8.522361771466602232e-02,-3.309380796162288141e-02,2.684236737331154726e-02,4.695498049259185791e-01
6.542750495165811087e-04,-2.275341457506019349e-01,3.259481889914013775e-01,4.983413811149974004e-02,3.139069751933551422e-03,-2.958374710479112421e-02,4.921583831310272217e-01
-2.900459153298964865e-03,-2.244745868676411849e-01,3.002815214739470440e-01,1.619971628130040947e-02,-1.352524233725650726e-02,-9.779631470340704319e-03,4.580553472042083740e-01
-5.996423265141010567e-03,-2.891678650754235247e-01,3.046434285614516568e-01,5.380612690470673587e-03,-1.130962097004343213e-02,-4.044278819229323377e-03,5.149438381195068359e-01
-2.026741780541816557e-02,-3.184995928267984611e-01,3.088514425916980555e-01,-2.278791247073317164e-03,-2.606529019884543021e-03,-1.694361526931777639e-03,5.435623526573181152e-01
2.359746619876194537e-02,-2.350088244743084309e-01,2.832378625359752156e-01,1.506518484229916154e-02,-5.709521912435109627e-03,-2.210282544593453712e-03,4.496980309486389160e-01
1.940782044593896555e-02,-2.900875286171359924e-01,2.880314838633623031e-01,5.866633695987350438e-04,-6.142257401567604615e-04,-2.307197232019659542e-03,5.011007189750671387e-01
1.817818848049344849e-02,-2.871021756243303247e-01,2.899412710769175283e-01,4.915043149203969508e-03,-8.055659486555058132e-03,-3.313294474568409358e-03,5.003151893615722656e-01
7.446684547712790342e-03,-2.944271941069116494e-01,2.991875475867229461e-01,1.690773122969451477e-03,-1.983364981893005318e-03,-4.055744512301113006e-03,5.141782164573669434e-01
-3.382316572490733433e-03,-3.340506863482884947e-01,3.278487479066833910e-01,-3.198013043895776841e-02,-1.201825965286285741e-02,2.828891098032652526e-02,5.783472061157226562e-01
-2.970715403323680517e-02,-3.247033194681916424e-01,2.702452150668331332e-01,1.234648066603063511e-02,-1.510106722248794053e-02,2.124630125873439024e-02,5.176626443862915039e-01
7.162023605005209993e-03,-3.145524453145002730e-01,3.168628846080291939e-01,-2.374418152116960362e-02,9.527406169973221678e-03,-1.038908320872455882e-02,5.489422082901000977e-01
-3.286369055165386938e-02,-3.161062202747024763e-01,2.892459446556447378e-01,-1.063532390211558657e-03,1.397532071008486185e-02,6.118762882883475342e-03,5.252787470817565918e-01
-1.521359269307236833e-02,-3.146023380365912669e-01,3.040258269109269440e-01,3.085354156790745973e-03,6.884687481342741718e-04,5.267190634020648202e-03,5.359452366828918457e-01
-2.853560090315326869e-02,-3.106606364166413781e-01,2.914956376338372346e-01,1.275544922902103031e-03,-6.102205228882568583e-03,8.659221980396585028e-03,5.221540927886962891e-01
6.359737133298971543e-03,-2.963627345942084212e-01,3.020811396530335702e-01,-1.277538470660953898e-02,7.849749664671888325e-03,-2.515286695728795579e-03,5.189480185508728027e-01
1.322295650036464480e-02,-2.962427626755152477e-01,2.877999099280770801e-01,-4.918239286775974960e-03,2.233228326959459369e-03,-1.952996618654950702e-04,5.061830878257751465e-01
5.192033129699707983e-03,-2.237250028927904588e-01,3.041311328532402269e-01,-3.359525598426192639e-02,2.124420918784092685e-02,-2.623930701540413274e-02,4.658381938934326172e-01
-1.531304450811668202e-02,-2.886103578245336476e-01,2.400865401601184890e-01,3.913697691111790722e-02,-6.171023701356759955e-02,2.540434116336463474e-02,4.771541655063629150e-01
-4.336122220269333916e-02,-3.155166186952422791e-01,2.227389317725945173e-01,-6.484235373531423326e-03,-3.094865675594381249e-02,-9.791168452153064389e-03,4.696654677391052246e-01
-2.690058085099539253e-02,-3.269134276196458688e-01,3.234600261469583460e-01,9.477070653034304348e-02,-9.145955519170509418e-02,-3.468093217050311622e-02,6.111630201339721680e-01
-3.552666680984627526e-03,-2.785862204083509597e-01,2.796896920188985391e-01,4.572031497352339879e-02,-6.545019255229748978e-02,-1.101758049197321988e-02,5.032466650009155273e-01
-2.551927417676566612e-02,-3.185301336725949173e-01,2.899337722423214747e-01,-6.958246312518689275e-03,5.715390505119169462e-04,-2.616641123956678101e-03,5.272228717803955078e-01
-3.777974692747024243e-02,-3.045654465043986514e-01,2.600209786395626943e-01,-2.792982257919062686e-03,-1.830570663295685505e-02,-1.559465531978070215e-03,4.902497828006744385e-01
-2.289551344842087263e-02,-3.101124970489337884e-01,2.895020078562079435e-01,7.835327818183052129e-03,2.770890754318011077e-03,-1.061409324520072583e-02,5.199584960937500000e-01
-3.634003816076901427e-02,-3.109204754985303021e-01,2.909047948293889130e-01,-4.503614045655115507e-03,-5.944522446488046015e-03,-4.854278998794938314e-03,5.220882892608642578e-01
-2.819047570691974453e-02,-3.092552676375876497e-01,2.382924750324201257e-01,-1.221772243984791881e-02,-2.120619566139785375e-02,1.719326677194374766e-03,4.761463403701782227e-01
-4.906549558759012303e-02,-3.039520433207001937e-01,2.770663654339660109e-01,1.691061108280189932e-03,-1.612310640346549181e-02,4.603439110252545777e-03,5.052798986434936523e-01
-4.227397772114081104e-02,-3.068179831253262657e-01,2.997339284555937122e-01,3.619862503191531144e-03,-2.611574029738951072e-02,2.701131099714708991e-03,5.287119746208190918e-01
-4.090385516204887717e-02,-3.047138357897235528e-01,2.554941076892306984e-01,-5.298899188608419825e-04,-1.623640122564099994e-02,2.062214919987205217e-04,4.862427711486816406e-01
-1.577187275468166019e-02,-3.007324581750014381e-01,2.671263158735375232e-01,5.400708850973673196e-03,1.877740856832850252e-03,-2.839372876640911501e-03,4.919055104255676270e-01
-2.166385703648125716e-02,-3.158205083405568048e-01,2.560490162636954725e-01,8.623821239083940410e-03,2.179941544918735858e-04,-8.443666256105646084e-03,4.957628548145294189e-01
-2.772063102330119683e-02,-3.592178093380155590e-01,3.399631646667164997e-01,4.198932181978695839e-03,2.598049134010556316e-02,-9.080984443663132552e-03,6.076949238777160645e-01
4.675871503568284140e-03,-3.263584822355294901e-01,3.747657486373600633e-01,4.318425967271762034e-02,2.433278132227939539e-02,5.496964706287272608e-03,6.136157512664794922e-01
-4.263667872382583685e-02,-3.060934218212869595e-01,2.544698005819997499e-01,-2.938059842810045522e-03,1.723499272993427034e-02,4.542841873623156175e-03,4.867600798606872559e-01
-1.675208269404260264e-02,-3.183307829176730275e-01,3.238131535587757126e-01,1.770521823488009627e-02,1.469524301194792028e-02,-9.561690727112475557e-03,5.581255555152893066e-01
-1.021264162961388333e-02,-1.644325737978554469e-01,3.317220008391125741e-01,1.027763415307378914e-01,2.873975322490124676e-02,-8.375980912617557797e-03,4.772981703281402588e-01
3.959585699018525629e-04,-3.030462350477555189e-01,3.071824253047424902e-01,1.244489251247007456e-03,-6.057320872640834311e-03,-4.807128209186955006e-03,5.286502838134765625e-01
-4.001267701641317287e-03,-3.107391919841416272e-01,3.065372400384633322e-01,6.065608054395904558e-03,-5.369587439255380651e-03,-6.816393239668357661e-03,5.348948836326599121e-01
-3.056940586179533736e-02,-3.135453712560772321e-01,3.018909683522530973e-01,-2.964067765134367240e-03,2.403273948831614014e-03,4.460966980737561278e-04,5.335989594459533691e-01
-1.523826534922505249e-02,-1.970595256894654146e-01,3.041590895077410095e-01,8.888520024800429520e-02,3.016448785325474141e-02,-6.019995077095295632e-02,4.800525009632110596e-01
-2.112977173113257667e-02,-3.087920478492165444e-01,3.099152569430830284e-01,-9.333398764972556782e-04,-7.600739653008115049e-03,-9.061851288960020082e-03,5.366486907005310059e-01
-2.803274775064450164e-02,-3.162318719724262484e-01,2.709360963204532347e-01,7.585151783004518908e-03,8.704682080842639919e-03,-5.761419713071727795e-03,5.090217590332031250e-01
-6.746599248211068711e-03,-3.049294963634796019e-01,1.908624593048023343e-01,3.232251243920352454e-03,3.007950605700177721e-02,2.301410409334552626e-03,4.354854524135589600e-01
-3.590934508302696948e-02,-3.147405349045061529e-01,2.985248648353047707e-01,1.866932122234321156e-03,7.774029312193070883e-03,-3.122929169501837895e-03,5.320383310317993164e-01
-1.807439027323484368e-02,-3.151511457296530261e-01,2.396288604643265208e-01,5.789339456965228795e-03,1.978623439578412399e-03,3.351669792092067546e-03,4.810085296630859375e-01
-2.173468688901195392e-02,-3.169967163894539808e-01,2.540390549829786293e-01,1.271677626576763268e-03,1.399481768517291634e-02,-2.568823247397311431e-03,4.952459633350372314e-01
-2.601692839958159170e-02,-2.305970630824270839e-01,3.055876786481161456e-01,-2.297712029059874664e-02,-3.992702134221768132e-03,2.852766053655317671e-02,4.729984402656555176e-01
2.803608408014079956e-06,-2.531949774657402674e-01,3.021193823377548715e-01,-1.872997761424824784e-02,-4.234354572800642057e-03,6.357184619957998231e-03,4.828107953071594238e-01
-2.257102562229256620e-02,-3.182552957446341257e-01,2.524481195006982315e-01,9.758613231182346887e-03,4.220670586266291957e-04,-1.066238124725562772e-02,4.949856996536254883e-01
-8.171746227888484690e-03,-3.204649289651570476e-01,3.149138182941056963e-01,6.679802793939947081e-02,-8.789870905255016409e-02,-1.335554030254691715e-02,5.830165743827819824e-01
-5.312093039557701235e-03,-3.108208026071133667e-01,4.018750054729133270e-01,7.375966244126529181e-02,-6.930044692061274048e-02,-2.926931322286783436e-03,6.436543464660644531e-01
-1.299158031872721733e-02,-2.860126727039854488e-01,1.724120355207559296e-01,-4.596541118274516911e-03,-3.084457548995705317e-02,-5.973466471790310137e-03,4.031856954097747803e-01
-2.456781267850371986e-03,-3.224424017509264773e-01,1.637761244066600341e-01,-7.537229381877352113e-03,-2.236319359231943305e-03,-2.127017257941068301e-02,4.298360347747802734e-01
-2.185280208833648846e-02,-3.515347085482520839e-01,2.342130138274994833e-01,3.520029773211889867e-02,-3.462527635108327700e-02,-5.722289812132849880e-03,5.158413052558898926e-01
-1.461027089175272534e-02,-3.012263130826083324e-01,2.276895730424159936e-01,9.726545317287720038e-03,-2.486388620375806074e-02,-3.280735066554988418e-03,4.609509110450744629e-01
-7.403825572888732276e-03,-3.515064801580226050e-01,1.499741598062483139e-01,1.898427632259995501e-02,-7.192944963297435990e-02,-3.344202090467426197e-02,4.661400020122528076e-01
-2.513552047555488514e-02,-3.082788134435848759e-01,2.058327680108866520e-01,1.022166638597795246e-01,-8.599464305632517624e-02,-3.153894815542146457e-02,5.053985714912414551e-01
-2.128636251174151339e-02,-5.019373638576369867e-01,1.379261220424325418e-01,3.257101289801177940e-02,-7.128097643508107817e-02,1.694672185861178376e-02,5.934532284736633301e-01
-3.817510099022088099e-02,-3.050416112847302852e-01,2.617733777399848250e-01,-5.667626956864991149e-03,-1.113897163598639821e-02,-1.413347662994642821e-03,4.916376769542694092e-01
-1.805253117102761581e-02,-3.141918088887137306e-01,2.349865838018695419e-01,-1.287955903715020528e-02,2.407945329227875741e-02,-5.533064011269450515e-03,4.785300791263580322e-01
-3.849916917512329756e-02,-3.043952823417415687e-01,2.236049742547758790e-01,4.283464641382492971e-03,1.806375404856158315e-02,-2.328943018236490645e-04,4.583949148654937744e-01
-2.070651049399659452e-02,-3.204682193108048249e-01,2.081719393114743744e-01,-1.237815489453637265e-02,2.084669532411112178e-02,1.040454265365344834e-02,4.614537954330444336e-01
-5.493858674840951251e-03,-3.150364937724506875e-01,1.578176283683424552e-01,-4.987593766739318105e-03,3.215115368843874440e-03,1.779917318127277256e-02,4.172472059726715088e-01
-1.135243025825158347e-02,-4.481586502637610048e-01,6.794394380149301749e-02,-4.643634165368305811e-02,4.357870358434299402e-02,1.931409557521566924e-03,4.938645958900451660e-01
-1.674560091279731974e-02,-3.066811618246880755e-01,2.000499292322041878e-01,1.255007317301723348e-03,2.329249252359887404e-02,-1.202272102204354765e-02,4.427026510238647461e-01
-2.655830035885711760e-02,-8.662070740479621556e-02,3.407210771615766243e-01,1.301777811675515484e-02,-1.425432683289552110e-02,-1.729525404577096637e-02,4.032079279422760010e-01
5.225246160987621902e-03,-3.117578257777731121e-01,2.982089004346288874e-01,-9.356151364746502150e-03,8.749419408916873919e-03,2.769781197890076093e-03,5.288703441619873047e-01
-2.693265878367027272e-02,-3.267577705274921085e-01,2.762658867492823189e-01,-8.289756901431749245e-03,6.633114549796000244e-03,1.009767863840211298e-02,5.228527784347534180e-01
2.114434730127836420e-02,-2.012107076480915135e-01,2.830838384301082034e-01,-4.447817342533833679e-02,-1.700860484468791041e-03,-1.116398943904411229e-03,4.269016087055206299e-01
-1.740467897388621454e-02,-2.669368540681500424e-01,3.075953884863642518e-01,-6.299882454450063222e-03,8.457547895158224610e-03,5.733185475707844661e-03,4.994212388992309570e-01
-1.542969925296912986e-02,-3.389398837196995751e-01,2.484342774806462262e-01,1.201888775961881470e-02,-2.391555968117692679e-02,3.341112275886187755e-02,5.149211883544921875e-01
-1.944071770927394138e-02,-2.780143674325568082e-01,3.077764072105920179e-01,-5.659577162193465093e-03,1.017492889837260175e-02,-6.672679052929326657e-03,5.090003609657287598e-01
1.272325911474902170e-02,-2.781975527252536495e-01,3.355457153833872330e-01,-1.901922347245585745e-02,4.613909300244077236e-03,-6.119242016146039798e-03,5.329412817955017090e-01
-1.404945576563700407e-02,-2.837923310863566528e-01,3.161978866793245246e-01,-7.754999799311247666e-03,7.281545611371162408e-03,3.753157240631627058e-03,5.208532810211181641e-01
-3.658843293204205871e-03,-3.473767606744158076e-01,2.408181948042055209e-01,5.248010125323379930e-04,3.463927990924096142e-03,4.163847380179930280e-02,5.168948173522949219e-01
-1.092138402198512825e-02,-3.201490058273592232e-01,2.504631194728219601e-01,1.341587162881586462e-03,3.362917729511930715e-02,-3.494939688716580672e-02,5.018301010131835938e-01
-2.067141083197038959e-02,-3.278799631555212035e-01,3.077691363283517889e-01,6.920249469325341889e-04,7.050139536850632931e-03,-1.691458586531708903e-03,5.507351160049438477e-01
-1.861268154193403482e-02,-3.272196895398751804e-01,3.069478006397243774e-01,1.418043937955256991e-03,5.830526553737822026e-03,-2.508671390398750731e-03,5.493860840797424316e-01
-2.312054598860543292e-02,-3.898846399914190908e-01,2.492823833856140925e-01,1.956963533552297241e-02,-1.899711640952572028e-02,2.310119569416647575e-02,5.589807033538818359e-01
-1.849608790543802450e-02,-5.165912709390285684e-01,7.124605883215406887e-02,-3.913072470878278808e-02,3.267517462970595532e-02,5.480638412793882759e-03,5.556432008743286133e-01
1.487205432642066394e-02,-3.561824261596672203e-01,-8.180453954286015517e-03,1.180196108118316753e-02,1.788033713341700449e-03,3.303678605173239469e-02,3.651860356330871582e-01
-2.317494113044236276e-02,-3.205557558282808306e-01,3.128538138543008329e-01,-3.951619263988113452e-03,-2.362901924391959830e-03,-2.517580215672186980e-04,5.489471554756164551e-01
1.540942603999256866e-02,-3.035073872413854845e-01,1.106315722522656642e-01,3.139405896848925914e-03,1.378042079818062558e-02,-1.602196099874302147e-03,3.764971494674682617e-01
-2.248024919449649259e-02,-3.165718061840732678e-01,3.063118310517559673e-01,-4.055253845764561667e-03,-2.397634698229712596e-04,1.665561118959549758e-03,5.397655963897705078e-01
-1.641153611451387495e-02,-3.132233972741668704e-01,2.111335947070276386e-01,-9.849722255687549249e-03,9.276060750437856205e-04,-4.060069720236640645e-03,4.558017551898956299e-01
1.515029760799378039e-02,-2.798720096689964465e-01,3.075727035784968089e-01,-2.238037617229460957e-02,9.704425023242345795e-04,-5.698694728229116574e-03,5.103166103363037109e-01
-3.141421681268107002e-02,-3.435794694281178452e-01,1.867036100970493051e-01,5.234394293340134154e-03,-6.417856645665011295e-02,2.132939366196457548e-02,4.763559997081756592e-01
-1.839159378996331473e-02,-3.764115846130238752e-01,2.687338209842715098e-01,-3.767884983992343759e-03,-1.837363058436442334e-02,1.577360371703275324e-02,5.614425539970397949e-01
-1.879687649252215209e-02,-3.489135807169825854e-01,2.099162472464706219e-01,-6.907615087333604520e-02,-6.818478827189142222e-02,4.222348885780650291e-02,5.199992656707763672e-01
-2.724613123586773489e-03,-2.686383995839138894e-01,1.277973076815861753e-01,-4.444029886174848121e-02,-5.384458457492657946e-02,1.302420840333200561e-02,3.709246814250946045e-01
-1.652342275412736761e-02,-4.419348240601814193e-01,1.240855470858683585e-01,-1.847523269878687674e-02,-6.868481385819413809e-02,-1.343746051092180316e-02,5.256243348121643066e-01
-1.918321424719759277e-02,-3.103238250716998103e-01,2.846696319567387223e-01,-7.210798377541724480e-02,-7.353714316583825905e-02,1.914617905107848664e-03,5.453311800956726074e-01
-2.049468601553187941e-02,-4.174159411903620720e-01,8.685326394076367529e-02,7.051345117182952760e-02,-8.767959681494433277e-02,5.045818536129704525e-03,4.997346401214599609e-01
-2.282852858146738884e-02,-4.465335062365100027e-01,8.973840249428063909e-02,-4.520668652146733746e-02,-5.672640389725965709e-02,1.297013704809570761e-02,5.061439275741577148e-01
-1.555267190893506318e-02,-3.955419990878152880e-01,4.325476970509521957e-01,-9.965627112153731520e-04,-1.425655100550261975e-03,-9.936134090333144722e-03,7.181674242019653320e-01
-2.610400745421503216e-02,-3.232666061873059049e-01,2.461248995938474793e-01,-1.368970368374104220e-02,-3.488850602831505138e-02,1.542262009479232823e-02,4.982347488403320312e-01
-3.313145108891214774e-02,-4.797742355237630818e-01,4.562167088783194435e-01,-9.105196140124185988e-02,6.880077666390829738e-02,-7.168281645807576125e-03,8.347103595733642578e-01
1.165943522814019521e-02,-3.030801538207648083e-01,2.935727174571574616e-01,-2.282932578846326444e-03,1.515733939306898332e-03,-2.057713755213444375e-03,5.170112252235412598e-01
-1.920153814161154604e-02,-3.569064827095111414e-01,3.431630832949921217e-01,4.678480756307909147e-03,1.733684372087501702e-02,-3.920880433101316489e-04,6.072008609771728516e-01
-1.840100510513642193e-02,-3.182681509047137203e-01,3.455550914870480494e-01,-8.074876162823700632e-03,2.086185877212995421e-02,-4.081147499803166982e-03,5.771256685256958008e-01
-2.257764427427178325e-02,-3.297780083382720884e-01,2.970550980640035421e-01,-6.068305878212690470e-03,1.848905677607158224e-02,2.376183037085662585e-04,5.439344048500061035e-01
-3.154253318146153784e-02,-3.207693743661256813e-01,3.050963859260046318e-01,2.805907980608658681e-04,2.112731771589564794e-02,1.100781245373111915e-03,5.437700748443603516e-01
-8.212746926473772635e-03,-3.109151399283394679e-01,2.711102360441829950e-01,2.803600525138762525e-02,9.441076930527864119e-02,-5.920087388925258237e-02,5.420463681221008301e-01
-1.381193311175192562e-03,-2.803151709359077426e-01,3.219747418096441938e-01,2.773781758930321875e-02,8.421401482814348805e-02,-3.397857797861419255e-02,5.473627448081970215e-01
-2.642203047309843456e-02,-1.314279656571108457e-01,3.034928861528304878e-01,5.359935322779858791e-02,1.566200212854493637e-02,-6.376649956902263883e-02,4.196024239063262939e-01
-3.284243591788949673e-02,-2.679459323576423579e-01,3.231194922115800394e-01,1.982079282006859317e-02,-5.373366986032802363e-03,-3.312450453480210444e-02,5.198339819908142090e-01
-9.281914025374538024e-03,-1.652228147361746724e-01,3.849697534011217170e-01,-1.556840490771266988e-02,4.794010892833931725e-02,-1.498222406103000802e-02,4.995269775390625000e-01
2.088395120759492518e-03,-3.250208407458821114e-01,1.320651017156702911e-01,-1.034605608293144878e-03,1.400604414709989698e-02,1.936440687470338895e-03,4.086734056472778320e-01
-1.841841106036454928e-02,-3.290069720199248482e-01,3.015065584466014581e-01,-2.240913480597830890e-05,1.425022168476491186e-03,-4.793914732830444606e-05,5.460662841796875000e-01
-1.666690092401836715e-02,-3.274161217021027137e-01,3.022099792884360148e-01,1.860389895141969295e-05,7.468847321657600541e-04,1.478359393686224082e-03,5.452948808670043945e-01
-9.344291533057906204e-03,-3.214520319571216866e-01,3.002143692389491192e-01,-3.218383493020051983e-04,3.880749197933957163e-03,3.672706191612309110e-04,5.384230017662048340e-01
-4.192321171260446344e-02,-3.138826607588169337e-01,2.720968585961835440e-01,2.193741266490405184e-03,-2.880356873220748029e-03,3.130421067122442138e-03,5.079763531684875488e-01
-1.011649613286961548e-02,-3.112725673497496182e-01,3.009975095931237687e-01,-3.024145020361294033e-03,7.254270254640991615e-03,2.724429508142805177e-04,5.304397344589233398e-01
-3.632260239531022450e-02,-3.226845864492546290e-01,2.871818226815411879e-01,5.050695879935378912e-03,-4.768381046707568724e-03,1.698395274097523871e-03,5.286313295364379883e-01
-1.615279474998723014e-02,-3.241496620623320890e-01,2.999754317935869330e-01,1.833642426266457156e-03,4.036411401926248525e-03,3.246685409457391192e-04,5.405783057212829590e-01
-2.001749079610106244e-02,-3.320280328156116068e-01,3.029937719612808555e-01,2.103626883524547294e-03,2.143424705166153011e-03,4.729720105742645653e-05,5.499971508979797363e-01
-2.332121800226501229e-02,-3.034720886192749933e-01,3.132595900319902760e-01,1.651812377123994041e-03,-1.329775985393641911e-02,-5.681923463201643022e-03,5.354438424110412598e-01
-1.859147069995058590e-02,-3.190558698862425158e-01,2.615539032082328519e-01,3.855711050723918676e-02,4.357808564167206522e-02,-4.718506033844568209e-02,5.193942785263061523e-01
-3.589518968361939816e-02,-3.122996944620534676e-01,2.269405285371987047e-01,5.344827715503690062e-03,2.807173182558677857e-02,-1.111040758745153456e-02,4.700543880462646484e-01
-4.589706509260750578e-02,-3.030926496390702329e-01,2.828951837914798206e-01,2.234443480030565718e-04,2.255857669876727874e-03,-3.587752741776280090e-04,5.087569355964660645e-01
-3.787314364582521770e-02,-3.135651737351258794e-01,2.690244808787815023e-01,3.038145824684948277e-03,1.099934189894710874e-02,-1.329823243518484400e-03,5.051707029342651367e-01
-3.641505160377890571e-02,-3.121939967294049545e-01,2.910839583121920260e-01,1.205056539119934165e-03,1.948430203786528578e-02,2.648425705467510188e-03,5.242053866386413574e-01
4.645390829518671744e-03,-2.961624894291879917e-01,3.360657964141359755e-01,4.643419704706436280e-02,-1.178062800937165235e-02,-3.214281506093599056e-02,5.567790865898132324e-01
-3.395564282666063693e-02,-5.536558245413190082e-01,2.083221275197045808e-01,-2.742847083989703380e-02,8.861768982139653361e-02,-4.718062267323533399e-03,6.932399272918701172e-01
-9.136647639521044972e-04,-3.451572908143357710e-01,6.700531394074399349e-02,-5.441415521574254933e-03,-5.319142589784997950e-05,1.127773993454694174e-02,3.833637237548828125e-01
-1.253351408631583896e-02,-5.579184701773923782e-01,8.431891668970262210e-02,3.518251874055219885e-02,6.868187186216644091e-02,-1.180255520328077671e-04,6.144201159477233887e-01
-8.540528064664803382e-03,-3.309176396898205197e-01,2.569307394226664210e-01,1.689379964624757643e-03,8.533586779678636880e-03,1.655135572608371422e-02,5.109136104583740234e-01
-1.668738422467702653e-02,-3.299565641734580335e-01,3.202180413098992817e-01,7.055119701415146771e-03,-4.104185424677043309e-03,-3.148123243320065986e-03,5.633955001831054688e-01
1.922491037110033059e-03,-3.100991659295644354e-01,3.319859557749341161e-01,3.320812013614506120e-02,1.008387660989357171e-02,-8.904544818206449122e-03,5.595870018005371094e-01
9.914622125320862733e-03,-3.123741764224715611e-01,2.908668937930327658e-01,-3.090595607903064927e-03,1.742999709205109203e-03,2.493818600089597014e-03,5.228847265243530273e-01
4.460564730812597266e-03,-3.586262835824451933e-01,3.530508021354740178e-01,2.074468132209967078e-02,-1.267828872863611435e-02,-1.763827006193343858e-02,6.185647249221801758e-01
-1.312415219783023487e-02,-3.199254646219368836e-01,3.083523618983560755e-01,5.099950431975261780e-03,1.021987441393549774e-03,-8.170642231480180172e-04,5.442304611206054688e-01
-3.997872980423354539e-02,-3.102519156144361578e-01,2.959815048663996806e-01,1.524548002007287864e-04,1.898334750528389439e-03,1.408321626103555642e-03,5.260558128356933594e-01
-1.599019322816227703e-02,-3.269272934102738226e-01,3.209974825930640985e-01,1.064196065415304142e-03,2.615212931781100633e-03,-1.797884932696821808e-05,5.612917542457580566e-01
-4.037628322409315962e-03,-3.125428351262590776e-01,3.142915793561322779e-01,6.959528615710286123e-03,-4.124711668763181641e-03,-5.730915511658592719e-03,5.431482791900634766e-01
-8.482330532099749409e-04,-3.131186920580298350e-01,3.132581277581505397e-01,2.196236110582483556e-03,-3.641828915539780439e-03,-3.373962621858474318e-03,5.425404906272888184e-01
-4.182285604144276268e-03,-3.114257814667907853e-01,3.009908054720761283e-01,6.180750899732456553e-03,-4.314990974777485611e-03,-7.063029199335411207e-03,5.306710600852966309e-01
-3.533962445333730523e-02,-3.187010684756093060e-01,2.923999946020535146e-01,-4.038959632747092521e-03,1.606040889025432683e-03,7.570417945435114170e-03,5.299097299575805664e-01
-2.974874253453177464e-02,-3.070862656055091122e-01,3.026320720849737800e-01,-3.363885564360914390e-03,2.380225240271886290e-03,4.622611330331782321e-03,5.288571119308471680e-01
-6.720096839166822891e-04,-2.886369945995140851e-01,2.944848322155444453e-01,-5.216343409868505043e-04,-9.684957306081492731e-03,3.128377792542827267e-03,5.053194761276245117e-01
-1.115846291764641118e-02,-2.382886123098250097e-01,3.031647587917716824e-01,-8.598058159250914975e-03,-9.403808982184722054e-03,1.683367994987333000e-02,4.723522663116455078e-01
6.822188160234350825e-04,-2.850687386952883706e-01,2.947672698735298580e-01,-8.087762608918486890e-03,-9.588866578651751224e-03,1.886076652378962902e-03,5.026504397392272949e-01
-2.090272819184975372e-02,-3.155264962751856417e-01,2.971217321283171620e-01,1.579356035066784188e-03,-1.842025470616322344e-03,-4.789005904255466960e-05,5.307145714759826660e-01
-7.176241766450536588e-03,-2.997696363461426761e-01,2.988190396772857360e-01,-3.346655028613858707e-03,-1.279217077711602155e-03,-1.327793269912082557e-03,5.184785723686218262e-01
-3.220428377738360215e-02,-1.346132694941133967e-01,3.408950739260283025e-01,7.594867144611935211e-04,1.305061192822526070e-02,-1.237247743061991798e-02,4.345933496952056885e-01
-3.942423484205440087e-03,-9.040875045933577381e-02,2.899636070825354905e-01,1.724391284161501392e-02,2.255313496499018223e-03,6.746392490307053999e-03,3.468630909919738770e-01
-2.563151246493522439e-02,-3.199269968435404787e-01,3.070202146994401304e-01,7.791926871416699450e-03,1.462124602936420385e-03,3.466871460899981650e-03,5.434975028038024902e-01
3.377948149129760165e-03,-3.012335887113176125e-01,2.912544415956385135e-01,-2.372949165755224282e-03,1.176147018647256915e-03,3.245492105070638383e-03,5.132291913032531738e-01
1.273437933207278820e-02,-2.947265857626598096e-01,2.909709228075287313e-01,1.736463516848942923e-03,-4.003309269814895287e-03,-2.067882859994414711e-03,5.075082778930664062e-01
1.664288666077612389e-02,-2.671967593688095999e-01,2.912051439770076411e-01,4.553729572913058077e-02,-6.526932246859816489e-03,-1.058855745860067150e-02,4.904754161834716797e-01
-1.730531054571652141e-02,-3.115825787105426237e-01,2.989954797231476613e-01,-1.347745205059140347e-02,1.540008659096548001e-02,4.061066004968569287e-03,5.301238894462585449e-01
-1.606423497101932066e-02,-3.293414170764392690e-01,2.358769339679992472e-01,-9.833226478756166688e-04,8.037335385193456611e-03,-5.183558384292010109e-03,4.907358586788177490e-01
-6.174579763994268375e-03,-2.968929940050038518e-01,2.987798506445154545e-01,1.044550564916448465e-03,-7.984360115454326029e-03,-8.098553975838165137e-05,5.161054134368896484e-01
7.172631574964768129e-03,-2.832228179095400145e-01,2.937373013986996906e-01,6.616706412957903960e-04,-1.191862028562246101e-02,-2.275813476766549645e-03,5.001088976860046387e-01
-2.130457056923211467e-02,-3.152658191324015369e-01,3.066378343382405447e-01,-3.687843030387446576e-03,-1.256464557798701647e-03,1.464670813496651717e-03,5.389004945755004883e-01
-1.272731820142516609e-02,-3.157964743312284828e-01,3.117845272817623692e-01,-2.134546312038403007e-04,-2.760381631816845923e-03,-1.250915525736041086e-03,5.436322689056396484e-01
-1.818227426964521762e-02,-2.969780961452391232e-01,2.876606964961351265e-01,2.565372012301822113e-03,4.356097916250469340e-03,-1.809007066008606630e-03,5.065779685974121094e-01
-1.523792419222534666e-02,-3.797217491659475863e-01,1.771294888863482742e-01,4.430487618399085031e-02,1.047053327062510697e-01,-2.766805692614717968e-02,5.301353335380554199e-01
-1.218065925974581853e-02,-1.630285360657028615e-02,3.472842150813464368e-01,-3.221139845247833478e-02,2.885948952499746780e-06,-3.283299689573085378e-02,3.702168464660644531e-01
-3.543593322226391840e-02,-1.885509711398213883e-01,3.057335611135885700e-01,3.802170561892629004e-04,7.514923038794659067e-03,-4.276980634711230467e-02,4.446758925914764404e-01
-2.821310132113125091e-02,-1.073254651332954668e-01,2.857116624586030218e-01,-1.728813254938972935e-02,-2.892464669628120477e-05,-9.979892652636731740e-03,3.617157638072967529e-01
-2.451030915032145069e-02,-1.486642324688256800e-01,2.819325317032118638e-01,-1.445199333167846486e-03,7.735440763608440046e-04,2.116807361437063068e-03,3.839127421379089355e-01
-1.742935347617734221e-02,-5.299560451404755623e-02,2.921091382897230693e-01,-1.401153166566297334e-02,1.731224142604306671e-05,-3.306070085950048223e-03,3.297118842601776123e-01
-2.051041512865244693e-02,-3.210213015503517453e-01,3.035844202413192083e-01,9.766950078452527398e-04,-2.882664971753084852e-04,1.966828940839963555e-03,5.410665273666381836e-01
-2.293999763662016300e-02,-3.223304418899412549e-01,3.034816916026093492e-01,-2.247405086841742844e-04,2.362778183773543423e-04,2.122848506743854006e-03,5.421504974365234375e-01
-2.235984814631117312e-02,-3.153297010806703216e-01,3.064096522744605422e-01,-8.757666450348213904e-04,1.302379540805711404e-03,-1.715611424787270379e-03,5.387545824050903320e-01
-7.688040244137068352e-04,-3.085325209040115646e-01,2.951565423029369195e-01,4.515991012903554543e-04,5.281525969095993145e-03,2.738590081033036132e-03,5.229457020759582520e-01
-2.365380522900551591e-02,-3.052356527851038392e-01,2.827424383884878933e-01,-1.124240140224957996e-02,1.184406208590851016e-03,8.527657216096950349e-03,5.099452733993530273e-01
-2.006388845238234533e-02,-3.137728109646473196e-01,2.760575494283044051e-01,-4.205654409190136278e-03,8.607755539643368106e-03,-4.431172749525923681e-03,5.111365914344787598e-01
-9.736816996173833227e-03,-3.318036687941101071e-01,2.508470090749692627e-01,3.700410414928140788e-03,-1.090811871070811742e-03,1.638891586711024168e-02,5.063663125038146973e-01
-2.021423164524930455e-02,-3.224689569494342267e-01,2.971680193626876076e-01,9.050745276691112744e-05,-1.729651358650837454e-04,1.256092021211181568e-03,5.366792082786560059e-01
-2.504448424135072987e-02,-3.185789507201044479e-01,2.661912620197200985e-01,-1.150032824743163311e-02,-2.045437773275556048e-04,5.886063417674191646e-03,5.069214105606079102e-01
-2.164914599195589748e-02,-3.152892061797935019e-01,2.852292876159548962e-01,-4.054860288426690058e-03,-7.091959777566558994e-03,-9.513260159094944629e-03,5.205596685409545898e-01
-1.707666267763384427e-02,-3.312057600610679997e-01,2.891269765093993360e-01,3.740068128510860845e-03,2.265134703860120172e-03,-7.675588225079963897e-04,5.372935533523559570e-01
-1.405489923844476831e-02,-3.111189386848819960e-01,3.070417052319590612e-01,1.847917944768298778e-04,-5.019122528063618000e-03,-1.548497349815077645e-04,5.355483889579772949e-01
-2.641109733806924764e-02,-3.163846939635572841e-01,3.067752853590414719e-01,-3.367778184171642437e-03,-7.311399369264578660e-04,1.601031184824129247e-03,5.401448011398315430e-01
-2.639644930608658208e-02,-3.204945213448515129e-01,3.046298734615130455e-01,-6.092348290670938742e-03,-1.516406850669486765e-03,2.691438302751665308e-03,5.418176054954528809e-01
-1.940639838322281985e-02,-3.224379573739902805e-01,3.140521682352635513e-01,-4.046075901770595368e-03,-4.938827457229720032e-03,7.244214580406929888e-04,5.515388250350952148e-01
-1.752571318136039377e-02,-3.170521973190537079e-01,3.143240307113717158e-01,-1.620013205381925885e-03,-3.706846866788299715e-05,2.716006071175186001e-05,5.470338463783264160e-01
-1.477048842735620253e-02,-3.171901767147703999e-01,3.108637001996000238e-01,-4.526966872325013653e-04,-2.219227220486855168e-03,-2.773700404670787368e-03,5.440698266029357910e-01
-2.083554691441117171e-02,-3.188286031446266877e-01,2.838847316077489080e-01,4.470455202555062915e-03,3.573700884529590165e-04,-4.373131064914252512e-03,5.220886468887329102e-01
-1.634601858591484130e-02,-2.962855399803038248e-01,3.011802225654127141e-01,-1.998911636998609593e-04,-9.047278519767965391e-03,3.596888797525615768e-03,5.180363655090332031e-01
-1.958811412209579550e-02,-3.216326911878495398e-01,3.052133001687512559e-01,1.158997473664982606e-03,-2.110051327333108909e-03,-1.153879116571186368e-04,5.429998040199279785e-01
-2.075849342313394741e-02,-3.191344709671887769e-01,3.060342913524666253e-01,8.916329584425387172e-04,-1.514956368578024683e-03,-7.767193522921113239e-04,5.416086912155151367e-01
-2.042694540328519881e-02,-3.205104948948664934e-01,3.059486021061587624e-01,1.243549147480580526e-03,-2.033932546876087832e-03,-2.976648183649416779e-04,5.427047014236450195e-01
-2.054259296155118084e-02,-3.207293867939775556e-01,3.034597103397612683e-01,1.442410073134603931e-03,-1.641245062752745868e-03,9.916132970763746977e-04,5.407107472419738770e-01
-1.579010194411872847e-02,-3.090382129188400939e-01,3.020805121501545232e-01,2.006274145668267110e-03,-7.719541005648496330e-03,1.558207223199172128e-04,5.295677781105041504e-01
-2.217234937533094086e-02,-3.214568695403985377e-01,3.034003080767557203e-01,6.869944882422090483e-04,-1.258849562571235292e-03,1.068073064583170305e-03,5.413106679916381836e-01
-2.300475669654023642e-02,-3.216429302562940906e-01,3.034769574932126290e-01,2.281840101901276682e-04,-9.148141072450316621e-04,1.563064555402427684e-03,5.415579080581665039e-01
-1.704047528481478224e-02,-3.143083567646827725e-01,3.057353537606555816e-01,2.438266020563079148e-03,-3.281341796746219033e-03,-3.244724772849372652e-03,5.372011065483093262e-01
-2.320220948625981161e-03,-1.267217845808622512e-01,3.178972474991960673e-01,1.182956585706962903e-02,5.259650653394294662e-03,-5.800835099023714941e-02,4.104244709014892578e-01
-2.513767555015042343e-02,-2.614584190438314915e-01,3.087572557613705304e-01,9.016707805884559279e-03,-3.031750894201336397e-03,-1.876239428771976636e-02,4.975612163543701172e-01
9.117481973100853565e-03,-2.158256111024984825e-01,3.022272066685979253e-01,2.153353147382325999e-02,-1.392713294660431061e-02,-2.323288660099437353e-02,4.539140760898590088e-01
-2.439205533956019176e-02,-3.129197497213487833e-01,3.176592902897623638e-01,7.590830641895551702e-04,-6.530055385313325404e-03,-4.368622829366055824e-03,5.469236969947814941e-01
-1.278884896300254426e-02,-1.915800016727054467e-01,3.007783986661125564e-01,3.211938630408601308e-02,-1.543696913754845530e-02,-3.137589425060638426e-02,4.394507408142089844e-01
-7.700903266039581252e-03,-2.510332823543147129e-01,2.956430372525412631e-01,1.283880525010127997e-02,-1.851626455346353645e-02,-3.098308516193020324e-03,4.760183393955230713e-01
6.161594793409497228e-03,-1.755512944409051979e-01,2.988813936456744536e-01,4.237702930791466954e-02,-1.010160733467098913e-02,-1.621701101494298428e-02,4.223481416702270508e-01
-2.326831447091751159e-02,-7.435133556871925675e-02,3.440026991778586951e-01,4.267752830297071032e-02,4.299499773308283757e-03,4.102441086764396783e-02,4.084450602531433105e-01
1.671583503974358176e-02,-3.046080519236726292e-01,2.932515249501159715e-01,1.117616156265252136e-03,4.457152341637030113e-03,2.349856297315899758e-03,5.183227658271789551e-01
-4.824357725384539886e-02,-3.176334720666757483e-01,2.737584459347507937e-01,-9.755115509948922292e-02,-2.478078827423429997e-02,2.276890539630537034e-03,5.416703820228576660e-01
-3.420873623649073325e-02,-3.096279817000540668e-01,2.793685158707709393e-01,1.119605014435811566e-03,-2.088220056426631083e-02,6.656289419745213543e-03,5.118559598922729492e-01
-3.688817480488340572e-02,-2.175496531659912858e-01,2.985296406920284751e-01,-5.427749069466202003e-02,1.525091387525723957e-02,2.175092886744727991e-03,4.639944732189178467e-01
-1.412435818814642557e-02,-2.251320391788949604e-01,2.967829977501252881e-01,-3.494961373934969001e-02,6.191850269036681433e-03,-2.243186102757669179e-02,4.605219662189483643e-01
-8.805582432657350217e-03,-2.790590849121703521e-01,3.094226182880177034e-01,-3.509829110647996048e-02,7.935961583277480191e-03,4.966910808257219562e-03,5.140690803527832031e-01
-1.176695116571932834e-02,-2.817866474169222757e-01,2.937045544395215368e-01,-1.217997346533547347e-02,1.449480359122076560e-02,2.330857328243599817e-03,4.997984170913696289e-01
-1.575885858654098998e-02,-2.217777942044486805e-01,3.008466501127580184e-01,-2.589254175455874690e-02,8.131057757485894016e-03,-2.421490381439694167e-02,4.603023827075958252e-01
-9.944416464163080560e-03,-3.141266315577783685e-01,3.089734384414476454e-01,-3.013270625233849254e-03,-7.396740366031625104e-04,-8.090854890089894122e-04,5.396993756294250488e-01
1.463428521077992858e-02,-2.781236533315862847e-01,2.965763991491356943e-01,1.348242964447082630e-02,-6.469484835298847623e-03,-3.526716611067419373e-03,4.984451532363891602e-01
-2.241788266466921559e-02,-3.160104077844583248e-01,3.091191376708887772e-01,-4.113860876086997652e-03,-1.724756720645670557e-03,3.092335410145970122e-04,5.417657494544982910e-01
-1.656716016621533755e-02,-3.157136937470692017e-01,3.031372123099044247e-01,6.372842804633466716e-04,-1.377713527165423538e-03,-4.472373524204141873e-03,5.361015796661376953e-01
-2.484019726677858669e-02,-3.172217079742462031e-01,3.057419200538447623e-01,-4.466195492087422086e-03,-1.262102842612692916e-03,1.453045000523920131e-03,5.399060249328613281e-01
-2.660968169230221170e-02,-3.210463872106779082e-01,2.991739766086725094e-01,-5.657543283684170893e-03,2.981053643283111676e-03,3.653973932993196620e-03,5.375066399574279785e-01
-2.183806703642739849e-02,-3.131011706071040734e-01,2.994647758484668132e-01,-2.195806478000624559e-03,-3.471782619088484550e-03,2.656004401077502702e-04,5.307581424713134766e-01
8.616281184132932799e-03,-3.073487621271665526e-01,2.976353686814665611e-01,9.227003186029996210e-03,-8.574703373342202131e-03,-6.417569806799843651e-03,5.246765017509460449e-01
-6.416129262928182281e-03,-2.940101178216771305e-01,3.042033154896677249e-01,4.324993909537292770e-03,-1.184163027225522934e-02,-5.904194987614637836e-04,5.186567902565002441e-01
-1.249669236114024987e-02,-2.895297374041232441e-01,3.076017929938952289e-01,-4.569275125363765622e-03,1.425619119274449537e-02,5.637271534596574596e-03,5.183202624320983887e-01
3.308138113345453213e-03,-1.287173149132309069e-01,3.164751491113519388e-01,4.884349951017848829e-02,-5.782192469218050412e-02,2.285323080303370072e-02,4.190516769886016846e-01
-2.014755759361033793e-02,-9.267802343857670100e-02,2.184101589309664360e-01,3.830149657582528760e-02,-1.640476676108255233e-02,-1.869515198913081211e-02,2.927969396114349365e-01
-2.055737537115279526e-03,-3.158438381574256160e-01,2.943961602444383208e-01,1.182817561274580485e-03,5.292287852705750313e-03,-1.306772553168472715e-03,5.286427140235900879e-01
-1.499618639561407785e-02,-3.186450030287425461e-01,2.053141098944954168e-01,1.131727392302741241e-02,1.635940337303472616e-02,-7.788380493299155126e-03,4.571709632873535156e-01
9.462986452676819260e-03,-4.986506747850952270e-02,3.350413114024090588e-01,3.067066065489292351e-02,-5.200250858301437747e-03,-3.564014240250990007e-02,3.681723177433013916e-01
-1.953903403207118972e-02,-2.101890120528994987e-01,3.029385099915114510e-01,1.477625798666218522e-02,1.016775295442220832e-02,5.632083132299577077e-03,4.504218399524688721e-01
-2.049059873193895265e-02,-1.411403666664618473e-01,2.668488789894215008e-01,3.659654808699856071e-02,1.177713924911221767e-02,-1.267383647070556606e-03,3.690889179706573486e-01
-1.607168470688056378e-02,-2.550291592853171085e-01,2.971443553222624101e-01,2.685652378835114498e-02,-5.332918748392791175e-03,1.876310157822481950e-02,4.830689132213592529e-01
-1.918481068984328325e-02,-3.240024700116357903e-01,2.927276755763830174e-01,4.131809415256705934e-03,4.104078301319005599e-04,2.221330367976918994e-03,5.341780185699462891e-01
-2.304635261768007981e-02,-2.536254492155890494e-01,3.108103750510848307e-01,-1.643566808670834239e-02,1.190982940095143203e-02,5.804728610497449787e-03,4.928939342498779297e-01
-4.463342812779401425e-03,-3.053605889153780950e-01,1.720943699128794357e-01,7.845448817677977069e-03,4.524794632007143728e-04,-2.308325554686800965e-02,4.202633500099182129e-01
-5.071931273420961228e-03,-3.106698395870293727e-01,2.737080696072052843e-01,1.422145552506922338e-02,1.111739578860834569e-02,2.460637607882765199e-02,5.090156197547912598e-01
-2.504540205276614695e-02,-2.482359543075156605e-01,3.046027152950414041e-01,2.117179165501651729e-03,1.427865471999058104e-02,-1.470669933616931130e-02,4.830426573753356934e-01
-1.583579540102788424e-02,-3.088509101680460001e-01,2.983110728379201326e-01,-4.375995012463019911e-03,1.531451362398139442e-02,-5.849054668887856794e-03,5.267443060874938965e-01
-2.195345754031576002e-02,-3.245550659438361518e-01,2.910176166706649470e-01,-7.559423819042930710e-03,4.120949828413296781e-03,9.176601032888745055e-03,5.335720777511596680e-01
-2.499591706816877562e-02,-2.914667037679249950e-01,1.973470645042149085e-01,1.268396833858143925e-02,8.100040285466078571e-02,2.652667556480201028e-02,4.494083225727081299e-01
-2.409981996284185982e-02,-3.181545974938359556e-01,2.203014835047564235e-01,9.175508523365587601e-03,3.269761349147437459e-03,-7.432512541120743325e-03,4.674590229988098145e-01
-1.755024167978025407e-02,-3.028952384993496838e-01,3.091766574831913972e-01,-3.454909724960918485e-04,-6.432135297621984632e-03,-4.091069076650337248e-03,5.306380987167358398e-01
-1.761426650598757124e-02,-3.115729716793174675e-01,3.045068902459263649e-01,6.748974219346228062e-04,-3.216289603146736328e-03,-1.899096694629137270e-03,5.337671041488647461e-01
-2.626309033992241943e-02,-3.246657913234837212e-01,2.312009316799485403e-01,-1.005392647279013292e-02,1.828532843325153881e-02,6.365194531681409203e-03,4.833091199398040771e-01
-1.746514346857853256e-02,-3.100884566788432162e-01,3.131140479016474298e-01,8.954257611047432893e-04,-8.984911127460994823e-03,2.989078125809913750e-04,5.402694344520568848e-01
-2.287385595931819976e-02,-3.214495766376723185e-01,3.198950405098465177e-01,-2.770898338481687061e-03,-3.418346333188348931e-03,6.907988412298270717e-04,5.559136271476745605e-01
-2.005324009805013047e-02,-3.172469723237397732e-01,3.181932556058866268e-01,-3.005436021803140241e-03,-3.968021140207294087e-03,4.719323652753354718e-04,5.507581830024719238e-01
-2.120730544888282249e-02,-3.195740363324826583e-01,3.180385792489386909e-01,-1.781261640241644552e-03,-3.475009991905312050e-03,7.988683865503634098e-05,5.526083111763000488e-01
9.864628577725713041e-03,-2.695980618258854711e-01,2.896700921341430202e-01,1.507859134799991244e-02,-9.871358719389244571e-03,-1.212663884528975868e-02,4.857996106147766113e-01
-1.839536634077802366e-02,-2.856074046435427838e-01,3.172381903955246996e-01,7.864664689256659069e-03,1.242880416767850119e-02,1.930983577733017681e-02,5.248857736587524414e-01
-2.427799453078858041e-02,-3.261407031602276407e-01,3.062641326167004352e-01,-5.627680010608647129e-03,-3.018857977788258571e-03,-3.924729028460209948e-03,5.480201840400695801e-01
-1.465940027576467797e-02,-3.455820298438537219e-01,1.884486192594783116e-01,8.589356451293819403e-03,4.176067494163925031e-02,-1.646610157129304447e-02,4.735422730445861816e-01
-1.589490807921320817e-02,-4.476915025737565612e-01,3.714922038558438055e-01,-6.663766256261595411e-02,9.459675557628023645e-02,3.008524881252108707e-02,7.393728494644165039e-01
-3.072310205860750640e-02,-3.251281301339967733e-01,3.094786189524821873e-01,-3.051488898571649584e-03,-2.088712220064254960e-03,-4.169468427564829854e-03,5.501470565795898438e-01
-3.285810500930726880e-02,-3.099401272903349325e-01,2.913125981921327878e-01,-1.988482367896572765e-03,1.219204518889063001e-03,-4.406932815280376753e-04,5.212484002113342285e-01
-1.027885133465742187e-02,-3.231744202218243545e-01,3.333089352924867299e-01,2.643841229436454457e-02,-1.758205298402969186e-02,-9.312513222936092891e-03,5.716186165809631348e-01
-2.345693553106164425e-04,-3.094291067966223885e-01,2.994327648555857868e-01,6.063886001680611482e-03,3.737567126737675709e-03,4.416304201319901090e-03,5.275111198425292969e-01
-1.794486998167856354e-02,-3.093592083061940112e-01,2.910592178740793456e-01,2.666471873000593809e-03,2.120740604824446576e-04,3.827348229401008554e-04,5.200730562210083008e-01
-1.997144469390772781e-02,-3.123938243011114557e-01,3.119024603078993096e-01,3.446859464168766391e-03,-1.210456764741157281e-03,2.361259031805388285e-04,5.410532951354980469e-01
-3.663123659012980371e-02,-3.184524188372717668e-01,3.019320958851506864e-01,-2.018497489409915979e-03,-9.654647348986147848e-03,-1.302893402147876044e-03,5.382931828498840332e-01
-4.156651504131118890e-02,-3.206988996520396817e-01,2.958819100935386470e-01,-2.607290469919653492e-03,-3.842866966717818546e-03,-8.566223139983155472e-04,5.348327159881591797e-01
-1.636032199409358928e-02,-3.068548584869897899e-01,2.834593907435276061e-01,-9.565157973311602018e-04,-6.474216623437577690e-05,5.437446758589895186e-03,5.113378167152404785e-01
-2.560200809518801274e-02,-2.743304782494539462e-01,2.973402830117581885e-01,-1.596444914245463654e-03,-6.551773713031732067e-03,5.393301342115268925e-03,4.966952800750732422e-01
-1.309848196257696294e-02,-3.208014306932217008e-01,2.879728104148320256e-01,-3.224863159661104338e-03,3.060805293917651278e-03,4.131808971185309959e-03,5.273292064666748047e-01
-2.994449637822198251e-02,-3.057808400683432182e-01,3.012107239284816940e-01,-7.472040649172961152e-03,8.472484035908071399e-05,1.281515702758485170e-02,5.270240306854248047e-01
-2.174739840599806268e-02,-2.322900487486218302e-01,3.028363569655410648e-01,-2.144029831404958755e-03,-8.853316559924882465e-03,1.313460602973028080e-02,4.677478373050689697e-01
-1.969011043369410172e-02,-3.059902068530941377e-01,3.074847308112851896e-01,2.048002228332730375e-04,3.682406924011993269e-03,1.991071799809538117e-03,5.317273736000061035e-01
-3.513832750222849188e-02,-2.138032739275955441e-01,3.040112801958090305e-01,1.444123289955205906e-04,1.812350788100630444e-03,2.594377173144744170e-02,4.577848017215728760e-01
-3.810431727302030641e-02,-4.436197682600915848e-01,2.743919153947972367e-01,9.352676485792311978e-02,-1.076086457465909862e-01,4.135954648440021836e-02,6.744858622550964355e-01
-4.393053437455324284e-02,-3.422098311047649943e-01,3.022608534370798128e-01,-3.376184506222290604e-03,-3.545350534139934950e-02,-3.815476154977986978e-03,5.620760321617126465e-01
-3.313270943413482855e-02,-3.729525946220193511e-01,2.987480542299371100e-01,1.083174972386579359e-02,-3.958908138269773280e-02,2.869654291422700770e-03,5.860722064971923828e-01
-1.186242322029915433e-02,-3.301349575125737679e-01,3.175000925653781447e-01,1.947127308022830738e-02,-1.214851108950373675e-02,8.989898565375331260e-03,5.625181794166564941e-01
-1.959214190971629924e-02,-3.182089216746000759e-01,3.388813756459455595e-01,1.885798856972022153e-02,-2.979573217199864635e-02,-1.742980192306406093e-02,5.739016532897949219e-01
-2.292724108253499371e-02,-3.189964715194375522e-01,3.085205739995731666e-01,-7.460252961525939714e-04,-5.496580925047282740e-03,-2.802890428228614183e-03,5.438400506973266602e-01
-2.358779036931353892e-02,-4.035867195129283491e-01,3.486027649532369987e-01,1.855593205465702264e-02,-4.907272510600913830e-03,2.434442685912308751e-02,6.536360979080200195e-01
-6.591654977743416355e-03,-3.124103476314860073e-01,4.894243725722869920e-01,2.754754240187427122e-02,-3.064039928234626661e-02,-6.855825545333454896e-02,7.144520878791809082e-01
-2.456697754075568702e-02,-3.592220070214509620e-01,3.792019917432769560e-01,1.787376716611231015e-02,-1.480148948773914695e-02,-9.622464705844621310e-03,6.419035196304321289e-01
3.917588309300265581e-03,-3.176282585684433446e-01,1.476698593352560041e-01,2.966243707974871354e-03,6.420151537132053055e-03,-5.211300102793510122e-03,4.129296839237213135e-01
-2.653095083746295421e-02,-3.045151277682959234e-01,2.505422966739864199e-01,-6.059836062845254910e-03,1.521031942976953846e-03,1.640135767488681839e-02,4.816543161869049072e-01
-2.673807620191877982e-02,-3.067354466952982306e-01,2.861379960137133693e-01,-4.333481230135238262e-03,1.316570932128823326e-03,2.907372257203315910e-04,5.137667059898376465e-01
