sxx,syy,szz,sxy,sxz,syz,smises
-5.010029574848953726e-02,-5.010029574848953726e-02,7.082005914969814464e-01,2.331766223521680056e-51,1.273963334952820232e-51,1.273963334952970529e-51,7.583009004592895508e-01
