sxx,syy,szz,sxy,sxz,syz,smises
-2.956927035422282288e-02,-1.098335937909111104e+00,9.776200475689169611e-01,-1.527433111964336954e-01,-1.957535533365255542e-01,-5.123460491125904348e-02,1.850937008857727051e+00
-1.065924881037997873e-01,-9.519186794696461451e-01,1.160747222730234451e+00,-4.968784616993885198e-03,1.742884423509117112e-02,2.295555711319579098e-02,1.842446208000183105e+00
-9.243698454615491278e-02,-9.583328466054884531e-01,1.017025264390029715e+00,-7.889035769807446058e-03,-1.357341738425871525e-01,3.411538836246742756e-02,1.732140421867370605e+00
-6.734380610634538300e-02,-1.336650651455621341e+00,1.235197394232750989e+00,-8.781188379985306602e-02,-8.428919913425562960e-02,-1.222001586988896160e-01,2.247292518615722656e+00
9.284129948599027793e-03,-9.710967959704833730e-01,8.590257950231708906e-01,-3.583731578478591834e-02,-3.591481236288059931e-01,4.535136263915064136e-02,1.706828474998474121e+00
3.043377988939094392e-02,-1.393744324306728899e+00,9.907406749587723827e-01,-8.020056691577619190e-02,-3.501583980755692549e-01,9.657701884234581868e-02,2.175599098205566406e+00
-7.491125855651226129e-02,-7.806803942039721722e-01,8.169935540193210555e-01,6.374067583333095643e-02,4.358942563354389378e-03,7.744618133666962556e-02,1.397613167762756348e+00
-6.610253078285935335e-02,-7.511035980361008280e-01,7.906361991464821992e-01,4.269032384744725350e-02,2.549791551384271091e-02,7.237661886221433138e-02,1.346561431884765625e+00
-9.502967998425530805e-02,-7.392635194714217706e-01,8.277626116734970729e-01,1.058269887694040720e-02,2.708760365257303557e-02,2.691181134134341957e-02,1.365938067436218262e+00
-6.611798690364940889e-02,-7.599669989446713458e-01,7.821355817089076234e-01,2.971863270832223770e-03,1.046654873617089941e-02,-2.234559706776586586e-03,1.337867975234985352e+00
-5.279316113897566942e-02,-7.613948940900565621e-01,7.777550981197290936e-01,-1.609441598688932107e-02,1.445910442061271520e-02,-1.652080395277683370e-02,1.335169553756713867e+00
-4.105594036891170584e-02,-8.063365601967371621e-01,7.817995143803122549e-01,1.862881961508239953e-02,2.103009701002018714e-02,1.809355119014541616e-02,1.376884460449218750e+00
-5.851913921874282720e-02,-7.329587338545041630e-01,7.763454218949021879e-01,1.550286441744258689e-03,9.110607870569283062e-03,7.270664275815186262e-03,1.309713006019592285e+00
-2.640803894165115462e-02,-7.330909353344037260e-01,7.896811491311723774e-01,-3.586021628663314115e-02,-1.099890150760596957e-02,-6.449188602378429919e-03,1.321538567543029785e+00
-6.426899199885043046e-02,-8.095976181178825559e-01,7.361754726520497449e-01,1.056723196152486652e-02,-3.958158127621028144e-02,1.043075193791777842e-02,1.340963006019592285e+00
-2.367805214862500271e-02,-7.568591144148729688e-01,7.581064165181283787e-01,-5.652180210155890311e-02,2.499995379486945335e-02,7.503868487051363993e-03,1.316646933555603027e+00
-5.178691907226617985e-02,-7.012397595198398559e-01,7.884098690079011096e-01,-3.143336722295431845e-02,6.245310344724469900e-03,-3.529133300987262467e-02,1.296227335929870605e+00
-2.816713327197496383e-02,-8.098695291845026123e-01,7.889472495300450250e-01,-7.363679165127129389e-02,3.699084348430300290e-02,1.203206092964225968e-02,1.392221689224243164e+00
-3.008136616826116022e-02,-7.344184483180010714e-01,7.864453530535260306e-01,-3.813492115476613264e-02,-5.402639374722964342e-03,-4.167345117143718587e-03,1.320007205009460449e+00
-4.788177415877035992e-02,-7.086752948311340061e-01,8.095069567457796600e-01,-6.427351286935926999e-02,-7.873595363766658015e-03,3.795890136477986926e-02,1.324848055839538574e+00
-2.212323224525408749e-02,-8.217829250265311636e-01,8.029152557683483238e-01,-4.090362403741923739e-03,-5.999020602137446548e-03,2.872114782328429733e-03,1.407152056694030762e+00
-3.084297700125474342e-02,-7.781613949251099394e-01,8.087574095890146531e-01,-5.584754856071169615e-02,2.182856069169515634e-02,-2.907930502796808505e-03,1.379011988639831543e+00
-1.417157733991924844e-02,-7.954180512602286868e-01,7.879814043475873442e-01,-1.040596659177192990e-01,1.324710209149315872e-02,9.605363455638323000e-02,1.393257021903991699e+00
-4.419973042656248630e-02,-7.686114699252426519e-01,8.010727223199869407e-01,-2.248581018529925007e-02,-8.512086215738984274e-03,-6.407424744849305387e-04,1.361366391181945801e+00
-4.394826992246510244e-02,-8.087148550115879075e-01,7.880402774465830040e-01,-2.432975227527115619e-02,-2.222749858386565379e-03,6.751957572017065062e-03,1.383935451507568359e+00
-3.611800314574553639e-02,-7.114715334424018822e-01,7.912870109126372009e-01,-6.003187252542811769e-02,-4.083344686514279315e-02,4.395315167025882347e-02,1.311907649040222168e+00
-3.902060097813327133e-02,-7.712050352045104473e-01,7.753654114736363567e-01,-2.135168864802988384e-02,-2.454984726497297549e-03,2.554854235034092688e-02,1.341246962547302246e+00
-4.327542129015246597e-02,-7.410481458849429437e-01,7.635646393072683669e-01,-3.602992137389984112e-02,-1.442520497598477050e-03,4.229468945439878586e-02,1.307721614837646484e+00
-5.467647383353804735e-02,-7.371001009269291249e-01,8.056877391176512360e-01,-3.624858359555574450e-02,-7.561585047571659293e-03,2.593656035152969511e-02,1.341339945793151855e+00
-5.260591764839101653e-02,-8.150103580511663948e-01,6.978155105815549986e-01,1.355060562731623180e-03,1.012236864563647032e-01,1.710611047803561532e-02,1.322172284126281738e+00
-3.026924331366943194e-02,-8.378451197846324972e-01,6.100667246383836284e-01,3.287254213693008992e-02,1.960568752289751637e-01,-1.816899637654413591e-02,1.303409337997436523e+00
-9.183475022320650161e-02,-8.577775499081937705e-01,8.088689602071477136e-01,-7.282984277005104777e-03,1.333314192672228060e-01,-5.353130037185452848e-03,1.463352322578430176e+00
-3.823089018052411997e-04,-8.158078388784189006e-01,8.268364125296020495e-01,-1.728197934292113880e-02,-4.160125992094419398e-03,7.079029776899878335e-03,1.422969818115234375e+00
-7.595499923374687823e-02,-8.451708887297167960e-01,8.471119582960441319e-01,-1.330638808941660926e-03,2.207900950959014799e-02,1.764410400621960195e-03,1.468080520629882812e+00
-9.156027820578704901e-02,-8.616820672954341731e-01,8.147149922485708018e-01,-8.880824300567333879e-03,1.294752920612958769e-01,4.903988518581011216e-03,1.470702290534973145e+00
-1.658050055552549862e-02,-8.741974434460929588e-01,6.014799526334037028e-01,-4.088705932278113094e-04,2.218563503306130724e-01,-2.348568668620245811e-02,1.340477705001831055e+00
-5.767926134344403266e-02,-9.267578013921762281e-01,8.355480461244193524e-01,-1.371387653520714873e-04,6.828814732688653910e-02,-1.684542297747045579e-03,1.530828356742858887e+00
-3.557979974568802051e-02,-8.743898254493672750e-01,7.054587556595148801e-01,-3.756551321017570499e-03,1.978091547499079006e-01,-5.839851882612942871e-03,1.411333084106445312e+00
-4.248712018092538900e-02,-7.927318693052766152e-01,7.646702124921310739e-01,-8.959363972975089739e-04,2.919594119315034597e-03,-1.042280332979105342e-02,1.349181056022644043e+00
-4.564785450787648552e-02,-8.287513833811812614e-01,7.896754160793895139e-01,2.423063301423142996e-03,1.452258481983130598e-03,7.587489852657276594e-03,1.401912093162536621e+00
-3.315636106556519441e-02,-8.307570752272963599e-01,7.281370980953303373e-01,6.146022190808356211e-03,-3.420211246395397399e-03,2.678931933089199677e-02,1.351016044616699219e+00
-2.791563620579892713e-02,-8.401592456953650423e-01,9.066501496319333553e-01,6.629753573145183432e-02,-2.956555155253716080e-02,-7.397428104433828935e-03,1.519282937049865723e+00
1.081073163773677570e-01,-7.960166019075023414e-01,2.948408315398555191e-01,-1.165242693706070596e-03,8.853640860250597266e-02,1.794511639944294454e-02,1.022558569908142090e+00
-3.005454401693355426e-02,-8.318275668369241593e-01,9.813618406342268230e-01,1.466989627269675023e-01,-5.306700222198062165e-03,-1.181597033688043703e-02,1.594300627708435059e+00
-6.605704938849904506e-02,-8.234132683277357589e-01,7.828713667612616778e-01,1.991188231134947192e-03,2.613505552243232388e-03,-7.760871945168568327e-03,1.391913175582885742e+00
-1.207879484802125425e-01,-8.154242697252760408e-01,1.227051498301453325e+00,1.631103134097312557e-01,-8.887482823282673305e-02,-4.693298737244053220e-02,1.829089522361755371e+00
-6.918616955543595293e-02,-7.326837682522165940e-01,9.290199665238484394e-01,1.898219792714636589e-01,-1.214520519681421135e-01,-8.125792430997656746e-02,1.507019996643066406e+00
-1.392918916514634953e-01,-5.243864427043688492e-01,8.000417224181943787e-01,1.861012218540884777e-02,-8.921591015434547287e-03,9.976569644852675833e-02,1.193111538887023926e+00
-9.513676593610329024e-02,-6.710047359332976802e-01,7.700503208977448333e-01,-1.137100301323914434e-03,-1.862637817922606701e-02,9.374289133233165705e-02,1.267207145690917969e+00
-8.819080529578517125e-02,-7.437310566609126594e-01,8.031057053095057574e-01,-3.975085743449417036e-02,1.119176304576628526e-02,5.080109094198938940e-02,1.349548697471618652e+00
-9.314763324568064995e-02,-5.601574472410483230e-01,7.705302811236910410e-01,-7.196814265062029259e-02,-1.437782256650414064e-02,6.828433586655122123e-02,1.182171940803527832e+00
-9.763691465494768462e-02,-6.389726839812496229e-01,8.066151537444856690e-01,-6.103812691161058374e-02,-1.384720084840111720e-02,7.276626851875422908e-02,1.275875091552734375e+00
-9.345487885255365779e-02,-6.594871601331578903e-01,7.899345735209664099e-01,-6.184618995120529095e-02,-1.072355974838808991e-02,4.611269341658654625e-02,1.272397518157958984e+00
-9.430011492255886696e-02,-6.935660190959003213e-01,7.753933284572516182e-01,1.367901151465202893e-02,-1.206026755676155304e-02,9.123146206234611366e-02,1.289430618286132812e+00
-1.971191688004603898e-02,-8.225298426376793648e-01,6.868112004974997742e-01,-6.924576640521320874e-03,2.773679279114866364e-02,3.756332772407418308e-02,1.310567021369934082e+00
-2.101754771400201477e-02,-8.063496180656047896e-01,6.990205856096552983e-01,2.586256974025358518e-03,1.811481259776619168e-02,1.018479068425319142e-02,1.304601907730102539e+00
-2.800219800475050452e-02,-8.395144521464422693e-01,7.479825191179176880e-01,6.361192942639831531e-03,2.097723416807170324e-02,-3.803483640645990982e-02,1.377028346061706543e+00
7.771906128298575189e-03,-7.966276230805324765e-01,5.276671667592019999e-01,-2.210342689946765554e-02,4.107783620573305511e-02,-8.034041413988972369e-02,1.166809678077697754e+00
-1.202537422423436975e-01,-4.493427257892780302e-01,7.638862222658713286e-01,-6.173263209371316479e-02,1.615787613255592267e-02,7.466507801068764105e-03,1.092404246330261230e+00
-2.639529253073402346e-02,-8.468814384062549605e-01,7.283001394393682215e-01,4.493865596398761856e-04,2.841344244862879093e-02,-5.594864756303468377e-03,1.365465641021728516e+00
1.724864143543164419e-02,-8.628124940072383620e-01,5.449877503165388992e-01,-4.882989825564770098e-03,1.107082770510482012e-01,-8.678760596630506752e-02,1.255745053291320801e+00
-5.545851024513169525e-02,-8.255393139783524514e-01,7.998394571285853960e-01,7.056431904745997900e-03,5.523149054113001000e-02,5.926698720969058969e-03,1.411599755287170410e+00
-7.984699542037826392e-02,-6.444314547603136045e-01,8.013218134311627106e-01,-2.961986320562888866e-02,5.672549592881570048e-03,-1.976592900473288575e-02,1.263569951057434082e+00
-4.402720960691591801e-02,-8.267486300183398695e-01,7.603191850826365172e-01,-9.497942913653835417e-03,2.623911128593515302e-02,-9.544254481780723234e-03,1.375432491302490234e+00
-2.100947630230951685e-02,-8.295414050176774801e-01,6.842202865294236824e-01,4.018157606682114247e-02,9.679477407506172082e-02,-1.515607479549273100e-02,1.324731707572937012e+00
-5.077702442661200660e-02,-7.657492973296897709e-01,7.871416866400867685e-01,-1.850587951909898540e-02,1.011255021374391633e-02,-2.766429522505099020e-02,1.347594857215881348e+00
-3.154855879726331525e-02,-8.313576810179835741e-01,7.946147592140431204e-01,4.903021839961311384e-02,3.243892504400757576e-02,-1.688292374283086386e-02,1.412174701690673828e+00
-4.607815363773885842e-02,-8.240164437196793035e-01,7.717837272325375197e-01,-1.248889496583370853e-02,2.412582949253131229e-02,1.436205371194133364e-02,1.383172035217285156e+00
-2.698664963111484585e-02,-8.349598260199690980e-01,7.374232728380518687e-01,3.537693684550231865e-02,7.120488534747874965e-02,3.897478579924725656e-02,1.370506525039672852e+00
-3.273880623545730173e-02,-7.515626687036736087e-01,9.688657889373581966e-01,-1.080097290340062133e-01,-8.996188957142690207e-03,-2.105797814961921435e-02,1.508796930313110352e+00
-1.059706682075844952e-02,-7.575953847264483842e-01,8.465986641811894531e-01,-1.169829151310516069e-01,-2.816924763147787836e-02,-7.497725218848447400e-03,1.405958414077758789e+00
-4.600790114673741771e-02,-8.326631400730230004e-01,8.128376950070458351e-01,-3.079975144144755581e-03,-5.773940811889281474e-03,8.179372716794629152e-04,1.425548315048217773e+00
-3.985209447730300725e-03,-7.179687580767453170e-01,8.037882193581146195e-01,-1.113632476290099815e-01,1.141499971201412507e-02,-4.033742835560513891e-03,1.332911252975463867e+00
5.878248132258191358e-03,-7.292442323672301274e-01,7.771452971974341928e-01,-1.053526752993302895e-01,9.652878666549074768e-03,1.987608410409687915e-02,1.317951440811157227e+00
2.425899499929542319e-02,-7.228537452451019307e-01,7.746878746395938764e-01,-8.318264943196140848e-02,-1.372299080796389546e-03,-3.836523103093829584e-03,1.304907560348510742e+00
2.094401179015889514e-02,-7.207403539481507249e-01,7.927972057124894611e-01,-8.355116473357743212e-02,-1.456876158263116332e-03,4.668794142174715125e-03,1.318839907646179199e+00
2.045467133206210417e-02,-8.511704547998562020e-01,8.183405196840105589e-01,-6.483774681066332979e-02,-2.482163035532337746e-06,-2.528206707601486376e-03,1.450668931007385254e+00
1.115492496281851598e-03,-7.599230871989109959e-01,8.382010841778704258e-01,-5.874810526247125492e-02,1.930355749623570774e-02,-4.867809426761040420e-02,1.391232132911682129e+00
-1.303669252018428704e-02,-8.527535444249126906e-01,6.727336479523614576e-01,-1.291966223541220378e-02,3.747921588982911639e-02,6.600559666076370735e-02,1.330053925514221191e+00
-3.528186142106211343e-02,-8.035782197542422622e-01,7.201276470558364284e-01,3.345601149757254037e-03,1.837282801003414789e-02,-1.767378666475295746e-03,1.319983601570129395e+00
-3.038654887224147283e-02,-7.870085504819304134e-01,7.211409551830989528e-01,-6.898594495624521539e-03,5.495388102933303730e-03,1.388453931952230228e-02,1.306409001350402832e+00
-6.128546062511471687e-02,-7.071531399134710627e-01,7.209096947325946969e-01,4.963603547496382717e-02,4.360266183936726408e-02,4.167917219713745264e-02,1.245983600616455078e+00
-2.845860545811727121e-02,-8.025286105994030583e-01,7.309758817412997933e-01,-1.397295426301771665e-03,1.103743341500001800e-02,2.400969023780123723e-02,1.328864693641662598e+00
-6.098869681745252430e-02,-8.127239430116399710e-01,8.092986331840664738e-01,4.278735221056781911e-03,-2.436371662850858946e-02,-1.738170054652631372e-02,1.406937718391418457e+00
-6.339712381727585777e-02,-8.129389066728240909e-01,7.640635476096153678e-01,2.629106058797918335e-03,8.001675894691254870e-03,-7.418244756213934407e-03,1.366418004035949707e+00
-6.802722734245250646e-02,-7.727656116771439709e-01,7.880139991104718744e-01,2.718401519183629225e-02,-1.030483499585684026e-02,-4.825135629555070416e-02,1.357301712036132812e+00
2.439168912270539558e-02,-8.331897593329937735e-01,4.999875512223787011e-01,-5.148125122796851603e-03,-1.651045966055040559e-01,-2.612310833853653726e-03,1.204731583595275879e+00
5.130140567884244884e-02,-8.873536866182563099e-01,4.578011368699705930e-01,2.485606959729863563e-02,-1.479916671085610425e-01,1.107490236048582766e-01,1.237833857536315918e+00
1.302662145916419489e-02,-8.314319687968166894e-01,5.778296389368690056e-01,1.214327451651134489e-02,-9.425195328159435837e-02,4.410548236131849563e-03,1.239441990852355957e+00
-4.031753095189211100e-02,-8.342589465442027397e-01,8.156406885985882926e-01,-2.323605140071409187e-03,-1.984269362462850409e-03,1.319481314876716884e-03,1.429203033447265625e+00
-1.082555299948534389e-02,-8.293483051093343272e-01,5.820012430471176446e-01,1.732266643574399342e-02,-8.533309233884615874e-02,4.234967572971654569e-03,1.236715197563171387e+00
-1.729873111915342099e-02,-8.023687095818538006e-01,5.733044006724282715e-01,2.129642665653600636e-02,-1.058232764375997281e-01,5.761696719214310508e-02,1.213971614837646484e+00
5.501500932452882409e-02,-8.140809967247537582e-01,3.925818616345019274e-01,1.403324970079487290e-02,-1.576035542811159706e-01,8.423459019557316685e-02,1.122074484825134277e+00
1.433240917962741445e-02,-8.156239481382944190e-01,5.043526092605863376e-01,-8.049561410692735244e-03,1.807925191548376553e-01,-4.071356984355131714e-02,1.199528098106384277e+00
-4.665954723863285913e-02,-8.389356294467299469e-01,6.207883596201245746e-01,1.106882116013176674e-02,2.009589533589861421e-01,-3.871264187154586922e-02,1.314537286758422852e+00
-5.267668371643352554e-02,-8.870249423118133913e-01,8.115866741334090140e-01,-1.005233076765419667e-03,6.693284115301456616e-02,-2.508178113724831432e-02,1.476318120956420898e+00
-2.561299431005909649e-02,-8.313783427174888940e-01,6.644451256121516325e-01,1.473373080898366522e-02,1.001616525192247781e-01,-3.802531122001621966e-02,1.310171365737915039e+00
-6.746139568304687639e-02,-8.268510915166575881e-01,7.581299164791531764e-01,-1.501139445822891700e-03,1.037904418208450419e-01,1.255758218169806401e-02,1.384924769401550293e+00
-2.160292620753955645e-02,-8.266324551281400979e-01,7.716631573844309200e-01,3.851384656193253611e-03,-1.384314578661580315e-02,-2.402033747838061800e-04,1.384400844573974609e+00
-4.730248956077759415e-02,-8.261366667496754523e-01,7.966394207304015040e-01,-4.409407223918465971e-03,-4.968572082486347706e-03,-8.894228351001063834e-03,1.405873775482177734e+00
-4.665782170073622809e-02,-8.247609613309949683e-01,7.779898477930610179e-01,-6.308936321514850565e-03,1.541928422077287406e-02,2.158016362017606618e-02,1.389020919799804688e+00
-4.809509380750067592e-02,-8.230516147359965284e-01,7.634084897523766289e-01,-3.122430681979057251e-03,3.366465662816021942e-02,-5.662300896765840724e-03,1.375318527221679688e+00
-8.921765769560760506e-02,-5.662671695535521632e-01,7.672628994988403006e-01,-9.528397133993138368e-02,2.501514643124687007e-03,-9.920712401235216860e-02,1.194362163543701172e+00
-5.035205217138646883e-02,-8.151756375672526422e-01,7.175911515314504774e-01,-6.644188270049884021e-03,9.687133218414233082e-02,4.008241916372389663e-02,1.339827418327331543e+00
5.414650979397181429e-03,-8.214224602820757726e-01,6.248430838778483709e-01,-2.599595248681454973e-02,7.093901289221136996e-02,-2.478054560790506414e-02,1.264311790466308594e+00
-1.765038424990872032e-02,-8.147049984400552836e-01,7.189945334494008966e-01,-1.425693433430445280e-02,6.424648060060634235e-03,2.538250182297260502e-02,1.329569220542907715e+00
-3.334638726510825990e-02,-8.189577418127823583e-01,7.277859341585057873e-01,9.588781608099682802e-03,1.869019803811356947e-02,1.218211025343426089e-02,1.340235352516174316e+00
-1.971857485995578974e-02,-8.509851316096104235e-01,7.188351239447521301e-01,-7.484524924686280882e-03,3.031106573238128918e-02,-6.071932834110027946e-03,1.361409425735473633e+00
-1.778573600134884108e-02,-8.336155936848791415e-01,6.630728061418527108e-01,-4.504431050119645126e-03,-1.239670279645896378e-01,-9.823887428516836495e-03,1.315699577331542969e+00
-3.373197097204255063e-02,-8.203996922011909110e-01,7.236892364729519134e-01,1.941912072810084849e-02,3.241642534028483374e-02,8.137404232650763880e-04,1.338901638984680176e+00
-3.415830320370489420e-02,-8.449584448211515664e-01,7.045892405302511818e-01,3.115052871937739123e-02,4.820826070653311257e-02,-3.677219484764222140e-02,1.347613096237182617e+00
-2.111119180699949291e-02,-8.596990733955849340e-01,7.321658556700141318e-01,7.865451916762823616e-05,1.806847631271484012e-02,-8.133685545461405084e-03,1.379682183265686035e+00
1.000755154413980087e-02,-8.030226035074706781e-01,7.868469510018986091e-01,3.277926829021260945e-03,-2.452068022579650345e-03,-5.701766765047406108e-03,1.377040028572082520e+00
1.927463589453705384e-03,-6.419039104751752545e-01,7.948184255006925936e-01,-1.487183338681925260e-01,2.083891454009839314e-02,-2.083385150372796257e-02,1.273828625679016113e+00
1.341114231231178150e-02,-6.346532259941669585e-01,7.649638456026423006e-01,-1.021720663283574165e-01,-3.647979093597358141e-03,-6.838165615806989818e-03,1.226120352745056152e+00
1.351191899728438478e-02,-7.272457683005220108e-01,7.794199250090715347e-01,-3.656395511189341335e-02,-1.024021146546869000e-03,7.420120630838365587e-03,1.306471705436706543e+00
-2.464466889185085163e-03,-6.546008437798891411e-01,7.709861689253799666e-01,-8.672049774599661920e-02,-1.548560553209365944e-03,1.293373834645519457e-02,1.245380878448486328e+00
1.084639976015974380e-02,-6.361596907282232038e-01,7.509189126791582236e-01,-1.051316808002630554e-01,6.679247691717140299e-03,-1.293006906211505548e-03,1.215916275978088379e+00
1.617961804578843532e-02,-7.341174647521230279e-01,7.747733093648282443e-01,-4.066789964243433531e-02,1.208061303478565052e-02,-1.286749039918506227e-02,1.308998465538024902e+00
1.245034850035083018e-02,-8.242041350357212082e-01,6.024159769584385149e-01,-1.386478886228066643e-02,-2.374723001941251438e-02,-4.900850480627985326e-03,1.242573142051696777e+00
-9.241722785514881744e-02,-6.014328313635893819e-01,7.670476369073617740e-01,1.284060182791655572e-03,-2.048228556214417434e-02,1.093617217909915833e-02,1.198699355125427246e+00
3.363157602836966409e-03,-8.438798532782492146e-01,6.115625547178930033e-01,-2.591022879464061762e-02,-4.201985826452019762e-02,-8.482774306874368841e-02,1.277465581893920898e+00
-3.265910029149744070e-02,-7.788251575683770023e-01,7.169626761703685736e-01,1.214460006601426976e-03,5.734182848842560472e-03,8.789252450009988477e-03,1.295520663261413574e+00
-4.194454338006572275e-02,-8.286166211791649028e-01,8.035246582242394631e-01,-7.925237107237172174e-03,1.611362527226211164e-02,1.997466935872084515e-02,1.414546728134155273e+00
-1.631081949341537177e-02,-7.770519979173630132e-01,6.859515337956249015e-01,-1.019370171690116983e-02,-6.669248885848543841e-03,1.693713461141131346e-02,1.267850637435913086e+00
-2.754177281514765679e-02,-8.325548282428234526e-01,7.269021228814120938e-01,-1.034257833912883597e-02,1.099562612324278847e-03,1.230816596785513179e-03,1.350887775421142578e+00
-5.685063280199856295e-02,-7.857615023174313595e-01,7.228236693098795129e-01,-7.701188376429038418e-02,-4.798175668101072738e-02,-9.085331222649933869e-02,1.325510621070861816e+00
9.117816241341300532e-02,-8.795924196348210433e-01,3.550183091614296238e-01,1.031728139836011054e-01,-2.933925077954148697e-01,4.323507550015873863e-02,1.250565767288208008e+00
-4.852488034295139585e-02,-7.481022912976373895e-01,7.069217993398583255e-01,-2.139501941414905656e-02,1.269170961912331275e-03,-8.056025769317118335e-02,1.268640875816345215e+00
-6.732532622042265713e-02,-8.330611848916966711e-01,7.973336971098204939e-01,-8.362775746404305793e-03,-2.723345945820056582e-02,-1.910044595815417684e-03,1.413694739341735840e+00
-5.444339185454090402e-02,-8.490009430256640899e-01,8.208647529207676596e-01,-3.743575956874195185e-03,-1.552838798025587413e-02,-2.940283758771468966e-03,1.446983098983764648e+00
-1.641244897316850304e-01,-3.267649363285204389e-01,1.115956985417359437e+00,2.244915754837027433e-01,1.917216746753094003e-01,-4.613090767739549264e-02,1.463249325752258301e+00
-3.546304166748216746e-02,-8.213345545046816243e-01,8.102559122406991499e-01,2.797077101456902585e-03,-1.651942292429452522e-02,-1.407300045099329003e-03,1.413615584373474121e+00
-4.249467989540058055e-02,-8.263524197227138934e-01,8.094000923232439471e-01,-3.192735989907245948e-03,-1.050199845748565506e-03,2.500475660915708279e-03,1.417030215263366699e+00
-3.716456292046149690e-02,-8.263917459087605222e-01,7.990426498626072016e-01,6.501941131862899736e-03,-5.057526295116731956e-03,-1.465090453679375807e-02,1.408164381980895996e+00
-5.983342790901180486e-03,-3.010520672173885304e-01,3.618344225399254266e-01,3.848714540873018897e-02,1.019978289056068001e-02,2.807024851063121690e-02,5.813834071159362793e-01
-3.793048866873185987e-02,-8.298495024925226504e-01,7.905460650470064188e-01,6.005148916014399832e-03,-1.254601825999121859e-02,4.826192301096191256e-04,1.403629779815673828e+00
-3.667432497678578540e-02,-8.192272418514258137e-01,7.847201816364303140e-01,2.749784229682005461e-05,-5.933373480737366180e-03,3.838777126147138556e-03,1.389248847961425781e+00
-7.696167959740221609e-02,-8.128352398059863759e-01,7.777394681563535306e-01,-3.182201409587796955e-05,-7.530712940087852351e-03,-3.965788072147801769e-04,1.378820657730102539e+00
-4.105819544993925818e-02,-8.290023013118480444e-01,8.103641074448966197e-01,5.116721645941348443e-03,-1.413561779505467450e-02,1.927798288479151689e-03,1.420330286026000977e+00
-4.798438436477814317e-02,-8.027617945825018531e-01,8.043975025411199686e-01,8.278077268196190955e-03,-1.085703264892245827e-02,-1.242506670272520855e-03,1.392898559570312500e+00
-4.215540026915785832e-02,-8.306920008380959120e-01,8.103890459612137498e-01,5.869543839607526368e-03,-1.467122889241629334e-02,1.013050589298743415e-03,1.421842694282531738e+00
-4.560948559356033105e-02,-8.266850777018953655e-01,7.816180476379677167e-01,7.537546827966183464e-03,6.359551986458064285e-03,-1.025649570634941214e-02,1.393240451812744141e+00
-4.405766631820330625e-02,-8.306219540350192609e-01,8.026235778754313710e-01,6.771913393340648311e-03,-9.198263001424658927e-03,-1.417296398254727337e-03,1.414891958236694336e+00
-3.988558846570781913e-02,-8.252840255203277575e-01,8.039617018562305040e-01,1.448129010789394808e-03,-6.241683015995834471e-03,1.700751953449005207e-03,1.411317467689514160e+00
-4.643029296346984358e-02,-8.336021138969669231e-01,8.093992949005868187e-01,2.922360279130999279e-03,-1.010845452564186273e-02,4.059016530163748332e-03,1.423429012298583984e+00
-3.526787090786650397e-02,-8.267489103325217359e-01,8.090247305659040711e-01,2.165898076129397793e-03,-1.397710443190291855e-02,-3.933743513880296784e-03,1.417095780372619629e+00
-3.685635879633167300e-02,-8.249781850218439461e-01,7.918807329436594600e-01,-3.629605905540889284e-04,2.087161966402005520e-02,1.576917468129368158e-02,1.401121020317077637e+00
-5.513366622195410571e-02,-6.432535419768034002e-01,8.080795336473427515e-01,-9.483496527469123527e-02,1.350458278763184538e-03,-3.566968699083433725e-02,1.276517987251281738e+00
-2.804807613426613805e-02,-7.224340987765875965e-01,7.771945892388260058e-01,-4.378729501055187573e-02,2.354389368848773187e-02,-1.539300764120228419e-02,1.303020596504211426e+00
-5.174937176723555174e-03,-8.220886695330684724e-01,7.925396901399817118e-01,-5.209350045419523789e-02,1.667455041442018199e-02,-4.165475579320151306e-02,1.403403520584106445e+00
-2.422237163959700679e-04,-7.907959368369722464e-01,8.380778137796348615e-01,-8.690663814583519942e-02,2.931614382367793079e-02,-3.154345500150373960e-02,1.420814633369445801e+00
-2.971618197379399806e-02,-6.419996616973323578e-01,7.824160568863709475e-01,-1.165923963875150904e-01,-1.350356279784461870e-02,4.076728404948245892e-03,1.254226207733154297e+00
-2.331239144835479948e-02,-8.306599301957898751e-01,8.171238283532630264e-01,3.081243286664188050e-02,-2.095025962573760989e-02,-3.864845964213459162e-02,1.430144548416137695e+00
-2.515003527821990659e-02,-7.230632666902745420e-01,7.907571303818978770e-01,3.951874809005695433e-02,-1.203195729104883545e-02,-8.950499480128319696e-03,1.314374208450317383e+00
-2.794340733031049767e-02,-7.687032910632610738e-01,8.120329551804805757e-01,7.181951878284520419e-02,-1.939086560150488081e-02,-3.765375029325849360e-02,1.377447605133056641e+00
-1.507375940891580307e-02,-7.727662830237223002e-01,8.333172243103966759e-01,1.245214476330920861e-01,1.162072543269279147e-02,-3.213408855362751698e-02,1.409505009651184082e+00
-2.892614805554752366e-02,-7.430644459227978560e-01,8.081495839765961975e-01,7.205258030002117953e-02,-2.380242121969088770e-02,-3.428230282643926052e-03,1.351216793060302734e+00
9.565994513593365292e-03,-8.363397174949570578e-01,8.434316109872723732e-01,1.509205005636651276e-01,-6.718531506144529743e-03,-7.108284600622445659e-02,1.483200788497924805e+00
1.112831894147591795e-02,-8.291964776578640839e-01,8.265108270088735720e-01,7.638002754932519955e-02,1.756402075127410376e-03,-2.432855743552806566e-02,1.440648198127746582e+00
-8.576493802937534827e-02,-4.290419368262002320e-01,6.805772077486967886e-01,-1.586910392588521956e-01,6.543815075508838119e-02,1.482398223968775519e-01,1.059484362602233887e+00
-6.228420752265935445e-03,-6.460914536876426473e-01,8.101788100616464927e-01,1.376785115902026957e-01,7.691263328798872076e-03,-1.787739954091537020e-02,1.286987423896789551e+00
4.921104621164490434e-03,-8.191357951579620877e-01,6.369860754456236895e-01,-1.843143943560934458e-02,5.911097401870567779e-03,3.177886897150842410e-02,1.266328215599060059e+00
-6.864219422197725962e-03,-8.995630511500514181e-01,6.756353495927289732e-01,2.029174556199895771e-02,1.768201709064233171e-03,7.777755162527696942e-02,1.375273108482360840e+00
-2.315959694158620241e-02,-8.499891127119932888e-01,6.959830410822380742e-01,3.183028374289837911e-03,1.680847662737830451e-04,-2.975361087592275078e-02,1.340935468673706055e+00
-5.563184305598878332e-03,-7.790012492154059220e-01,5.739969085572426133e-01,-6.720278488925634022e-03,1.165640455741364691e-02,-3.630853079835041908e-02,1.177645206451416016e+00
3.014733590850916800e-02,-8.177118603159448940e-01,5.739311977011136712e-01,1.045701009288179176e-02,3.357574492200662061e-03,-3.839400444559907394e-02,1.216717839241027832e+00
-1.836288376917474818e-02,-8.413975519939391745e-01,6.684316797081786277e-01,-1.298812125637159934e-02,1.190092305850566114e-02,6.420782477679720657e-02,1.314392447471618652e+00
1.075006284391223643e-02,-7.932042726452299686e-01,5.741378322521281108e-01,-1.628734570778273558e-03,1.774423392447617431e-02,-3.329212503445005966e-02,1.192041993141174316e+00
1.042444206183863742e-02,-9.145248611287026819e-01,6.559329348742234389e-01,-1.616082296608838467e-02,-7.846166870142928101e-03,1.126726012850423481e-01,1.381422638893127441e+00
-6.127476591102035131e-02,-8.119383327061444611e-01,7.948689242480209138e-01,7.114711841645261423e-03,-2.495377323265806930e-03,-1.545268218589846039e-02,1.392853379249572754e+00
-4.508503395538170089e-02,-7.559002052246809322e-01,7.983459650024258281e-01,3.935664200739644875e-02,2.605316410797389390e-02,2.499711731770036180e-02,1.350820183753967285e+00
-4.283640434217753090e-02,-8.136126534140546429e-01,7.748817172274647946e-01,-2.241521555187043699e-03,-7.806929931263796758e-03,-4.055092962585522300e-03,1.375966548919677734e+00
-2.689499112799315084e-02,-8.195124675528990821e-01,8.069876957907466952e-01,-1.457977008010623125e-02,1.718611832537101855e-02,5.409271941254759249e-03,1.409313440322875977e+00
-4.581189527803314343e-02,-8.033016298689251711e-01,7.889115968039056570e-01,-4.162683478993909128e-03,-1.084526091655634190e-02,9.918138813707622070e-03,1.379691481590270996e+00
-3.271440925698574503e-02,-8.399668924971205319e-01,7.906989367999320839e-01,3.249608413173209198e-02,1.363400806427641360e-02,-2.522864090823602815e-02,1.414214849472045898e+00
-6.599282369327758024e-02,-8.130633612299363877e-01,7.700546868784358123e-01,5.695291600317473361e-04,8.135747331751579797e-03,-2.983547845350730410e-03,1.371824502944946289e+00
-6.417497374915172303e-02,-8.183589751324084061e-01,7.804824946326615054e-01,4.865096494232991516e-03,-1.750665711321407149e-03,5.836882742333573786e-03,1.385441899299621582e+00
-4.707322484197542373e-02,-8.056145795861699987e-01,7.777235731728902035e-01,2.752982217221658021e-02,7.874176681336110886e-03,-3.702832313219241861e-02,1.374005198478698730e+00
-4.487779160166487091e-02,-8.713384405062962745e-01,8.213968171687018316e-01,-1.171383876408359573e-02,-1.891160861958955317e-02,1.605669282966032049e-02,1.466856837272644043e+00
-3.165267141859907929e-02,-8.230334160625959461e-01,7.024224020933379498e-01,-6.440477847102289363e-03,-5.448657142528650493e-02,6.556857901866501755e-03,1.324855566024780273e+00
-3.864219395992683770e-02,-8.312844040421686342e-01,7.103359668456724618e-01,1.566969768130134152e-02,-6.619039571401620636e-02,3.124604460377375555e-03,1.340459227561950684e+00
-4.342710858790026912e-02,-8.325848356105874926e-01,7.253189100334543893e-01,1.477415883640017039e-02,-5.118283263852933807e-02,3.158822854851963541e-02,1.353480577468872070e+00
-4.274989904832486587e-02,-8.185868550979878977e-01,7.605580276399983575e-01,2.709860434118922367e-03,-2.323221705989409608e-02,-1.411343275400631092e-02,1.368466854095458984e+00
-7.425945716425130794e-02,-8.655268155712827483e-01,8.376344616351683037e-01,-3.190449539203957675e-03,-5.344875667951444476e-02,-1.640227343491906320e-03,1.479126572608947754e+00
-7.320348214103492013e-02,-8.761216955239400361e-01,8.498014424686214374e-01,-3.622485009794465961e-03,-6.276716183330310894e-02,-1.144124254309696748e-02,1.499988198280334473e+00
-6.910490464554885914e-03,-9.692349334350084389e-01,6.434872868113430400e-01,6.976011737314284124e-03,-1.615326264396293454e-01,-8.421872157790673274e-02,1.440375685691833496e+00
-1.501346321964595887e-02,-9.709419675955822671e-01,7.714465140895967465e-01,9.394223223011341495e-02,-1.685511846974715455e-01,5.569954409687917496e-02,1.550848007202148438e+00
-9.855011150373853279e-02,-8.728825522216644428e-01,8.111892262543952681e-01,-1.694564699639493008e-02,-1.047882893796657500e-01,-1.541030292184621120e-02,1.471792340278625488e+00
-4.921459675918336135e-02,-8.286996247905058510e-01,7.370564398519169336e-01,-8.341827023548097075e-03,-8.301706005249823161e-02,-1.382466428902257623e-03,1.363669872283935547e+00
-2.353038119931653155e-02,-9.009994254982626183e-01,6.677972192330765555e-01,2.682694086297432792e-02,-2.286093375320060739e-01,-2.243249505660829465e-02,1.419492721557617188e+00
-5.924678792743579003e-02,-8.521104045860311560e-01,7.459257675318108349e-01,9.540741434560472828e-03,-8.012636671994709248e-02,-1.086148369234277503e-02,1.391120195388793945e+00
1.000762690931265297e-01,-8.381216027381266365e-01,3.379768982034123126e-01,1.279693275685606958e-02,6.432708286849693480e-02,-1.176330936563605573e-01,1.102010726928710938e+00
-5.409000641413647115e-02,-7.661611115469149080e-01,8.059807490120972640e-01,-2.035600799822291120e-03,6.688412016933193913e-03,-4.346404660055091379e-02,1.365654587745666504e+00
-4.552523607824693341e-02,-8.148837559434515265e-01,7.726588301211200216e-01,-6.963640742931513292e-03,1.105474331766813714e-02,8.791915913400723953e-03,1.375339388847351074e+00
-2.957043690163164290e-02,-8.074082969480912420e-01,7.179050659367910425e-01,-8.917890775089364801e-04,-2.480754816664677842e-02,-7.215910033302741500e-03,1.321805953979492188e+00
-3.653983415781061894e-02,-8.472810218590836051e-01,7.705483904403372941e-01,-1.276867313391503653e-02,-9.061270822141521269e-03,-6.311516728476769880e-03,1.401387572288513184e+00
-2.920956748496277358e-02,-8.211419942058126864e-01,7.202207472530153254e-01,1.796951421924543020e-03,-2.577629863173728705e-02,-4.128368891941393455e-03,1.335797548294067383e+00
-1.222486998071531938e-01,-4.990708740377937103e-01,8.208192595980993156e-01,-1.081305716385668469e-01,3.354923386167874000e-02,1.392171619693377896e-02,1.194058537483215332e+00
-8.672683436254836897e-02,-7.578309646101738517e-01,7.790862968176894832e-01,-3.623695190749306669e-03,6.210190808202339235e-03,6.609599876379294858e-02,1.339524149894714355e+00
-4.953207698046969976e-02,-5.477878030946869981e-01,7.663092737524841436e-01,8.643159718206729070e-02,-9.357670702554693465e-03,-1.358421673959260903e-02,1.159129381179809570e+00
-6.569081847051672085e-02,-7.826291948052450653e-01,8.145541845933246261e-01,-8.412437318017763205e-03,-2.705289986287197248e-04,6.429222413764733475e-03,1.385730743408203125e+00
-8.894451016224121098e-02,-5.759804762382388921e-01,7.638550672881323500e-01,3.825190174230358453e-02,1.413708963671254232e-02,2.000246147839451413e-02,1.177286982536315918e+00
-7.715426972754536872e-02,-5.792231642529740432e-01,7.597905180878984366e-01,1.449381481205723942e-03,2.015764874111625887e-02,2.769315409442578077e-02,1.173149466514587402e+00
-5.687748626355675768e-02,-7.580069213626615676e-01,7.530668628916037388e-01,2.280097121205310051e-02,2.322209823879547302e-02,-4.595287904031182362e-03,1.310995459556579590e+00
-5.216934364940641056e-02,-6.836116101539799761e-01,6.748263540120540416e-01,3.556374595158285495e-02,-8.283176214118210742e-03,-1.583293710227628298e-02,1.179427862167358398e+00
-6.457624869435063530e-02,-7.629377848297361764e-01,7.766446773607066367e-01,3.109010325830954477e-02,-6.859168478152157314e-03,6.167174200006680235e-02,1.340630054473876953e+00
-4.402380726547951151e-02,-7.569551257359866669e-01,7.790343244651997123e-01,3.264282522537741843e-02,-6.887420497739557036e-03,-2.469400037839711293e-02,1.333284616470336914e+00
-5.177231832354188545e-02,-6.342443539643604078e-01,7.863841385176577603e-01,6.252424968267919492e-02,1.031081598259725798e-02,-3.126101642573748170e-03,1.241796612739562988e+00
-9.426232500841415229e-02,-6.266614624853222848e-01,7.769700855827279540e-01,2.202747221697655411e-02,1.747593419613371890e-02,3.511925577191206405e-02,1.229800820350646973e+00
-4.104542681961789730e-02,-7.777095454230542604e-01,7.719775627623274294e-01,-1.554837078864367700e-02,-6.519506110642134776e-03,7.620387989996248168e-02,1.349399566650390625e+00
-6.176178887834431197e-02,-8.452387447740808968e-01,8.059230812677955491e-01,-1.237787809820660098e-02,8.799921757278581684e-04,-8.073952854604894355e-03,1.430797576904296875e+00
-9.810173900904060884e-02,-6.890594457953514995e-01,8.114202714489670010e-01,1.271284422638306079e-02,1.384208129902237197e-02,9.732073824483503111e-02,1.320387840270996094e+00
-7.590568602282585231e-02,-6.817240885905083703e-01,6.536038997928983463e-01,-1.283747408772182609e-02,-2.406244097937306967e-02,2.055616604260462540e-02,1.159590244293212891e+00
-1.180031902983759429e-01,-6.679641844117488736e-01,8.284423775182133687e-01,3.617817400798650079e-02,-3.954424021307465648e-02,8.113633879704300333e-02,1.321775913238525391e+00
-9.050184666368950304e-02,-6.890515645803334532e-01,7.848094070236462105e-01,1.948560487640065703e-02,-1.715661553782994730e-02,1.073589822726148287e-02,1.284802198410034180e+00
-3.945834429797235449e-02,-8.043854052948277156e-01,7.475637546229983998e-01,3.336776043041921654e-03,3.660725100974707158e-02,1.833370357246401046e-03,1.345583677291870117e+00
-4.458309618792274248e-02,-8.787703466706754396e-01,7.745486813320073827e-01,-1.795905201160035661e-03,6.770278258152752360e-02,2.175121755992374950e-02,1.437127232551574707e+00
2.084761956487158827e-02,-7.288167971552262925e-01,7.622726272833828531e-01,3.661730022578191940e-02,8.919030617077322934e-03,6.114549842596195446e-03,1.293020129203796387e+00
-2.659161850053604406e-02,-7.740229562632559013e-01,7.841467472438937714e-01,4.178156416318087873e-02,-2.710875637127976856e-02,-3.571620768121058775e-02,1.353953599929809570e+00
-3.546013396431184350e-02,-8.282025041840999080e-01,8.015172753437924680e-01,2.834584064700554178e-03,-1.089516666972755420e-02,-3.771645043328138505e-03,1.411701798439025879e+00
-3.970599931981701192e-02,-8.308219988880511941e-01,7.953872593130275614e-01,-1.905088477945001595e-03,-8.742898271461413059e-03,-2.375046103921105243e-03,1.408601403236389160e+00
-7.723356132317779621e-02,-4.411796273970920446e-01,7.668935760485741104e-01,1.759920336212885961e-01,2.070170311273713745e-02,6.931257389123038175e-03,1.116500616073608398e+00
-4.566420033052342314e-02,-8.227955824855336386e-01,7.666536011381739346e-01,-1.576175182678659151e-02,6.959035173319129582e-03,1.324375683151254347e-02,1.377130270004272461e+00
-7.435163801282740348e-02,-8.075979553342830242e-01,7.610216141799499567e-01,4.400599857261262675e-03,3.027398888521924268e-04,-2.507218865183457289e-03,1.359452128410339355e+00
-3.820716140145493517e-02,-7.879308628925302260e-01,6.997525248284320876e-01,6.884627616404299932e-02,1.735531235629128033e-01,4.527001886449608277e-03,1.328374505043029785e+00
-3.788771741037576940e-02,-8.114218675460481700e-01,7.179102341900926998e-01,6.772216623534102779e-04,7.487105572672216047e-03,3.649369736322229801e-02,1.326041460037231445e+00
-2.165409037615770305e-02,-8.212910865422295981e-01,6.470150191382677551e-01,-3.225899056880322888e-03,7.195125134667867961e-02,7.399389891725835500e-02,1.285775184631347656e+00
-2.315020843213772342e-02,-8.130769326658310314e-01,6.997133197398816007e-01,1.065077922718367723e-02,1.248172018179796554e-02,8.616822836146230055e-03,1.310936927795410156e+00
1.194791464064727526e-02,-8.245125500910881478e-01,5.872686131975551893e-01,-1.296941281699996035e-02,2.020325182613331647e-02,5.545836409357383229e-02,1.234037756919860840e+00
-1.251804842091794323e-03,-8.204013880788683100e-01,6.134229365765494491e-01,-1.183642407687913838e-02,7.760493307629302839e-02,2.743807657121597604e-02,1.254228115081787109e+00
-1.046144262616779813e-01,-8.511511822602673139e-01,9.568531364049155385e-01,1.717153942568346719e-02,-9.173173176663348971e-02,-2.009870318286775120e-02,1.582338690757751465e+00
-7.832528793120155375e-02,-8.707984502487857714e-01,8.760401532868988816e-01,-1.669149011749652273e-02,-5.018146849945953614e-02,-4.081071765492967976e-03,1.517753720283508301e+00
-7.548018312847300237e-02,-8.665295790197403702e-01,9.230704109059071349e-01,-6.648362607505554217e-03,-1.649649942505048567e-02,7.850193724660606796e-04,1.553613901138305664e+00
-8.162772844535459704e-02,-9.332881254954893402e-01,8.758755709434192793e-01,1.358634993939452675e-02,-1.454595894221876184e-01,-2.974849816556257576e-02,1.588801383972167969e+00
-3.209696641023990910e-02,-8.998185629342424496e-01,8.390680679154894905e-01,7.159088956470233134e-02,-1.182617396208224536e-01,3.875529642843904277e-02,1.526314854621887207e+00
-7.630242242934005825e-02,-8.706497637843350068e-01,9.339104314801313089e-01,-1.078150057615973566e-03,-1.032600421920150217e-02,1.744645442302940677e-02,1.566912293434143066e+00
-4.382427071059141754e-02,-7.999497518972230603e-01,7.948355746010474787e-01,6.626002287600397250e-03,6.249579725498773802e-03,1.636808714049195132e-02,1.382121801376342773e+00
-4.204671459716930598e-02,-8.751323929281308311e-01,8.520350125203292047e-01,3.969547308112175016e-02,1.816481283096798779e-02,5.063363301659173747e-03,1.498016834259033203e+00
-4.400977462140717028e-02,-8.308105383036324953e-01,8.087742514196368804e-01,3.243196207266769993e-02,4.121655516066440733e-02,-2.405979823407366092e-03,1.423213362693786621e+00
-4.333143006220873533e-02,-8.349619844647868661e-01,7.054416350520783530e-01,-6.186050530684438636e-02,6.744632359092128659e-02,3.402712251515042224e-02,1.344876408576965332e+00
-2.411691099808852684e-02,-8.540812629820325741e-01,7.320286046449439032e-01,-6.026114043967758377e-02,1.636670176539417858e-03,4.626414292206313533e-02,1.380396366119384766e+00
4.070574451607983368e-02,-8.938932848306945234e-01,5.813961854158462561e-01,1.795720448386529597e-02,8.184994536002401788e-02,-6.505306330776237933e-02,1.305722594261169434e+00
-7.586184184317963652e-02,-8.109235721196816904e-01,7.668162597599753605e-01,-6.505442019603742410e-03,2.531411851015488886e-03,-5.902810968990595316e-04,1.367475748062133789e+00
9.134353844927867172e-02,-6.814973542402025242e-01,2.660806921948075665e-01,-1.429837374910129244e-01,1.515267914718254616e-01,-3.442916754417275210e-02,9.469056725502014160e-01
-1.415541309375105694e-01,-3.296308841416776825e-01,7.380519072045417239e-01,6.500992362970556271e-02,7.150027041887030942e-03,2.107653637486468778e-02,9.943228960037231445e-01
-7.580725202719013067e-02,-8.255757257445958119e-01,7.485173161262880237e-01,1.705248317980942452e-02,1.089586220634006369e-01,-2.016763127697406011e-02,1.377470493316650391e+00
-5.701733688102801623e-02,-8.165593010309654121e-01,7.534815965164651796e-01,3.416501711761683619e-03,1.266045446895053446e-02,7.238848396672418854e-03,1.360181450843811035e+00
-3.036854879707496027e-02,-8.462169549278268921e-01,7.747499868711998916e-01,-2.878632896443638397e-03,2.862979349343642080e-02,-1.726624719710910180e-02,1.405011534690856934e+00
-3.248743540462582791e-02,-8.427375277537183518e-01,7.988185242818743870e-01,-8.961720802665287811e-03,1.786410270524537922e-02,1.210248761491897369e-02,1.422244071960449219e+00
-4.515460071559870836e-02,-8.343815766057716132e-01,7.298377785412719643e-01,1.102179714338077064e-02,7.260691978070792085e-02,-4.764372055639393144e-02,1.363131284713745117e+00
-4.014061693524066665e-02,-8.266951536774859166e-01,8.116596051499299636e-01,-4.013336298223763553e-03,2.042296290520824106e-02,8.467630206368198867e-03,1.419765353202819824e+00
-2.943848793347254508e-02,-8.297407426157380472e-01,7.814529293442173952e-01,-3.935116792011890754e-03,5.869544246605264831e-03,6.121948450150502697e-04,1.395398736000061035e+00
-4.197855215468790369e-02,-8.198819031700906867e-01,7.448354113687967182e-01,1.439103619088740729e-03,3.642044043426916067e-02,-4.517946394777549307e-03,1.356584668159484863e+00
-3.715325041880232493e-02,-8.045761911518870546e-01,8.203377425063885786e-01,3.845568610527185394e-03,-1.508368934819382529e-02,1.309195429424911405e-02,1.408377885818481445e+00
2.794742681189510414e-02,-7.795389434346156055e-01,7.693471010207337812e-01,-5.319911817599313857e-03,-5.783689581015515491e-04,-2.835216143668158745e-03,1.341822624206542969e+00
-3.335297985952012656e-02,-8.227640499768698046e-01,7.370644304195184127e-01,-9.312044174519876205e-03,5.303760168830016185e-03,2.759685923638489913e-02,1.351857304573059082e+00
-5.052934751013926640e-02,-8.256244794809375342e-01,7.992312480257951490e-01,-1.333537179563877746e-02,2.197148567937682456e-03,2.056407952824794438e-02,1.408306598663330078e+00
-2.181797459704549330e-02,-7.876459773284643084e-01,7.908672082124114100e-01,4.014963587517686450e-02,-1.342046284148758033e-02,-3.460003728349904384e-02,1.370508909225463867e+00
1.987166859720952694e-02,-7.476655087023768020e-01,7.650610938450584930e-01,-1.938334734611236315e-02,-5.020879344833576417e-03,-2.127514164948031850e-03,1.310571432113647461e+00
-1.346014194551258328e-03,-7.475895360493476360e-01,7.895076894811136059e-01,-3.995396411764452066e-02,-1.803637830008487583e-02,2.430488151806189934e-02,1.334179759025573730e+00
5.805168010680750862e-03,-6.546890892820967922e-01,7.536351242304480946e-01,-3.466727063796196801e-02,-1.806252667003230370e-03,2.162094251613552297e-03,1.221912026405334473e+00
1.243170647080241858e-03,-6.694323731427124224e-01,7.595701529041534172e-01,-3.944535356166320450e-02,-1.274851153405448176e-02,7.792220989136610168e-03,1.240481495857238770e+00
-2.797081849987759564e-02,-7.809016439620427574e-01,7.892445238658623019e-01,-5.205754499108077027e-02,2.184564619709261288e-02,-4.310912750135936083e-02,1.365719318389892578e+00
3.097859955447613070e-03,-8.172415093498363037e-01,8.421600663910054907e-01,-1.329417135507008074e-01,1.762626130131027258e-03,-5.384618410810054073e-02,1.458432674407958984e+00
-1.625649664789712012e-02,-7.218246089228725904e-01,7.878416218255051007e-01,-5.200345550096217850e-02,1.980073651856439215e-03,4.421168912525588572e-03,1.311460852622985840e+00
-5.057731954884620018e-02,-8.198853669453585180e-01,8.009653735868019764e-01,4.108005575123553459e-03,-2.514559193932740591e-02,6.105718826834393050e-03,1.405032992362976074e+00
-3.045353610441451156e-02,-7.708714237627102284e-01,7.324609410764892914e-01,-2.313907755110595696e-02,-1.285909017284673486e-03,-2.688098778276299533e-02,1.303423047065734863e+00
-3.684501693642940057e-02,-8.013684361722962501e-01,7.932987067120760294e-01,-3.274108507280904423e-04,1.322475474351196036e-02,-6.550200413782829127e-03,1.381648540496826172e+00
-2.483424492608654263e-02,-7.836034418794908252e-01,7.844041717624572474e-01,-5.335592294461426882e-02,9.192868040260976717e-03,-1.831819790303728518e-02,1.361772179603576660e+00
-4.469778192996039234e-02,-8.122244176169732821e-01,8.111005071672824362e-01,7.538352799540882403e-04,9.962200525761924497e-03,-1.955886708208725167e-03,1.406643748283386230e+00
-3.417953229788033009e-02,-8.239229167641802798e-01,7.991265251294960015e-01,-2.112540605683140840e-04,8.006911961108503784e-03,9.950996443799464772e-04,1.405840277671813965e+00
-3.202721496382126415e-02,-8.248725376347763039e-01,7.696795046693700737e-01,-2.998285436618652097e-03,5.490870755002210182e-03,-9.178268601568902174e-03,1.381063699722290039e+00
2.180042192675759119e-02,-7.384796378474738354e-01,7.704860594031124332e-01,3.483430423412348792e-02,-1.368668997413692405e-03,-5.668685624358682507e-03,1.308246493339538574e+00
-3.568672574142817133e-02,-8.232853697117343827e-01,8.082623981327528018e-01,2.702945045653671057e-04,9.838788917649946703e-03,-3.682335367793798252e-04,1.413345694541931152e+00
-2.731927813482352974e-02,-7.978213588368352482e-01,7.973624131889568423e-01,9.543244967216105157e-03,1.888580029036370303e-02,8.961247796720953410e-03,1.382308363914489746e+00
-3.579759528162921450e-02,-8.266075585836650808e-01,7.982011336897995024e-01,-2.548054272606235446e-03,9.376911352815908793e-04,-8.859209878741088409e-03,1.407382845878601074e+00
-1.118707190830920406e-01,-5.185911395399734891e-01,7.891192530131023730e-01,1.520442824091425560e-01,-1.148473432130047052e-02,-4.661690867679383482e-02,1.191605210304260254e+00
-1.137281035800890017e-01,-4.820854636104282553e-01,8.141484878448460583e-01,1.563998800415544455e-01,-5.054259352851968312e-03,-4.994653354078040092e-02,1.191375494003295898e+00
-1.566059883419267384e-01,-2.651468060583377362e-01,7.480839452407037626e-01,1.310008543242902890e-01,-5.487869681844106604e-03,-6.627136949291834167e-02,9.965894222259521484e-01
-1.099656054115360493e-01,-4.274049173820548830e-01,7.692518866515453135e-01,1.075312567382950141e-01,-1.521003867886810447e-02,-7.008962178029085055e-02,1.096818089485168457e+00
8.251491838523875022e-02,-8.390206620530940018e-01,3.920729409000266452e-01,3.476710718992041729e-03,1.174348343001740541e-01,-5.432420871660539191e-02,1.131629467010498047e+00
-5.602434281746448974e-03,-8.311778091168904314e-01,5.862704533413580776e-01,2.002285510133840207e-02,1.464862592506162575e-01,-1.151788418601953044e-02,1.259563088417053223e+00
2.629946624987467008e-02,-9.342631383256430055e-01,5.447415805125380706e-01,1.616998386733220841e-02,1.766907129347281002e-01,-1.258786586257330808e-01,1.353306412696838379e+00
2.591109983640450809e-02,-8.681123193909054958e-01,5.525086760893413995e-01,1.281707759095388746e-03,1.218207520724989557e-01,-9.978668728893833745e-03,1.261823296546936035e+00
-4.791626566845133550e-03,-8.339906478050578276e-01,5.854602275208736772e-01,1.637435223717111435e-02,1.575087237565748477e-01,-3.635660952447762606e-02,1.266728520393371582e+00
4.706172409231021425e-02,-8.254747753492289730e-01,3.840253836611873250e-01,1.518410204847361021e-02,1.449512492329797786e-01,1.564822872455603683e-02,1.110556840896606445e+00
-6.222663210988456373e-02,-8.109431628046022134e-01,8.118852021114907336e-01,5.853992023367988670e-03,-1.263518041466350494e-01,-2.026015197652206515e-02,1.424197435379028320e+00
-4.462463132936516502e-02,-8.254533184775244559e-01,7.082997873746578188e-01,-8.216800028885849674e-04,-5.572362242222426293e-02,-1.907431348881370855e-03,1.331849098205566406e+00
-4.163005035603226794e-02,-8.007491711417377145e-01,6.831973697385772537e-01,3.606089591466291131e-03,-5.745179087272823254e-02,9.374951274995988945e-03,1.289213657379150391e+00
-4.070982764570919843e-02,-8.165161425978433307e-01,6.867432348592189539e-01,5.137672917772442491e-03,-5.820658437755452802e-02,9.517326407255645437e-03,1.306116819381713867e+00
-7.122543558948042641e-03,-7.952164181669409970e-01,6.009782854499352567e-01,-1.858216049156579189e-02,-6.111037186504821028e-02,-7.318447186105789259e-03,1.217587471008300781e+00
-6.390977798503993945e-02,-8.103404964812609412e-01,7.737094112181884809e-01,7.186964829624321177e-03,2.433513947897671700e-04,4.149521495200459830e-04,1.372641682624816895e+00
1.685848477735862883e-02,-8.342327932794455503e-01,5.103598593098882530e-01,1.420241069988022881e-02,-1.313019813162810967e-01,8.770073802023194143e-02,1.209675431251525879e+00
-6.825463419065515291e-02,-8.107353299337390906e-01,7.243862549258713868e-01,-1.247958571147197429e-03,-3.375175323013047263e-02,-1.001050603221602907e-02,1.331089973449707031e+00
-7.839785301279644791e-02,-8.119664364978487203e-01,7.788999065615037631e-01,-2.159794032953315894e-03,-4.085878501928762174e-02,-9.589804903758401833e-03,1.381038427352905273e+00
-3.838284813653894401e-02,-8.075414666564257882e-01,6.374146016317464580e-01,-9.264568553959738259e-03,-8.109553495947362245e-02,-1.499132288371564543e-02,1.260461688041687012e+00
-1.197748415638951180e-01,-2.943923339979325204e-01,8.527603521129090147e-01,9.301609616556630322e-02,4.299946133355393718e-02,7.462794472160114850e-03,1.085268378257751465e+00
-2.926245017837146578e-02,-8.133029223399775853e-01,6.317080549226790076e-01,-4.960546966548859751e-03,-7.733558126526149379e-02,-6.501011239577201076e-03,1.260147690773010254e+00
-5.813361325991383416e-02,-8.264149409734262708e-01,7.600429710910626691e-01,-1.281124921718700300e-02,-2.308165899193520207e-02,-1.100009184365347871e-02,1.375031828880310059e+00
-8.244903574787099121e-02,-8.136148454887474069e-01,7.828852022147183565e-01,-5.914010277712734680e-03,-4.045350912794219017e-02,-5.725209186481229097e-03,1.386081695556640625e+00
7.208609211277014484e-03,-8.327499341134634303e-01,6.346391256282476467e-01,9.874469768611206233e-03,4.558463446425666671e-02,-3.568575777295335261e-02,1.279281735420227051e+00
3.465849936416473542e-02,-8.282696030305151114e-01,5.556502464073616032e-01,-3.551858699861008307e-03,4.330710030264006694e-02,-1.980637276812148660e-03,1.212984681129455566e+00
-4.828937954414384837e-02,-8.182437436723488666e-01,8.235304956247906372e-01,-2.428024794273605028e-02,6.196193410067146919e-03,1.011968034500420124e-02,1.423499941825866699e+00
-3.086462278671123910e-02,-8.331274486206005081e-01,7.395480479128972995e-01,1.494014105605945275e-02,2.515223326205064808e-02,-1.639601005636318097e-03,1.363015174865722656e+00
-3.158447890389604745e-02,-8.321736680632757510e-01,7.397155534840329505e-01,1.461040681953130332e-02,1.815296117909228832e-02,-1.304004515074782579e-02,1.362160205841064453e+00
-5.274837552688116382e-02,-5.721088131806398858e-01,7.755476447444550336e-01,5.596378846138997526e-02,-2.507888226330556858e-02,-8.519519854180207519e-02,1.191239356994628906e+00
-2.626613378533286525e-02,-8.670271449859087154e-01,7.590343412008658808e-01,-1.779493280452988787e-03,4.245421970280757740e-02,-9.627377823736902804e-03,1.410503625869750977e+00
-9.103682797873707822e-02,-4.959275976975652256e-01,7.893335618435822765e-01,-1.249702842822894011e-01,8.482334902829589962e-03,-6.833574271555510615e-02,1.164697527885437012e+00
-4.869530638054093974e-02,-5.186171242641396395e-01,7.828801350548711957e-01,-1.509925079352897048e-01,1.148064303436859349e-02,-1.812806498790421952e-02,1.171706914901733398e+00
-1.643522418102569271e-02,-7.123002921208320126e-01,8.003920870847132107e-01,-5.918860794130084702e-02,2.985485528780868619e-02,-4.393658528801611118e-02,1.318640112876892090e+00
-4.422832196666992566e-02,-6.258700486481389991e-01,7.934966492707856700e-01,-2.568396919416639501e-01,3.163478082658116738e-04,-4.870155192962963286e-02,1.316192150115966797e+00
-3.782551588284684130e-02,-6.414461572993713778e-01,7.991996372058698395e-01,-6.712078828819445508e-02,-3.801459770447200917e-03,1.032332896060357205e-02,1.258607745170593262e+00
-1.328503489776497112e-03,-7.787799043605341254e-01,8.204607741851086544e-01,-9.134450215860578925e-02,1.130991676216822409e-02,-2.348053712810260589e-03,1.394310355186462402e+00
-4.531076949299252254e-03,-6.548245243142748473e-01,7.971165721765677281e-01,-9.119408723918553950e-02,9.477370122180127712e-03,3.526951722967522612e-03,1.269678115844726562e+00
-5.408613407989324579e-02,-7.894985393973656951e-01,7.912147997111018682e-01,3.126100008032169086e-02,2.881088244886052460e-02,-9.259978148270153406e-04,1.372018337249755859e+00
-4.565040848257257561e-02,-7.705749901496359300e-01,6.897274078418716980e-01,-5.409831611872983892e-02,1.138433462815062426e-03,-1.684424705442945647e-01,1.301265597343444824e+00
-5.494624354013009915e-02,-6.794787114243091564e-01,7.819311921150102762e-01,-1.837204548713088359e-01,-8.504682455676353114e-02,-1.391002431534797863e-02,1.317801475524902344e+00
-5.289036187687021912e-02,-7.525430813650386686e-01,7.416192934436539597e-01,-5.857192837378798894e-02,-1.812233748114151430e-02,-5.139788138508583071e-02,1.302245259284973145e+00
-4.975539172548317651e-02,-7.182094302896288029e-01,7.849245946192611179e-01,-9.087200003079842076e-03,2.502368085630208780e-02,5.719001879637300098e-03,1.305255174636840820e+00
-5.230891420229168143e-02,-7.420197193386010026e-01,8.076213969037331353e-01,-7.548846766012157899e-03,2.436559973323286152e-02,-7.830820747576264619e-04,1.345450878143310547e+00
-8.182158156924319858e-02,-6.763947705077144601e-01,7.904389272102186892e-01,-4.529489397946414447e-02,8.930516054733668441e-03,-1.029413885769560853e-02,1.280503988265991211e+00
-6.400151552854591031e-02,-7.433643407490095889e-01,7.695767361767871240e-01,-5.179840041216349916e-02,1.019787226928898062e-03,-5.514682181193187455e-02,1.319039225578308105e+00
-8.077787922480707261e-02,-7.386136607188773517e-01,7.961163285139452039e-01,-4.268691055412900809e-02,1.617371770342812196e-02,-8.880774631721270740e-02,1.344788312911987305e+00
5.140212626774845472e-03,-7.347554741257833477e-01,7.848271424223302040e-01,-5.016247768320064582e-02,-1.382113039176925511e-02,5.716219843357976151e-03,1.319266557693481445e+00
-3.828145042537287046e-02,-5.642994629573423460e-01,7.566053888832579011e-01,-1.444137485892268147e-01,2.622349610690412683e-03,-8.338391630799607546e-02,1.187480568885803223e+00
1.743912660431922237e-02,-7.961594152847036865e-01,7.951629989000520427e-01,-3.947598467445714854e-02,-5.708240179619066858e-03,1.002507131503880405e-03,1.379973888397216797e+00
-7.324242746476507249e-04,-7.681332788316402871e-01,8.260607515852990135e-01,-9.149310371306945688e-02,-1.288633320478179550e-02,8.830211168973653782e-03,1.390258193016052246e+00
-2.687359494602611920e-02,-8.569228926032150806e-01,9.330848147925818736e-01,-1.183458500746332881e-01,4.402847094311845844e-02,1.684003516205560130e-02,1.567162513732910156e+00
-3.732942219227150527e-02,-8.855126052431503414e-01,9.275833591152549129e-01,-2.437844370869551511e-02,4.177951141773068866e-02,-1.124180298897959999e-02,1.573624134063720703e+00
4.714759056571244875e-03,-8.163957834625216181e-01,8.377522079088240980e-01,-1.265464759914126658e-01,2.397431176022050622e-02,-3.656594362444391677e-02,1.451195120811462402e+00
-5.038552125554609379e-02,-8.016842686847319710e-01,6.883532435956414286e-01,8.702949796103754288e-04,4.305125422267402219e-02,2.182732504233419774e-04,1.292579174041748047e+00
-2.473685336113946170e-02,-8.381499193304773332e-01,9.266830115417346025e-01,-1.109889927615403532e-01,3.756348591739675641e-02,9.534508944721829110e-03,1.543437480926513672e+00
-4.857309694741920869e-04,-7.659731475633940745e-01,8.359191808559285342e-01,-4.588887531448671009e-02,8.529646816025058826e-04,-8.176366157572790769e-03,1.390079736709594727e+00
-5.024698074735443887e-02,-8.159020615169592094e-01,7.893464571821289244e-01,-3.759463704953750537e-03,7.675972992078195292e-03,-4.281161557144942675e-02,1.392731666564941406e+00
-1.490529919981488718e-02,-7.330028494676615880e-01,6.572613557530521122e-01,-2.153931103264862534e-02,-3.179936313835686132e-03,-1.681185476728706135e-02,1.205165266990661621e+00
1.622582855695900439e-02,-8.341323433967055001e-01,5.760110650991742132e-01,1.792653354881433916e-02,-1.562685669576621139e-01,5.116547023693231860e-02,1.262760400772094727e+00
7.385544411661365549e-03,-9.849401869718656943e-01,5.762886629020950169e-01,-1.860973848835206085e-02,1.227667742975808579e-01,-7.538900880394502901e-02,1.391475081443786621e+00
-1.747874768797495759e-02,-8.574915460430525549e-01,7.059813741774145779e-01,-2.626958112254549477e-02,8.646617391613358600e-03,2.484422082040138938e-02,1.356789588928222656e+00
-3.198086330359178192e-02,-8.128237279443850660e-01,7.752202108086229115e-01,-9.367379795725582978e-03,-1.201689355473204053e-02,-3.904486606082221284e-02,1.377264022827148438e+00
2.046883703241257277e-02,-7.746482001721208821e-01,7.866066142915851822e-01,-4.129656362378644752e-02,-4.183452244367660486e-03,1.283553518131486278e-02,1.354256391525268555e+00
2.225333360440567149e-02,-7.564487149670520161e-01,7.700317778323986229e-01,1.739892661780910454e-02,-8.773647072340795550e-03,-2.664794388596591814e-03,1.322500109672546387e+00
6.138456406997644388e-03,-6.241021589408944914e-01,7.527139714622309574e-01,-9.599783777194760559e-02,-1.089454869613342564e-02,3.587287258855759511e-03,1.205463290214538574e+00
2.674272486316971176e-03,-7.330658462800349051e-01,7.817308448855251335e-01,-4.339178630344820570e-02,1.615206257134818926e-02,-1.479115677710816229e-02,1.314729452133178711e+00
-6.248294980671321996e-02,-7.943244071592353572e-01,7.216528875065548743e-01,7.592200256334630075e-03,3.960767258617052707e-03,-7.611089723944360541e-04,1.313219666481018066e+00
2.695569451435973762e-03,-6.221483973845508553e-01,7.605508528508431176e-01,-9.958111214643015907e-02,1.176496324108722638e-02,-1.133962445944960290e-02,1.211967825889587402e+00
9.787225257519672345e-03,-6.987980731212872776e-01,8.001030381848955875e-01,-8.585562599945853468e-02,3.558543813452535749e-03,-1.678037669532029055e-02,1.307552933692932129e+00
-2.570792123997305695e-02,-8.138933585657327496e-01,6.798910955740659068e-01,-2.554939272727470376e-03,-7.535326981992562789e-02,-2.993268674722093618e-03,1.300895810127258301e+00
-4.501817447208144446e-02,-8.010746788842441068e-01,6.682639358986672828e-01,-3.154169175403167863e-04,3.904005643007012194e-02,6.862142421561964918e-03,1.274514913558959961e+00
-1.212307685023576720e-02,-8.397385340773279028e-01,6.376351701876369349e-01,-1.688082200439423777e-03,-1.218890950224209291e-01,-2.876945555347901542e-02,1.300748109817504883e+00
-6.181941887658699841e-03,-8.387002319793908089e-01,6.824429151708704122e-01,-2.819553458613921395e-03,1.947138491920801309e-02,-2.053894234365567784e-02,1.320231199264526367e+00
3.704031402757050617e-02,-8.297502219554852010e-01,5.384334505364657408e-01,-1.316248073125762461e-02,-6.300152833716704537e-02,1.938912120891798929e-02,1.204524278640747070e+00
-4.636649634859328628e-02,-7.963966915242783884e-01,6.764018913219436158e-01,-4.190020415282227906e-03,4.363906824148403030e-02,-1.018218140530195107e-03,1.277813196182250977e+00
-1.052871893694695693e-01,-6.971251959979271051e-01,8.097573325035490877e-01,1.223359961525784809e-03,-1.917506678912556453e-02,1.473475697255564876e-02,1.315635085105895996e+00
5.902471695267491603e-02,-8.338786656541656850e-01,4.776195952873326656e-01,-6.318036008089456153e-03,-1.201080586825721691e-01,-4.531308881467593225e-02,1.181448459625244141e+00
6.155787642420633421e-03,-8.390679085124093106e-01,6.643426780746093385e-01,2.782342133735223890e-04,5.802054288372109070e-02,6.522636698265583434e-03,1.309257507324218750e+00
-7.086125599958861820e-02,-8.155761207650997768e-01,7.373772222237354734e-01,-7.696830183939826035e-03,-1.136176170754548687e-01,-1.106364967529710128e-02,1.359789967536926270e+00
-4.534443821537837566e-02,-8.355082187722097098e-01,8.067977095065508308e-01,1.567656424597006597e-03,-2.084724920505774074e-03,2.435660573109896428e-03,1.422629594802856445e+00
-8.098822544587513939e-02,-8.137269523615644484e-01,8.094565274247904618e-01,-5.721084369911148132e-03,-2.483678603056262840e-02,6.883040211094694667e-03,1.408670306205749512e+00
-6.105982310080218523e-02,-8.630991442306318318e-01,7.624435503827537985e-01,-7.091841886028619167e-04,-9.324608734999230431e-02,-2.088398341380661230e-02,1.417498230934143066e+00
-3.941544618520192306e-02,-8.691892104153683407e-01,6.447376619591425051e-01,1.062872141926883042e-02,-1.938334711718106007e-01,6.717188930366055702e-03,1.355533361434936523e+00
-4.465762751132267699e-02,-8.513933718077383306e-01,8.725958076938763464e-01,2.158630773381682230e-02,-7.145083888776694592e-03,2.380334839781477960e-02,1.495128273963928223e+00
-6.326218506068867486e-02,-8.274295998370913008e-01,8.040224721040292177e-01,-7.604482765194322050e-03,-3.220448682466047624e-02,-3.632015081409593199e-02,1.416378259658813477e+00
9.010760621930574699e-02,-1.098061765070234896e+00,3.759835701034364153e-01,7.473108556970663174e-02,1.092903793600990270e-01,-1.324495486113492215e-01,1.392248749732971191e+00
-5.196623760546348336e-02,-8.568681531446172839e-01,8.003753747313592237e-01,-1.125829426427807888e-02,-2.927998061838217245e-02,-9.161278419741052809e-03,1.436526656150817871e+00
-3.328359773676756173e-02,-8.597158114163732101e-01,7.955841246986137261e-01,1.068642363002779427e-02,-3.057330650459732374e-02,-1.444080488374167512e-02,1.434847474098205566e+00
-8.938288358689586155e-02,-8.982313680861325755e-01,8.663491099899115477e-01,-6.282123539864347371e-03,-1.837138049308584264e-01,3.312259436629511056e-02,1.563765883445739746e+00
-3.210419650252572393e-02,-8.354704898941045510e-01,6.669025942905892901e-01,1.470649800651399955e-02,-1.208095643793445778e-01,-1.612885032810455060e-02,1.319386363029479980e+00
2.246764785998167299e-02,-8.024075176175161639e-01,7.899509716096687617e-01,4.973769572944240769e-02,9.123320783380315562e-04,8.399449392951485391e-03,1.382086515426635742e+00
1.923179338339334188e-02,-7.376170510262094471e-01,7.785982833740971998e-01,4.103298986257677278e-02,3.149152008878776735e-03,1.135445989081536843e-03,1.315016388893127441e+00
-1.627668560853424116e-03,-7.708053648944175329e-01,7.880540295574989251e-01,8.636839228263326618e-02,9.802750148730504307e-03,1.114390566945105097e-02,1.358556747436523438e+00
-3.576274208762449114e-02,-8.458837285128902872e-01,6.760413748621904029e-01,4.928082114679715672e-04,-1.365996877085486616e-01,1.474636986843486444e-02,1.340238809585571289e+00
-3.380972329379025587e-02,-8.282319779752089772e-01,7.014933503381739488e-01,7.610812243941234186e-03,-6.028185511443198003e-02,5.110643578049652719e-02,1.332227230072021484e+00
-2.284961815978976685e-02,-8.309872797200796857e-01,7.008757492400483624e-01,9.541673179726083490e-03,-2.352662335504873345e-02,3.712530004489903585e-02,1.329587578773498535e+00
-4.594726441343466999e-02,-8.220998041896051545e-01,6.867028420498106911e-01,2.943573267704694199e-02,-1.018257419347382009e-01,2.611837984374175067e-02,1.320450067520141602e+00
-6.957206323601944353e-02,-8.255996857416313395e-01,7.626445552363663172e-01,2.972847137019374395e-03,-4.831982050685625085e-02,1.237059459600774744e-03,1.378541469573974609e+00
-6.789406704396452885e-02,-8.203378557189895393e-01,7.294452624041849464e-01,1.742614248801602900e-02,-5.163303774804266916e-02,1.697270788978448575e-02,1.345974683761596680e+00
-6.511008328137209145e-02,-8.214119756265995109e-01,7.208701097395309176e-01,1.007029017019086918e-02,-3.769645724392708258e-02,2.117246009026145515e-02,1.337949156761169434e+00
-7.970848327397689337e-02,-8.224143803578500833e-01,7.844364518870277081e-01,1.161126506192780052e-02,-4.371526977553505389e-02,1.672884142256152173e-02,1.395400047302246094e+00
-3.258342856236910723e-02,-8.352000243403500113e-01,7.320636941981620849e-01,-6.445731994148268598e-03,-2.281302840261718520e-03,5.720848405220570893e-02,1.361086249351501465e+00
-1.767736668975538467e-02,-8.333853093009587765e-01,7.187701162583156611e-01,9.853668554474108443e-03,6.088190030099241510e-04,1.067876416391184795e-02,1.345026016235351562e+00
7.199415472291331719e-03,-8.248380223231869257e-01,6.119821316436686587e-01,-1.942115651648717092e-03,-2.098495888367405901e-02,-2.400143892352693455e-03,1.250040054321289062e+00
-7.450615310731535657e-02,-8.160749251944667826e-01,7.856467664359151337e-01,-5.739772735867570627e-03,4.801943912017774159e-03,2.459773075736926013e-03,1.388465285301208496e+00
-5.157420817885484399e-02,-8.296018137052405539e-01,8.157713662326480097e-01,3.327472200319207124e-03,-6.175649332144893255e-03,-5.018209210436096537e-03,1.425712943077087402e+00
1.636570234418224801e-03,-8.383776203473964905e-01,6.263532712850824469e-01,2.095774309067892707e-02,-2.359382340650606480e-02,5.091261445298998767e-02,1.277274250984191895e+00
-6.548343975364273595e-04,-8.330554583788660761e-01,6.266156001358561545e-01,2.716805348445439691e-03,-9.729713686658189586e-03,4.843184936032359639e-02,1.271157860755920410e+00
1.293988128755091394e-02,-8.261702052973652899e-01,6.255312733141961123e-01,-1.437515449758825122e-02,-2.684478054777799522e-02,-6.311797280174453149e-03,1.263450384140014648e+00
3.774568044205853234e-03,-8.381451403017546875e-01,6.227571775064318915e-01,-1.528081496805491768e-02,-1.308067696399982383e-02,-4.902643356502792843e-02,1.273391723632812500e+00
-1.259289654129609470e-01,-3.035450409305067709e-01,8.308286385575465172e-01,2.349700169934331451e-01,-7.311684524439028554e-02,-3.363448593683832089e-02,1.141022682189941406e+00
-3.540238144783468960e-02,-8.393679076420590413e-01,7.478991933378381640e-01,-2.167570848154118032e-02,-2.595864406071483194e-02,-1.816000885693034228e-03,1.375903487205505371e+00
-3.279412401707430119e-02,-8.132622444245850568e-01,7.238005392119560844e-01,1.486264528588628596e-04,1.047526030809565849e-02,-2.101039064751624233e-02,1.331809878349304199e+00
-4.606278619894255133e-02,-8.300559928388380193e-01,7.633419073710357994e-01,-1.903421215412439554e-02,1.648671027060933866e-02,3.222458326242298721e-02,1.381798386573791504e+00
-3.607506688420974994e-02,-8.356659693566147462e-01,7.809493661526306640e-01,-3.278312819619491874e-03,-6.785320735985065493e-03,-8.247329327080214767e-03,1.400190830230712891e+00
-7.574179668911731889e-02,-7.384999803690908138e-01,7.877236445991867564e-01,-1.486750415516811504e-03,4.673648738032627065e-03,-2.214604914344181497e-02,1.326134681701660156e+00
-5.061136029752405507e-02,-8.212234963691418255e-01,7.897476955541028465e-01,-1.198740576301733814e-02,1.451144115825818946e-02,-2.635094671796307797e-02,1.396704435348510742e+00
-4.984549357415579696e-02,-7.423770135317226959e-01,7.635084320053820983e-01,-2.586304760860940952e-02,-2.371028331698680526e-03,1.374028409957854177e-02,1.306524991989135742e+00
-4.794611420035005400e-02,-7.777594423822203895e-01,7.846784425300320498e-01,-4.741671750325672507e-03,-6.217846720066684194e-03,9.171163888270180906e-03,1.354247927665710449e+00
-4.351215916282873131e-02,-8.161479449808776154e-01,7.579709390240169098e-01,8.709337110010723776e-03,2.147425263111032989e-02,-2.323910641899755436e-02,1.364487767219543457e+00
-1.974016201966472678e-02,-8.410853721489131019e-01,6.913536049552320151e-01,2.921661196987367787e-02,2.837988599388730285e-02,-4.075402445486881603e-02,1.332019329071044922e+00
-1.169417867714546769e-02,-7.408912914238090508e-01,7.951095954608101701e-01,6.846513756584571286e-02,-5.526503577544348601e-03,-3.600883800017321522e-03,1.336103558540344238e+00
-3.804993944118158222e-03,-7.920868848942176355e-01,8.635518223268678906e-01,1.637010554088715319e-01,-1.430562632210831409e-02,7.770623154133308487e-03,1.462397694587707520e+00
-3.965630991438665043e-02,-8.487835867781450272e-01,1.014410089236704060e+00,1.279041389126548689e-01,-1.109817198514311031e-03,-2.275844991675740267e-02,1.633784770965576172e+00
-8.194674458954015472e-02,-8.177208778561919633e-01,7.785056327594895853e-01,-9.314813307455135916e-03,5.948382010164673245e-03,5.174421867580904916e-03,1.383939027786254883e+00
1.535862832605213585e-02,-7.433719664074825983e-01,7.927157402829426713e-01,7.527975744704012984e-02,1.096462049854108473e-02,1.872017452157664213e-02,1.337226271629333496e+00
3.833192176257399324e-03,-8.625820586451894423e-01,8.523860302705145164e-01,6.168176668270301116e-02,8.486390531812871424e-03,-1.382831194994046248e-02,1.489335417747497559e+00
-2.792416635522423918e-02,-8.850315449489959407e-01,9.415167953160380465e-01,4.158517289395690514e-02,2.535038799233725604e-02,-7.038877025791485942e-03,1.585127234458923340e+00
-6.464351406710808212e-02,-7.858230153395048267e-01,8.127535065015122351e-01,1.701286960076088192e-02,9.491186056981024480e-03,1.144192097084633640e-06,1.387020111083984375e+00
-1.838158017631889574e-01,-5.262944129684258288e-01,1.232868273293262762e+00,2.532824165567758579e-01,1.530637003393650608e-01,3.803344794192656947e-02,1.696039676666259766e+00
-6.347030851330856538e-02,-7.677866024838501113e-01,7.984243558675013785e-01,1.885164595655735090e-02,7.367371950977720345e-03,2.103084911518515385e-02,1.359605193138122559e+00
-5.808321812746386481e-02,-7.483809157242806709e-01,8.207616799660543139e-01,5.464901818373688047e-02,1.609555778423246361e-02,-3.489282064162326641e-02,1.367089271545410156e+00
-4.958057405087553521e-02,-8.417797459894418299e-01,8.004616759353536670e-01,-1.175445791495865165e-02,9.339068305131389622e-03,3.244637150930584305e-04,1.422754526138305664e+00
-8.600123847096612095e-02,-8.075599594829716565e-01,7.763629417884356787e-01,-1.741896956071131925e-04,1.150727264382244049e-02,4.627166165626586496e-03,1.373690962791442871e+00
-5.749920654200087189e-02,-6.861450156526651689e-01,7.630829755206782750e-01,-1.027449722081848899e-03,-2.381069076897993596e-03,5.133819290928471474e-02,1.261876821517944336e+00
-6.190485385453214917e-02,-6.925001917696237408e-01,7.682516555193671381e-01,2.349250048590252604e-02,1.651237932399681266e-02,3.831939269269334092e-02,1.271684646606445312e+00
-8.228333167008561322e-02,-5.806260859487255566e-01,7.509260227896797923e-01,9.509479903544780510e-02,-9.920561267950408005e-03,-2.195363473292762102e-02,1.177572607994079590e+00
-3.416594590092078554e-02,-8.255337434105640693e-01,7.602974209175989984e-01,3.482503279183038480e-02,1.580271195998310049e-02,-3.826728192695513092e-02,1.376564025878906250e+00
-6.955013494300722743e-02,-6.951781006916807337e-01,7.641585318708762342e-01,4.207785215595362394e-02,-1.327204730341075391e-03,-2.693537991516817970e-02,1.271048903465270996e+00
-4.849659287526201373e-02,-7.229751411598057675e-01,7.623521684501902707e-01,1.300526019434177991e-02,-1.088947810666572071e-02,-3.353411569926902092e-02,1.289780497550964355e+00
9.503453163854464966e-03,-7.193442393701205972e-01,7.594054426494003529e-01,-6.267765116583284488e-03,3.982821005455335073e-03,-1.188525705294462328e-03,1.280744314193725586e+00
-7.832065475285882039e-02,-7.131232555432935882e-01,7.777612922321657241e-01,6.486371828176507037e-02,1.703199672098670153e-02,-7.142814954210413569e-02,1.306939840316772461e+00
-6.682870648492311716e-02,-6.721516183097578923e-01,7.169677458006199489e-01,7.931367326301926035e-02,4.251928799961043198e-02,4.817805260020815300e-02,1.219205379486083984e+00
-3.395176151315206642e-02,-7.343335826231516261e-01,7.480228331284891619e-01,8.767131506746142500e-02,-1.619109529152417890e-02,-9.880843806891410896e-02,1.304926991462707520e+00
2.776044158955799646e-02,-8.555701053287156910e-01,5.361778148325709870e-01,1.895143341478396776e-02,8.757198843969833668e-02,-8.635107909940685500e-02,1.238674759864807129e+00
3.470066808355673493e-02,-8.923007604572713580e-01,5.352789468850726040e-01,-4.050363627678039979e-02,9.108013315948938760e-02,-1.176500611496985454e-02,1.266558647155761719e+00
4.753744697125242280e-02,-8.322191645654732906e-01,4.368897099412528684e-01,9.770903006426585879e-03,1.293028451531547107e-01,-3.715712609917132953e-02,1.150081753730773926e+00
-5.085025974877043636e-02,-8.187722695473493850e-01,7.420729294431521739e-01,-1.716326044068338177e-02,1.225762607128344159e-02,-4.276310207066234131e-03,1.352303147315979004e+00
-1.779937956270710719e-03,-8.157051694919661422e-01,5.731583697596641658e-01,1.409128322110792669e-02,4.633685471457446581e-02,7.855536891768955974e-04,1.211620450019836426e+00
1.922073532336862622e-02,-8.264964264123284554e-01,4.683472386251195108e-01,1.330278423435534048e-02,1.459703450327720364e-01,-5.761914361427831338e-02,1.170982003211975098e+00
-1.562504378689656692e-02,-8.254748617186543624e-01,6.454531814321290417e-01,1.861630775579837388e-02,4.470352327098673501e-02,-6.293266767792238259e-02,1.283421874046325684e+00
2.942683695037652536e-02,-8.326515493580537441e-01,5.419311378701230364e-01,1.046884416833664469e-02,7.477728398700603241e-02,-4.430740969597837808e-02,1.212704300880432129e+00
3.670420876804825205e-02,-8.268425428924729426e-01,5.319148428797214612e-01,-7.496159992160327488e-04,6.327810404814902812e-02,-4.026572980078673564e-02,1.198107719421386719e+00
-1.069842254573818291e-02,-8.262892670812450602e-01,6.336326895363509903e-01,1.966171652838294079e-02,5.960151052549198664e-02,-4.841733566191021298e-02,1.274641513824462891e+00
-2.277177186651820062e-02,-8.671261736804944942e-01,7.021650455380753497e-01,-1.694427577667812282e-02,-1.140487675335925960e-01,5.242929827221827488e-02,1.377933382987976074e+00
-7.731134747821469255e-02,-6.004708090629969908e-01,7.637045856886773842e-01,4.607381753043923028e-03,-2.935622274432543588e-02,1.081038414225752968e-02,1.193310022354125977e+00
-8.277660107315400195e-02,-6.005536561654384320e-01,7.657765364460319413e-01,-4.521250276727030275e-03,2.240694060450690306e-02,1.206920482577591817e-02,1.195617556571960449e+00
-2.433895751794574319e-02,-8.706631429381754828e-01,7.586761005543944947e-01,-1.374331318435529845e-02,-1.799344704924884381e-02,1.293546797777758890e-02,1.412126660346984863e+00
-3.525764628071447609e-02,-8.859185387963997016e-01,8.290671605204148475e-01,-2.043123231334508308e-02,-3.395677899435645131e-02,1.409926532177135407e-02,1.487022638320922852e+00
-3.370056589145109527e-02,-8.021083967368651813e-01,7.393489099521665109e-01,-7.023059372547658941e-02,-1.002171068399540510e-01,-3.217602863785859468e-02,1.352814316749572754e+00
-4.190191076342137527e-02,-8.167398428626440055e-01,8.194548048664581641e-01,5.761070586680018014e-03,1.878428888588255102e-02,1.834050777687048009e-02,1.418410539627075195e+00
-2.863082707755539719e-02,-7.975037708367144207e-01,7.526072634452087851e-01,-3.195956224355051695e-02,-1.798810567558638968e-02,-1.397574791920887585e-02,1.344169735908508301e+00
-6.482497743802602408e-02,-7.779599518385271750e-01,8.089351325654385860e-01,-4.970447431744565159e-02,-3.987678189939895812e-02,-3.949915603783259177e-02,1.382747173309326172e+00
-4.142364639901302548e-02,-8.494038703285262670e-01,7.942396217105475165e-01,-1.430369838930308501e-01,-5.103642775014081284e-02,-2.267877768591869056e-02,1.448136925697326660e+00
2.041046299104081613e-02,-7.250027905259273098e-01,7.594905542158152389e-01,4.142861318985952002e-02,-2.682217661580908307e-03,-3.556075789888829054e-04,1.287622332572937012e+00
-1.402736458079215098e-03,-6.296784610875205690e-01,7.633612903991172649e-01,9.953166320528082645e-02,-1.098418766170093609e-03,-5.981044371437445502e-03,1.220617771148681641e+00
-1.396793979729005902e-02,-6.768416785378454925e-01,8.024103807918987474e-01,9.040592221707544063e-02,1.360083530301393721e-04,2.911863709791548752e-02,1.293867945671081543e+00
2.005082224560234688e-02,-7.852175980250889475e-01,7.943383523973895910e-01,5.022176444798749639e-02,-1.684893936513375684e-02,-1.954893521479612525e-02,1.371514678001403809e+00
-5.460316071504256463e-02,-7.966210293910565010e-01,8.006389154580064726e-01,2.713031503009893583e-03,2.158035673126296877e-02,1.366238456416283935e-02,1.385140299797058105e+00
-4.151610970675477519e-02,-8.336301908352834467e-01,7.693828616189796188e-01,-1.353920057882504469e-02,-2.424600485512905246e-02,2.113850554166971010e-03,1.389119625091552734e+00
-1.427030639468006984e-02,-8.260180927026480324e-01,6.909173653083154898e-01,1.812982994841749003e-03,-3.625779140453175980e-02,9.434020926028109655e-03,1.316388726234436035e+00
-2.893025181796710782e-02,-8.921946819274080287e-01,7.675148014006015762e-01,1.929818108586404263e-02,-3.501470897596771492e-02,-6.922066713171324236e-03,1.439455389976501465e+00
1.084897051137567736e-03,-8.099607022364995190e-01,6.298138157273728277e-01,-7.266063080268085270e-03,-1.446446742117869950e-02,-2.700283471092098861e-02,1.251397728919982910e+00
-2.644666232150798615e-02,-8.140489970193055536e-01,6.698988011838832302e-01,-1.991498699192141217e-02,-2.518811060278524847e-02,-3.425964984757803172e-02,1.288515448570251465e+00
-6.410721445270191332e-02,-7.993137976591571103e-01,8.172645928376038871e-01,1.241412421491007141e-03,1.619228633656541808e-02,9.732584790942961153e-03,1.402287721633911133e+00
-6.343197904972791568e-02,-8.108017601528400009e-01,7.270350653865528257e-01,-5.953982451121296593e-03,-4.196833673792583347e-02,-8.264793812988118979e-03,1.334078788757324219e+00
-1.338920098887530497e-03,-8.444742731936981661e-01,6.318034579225964009e-01,-6.010879764587824699e-03,-1.078506049895617408e-01,-4.943090781683225077e-02,1.299193978309631348e+00
-1.834357066021406746e-02,-8.378921279343894968e-01,6.802083776891202360e-01,-1.669355333099130367e-02,-2.479519431468300839e-02,-3.435915817000848027e-02,1.318466544151306152e+00
-5.509322340773101928e-02,-7.979389530104233907e-01,6.892084855835968193e-01,-1.632034798107572090e-03,4.486025504274316483e-02,-1.328565599312112825e-03,1.290254592895507812e+00
-3.752253872453908956e-02,-8.269162715451746637e-01,7.123034448127278928e-01,1.592641207328542464e-03,-5.955266689165186755e-02,-5.833232167100725445e-03,1.337175607681274414e+00
-5.007336648768800913e-02,-8.258313705808416616e-01,7.572680659773766143e-01,-1.410006356819922847e-02,-1.912584007571796127e-02,-1.090004460018034402e-02,1.371842741966247559e+00
-1.916446157728109861e-02,-8.255257434681710915e-01,6.797677264467378855e-01,-5.827040781218395873e-03,-2.692208480579595317e-02,-4.248517052739187588e-02,1.307672619819641113e+00
-4.821507926235298058e-02,-8.366560022642245409e-01,7.817261749266289916e-01,-1.579326817662850225e-03,-4.437052146207363240e-02,-9.635433168791484801e-03,1.403920769691467285e+00
-7.958164548777305058e-02,-8.731074670372808155e-01,8.316470021506731092e-01,1.101581856612150224e-02,1.530359044958942705e-01,-8.186316076281106857e-02,1.507923483848571777e+00
-5.673100613095148625e-02,-8.216395994664505986e-01,7.655889822136862088e-01,-3.351698003862032399e-03,5.098205034830633614e-02,-1.328224999409572532e-02,1.377917051315307617e+00
-6.392503497861004580e-02,-8.396638350505074566e-01,8.356119661864884751e-01,-1.089137120991911720e-02,4.738811912246069374e-02,2.882596556054943266e-03,1.454599976539611816e+00
-3.285273549978131452e-02,-8.454271366555526912e-01,8.310497388367796834e-01,-1.781173917307835031e-02,2.213797579484243910e-02,-7.380597340221129940e-03,1.452988386154174805e+00
-4.160734772897831113e-02,-8.453583128518455947e-01,8.461831308571289290e-01,-2.254348209944058868e-03,1.410417854104336136e-02,-2.066155693688808900e-02,1.466166019439697266e+00
-4.933699260221419136e-02,-9.289000380744460994e-01,8.653748671568748385e-01,-3.860081762990470733e-02,1.129236536754061604e-01,-1.555961152786279611e-02,1.567905426025390625e+00
-5.880184418452592127e-02,-8.534756661173130698e-01,7.484500789807906340e-01,5.856912007860818475e-03,1.036275378120762730e-01,-2.117871429318623697e-02,1.399402976036071777e+00
-4.494365223237763163e-02,-8.656189731279007038e-01,8.650189273528711142e-01,1.076147308720944336e-02,-2.007240124444480134e-02,3.261321333491290215e-04,1.499960064888000488e+00
-1.123282961085306925e-02,-7.627464278909620310e-01,8.460501091702753440e-01,9.134738836376972426e-02,1.823401093558887215e-02,5.123180417288644706e-02,1.406368017196655273e+00
-2.019496672333717657e-02,-6.857802317041763462e-01,8.903936394915805685e-01,1.197743479949172490e-01,-1.786098538936449140e-02,3.356643927896875435e-02,1.387668728828430176e+00
-2.413413936013079214e-02,-8.640334458051130984e-01,8.498096483658302835e-01,1.205331606733857780e-01,-3.711989693921689815e-02,3.192988083952539441e-02,1.501336216926574707e+00
1.716851124992871402e-01,-9.693399218664288108e-01,2.996541982242202917e-01,-1.054321573342848067e-01,-3.028351431844688579e-01,1.969429685547157208e-02,1.331904292106628418e+00
1.936732011060113834e-01,-8.187577762370925605e-01,1.111405660774297810e-02,2.103803184869770110e-02,-6.097368494349518497e-02,8.383814818774386682e-03,9.413861036300659180e-01
7.852081224398857473e-02,-8.285947323167367484e-01,3.673313009722911637e-01,6.449552540504261029e-04,-9.328364807670998238e-02,-4.241333968797946288e-03,1.092893123626708984e+00
3.645599868580612357e-02,-8.762197874061293801e-01,5.513390162759737034e-01,1.646384674145088406e-02,-6.003952414385380076e-02,6.041278195500471467e-03,1.256876945495605469e+00
3.798722814602420450e-02,-8.868430822372728173e-01,4.854523573346671839e-01,2.929121125490023042e-02,-1.400569100074288142e-01,9.596910636370567516e-02,1.248365879058837891e+00
5.570952850832278092e-02,-9.925770500593749102e-01,5.494342696850758045e-01,-5.972219346820015901e-02,-1.461734338761695451e-01,-4.518826320357175602e-02,1.393255233764648438e+00
-1.355341457628895241e-01,-6.133134320180151366e-01,8.171388031049758860e-01,-1.747467799463068433e-02,-7.941646555880928215e-03,3.572528154477884466e-02,1.263313293457031250e+00
-6.787346623667081524e-02,-6.251492591270728649e-01,7.829542242134283070e-01,-8.447128997321774746e-02,1.670934163531436964e-02,1.114725002745135460e-02,1.237427353858947754e+00
-1.049558369017246917e-01,-6.191047297197345145e-01,7.902530349976233381e-01,-1.407420932035286822e-02,-7.539534929373525700e-03,2.089540922590167951e-02,1.236160755157470703e+00
7.606563649360225526e-04,-7.726480777143232004e-01,7.855554261044858100e-01,1.129533248156717670e-02,6.757863245531654274e-03,3.032942081396702589e-03,1.349658608436584473e+00
-1.005770011612850401e-01,-5.433583931848093851e-01,7.583453798858350581e-01,-2.123224995223714842e-02,-2.735000524495399474e-02,7.513252821587348973e-02,1.155270099639892578e+00
-6.858033461896098637e-02,-7.710311388733055438e-01,7.979861627038673522e-01,-4.126822334994087460e-02,-5.765554611569590968e-03,9.268794850792091630e-03,1.363290786743164062e+00
-8.782440753446602022e-02,-6.886600846988751856e-01,6.624306614134606308e-01,-2.845278063086944045e-02,1.111969830756429356e-01,4.210916312877162337e-02,1.191431403160095215e+00
-9.382248062161273328e-02,-1.015018210252576214e+00,1.061972087214259952e+00,-1.515724847731593841e-02,2.387511351196463724e-02,5.827019574152259712e-03,1.803240656852722168e+00
-8.009920295236531984e-02,-8.714042798225608566e-01,9.040026697447854920e-01,1.392204387266140564e-03,4.722514079706944742e-03,-6.520855909384884116e-03,1.540631413459777832e+00
-6.173770161421939656e-02,-8.655468567815252090e-01,9.022247356468117152e-01,6.095976371371204100e-03,-2.854783599424025667e-02,-3.659151487971737914e-03,1.533874511718750000e+00
-8.272192366539345143e-02,-8.680228183327750591e-01,1.016310955316962694e+00,2.195373288621849106e-02,2.361716960882443220e-02,2.923713885519016453e-02,1.641135573387145996e+00
-2.734262390367225848e-03,-7.878150283452882707e-01,6.019087847059302332e-01,-4.053971916348215326e-02,1.007982887358918611e-01,-2.913651213687738079e-02,1.222537040710449219e+00
-4.050939940075750506e-02,-8.355274670350700816e-01,7.300212654131739143e-01,1.984264380228221644e-02,7.629520966438244067e-02,-4.513674685378144674e-02,1.364959001541137695e+00
-2.090737768454600104e-02,-8.202903926945106505e-01,6.702967688737446750e-01,2.707918286262335841e-02,2.097544622303542869e-02,-6.381595952495285051e-02,1.298094868659973145e+00
6.093599968934845790e-02,-9.527225239438195104e-01,4.738544617712455720e-01,-1.821426183573925106e-02,1.222029457916190137e-01,5.788112849835187063e-02,1.293216943740844727e+00
1.307995827243491060e-02,-9.271477905161417121e-01,5.810873936924635386e-01,-2.307075981651523361e-02,2.071526152233710005e-01,-1.156983814380179235e-02,1.368010282516479492e+00
-8.499958580189763413e-02,-8.578900995376284033e-01,7.873929181975676261e-01,2.040105384187554036e-02,1.197131070131945418e-01,-2.008465498677108191e-02,1.441577196121215820e+00
-4.278181521362081630e-02,-8.136653517177132589e-01,6.624017730734803600e-01,3.928537632408126909e-03,7.170022654378752081e-02,1.188984252144612876e-02,1.284933090209960938e+00
-1.500084655587674010e-01,-2.756357966815069505e-01,7.872626950181234040e-01,1.233923666502985961e-01,1.164825054101921720e-01,1.667139057826458239e-03,1.048043966293334961e+00
-5.694219457015430030e-02,-3.167931318978321475e-01,4.280180413963871056e-01,2.341544833446285515e-02,1.488960594333636582e-02,-7.800296721594081328e-02,6.702907085418701172e-01
-1.263245987700554740e-01,-3.512740801125435741e-01,7.009170028121682883e-01,-2.650583696307394141e-02,1.095669720136790981e-02,-1.449142231275604986e-01,9.932203888893127441e-01
-1.049345763323103475e-01,-2.463887081232583598e-01,4.982327430375970145e-01,-7.732380912306058285e-02,-2.022455853910568382e-02,-2.250974107687959413e-01,8.001944422721862793e-01
-1.125858556192109450e-01,-4.820210439859239360e-01,7.522541587174388367e-01,1.836252362801248789e-02,7.841374373535886164e-03,-6.094412738981892091e-02,1.102846980094909668e+00
-1.305841580004861446e-01,-6.616922454387660357e-01,7.921662066289159032e-01,-4.343436595369755404e-02,2.078411715916946706e-02,-4.229869310660393233e-02,1.279041528701782227e+00
-9.029130060814111181e-02,-6.670431538439083319e-01,8.023768872525272045e-01,1.145923872308467033e-02,-3.136233042354291071e-03,-1.476593031273962242e-01,1.307738661766052246e+00
-3.261642420975487122e-02,-7.655237673588353164e-01,7.969420194176790595e-01,2.987671191780223376e-02,-2.043130897187080044e-03,-7.562201595248707262e-03,1.355054140090942383e+00
-2.626969350522331478e-02,-8.312921912143653724e-01,8.009810657049512006e-01,2.549596273929443518e-02,1.389700300549559335e-02,8.150954847703245241e-04,1.414528846740722656e+00
-1.858741736006778306e-02,-8.027551551072483749e-01,8.075297723346690493e-01,1.911476623281497741e-02,2.373496585132305742e-02,1.106318154428565653e-02,1.395835399627685547e+00
-3.018983107330431084e-02,-8.022046284091585155e-01,8.060605383967551774e-01,3.358111902694992101e-02,3.718196283411403721e-03,-1.913750486341282350e-02,1.394791245460510254e+00
-3.101497888031593334e-02,-7.920412387012228939e-01,8.073687488152501146e-01,5.291873313319822233e-03,1.837995426935554524e-02,8.620659287236098756e-03,1.386145949363708496e+00
-5.918781488272568947e-02,-8.170036031538631116e-01,7.706154970261831494e-01,5.508068424989085669e-04,-7.427013992485234639e-02,2.195191758802798182e-02,1.381915688514709473e+00
-4.089825387067281409e-02,-8.569520276105135892e-01,8.224985667515158916e-01,-2.045893045351287673e-02,-4.879890710772182873e-03,-6.569478307316921166e-03,1.455140113830566406e+00
-5.344373619062504910e-02,-8.513325129476601028e-01,8.094670588892910468e-01,1.459610318619531007e-03,-5.005248771215869280e-02,1.765778553557600244e-02,1.441598415374755859e+00
-4.604521326928268099e-02,-8.469631668371474520e-01,8.087076626410273361e-01,3.521928096790325011e-03,1.578231976918079149e-02,-1.576607212520945642e-02,1.434638977050781250e+00
-3.529652806239511748e-02,-6.868568888266737282e-01,7.434857533607870383e-01,-4.671551655935249348e-02,-1.372120504534594422e-02,-8.333754404915279246e-02,1.251560449600219727e+00
-1.255296002342035089e-02,-9.266166717205588377e-01,7.118401942060086363e-01,-4.440108281880405378e-02,-3.398204935342370031e-02,-5.697912564952541115e-02,1.428817033767700195e+00
-2.314975328786866154e-02,-7.712529244482998481e-01,7.263008551408673963e-01,-1.280917284002837386e-01,7.037114759702238313e-03,-7.766894642807913333e-04,1.315816760063171387e+00
-1.868708859758997851e-02,-7.902782278567297425e-01,8.354284440798748212e-01,9.513878281768391176e-02,5.337080859540871414e-02,1.255261929337381580e-02,1.421290397644042969e+00
-3.621106114769104267e-02,-8.907989085660341644e-01,9.449454358714007851e-01,3.206517704587359685e-02,-1.961517354796513211e-03,1.760825186452879545e-03,1.592035889625549316e+00
-3.757245849142416133e-02,-8.599021155413116846e-01,9.252716686287690839e-01,5.286776440314738118e-02,-6.159400372161415171e-03,-1.131064376612377943e-02,1.550468564033508301e+00
-3.820508353635056198e-02,-8.050930269975872244e-01,9.632211953470858345e-01,1.110360920043759886e-01,1.458285143275223766e-02,-1.699902536277327764e-02,1.548368573188781738e+00
-1.430970608985415379e-02,-8.014729521627684816e-01,8.552234976960613189e-01,1.403915315631115435e-01,2.185662694978384932e-02,2.489141344548436927e-02,1.456914424896240234e+00
-8.100725729929172253e-04,-7.350899648896555005e-01,7.718814525676326310e-01,4.258789581083596842e-02,1.147300311397297587e-02,3.758828093453351477e-03,1.307466864585876465e+00
-1.746640443438033860e-02,-8.060094243080330179e-01,8.562751523034781709e-01,4.285828541997251800e-02,1.123473126947571905e-02,1.101480064278984386e-02,1.442380070686340332e+00
1.200792433425829434e-02,-7.620624253508639923e-01,7.938637508907083751e-01,-5.660308574521528274e-02,-1.214984017547893896e-02,8.579958004163910912e-03,1.351284623146057129e+00
-2.334319418047059447e-02,-1.419683727504606585e+00,1.156244106436529417e+00,5.789071809732802831e-02,-2.998703887401368284e-01,3.622875657085798673e-02,2.296096086502075195e+00
-3.061676027382889340e-02,-8.224687484346906441e-01,8.037727763955925253e-01,-7.164187443116584904e-03,-6.098515503653281940e-03,4.761461667288060563e-03,1.408645510673522949e+00
2.871918087486710625e-02,-7.828035681018364889e-01,7.941761204270507690e-01,-5.202470461274551899e-02,-8.760676921443612611e-03,1.030144777108648983e-02,1.369068145751953125e+00
3.443311985810555698e-03,-7.981005727995670318e-01,8.017422467561187149e-01,-9.833382425693353024e-02,-8.699626764035777587e-03,3.810408325976780228e-03,1.396031737327575684e+00
1.933720188524156239e-02,-7.720387102724532991e-01,7.723197362902245455e-01,-2.103431503184452142e-02,-3.980727252998530856e-03,-5.281452495919998491e-03,1.338136553764343262e+00
1.690656395311238014e-02,-7.344692393832938926e-01,7.650616042529033711e-01,-3.495805885114940115e-02,-8.008946386797141702e-04,-6.518826831184540600e-03,1.300093412399291992e+00
1.450304390312586421e-02,-7.306890611580740824e-01,7.660936524522332647e-01,-1.968669463546629235e-04,-4.134406300453094887e-03,-3.400221411285737710e-04,1.296275734901428223e+00
1.862473581300780681e-02,-7.467822249625397646e-01,7.844696378217297372e-01,-3.662820259054724858e-02,-1.957283129763331270e-02,2.367873534754178638e-02,1.328685641288757324e+00
1.932095461295871980e-02,-7.908375029764789232e-01,7.926524813702241490e-01,-4.259993039047309943e-02,-1.945141766999959956e-02,2.690408172023822306e-02,1.374652743339538574e+00
-6.338252790287315919e-02,-8.227068604001385177e-01,7.764199405482214988e-01,6.893566305983941586e-03,3.058762514086287888e-03,-1.220838927827202006e-02,1.385691881179809570e+00
3.609692375278200638e-02,-9.977540641620837869e-01,5.545005220421480585e-01,-7.646811418317049289e-03,-1.791086784365751583e-01,-1.208789662055823229e-02,1.403707861900329590e+00
3.329980190745104873e-02,-8.357364475172385232e-01,5.310071769729076685e-01,7.123942629541589727e-04,-2.253865191449252667e-02,4.271045367823868288e-02,1.201024770736694336e+00
7.252349310179526110e-03,-8.471055898117073601e-01,6.285315711652478265e-01,5.567550896926100334e-03,-3.264355207112928925e-02,9.006339800582874311e-02,1.293960690498352051e+00
-1.164164682905381026e-02,-8.567674402224432217e-01,7.063491054318243867e-01,4.945395089095384715e-03,3.335561556840820324e-03,4.119572503738370278e-02,1.357106804847717285e+00
3.584565180417847996e-02,-8.134812456746163267e-01,5.370530666699614430e-01,1.210502377602179838e-02,-1.915836857265076215e-02,1.767702294469303617e-02,1.183525323867797852e+00
6.315624756074297852e-02,-8.201607401719777091e-01,4.466256373873095376e-01,1.189735176522845050e-02,-1.184954613483682889e-01,9.779063492233726340e-02,1.156399488449096680e+00
-8.854398080407199778e-02,-1.068094403994969355e+00,1.015584872169604136e+00,-2.663990053449553138e-03,9.909008395405703717e-02,-6.275761250329828234e-02,1.816992759704589844e+00
-7.471018849616693769e-02,-8.624818055877678802e-01,8.816141252018112606e-01,6.545828606083009364e-03,3.809147579719302651e-02,-2.644094393654614072e-02,1.514953494071960449e+00
-9.535561938330373855e-02,-8.861761681765795151e-01,9.171222228028512724e-01,-8.275149394052015717e-03,1.009228512511198272e-01,5.202300913660470177e-02,1.577998042106628418e+00
-4.764256666945075602e-02,-8.967024436291169964e-01,8.240363166949297158e-01,6.392417857447854970e-03,3.102486186697644630e-02,3.323354159614606146e-02,1.492366552352905273e+00
-8.496168312779731058e-02,-8.492506158552893814e-01,8.789996726314396325e-01,-6.025259061851768322e-03,5.985279264149121620e-02,-3.311592627137569227e-03,1.503659844398498535e+00
-6.361847901382081116e-02,-8.210957530387379411e-01,7.759602534199292467e-01,7.177574613408198951e-04,9.138407043097811428e-04,8.977705760544557557e-04,1.383702516555786133e+00
-8.945328810858863000e-02,-9.255137508816039249e-01,9.555045817433049926e-01,-1.175696916698342614e-02,9.259579325583017217e-02,2.113103083525822400e-03,1.640345096588134766e+00
-3.768650484281065721e-02,-8.340909906502665949e-01,8.131493998666912137e-01,-2.326547291678498781e-04,6.666870844674996702e-03,2.845661284391674904e-04,1.426858425140380859e+00
-1.045963652076242201e-01,-4.538815549096436586e-01,8.668056958633292286e-01,-1.638335726410217463e-01,-2.787929444399527001e-02,8.859160508929875277e-02,1.229357481002807617e+00
-4.235781684328916719e-02,-6.776177253974849934e-01,8.184863696033357616e-01,-1.452146668832562937e-01,-9.716070953273018077e-03,1.737915736153286192e-02,1.325110912322998047e+00
-1.040076729389555754e-01,-3.702129255815843623e-01,7.418184912348018134e-01,-1.396929172231338168e-01,8.559571298328049957e-03,-3.689781920600922194e-02,1.036482930183410645e+00
-5.841305467806759411e-02,-5.864543897555591911e-01,7.879118375403247887e-01,-7.244265406346730996e-02,-3.158819946907895360e-02,1.001080574036682103e-01,1.220979213714599609e+00
-4.778158859069961233e-03,-8.055977639652652789e-01,8.001302192837362881e-01,2.260957787760866505e-02,-1.826891992447469276e-02,-1.627020549717178577e-02,1.391799211502075195e+00
-3.206825518598801356e-02,-8.119800491575477341e-01,7.870840560867499169e-01,1.145725763597836393e-02,3.252969227942408958e-03,6.881946809725868718e-03,1.385174036026000977e+00
-3.782057987398612653e-02,-8.270052319895099258e-01,8.032626377893273828e-01,1.775761090655919583e-02,6.878961223066485699e-03,-1.204483346871339580e-02,1.412631034851074219e+00
-4.328247161712824032e-02,-8.106287978744809442e-01,7.897133807697822583e-01,-2.309627245649481953e-03,2.107167327068054565e-03,6.349233053661701952e-03,1.386379837989807129e+00
-1.948816819113234969e-02,-8.117474164516850221e-01,8.127236771610931720e-01,1.016978802475369467e-02,-5.600605792424355987e-03,5.886125314170164574e-03,1.407155632972717285e+00
-3.096712751189729940e-02,-8.076237733201376834e-01,7.961863558213070347e-01,6.884238134234885349e-03,1.748919509965466551e-02,1.659768578165088729e-02,1.389848470687866211e+00
-5.330007096865321120e-02,-8.252318314817745915e-01,7.384642828451634111e-01,-1.997208893145111658e-02,2.468575750996298071e-02,2.293954172453640042e-02,1.355935454368591309e+00
-4.965663063934969840e-02,-8.203518726205057954e-01,7.876270211662038667e-01,-7.208337274742901597e-03,1.573383926326222745e-02,2.399903036683141005e-02,1.393890976905822754e+00
-2.230586581805141938e-02,-8.377427993598661748e-01,7.604758213829310165e-01,4.147582279170616143e-02,1.971656637300769552e-02,-3.522789011879057242e-02,1.387819766998291016e+00
1.501223083781559886e-01,-8.317751307498918445e-01,2.108227390718286354e-01,1.213299125965918920e-02,-3.027909312823373611e-01,1.058758977715688367e-02,1.141592621803283691e+00
-3.683866078151945556e-02,-8.237417670967622785e-01,7.244895426372155445e-01,-5.694490116634558750e-03,3.051607420115710206e-02,-4.902291010419938810e-03,1.341973066329956055e+00
-5.209425354415030823e-02,-8.398428813511319424e-01,7.338026962276944509e-01,-2.249961096070605265e-02,7.280938037478776326e-02,3.240712875544708022e-02,1.370344519615173340e+00
-6.041381122560892519e-02,-8.473491658729997988e-01,7.793590057357061562e-01,-8.036500309846730111e-03,7.691088798707729213e-02,3.370516123987335466e-02,1.416573405265808105e+00
-5.687034022750638018e-02,-5.975831627698937609e-01,7.508089651065332770e-01,-7.644039009945130525e-02,8.063269827698258535e-03,-3.616928642601495610e-03,1.182878851890563965e+00
8.186646910717518266e-02,-7.945757618480348006e-01,4.262284721237140639e-01,-1.353745787936505704e-03,-4.529751596737249808e-02,4.035721535297055415e-04,1.093028426170349121e+00
-3.889920170588373471e-02,-5.800630561098198967e-01,8.683810769006500285e-01,-1.843297992842424515e-01,6.429139334005912502e-04,-1.048930948857687284e-01,1.319827437400817871e+00
-3.472600466726793317e-02,-8.288202521846964599e-01,6.880001081079126779e-01,6.025681148904496118e-03,7.262475167165530210e-02,-2.254513522763395422e-02,1.320715069770812988e+00
2.755089520350120780e-02,-8.061023565381842948e-01,5.119438281073867003e-01,9.162656699367097146e-03,1.260269721709326718e-01,-4.194220363886874865e-03,1.175322532653808594e+00
-5.469561824792613935e-02,-8.169997050399774308e-01,7.046258119022053013e-01,2.348528233460923671e-03,9.741663520834527301e-02,9.207083732885175745e-03,1.328627586364746094e+00
-5.471865296960876091e-02,-8.777872574298043462e-01,7.227445773850913469e-01,1.258738329055773819e-02,1.035065238747957805e-01,-9.975763622168707517e-03,1.398109912872314453e+00
3.839366599782345624e-03,-8.334761628682070267e-01,5.414324826864047591e-01,1.915101752339101737e-02,1.521631112187544210e-01,1.269482049688567659e-03,1.229147911071777344e+00
7.947864127903148113e-02,-8.534942444994980670e-01,4.152994435067205448e-01,2.715014756450425705e-03,1.208683118268102097e-01,-3.329491479227654482e-02,1.159181118011474609e+00
-4.513228104227870463e-03,-9.615732303546942195e-01,6.120803833746176759e-01,5.898692231003857186e-03,2.055718026851036384e-01,4.159859766044380486e-02,1.420684218406677246e+00
-3.355648009975165796e-03,-8.356241181123506001e-01,8.515148242634730247e-01,5.309021974829913199e-02,5.806379924074832680e-03,1.752287109437450363e-02,1.464388608932495117e+00
-1.164076223191515963e-02,-7.582259415600556274e-01,8.235705059853807297e-01,7.311990079910977991e-02,2.472781571716698573e-02,2.381128788975553703e-02,1.377714991569519043e+00
-1.527717259713214093e-03,-6.918478243061628730e-01,7.993472569411371742e-01,2.030753786473082356e-01,4.616682420161858508e-02,4.065259911870210824e-02,1.343827962875366211e+00
4.195285967010823833e-03,-8.006281567962246770e-01,8.393200471539858931e-01,9.340834171789696994e-02,5.358647258479265138e-04,6.165749965854144810e-03,1.429542779922485352e+00
-1.937461997004440856e-02,-7.534060213970733555e-01,7.934601872401844114e-01,6.608525932170103423e-02,-1.410133968481265369e-02,-1.675490219166707968e-03,1.345308661460876465e+00
-1.660623793140708626e-02,-7.686179827736453474e-01,7.808463249425844355e-01,6.837819600451394697e-02,-1.612650228226429269e-02,1.531040997523982865e-02,1.347833871841430664e+00
-1.652880571944366495e-02,-6.119344520269291987e-01,7.833861447615598772e-01,-7.996115606935276510e-02,2.507580689022464223e-03,1.356992610528030482e-02,1.220818758010864258e+00
2.423248657481542889e-02,-7.999797728640218875e-01,7.897383611041237650e-01,-4.277173245984849936e-02,4.139137715514050984e-03,-9.118770097220644730e-03,1.379149556159973145e+00
1.769348178737836091e-02,-7.304266559148813176e-01,7.826126127918515696e-01,-3.795902427950083313e-02,5.075728233123281800e-03,-1.784733124214716790e-02,1.312399268150329590e+00
-4.142214973101817493e-02,-8.356568265817313490e-01,8.153908380058577654e-01,-1.162003814121738334e-03,-1.455693437881613438e-03,2.566254315740789868e-03,1.430202126502990723e+00
2.113999564281386287e-02,-7.403533474125328917e-01,7.656745154490574023e-01,-3.939904204997143194e-02,8.576658166209503650e-03,-2.446385225947397650e-03,1.306161284446716309e+00
-2.639859396746677828e-02,-8.252248834027671176e-01,7.145403061154259605e-01,-1.513733834974248169e-02,3.630223587490709423e-03,1.239522425783963488e-02,1.334235072135925293e+00
-5.174604730441911826e-02,-7.120608876196784509e-01,8.657462290517577985e-01,1.048823450504320354e-01,-3.667671458070115992e-02,7.307558699070011710e-02,1.391653060913085938e+00
-3.213945960090459561e-03,-8.975881104787046816e-01,8.516853286500549736e-01,1.130681451102274471e-01,-2.769216546384472427e-02,-1.448933802506538471e-02,1.528607606887817383e+00
-2.041685120915451984e-02,-7.410036448256945851e-01,8.037971175683359393e-01,7.074093963275386587e-02,-8.841146952595918193e-03,1.052466594511872015e-02,1.344645380973815918e+00
-4.053694263992196900e-02,-6.256802138247922196e-01,8.307815160322125081e-01,1.669558758424475597e-01,-1.736364136876838993e-02,5.863924516818570798e-02,1.306245565414428711e+00
-5.558989457541046314e-02,-7.976825551702932948e-01,6.939323355796142012e-01,-3.718746919110729136e-03,-4.273494653282113032e-02,-7.033563141118008392e-04,1.293917298316955566e+00
-2.697645241453808934e-02,-8.582227885838137338e-01,8.234428777199395144e-01,3.568241154672648074e-02,-2.096014585090831897e-02,-3.757167449295405193e-02,1.459610939025878906e+00
-2.125680090152817087e-02,-7.864017553351131395e-01,8.006300611403137646e-01,2.924884470929217661e-02,2.487005329569758234e-03,-1.626138823400353605e-03,1.375645399093627930e+00
-4.313677277931265985e-02,-8.625820683598623972e-01,8.276532775420525345e-01,2.569255662288544642e-03,-9.577650215315819046e-03,4.610762455353526173e-04,1.464112877845764160e+00
-6.932688962333788396e-02,-8.212613268129415056e-01,8.005435644837025633e-01,3.039886183379454307e-03,1.405456649745646242e-02,3.652243032389561415e-03,1.405996441841125488e+00
-3.761914993704615351e-02,-8.276873522217760293e-01,7.993398082602847232e-01,-4.184069443673265991e-03,2.103095218575981584e-02,1.293482303978063519e-02,1.409909248352050781e+00
-5.152593345299053690e-02,-7.946074358516280745e-01,7.980199199400384025e-01,1.464142442219287755e-03,2.915485088040601497e-03,-7.866647133676451034e-03,1.380361437797546387e+00
-5.117326785907606868e-02,-8.240036461066361229e-01,7.944438865812863959e-01,-5.004838231093408467e-03,-5.402911140611020048e-03,8.405321218910787387e-03,1.402222633361816406e+00
-4.556980363709060150e-02,-7.884216067715911214e-01,7.854542478905929270e-01,1.218992842995615840e-02,-1.141771870555512332e-02,-1.643159308445648129e-02,1.364332914352416992e+00
-4.114476016601149172e-02,-8.536093006826765972e-01,7.873638218017857682e-01,8.643091111585472081e-03,-1.061397170860032060e-02,1.404872552459925268e-02,1.421553015708923340e+00
-2.551496971284486145e-02,-1.253611922563331316e+00,1.112532904437382175e+00,-2.536091365527865515e-01,2.915250388585911012e-01,-1.415736383864148532e-02,2.156275272369384766e+00
-4.819371301980890365e-02,-7.969728615352462686e-01,7.768826575111102972e-01,6.550108916310204595e-03,-3.738868144130880894e-02,1.981434602943243917e-02,1.365548014640808105e+00
-2.849422397496770287e-02,-8.272568039386798411e-01,6.322608594631848877e-01,-7.895262749680116710e-03,-7.625624406636789809e-02,1.198174974092593029e-03,1.272808551788330078e+00
-7.821639996629520253e-03,-8.083844903278679661e-01,6.137964299937638257e-01,-1.464261607936686443e-02,-4.513922584700638674e-02,-1.149485937958079525e-02,1.237782955169677734e+00
-8.116952161694127033e-03,-8.523907237532076797e-01,6.492219066933648808e-01,-1.293602442220562827e-04,-7.474967115587018152e-02,-8.095415291225457888e-02,1.317683458328247070e+00
-5.213791079649163912e-02,-8.000571395500608585e-01,7.941833140971337190e-01,1.778492658782062849e-02,2.643291633750754002e-02,-2.206905506524092092e-02,1.383159041404724121e+00
-6.171869814230590556e-02,-6.614764557919673438e-01,7.611028273265526556e-01,4.441256591158859041e-03,-1.391328384486752688e-02,-5.885088691918850812e-02,1.241478323936462402e+00
-3.970786229578151388e-02,-7.876473311580017844e-01,6.686320247529353722e-01,-5.899551472009368497e-03,6.069572267526090331e-03,2.898628054484769789e-02,1.262414216995239258e+00
6.277133906022835941e-02,-7.987871085503300828e-01,4.679764313265458719e-01,-6.179145938786555691e-04,-4.791152764157823041e-02,-8.561181630892443495e-03,1.123694658279418945e+00
-3.982963393939398244e-02,-8.178262342882778313e-01,8.066341374089245342e-01,-9.891594740442466536e-04,7.183362389976563622e-03,-7.258238589987412413e-03,1.407352566719055176e+00
-6.579141131438505374e-02,-7.337323276599860833e-01,7.920952078252029294e-01,9.378546176199572051e-03,-2.194600129069238913e-03,3.105949536376906642e-02,1.326010704040527344e+00
-6.681520368189075576e-02,-6.074816315006663636e-01,7.179390638217919562e-01,8.112189621876178536e-02,-1.719252665697890842e-02,1.479583951061276548e-02,1.163501381874084473e+00
2.679191620612325631e-02,-7.997872287711708106e-01,5.300852442402089748e-01,-3.515742296782307583e-03,-9.704573929313665276e-03,-1.259655625288470110e-02,1.163333415985107422e+00
-7.099164695354381882e-02,-8.060486893232124972e-01,7.820964986363257987e-01,2.143106223109976505e-02,-1.409550179126558590e-02,4.514723941809165031e-02,1.379574418067932129e+00
-1.375624863112659413e-01,-4.068122861305205618e-01,7.659488120015471857e-01,3.440038018337195080e-02,5.999148173497445297e-04,-2.906996531218359117e-02,1.066857457160949707e+00
-1.080164977131058690e-01,-4.615738543715353082e-01,7.460037501051239861e-01,1.029303725798561414e-01,-8.976602401256698199e-03,-2.657761160076965376e-02,1.091074347496032715e+00
-1.067570518583720596e-01,-3.640902598792565836e-01,7.791953129005472212e-01,1.205567731449756069e-01,-2.859424200778065348e-03,-6.720421421262228953e-03,1.059659719467163086e+00
-1.190570539142747630e-01,-4.670344821866623253e-01,8.796992933458124275e-01,1.073990866015805123e-01,-2.159562750204904388e-02,-8.576471244266434257e-02,1.234591722488403320e+00
-6.473694143966067516e-02,-5.449154579988385594e-01,7.554858423118644417e-01,1.311828109522591712e-01,-8.717928721036726641e-03,-9.641638519034399779e-03,1.161604046821594238e+00
-8.461712266068223409e-02,-8.280676908477390130e-01,7.977396846755583359e-01,6.756464756508057806e-03,4.670645868241618537e-02,-8.660941414620862075e-03,1.412149906158447266e+00
-5.416660722115957532e-02,-8.008873293074203481e-01,7.097108606097587424e-01,7.939935809951940981e-03,5.415726832249678074e-02,-1.823269314964041932e-02,1.312055349349975586e+00
-6.387027701718611672e-02,-8.262606874943724256e-01,7.440315284389930062e-01,1.435868742274989170e-03,9.852913238686643316e-02,1.652610147685013714e-02,1.371069073677062988e+00
3.871148191324333410e-02,-7.989126837855551333e-01,4.950740899405317030e-01,4.678878419956686643e-03,-5.448704105665366088e-02,1.311611619271402414e-02,1.140889883041381836e+00
5.508613380780652546e-02,-8.055199482455281945e-01,4.771428729773483646e-01,-4.638406719081193327e-03,4.149500091928980117e-02,-9.849912846977840891e-03,1.134689569473266602e+00
1.108871046749004829e-01,-8.723164651804341529e-01,3.292369220303595356e-01,8.440106866510245238e-04,1.274239154974333432e-01,-9.122576442884226811e-02,1.141370773315429688e+00
7.105480831746860404e-02,-8.830606412745118927e-01,4.545798083062384531e-01,2.300943863339518862e-04,8.053082889866107485e-02,-1.487392429265098071e-01,1.228487133979797363e+00
-5.085473267746520865e-02,-6.866151863106889630e-01,7.882948720242872742e-01,-7.095884145846740286e-03,-1.395434614006082347e-02,4.632300977098385841e-02,1.284147262573242188e+00
-3.395291316743499765e-02,-8.326931198837184134e-01,8.048150584338127356e-01,1.826833925882665821e-03,-9.416723541616180831e-03,-5.058979782625746234e-03,1.418389320373535156e+00
-1.525414117791347446e-02,-7.723988980812154237e-01,7.932662306200629621e-01,-2.491778481968743089e-02,-2.847329080178314167e-02,9.797967839950415952e-03,1.357837677001953125e+00
-4.799080727696337229e-02,-8.168551965958461558e-01,8.054403521936978061e-01,2.758633427259170670e-03,-1.242477342685443728e-02,-9.292866880894198184e-03,1.405850291252136230e+00
-4.954539422041517871e-02,-8.159755692352389511e-01,8.204763995291028955e-01,1.807891536093027447e-03,-5.872864911869159384e-03,-1.513792392513177258e-02,1.418437480926513672e+00
-4.758790495890104916e-02,-7.544140911716412656e-01,7.931171157580995112e-01,6.627434427809601736e-03,1.946279472907915323e-02,1.715027183099973596e-02,1.342673063278198242e+00
-3.488662434180192506e-02,-8.297277328668822838e-01,8.085343239481495026e-01,3.384054010607812860e-03,-1.983069072450345267e-03,3.301803660439272137e-03,1.419012308120727539e+00
-4.731856308890999840e-02,-8.127089794237507547e-01,7.952349969634570082e-01,-1.108480554831565990e-02,3.778237447989726133e-02,1.614820546558721234e-04,1.394723176956176758e+00
-3.773772513808110185e-02,-8.118181741177602495e-01,8.186813394778825748e-01,-2.081433829804121491e-02,-7.391886786410665176e-03,2.146019402181980826e-02,1.413660764694213867e+00
-1.052995733457942340e-01,-4.944980844833015698e-01,8.133784565607835582e-01,-6.979159860772891910e-02,2.022639238416884533e-02,-5.326727634140996509e-02,1.173603415489196777e+00
-7.566792099000599348e-02,-6.630555803650790558e-01,7.973670435801512024e-01,2.406634112094064096e-02,-6.332933692477463183e-03,2.758734746473148758e-02,1.274427413940429688e+00
-3.458601766527591437e-02,-8.112958634542265512e-01,7.308051056613786844e-01,5.320311306310941332e-03,-2.545093473274200047e-02,5.325701451361752187e-03,1.336301565170288086e+00
-2.763457406613123446e-02,-8.056798413872493514e-01,7.028948964156637169e-01,4.082747251754018092e-02,8.409752952653025415e-02,5.155682143076783033e-03,1.316704392433166504e+00
-2.903750460399102951e-02,-8.526568883288333511e-01,7.333569062586163811e-01,-1.006749435919221869e-03,2.746809804519021944e-02,-2.176253666083016042e-02,1.375210642814636230e+00
7.234799349934442625e-03,-8.016275601030796727e-01,5.359065824330377925e-01,-1.436563635365974666e-02,5.816760579632345579e-02,1.465976044313617964e-02,1.171660900115966797e+00
-4.968112246468214810e-02,-8.160138319854982614e-01,7.390562072225361767e-01,-7.068996001554389563e-03,2.821695468117527486e-02,6.744431311438070162e-03,1.347769498825073242e+00
-3.627118499194713352e-02,-8.420263379078986032e-01,6.901904197167689770e-01,-1.440754032410803027e-02,3.995371398730739043e-02,-1.270699665951794365e-02,1.329749584197998047e+00
-2.145712226216719282e-02,-8.576028653492624443e-01,6.791536446873250865e-01,-9.046791779997185104e-03,5.020248490810621383e-02,5.603905682759980494e-02,1.339042663574218750e+00
-3.663290663298930661e-02,-8.564642653675433870e-01,7.582023265383712740e-01,-9.288380600176501106e-03,5.901689384264009047e-02,3.801460719453866183e-02,1.403766512870788574e+00
-4.245301957422097094e-02,-8.108141661291576874e-01,6.702091461453192345e-01,-1.561696760054694100e-02,6.476724234853543927e-02,3.737907221588975676e-02,1.289711475372314453e+00
2.170506381722531186e-02,-8.231051722018177808e-01,5.415085337291394296e-01,-1.108309693361597854e-02,2.125586697871890973e-02,4.704664084447490041e-02,1.196411013603210449e+00
-1.050459745366747050e-01,-6.658670997777256240e-01,7.683644283698478628e-01,-3.681595089026150781e-03,8.397017247096256326e-03,-5.519646367223769029e-02,1.255621433258056641e+00
-5.927417350306538046e-03,-7.865320216296006750e-01,6.609537552014810302e-01,-6.540903547550014699e-03,-2.400157155485427036e-03,2.871919250460937614e-02,1.255891919136047363e+00
-4.783917876555630888e-02,-8.283005107892832397e-01,8.087324822649210043e-01,5.419169332339393574e-03,2.205499208840507909e-03,-2.719544451817940654e-03,1.418266892433166504e+00
-1.486877943396725313e-02,-8.294568381355663655e-01,7.106169067191699940e-01,3.383620931358374048e-03,-1.361054608979256559e-03,2.433918249106941864e-02,1.335167527198791504e+00
-4.561107075865820232e-02,-8.379080580117450605e-01,8.153776633454777878e-01,-2.997860214419349983e-04,-1.502540758252065428e-03,-3.249499061334021398e-04,1.432201862335205078e+00
-2.302813301684789385e-02,-8.118915052174390246e-01,7.149810821095898827e-01,-6.178733538339154126e-03,2.414455509672783825e-03,9.921155951082631999e-03,1.322716474533081055e+00
-8.714813866339150839e-02,-6.866034977318512533e-01,7.665584801556668548e-01,2.723423829740816409e-03,3.353192885728518372e-03,-4.798187749745876085e-02,1.267629027366638184e+00
-6.661399742891906117e-02,-7.946715140136635380e-01,8.120407806382612392e-01,-2.357907656608936725e-03,-3.359429881030686054e-03,-9.180911670563120588e-03,1.393598437309265137e+00
-2.592935504527986434e-02,-8.348273987919820893e-01,7.726644437282115252e-01,2.439402872387163180e-03,-6.403119637248455478e-04,-5.712376435294894660e-03,1.392180323600769043e+00
-4.177559596119548302e-02,-8.338793646070318255e-01,7.786057933785057728e-01,6.160297374109091270e-03,5.505113463524961316e-03,1.050187136874093305e-02,1.396716475486755371e+00
1.237267084168982845e-01,-7.954569916282280273e-01,3.038978292303331497e-01,-2.077179079640331660e-02,-3.709112935306813075e-02,4.780161290249105438e-02,1.027252316474914551e+00
1.124283351920198071e-01,-7.940329295547137178e-01,3.106416628097315447e-01,-2.278198009188754300e-03,-3.424373248607540110e-02,7.613871692932939680e-03,1.021929860115051270e+00
9.803278095577347417e-02,-7.946484116501044692e-01,2.952313368647683789e-01,1.790828193296402273e-03,8.266962780476153072e-02,2.021843308690876931e-02,1.016632318496704102e+00
6.842153030425687787e-02,-8.050002973810728157e-01,4.746449017878534571e-01,-3.619112954316652028e-03,1.758978012020881920e-03,3.102692296319638221e-02,1.133853673934936523e+00
-3.483139143880890215e-02,-8.196248389704127169e-01,7.904246433496946445e-01,-2.113914393332811900e-04,1.347503071472186398e-02,-1.836290025455114203e-02,1.395048499107360840e+00
1.900469123001248539e-02,-7.834697116852172849e-01,7.787923675477428365e-01,-3.543477789445980981e-03,-2.119848056746058288e-04,2.607000060648146603e-03,1.353148460388183594e+00
-3.735330000861804972e-02,-7.949336168703903249e-01,8.022868451549881597e-01,-1.050677530936337638e-02,7.108402810778464975e-03,9.672351919664244971e-03,1.384117722511291504e+00
-4.819534003351022555e-02,-7.937827132834033295e-01,7.937245827913715912e-01,-7.135964804336997029e-03,-4.714063831989650025e-03,1.808127143199915118e-02,1.376101255416870117e+00
-4.716036708529554311e-02,-7.985505384660789296e-01,7.975612295206071511e-01,-7.562281234299222943e-03,1.049673938456574356e-02,-1.052441951834739292e-02,1.383362412452697754e+00
-3.565416537128428265e-02,-8.271468251723700371e-01,7.903926022265538309e-01,-2.179563655212554685e-02,-1.227192493893202938e-02,-1.208582077776465362e-02,1.401762843132019043e+00
-3.837898690837022314e-02,-8.089346239748033129e-01,7.432338502462243479e-01,7.553836090176109335e-05,-4.475133466739945366e-03,2.136639133298586304e-02,1.344760417938232422e+00
-4.458300690759877533e-02,-8.228573864837563923e-01,7.971966209054022201e-01,4.882638717739998420e-03,4.008718862320490711e-03,3.842159958037685797e-04,1.403409957885742188e+00
-4.730529294227425741e-02,-8.320185796450723092e-01,8.005315616777860521e-01,1.151850474014921681e-02,2.568465143453909152e-03,6.779147242365052631e-03,1.414378643035888672e+00
-2.888092785593579515e-02,-8.224811759570845870e-01,7.221867831355148759e-01,2.178655451740322494e-03,3.058973451633118304e-02,1.814955868218859694e-02,1.339313745498657227e+00
-6.951882791193191025e-02,-8.061097215589383413e-01,7.464201927995449681e-01,1.063789822698207183e-02,-2.406429310153980483e-02,8.867725983024722300e-03,1.345974922180175781e+00
-1.053202766599796725e-01,-6.485428566233136793e-01,7.996196718601483733e-01,7.684089596593780304e-03,6.036140447694033490e-03,-2.019402322013870085e-02,1.267714738845825195e+00
-4.848938734334058698e-02,-8.319639799740996544e-01,7.867325730603792477e-01,2.469043737729631049e-03,1.286200179131858365e-03,-4.755041223354987065e-03,1.402103543281555176e+00
-5.058978799784201452e-02,-7.979129660011218261e-01,7.821005940019201130e-01,5.896445426283097521e-03,3.418831196561743658e-03,5.581024227182239568e-03,1.369082450866699219e+00
-5.241778850881244345e-02,-8.031937111741622726e-01,8.087089217471945535e-01,6.062938455011931266e-03,-9.747913867372151944e-03,-6.534655886608210784e-03,1.397225975990295410e+00
-6.283823470769349384e-02,-8.079254521931565902e-01,8.198057343677722653e-01,-2.424860784768683233e-03,-1.326138838528700785e-02,-2.093268064074519860e-02,1.411992192268371582e+00
-1.377839620486172485e-02,-8.228510545320388836e-01,8.014774376779379983e-01,-1.933072952525372468e-03,-1.389016212534349357e-03,-4.707706706409031834e-03,1.406742811203002930e+00
-5.206945209797806534e-02,-7.925137173990086659e-01,7.740160489263905319e-01,4.915651261303415585e-03,1.368309435371317835e-03,-2.047404938552599852e-04,1.357359051704406738e+00
-6.115464646770939205e-02,-7.546059507747749917e-01,7.190513189837464125e-01,2.997733572658108081e-02,5.085297781161276197e-03,8.000724962845800342e-03,1.278122186660766602e+00
-3.911299110526057082e-02,-7.687056704492422066e-01,6.888426107974560120e-01,4.195693193495689428e-03,-1.989317877737605249e-03,1.633561815779254606e-02,1.262616753578186035e+00
-2.899189869111568063e-02,-6.468554438240436966e-01,8.863435837103991188e-01,-1.364676335077981140e-01,-2.062863594912063558e-02,1.317311101278539377e-02,1.357502937316894531e+00
4.884901248358256357e-03,-7.776642411956279366e-01,8.321464094686089608e-01,-5.053247213441645208e-02,-8.907142701762578441e-03,-1.846173671861319962e-02,1.397511601448059082e+00
-3.822022200032769434e-02,-8.063127166518634370e-01,9.972667530571577288e-01,-1.086423263866576755e-01,-2.167241292499610256e-02,-1.903447728850709078e-02,1.579700827598571777e+00
7.154278412321798258e-03,-8.310975064445469407e-01,8.445582140858014508e-01,-5.967164405633559182e-02,-4.612487490694402829e-03,1.231417740726091850e-02,1.455014586448669434e+00
4.635384287211550755e-03,-8.375717808782763285e-01,8.546420830091274734e-01,-5.292537358297755984e-02,-4.598641765429995094e-03,-5.832255863538627488e-03,1.468425989151000977e+00
-1.318672697343886702e-02,-7.858833435098973030e-01,8.371746447213743725e-01,-1.162048257307422838e-01,-1.318876282841750444e-02,-8.779087457483448348e-03,1.420742630958557129e+00
1.010521649606648323e-03,-8.359146485820742045e-01,8.467726934279808937e-01,-4.873121165469551652e-02,2.593691640487196231e-03,-4.012373448011799168e-03,1.459722518920898438e+00
1.518823063887086988e-02,-7.944774143743543737e-01,7.934178806910580084e-01,-3.299819637201492628e-02,1.305615572386821695e-02,-1.553298098803893197e-02,1.376883268356323242e+00
2.304686630350053639e-03,-7.673880498330080124e-01,7.995965502804756042e-01,-9.544288453700010277e-02,6.149972939833919100e-03,1.830173879467653151e-04,1.367191553115844727e+00
5.781460483785924934e-03,-7.489365380410774042e-01,7.938105849064291952e-01,-5.550993278590492241e-02,-1.614710795913532450e-03,4.667251195363785778e-03,1.339644074440002441e+00
1.854571270058717747e-03,-9.230314104541855746e-01,7.591614891170187507e-01,6.478052029344921747e-02,4.752376523026605876e-02,-2.988696427663538584e-03,1.465858936309814453e+00
-1.034911838523236982e-01,-5.832030086944750558e-01,7.713440788748592292e-01,7.852822249399973517e-03,-2.314137399766924390e-03,1.163043020447530364e-02,1.189846992492675781e+00
-6.411410944225101605e-02,-8.487871198222820546e-01,8.663585040161942974e-01,5.194712200438174332e-02,1.427294276393691885e-01,-9.017451865451248539e-04,1.510238647460937500e+00
-2.078186209803738541e-02,-7.531358414880645613e-01,7.288672775790698832e-01,6.811626263731233866e-02,4.181396565509320346e-02,-4.340801452250082036e-03,1.290947675704956055e+00
-4.110801379764282559e-02,-7.481832720694286953e-01,9.490472424988724010e-01,-1.439156899679289170e-01,-2.283625490703853622e-01,1.801051344010691779e-01,1.579991817474365234e+00
-4.466570263613407754e-02,-8.313653867680333986e-01,7.952019231258665721e-01,-6.308156512148344226e-03,4.744486424831763534e-03,5.566974478727969300e-03,1.408998727798461914e+00
-1.757991457686772924e-02,-9.069974633970290245e-01,8.443129932537681848e-01,-1.862743312954664443e-01,-3.325357185892217071e-01,-1.922580089826982780e-02,1.654523730278015137e+00
-2.717739942446113083e-02,-9.861639138224013168e-01,9.329990998561914495e-01,-1.670171841126946444e-01,-1.995750801420153042e-01,-7.034165729659465349e-02,1.726386070251464844e+00
-4.632090093325645641e-02,-8.366548805526855537e-01,8.161088887633465294e-01,-2.320659785885625329e-03,5.676724877635950205e-03,-9.698223022005221603e-04,1.431829690933227539e+00
2.903119202142978583e-03,-1.338937474547851947e+00,9.495868856326388219e-01,-1.978967826835675570e-01,-3.227869593998065056e-01,2.719155879674163279e-01,2.149168014526367188e+00
-1.085967498200352856e-02,-1.028633080295049185e+00,1.013855234745105083e+00,-1.460317528894392134e-04,-3.730065608248755438e-01,-9.313830963331624913e-02,1.890041470527648926e+00
-5.520632872693607973e-02,-8.766998434988375610e-01,9.728448856685470991e-01,-1.416807089368902206e-01,-1.125604070135294982e-01,5.834372668003690726e-02,1.638511538505554199e+00
-3.066253200044007088e-02,-8.309959133844947443e-01,7.588519122516519388e-01,8.941995453677917607e-03,7.311692577381715200e-03,-4.286001978801257106e-02,1.379004240036010742e+00
-2.434998414835915295e-02,-8.108194335332052916e-01,7.005240241815673397e-01,1.488542601496755345e-02,3.825448208917616583e-02,-2.430420019213567692e-02,1.311828851699829102e+00
-2.834479671583192001e-02,-8.399454414069382757e-01,6.708435133223785707e-01,-3.188797579935058468e-02,8.067394907006830707e-02,5.196765055689894774e-02,1.321249008178710938e+00
-2.740761832357344052e-02,-8.242971304847572789e-01,7.167032065457550338e-01,2.252628209966536354e-03,2.719327967478582866e-02,8.983217246737713532e-03,1.335733413696289062e+00
-3.969832549707177222e-02,-8.391090440316453236e-01,6.736840413511913095e-01,-2.109929497284037531e-02,7.890352891244198363e-02,5.242213273570011517e-02,1.321557641029357910e+00
-5.823979803152474349e-02,-8.627858477875901544e-01,7.833423098638602200e-01,-2.123134284112187034e-02,8.284070461296913490e-02,3.424885740832973174e-02,1.434609770774841309e+00
-1.688785428172688216e-02,-8.471260927539823182e-01,7.330872555214941189e-01,5.417298059827830442e-02,6.228574765073286584e-02,4.755771954063246765e-02,1.379001140594482422e+00
-9.497936464532813483e-02,-4.857896179712104523e-01,7.632881949998171489e-01,-7.815467735753249545e-02,-2.016314173314560573e-03,-4.515277742641094633e-02,1.117689013481140137e+00
-1.313785100914756920e-01,-4.896271884736570490e-01,7.841219397759076060e-01,-8.933774680051344286e-02,9.073349658359895764e-03,-4.877200513029143064e-02,1.151428222656250000e+00
-7.272545309062622421e-02,-6.553170465503347364e-01,7.539150621315228173e-01,-2.920019541864272636e-02,6.900211309903876711e-03,-4.671225191328656073e-02,1.230279684066772461e+00
-1.432722050843046602e-01,-4.751720557801485390e-01,7.884830120140413623e-01,-7.539093274567951024e-03,3.348635489248834307e-02,-2.000359043191296538e-02,1.136798024177551270e+00
-6.220820793402260379e-02,-6.767623068337885739e-01,6.785349956073558619e-01,-1.525461469979296283e-02,-1.551002394414502210e-02,-1.904450768832840687e-02,1.176482796669006348e+00
-6.324055113125340299e-02,-7.015202343783121242e-01,7.836349840317330395e-01,-5.304312024168334264e-03,2.644449823809182087e-02,-1.052908728446101151e-02,1.291378140449523926e+00
-1.246051840247619502e-03,-8.551796308670633895e-01,6.638327104356718245e-01,-7.407252215648790772e-02,7.043533221342547501e-02,-4.175566827089999961e-02,1.332681417465209961e+00
-1.743783215270459930e-02,-8.567124534087251497e-01,6.937509697492991734e-01,-1.705017172771823228e-02,2.373933822353665318e-02,8.165558861264017587e-02,1.352634429931640625e+00
-1.091785237980499867e-02,-9.350109779808201127e-01,7.099336051442947104e-01,-1.807473765536467616e-02,1.562338616409604530e-01,1.597398329415622084e-02,1.454194426536560059e+00
-1.308399633512540017e-02,-8.288417206685150251e-01,5.787257519444879428e-01,1.337759376558578239e-02,2.168081296725872520e-01,-2.708964337504107464e-02,1.281494617462158203e+00
-2.146575617061675240e-02,-8.380691424697336300e-01,6.949163355786869278e-01,1.615594933433524283e-02,6.729475127592096650e-02,-4.242194051167533925e-02,1.335968613624572754e+00
-1.698267485976549807e-02,-8.275712426268909683e-01,6.357323548107506328e-01,1.576655409512314754e-02,6.072425133819697729e-02,-4.862067097879655547e-02,1.277135133743286133e+00
-4.453840489155651283e-02,-8.356127030248190479e-01,8.154055961364711225e-01,-3.628056744079303109e-03,5.652760924682843045e-03,-9.506586951263557321e-04,1.430286645889282227e+00
-1.312660560424573908e-01,-4.033614532050537327e-01,7.440497218705236504e-01,-7.955524605361198945e-03,-5.621976747933879644e-03,5.633865472932083479e-02,1.043163418769836426e+00
-1.297806000691951456e-01,-5.544965887791784009e-01,7.769205977356311577e-01,9.583684952427465320e-03,2.925791325176415377e-03,3.396052575394722939e-02,1.179551839828491211e+00
-1.135364671598579900e-01,-5.770813951796514019e-01,7.809654800344361103e-01,3.130075121425739213e-03,2.802943640686558942e-03,5.408451483839664398e-02,1.199365615844726562e+00
-4.911722364537499108e-02,-8.331026739280252835e-01,8.148017987713781496e-01,-3.439121799781110541e-03,3.681850245718851049e-03,-2.559167700676251173e-03,1.427720189094543457e+00
-5.054461379604692495e-02,-8.108137923111182754e-01,8.008689110516933329e-01,3.295392852282715175e-03,-1.813423318813190245e-03,9.236277703609957826e-03,1.396608710289001465e+00
-3.989103227882200009e-02,-8.139996267896468796e-01,7.891193671934263465e-01,-4.084396725909606525e-04,3.409256740315342715e-03,-1.643199698686253303e-03,1.388628840446472168e+00
-4.763677237501513784e-02,-8.390926208922664387e-01,8.096649671168923978e-01,-1.104859333440723172e-02,2.447074149230717664e-03,-7.347506269827681208e-03,1.428436636924743652e+00
-4.073710564008047041e-02,-8.313108598648911718e-01,7.930540527716466448e-01,-6.970409459089965155e-03,8.097793077920757351e-03,3.491551659755376923e-03,1.407041907310485840e+00
-1.808971882683110127e-02,-7.510503397903904865e-01,5.658981113062194757e-01,-2.572105310656384869e-02,-4.687501639280670235e-02,-9.221400625353519398e-02,1.157756447792053223e+00
-1.761588937119754061e-02,-8.273576186296144330e-01,6.900641743550650631e-01,-1.206138250381978867e-03,-1.351994220722623104e-02,2.124033003407024833e-02,1.315840840339660645e+00
-7.104555179666867393e-02,-7.188944060267155045e-01,7.671612801772059731e-01,-8.349145663119330804e-03,-1.749047563225068769e-02,3.592050976073656032e-02,1.292411684989929199e+00
-4.084926705338119690e-02,-7.876105932430778056e-01,8.029561354963190567e-01,2.139681239567264512e-03,1.970958352688253340e-02,1.252289829883587724e-02,1.378923773765563965e+00
-7.797495352251231082e-02,-6.000172997465552660e-01,6.812058373320217797e-01,-3.546031606727124280e-02,9.931717712598148520e-04,1.121258985275414150e-01,1.134328007698059082e+00
-4.258300258834751134e-02,-8.885201632528334503e-01,7.421829349056285885e-01,-5.580525233487988734e-02,6.670637098198473752e-03,1.233368924055458981e-03,1.415913343429565430e+00
-2.475912146168328734e-02,-8.257444550783300530e-01,7.134392384364043327e-01,2.825350547728761041e-02,-1.130177024453124339e-02,2.190847123371386998e-02,1.334922552108764648e+00
-4.926877214604640648e-02,-7.313967596395207771e-01,7.055358568409382247e-01,-6.696031801276740303e-02,-6.815761260976432347e-03,5.201303851008862167e-02,1.253638148307800293e+00
-2.557483144188484742e-02,-8.026881312181105566e-01,6.397021069390632642e-01,1.744889100647521035e-02,4.394582492505781125e-03,-2.195109164930415108e-02,1.251363635063171387e+00
-6.463705952576677405e-02,-8.223618823232805575e-01,8.143751984836294922e-01,6.177283988206591636e-03,2.728141837874591656e-03,3.843804687313302337e-03,1.418816447257995605e+00
-7.026052277635862209e-02,-8.507499918626899582e-01,7.780908867174969323e-01,3.473920966240079400e-02,7.988242566194343752e-02,-4.991498417676782512e-03,1.419095516204833984e+00
-3.659393596108295732e-02,-8.255071929347103099e-01,7.290096894076870671e-01,6.816041759613888397e-04,2.751030470439373016e-02,-9.121566306177216615e-03,1.347237706184387207e+00
-4.882012105821713355e-02,-8.265466439626618644e-01,7.687778609015809561e-01,-3.315973017344821163e-03,3.789155859772608270e-02,-1.924156948195080395e-03,1.383309125900268555e+00
-7.098563058623438837e-02,-8.260103070405414583e-01,7.909706958133864152e-01,1.676228341037243677e-02,3.320654465728226784e-02,-2.022359011750119590e-02,1.403284430503845215e+00
-6.630709810470884757e-02,-8.270974644002400122e-01,7.623018822789732196e-01,1.605734544224112978e-02,2.831108529223915968e-02,-2.672207999328089778e-02,1.378808498382568359e+00
-3.593404855680158022e-02,-9.630841684798938651e-01,8.065926943807977256e-01,-1.044568818913240750e-02,1.679402537987576827e-01,-2.019306139550512344e-02,1.561015605926513672e+00
-4.014774025201749141e-02,-8.475863914521658549e-01,9.558598670189277779e-01,-2.911672832737135716e-02,-7.910263307967627805e-03,-2.728219556199564660e-02,1.566259026527404785e+00
-8.164367777477692101e-03,-7.549067153618324033e-01,8.394496792418566500e-01,-1.113728835667036066e-01,-1.727345287489298609e-02,-7.551651346895216915e-03,1.395457267761230469e+00
8.345246679465992759e-03,-9.147880521689738531e-01,8.867873324505529675e-01,-1.511582888657136414e-01,1.892154173974106707e-02,2.165471230067504346e-02,1.582966208457946777e+00
-6.029208627672834331e-02,-8.231283985396450342e-01,7.806147151059880107e-01,1.305438981676296240e-02,-2.007759719492699033e-02,3.792795600862653316e-03,1.390065312385559082e+00
-4.632339412255575412e-02,-8.289640075816857578e-01,7.768644983805063076e-01,9.954148110707413191e-03,-5.186037576215229289e-03,-1.849758404095955440e-03,1.390975594520568848e+00
5.436449881996333056e-03,-8.042807639077127480e-01,5.442185098167101609e-01,7.752695449744996872e-03,4.531363475923186335e-02,-3.068371883509345838e-02,1.179556727409362793e+00
5.495357686580562562e-03,-7.905065026252138249e-01,5.905277187625738167e-01,7.950367945651211701e-03,5.842079212329128607e-02,7.045417559241020679e-03,1.205050230026245117e+00
8.325232327707113300e-02,-7.850836756622907586e-01,4.163307590065734587e-01,9.000466084686777057e-03,6.247533234367227267e-02,-1.405577920639620483e-02,1.080147147178649902e+00
7.646645118656586471e-02,-8.075936134113489429e-01,4.470065777852801903e-01,-1.790802237681225588e-03,6.241937088105715264e-02,-3.222155791880815245e-02,1.123055934906005859e+00
4.073090512795263241e-02,-8.059367218589285065e-01,4.828637874278278730e-01,1.371649603795800816e-02,6.365366317123452577e-02,-2.225652994221169120e-02,1.140558242797851562e+00
3.486712820511006505e-02,-8.085353955675502746e-01,4.999048268817795071e-01,1.025221304701341533e-02,6.848080940717199416e-02,-2.376040281671932403e-02,1.155802607536315918e+00
2.184305094013254400e-02,-8.063843220654864918e-01,5.443877236434103706e-01,1.446184591699758645e-02,3.487552882637763325e-03,-2.942203847489232443e-02,1.181126713752746582e+00
3.693982261030606673e-02,-8.051113241513007113e-01,4.499195721083458777e-01,6.054432555983302149e-03,9.688689766301569750e-02,-1.103845600407304776e-02,1.120709300041198730e+00
-6.521426334440436068e-02,-4.632529382612512459e-01,7.800393421047960851e-01,1.602536451977021326e-01,1.525775113430339648e-02,5.944446925881205490e-02,1.139155387878417969e+00
-1.361214108822336732e-02,-6.254090568561903041e-01,8.002538625562184427e-01,1.636464905033938599e-01,2.935638537592653169e-02,6.704487615939394574e-02,1.277108073234558105e+00
-2.779328613647957802e-02,-6.585094680669411060e-01,9.425255002045134223e-01,1.458725318511232549e-01,-1.009642429769780012e-02,-4.382277548396824873e-02,1.421696424484252930e+00
-6.869020683976198582e-02,-6.210616584902116655e-01,8.212865916562357427e-01,1.717465923776076431e-01,1.498978989515854961e-02,5.745007467057107464e-02,1.299167752265930176e+00
-4.626163364537629052e-02,-7.368740609910402473e-01,9.519728523282275923e-01,2.101393867863054765e-01,-2.653990456711491711e-02,-9.224076365598007921e-03,1.515801668167114258e+00
-7.338996946194714655e-02,-8.136719091722816044e-01,7.861579749103069226e-01,1.980922235257732110e-03,7.012531203260186259e-03,4.693589068524430669e-03,1.386857271194458008e+00
-1.608583251585811447e-02,-1.013094999985543421e+00,7.336352238371832701e-01,-4.366635602994049098e-02,1.401387888655310499e-01,3.575139405770104330e-03,1.538916110992431641e+00
-6.883247221490594592e-02,-8.632121210985101989e-01,7.741060341994486782e-01,4.242858472837355600e-03,1.299255082730099986e-01,-1.752456469067485006e-02,1.436250209808349609e+00
-7.500431809715087106e-02,-8.218023327375573173e-01,8.361408179585642086e-01,-1.340856266639665201e-02,5.422068843311392272e-02,-1.823017227160815545e-02,1.441766381263732910e+00
-8.500332726852352638e-02,-8.699924437052150017e-01,8.708076932082252641e-01,-1.232339113953322520e-03,1.940372669047414900e-01,-1.783999920122891769e-02,1.547253847122192383e+00
-2.804752514799312840e-02,-9.923897228766720424e-01,8.392452522927839054e-01,-6.450661326367759796e-02,9.571725156420680947e-02,4.165562183428511700e-02,1.601153969764709473e+00
-3.323086705366170429e-02,-9.820808282928354949e-01,9.974767753045914453e-01,-7.867964219018953875e-02,9.863488369422893434e-03,1.139228032571244949e-02,1.720440030097961426e+00
-1.497319351714520436e-02,-7.572089995816992936e-01,8.342213339834804176e-01,-1.170889646820566787e-01,-9.118980342692829463e-03,1.906974449334853175e-02,1.394567251205444336e+00
-3.268641858398188549e-02,-8.194603918842140455e-01,7.371123652170192830e-01,9.442851752982701517e-04,3.148815575248051137e-03,-2.737312149808140624e-02,1.348903775215148926e+00
-3.921967057885340779e-02,-8.154514664228298404e-01,7.858532956425475779e-01,1.393327034020662610e-02,-2.583220479772622633e-02,-1.240426828008868096e-02,1.388083219528198242e+00
-3.869437101272994728e-02,-8.814406353982554565e-01,8.043599169314602504e-01,4.928725259610377586e-03,-2.465664908852016265e-02,-1.947310973508885323e-02,1.460984945297241211e+00
-2.711027780664551634e-03,-7.466849308476686264e-01,5.985169021479139762e-01,2.649895912823526517e-02,-5.806983355924531798e-02,7.575483449963716504e-03,1.172461152076721191e+00
-2.122931151375784947e-02,-8.075661500865647380e-01,6.503649091109398039e-01,-5.698691572494661572e-03,-6.778413185925670492e-02,-3.581853651455588899e-02,1.270902872085571289e+00
-1.082760340452082470e-02,-8.265661510208930363e-01,6.506313704067541170e-01,-2.515722312091741306e-04,-6.961472024572935846e-02,-4.246633851887141042e-02,1.289373517036437988e+00
-1.168661857747427951e-02,-8.028203076894698809e-01,6.120672747484490195e-01,1.705666164977760746e-02,3.325861996953194399e-02,-1.426608330275268982e-02,1.230136513710021973e+00
-5.414463866543797743e-02,-8.183365372152331396e-01,7.806254867588632296e-01,-1.848131561994118596e-03,2.479561262418434817e-02,1.350661583146284782e-02,1.386058092117309570e+00
-4.450004915532648764e-02,-8.220628671479758287e-01,7.989887771091886970e-01,-1.431952896130505529e-03,5.514903654801784662e-03,7.132485183653561149e-03,1.404347896575927734e+00
-3.550408877676189401e-02,-8.227967464797616426e-01,8.045862948205295684e-01,-1.194145695294959167e-03,-1.857391300775323821e-03,3.928298318995792661e-03,1.409623861312866211e+00
-4.424121572226303450e-02,-8.339520022347023387e-01,7.942180162531213838e-01,3.875220446276890409e-03,8.859041570778530134e-03,-1.151867961037614241e-02,1.410487771034240723e+00
-1.439069642406785171e-02,-8.188144544458898499e-01,8.000356646631497926e-01,1.806438278368012506e-03,-5.912645625511174334e-03,-2.554154407918977129e-03,1.402022123336791992e+00
-2.385036780730480366e-02,-8.449172522792460782e-01,6.414966371045104365e-01,-1.970156554121078873e-02,-1.714464563032399302e-01,1.531371537981003617e-02,1.324077606201171875e+00
-1.238148351704861788e-02,-8.098224289678208621e-01,6.165588081837812817e-01,1.987209916958742120e-02,3.117708076428843747e-02,4.122950855231737217e-03,1.239827632904052734e+00
-9.484546185211167879e-02,-8.231976718729753228e-01,7.977984401140146842e-01,-3.243894504436726535e-03,-1.383523819934169008e-01,-1.470378574412085047e-02,1.426735281944274902e+00
-5.660991668417614253e-02,-8.715880479827547989e-01,8.155945146815493096e-01,-3.573904303541710573e-03,-7.824720715232370838e-02,3.588770424615313204e-02,1.469022631645202637e+00
-7.247487274642616661e-02,-8.625216690686138277e-01,7.472484626348686598e-01,-5.260279801072369546e-03,-1.409587948707344551e-01,2.234122774709336109e-02,1.415955066680908203e+00
-4.419271752331470349e-02,-8.382711918163688880e-01,8.173372750285734512e-01,3.742634435844560421e-03,3.536116997905082524e-03,1.088304828090729676e-03,1.434224605560302734e+00
-8.817883951739986792e-02,-8.634447744425111093e-01,7.791500559147339633e-01,-6.161145775476672276e-03,-1.376262997951424871e-01,2.177943021218612524e-02,1.443629860877990723e+00
-2.206317988310107364e-02,-8.255593314421006967e-01,6.731641748808062653e-01,1.700459856632294611e-02,3.302871462560277860e-02,-2.324643718267049852e-02,1.301276683807373047e+00
-3.838157961304958232e-02,-8.186303067868194727e-01,7.868976841063139993e-01,-1.112136281827500687e-03,5.166777604014014588e-04,-2.472894136505774786e-03,1.390618562698364258e+00
-3.687425863553085020e-02,-8.257635531222558001e-01,7.950564806221580572e-01,-1.651944402861703657e-03,5.716661584924342954e-03,-4.578813343721925750e-04,1.403874397277832031e+00
-4.874907977588385788e-02,-8.367621008618857381e-01,8.110576024181049837e-01,5.456232772797638478e-03,5.673126028325781731e-04,-1.051169879920781283e-05,1.427536725997924805e+00
-3.700873203249097076e-02,-8.144833287841563019e-01,7.926984518306700034e-01,8.613051489853225948e-04,5.738037835325560977e-03,-7.227553845181183562e-04,1.392142057418823242e+00
-3.711771071440633785e-02,-8.326995179635382494e-01,7.925117922358022593e-01,5.038021093836228016e-03,4.345132104235233973e-03,-1.004783499518368053e-03,1.407625436782836914e+00
-4.929868594075061117e-02,-8.339820438181912987e-01,8.119618225752877061e-01,6.648680173191784393e-03,2.266839450287404245e-03,2.324169524234739447e-03,1.426000952720642090e+00
-4.412034454399428596e-02,-6.374595202821137230e-01,7.371221691927959396e-01,-1.361821322425620373e-01,-5.294607196948378225e-02,-3.486724849289273009e-02,1.222140192985534668e+00
-4.269676078596914420e-02,-8.214673228433539975e-01,7.619226918361607925e-01,8.299496756169939121e-03,-2.497060996594128654e-02,-4.283352662201211219e-02,1.374078392982482910e+00
-2.056622969162914122e-02,-7.748186884022785215e-01,8.351483954118916753e-01,-1.383997684516829196e-01,1.002362330741103907e-03,-5.388485151713870436e-02,1.418712973594665527e+00
-3.057243761825248832e-02,-7.784077019382695806e-01,7.822921056870776324e-01,-3.559196366239852222e-02,7.563365669208406417e-03,-3.495799360826197522e-02,1.354818582534790039e+00
-3.120618567150412401e-02,-7.852407151301047383e-01,8.030400317844261782e-01,-2.272071355734944093e-02,1.682817354101315277e-02,2.577159634486380843e-02,1.377670526504516602e+00
-3.113279431355487487e-02,-7.558144151034396074e-01,7.910163929831059981e-01,-4.974977874984995441e-02,-2.710063693505032883e-03,-1.712775692024804189e-02,1.343583464622497559e+00
1.694297645642171835e-02,-8.140520025239106339e-01,8.107465206521693446e-01,-1.690231272165838849e-02,-1.017476807957161736e-02,7.095727301724640522e-04,1.407655000686645508e+00
-6.073150788638831399e-02,-8.229041034518532749e-01,7.895836989469161571e-01,-3.815689089504714659e-04,-8.232731413519394151e-03,-2.655772729324541118e-03,1.397231101989746094e+00
-1.032573736423535171e-02,-6.370100897467197987e-01,7.523717779655493265e-01,-7.291968734872636415e-02,1.495297025068497050e-02,-1.239082485970797835e-02,1.212227106094360352e+00
-1.455908416167682636e-02,-7.538915221408625245e-01,7.604149178048298374e-01,-1.716790798035682519e-01,1.241035940838144391e-01,-6.529629399344459573e-02,1.366593480110168457e+00
-6.173648501556096291e-02,-7.341640127663267013e-01,7.895148602790603709e-01,1.405219058890210503e-02,-6.787849568330461131e-03,-4.902785917281788503e-03,1.322873830795288086e+00
7.500172469750113202e-03,-7.876017645725491567e-01,5.700481738424726386e-01,1.318148311033712564e-02,-5.930472907836279242e-03,-4.280310446613087155e-02,1.184083342552185059e+00
-4.346973353227057829e-02,-8.849756253201152001e-01,7.811149137091705219e-01,1.429728723614934194e-02,2.142867933990727849e-02,-2.406486785308090473e-03,1.443597197532653809e+00
-3.060542428886609684e-02,-8.612847251672564042e-01,7.659440434361147743e-01,-2.114755911622277079e-03,2.491379660186617689e-02,-6.250367042240875456e-03,1.410031557083129883e+00
-4.731722084671269313e-02,-8.238632011833145752e-01,8.025439213448327669e-01,1.094747429732979317e-02,-8.169358975675279980e-03,-2.295329954006481571e-02,1.409746170043945312e+00
-4.484438270203372490e-02,-7.681535339744236524e-01,7.311580901973596669e-01,-9.680141017408259996e-02,2.535560218172356120e-02,4.313420584701085220e-02,1.312351942062377930e+00
-2.271781958212927902e-02,-8.420789976779281538e-01,7.292330945166066725e-01,-5.339269109162459587e-02,2.244226421794764687e-03,4.856086908942489760e-02,1.366947054862976074e+00
-3.690502442848479780e-02,-6.703812895727950805e-01,6.876883573379654058e-01,-6.587582397726859940e-02,1.435923043603337321e-02,7.018479672383132195e-02,1.189014554023742676e+00
-2.040449935840429191e-02,-8.313527227726323909e-01,6.367100227378112987e-01,1.621707305594624962e-02,6.774695753019123468e-02,-3.538476972935453158e-02,1.280873298645019531e+00
-7.777846684056183291e-02,-8.416492714584092871e-01,8.068605809236295556e-01,2.373136503789636392e-03,2.251999260109315698e-02,-2.333659634567846961e-02,1.430037379264831543e+00
-4.882262414230660597e-02,-9.159673164428282499e-01,8.754988810896174867e-01,-2.670574750619859189e-02,7.009018841822764467e-02,2.374584732711659471e-03,1.557152867317199707e+00
-8.015805434456962919e-02,-8.566550888689290488e-01,8.807936474594798559e-01,7.809417678459534135e-03,1.810492983921473467e-02,-3.691551299248145741e-03,1.507898926734924316e+00
-8.777496105634874368e-02,-8.721669207217602748e-01,9.048811578750753926e-01,-3.052768157769023515e-03,5.437771799725275162e-02,-4.134052268130518695e-03,1.545386195182800293e+00
-4.942771316609839011e-02,-8.562393360088170757e-01,9.032948990151310475e-01,1.336276220531554260e-02,-1.198606844391565500e-02,-1.336731136031736253e-02,1.526039242744445801e+00
-9.260893696978136913e-02,-8.490272154725965192e-01,8.871194647474459627e-01,-1.498114814479579310e-03,2.031192637208064852e-02,-5.495518375629412575e-03,1.508129954338073730e+00
5.242926357935884241e-03,-8.329094454936075698e-01,5.393829190638519400e-01,3.312878654237973869e-02,2.778981707119900779e-01,4.573580165817164866e-02,1.294892191886901855e+00
1.546484420326667553e-01,-9.739787349112022374e-01,2.827734335894175888e-01,-7.260632036864753114e-02,2.864428648104149766e-01,7.393544262421690438e-02,1.308886408805847168e+00
-3.692734401830443519e-02,-8.374401019596474649e-01,5.809749219802319287e-01,1.282049046367494949e-02,1.870251091397529541e-01,-3.778469437540998149e-02,1.275528907775878906e+00
-1.859024048607395285e-02,-1.499701212523922855e+00,1.286630835234736869e+00,-6.023051980428802826e-02,-2.115158376285812547e-01,-8.260164750635476047e-03,2.444539546966552734e+00
-6.398410777934218641e-02,-7.800887620492880092e-01,8.244096571499415216e-01,3.450346384128085558e-02,-1.279625087058662916e-02,-4.524490469199441561e-02,1.395864009857177734e+00
-5.834549382792579564e-02,-7.665212403253082174e-01,8.228972817508595217e-01,4.456240245476737055e-02,-6.089710837382259802e-03,-3.826543659290981142e-02,1.382981538772583008e+00
-4.749906319702894286e-02,-7.659283491433627189e-01,7.232575647362597948e-01,2.312261497465549140e-02,4.970675700237158628e-02,6.136292570847697719e-02,1.297787785530090332e+00
-2.174765517701475123e-02,-7.407071259766841997e-01,6.463417334880446896e-01,3.406912686025249243e-02,6.673540918969413094e-02,-1.096013721321809639e-03,1.208479166030883789e+00
-5.460269112072355102e-02,-7.338212042875544849e-01,8.609579453890643386e-01,2.064956230689171390e-01,4.453542088806731331e-02,-1.644583385136538442e-02,1.433923840522766113e+00
-3.474457641755757803e-02,-7.660495178837100072e-01,8.169892888734989755e-01,6.128954075317718381e-02,1.627151614034403476e-02,-2.423236758053200126e-03,1.376668334007263184e+00
-4.733035980838386225e-02,-5.407015953835998534e-01,7.230075685808809993e-01,1.157560772891504802e-01,1.652035477175462300e-02,-8.750101231754438269e-02,1.131761789321899414e+00
-4.767803306664869512e-02,-8.629802938017221425e-01,9.073641469814425209e-01,-1.718094505799513038e-03,-3.525278870100497473e-03,-8.944881237916337685e-03,1.534847736358642578e+00
-5.019309205463292484e-02,-7.584906792005569054e-01,7.799509737155246869e-01,2.756665241770898597e-02,7.445947818142385939e-03,-9.218006875553441323e-03,1.334733963012695312e+00
-4.074549387347713159e-02,-8.259451421822657791e-01,7.669983086367500036e-01,3.371134085188387617e-03,4.209397859204329351e-02,1.709391751191396622e-02,1.381830334663391113e+00
2.053510065155373515e-02,-8.016843422560097077e-01,8.037849430180269428e-01,8.149812517199744866e-02,2.029439749016365840e-02,-9.747105017942814167e-04,1.398103237152099609e+00
-6.090200520954738850e-02,-7.242121136824405392e-01,7.763965584831157285e-01,2.698830983281642198e-02,-2.167324695365103158e-03,-1.411750255678818552e-02,1.303547024726867676e+00
-4.675638594895902000e-02,-8.056893233725903603e-01,7.912831302030842728e-01,3.786231041972418741e-03,2.537678193273088315e-03,2.744207724423273782e-03,1.383614897727966309e+00
-6.592162606397920788e-02,-8.572013071526217720e-01,1.057274897327497465e+00,3.539950806787817150e-02,4.501694534865382548e-03,7.818863516757421084e-02,1.672906756401062012e+00
-4.411603334296912426e-02,-8.073139436551044490e-01,7.969591055301511462e-01,-1.152034431127180311e-03,-1.825941696576064213e-02,1.418283489104026594e-03,1.390250086784362793e+00
2.748174252771873674e-03,-8.762302340872363260e-01,8.626087512110796052e-01,-4.793252823693167075e-02,1.463488613456862507e-02,-3.087413104878466638e-02,1.509356498718261719e+00
2.035126311999884904e-02,-7.855585942905034535e-01,8.344088954624813148e-01,-9.850922437267137233e-02,-2.429759251120897773e-02,3.825049995357911875e-02,1.415454030036926270e+00
-4.181299777034867826e-02,-8.375010463382820403e-01,8.150663084002491843e-01,1.491035122791333671e-03,1.748584249808258356e-03,2.493785729647378531e-04,1.431497931480407715e+00
2.066231022003772733e-02,-7.365736595880429949e-01,7.740224927373419161e-01,-3.933326018849824662e-02,-4.649080315364504355e-03,8.551410526389351119e-03,1.310097217559814453e+00
2.492794580388482326e-02,-7.288257688659534050e-01,7.691474060348085784e-01,-4.596830414844516738e-02,2.872900284767067412e-03,-2.205423173967766600e-03,1.299747705459594727e+00
2.375576933841544447e-02,-7.922474014730277458e-01,7.999729029555622262e-01,-4.411255421098504020e-02,-1.340565648344925649e-02,1.391782098066953778e-02,1.381567120552062988e+00
-3.845026956050205669e-03,-6.075836687060668373e-01,7.448286761185466398e-01,-9.202801284801485904e-02,-2.213493614081487888e-03,-4.604398693232812298e-03,1.184272646903991699e+00
2.591152211051029469e-02,-7.747260897679826286e-01,7.777014175865656354e-01,-4.536617683019752295e-02,2.922843270995750635e-03,-2.632241377312048367e-03,1.346974611282348633e+00
1.795851453644407153e-02,-6.632376762215085320e-01,7.661488679296130089e-01,-1.001041762979113237e-01,2.474763649705662583e-03,4.582265568155255778e-03,1.250450015068054199e+00
-1.881205069643538189e-02,-8.147941818660412450e-01,6.859286787303200406e-01,8.011479337269590897e-03,-1.400847359879390207e-02,-1.374252958892855855e-02,1.300982713699340820e+00
-4.292359657796956940e-02,-7.996878743407873635e-01,7.717892126513451467e-01,7.507354621855934738e-03,1.303663098341119146e-02,2.369649190668178008e-03,1.361503005027770996e+00
-5.954427054971515865e-02,-8.661529174742100823e-01,8.817387526041017276e-01,-1.039381756739694504e-02,8.997832263716787002e-03,6.597958130082775402e-03,1.515445709228515625e+00
-7.473018420829111164e-02,-8.463513680466723255e-01,8.474396774075670935e-01,-1.432847714455864722e-02,5.752180179876852789e-02,-1.836255663250784681e-02,1.472724080085754395e+00
-8.101966274349500785e-02,-8.245487373563519240e-01,8.135833846453779383e-01,2.785544554744714615e-03,5.565088322788262071e-02,-9.126602877741675501e-03,1.424035668373107910e+00
-5.387157371862432570e-02,-8.355256757760617381e-01,8.437515637667161172e-01,-5.168080214179373265e-03,1.194926666183994575e-02,1.272915156070640900e-03,1.455628633499145508e+00
-5.221787454560615493e-02,-7.425118391464984313e-01,7.797634128891257621e-01,-1.687212945173754280e-02,1.753523473861269208e-02,-1.162302212305850978e-02,1.321057200431823730e+00
-4.103063684847638865e-02,-8.044190664286856585e-01,7.877797426967213523e-01,-1.433701928534817163e-02,1.254402208487863379e-02,-1.710738595674463763e-02,1.379985332489013672e+00
-4.375226447804737157e-02,-8.160267413824048299e-01,8.160295450763980218e-01,9.806852644579223781e-04,1.229007772938814184e-02,5.766033584797487614e-03,1.414275765419006348e+00
-3.260134343641483273e-02,-7.268629188308890487e-01,7.821142386060314644e-01,-4.789023264198528917e-02,4.048192118950168228e-03,3.273021176870520924e-03,1.310857772827148438e+00
-4.942492719657159972e-02,-8.115252557718676263e-01,8.174320046821018648e-01,4.376318881285552916e-03,1.999603835753502312e-02,9.707695505620280579e-03,1.412235617637634277e+00
-4.463942893935612943e-02,-8.483621422491050001e-01,8.409717728971082273e-01,-4.865369039671627732e-02,1.065191846032525896e-01,-9.206220486665901356e-03,1.477652907371520996e+00
-3.113437403684529356e-02,-8.329673884365081937e-01,7.904137098799205452e-01,-3.835604386951577821e-02,4.241920057964004842e-02,-5.401833524413522658e-02,1.412511110305786133e+00
-3.471515561333370081e-02,-8.487645286888120255e-01,8.656093664970438972e-01,-1.634575889219780018e-02,1.628894059479908327e-02,-2.871686745567228645e-03,1.485863924026489258e+00
-6.952305362908257035e-03,-8.605066790557256429e-01,8.631825384647199284e-01,-3.723455570402118414e-02,-2.428117543285706389e-03,-7.280317235169994280e-03,1.494233250617980957e+00
-2.674891821630107774e-02,-8.455882162962793380e-01,9.226957856804921532e-01,6.155294990630381241e-02,1.364836387173792506e-02,2.743481831807900034e-02,1.537390232086181641e+00
-2.131816253726335694e-02,-7.863367309002160521e-01,7.973283478090646970e-01,-4.354317716173265046e-02,1.412650322081840035e-03,1.934409544452047735e-04,1.373830199241638184e+00
-5.919454495233997249e-02,-6.218397151928416466e-01,7.726224839626543162e-01,-5.782803220144162176e-02,-4.097211726938738974e-02,5.886694552145251697e-02,1.225549340248107910e+00
-2.235709156459278479e-03,-7.775238696425096352e-01,8.275341217464642352e-01,-3.936496590238300342e-02,-1.269181341140595935e-02,2.152504930420123808e-02,1.392631530761718750e+00
-4.625189354526557106e-02,-8.306762834988878907e-01,8.112720485751601096e-01,-1.438867798665836948e-03,-1.203617612435864750e-03,6.280745175805625170e-03,1.422483921051025391e+00
-1.192728770067031686e-02,-7.809081631226358899e-01,7.931317221362037539e-01,-2.322887374650128151e-02,-7.776377246307235140e-03,4.161525178932980532e-04,1.363938093185424805e+00
-4.963209479422266840e-02,-7.633382223539552092e-01,7.838678681462049047e-01,-5.643362266913041873e-03,-1.057813454868084500e-02,-2.692185266387188414e-02,1.342228889465332031e+00
-3.378359515630020848e-02,-8.284848006263040299e-01,7.413165642843079217e-01,1.512367026365994682e-02,3.388474717141865683e-03,-9.475381252823208283e-03,1.359887242317199707e+00
-6.026667076139016754e-02,-8.082772059121544617e-01,9.878404521407982974e-01,1.111864237256611626e-01,1.635586995357345419e-01,7.088159496082584166e-02,1.604511618614196777e+00
-4.769919177987114178e-02,-8.304264120865233467e-01,7.879361114829634971e-01,4.264062168725989664e-03,2.224924042030041599e-02,1.774504587069473211e-03,1.402345180511474609e+00
-4.412904184792786066e-02,-8.514443551675426880e-01,7.605968606245203656e-01,2.956114104815189651e-03,5.244842205288273440e-02,5.415050637430124554e-03,1.399062514305114746e+00
-1.163825353531477980e-02,-8.516644988796119309e-01,6.644053737796274950e-01,-3.504759772703152504e-02,1.918001145049153811e-01,-1.044973382003163420e-01,1.370175004005432129e+00
-4.595637706609560086e-02,-7.711716176113491139e-01,7.869712431945002917e-01,-1.922380788296215379e-02,-2.042584285155084334e-02,2.446732683526969473e-02,1.352003574371337891e+00
-5.173138169519148066e-02,-8.171679432606203664e-01,7.891665655841830773e-01,4.609849556988131029e-03,2.177393883989242260e-02,-5.301250443073572162e-03,1.392202138900756836e+00
1.513039590900559783e-02,-9.212705542537650283e-01,6.119178826497857493e-01,-7.786864294612964865e-02,-1.984441829658019907e-01,-4.970665201721114618e-02,1.391250371932983398e+00
-4.941595728368007590e-02,-8.619152694894415268e-01,7.917337651525412356e-01,-2.219696904580366684e-02,-1.114809391731566568e-01,4.513468070997578990e-02,1.447755217552185059e+00
-3.200717730317130527e-02,-8.356517478210220284e-01,7.923521780100704071e-01,-2.713022507537895048e-02,-3.873322738238637458e-02,-1.006527394696151096e-03,1.412309050559997559e+00
-2.102367284697675975e-03,-1.185167262449697612e+00,1.074033236661388058e+00,1.227536682572281023e-03,3.439368735856851433e-01,1.034648997458248731e-01,2.053739547729492188e+00
-6.035154481464359566e-02,-9.035270994374687836e-01,9.717686373186151805e-01,-8.456931823896807199e-02,1.308617242131606684e-01,-5.032219447676720275e-02,1.651333689689636230e+00
-1.777029875332416242e-01,-1.091631319769715391e+00,1.358080353701231147e+00,-3.260832823351307863e-01,1.045483455044545762e-01,6.229365089752137569e-02,2.227311134338378906e+00
-6.961969046155526419e-02,-1.117019140592123927e+00,1.013830541453728307e+00,-3.467368113023971965e-01,1.716307397008954294e-01,-2.740957186247821101e-02,1.963929653167724609e+00
7.687155218267366363e-02,-1.176265755888476150e+00,6.569683397920420553e-01,-3.499753518465992946e-02,2.411392117378325650e-01,-1.387198273079656430e-01,1.694005489349365234e+00
-2.845923417462230959e-02,-8.850458974623902630e-01,8.037706790406229374e-01,-1.029081928310846966e-01,1.672132901770565228e-01,-3.143855779667704964e-02,1.502611279487609863e+00
-3.842439099263698921e-02,-9.485935233033684355e-01,8.800385761851744482e-01,-1.091527112162249263e-01,1.602150077621308233e-01,3.144618870356949425e-02,1.619769930839538574e+00
-8.423118092168049506e-03,-8.655616179515979169e-01,8.895478704341455156e-01,-2.450498059851835275e-01,3.046728331511419086e-01,4.469862209065673248e-02,1.665935993194580078e+00
-3.027330861511855209e-02,-7.565770131214270000e-01,7.725655126013636353e-01,5.071852122956606312e-02,1.981260269514294875e-02,-2.689826131487099183e-03,1.328189969062805176e+00
-4.242981788591443371e-02,-8.035604635761068870e-01,7.801413244009957060e-01,-3.996800107915746657e-03,-6.492298352854946296e-03,-1.362458905089418328e-03,1.371935606002807617e+00
-3.429678553113146150e-02,-7.614145563402892058e-01,7.159424730393736391e-01,7.926847456655443380e-03,5.331307977544324367e-02,4.860616437292174935e-02,1.285641670227050781e+00
-2.693458709887521299e-02,-8.332991005549118535e-01,7.210977732030432463e-01,-1.092559375996930530e-02,1.908970485140552798e-03,-7.342992736102625911e-04,1.346600770950317383e+00
-4.554110412762945453e-02,-7.857243114001685180e-01,7.684098825685296008e-01,-2.015102113057472191e-03,-1.440365319524891446e-03,-7.133484475065840665e-03,1.346488475799560547e+00
-4.496649853942893266e-02,-8.348867607343914976e-01,7.829169799970988608e-01,-7.142082321508726878e-03,-3.235088556171951488e-03,-5.514624516108783403e-03,1.401286125183105469e+00
-4.623543026232967978e-02,-8.339474828662563066e-01,8.143615758963602680e-01,2.364938626030355616e-03,-2.845872748161027213e-03,-1.917035616411007508e-04,1.427957057952880859e+00
-4.417023429914861826e-02,-7.238983874270172869e-01,7.719856730872087791e-01,4.352766733219849693e-02,3.963701692633916397e-03,-2.459892443080753926e-03,1.299482345581054688e+00
-5.912826658367924954e-02,-7.439467580330055840e-01,8.042064103688919552e-01,-1.390671128560584148e-02,-1.718054663067439258e-02,-3.579137592539858442e-02,1.345681786537170410e+00
-8.055076962709036004e-02,-7.867139431218832524e-01,8.006058814246287403e-01,2.043148610028342610e-02,-1.879285266727654183e-02,7.474065053073993339e-03,1.378340721130371094e+00
-4.651083494255815048e-02,-8.387102892924255260e-01,8.094861095974481557e-01,8.899650005838354375e-03,-8.591284971800875261e-03,-1.249935460130479660e-02,1.428061246871948242e+00
-7.394115840572990095e-02,-9.256790801784059441e-01,8.813458557500462032e-01,2.606730903120839729e-02,-1.945103307751428201e-01,-5.687764453556685799e-03,1.602286934852600098e+00
3.227307620574989405e-03,-7.355359511826098373e-01,7.988803665130838061e-01,-5.247842246634036589e-02,-5.843899585019738871e-03,3.595358263216531791e-02,1.333745360374450684e+00
2.960273678531447419e-03,-8.422436931412429217e-01,8.523416676034580863e-01,-5.103586483052386519e-02,1.520594642238419156e-02,-3.140161038816755013e-02,1.471456766128540039e+00
4.761612311419867460e-03,-6.715774429303301707e-01,8.090361509648786864e-01,-1.459848596707317980e-01,6.575462490680369400e-03,3.828845018140934493e-03,1.308572769165039062e+00
-5.601507049582523518e-02,-8.224092246388373662e-01,7.954344095988863383e-01,2.394549127711572377e-03,6.268981689555002800e-04,2.319710529508947541e-03,1.401751279830932617e+00
-2.845947176276326582e-02,-8.470793484145257013e-01,8.403155368314665363e-01,-3.886416929655023972e-02,-2.828845589088043247e-02,1.179534013813057607e-02,1.464054107666015625e+00
1.747425365697898025e-02,-7.623171490182149013e-01,8.032532162306166290e-01,-5.874123483424098513e-02,1.984760258340818265e-03,3.465664686236638830e-04,1.359643578529357910e+00
-1.417354758508944379e-02,-7.786888429842004911e-01,8.151296067043170002e-01,-7.645604757434472376e-02,2.549772646380279312e-02,-4.445985362670704794e-02,1.389841437339782715e+00
-3.528634991900245210e-02,-8.179522057724560868e-01,7.527995843125218078e-01,1.801099230413253380e-03,-5.410301404737373129e-03,5.260571660843732511e-03,1.360380053520202637e+00
-2.444051946854072788e-02,-7.632322646404700039e-01,9.077788325454618779e-01,-9.460465870035462965e-02,-5.699302595087990531e-02,4.472194665112771798e-03,1.462947964668273926e+00
-4.653228558365445078e-02,-8.308803979098153825e-01,8.113792886716738595e-01,1.004161187562976161e-03,1.742482701768095950e-03,5.612519696967453210e-03,1.422751665115356445e+00
-2.813790660178787720e-02,-8.317748909536807345e-01,7.640710397943026866e-01,-2.233147045844492348e-02,4.064078693172677031e-02,-3.602360551180474940e-04,1.384387016296386719e+00
-6.570476310377586227e-02,-8.207945731239054687e-01,9.049648086266443014e-01,-3.110001971929543529e-02,1.304048191634707143e-01,-7.091138466622697034e-02,1.521284341812133789e+00
-6.145181326061886079e-02,-8.598414308458298683e-01,7.796861476057377338e-01,-4.025712962112251497e-04,3.770375210198970151e-02,-1.548360093182770455e-03,1.421536922454833984e+00
-2.432185627346905576e-02,-8.289577306979185600e-01,6.852107262305606739e-01,-3.451265496961241491e-02,1.307096732016462259e-01,-1.344374223366863116e-02,1.333102107048034668e+00
-1.818170974123511918e-02,-8.952729258781870758e-01,6.875960080398914043e-01,-3.208349951175772097e-02,1.335700525686595863e-01,2.262765125347044465e-02,1.394485473632812500e+00
-3.272193940007211976e-02,-8.048505386368300929e-01,6.315636259666325136e-01,9.859226601014958735e-03,9.783958441939395734e-02,-2.183125690221585785e-02,1.257302999496459961e+00
-1.651951063588872476e-02,-9.127740273169334673e-01,7.081507668642781361e-01,-1.004702378528552799e-03,1.618088656407088155e-01,2.281265372435986247e-02,1.434579610824584961e+00
-3.835219098528414028e-02,-8.755049434865999070e-01,6.523834398643747479e-01,3.344639894881145693e-03,1.232773796476892558e-01,1.304080134789229947e-02,1.342507839202880859e+00
-1.350785557029541284e-01,-2.839703533485287701e-01,6.215496269797596840e-01,-1.361023174980592054e-01,-7.041872494375248093e-02,-1.685575406655659969e-01,9.289744496345520020e-01
-1.753488400906452194e-01,-3.210095856835474826e-01,8.563602811809762905e-01,-1.267336686044100505e-02,1.117574484226152923e-02,-9.168550058788196844e-02,1.123385787010192871e+00
-1.674004539502293998e-01,-3.517823451814136027e-01,8.631977265773868035e-01,-7.671185754601199391e-02,-2.947483888518522693e-02,-9.700903194887626479e-02,1.155268669128417969e+00
-9.103182542151919132e-02,-5.700624950327844997e-01,7.823002563134331400e-01,-8.057426340704010315e-02,2.981465292047348614e-02,-9.504938395098271042e-02,1.208212971687316895e+00
-9.106928882109852075e-02,-4.268198500858833011e-01,8.327216970693095410e-01,-8.790433645134404506e-02,6.469520052301634683e-02,-5.157145047299356577e-02,1.148911833763122559e+00
-1.564845638637958336e-01,-2.794742353443260274e-01,7.210340585934683633e-01,-1.370859847233285023e-01,1.712739025291649259e-02,-1.856163052392257803e-02,9.753883481025695801e-01
-1.264564274551545631e-01,-4.353278571220178250e-01,7.969711199446650740e-01,-7.221908023380646524e-02,-6.771311958551997669e-03,-9.698757440060889329e-03,1.117768764495849609e+00
-1.190367670153817392e-01,-4.397544418180641124e-01,7.634431260338864211e-01,-2.925840048066301671e-02,1.967387416254746599e-02,-6.541480233990028259e-02,1.086841344833374023e+00
-7.787832958345614065e-02,-4.145772467491306568e-01,6.802948157494658199e-01,-9.420334147166915806e-02,4.124318943111021651e-02,-4.672831808842157347e-02,9.908305406570434570e-01
-5.310321734502509300e-02,-8.163268701580559394e-01,7.927364396799664314e-01,1.324532905066850078e-02,1.091844921019486693e-02,1.558538277212101648e-02,1.394680142402648926e+00
1.062794722421457963e-02,-8.043514631687928018e-01,8.050855733981184814e-01,-3.134561788357887770e-03,1.292554420311218567e-02,-1.317781243723024909e-03,1.394043326377868652e+00
1.754222111787127197e-02,-8.140378084150934335e-01,8.048942981955932163e-01,-3.661482212337006242e-02,4.941015607074042068e-03,-3.101278430381096494e-03,1.403680443763732910e+00
-2.256594376435504257e-02,-8.185771897006175468e-01,8.351935537148895694e-01,-3.313566231032999410e-02,1.093531366230398975e-02,-3.179287407226254192e-02,1.434871554374694824e+00
-1.342139241033581121e-02,-8.271579652900300506e-01,8.164428804227522596e-01,7.190711576599762749e-04,1.389963126841568634e-03,5.299303543199771621e-03,1.423455119132995605e+00
-3.986287329917156952e-02,-8.305290312157854737e-01,8.150782918687252687e-01,6.251393138712558854e-03,5.083870356633646975e-03,5.096037882035585505e-03,1.425595641136169434e+00
-4.580867070326952173e-02,-7.295596743615079260e-01,8.081601235325797106e-01,-6.743160965326630563e-02,-7.940905537849289250e-03,2.487493656686031937e-02,1.340286016464233398e+00
-7.235999126601039277e-02,-7.673531744744691574e-01,8.321885282945084006e-01,6.305136176579470564e-02,-1.540198113193854204e-02,5.818030859610044681e-03,1.393778443336486816e+00
-1.303589917979754154e-02,-6.763205324824673736e-01,7.829663503506651967e-01,6.646582216301649693e-02,-5.057001218595379849e-03,-5.782042912869712371e-03,1.270815610885620117e+00
-1.114679182841579741e-02,-7.565936258679252235e-01,8.027607541692379778e-01,1.171547944412530962e-01,-8.562829987346486788e-03,-7.696701803939207109e-02,1.372599244117736816e+00
-4.022375545031456334e-02,-8.531180198091283806e-01,8.362290058059911324e-01,1.446778391860820308e-02,-2.214108984360323509e-02,-3.517671436637825194e-02,1.465346693992614746e+00
-4.390393817528870368e-02,-6.911154214190096123e-01,8.006867834594132427e-01,3.389727702584025004e-02,-1.812265626938010590e-02,-4.655348689920855293e-02,1.299915075302124023e+00
-3.735382790923551244e-02,-5.372828886006860705e-01,8.174108638022405948e-01,1.621331021334818934e-01,3.784441672165791970e-02,4.405843116489248368e-02,1.223460197448730469e+00
4.353316870794043947e-03,-8.280086519505044373e-01,5.564384829263520071e-01,1.196962864987810050e-02,9.849779866503990955e-02,-1.572642407158109101e-02,1.219604969024658203e+00
4.553359853303959315e-02,-8.250187039168078718e-01,4.577745604289047421e-01,4.714366205121539762e-03,1.109826337465836255e-01,1.196104007461813029e-02,1.150707840919494629e+00
1.039607702026053293e-02,-8.406207922985070580e-01,5.615454552409948619e-01,-1.519438175238751847e-02,1.118481787145461093e-01,-1.984489297869942645e-02,1.239530920982360840e+00
-2.677652466005693913e-02,-8.262250906391089833e-01,6.816692216775386282e-01,-1.459832330010907807e-02,7.965818772905224054e-02,6.671048009868038586e-02,1.319244384765625000e+00
3.279908434554983099e-02,-8.203733715192361720e-01,5.357321334805104085e-01,-1.815731552330119430e-02,5.194623231004397157e-02,-5.373509483119802248e-03,1.191261649131774902e+00
-2.744005379259618904e-02,-8.142875766469469534e-01,7.974682022431147654e-01,-1.205516442860681860e-02,-2.084603079322825542e-02,8.530111599340441803e-03,1.396652340888977051e+00
-1.887083675375241659e-02,-9.371035528320391661e-01,7.819280277610117791e-01,8.594224648509633802e-02,6.666409042611678992e-02,-5.984343424001906109e-02,1.505318641662597656e+00
1.356091405250586801e-04,-8.383976710946644539e-01,5.366540400283829060e-01,5.011369131959155301e-03,1.393760797925085448e-01,-4.082155298266587282e-03,1.224451303482055664e+00
-1.875947221112922447e-03,-8.439650220604231201e-01,5.487831538355919525e-01,2.255608213377436472e-03,1.386769150959020203e-01,1.373120043703847902e-02,1.238675951957702637e+00
7.023401860969685773e-02,-8.205888045418238130e-01,3.652783638582709491e-01,-8.566785758893127531e-03,-7.926306508477673485e-02,-8.477266919901671124e-03,1.078300714492797852e+00
2.452081822037242842e-02,-8.453953899388153559e-01,5.807092849922990130e-01,-1.944566647808117568e-02,-6.875376219602320760e-02,-7.106436235831173343e-02,1.257140874862670898e+00
-1.290391183373909567e-02,-8.242431022037159938e-01,6.122749140661555289e-01,2.713736620426340784e-02,-1.449942485795024383e-01,-1.759251793119327029e-02,1.273797392845153809e+00
-4.052359267623911743e-02,-8.464482018445005362e-01,6.832069275872151293e-01,1.729302683045805516e-03,-1.414987441690475356e-01,1.806158061619721894e-02,1.348193526268005371e+00
-5.189617863542450582e-02,-8.292630944392432868e-01,8.081934738165387211e-01,9.021036723765207127e-03,-8.810878684483844023e-03,1.164644764123442568e-02,1.418993592262268066e+00
-5.163751183223947577e-02,-8.304022769549924687e-01,8.041657112903911608e-01,8.026958657326072749e-03,-6.894268191038117020e-03,1.457338678644824054e-02,1.416444897651672363e+00
-3.060041450747042618e-02,-8.245740589974079882e-01,7.950012343749398580e-01,-1.004870577957870520e-02,-2.297574268301319511e-04,-4.462706972255132618e-03,1.402811765670776367e+00
-3.136709271429800883e-02,-8.339725661496060205e-01,8.491097419070341434e-01,-2.017833675131379401e-02,-1.399749839791686844e-02,5.583418780264019776e-03,1.458764314651489258e+00
-3.186603439437486751e-02,-9.367879195552840654e-01,9.715501116200595533e-01,-7.306975387980479963e-02,-5.446572278765170888e-02,1.294337121144376436e-03,1.660922288894653320e+00
-8.829706568764375541e-02,-1.002027955703553630e+00,9.917026220009772519e-01,-1.017969393019053795e-03,-1.076154565318560435e-01,-1.843294474686522563e-02,1.738935947418212891e+00
-9.563143797356103704e-02,-9.516439938534345666e-01,9.868708303991682307e-01,-1.205359357154047253e-03,-9.214710026608902149e-02,-5.052227543673531995e-02,1.692435860633850098e+00
-5.917031785645887609e-02,-8.402868008560092639e-01,7.491592647687935758e-01,-1.129484484611950265e-02,-8.095594716822548942e-02,-2.819841465809565934e-02,1.384690999984741211e+00
-6.502745737893929345e-02,-8.755013871382988366e-01,7.545814388713645293e-01,-3.331702364842834951e-03,-1.084512430473794781e-01,-4.677845478634378579e-03,1.424177765846252441e+00
-8.107432351049956298e-02,-8.549380742337601147e-01,8.204544256015805503e-01,1.158456452576414782e-02,-9.478783537901165623e-02,2.467655818576257667e-02,1.462348580360412598e+00
-3.710790175721399853e-02,-9.628737697096061421e-01,7.571891505799854816e-01,-3.741716383714528693e-02,-1.444270684420952411e-01,1.287713503831436216e-03,1.513296365737915039e+00
-7.891034677455657786e-02,-8.189518070737763500e-01,9.226942252684511292e-01,3.444465912550730841e-02,-1.269651795352471357e-01,-7.259866913158637136e-02,1.536174893379211426e+00
-3.044002582887121722e-02,-8.426818978481185329e-01,7.205698711323426098e-01,3.485780400041502136e-02,1.093373547018598874e-01,-1.476685419900773330e-02,1.368911147117614746e+00
-1.439504059697947758e-02,-1.015711421397161640e+00,7.275668452892347648e-01,2.510445934643379742e-02,1.129221905594145203e-01,8.933448449311365280e-02,1.536283612251281738e+00
-1.307923505457665031e-02,-8.299524102327702213e-01,6.657064264098807582e-01,7.599808847907304696e-03,1.089973348418437488e-01,4.905208380863423229e-02,1.313600540161132812e+00
-5.730913905163081967e-02,-7.639473971870246460e-01,8.022124016107512467e-01,2.570832823106290396e-02,-9.565244635711431936e-03,2.355031721931924796e-02,1.359928965568542480e+00
-4.770585108283160319e-02,-8.689678264190929813e-01,6.427478230789470670e-01,1.108201398963389907e-02,2.079832910347930164e-01,-1.289593999335743833e-02,1.359735012054443359e+00
1.731952096062165658e-02,-9.120566524320902202e-01,5.717035053722613336e-01,-3.149963139948498692e-02,1.869614342167646437e-01,3.934879346927060845e-02,1.341192841529846191e+00
-2.095061885581893033e-02,-8.222140441484961926e-01,8.032245633115066008e-01,-9.312537787993914115e-03,1.726292022006729876e-02,-8.936122077764013447e-03,1.408212661743164062e+00
-5.536171317081779557e-03,-7.818816264539456551e-01,7.895402164350056040e-01,-1.272480413672659287e-02,1.175867745990928290e-02,2.180991974236708413e-03,1.361259579658508301e+00
-2.868676627178807712e-02,-7.906990115782885908e-01,7.933325988593835643e-01,-4.375892507278199284e-02,1.066728552133276546e-02,-3.826552774237561988e-02,1.375952720642089844e+00
-2.696724741911052381e-02,-7.925094647701685924e-01,7.981467808144705467e-01,-1.811822857279559579e-02,2.259232077209837389e-02,-1.018098550473818011e-02,1.378896236419677734e+00
-2.698721818059474781e-02,-8.036370760600546337e-01,8.052811210948889187e-01,-1.551472208629787325e-02,-1.244999852664696247e-02,1.635899225670871260e-02,1.394355297088623047e+00
-1.982511237188563577e-02,-8.554316735950978634e-01,7.241348646644185649e-01,-4.944156403547038565e-03,8.755523982155611479e-04,1.215104564442672647e-02,1.368901491165161133e+00
7.945340626615948754e-03,-8.595129322286360063e-01,6.810319173803679460e-01,-8.913173822340043906e-02,-3.479035117281343431e-02,-3.380051452239017651e-02,1.349183440208435059e+00
2.291345434636896106e-03,-8.485593782499336601e-01,5.990768317933857778e-01,5.772221536894997333e-03,-1.080934710952484445e-01,8.568733664951035112e-02,1.282596826553344727e+00
1.639505406533024734e-02,-8.323000849145240077e-01,5.582494991550447372e-01,3.016495064895550332e-02,-6.652330670171659188e-02,8.631790059310581742e-02,1.229681730270385742e+00
2.923019704803683783e-02,-8.569795756725562264e-01,4.746207463791963788e-01,5.611228705482682912e-03,-1.757247021878084181e-01,-1.075992722573569302e-02,1.213066101074218750e+00
-3.941159268689410633e-02,-8.314347844369223139e-01,6.670642286753787342e-01,6.852366099366073021e-03,-1.319373415515251724e-01,2.705705638346694863e-02,1.319285273551940918e+00
-3.952722839526564419e-02,-8.124309667326061746e-01,6.986846611339225799e-01,1.048904858463466571e-03,-4.743867499696916012e-02,3.061974112314155231e-03,1.311368107795715332e+00
-2.205927414426014227e-02,-8.880447838906515567e-01,6.729941507606985729e-01,-2.411788037223856426e-04,-1.225172944338687314e-01,-1.665399661037724605e-02,1.371422648429870605e+00
-8.631705380169038544e-03,-8.198416130990022754e-01,6.534968042253309628e-01,-8.318278737045264881e-02,-1.060036714392578183e-01,-1.959613901273387845e-02,1.299700498580932617e+00
-2.431919414378799771e-03,-8.417562954666677477e-01,6.603927544529824001e-01,1.198465575579811537e-02,-8.750828646936155419e-02,4.520985322206851065e-02,1.315166354179382324e+00
-4.549190305741580842e-02,-8.722051047086765152e-01,7.403593600264771757e-01,2.485770477133947796e-03,-1.465865752477140405e-01,4.190288032398799267e-02,1.421421647071838379e+00
-3.019006736341612804e-02,-8.152135596464129552e-01,8.089438221567135656e-01,1.368788261207243891e-03,1.647961419708105640e-02,2.541410140501226128e-03,1.407120108604431152e+00
-1.271502510629853727e-02,-9.289590418893158841e-01,7.823070652151149496e-01,-9.554763593637950747e-02,-1.356406446557783807e-01,8.215866512183644943e-03,1.510888218879699707e+00
-1.199827705566098440e-02,-8.024828949911325671e-01,6.623023476098862661e-01,-6.917029846786494629e-02,-1.096574738609310956e-01,-4.649073784279655203e-02,1.292084932327270508e+00
-4.885003151542374744e-02,-5.008658256106538476e-01,7.503406536644763314e-01,-1.260382848413532375e-01,2.042785033217118813e-03,5.778347578463498106e-03,1.118946194648742676e+00
-4.762902230822867178e-02,-5.737833860646193163e-01,7.669238184718812912e-01,-5.977340047913204391e-02,-1.897597680551311051e-03,2.212172035252685937e-02,1.175207495689392090e+00
-1.145237506550646489e-01,-4.377582971662229427e-01,8.449309693747506511e-01,-1.910375582086813462e-01,-1.128149755109590820e-02,4.082069290987325877e-02,1.204171776771545410e+00
-9.271523676646722945e-02,-5.459076769989009703e-01,7.667117690944690311e-01,-8.728525181475503894e-03,-2.042649481446412799e-02,4.484956660060089584e-02,1.158015012741088867e+00
-1.289362687819109732e-01,-4.692224349365818892e-01,7.604441111206601267e-01,-5.722716916587358704e-02,-1.810153625473753108e-02,3.814904418395390767e-02,1.106620907783508301e+00
-1.190154913240432377e-01,-3.117236442741641023e-01,7.264504364844888151e-01,-8.827859717747302271e-02,-1.903793756249134647e-02,5.150866511638758916e-02,9.732950925827026367e-01
-1.422135029826209485e-01,-3.596487461120476681e-01,8.207178157299984678e-01,-8.161599582323977864e-02,1.766122232005506304e-02,-5.545161224099403457e-02,1.101832032203674316e+00
-2.952252280199192669e-02,-8.152018275157916216e-01,7.173923544261532337e-01,-4.243712549943638550e-03,2.903035831663963034e-02,-1.022301600522380503e-03,1.328380465507507324e+00
-3.574809587302269637e-02,-8.281909358861777593e-01,7.135955234814703729e-01,5.048496204559769704e-03,-4.156347576695566121e-02,9.282174541486998276e-03,1.337464451789855957e+00
-3.441140285236637258e-02,-8.261308049337729997e-01,7.573234163371288519e-01,6.510564825246931489e-03,2.461532484168313037e-02,-2.012172885084318255e-02,1.372463107109069824e+00
1.730040745269975470e-03,-7.839203096900693168e-01,8.001310972624221529e-01,-3.667413964447716057e-02,-3.636366783770174555e-04,5.579835360315517009e-03,1.373347520828247070e+00
-2.324942102795275051e-02,-7.513070189506970697e-01,7.252679870490331693e-01,5.421067924184732462e-02,-3.235721992312827477e-02,-1.510756275666136003e-02,1.283725857734680176e+00
-6.944740103381491503e-02,-7.762685196034962987e-01,8.015344493237199774e-01,3.222794560159689212e-03,1.188928431742344166e-02,2.610261217519545263e-02,1.369793057441711426e+00
-3.173634537865191452e-02,-8.256783928783816284e-01,8.129363277162524604e-01,2.818899089128823390e-03,-1.213360849835232874e-02,-2.479486955481027127e-03,1.419479131698608398e+00
-8.286765183540240054e-02,-6.863585964102107972e-01,7.716823052739912869e-01,4.942707022032580798e-03,6.682284846037834548e-03,4.547186865394140659e-02,1.271448135375976562e+00
-7.846931695179991395e-02,-6.781232939706902663e-01,6.827816539258876327e-01,3.002594550011124588e-02,-5.121153691190722529e-02,7.752977199141224129e-02,1.193390250205993652e+00
-5.776575126169919416e-02,-7.957464615529591390e-01,7.769656408682065196e-01,1.768531802268344692e-04,-8.314810236158759818e-03,-6.632579130005884956e-03,1.362992048263549805e+00
-4.225564204437181823e-03,-7.816561131506285509e-01,7.893742358483543109e-01,1.942317936742794446e-02,8.600566011282416434e-03,2.199316635887426253e-03,1.361078977584838867e+00
-5.808412143532068472e-02,-8.223761563504037309e-01,8.028461908651212120e-01,4.654267404478754436e-03,-9.125110552556023585e-04,-7.989072496215242347e-03,1.408404946327209473e+00
-4.276167067786010995e-02,-7.916032774883551282e-01,8.028732770490814019e-01,1.282806394807725452e-02,-1.174266057539325586e-02,-2.107800414928358984e-02,1.382515430450439453e+00
-6.854196479567531419e-03,-6.290126277925197629e-01,7.538909270429285936e-01,8.823033303660801629e-02,4.467367545063462980e-03,6.949494442312078527e-04,1.209352493286132812e+00
-7.311449375251093466e-03,-7.837040003070050442e-01,7.890913084411925738e-01,3.244770084997603693e-02,1.785326985554239881e-02,-1.697816987464285249e-03,1.363630175590515137e+00
-3.527878413566201687e-02,-5.374559259906254161e-01,8.049426946654748560e-01,2.130819091978865543e-01,-1.733546953855836029e-02,-8.056349132098232502e-02,1.239628434181213379e+00
-5.115595556284777135e-02,-4.256867371214499984e-01,9.004894237687641745e-01,1.896407121293034737e-01,-1.152534154987669250e-02,-6.564508219004219769e-02,1.234317541122436523e+00
8.099896095110949157e-04,-8.016641386415833681e-01,8.639364188322448124e-01,7.309858226239987489e-02,1.123078361767171005e-02,1.328122093095325355e-02,1.448629140853881836e+00
2.381261976170767625e-02,-7.661566254202145654e-01,7.805604363419866853e-01,3.630209720018806596e-02,2.117615438306539796e-02,2.715726668268806862e-02,1.342399954795837402e+00
-3.127409835922056319e-02,-7.694608743207872470e-01,7.821343643891410791e-01,-2.210746221670013140e-02,-1.407538017609571111e-02,2.361948213794601292e-02,1.345635414123535156e+00
7.984865932322211465e-03,-7.392289553237924027e-01,7.902426373222286582e-01,6.774279615115556819e-02,-1.371224599020612073e-03,-3.699305250617375765e-03,1.329880952835083008e+00
8.666508759475617663e-03,-9.348703001073441765e-01,8.907868266948540947e-01,9.870040248251388260e-02,6.696478544081850386e-03,1.170145618932599309e-02,1.590748786926269531e+00
-6.635373065436320217e-02,-8.120176654040894837e-01,7.804623952311675605e-01,2.418436602614348115e-03,3.507088930077742472e-03,2.492212613725622132e-03,1.380081772804260254e+00
1.720737591707309500e-02,-7.966717743788309658e-01,5.520585710500082177e-01,1.534962393437237435e-02,-7.851420929854885378e-02,1.369341521642234577e-02,1.184707641601562500e+00
-5.272581905153217452e-02,-8.153119068192055119e-01,7.746879263022059536e-01,4.913468367256142860e-03,2.937907974742065553e-02,-1.732121693483238550e-02,1.378654122352600098e+00
-1.842688851087706872e-02,-8.273449346368233481e-01,7.007518661276067595e-01,1.909501065344256995e-02,-1.923358918783388619e-02,4.192625316968368043e-02,1.326951503753662109e+00
-4.106065357872117766e-02,-8.406174843133198404e-01,6.526365597614517400e-01,-7.185292773218080950e-03,-2.386400877131626130e-01,1.728683979919910102e-02,1.359064340591430664e+00
5.149598718825709742e-02,-8.382735349626977417e-01,4.282317798636049444e-01,7.823448971874603572e-03,-9.850779731206703305e-02,3.911340142343229520e-02,1.141364216804504395e+00
-3.240924940852750458e-02,-9.890784965704555454e-01,7.665975939173379494e-01,-2.592022183036440594e-02,-1.086931911488125124e-01,-3.755423285122574950e-02,1.536132335662841797e+00
-5.496462748621004646e-02,-8.258126434993462439e-01,7.620284637097390901e-01,-1.398093629261116079e-03,-6.847808502697887156e-02,1.270883602733079046e-04,1.380411386489868164e+00
-4.829771184861531008e-02,-8.472280919438539559e-01,6.941926419077963928e-01,1.451664881722584954e-02,-1.022158116541422856e-01,3.602483796212670869e-02,1.348573207855224609e+00
-5.101307244121528611e-02,-6.644266949984786175e-01,5.791278236582224626e-01,5.258567285802027286e-02,-4.926803330665661951e-02,1.894157222284475472e-01,1.132741570472717285e+00
3.439864552836782718e-02,-8.751267496040525673e-01,5.710725536481069398e-01,9.651046953932802472e-03,1.135549141368780435e-01,-1.051586592554960287e-01,1.294415831565856934e+00
5.468229292418871901e-03,-8.385162143774307353e-01,6.843336160463739937e-01,5.672938463455630409e-03,4.504141091611336273e-02,-4.043768134016920493e-03,1.323764204978942871e+00
-2.795531310324857882e-02,-7.351223352064419903e-01,6.479243389012435683e-01,-2.275778388030389593e-02,1.411139515444915886e-02,1.148032076694781994e-02,1.198918223381042480e+00
-3.750042371624068976e-02,-7.993270641711681668e-01,7.382586793126828528e-01,-1.661456740933916001e-02,4.442461628918720207e-02,-5.423427114509388886e-02,1.337441086769104004e+00
3.625479575301418511e-02,-8.335396472958255254e-01,5.474880354183045972e-01,-5.777859479101295735e-03,4.575535622250834211e-02,-6.642572635937285530e-02,1.217451214790344238e+00
-8.802475816724228408e-02,-4.269743977031653648e-01,8.665354356905419220e-01,-2.153818637094460919e-01,-7.195000348333763750e-03,6.033557658515514149e-02,1.224689483642578125e+00
-1.533458501120667505e-01,-6.192133631604139765e-01,1.276309696970401086e+00,-2.667656870553961057e-01,9.230596451049095930e-02,-5.188638706717855868e-04,1.779334545135498047e+00
-1.018779683753707199e-01,-6.717598961533406410e-01,9.123655676257126368e-01,-1.766478301017082031e-01,-2.794064501031296929e-02,-2.545649559315799060e-02,1.424553990364074707e+00
-6.008340318826919935e-02,-7.194667250097551703e-01,9.106588540713882463e-01,-2.378818731282309196e-01,1.196074583758398920e-03,1.828345304271997498e-02,1.479185104370117188e+00
-4.334446189844104458e-03,-8.017023486872379978e-01,8.332115517406166738e-01,-5.029551582352162487e-02,-1.242217964212762038e-02,2.703038205805827557e-02,1.419631958007812500e+00
-3.832090114968873806e-02,-8.548029589527950112e-01,8.446051134786507486e-01,-3.294925924474693176e-03,4.840449785776767579e-03,1.552618744845777254e-03,1.472142815589904785e+00
-1.072681771240507898e-02,-6.831693930921552971e-01,8.971670116272296713e-01,-1.365364804066962201e-01,-1.262190648423547681e-02,-5.285223072196133971e-03,1.394075036048889160e+00
-1.764060020822890568e-02,-8.472581633998254036e-01,6.818834984669626120e-01,-1.680669154354405559e-02,-2.354491148394972921e-02,-4.197448155008422221e-02,1.328808784484863281e+00
6.135744760165684486e-02,-8.330642030951227461e-01,4.543668892207685106e-01,-1.637565393600863561e-02,-8.632146292860541636e-02,-8.273196766151143244e-02,1.161746501922607422e+00
8.134574279057196766e-02,-7.952820296212772533e-01,3.572975258239149965e-01,-2.712961816587955086e-03,-4.440532081297768330e-02,-2.971840025888853459e-02,1.046479701995849609e+00
-3.001218480509294448e-02,-8.172111800853135710e-01,7.346034443169860984e-01,-1.390736852536222749e-02,-3.046426860327897113e-03,-2.911320624051065217e-02,1.345130085945129395e+00
-3.911316730192623825e-02,-8.384372966258801796e-01,7.952435359983573981e-01,1.071749227774961878e-02,-1.949350160541547458e-02,5.103704216860688835e-03,1.415469646453857422e+00
-1.148141369730314512e-02,-7.516657856537342086e-01,6.517748966469043559e-01,1.622105621651966090e-02,-5.438851882755738748e-02,-1.622309179721688477e-02,1.220314383506774902e+00
3.850913112558562723e-02,-8.678764640258858076e-01,4.750248345590235566e-01,-3.755467330928934783e-02,-1.664800945636884244e-01,-4.891882146890309813e-02,1.225679159164428711e+00
-9.700787116574231816e-02,-1.226123315748269604e+00,1.119501643856779749e+00,3.184128474982150236e-01,8.499674357229075605e-02,1.320767240339584259e-01,2.122862100601196289e+00
-1.139527579069206376e-01,-4.917128661780862942e-01,8.535958254685431790e-01,-8.371729918427786576e-02,-2.146061216286905549e-02,-7.530267398481813035e-02,1.218102216720581055e+00
-1.524488861876159562e-01,-7.595411038511360458e-01,1.037537194413529207e+00,3.993225848477955364e-01,1.498533290793683387e-02,8.507702895706160950e-02,1.734307527542114258e+00
-2.346554982896156827e-02,-8.988471880675489301e-01,9.633418208379987968e-01,1.441765247104552228e-01,5.490311563700450356e-03,-8.646084353259357591e-02,1.639753699302673340e+00
-5.650075972194842922e-02,-8.233097500279886738e-01,1.077896796744347574e+00,2.018621710445814843e-01,-8.743319906803743990e-02,-4.267460088718608158e-02,1.701576352119445801e+00
-4.819903658006263747e-02,-9.470214061940678274e-01,1.083754833021536967e+00,1.309994087750658842e-01,8.966737395109175210e-03,3.385083200230509098e-02,1.778141736984252930e+00
-1.332069761214928726e-02,-9.655628953832273709e-01,9.455298034152453956e-01,1.384877277718975785e-01,-1.942608458237067223e-02,-3.362044981021312245e-02,1.673701643943786621e+00
-1.250419391803381797e-01,-3.005479914560487686e-01,7.364242378653147458e-01,-1.464632067962347850e-01,9.521333023924688499e-03,-3.691052878132371901e-02,9.964097738265991211e-01
-8.442213586317341700e-02,-6.130305857035629469e-01,7.156467661129299884e-01,4.284059802124704636e-02,1.337363971011254482e-02,2.371742320200979567e-02,1.161976933479309082e+00
2.192099135162975387e-02,-8.155441021509896027e-01,5.364106120457470261e-01,-1.957816556019000009e-02,-7.177603234566987123e-02,-1.321806163647048227e-01,1.210757970809936523e+00
-2.957230954604858283e-02,-8.409234235071665342e-01,7.340822624737701751e-01,1.372842259023280068e-02,-2.081797381124030760e-02,-3.904795166190141997e-02,1.366561651229858398e+00
-7.780231411255322804e-02,-8.792268912163953010e-01,8.867685111583957225e-01,1.425289879784175789e-02,6.168313447656478127e-02,-1.369560764625569159e-02,1.535674333572387695e+00
-5.233219489639441557e-02,-8.829741911467697824e-01,9.271893381073315066e-01,-8.955258660215821911e-03,3.432062088333052985e-02,-8.097089129919755532e-03,1.570678591728210449e+00
-7.226676960585795562e-02,-8.923612375115463902e-01,9.365865600616679609e-01,1.303057262818196893e-02,3.464330393069049718e-02,-1.678631689746832223e-03,1.588021874427795410e+00
-8.086757538194531969e-02,-1.125157125328901442e+00,1.158783950051886391e+00,-2.765148978368064947e-02,-1.384129359050813475e-02,-4.032453618834064279e-02,1.982316493988037109e+00
-6.248478066524450203e-02,-9.499332908300620604e-01,9.181779467377573223e-01,-3.796357968266213245e-02,6.494534977751111049e-02,3.160206109495030530e-02,1.624661564826965332e+00
-6.542882036410087310e-02,-9.409692755444934997e-01,9.540382862177435586e-01,-2.873818227962409572e-02,4.697237956592382330e-02,8.380770971418528142e-03,1.645532250404357910e+00
-8.170413482378509340e-02,-1.054654725533669568e+00,1.144184869724961251e+00,-1.968650092727040543e-02,-1.675372123690440501e-02,8.221445173939408851e-03,1.909024238586425781e+00
-6.202323784580530963e-02,-1.020568550317896950e+00,9.458299600668401697e-01,-3.793991913677124961e-02,1.431342650916458126e-01,-1.455673218932890256e-03,1.722334742546081543e+00
-8.952078625189094363e-02,-9.441221488883129176e-01,1.118790390172252014e+00,-2.086182379568614700e-02,-2.195008580149105520e-02,2.185743489449137444e-03,1.796037077903747559e+00
-1.684400434279071934e-01,-2.872413012089557460e-01,1.150673513398167813e+00,1.212765845426734407e-01,3.788237535702412839e-02,-6.981372045806645554e-02,1.404968976974487305e+00
-1.783185701564113379e-01,-1.570365163746910708e-01,8.572979210110630577e-01,1.098089296121859265e-01,-1.709852409119383063e-02,-5.567889032961993029e-02,1.047504544258117676e+00
-1.705438095315903180e-01,-2.643583036465996239e-01,7.619591375713355985e-01,8.912343139682833704e-02,2.426240690242323708e-02,7.091394317351214227e-02,1.003257989883422852e+00
-1.555760397997697497e-01,-1.104833065036471274e-01,7.782636177061860172e-01,1.020455920638520808e-01,8.746003033828539386e-03,1.024581224869763711e-02,9.293894767761230469e-01
-1.699083607820663366e-01,-1.762040783992288584e-01,9.181799814117540537e-01,8.138276834238028501e-02,-2.778799904227147524e-02,-8.129198723633468404e-02,1.110332131385803223e+00
-1.865144329761491693e-01,-2.695226299603883380e-01,7.383425616950691772e-01,2.355307584853812142e-02,1.046275228070421733e-02,1.061155254875878612e-01,9.873174428939819336e-01
-1.610909835159123338e-01,-1.930376338751915721e-02,1.214414134409141699e+00,6.220803434167469087e-02,9.226447792353776808e-03,-8.499010563053731315e-02,1.323111414909362793e+00
-1.171373701762279396e-01,-7.169935007536193394e-02,9.284545436754708669e-01,7.123685525557514608e-02,-4.357344355945851067e-02,8.248024228538312907e-02,1.043621778488159180e+00
4.297153051219484987e-03,-8.249101920517443176e-01,5.620037858418222010e-01,5.239960217250938263e-04,-3.586768441443661387e-02,-9.775177828794422152e-02,1.222130298614501953e+00
2.230126129052283079e-02,-8.295133807447535590e-01,5.817397556891148458e-01,-2.324653844145187220e-03,-3.966233589412419824e-02,-1.246052445973028916e-01,1.251564025878906250e+00
3.325431179297887174e-02,-8.375736562642192018e-01,5.577292665318683840e-01,-1.213119831836399244e-02,-2.899348335150253933e-02,-1.023755470300794085e-01,1.234726071357727051e+00
4.546140669920753496e-02,-8.188053663356147371e-01,5.316699288259040257e-01,7.306986729729056385e-03,3.074154924821611429e-02,-3.493663812559439502e-02,1.187529683113098145e+00
6.544771250688760644e-02,-8.466738251184525721e-01,4.293483225577303664e-01,-2.101462833681155828e-02,2.438229562699634895e-02,-8.436326355059800552e-02,1.149247884750366211e+00
3.306892395977474586e-02,-8.023064131452729564e-01,5.242298482419383010e-01,8.536596977105029294e-03,5.114160122372522765e-02,-7.527219872928289646e-02,1.172372579574584961e+00
-3.171221180725667527e-02,-8.338109621825677831e-01,8.083917421357827982e-01,-1.160728895883663238e-03,1.172379978550921803e-03,2.243404291795394762e-03,1.422324419021606445e+00
-4.426843889102065333e-02,-6.298147459818254079e-01,8.011858222948494701e-01,6.551286258989384714e-02,1.026695175893773196e-02,8.823793092607438993e-03,1.251453399658203125e+00
3.199478502350873443e-02,-7.936580626739709876e-01,7.749087809946471062e-01,1.040294532144911757e-02,5.318945014271021917e-04,-4.372756484537574338e-03,1.359189391136169434e+00
1.663703350507187220e-02,-7.325204333000819856e-01,7.794789591142564644e-01,3.558673953575981069e-02,7.886698620629293763e-03,2.947194547137726821e-03,1.310978770256042480e+00
-3.973573912308021178e-02,-7.776861405632964352e-01,8.053140888041874224e-01,-1.241354661040184465e-03,-2.728247450180613584e-02,-4.114344545579755666e-03,1.372797608375549316e+00
1.146969985475081860e-02,-6.874683554431790800e-01,7.746176679083752736e-01,9.363480812685685828e-02,-9.654305119437323057e-03,-5.237039633784905390e-03,1.277093052864074707e+00
3.699631214354326056e-03,-7.927227018225985189e-01,8.241040025870158825e-01,9.087246757252655238e-02,-8.085183132690467248e-03,-3.167910822849046015e-02,1.410220026969909668e+00
3.046677441919998230e-03,-6.442362443901838986e-01,7.598357167723811534e-01,8.786808846282413710e-02,2.695527064155760644e-03,-3.679145867281136649e-03,1.226697325706481934e+00
1.026818385718083343e-02,-6.501964944305496097e-01,7.662330807007237121e-01,9.039315005612336140e-02,-7.143328334104269428e-03,-9.709849732944893577e-03,1.237712979316711426e+00
-3.709994606738882539e-02,-9.592705122282281227e-01,8.428554345876919651e-01,1.076747795033862337e-01,-1.040707380127588177e-01,8.189737576663591589e-02,1.588579297065734863e+00
-2.099795583444647937e-02,-8.052112610172619256e-01,8.044225735411713041e-01,2.785886851636981340e-02,3.537293137562218075e-03,9.069422614743324548e-03,1.395072698593139648e+00
-3.443796241423374704e-02,-7.121212119783858485e-01,7.505294279039349536e-01,1.061688532563361681e-01,-4.673323481139210478e-02,5.132624625317996903e-02,1.286723852157592773e+00
-7.031634312547974108e-02,-8.113319675139636367e-01,7.125438839320377138e-01,-6.490080036470583132e-03,-9.660477157392069469e-02,-9.005980404192063735e-03,1.330583691596984863e+00
-4.330100468283053228e-02,-8.078508163669974040e-01,8.395453318575940571e-01,3.980857427399020487e-02,1.504024924976172725e-02,3.984843445326864686e-02,1.431478500366210938e+00
-9.009255720649769761e-03,-6.185088692483053929e-01,7.517559261505991630e-01,1.013915673836066761e-01,-3.643369270771473420e-03,-3.187339454149427237e-03,1.202019333839416504e+00
-8.425272708967690427e-02,-4.473421853390181502e-01,7.934370846322365001e-01,1.651406754489864459e-01,6.165971545777493637e-03,-6.155765492512729753e-02,1.146363735198974609e+00
-1.453019559679454009e-02,-5.887721994006013260e-01,7.875204617820966702e-01,8.571440657042318778e-02,-5.105939741082001848e-04,3.947853877940829537e-02,1.208440184593200684e+00
-3.365851962907780159e-02,-5.879894969652292858e-01,7.809691133667809870e-01,9.171514126693458557e-02,2.660819187331726204e-02,2.457972814422495697e-02,1.204842686653137207e+00
-1.065831529485154749e-02,-6.306861477004772620e-01,7.671424081230368008e-01,8.363432114497024172e-02,-3.786347722219063003e-03,2.829135502388892189e-03,1.221768260002136230e+00
-7.126060431751454760e-02,-4.757559661138298646e-01,7.713488709724146686e-01,1.577121387818426479e-01,1.936590115420254096e-02,1.517824715121355065e-04,1.135862350463867188e+00
-7.129517950259020576e-02,-5.120739638520974690e-01,7.550719115634435541e-01,1.083839945444788899e-01,2.461569583239012465e-03,-1.407069809206956679e-02,1.130162358283996582e+00
-1.541091388623623271e-01,-2.490441265923279968e-01,7.840802731188850627e-01,1.296074346431966007e-01,-9.829445107772728264e-04,-1.416034795622723302e-02,1.014533281326293945e+00
-1.108636292286948322e-01,-5.891791182811275673e-01,8.188749766277868547e-01,3.662079284364434806e-02,-2.338287382478298343e-02,-5.292198514303607382e-02,1.245782375335693359e+00
-1.562734008038662026e-01,-2.433301890895870900e-01,8.315523739031217554e-01,1.753774676176594579e-03,-2.028871449376096550e-02,-8.854559607865363641e-03,1.034821152687072754e+00
-1.606735990333297281e-01,-3.285041545465209878e-01,7.921021698334106409e-01,1.358107494921689529e-01,-1.334835172642004873e-02,-2.787676766855467364e-02,1.074268698692321777e+00
-1.278476238916878283e-01,-5.541120878624883339e-01,8.077277047402763310e-01,8.359163170082373195e-02,-1.194543806357992351e-02,-1.303161378923220759e-01,1.236180663108825684e+00
-1.143383072089874941e-01,-5.882660702691344667e-01,7.802018146146906252e-01,8.721987576290229915e-02,4.066261717054777368e-03,-7.870748466944200994e-02,1.220742821693420410e+00
-5.257304905847448584e-02,-8.287219396441443120e-01,7.894033198509505800e-01,4.291719519161016523e-03,6.527347119506254902e-03,-4.089174620329128450e-03,1.401807308197021484e+00
-1.540454895786968481e-01,-2.798675666853301935e-01,7.534441213249032376e-01,2.184348255478778603e-02,-1.262886616744092472e-02,-1.279133811175666990e-01,1.002270460128784180e+00
-2.433859553169814491e-02,-7.925090808787674801e-01,8.013098919590523339e-01,1.478772082614328645e-02,3.133981684679128937e-02,1.703753418006936221e-02,1.382206082344055176e+00
-3.370467062161906086e-03,-8.352843579682915909e-01,8.492121295169049455e-01,1.221349559521879291e-01,-7.024860657760539570e-03,3.730425205499253438e-02,1.475576758384704590e+00
-5.286381351069899259e-02,-7.051206434341025231e-01,7.641006933105152221e-01,4.922216983172818250e-02,2.255510198866686467e-02,8.333644275101978471e-02,1.286611914634704590e+00
-3.281578386826688315e-02,-8.014210567048077882e-01,7.694023937773351030e-01,1.051091270971976632e-02,-9.263143219251944449e-03,-5.788614064105063357e-04,1.360693573951721191e+00
-4.749802673798148023e-02,-8.071422461072658150e-01,8.036512635630471690e-01,-2.933098879224768380e-03,1.876529009128175690e-02,-1.286928435557635475e-02,1.396303772926330566e+00
-4.690270031050971372e-02,-8.320567879208605744e-01,8.370332961323918575e-01,5.066669605231745137e-03,-2.113971049621023949e-03,-7.055083272128673082e-03,1.446400880813598633e+00
-4.368919427553347168e-02,-8.265433312734347115e-01,8.012986023368576793e-01,3.705694924820682971e-03,1.160872616633151951e-02,-9.007888454615899099e-03,1.410338997840881348e+00
-1.148645421890597679e-02,-8.388101398538028164e-01,8.238257898946597102e-01,-2.471676895174635194e-02,-3.401667194437998725e-04,5.223133843780004663e-03,1.440555334091186523e+00
-6.760928172973515449e-02,-8.304621082118675002e-01,8.225273338480242336e-01,-6.876243999705313956e-03,5.805852014367230557e-02,-6.666162559674850517e-03,1.436564803123474121e+00
1.128199009637552430e-01,-7.869490677986474836e-01,3.097392700468907245e-01,-7.317087166787467414e-03,-3.303801566714494042e-02,3.308404343243500061e-03,1.014401912689208984e+00
1.172365319350203161e-01,-8.749544515930206545e-01,3.505332401824313160e-01,2.674456582022858436e-02,-4.602664190448538944e-02,5.390416517167619798e-03,1.130899429321289062e+00
6.867246088732767428e-02,-8.038053309066744978e-01,4.767308269823613553e-01,-5.485727375984465054e-03,-6.913585681804414879e-04,3.302800999998919962e-02,1.134510993957519531e+00
9.190792193425273426e-02,-8.005827983498865486e-01,3.784087168087908459e-01,-8.371194540536835982e-03,1.174502798483293038e-02,4.570045611911268540e-02,1.068274974822998047e+00
1.546773524323071247e-01,-8.344399708014115236e-01,2.179655289442125055e-01,-6.818931523195324263e-06,-8.932365243939895116e-02,6.685754990158989872e-03,1.033938169479370117e+00
1.500392967377391362e-01,-8.714235635108578126e-01,2.426120189519688775e-01,1.522825198902740852e-02,-2.946304367492913467e-02,-1.018955889800151615e-01,1.086721539497375488e+00
1.687071735534524386e-01,-8.457498610305937969e-01,1.910459851532089748e-01,5.786679908694239080e-03,-8.666875629965881123e-02,-1.447192715207350037e-02,1.037085890769958496e+00
1.099140885266379208e-01,-8.252448013635574897e-01,3.606597156883167843e-01,-1.769026014411256842e-02,-4.979992387419502481e-02,1.597662595021420023e-02,1.086750745773315430e+00
1.039219463277699373e-01,-8.367782213803257596e-01,3.674812472464998869e-01,3.501618820811132349e-03,-2.010855540253056808e-02,9.423843141384941405e-03,1.097190499305725098e+00
9.435255450465929172e-02,-7.917934033220827006e-01,4.024483055318890390e-01,-4.789113751252615896e-03,-1.277624851460491644e-02,3.771821391952518907e-03,1.074149250984191895e+00
2.292207124143243457e-01,-1.113582811303404085e+00,7.495301976473467409e-02,1.659906963661424428e-01,2.951905281811610382e-01,-2.372484232930212669e-02,1.401973009109497070e+00
4.156731898358873023e-02,-8.797173993278467607e-01,4.821762756010907758e-01,-4.484867170958436663e-03,1.357225568588755760e-01,3.248794183021560394e-02,1.227728247642517090e+00
3.981737645779112600e-02,-8.105044531938081498e-01,4.774716382281248839e-01,1.121555879485199199e-02,6.842055368484030453e-02,-4.356637355582480137e-02,1.143175840377807617e+00
8.696022704943148773e-02,-9.043455644371815039e-01,4.148989030642094011e-01,-9.224570744537994704e-04,1.206350160235889202e-01,-5.768345083460057338e-02,1.212007284164428711e+00
5.790711582171961802e-02,-8.098460549690956745e-01,4.335470804662537869e-01,-1.019815603475993614e-02,6.674154148909323958e-02,2.947892838187415529e-02,1.111910939216613770e+00
5.107613763857082878e-02,-7.921638093178684503e-01,4.241484758622366957e-01,-6.146686253304852084e-03,8.534318284331890436e-02,-4.712433371327164576e-03,1.089429378509521484e+00
-3.977372731517416632e-02,-8.341916687651912410e-01,7.949640608051425916e-01,-1.034509798438921005e-02,-6.511578210054440492e-03,-1.349324752822939674e-03,1.411195039749145508e+00
-4.110483741849396688e-02,-8.068390579186821565e-01,7.873366912254824435e-01,1.795463601564567329e-04,-3.361639069386517398e-03,2.055482020648139417e-03,1.380969524383544922e+00
-5.221503790534902378e-02,-8.180224212450425414e-01,8.157340387357635558e-01,-3.039427374925870659e-03,-2.077130946120045105e-02,-1.154153571770605638e-02,1.416403889656066895e+00
-1.711265672815472927e-01,-2.483814416740592890e-01,9.422438998162713242e-01,-1.982458478515460865e-01,-4.594754363978837894e-03,-1.298177678790536334e-03,1.203971743583679199e+00
-1.546936780467252359e-01,-3.433630620976579340e-01,8.720951617877251705e-01,-1.304117715151993373e-01,-7.802903586279505768e-03,-8.824293664171404053e-03,1.155444979667663574e+00
-2.446667686737911268e-02,-8.265838371794832495e-01,7.224932818583261751e-01,2.059709845156873498e-02,1.417720447358220351e-02,2.427289554581350470e-02,1.343180418014526367e+00
-1.056870850728026667e-01,-4.080042682625840689e-01,7.829193064406825275e-01,-1.098863293256664014e-01,-1.996681943585231628e-02,4.366050122951173340e-02,1.092152833938598633e+00
-5.806434540096958030e-02,-4.759214705134323653e-01,7.791551250021127029e-01,-1.167087146371231232e-01,-1.163505548106261167e-02,2.797544946861242610e-02,1.126497149467468262e+00
-9.497508943517174451e-02,-4.469672650184226548e-01,7.829186327572333903e-01,-1.618436276982660738e-01,-2.163919905602012042e-02,5.655900883216063990e-02,1.137184739112854004e+00
-7.330572682289898667e-02,-4.463929082852868824e-01,7.867823650091956278e-01,-1.667313687031698188e-01,-4.968288814444176554e-03,1.806863639393145246e-02,1.133262991905212402e+00
-1.616563121705366091e-01,-2.494973915034028877e-01,8.601692970474258404e-01,-1.930888057683033121e-01,4.258405988613862825e-02,-1.994665499447183937e-02,1.122535347938537598e+00
-7.961417743414053727e-02,-5.332832588503902960e-01,8.935423078984782164e-01,-2.436731082374938295e-01,1.574857474983271935e-03,2.431957780429876495e-02,1.332010388374328613e+00
-5.356967843224900300e-02,-8.230660307199743064e-01,7.582417632149799358e-01,1.122808139173242167e-02,6.550747942587368611e-04,-8.075832361096883100e-03,1.369826078414916992e+00
-5.494776227479401462e-03,-8.700437361422237448e-01,8.825522324358890947e-01,-5.162802926510781654e-02,6.664970194617469805e-03,3.822073237340668003e-03,1.520528197288513184e+00
-1.081934525591683044e-02,-8.598909903102132102e-01,9.010551857498294570e-01,-1.221809151095276103e-01,2.288145317506028089e-03,-7.099412890322113166e-03,1.540011763572692871e+00
-4.594783937689431164e-02,-8.272941853928097444e-01,7.697847400621103953e-01,7.972398390561002274e-03,9.881435881921781308e-03,-4.360452468303653573e-03,1.383413195610046387e+00
9.603322020966689396e-03,-8.267587525764623635e-01,8.079937307015585546e-01,8.079238781892646160e-02,-1.039982358405022386e-02,-1.233947040435558890e-02,1.423037528991699219e+00
-3.729377771772209027e-02,-8.125590501915822550e-01,7.801543339918819431e-01,2.052589622003472662e-03,-1.320399646966731108e-02,-1.710338543879270576e-02,1.380003690719604492e+00
-4.718710027030394161e-02,-8.189643350984130432e-01,7.597658227696473254e-01,-1.077456820836102114e-02,8.662882048471759813e-03,-1.232472554257316557e-03,1.367544889450073242e+00
-2.281493980286100620e-02,-8.198793762332867718e-01,7.998472454724735448e-01,4.515782396345671863e-03,-1.374162944430607457e-02,-6.792152171758023688e-03,1.403055787086486816e+00
-3.238103389527106218e-02,-8.209759808614131016e-01,7.908552058761759707e-01,9.203786173828885572e-03,3.019853679376453826e-03,1.101144758571388250e-02,1.396225333213806152e+00
-4.529016734616182066e-02,-8.257891024036413397e-01,8.052184523200401900e-01,-1.173307054516042241e-03,-1.198877387001201966e-04,6.996445742462218884e-03,1.412981152534484863e+00
-4.212152106232934512e-02,-8.258486404603979647e-01,7.874980616638063147e-01,-1.207053791016111152e-03,2.292330831704393699e-03,-2.004800549642208154e-04,1.397394895553588867e+00
1.171654735084276533e-02,-8.271915913988858726e-01,5.066412757158864633e-01,-2.195985262922081627e-02,-1.702126373228829148e-01,-2.746726416049475455e-02,1.206043481826782227e+00
-5.999337459476796613e-02,-8.183048100880723208e-01,8.097991528349904877e-01,2.383421170571628587e-03,-1.178592929940218414e-02,-3.160589490542037652e-03,1.411245107650756836e+00
-9.292600781165227808e-03,-8.300138345060061873e-01,6.337377655464886406e-01,-7.384218190256977392e-03,-9.189469346631994051e-02,-1.890853768044296196e-03,1.280753016471862793e+00
2.613112502734477038e-02,-8.099656168313084104e-01,4.718062599029794191e-01,7.337671313828581648e-03,-1.345917899705673937e-01,-2.622372357965067208e-02,1.151903271675109863e+00
-4.836308644780992760e-02,-8.301249829960212212e-01,7.803627439750443484e-01,1.080840275775433318e-02,5.347720241880735310e-03,-1.161272086250521827e-02,1.395222306251525879e+00
3.219286640396523680e-02,-9.557182948173565951e-01,5.367065126845984580e-01,-2.403507686702746355e-03,-1.621469838510773143e-01,5.957216617164119276e-04,1.344548463821411133e+00
2.477342049651547196e-02,-8.328598186166631390e-01,5.670181045982586321e-01,-8.929125810783012989e-04,-6.822520516882181474e-02,-1.603755056886476196e-02,1.228555679321289062e+00
-5.261504601623999411e-02,-8.404805908234888046e-01,7.289991151321053575e-01,9.685157315929051811e-03,-8.455633262805339889e-02,1.790049108661479708e-03,1.367186903953552246e+00
-3.211078573463315572e-02,-8.256709590504193175e-01,8.079195859678789393e-01,-1.126230930725574068e-03,-2.210993564631514446e-02,6.606613945114488302e-03,1.415487408638000488e+00
-3.818357485059300366e-02,-7.269079988760190902e-01,8.086529885090995018e-01,-6.702728788876152755e-02,3.761777507562887729e-02,-4.072272600416098481e-02,1.340674757957458496e+00
-3.920469866704989759e-02,-8.520820832012799828e-01,8.355060991241758384e-01,-7.322013238650377717e-03,-1.115842810289470813e-02,9.153175562928243239e-04,1.462004780769348145e+00
7.132558498901616847e-03,-8.324265977690545881e-01,8.415004261379174233e-01,-5.999456247859726032e-02,-5.679712253574430506e-03,3.210257159902515922e-03,1.453429102897644043e+00
-3.676893127070464395e-02,-8.035969225030052954e-01,9.783143756360593857e-01,-2.251336337648733310e-01,-1.067077679484884634e-02,1.943598888930130747e-02,1.596979618072509766e+00
-7.366809753281225448e-02,-7.213231535112961668e-01,7.962937794890818655e-01,1.681337905186948770e-02,-1.336054764504683752e-02,-2.072452827605990658e-02,1.319999217987060547e+00
-9.691202113763166962e-04,-8.149943141826752058e-01,8.104383473438755425e-01,-4.969564183330937163e-02,-7.422617138878899977e-03,5.863513868140549784e-03,1.410390973091125488e+00
-3.029605490807016355e-02,-8.401313232548753840e-01,8.518375736247697505e-01,-9.803526998743969378e-02,-6.767675111120452502e-02,3.053292971020968305e-02,1.481129884719848633e+00
-2.760407286023713880e-02,-7.781047880900873182e-01,8.126110941839752577e-01,-6.854887023592608208e-02,-4.076229446979236226e-02,3.182965379412402984e-02,1.386331796646118164e+00
2.611889169933196558e-02,-7.474179680314091412e-01,7.659417529862769802e-01,-1.494008936951989400e-02,-8.765355854278799024e-04,5.397977193400607795e-04,1.310973048210144043e+00
9.123647219144720433e-02,-7.720611700014874401e-01,3.505764168034141703e-01,5.675059210419068547e-04,5.646454664973800386e-03,2.492311594509360670e-03,1.018107533454895020e+00
-9.424505217502548993e-02,-9.590675363889218374e-01,1.050745471606493897e+00,9.871393914626425820e-03,1.995654578141668745e-02,-7.367371235288323710e-03,1.746649622917175293e+00
-9.705680847604727934e-02,-1.264047371012978038e+00,1.326818104976626111e+00,4.710771592610917685e-02,-8.236766218414380558e-02,7.155352053881183783e-02,2.256835222244262695e+00
-1.363478952172791359e-01,-9.356646389589318158e-01,1.346292402570781865e+00,-1.661585761670678896e-01,-8.730665974840805255e-02,-7.632077723559499427e-02,2.036024808883666992e+00
-5.634492930899517860e-02,-9.529372724073090772e-01,1.042962401684391915e+00,2.994584381874536988e-03,-2.367638346576052071e-04,-4.892350154497172171e-03,1.731497526168823242e+00
-8.058689735454684089e-02,-9.393646079297677254e-01,1.009654069236143314e+00,-2.156886985301127435e-01,-1.758911494092367175e-02,2.469758523161082187e-02,1.733413457870483398e+00
-5.256553572904999749e-02,-7.541665557674955833e-01,7.975657047239562703e-01,3.154628975621190639e-03,-1.908788842377811754e-02,-2.088604644417393214e-02,1.346793055534362793e+00
-7.737697226687356711e-02,-9.647137507835313874e-01,9.587734995399502802e-01,-1.438221571055771190e-02,7.112907348869018653e-02,-5.915515323408631135e-03,1.672211766242980957e+00
-4.273833715247964821e-02,-1.004971177115877357e+00,9.220143255993008546e-01,1.673695800629900754e-01,1.911959881229926272e-01,-3.643359414598983798e-02,1.727033376693725586e+00
-4.457052766487758222e-02,-1.077020206416021253e+00,9.455748361279123770e-01,-5.955611133638678834e-02,1.694353754163407111e-01,1.151741679416922876e-01,1.790300726890563965e+00
-1.073917092449263866e-01,-9.620317017851369723e-01,9.427851227956006719e-01,-8.775093187221659052e-04,2.045515110002919801e-01,1.362733498442331680e-02,1.690232992172241211e+00
-4.624909882851693105e-02,-1.013466822124178268e+00,1.037590274986430083e+00,-9.587719187533959297e-02,2.264009878213508464e-01,3.116326961847000043e-03,1.827540755271911621e+00
-7.940845597352243213e-02,-1.147772767089591861e+00,1.211482796064789813e+00,1.447768788764475234e-01,1.671049468619915657e-01,2.399603451002290180e-02,2.082144498825073242e+00
-6.446504405788847092e-02,-8.111618094009114266e-01,7.420317013701731579e-01,2.939918530787078918e-03,-3.057631930324100980e-02,3.218233449385003199e-03,1.346500396728515625e+00
-7.499545140523176945e-02,-8.483789175858209575e-01,7.576510754613763332e-01,8.976289690700552451e-03,-8.549155907254109288e-02,2.233446029290892323e-02,1.399657726287841797e+00
-6.615634438768236425e-02,-8.045205455626089908e-01,7.387403819341362698e-01,1.951231783674082978e-03,-2.634625862945312938e-02,-4.960814658760671035e-04,1.337700247764587402e+00
-3.481883461492919080e-02,-7.746904880775431490e-01,7.098930090097590462e-01,5.257694345785171586e-02,-1.047756748488358064e-01,-2.201657179987500518e-02,1.302181959152221680e+00
-4.422126223581882010e-02,-7.810240270358604908e-01,7.890336661780719130e-01,-3.214533645295535643e-03,1.614753667533064263e-02,1.057325184227225594e-02,1.360986828804016113e+00
-4.700439334474509900e-02,-8.226280333071213091e-01,7.830658680901563251e-01,-2.273401344728917702e-03,-1.666717908033576653e-02,-1.421191578605678942e-02,1.391361117362976074e+00
-1.017092316377622013e-02,-7.152172061667687597e-01,7.910272775334971085e-01,7.728947035393496368e-02,1.660201213175035648e-02,3.043913176188903572e-02,1.313551664352416992e+00
-3.316815231390438795e-02,-7.183045056220525026e-01,7.839166023101212799e-01,5.656126019925155485e-02,1.811916393100801090e-02,3.884387833019704861e-02,1.308419942855834961e+00
-3.322406220992349390e-02,-8.297957121398789049e-01,8.150982947501671516e-01,3.992638994065907110e-02,2.009986878658784684e-02,1.143544921554023874e-02,1.426994562149047852e+00
-3.135931137309356381e-02,-7.092986670850901509e-01,7.666932151274068463e-01,5.871255323062546383e-02,2.333715588870558313e-02,4.099634807688253002e-02,1.286288619041442871e+00
-3.648314710353710993e-02,-8.342300209561955837e-01,8.152091930334566250e-01,5.264492767962412369e-03,4.922005936858053071e-03,5.105508650782858079e-03,1.428792834281921387e+00
-7.492378567252711008e-02,-8.077439699758015568e-01,7.589084970380514106e-01,3.367464745282691164e-03,1.016996826963500848e-02,-9.354414130811520385e-04,1.357828378677368164e+00
-8.159717951881245712e-02,-8.020670482628866615e-01,7.571284936546381905e-01,-3.378290995582171872e-04,5.319720630447235220e-03,5.160850752776231136e-04,1.351628780364990234e+00
-7.599310796678573898e-02,-8.008189141159541835e-01,7.507955068005088828e-01,-2.622294269982777728e-03,2.347136105342477116e-02,-3.240197299282987498e-03,1.345337986946105957e+00
-5.877095215735895356e-02,-8.190811673985070041e-01,7.156519163030349295e-01,4.375565440591288810e-03,4.082657657886249597e-02,-1.014364660188458306e-02,1.331153869628906250e+00
-8.484140234157280802e-02,-8.073380809988430773e-01,7.810617740862748626e-01,-1.123598289727476126e-03,7.317802219965258669e-03,6.680012910670557989e-03,1.377570390701293945e+00
-7.153776185242821661e-02,-8.073372900374830019e-01,7.041011249106085002e-01,4.245355000492123513e-04,6.301193325926734978e-02,-3.578987423867844523e-03,1.313652038574218750e+00
5.401857754333580508e-02,-8.872800004255861905e-01,4.660076583890012669e-01,-1.003820701067137215e-02,1.864983252891862786e-01,-1.960847819258016572e-02,1.244742274284362793e+00
7.683909917627843034e-02,-7.897250020993342723e-01,3.250325964158848335e-01,1.687707337951884976e-02,1.480048467362422293e-01,-8.222463278792106756e-02,1.055680990219116211e+00
-4.479063180384942888e-02,-8.276634972296467163e-01,7.630723256038218771e-01,1.250735613981160572e-02,-9.621282811833442149e-04,-6.736632594028388321e-03,1.377894997596740723e+00
-5.548380632885810404e-02,-6.877605538123537920e-01,7.876339961391375377e-01,-2.160481204605985833e-02,2.961438417807742141e-02,-2.896994112621471829e-02,1.284622311592102051e+00
8.390748108847945197e-02,-9.582023226968824359e-01,4.661448692798543236e-01,-2.303227756243708332e-02,1.445993069035346745e-01,4.177156504346110633e-02,1.303834557533264160e+00
3.241997937693463783e-01,-1.556565574366880922e+00,1.996343021379226590e-01,-3.984985559048887654e-02,9.448723494748764717e-02,4.899158638569396651e-02,1.832283973693847656e+00
8.730854350819935994e-02,-8.687369757666025816e-01,3.381791216301159864e-01,1.157055911683409384e-02,1.501217271253406649e-01,-8.670117670540934685e-02,1.143400788307189941e+00
6.444498527072414773e-02,-8.275058975711445663e-01,4.507626882984655525e-01,1.426311673235421996e-02,1.616177221819296572e-01,-3.896699905911385400e-03,1.169790983200073242e+00
1.280588011268903870e-01,-8.801262494537410719e-01,3.257276520399837172e-01,-6.106502823989426801e-03,1.234389840736115490e-01,-8.572128975482755375e-02,1.150071620941162109e+00
1.517131826610896295e-01,-8.928198185078919380e-01,2.240371213494414815e-01,-6.591392905007912965e-03,4.842011782378340123e-02,7.867313060292541183e-02,1.094329476356506348e+00
1.418225521404365974e-01,-8.763350737653257116e-01,2.453332543148031286e-01,9.735357232064052258e-04,6.358994483687849253e-02,-8.554192572831072205e-02,1.089419960975646973e+00
-4.503586750170851527e-02,-8.553433188168764190e-01,7.763047607523382299e-01,2.627436447683162771e-02,9.066622831596835019e-02,-2.863101269999566382e-03,1.422495603561401367e+00
-5.403047416616919840e-02,-8.419700424250281534e-01,7.408449156461661689e-01,-1.557263945512514167e-02,9.809485132087809867e-02,2.191725351471483785e-02,1.382036805152893066e+00
-1.042508901757430162e-02,-9.101061962506622471e-01,6.745819832220556478e-01,4.064632995509507435e-02,1.760878002604999715e-01,-7.554799532164532816e-02,1.417761683464050293e+00
-5.639845696466537495e-02,-8.229665835150443698e-01,8.054347328960347330e-01,2.759822625394513077e-04,7.402552050504830963e-03,-5.753271528068641671e-03,1.411134600639343262e+00
-4.393698676835293415e-02,-8.182704546957768610e-01,7.920452209581321235e-01,4.924477397460375397e-03,-1.684388356413744903e-02,-1.478324486607343440e-02,1.395480990409851074e+00
-6.052454479320024117e-02,-8.436128357632192154e-01,8.140854649144634303e-01,-1.116490197927440253e-02,3.682609938342267658e-02,2.478053148577203865e-02,1.438524007797241211e+00
-6.952034893369786472e-02,-8.300509716645362301e-01,8.136921367022749152e-01,-2.631332514605443790e-02,1.043804219509239344e-02,-6.676623910959340533e-03,1.425734519958496094e+00
-2.041405434436572436e-02,-7.866463779922266975e-01,7.276445992399094287e-01,-2.585800885941774707e-02,-2.142900270757175721e-02,-4.857541686626769273e-02,1.315428733825683594e+00
-2.208780740347456722e-02,-8.282295502879835070e-01,6.956403705341573929e-01,1.558275845850780154e-02,-3.052065577293917170e-02,4.043452169981358421e-04,1.321783781051635742e+00
4.250492288494781001e-02,-9.377836883004783131e-01,5.791462525419871499e-01,-6.330590312902145689e-02,-1.486193123185220455e-01,1.050530258478960810e-01,1.373465538024902344e+00
4.365416662631271816e-02,-8.221554378158706378e-01,5.218875996872550660e-01,1.155570640928183131e-02,-2.327980635926062483e-02,5.134470646926295005e-04,1.180855512619018555e+00
4.197902740579884107e-02,-8.073896694013678044e-01,5.137614550344464792e-01,7.783494266222309131e-03,-1.799272578288220459e-02,2.191221065721934980e-02,1.160739660263061523e+00
3.942358760848904686e-03,-9.128260125176103079e-01,6.544145167338470959e-01,-1.707394814990281144e-04,-8.911823104396378314e-02,3.484997861752219678e-02,1.373819589614868164e+00
-6.385599339301049893e-02,-7.323319004420789646e-01,8.113030059534882543e-01,3.954927802672349169e-02,-1.370532771204163378e-02,-6.889767238765297230e-02,1.348066210746765137e+00
-7.980259226627679781e-02,-8.510847162707192437e-01,7.871661661396863741e-01,1.468632452875777991e-03,5.672310662419344229e-02,-9.536219985102459967e-03,1.423067212104797363e+00
-7.731868388150761606e-02,-8.439846829241212101e-01,7.857127107002968014e-01,-1.730626658447755734e-02,5.849062681961596233e-02,2.823991841660801472e-02,1.416972517967224121e+00
-8.844225175262654393e-02,-8.282694055562073165e-01,7.976070418787570837e-01,-2.751114929085436873e-03,5.709447526797478689e-02,4.181442112993987055e-03,1.413437485694885254e+00
-1.760372067973418886e-02,-8.236030280145157922e-01,6.612643508957036786e-01,1.104616102452650288e-02,7.839875353857618523e-02,2.327777926729578811e-02,1.295412898063659668e+00
-3.844920636501827915e-02,-8.313576866529418519e-01,7.416625282289154297e-01,-1.119951677911004998e-05,2.647564219870210747e-02,-4.269823982377095317e-03,1.363082170486450195e+00
-4.529190794008140786e-02,-8.078408241777428334e-01,7.889472288394807631e-01,-2.609816984548567198e-02,5.240455856231650278e-02,1.183363025390917270e-02,1.387186408042907715e+00
-4.001608345821567464e-02,-8.298763582175947562e-01,8.103277942162141478e-01,3.657169785227490713e-03,-1.104440555980548168e-02,2.819849643064671857e-04,1.420923352241516113e+00
-3.157352739829023813e-02,-8.137764650849200754e-01,7.363823704686510707e-01,1.081323660702845565e-02,1.898140790340041573e-02,-1.697684104041850828e-02,1.343350768089294434e+00
-1.540050184548356627e-01,-1.235061561389607432e+00,1.498341509681773820e+00,-2.296753687990782389e-01,-7.540588128573791349e-02,-3.272180267102709275e-04,2.420851707458496094e+00
-8.494988203357797807e-02,-7.225141348066816960e-01,8.222070969492539794e-01,7.348403233339909774e-03,-2.423131578021732457e-02,-2.482026605657296214e-02,1.345943689346313477e+00
-2.243216373483999243e-02,-7.100228743231783435e-01,7.812457963561834084e-01,-5.305246865051335692e-02,-7.046502311575861960e-03,7.969900072334040048e-03,1.296172857284545898e+00
-1.949759818049037752e-02,-8.228405535771846635e-01,7.924208376971958456e-01,-8.781155203150174324e-03,-4.333670942576885003e-03,-9.783719617066425484e-03,1.399069428443908691e+00
-1.610562939385262737e-02,-7.218574889318987164e-01,7.823069282540162650e-01,-5.044795217519143504e-02,-9.126588362323785272e-03,5.452771496535745166e-03,1.306523442268371582e+00
-1.439706081601708001e-02,-7.819314157493425510e-01,7.932770331373223405e-01,-5.036527025612229369e-02,-7.627530240556095430e-03,2.389886769637214123e-02,1.367794632911682129e+00
-5.999390912352819266e-02,-9.165492175394317487e-01,7.841276466562691061e-01,3.672785119323872943e-02,9.527565307317911736e-02,-4.657153055534057895e-02,1.485614657402038574e+00
-3.390220966700952659e-02,-8.174232351397295870e-01,7.894304753945273756e-01,-3.405843098515682135e-03,-1.329665796531026849e-04,9.276866252145894590e-04,1.391731977462768555e+00
-1.507455330341432934e-02,-7.925439027111247370e-01,7.977622555480895494e-01,-5.005456621849968535e-02,-9.376335604428147688e-03,-1.476378630964374911e-02,1.380417346954345703e+00
-3.521484914511928410e-02,-8.092457737604520362e-01,7.939743226552358202e-01,-3.070050508030771480e-03,-4.190643987574554658e-04,-6.824183300821523232e-03,1.388763904571533203e+00
-2.235725510421717258e-02,-8.489258325484743128e-01,8.458366271012452975e-01,-3.885100096283195664e-02,-1.688611565258241187e-02,-4.587396508316946627e-05,1.469687581062316895e+00
-9.944240936633183536e-02,-5.993473205166899298e-01,7.859136704691894737e-01,-3.420058367926330153e-03,-9.437550963978653257e-03,1.275450971982355908e-02,1.215378284454345703e+00
-4.685055948304554796e-02,-5.593842125239235630e-01,7.440621360165295961e-01,-1.027497535327333567e-01,2.185523825054521210e-03,8.134440981708530860e-02,1.159801959991455078e+00
-7.082896507102254269e-02,-6.448825799071266074e-01,6.390235348297156337e-01,5.632477756454121881e-02,-4.797577374401097022e-02,3.034642977506986708e-02,1.122544765472412109e+00
-3.164426385439084860e-02,-6.868161821452801741e-01,6.356660212378171249e-01,8.387393572691750898e-02,-6.317657485221969682e-02,4.179065741129367462e-02,1.161926865577697754e+00
-5.297547526207688207e-02,-6.906963693978743768e-01,7.796723657845263666e-01,1.561724373530610187e-02,-2.827999121283578804e-02,-1.552668677227291016e-02,1.278609156608581543e+00
-7.430546619824381083e-02,-6.977306833547172182e-01,7.724152612606637325e-01,-7.162326734790301630e-03,1.011894474826073066e-02,4.473185592240788711e-02,1.280595898628234863e+00
-1.640024919104737799e-02,-8.059071573636769070e-01,6.767052715735069057e-01,-2.519052795941056910e-03,1.274837162863098547e-02,-1.239979346291734431e-02,1.285261034965515137e+00
2.536243459915510368e-02,-9.502852963038209699e-01,5.801301542492546259e-01,-3.000320794517667353e-02,1.640335723860838757e-01,3.149253985134712469e-02,1.373794198036193848e+00
-6.042958841962969146e-02,-8.209435359279071420e-01,7.488342587563519004e-01,-1.034882574384765087e-02,-7.922354304075247822e-02,-1.049613799297632703e-02,1.366830945014953613e+00
-6.419007785945146649e-03,-9.062780046408261958e-01,7.101813044081913828e-01,3.239163683428593343e-02,-9.527445863900858847e-02,3.787441554273745375e-02,1.415197610855102539e+00
-2.511936693989018365e-02,-8.389915491979260675e-01,6.565640745334523354e-01,-1.784215557953872100e-02,-7.104250337455228492e-02,-2.490772381896409066e-02,1.303779363632202148e+00
-2.009628183946245150e-02,-8.232804180963656515e-01,8.033950126526427926e-01,1.799305049146661308e-03,-8.868412199615618519e-05,-2.967661673958469238e-03,1.408791661262512207e+00
1.257868178607834952e-02,-8.775425425450603667e-01,5.591381011260948553e-01,-2.113296367952571808e-03,-1.267698019319695169e-01,-6.078342794467046090e-02,1.279396772384643555e+00
3.416679584706483475e-03,-8.249776686910873513e-01,5.863585254384559020e-01,9.330282625015976980e-03,-1.125512632025150728e-01,1.850773974845991530e-04,1.243876457214355469e+00
-3.702421583398281951e-03,-7.472618470446842354e-01,8.113365172464594988e-01,1.271165795151273370e-01,2.514236835919832908e-02,-6.745417192481694725e-03,1.368834495544433594e+00
-6.523594698174756124e-02,-7.705737711348779051e-01,9.306871231295449354e-01,6.677444772482829527e-02,7.508031653011995599e-02,-4.727440791093606015e-02,1.492922902107238770e+00
-4.464017488448309562e-02,-9.332598137248627745e-01,8.496529648669098878e-01,8.783245850599827320e-02,1.424746142276972771e-01,-2.231064103196609555e-02,1.571504235267639160e+00
-8.389939510345082938e-03,-8.864537507215257683e-01,8.278451280259088163e-01,2.992982991146075217e-02,1.044112041756196929e-02,3.291561791302860529e-02,1.486881852149963379e+00
-5.997712153240800093e-02,-7.553085799465220074e-01,8.574903772805489988e-01,7.169841562544038149e-02,1.254580337723576189e-01,7.331842984194134050e-02,1.428966164588928223e+00
-3.563891687396213842e-02,-8.271810304111189005e-01,8.071696157286365469e-01,1.459872468056626175e-02,1.881110666868825859e-02,-2.108385119627712522e-04,1.416221976280212402e+00
-1.531659566253564149e-02,-8.636252480190947933e-01,8.238105631462193656e-01,2.616115085446658536e-02,-8.562786037131384087e-03,-8.635409107460908368e-03,1.462223529815673828e+00
-4.537977608957955572e-02,-8.279473436898449057e-01,8.066969646121304738e-01,-4.326893030095027223e-03,-2.671698728423065484e-03,9.248673982767427124e-03,1.416188001632690430e+00
-3.977228463336563574e-02,-8.234603844488448399e-01,7.970859277103981011e-01,2.947968730721895348e-03,-6.904089372332904498e-03,-1.904786584606086739e-03,1.403750181198120117e+00
-4.504478317676988142e-02,-8.282695928832473076e-01,7.877387508258119064e-01,-2.342349361624375924e-03,-1.650725440900182054e-03,-1.075870643233234683e-02,1.399856448173522949e+00
-5.673206039997663597e-02,-8.287131548654483870e-01,7.962076333518927074e-01,-5.889777729830359028e-03,1.079515912236236929e-03,8.772513260090772716e-04,1.407843828201293945e+00
-3.506479540853867094e-02,-8.272340716599887456e-01,7.968904619993573135e-01,-1.902490953903931926e-03,-5.304854664751858066e-03,-4.456894644093808977e-03,1.406728863716125488e+00
-7.881121382336234160e-02,-4.814286907241923652e-01,7.954018279419776682e-01,1.535192967464374669e-01,5.785559818139173610e-03,-4.435449739063503094e-02,1.164057374000549316e+00
-7.466294637211629004e-02,-5.377902391003954730e-01,9.017883062287868068e-01,2.322802012329902854e-01,-6.131498478308967069e-03,-1.117997504232385621e-02,1.335108637809753418e+00
-8.465063033173926554e-02,-7.326795079864546478e-01,8.124065416718031507e-01,2.756911879656720812e-02,-2.693520847628556175e-02,-7.287647836637135834e-02,1.351429462432861328e+00
-7.623899412587567537e-02,-4.872794285425554595e-01,7.947176716256790785e-01,1.277621244181521565e-01,-3.282403780796697840e-03,3.486341517860393896e-02,1.156791448593139648e+00
-1.190819630343623314e-01,-4.169262678620075935e-01,7.640496774002870639e-01,8.703793624068305312e-02,2.937610649131883883e-03,4.613904474883260415e-02,1.077407836914062500e+00
-2.723093598120271408e-02,-8.131969080970307129e-01,8.057801341294591468e-01,5.307755806384674684e-04,1.143441878675247221e-02,4.389799147235089356e-03,1.402433276176452637e+00
6.342725007015787009e-02,-8.953905519009907055e-01,4.506283817055497520e-01,2.689870726480046367e-02,1.612030413225016279e-01,-4.158346234599744756e-02,1.235244512557983398e+00
-3.261958254499998378e-02,-8.060622755689123009e-01,8.040425203677871169e-01,-1.206532272199138493e-02,2.314171794755323034e-03,5.043435530200706014e-03,1.394939541816711426e+00
-2.383044844512608243e-02,-8.234616844048223694e-01,7.722292371437479153e-01,-6.308265567001770935e-02,-5.158979494998831156e-02,-2.694820634672891874e-02,1.389883756637573242e+00
-5.115542136101550869e-02,-7.582076190683112449e-01,8.094952432268661680e-01,-4.072514069096316858e-02,-1.486530994671841216e-02,2.458201515004342433e-02,1.362577915191650391e+00
-3.677895741317589728e-02,-8.255431811973322764e-01,8.055988726725644700e-01,-3.768179274659435793e-03,-4.801503398216266645e-04,3.533518708565970903e-03,1.412893414497375488e+00
-7.385819959154051040e-02,-6.864908601743104910e-01,7.901215649389418116e-01,4.080798051442994373e-02,-6.051946993331028431e-03,-5.251777960358430808e-03,1.286961793899536133e+00
1.317023416014312387e-02,-8.386678965896566806e-01,5.964804966662620167e-01,2.462004755348916676e-02,-2.286081084978864447e-02,-3.036583537244181424e-02,1.252564430236816406e+00
3.907444827895104056e-02,-9.271146713097651038e-01,6.025466695558746588e-01,8.186147439904907161e-03,-8.640645137148471636e-05,6.605943788245223838e-03,1.340065360069274902e+00
-1.337582225008480605e-02,-7.698337864725229851e-01,6.784744437346174051e-01,6.029165841867593391e-03,2.509309356855880715e-03,1.265426121413143479e-02,1.254930019378662109e+00
-7.640128049832420332e-02,-7.900316724236829957e-01,7.843804179187456871e-01,8.872303312283958895e-03,4.965250394892889267e-03,-4.051715000094672364e-02,1.367380142211914062e+00
-5.559685734591184036e-02,-7.216551147108511977e-01,6.951751749338974662e-01,-4.633179317813277721e-03,9.217318538340125685e-04,4.091713332906139755e-02,1.229812860488891602e+00
-2.117251198584416821e-02,-7.479412977317269062e-01,6.558951794150116310e-01,-3.128383648212755379e-03,7.974734361623143572e-03,-4.305082872787528714e-02,1.218386411666870117e+00
-8.778447467435765428e-03,-8.930959114783846298e-01,6.638928953156970625e-01,-6.742309734597161375e-02,5.964662777741134431e-02,2.395886068488579240e-02,1.362127780914306641e+00
-3.781256515349996211e-02,-7.864823417831692254e-01,8.154893205503706000e-01,4.848786837033550179e-02,3.158304701444571844e-02,2.446735073900327059e-02,1.392592430114746094e+00
-3.520243332272960518e-02,-7.977049727105399723e-01,8.273242849532640442e-01,1.310628694932864102e-01,2.492770434040984806e-02,-5.405683283379781462e-02,1.430106401443481445e+00
-5.047358867590245879e-02,-8.053375701630861583e-01,7.929804932525040817e-01,2.548125022999380221e-02,5.840508921606919063e-02,-2.320517942612298698e-02,1.389864802360534668e+00
-3.926917827955163365e-02,-8.453147191298293617e-01,7.593713837425118962e-01,-1.041150186748773972e-02,2.429604850802874819e-02,3.896894367513949881e-02,1.392095088958740234e+00
-4.199562805296872675e-02,-7.774422849253976864e-01,8.155168796828200506e-01,6.628675157208382962e-02,2.600007247096381216e-02,-8.083974174916883082e-02,1.393441438674926758e+00
-2.859224081854926103e-02,-8.187214181179272021e-01,8.007474469401549833e-01,9.598358054287764798e-03,-1.574037575048803719e-02,-5.880513658110674002e-03,1.403038620948791504e+00
-2.880923010725129629e-02,-8.579888635231321947e-01,7.570830751521259172e-01,-3.485149604097759115e-03,9.274910100919714351e-02,-3.007195704909890188e-02,1.409030914306640625e+00
-8.608368261195181725e-03,-8.447046927124814975e-01,6.660269396165576783e-01,3.346958067334287155e-03,-2.998653681184119610e-02,3.932879655110740891e-02,1.313629150390625000e+00
-3.349465882790606669e-02,-8.066923883270536999e-01,8.334098851458530133e-01,2.562869042916311041e-02,7.964824466999816110e-03,-1.755035998679528933e-02,1.422227740287780762e+00
-1.560548644443203459e-02,-7.596876234660311367e-01,7.967865734477646011e-01,-3.156038579930828952e-02,-3.352044878202858902e-02,1.524718571077123518e-02,1.350992918014526367e+00
-8.010348908816956187e-03,-8.020860651682109044e-01,8.087860292147803776e-01,3.558365360852928233e-02,8.520679691999724636e-03,-1.104962780448671619e-02,1.396672248840332031e+00
-1.548727225126726031e-03,-7.878081699135035532e-01,8.376780198885810380e-01,7.632188816895209282e-02,6.372652307767263415e-03,1.937555631724205418e-02,1.414594888687133789e+00
1.063100216863987341e-02,-7.863351678710069903e-01,8.059310949514899569e-01,4.427643683332770086e-02,5.113627627947186366e-03,5.250579202167197056e-03,1.381132483482360840e+00
-2.297048063294383075e-03,-7.343320054810519304e-01,7.845572266023952412e-01,3.814118532582352200e-02,8.908125820858747755e-04,4.212219457962307519e-03,1.317360758781433105e+00
1.136371995898685650e-02,-7.847971050125025494e-01,7.982531958817615791e-01,8.192331207647041147e-02,-5.821990438094875459e-03,3.051128287545915203e-03,1.378340125083923340e+00
9.505435183992164833e-03,-8.482491611096460993e-01,8.143634383074563887e-01,2.105661348933305504e-02,-6.390854616334109249e-03,-1.368511449285984491e-02,1.440806865692138672e+00
8.008446208025614757e-03,-7.982136040507362695e-01,8.028348707308742283e-01,1.713625257075138131e-02,-3.858356095060491882e-03,1.794095575957009581e-02,1.387242197990417480e+00
-4.073630316970008880e-02,-8.314552889665303148e-01,7.726265825397882203e-01,-3.626874865443358714e-02,-6.827761584854541432e-02,-3.935806021540259186e-02,1.397324681282043457e+00
-7.638913811168840384e-02,-8.388952655342318820e-01,7.847341729471758454e-01,1.893859978503165988e-03,-6.125698046026151200e-02,4.930287543320793081e-03,1.410993099212646484e+00
1.809414467649488878e-01,-8.999155831085025037e-01,9.770497686538426318e-02,3.015306782827310069e-03,2.158201755882611927e-01,-1.795024304023590256e-02,1.107222914695739746e+00
-7.546191353218745235e-02,-8.136184186739916502e-01,7.633163361578607642e-01,1.099679616885075248e-02,-5.029883725742102796e-02,4.800050229561732620e-03,1.369523763656616211e+00
-2.685963618238941530e-02,-8.311911866823505912e-01,9.083667174034874003e-01,3.536715130725708728e-02,-6.273110849740646047e-03,-1.980897984533784920e-02,1.509595155715942383e+00
-1.652920131439687690e-03,-8.129998782251923739e-01,8.612567612259769412e-01,3.572191703008238683e-02,-5.883272463332376960e-03,2.441794638445120985e-02,1.452149033546447754e+00
8.555529810750351488e-03,-7.873164489150240586e-01,7.965421587192388353e-01,3.826803720124617031e-02,-1.871479107622719615e-02,-5.901639486311799181e-03,1.373688578605651855e+00
-2.126159905782339793e-02,-6.790187136265605217e-01,7.847337360595543210e-01,1.090704106709366739e-01,8.542045773651658208e-03,-1.494263956144733715e-02,1.284133911132812500e+00
-2.109409625180892756e-04,-7.806469678142154978e-01,8.409567506912720702e-01,8.114070628488245784e-02,-1.576213189408751450e-02,-1.287471100529763782e-02,1.412131428718566895e+00
6.452862539641087206e-03,-8.199132323713232973e-01,8.487777990177812759e-01,5.239355142711180774e-02,-7.829003142912674060e-03,-1.480372850532560985e-02,1.448287844657897949e+00
-7.662293931872767028e-02,-8.152600875305507921e-01,7.892108793671042122e-01,7.865846622156242446e-03,-7.710749701408797611e-03,9.726288766339769021e-03,1.391200184822082520e+00
-6.576764602163137630e-02,-8.059392358573561621e-01,7.599776938931550596e-01,-4.941534056906152564e-03,-5.414335924195032290e-02,1.209942607840540883e-02,1.360224127769470215e+00
-8.931729056347416373e-02,-8.070830555120560579e-01,7.788215278125545371e-01,-4.128603239681478011e-04,-6.961665634490715737e-02,1.115332622150259044e-02,1.380900502204895020e+00
-8.257076237894830917e-02,-8.074101948491451131e-01,7.635305919160852994e-01,7.463812492699496877e-04,-1.320782024405411578e-02,-4.666581889418691849e-03,1.362041711807250977e+00
-6.613147188361530315e-02,-8.367553405033130165e-01,7.753405600439093881e-01,-1.779399055962920147e-03,-4.907920656788297697e-02,-1.669783807849362046e-03,1.399156451225280762e+00
-8.047819367693359593e-02,-8.038779941644272897e-01,7.604676464542811098e-01,-6.934275297173278767e-04,-4.821826088613465934e-03,-1.669067829608473054e-03,1.356066703796386719e+00
-5.503573145585871629e-02,-8.189750277409898471e-01,7.956357901685838785e-01,3.665663107920513232e-03,1.209862511203711917e-02,-8.974355570985182795e-04,1.399138450622558594e+00
-3.787981245979274436e-03,-8.301440310172781833e-01,6.148281270509142749e-01,2.279559493341000095e-02,5.381328953000830834e-02,-3.243955883189368616e-02,1.261011838912963867e+00
-5.114827466052637717e-02,-8.048294035516505573e-01,6.907629388408579318e-01,1.042534246863850364e-02,2.868948609327521063e-02,-1.872163614149433344e-02,1.296718478202819824e+00
-7.363699421908785625e-02,-8.129691697317008581e-01,7.356207765314537461e-01,8.825189448489567309e-03,3.416856162752499038e-02,-2.748644123197308865e-03,1.342974066734313965e+00
-6.354515196158549983e-02,-8.065593718628331077e-01,7.288277215925365038e-01,7.796169940829882246e-03,3.843378311676270975e-02,-5.509702664244484939e-03,1.331680893898010254e+00
-8.200716938120970745e-02,-8.156015115862957909e-01,7.861166754332165052e-01,9.882879646601524723e-03,4.422456598704843644e-02,-4.303206351895248576e-03,1.390994787216186523e+00
4.857643296912739217e-03,-8.365680617875030922e-01,5.053605077458466210e-01,-3.106338207261890964e-03,-2.270681583754970423e-01,3.417507690009807808e-02,1.240100383758544922e+00
-4.684103441636425919e-02,-7.971209374362001610e-01,6.254693294503184120e-01,-1.822208910449211539e-03,-1.120694067580179226e-01,-7.118541833863527638e-03,1.247871279716491699e+00
2.136242252815098719e-02,-8.327568237316591571e-01,5.018068616443809304e-01,-2.991724398188458194e-03,-1.820450689199286931e-01,2.734014159858072501e-02,1.213422417640686035e+00
2.509123855951647664e-02,-8.961504622606603077e-01,5.331595352446547587e-01,-6.425054722876286095e-03,-1.787554833909023588e-01,1.575586349864066234e-03,1.292619466781616211e+00
-4.305325366068970400e-02,-8.300532043884697453e-01,6.558340430289145706e-01,1.254766899053012807e-02,-9.575868847576393672e-02,2.822278770262355574e-02,1.299310445785522461e+00
-5.007239786107521573e-02,-5.591629822489799784e-01,7.383912902327860461e-01,6.947712910717031287e-02,-1.029498660098555375e-02,-1.953063661478204177e-02,1.139381885528564453e+00
-6.823733370764777095e-02,-5.932149139407133509e-01,7.510457636153496930e-01,6.030164748511741835e-02,-6.453975075656361200e-03,-3.297706918006698684e-02,1.179503202438354492e+00
-1.504797024450082732e-01,-4.529951449172625599e-01,8.719615072774407061e-01,6.677790407574755484e-03,6.080156269118236999e-03,-2.295821187268842767e-02,1.203341960906982422e+00
-1.110706477489525890e-01,-4.511040921356098687e-01,7.431574567555572219e-01,8.488589435146351447e-02,-2.391034263877235902e-02,-1.090633483936027763e-02,1.076793074607849121e+00
-1.346311938074002401e-01,-4.613110774094026922e-01,8.600406619493239369e-01,6.619987940908463042e-02,-1.301202523703262788e-02,-1.771869436710613033e-02,1.198176980018615723e+00
-1.208465239113619416e-01,-4.060679938836611602e-01,7.330915284600383330e-01,8.183586644403600951e-02,-3.803678199860430209e-02,-3.824069522940475030e-02,1.040644884109497070e+00
-9.671479648686949482e-02,-7.509879750114565322e-01,8.173876688804335711e-01,-4.553855208869693125e-03,-4.845923156401578565e-03,-4.357505040464219881e-03,1.364521503448486328e+00
-1.587099251547347684e-02,-8.362395405490463673e-01,6.867040746762118619e-01,-3.023153048316001151e-04,1.817052488631594118e-02,-7.590900774933113937e-02,1.327126264572143555e+00
-1.004264167051062279e-01,-6.342150250792930599e-01,8.055070323415708389e-01,1.655940281661667096e-02,-2.616201699738444908e-02,-8.023192596207559188e-03,1.261860489845275879e+00
-5.039697788676933410e-02,-7.849688448383939088e-01,8.031851989647875723e-01,4.887187815702381810e-03,-9.621049471016041715e-03,-3.801359024474122023e-02,1.378368735313415527e+00
-4.747113329721098368e-02,-8.101042224296501892e-01,7.907685063510369039e-01,-2.149466169644681512e-02,2.220447606624469453e-02,2.156510574088445122e-03,1.387949347496032715e+00
-3.360489399985545217e-02,-7.783847164412891484e-01,6.772476457110222503e-01,-8.923862859296788352e-02,7.313326351772023171e-02,6.153602953112017465e-02,1.280910968780517578e+00
-4.450017152986813357e-02,-8.307419818058164873e-01,7.790310822627138920e-01,1.123136756417049929e-02,-1.011470912985872744e-02,5.030209892882549043e-03,1.394502043724060059e+00
-7.362491254473209346e-02,-7.993082642461750709e-01,7.500288594852255741e-01,4.178722757332076557e-03,1.348011043599295919e-03,2.412779344765248347e-04,1.342680811882019043e+00
-5.826255368948646263e-02,-7.693207463095022014e-01,7.715480677672911236e-01,1.346929401682481035e-02,9.795002149240492062e-03,1.078242740886214447e-02,1.336193799972534180e+00
-7.092929802578740173e-02,-5.866669199081100405e-01,9.024836122493616886e-01,-1.865031426855385810e-01,3.871147715776878523e-02,5.095829566431181457e-02,1.353580355644226074e+00
-9.664180065466576597e-02,-5.478609743984153013e-01,8.320464013020374416e-01,-9.594451569941306324e-02,-2.814564629811046326e-02,3.291546250946030677e-02,1.232211589813232422e+00
-2.633017268325453519e-02,-8.325241991671540331e-01,8.087978334516116030e-01,-1.862133312114664860e-02,-1.169090562797982409e-02,1.195926969076326063e-02,1.422161102294921875e+00
-4.902088597151610383e-02,-6.910198970877738933e-01,8.044656414294794056e-01,-9.759915682518351121e-02,-2.631081913545452525e-02,4.953189219016783384e-02,1.313983798027038574e+00
-5.874363662133152975e-02,-6.135032432227882637e-01,7.967475570169378907e-01,-8.535060504163173578e-02,-8.047621243747757683e-03,-2.713574071245723751e-02,1.240351915359497070e+00
-5.378975775349301158e-02,-6.376756693107148433e-01,7.676043203048633634e-01,-6.932206036872790023e-02,-2.268775624354810519e-02,8.572158237701469480e-03,1.229387164115905762e+00
-5.319254351317426188e-02,-4.857018772797943029e-01,7.807916375490632221e-01,-1.267421907886047694e-01,-1.735247648774183513e-02,4.845632456010937755e-02,1.139928936958312988e+00
-1.047374400225018765e-01,-4.164020514167084963e-01,7.617443685699688549e-01,-1.115739726372769747e-01,-4.029855607240617060e-02,1.051703105592917964e-01,1.092418313026428223e+00
-1.042279310072148357e-01,-5.652927368806558439e-01,7.651398518970551343e-01,-5.636495628724293855e-02,-2.748260105466877184e-02,1.472461556171496960e-02,1.175441741943359375e+00
-4.087395003769167534e-02,-8.302729510559584414e-01,7.850339148066475259e-01,6.470584537984790108e-03,2.371902585087949829e-03,-7.796339074154498734e-03,1.399132013320922852e+00
-3.659523406472175999e-02,-8.269589243010943003e-01,7.998960385119976424e-01,-7.732488144795937211e-04,-2.873700400324339516e-03,-2.033561630248438210e-03,1.409100294113159180e+00
-3.698530313587507917e-02,-8.258305596324259090e-01,7.844256269854951169e-01,3.317536525614241637e-03,-3.545475489047735223e-03,-7.922001486276072924e-03,1.394710659980773926e+00
-3.206388576725570372e-02,-8.234250105884903803e-01,8.114336429177300136e-01,-4.867674803048025432e-03,-1.561885196066908899e-02,3.378417192869344506e-03,1.416364669799804688e+00
-3.449378065091165957e-02,-8.311788059463779410e-01,7.757411582095881109e-01,9.471249870812700755e-03,-1.127312562445884590e-02,-8.274189633818563976e-04,1.391884446144104004e+00
-6.493213324812827092e-02,-7.971409246341873978e-01,7.882316804155267143e-01,-5.859635459175458611e-02,-1.849298880926061872e-02,1.338128716154265707e-01,1.397768378257751465e+00
-5.021261182628917324e-02,-8.280125427313186348e-01,8.030520357667197962e-01,8.516517229094753725e-04,-6.967480658000829025e-03,-1.211302007450012976e-04,1.413099527359008789e+00
-6.447647618714204276e-02,-8.218415306192223824e-01,7.878946108966629058e-01,6.023640725745195088e-03,-1.429222546457730152e-03,1.017384580227692625e-02,1.395033955574035645e+00
-5.792213130251214898e-02,-8.274034071244842359e-01,8.001160015914691170e-01,8.032510140615361019e-03,-2.336067892303797522e-03,1.159739936784097078e-02,1.410385966300964355e+00
-4.626838496284657598e-02,-8.244285724684106142e-01,7.837464528818046672e-01,4.062228381483193318e-03,4.338674551930224443e-03,6.340300419490396515e-03,1.393043041229248047e+00
-3.544404025236706085e-02,-8.267494266446980822e-01,7.968262669825997291e-01,2.121111624446549333e-03,1.417429318375752843e-03,5.538252826242555729e-04,1.406214237213134766e+00
-1.853059459653697005e-02,-7.964330124631413543e-01,6.743447139316046668e-01,-6.134687905649545804e-04,1.056237465579627360e-01,8.049405957982899706e-02,1.295031189918518066e+00
2.861359510223954183e-02,-8.053438368223158061e-01,4.988086679778533927e-01,-1.727754442233461057e-02,6.414525904068833773e-02,-1.345621312854681714e-02,1.149988532066345215e+00
6.875879106806306873e-02,-8.209088307801845064e-01,4.141337953484870438e-01,8.974104228314782120e-03,6.046602331407572445e-02,5.863044233135774469e-02,1.113366007804870605e+00
8.472049490274061179e-02,-8.903480930163842899e-01,4.238565697201984728e-01,-5.815342274574955041e-03,6.216884592683891847e-02,6.389137664621453994e-02,1.191803574562072754e+00
4.718314745530460819e-02,-7.842934666520195996e-01,4.444660016951296200e-01,5.707549740230397940e-03,6.516795998906087239e-02,1.936134610130349834e-02,1.092465758323669434e+00
-1.097367407871314288e-02,-8.281797379008017934e-01,8.206603984995550771e-01,-2.753754518627661921e-02,5.934979558769354520e-03,-7.376848802455174443e-03,1.428846120834350586e+00
2.185216629354805318e-02,-7.742432892698810631e-01,7.858179376719586218e-01,1.100600751272293454e-01,-6.272448290114998560e-04,-1.047705204733485060e-03,1.364531278610229492e+00
-1.637947192981315525e-01,-2.632503734029719711e-01,8.648913676976779374e-01,2.283314953003701686e-01,2.720662151010045521e-02,-1.780310962218833309e-02,1.153244256973266602e+00
-1.420834172719178112e-01,-4.272967835246388457e-01,9.196853455184555992e-01,2.982135972436524285e-01,2.120637468652748422e-02,-3.460647863240604721e-02,1.335389971733093262e+00
-1.040801177904621400e-01,-9.666793605784542720e-01,1.091938747027742407e+00,3.237196096987224880e-01,1.857732336239613369e-01,-3.383724236817166331e-02,1.904619812965393066e+00
-1.592592103589046681e-01,-3.761212762906124829e-01,9.046285701116650868e-01,2.334170061376398542e-01,9.372090149757155916e-03,-1.651437232716719897e-02,1.254645586013793945e+00
-2.727602589569165514e-02,-6.815581211454235788e-01,8.104017910668481761e-01,2.208309402801698629e-01,-1.160204809598590694e-02,6.158431206193761519e-03,1.350808382034301758e+00
-8.632985474670473725e-02,-6.166883383723105183e-01,8.816007617659830098e-01,1.666740579945150957e-01,2.187360679473862764e-03,3.181016248772106786e-02,1.348299264907836914e+00
-8.215368927822705447e-02,-8.450259660298976572e-01,8.670572619027752115e-01,-2.470740285723035598e-02,5.173335725883804886e-02,-2.190038432020061272e-03,1.488951683044433594e+00
-8.381511168638908216e-02,-8.252379525137204519e-01,7.873990661620299258e-01,5.339289667254213355e-03,4.146901846425748300e-02,-9.665904333760466649e-03,1.400066018104553223e+00
-4.016211631398955428e-02,-8.263003994806159547e-01,8.151363640158995061e-01,5.519722271355976227e-04,4.290950315934008528e-04,-4.965680608123038131e-03,1.421972990036010742e+00
-9.240057325857813086e-02,-8.253145563864922041e-01,8.285814135657012525e-01,1.631571344900413197e-03,6.796869128457788678e-02,-1.040800383344951674e-02,1.440334558486938477e+00
-7.021415620898774357e-02,-8.238744782415555745e-01,7.797044660416309059e-01,2.530456113777054990e-03,6.137791392292217020e-03,-8.064834813602834301e-03,1.389691591262817383e+00
-4.033470024810430210e-02,-8.302572092878104382e-01,8.117084489397818903e-01,2.503762825016427659e-03,-3.134553667322751303e-03,-5.282136037099103079e-03,1.422369599342346191e+00
-4.660668637613866322e-02,-8.297292062058820861e-01,7.825409686973090473e-01,3.548653917376029445e-03,-8.909118202276722495e-05,-1.300071752662166139e-02,1.396651625633239746e+00
-4.753333041361784694e-02,-8.290766096495060244e-01,8.093437942438742594e-01,4.745266585535379451e-03,1.381671284393768719e-02,-9.867821009769232876e-03,1.419741988182067871e+00
-6.114200353203431276e-02,-7.809766952534866746e-01,8.092294809271993739e-01,-4.603620812656837656e-04,-1.437070007826992193e-02,-3.142650361790766053e-03,1.379449844360351562e+00
-7.488044247252381713e-02,-6.636076146424572109e-01,7.787495373776800456e-01,-3.307842552060368674e-02,-8.066885200085931532e-03,3.014006505656269611e-02,1.258587360382080078e+00
-3.149453068190858490e-02,-8.171507869538192637e-01,7.398070236526600452e-01,1.485818581047782840e-02,9.704485661067113050e-03,-2.418450065818034123e-02,1.349384784698486328e+00
-5.067766319278762394e-02,-8.084690246563157601e-01,8.048922678868218883e-01,-8.765219335185456956e-03,-1.129533509253686022e-02,2.343939003280604005e-02,1.398875474929809570e+00
-7.422865180388603379e-02,-6.672971120769641828e-01,7.697840900899562966e-01,-3.077151987027773941e-02,4.838121644141235925e-03,1.878772360705611988e-02,1.252443552017211914e+00
-6.315704233050829786e-02,-7.071826147592730205e-01,7.565439768203293669e-01,-3.721315353115317581e-03,-1.469946848581068187e-02,4.622917702079064328e-02,1.273455262184143066e+00
-5.800358584984902088e-02,-8.227690673823512268e-01,7.721238026025186718e-01,8.194051977698926098e-03,-2.400189525789762912e-03,2.873944938601165778e-03,1.381692409515380859e+00
-4.363694709848925379e-02,-8.184336861470740132e-01,7.726655767751543502e-01,2.275376631717368828e-02,1.072669303947104170e-02,1.634550128028360375e-02,1.379067897796630859e+00
-5.502607044367283790e-02,-7.959763382625837380e-01,7.870506719263493656e-01,-6.469838850593860428e-03,4.432792935588460506e-03,2.498545149933989809e-02,1.372623324394226074e+00
-4.249830015541001399e-02,-8.209154972623670110e-01,7.743740253238375892e-01,-1.233811285818455644e-02,8.746070626296441677e-03,6.640689245312215820e-03,1.381991147994995117e+00
-2.567117802109439295e-02,-7.472206109819059527e-01,6.143950246810079285e-01,5.652980962372990831e-02,-7.300278847162335050e-02,-3.919249112525478168e-03,1.190705180168151855e+00
-5.399480976668508819e-02,-8.322377528847590966e-01,8.209062624315828227e-01,1.487685558548690334e-02,1.665153577853779876e-02,7.702220201411836935e-03,1.433064341545104980e+00
7.830914147573808659e-04,-8.394357842067540210e-01,6.125120722450162480e-01,1.307012382430805184e-02,-7.479095926818654649e-02,-3.341306745480775164e-02,1.270751476287841797e+00
-4.867092853042803702e-02,-8.453799149914819067e-01,7.982592621416281231e-01,-4.756964006998893463e-03,-3.552598866544173783e-02,-1.996598103278878628e-02,1.425427317619323730e+00
-2.851605622965874831e-02,-8.817923133080153297e-01,8.903050943104434678e-01,3.622314326281297903e-02,-5.299690351649113951e-02,-1.683774808248694743e-02,1.539329051971435547e+00
-3.615127372059660088e-02,-8.512529474238869076e-01,8.151403485364203672e-01,2.241824356414112013e-02,-3.555255171674104320e-02,1.388965288676384004e-02,1.445287466049194336e+00
-2.305398793226156803e-02,-7.875461182416496619e-01,7.572186287655733317e-01,6.593765591366361478e-02,-5.845769267079956727e-02,-2.504230282731332354e-04,1.346507072448730469e+00
-2.881142918395275879e-02,-8.470412678945824503e-01,7.763832547311411147e-01,2.420790850421383408e-02,-3.034275862162466933e-02,2.715500103265124088e-02,1.408334136009216309e+00
-2.330589784041303680e-02,-8.914525511436374172e-01,8.004128851636017616e-01,4.672799856394163620e-02,-4.995232616206007892e-02,-1.496286465962858026e-02,1.470376729965209961e+00
2.652290523165644343e-02,-8.208498414775416974e-01,5.586376937918960950e-01,-1.309036387221213793e-01,-1.710657303864935586e-01,-1.706607677135966615e-03,1.261464476585388184e+00
-1.410877662846758696e-02,-9.451410198513866545e-01,6.698956480854165729e-01,1.140793253913712814e-02,-2.049037356141910626e-01,4.331434012399182354e-02,1.450340867042541504e+00
-4.485654539086020298e-02,-8.363959698034131307e-01,6.744335627474626893e-01,1.437712315260151509e-02,-1.027078353715334957e-01,9.568972182475992891e-03,1.321287631988525391e+00
-5.675656328116875787e-02,-8.870098869333165048e-01,8.164931634738500366e-01,4.720204235546188111e-04,-7.634169917295127727e-02,2.863523772856811297e-02,1.482177138328552246e+00
1.137005384609517389e-01,-1.358947776740752067e+00,6.763744176573306399e-01,-3.208558748997215604e-01,3.384908308727895276e-01,1.768842820288127338e-01,2.015031814575195312e+00
2.375357982997516881e-02,-9.869971910053184638e-01,6.434121009599277352e-01,-7.115493030591016344e-02,-2.297309485203386792e-01,-1.092949785053929333e-02,1.485190391540527344e+00
-3.079586009248812956e-02,-8.132466098164735646e-01,8.000493972383175834e-01,6.923441624410967173e-04,2.311082133130216293e-02,-1.461721688879339190e-02,1.398167848587036133e+00
-4.164986830616770885e-02,-8.242072524895392993e-01,8.209817631232859680e-01,-3.034115026927480200e-03,-1.770635639232741884e-04,1.145921594076721416e-02,1.425485849380493164e+00
-1.830191411321430150e-02,-8.251137329455778824e-01,8.093516466030601375e-01,-1.438570694360109294e-02,9.781043064857676203e-03,4.659935585162422456e-03,1.415870547294616699e+00
-1.808575804737545117e-02,-8.084359330758361661e-01,8.007497212854448598e-01,-1.703777083010431931e-02,7.674441901399547614e-03,1.848478531345304097e-03,1.394047856330871582e+00
-4.092366339719454016e-02,-8.260855367765472801e-01,8.204619671345231291e-01,1.024872689684107156e-03,2.649984992585465403e-03,1.014369608358186604e-02,1.426577925682067871e+00
-4.372697787547917547e-02,-8.363894862594398738e-01,8.128814930124117488e-01,2.716374158255765395e-03,-3.712971319701589227e-03,-8.284214508223347267e-06,1.428690552711486816e+00
-2.243384017332518063e-02,-8.522796108887560340e-01,8.584328679060982958e-01,-4.731817365606433984e-02,-1.771618533175177770e-02,-1.034321512042250119e-02,1.484430313110351562e+00
-3.057276780286105264e-02,-8.917264018248142188e-01,8.562660887301661861e-01,-3.001400766451909827e-02,-2.824553625041891641e-02,1.388222985236433303e-02,1.515733242034912109e+00
-7.660378889957339399e-02,-9.248927024841528954e-01,8.863020611508540814e-01,8.861102800891095671e-03,-9.736116365858686617e-02,1.256842448201038291e-02,1.578844904899597168e+00
-6.655434356906125837e-02,-8.133779721330551826e-01,8.414954967455671175e-01,-1.512919022322363471e-02,-3.953605495219352645e-02,-2.269263414467427228e-02,1.437836527824401855e+00
-1.887204798448161025e-02,-8.201143415508516110e-01,6.676431105674879296e-01,2.604184615980164458e-02,-2.233049586436413117e-02,5.131043733222472730e-02,1.294135212898254395e+00
-4.230070392321681749e-02,-7.921507180934690417e-01,7.943377640718356503e-01,-3.685171391839826144e-02,-1.759188106265339308e-02,-3.606756793274221856e-02,1.377859711647033691e+00
3.285057313450651106e-02,-8.786699617182857081e-01,4.820764376797643802e-01,-7.751296561670120711e-02,-1.080234476188072917e-01,1.103580852560161196e-01,1.237627148628234863e+00
-3.724248795172913074e-02,-8.371090106212768500e-01,7.592782124869928984e-01,1.506641848226061148e-02,-2.050460830123820855e-02,-1.937427260978950849e-02,1.383622169494628906e+00
-8.343019684264313396e-02,-8.521157501983119831e-01,8.481928060634120747e-01,6.933110937922038787e-03,-6.172029371499156147e-02,1.994795314130236741e-03,1.478684663772583008e+00
-4.340829243868606080e-02,-8.302477345097812877e-01,7.930543112004175832e-01,1.222924491044637303e-02,-9.624340615017448752e-03,-7.038366838898321362e-03,1.406350970268249512e+00
-4.799066820119736454e-02,-8.255527214442308637e-01,8.121877241014858750e-01,2.933317398582750094e-03,1.431361209779619375e-03,-8.668874237349719764e-03,1.419016957283020020e+00
-4.744387973812973919e-02,-8.189077963710130748e-01,8.118173902012691956e-01,5.595098376216369428e-03,-2.338740949272702027e-02,5.096338666428823320e-03,1.413572907447814941e+00
-4.380002353826023542e-02,-8.005194496219033562e-01,8.032496790219812999e-01,-8.466714628783468836e-04,-1.118297029430466438e-02,4.045994295592241462e-03,1.389792442321777344e+00
-2.461509156898545811e-02,-8.130680566858321523e-01,8.157905505138816071e-01,-2.693064415285159954e-02,-1.444982327101529407e-02,1.059389748595088252e-03,1.411865949630737305e+00
-1.506174663818501958e-02,-8.334160996517535613e-01,8.326162482672357923e-01,8.834281967947107484e-04,-1.973109296540127757e-03,-6.006550704658122908e-03,1.442943215370178223e+00
-5.044695362880540629e-02,-8.569133229833524323e-01,8.679276233117976247e-01,-7.224813887221028484e-03,-1.532111343818057768e-02,-5.548146058167868419e-03,1.495122432708740234e+00
-5.381975607615682722e-02,-8.400791936694763651e-01,8.743950544702251415e-01,4.707503592299260887e-03,4.457839120937390209e-03,1.002549947781932078e-02,1.486617565155029297e+00
-6.521226347072947571e-02,-8.280560817794107020e-01,8.280748823205832387e-01,-9.327841882592113670e-04,-1.306597826745035593e-02,1.046621375558194622e-02,1.436027407646179199e+00
-6.695927715001909197e-02,-8.420368938327724706e-01,8.527983150772927567e-01,3.083002797080664978e-03,-2.253192651589761702e-02,7.960369939664613606e-03,1.470144391059875488e+00
-6.929523733166544075e-02,-8.584927661280380429e-01,8.848221940055764900e-01,-3.395072249851860402e-03,1.541661049582078620e-02,-2.222880319563499789e-03,1.512257337570190430e+00
-6.616739179351603661e-02,-8.807491474790037911e-01,8.987083449483292963e-01,1.820123617708779623e-03,3.959129608655004295e-02,1.422094124691111391e-02,1.544609308242797852e+00
-6.600533779222494957e-02,-8.440225484549732649e-01,8.298599107478503711e-01,7.938055086520418935e-04,5.293015508171713263e-02,5.670216068448366391e-03,1.453749299049377441e+00
-6.693764247671540879e-02,-8.453140362786277784e-01,8.334601235843901446e-01,-6.651684633483598633e-03,6.709830395435374510e-03,2.082285185209539237e-03,1.455237150192260742e+00
-5.734100079616184092e-02,-8.517196565343729819e-01,8.445312882398592347e-01,2.792695711803097353e-03,3.161252774852905956e-02,-7.042942097544722252e-03,1.471057295799255371e+00
-7.149982479932237567e-02,-8.487464089298361047e-01,8.515623968626367946e-01,-1.591288399000377173e-03,1.838975151937709968e-02,5.509049625377600637e-04,1.474661350250244141e+00
-6.506753303378022546e-02,-8.436913407164403633e-01,8.692986983424813019e-01,1.164547435454092207e-03,5.431270801421916872e-03,4.179020056532406664e-03,1.485584020614624023e+00
-5.476937604925616321e-02,-8.168274108726027993e-01,7.518610958647296005e-01,1.379729945886945704e-02,8.944355968815774320e-04,-1.717927113714743173e-02,1.359243631362915039e+00
-6.392977633179154628e-02,-8.221971574726405496e-01,7.797245551456647439e-01,1.138034397122455327e-02,1.332870283116794653e-02,-1.283553293797016874e-02,1.388471603393554688e+00
-6.254961948436381369e-02,-8.005704498912540323e-01,7.083247076617562588e-01,8.120360364079051707e-03,4.447219534141743508e-02,-1.642485197976467984e-02,1.309497475624084473e+00
-6.571471782042702381e-02,-8.035355299840107879e-01,7.497949949135601644e-01,8.182751569752396564e-03,2.002001430708539448e-02,-3.486405553549079984e-03,1.346319198608398438e+00
-5.284132975887895212e-02,-8.250820614161054056e-01,7.776816909525084975e-01,1.573914370315061817e-02,1.253686577740726997e-02,-6.285681244501802045e-03,1.388820052146911621e+00
-4.562214210232015676e-02,-8.165771081949253496e-01,7.257920134154027814e-01,1.550882721278419238e-02,2.404537450924805822e-02,-4.093788751332160122e-04,1.336650133132934570e+00
8.254594913866802192e-03,-7.888484696997752899e-01,7.846117921686881491e-01,1.231164399279314342e-03,-1.381248771446701509e-03,-1.049314565244210138e-03,1.362701058387756348e+00
-5.220977908880607837e-02,-7.487655753421593730e-01,7.866763798878002589e-01,1.472645435875077034e-02,-2.625689423098860956e-02,-2.629499068784789048e-02,1.333433270454406738e+00
-4.934895937679156797e-02,-8.198840266885626393e-01,7.365829731483681808e-01,-1.574131501685085630e-02,-2.842574534976019182e-02,-1.821240051038822139e-02,1.349505066871643066e+00
-9.643620397862873173e-03,-7.968242585396101418e-01,6.327796326468106969e-01,9.854736857324367105e-03,4.061808280650001240e-02,-2.270040605358024030e-02,1.242920279502868652e+00
-2.397406682954308921e-02,-7.970326633655248072e-01,6.455110514028077340e-01,-1.582430666467105757e-02,6.262954308852478058e-02,5.213239071481627629e-02,1.258591771125793457e+00
-3.232529693065495230e-02,-8.229522539993241459e-01,8.097396087059320902e-01,2.533844468439174283e-02,-1.065341344771385257e-02,-2.238422783750980416e-02,1.415518760681152344e+00
-1.140740843938198856e-01,-5.335623896306141978e-01,8.001245744187748254e-01,9.833864104453012012e-02,-1.307085876878718959e-02,-8.689988831672849912e-02,1.203081011772155762e+00
-1.083591160183706298e-02,-6.953047177949277513e-01,7.811496625056614240e-01,7.257631613479550992e-02,-1.506023267957709577e-02,-1.348378218746515943e-02,1.286412000656127930e+00
-5.485176281332716786e-02,-8.169850018111451950e-01,8.210788410697537065e-01,8.447215806432305588e-03,-2.187926839083999611e-02,-4.607570145726591669e-04,1.420326828956604004e+00
-3.449955140678184068e-02,-7.059803934397591574e-01,6.625499672824787245e-01,-1.159430021568215669e-03,-2.541808718588914936e-03,6.491336897938499058e-03,1.185314178466796875e+00
-2.026872423404080248e-02,-7.626997093657229554e-01,6.346900444947285447e-01,3.404078650041083946e-03,1.681006888347869391e-02,-5.696188148320383005e-02,1.215340614318847656e+00
-3.774551989345445446e-02,-8.296301585601412176e-01,7.790015898418637397e-01,-6.344878049619314710e-03,3.111494718455266005e-03,5.491811080566868369e-03,1.393257617950439453e+00
-4.479059409905323391e-02,-8.620751160157367199e-01,7.643855203703425749e-01,-1.566632322943257299e-02,4.771156093732104031e-02,2.822331326800266507e-02,1.412091493606567383e+00
-6.808100173433538627e-02,-5.945668516252666791e-01,8.121492460143279191e-01,1.351407371701032201e-01,4.326312299599936045e-02,-1.272359188475024327e-01,1.274516582489013672e+00
-7.413809437397696211e-02,-5.818172533200192120e-01,7.062528708703211811e-01,7.410848623850108119e-02,3.213928700523096139e-03,-6.262690971978682186e-02,1.136314272880554199e+00
-3.753997157601417223e-02,-7.945422629786875746e-01,7.657853021208681499e-01,9.227122465418553798e-02,8.677364935529065584e-03,-5.754196505409835821e-02,1.364626049995422363e+00
1.132715255752715644e-02,-7.941430643783180532e-01,7.857484010470391356e-01,3.418564816482557583e-02,-1.948188089228601290e-03,1.360654775021959140e-03,1.369600892066955566e+00
-6.914629421360428407e-02,-8.159217591164645844e-01,7.807146118376849797e-01,1.578190133423838315e-03,1.867722402775206722e-02,-1.311233768896331343e-02,1.384255170822143555e+00
-6.905487025124512623e-02,-5.252270985866045461e-01,7.786650599152218355e-01,1.354813265523525656e-01,-1.863663644896396132e-02,-3.510251872015826557e-02,1.171850085258483887e+00
-4.931508552110730470e-02,-8.393596576803984410e-01,8.101393825860122577e-01,-3.769009861872976447e-03,-5.855226660023844440e-03,-1.817310170708934768e-03,1.428983926773071289e+00
2.915898867133919457e-03,-7.510722850294861974e-01,7.745234440199683101e-01,3.186522918616638278e-02,-1.658443619232274208e-02,4.654629947699885119e-03,1.322722792625427246e+00
-1.545756652702962725e-02,-7.647562487973040835e-01,7.938902574729757022e-01,-2.096621581270981596e-02,-2.448482239764704707e-02,1.453267854377467312e-02,1.351549625396728516e+00
1.765544241687427851e-02,-8.101795776288392981e-01,7.999782497760260513e-01,-3.124575185128089169e-02,-7.824034734907442737e-03,1.529277027884929155e-02,1.395990014076232910e+00
-2.029427034306441335e-02,-8.869065811653485953e-01,7.511996181814614149e-01,-2.025554436624216886e-02,9.455420891523060034e-02,-1.877954422851078192e-02,1.429655909538269043e+00
-7.691501227281377639e-03,-6.188240055984004506e-01,7.456224440274250576e-01,-8.261841235428668551e-02,3.865774035663195260e-03,-5.900354482011311956e-03,1.192462205886840820e+00
1.400372465638359543e-02,-7.851733825124648236e-01,8.055262119211494820e-01,-5.275663643212766957e-02,5.220984418582480871e-03,-4.771876059278181738e-03,1.380673170089721680e+00
2.449907666659007291e-02,-8.022922953001634383e-01,7.838355893680025721e-01,-3.926855930911622716e-02,-4.598106573061092744e-03,-5.070118538548697585e-04,1.375746726989746094e+00
-4.757225753379051847e-02,-8.336310948935644616e-01,8.087533564592164215e-01,4.071589681603148513e-03,1.141321517232903732e-02,-4.915133930622516897e-03,1.422960758209228516e+00
-4.786675647580898585e-02,-8.352863893607116452e-01,8.146450936957201350e-01,9.148888596632193939e-04,7.653612007555844580e-03,-1.816592539985040959e-03,1.429441571235656738e+00
-5.124855202660624776e-02,-8.049949793078482463e-01,8.150818960599599539e-01,-6.558474517412683997e-04,1.223294574272501198e-02,7.653839855971406557e-03,1.404379367828369141e+00
-3.520333473268225100e-02,-8.276087279451354028e-01,7.605450063325043253e-01,6.070503173008114442e-03,1.039734720171102932e-03,5.715341399932508636e-03,1.375459432601928711e+00
-4.721548243677482770e-02,-8.329709636543204399e-01,7.791816230628464401e-01,-3.643505354534576184e-03,1.189263104887385751e-03,-2.315468698619416003e-03,1.396334528923034668e+00
-4.398697240636607886e-02,-6.700037615222975695e-01,6.508826759996862998e-01,-8.126579993019455994e-02,-1.093175629140465642e-02,-4.919760663660478761e-02,1.156361937522888184e+00
-2.881669928358692595e-02,-8.309902117328121784e-01,7.688900227932321529e-01,1.255590972058453526e-02,-5.759015299091872937e-03,3.969362152146660438e-05,1.385745286941528320e+00
-4.772152235529851516e-02,-8.260481062184533707e-01,8.063067283595239942e-01,1.775375107334457771e-03,6.406250985108091073e-03,1.528429025106361853e-03,1.414216756820678711e+00
-5.892897165535949944e-02,-8.094459138939480436e-01,8.061338229933540100e-01,-2.159438367919660953e-03,9.708235841678378858e-03,-8.349378656109070901e-03,1.400485396385192871e+00
-2.096353803220014217e-02,-7.362317794711182861e-01,6.792220527901521310e-01,-6.284794237626557811e-02,5.245380675921585550e-02,3.497220550586726401e-02,1.235500693321228027e+00
-6.680659898536661645e-02,-8.227720359798688099e-01,7.981422923545055115e-01,6.768033318560371346e-03,1.043780171264811242e-02,-1.123155770849576171e-02,1.405110120773315430e+00
-4.648900762584139146e-02,-8.310142147672636703e-01,8.147131851507920519e-01,1.469795575000206822e-03,9.018011780762164378e-03,-4.336337576249126545e-03,1.425864934921264648e+00
-3.380674209852414791e-02,-8.063294163419267857e-01,7.155997417032988750e-01,-6.158883750558623261e-04,-2.808012465540887879e-03,-7.960042207568031325e-02,1.325280427932739258e+00
-6.988393715158136565e-02,-7.348794346438564107e-01,7.184214799640710192e-01,1.026149812858889862e-03,-1.915790842873799299e-03,-1.916890376607946478e-01,1.303116321563720703e+00
-2.529902271444600670e-02,-8.349788720663779973e-01,7.659571065377978050e-01,-3.013287109954851124e-03,5.488883474298112894e-03,-1.407546801919790959e-02,1.386738538742065430e+00
-3.458936457617121929e-02,-8.266320714013557502e-01,7.614176576779172478e-01,6.101517775299066144e-03,-8.822817073495343651e-03,1.070254018961343647e-03,1.375419616699218750e+00
-1.628317940471660924e-02,-8.329957422108229537e-01,7.089789454196382401e-01,-1.090114391408481855e-02,-4.264769231436536454e-03,5.545538580510819826e-02,1.339773178100585938e+00
-6.494975676874434334e-02,-7.877744313909988971e-01,7.925392823404996401e-01,1.996970437476300233e-03,3.772864864354835332e-04,-1.016902525715248501e-02,1.370364904403686523e+00
-3.992880670851006730e-02,-8.369816596010156706e-01,7.722828116654456565e-01,4.243921992287989081e-03,3.064956819466474903e-03,-1.585708814377341860e-02,1.393984556198120117e+00
-5.945747144165233755e-02,-7.855924590445103606e-01,7.697269682917666778e-01,-3.103576287824026474e-04,2.292589972532265048e-03,-1.816277815371071698e-03,1.347940921783447266e+00
-3.163366712160357863e-02,-7.999974319891496322e-01,8.040341974330602604e-01,-1.070785434076971208e-02,-2.216719199211030639e-02,9.397089975456518474e-03,1.390289068222045898e+00
-1.525271937754831691e-02,-7.532333252577708693e-01,7.854554163967190084e-01,-8.716434428235041512e-03,-2.001368563688569330e-02,-2.173559015489674468e-03,1.333454012870788574e+00
1.985932699527982997e-03,-7.813717906110896338e-01,7.874855291296209980e-01,-2.358833509523952654e-02,-3.110299952758152717e-03,4.129569087615024212e-03,1.359314322471618652e+00
-1.338581318488678285e-02,-6.399147969337549702e-01,7.563010468554051124e-01,-7.880199935932405420e-02,-2.041261248909980938e-02,1.264238003331981039e-02,1.219650030136108398e+00
-1.758987821590959205e-02,-8.226501638461500843e-01,8.051537280755272086e-01,-3.206996858311217825e-03,-1.598350994581120010e-02,6.950457090746622185e-03,1.410081386566162109e+00
-3.326975727509643571e-02,-8.009247107760468776e-01,8.116156525873574612e-01,-1.009935922111401992e-02,-2.641666301223219090e-02,1.757172545073902928e-02,1.398224472999572754e+00
-4.511250959024645096e-02,-8.252237685417503910e-01,8.008030041883552608e-01,9.746165511150851890e-03,-6.231096967381932576e-03,-1.432725780278025496e-02,1.408925890922546387e+00
-4.469445453014632419e-02,-8.240440919898481820e-01,7.973460154469675931e-01,7.084722401232261720e-03,-5.356887609587341822e-03,-3.566242577553267647e-03,1.404612660408020020e+00
-5.207603710990735268e-02,-6.873770970660142421e-01,8.017052279984139274e-01,-9.033168615407215218e-02,-1.336251531262340649e-02,1.515442935529129733e-03,1.303832769393920898e+00
-4.933516309101478037e-02,-8.221204828250161523e-01,8.012009529922803353e-01,3.502080799494839986e-03,9.467688518804272257e-03,-6.926824893693252910e-03,1.406534910202026367e+00
-3.595320912529141599e-02,-8.287534540421789275e-01,7.910834251407380391e-01,4.296894715270123399e-03,-9.074249191427701325e-03,-3.012293208052187980e-03,1.403041839599609375e+00
-3.232513857954900233e-02,-8.178829533844068633e-01,7.836523597257094575e-01,-3.955309080299923563e-03,5.134043287499254031e-03,-7.174698831662808252e-03,1.387154698371887207e+00
-3.670548928923592774e-02,-8.199303504740617088e-01,7.243876041882857386e-01,3.873877174468465679e-03,3.214269870821248598e-02,-2.769322112337369609e-04,1.338639497756958008e+00
-5.055838244962809758e-02,-8.255256577397211970e-01,7.724669278872925426e-01,1.685838688208982777e-02,1.064569060617185509e-02,-1.106692081017370335e-02,1.384674191474914551e+00
-4.389405981259454637e-02,-8.097910855616305970e-01,6.900238537222838087e-01,1.014914159498577460e-02,-1.261219647336863647e-01,6.409568231803468297e-02,1.322003483772277832e+00
-3.742513383549098127e-02,-8.546248504881586161e-01,6.942872826316259793e-01,3.037388682698680814e-02,-8.535242923962903239e-02,4.338147315824261024e-02,1.353307962417602539e+00
-3.286132331143594432e-02,-8.214965197779365846e-01,7.425733349398582206e-01,1.495604572295103352e-02,1.675905971096905683e-03,1.758941166786066532e-02,1.355133652687072754e+00
-4.285649792505152877e-02,-8.002823792926734292e-01,7.676263454238035910e-01,-1.641255399680046842e-02,-3.828719741893923251e-02,5.785367887854344325e-03,1.360060095787048340e+00
1.893592597389920362e-02,-8.848773784199059911e-01,6.227867767310663050e-01,-2.062740093093203345e-02,-7.673383852101720026e-02,-8.481195461290114146e-02,1.329587459564208984e+00
8.107262550621177621e-03,-8.998180929696872887e-01,5.499485014716102294e-01,2.660607111096903975e-03,-2.111691184588695702e-01,6.596687272104169442e-02,1.325415015220642090e+00
-2.069849605980446025e-02,-8.316328378183518444e-01,6.972458195014642479e-01,-1.528066862405024580e-03,-3.576946524906024494e-02,6.096413047383932894e-03,1.326356291770935059e+00
-9.583118591305062051e-03,-8.372363092938468476e-01,5.846830824671241933e-01,1.522206352546595122e-02,-9.831083809500325288e-02,5.430736877244329158e-02,1.252416253089904785e+00
-1.422567829759442681e-02,-8.180005928819790162e-01,6.464434993679172292e-01,1.664039348351459193e-03,-5.885203941554848633e-02,7.135910649335666482e-03,1.274409294128417969e+00
1.005119306110405751e-02,-7.869524422583449308e-01,7.887858862552634687e-01,9.437739806786320587e-03,6.814464211657694954e-03,5.700552067475861927e-03,1.364844679832458496e+00
1.417830434070305526e-02,-7.955042750038492372e-01,8.027444032216681791e-01,3.716063440685907909e-02,-1.014589473851392962e-02,-1.091160464716896955e-02,1.385900139808654785e+00
-5.885992435562450303e-04,-7.625979395777228165e-01,7.906833788306177890e-01,3.047982965447064777e-02,2.126324162919494831e-02,1.586724870153777625e-02,1.347080111503601074e+00
-4.207053864230105023e-02,-7.161069982554199020e-01,8.074946646282287199e-01,6.446896144008634755e-02,1.610921958429346185e-02,3.905568432676298496e-02,1.329115271568298340e+00
-7.901382676863535903e-03,-6.496729752779139000e-01,8.689290307436341454e-01,1.773547059027703321e-01,1.314695508780866842e-02,9.913443963665286018e-02,1.366672158241271973e+00
-9.546093666590003968e-03,-6.554009491941958920e-01,7.586725298783859595e-01,7.437059236362243697e-02,8.211539901053709414e-03,7.767599118170101340e-03,1.233054041862487793e+00
-1.538996406630891989e-01,-3.523049457933348227e-01,7.898566423406746528e-01,5.161654252379721530e-02,7.037968503699718568e-03,1.262020386013085887e-02,1.061087250709533691e+00
-1.906614459025400832e-01,-2.445473882590040726e-01,8.594871309122135150e-01,1.021412302884277222e-02,1.998358141375092614e-02,-1.407089596718407581e-02,1.079077839851379395e+00
-1.706092794869062956e-01,-9.008560581935443068e-03,8.046235692694515551e-01,6.684302054669105653e-02,-2.479638582207557146e-02,-8.244184247188839076e-02,9.247886538505554199e-01
-1.498123189368666952e-01,-1.799965801094995377e-01,7.795561175070160331e-01,1.128735346034927950e-01,8.196071233519328092e-02,-1.185956977869473128e-01,9.966232180595397949e-01
-9.440687812022055536e-02,-5.914868087040250355e-01,7.839680074251864639e-01,-1.545507690587214489e-01,2.199051346608156543e-02,-6.464400444302768542e-03,1.236320137977600098e+00
-1.308426522972937489e-01,-3.791387565049356145e-01,7.410828459677196722e-01,-8.853477247869361022e-02,-1.057954287615935247e-02,-1.024725498328998494e-02,1.030808806419372559e+00
-1.203385671788235745e-01,-3.485239219356426887e-01,7.186614025426719676e-01,-5.460170093182867973e-02,1.460217392083550288e-02,-1.097298235415631457e-02,9.784589409828186035e-01
-1.415495265239574696e-01,-4.609769887202062044e-01,8.054073677420491295e-01,-9.945035747969165063e-02,-1.249932284513357618e-02,-9.082247628455679400e-02,1.164530515670776367e+00
-1.360814444710024829e-01,-5.438111046654227065e-01,7.875745997164054213e-01,-1.044583306026383163e-01,-1.006880003693543142e-02,-1.165594302014395511e-01,1.212346076965332031e+00
-9.470716459449926572e-02,-5.408135181173613359e-01,7.862819668720831823e-01,-8.182838034785354375e-02,1.181816867880862432e-02,-1.056025803008849295e-01,1.192530870437622070e+00
-6.988525199165811219e-03,-8.246602842976460401e-01,6.592682889088015141e-01,-6.947377491426612317e-03,-4.927391779010380918e-02,5.027201945172367695e-03,1.290259242057800293e+00
3.078319966826004173e-03,-8.754375870216328792e-01,7.046466484401089359e-01,8.932463749078621909e-03,3.580375911416508461e-03,4.786187038750408518e-02,1.373854875564575195e+00
-6.875354462256305643e-02,-6.992603421999638025e-01,7.365259692008643277e-01,1.626585476624797452e-02,1.410760337300607202e-02,-1.281262746728873969e-01,1.266644358634948730e+00
-2.400224875393404400e-02,-7.645495798908751306e-01,6.359236976712130396e-01,-3.014030867509971678e-02,-2.639163900889962555e-02,1.453248066542051596e-02,1.215757966041564941e+00
-6.965974228726269646e-02,-8.534489177775185231e-01,7.800578105571568388e-01,8.931121923283508873e-04,4.692680350796504113e-02,-1.312137407137315727e-02,1.417557835578918457e+00
-6.779785031965214308e-04,-8.048164520489170526e-01,7.956900745923883855e-01,-4.062838383632837343e-03,1.034652208604701709e-02,-5.092197539449412787e-03,1.386246562004089355e+00
-7.669211125929764616e-02,-8.244865702217872849e-01,7.472823629881595320e-01,2.478915051193954829e-03,6.261768886068437567e-02,-7.839286967245602186e-03,1.366111159324645996e+00
-6.848522003147290704e-02,-8.144160998605592949e-01,7.303952394227748446e-01,-3.303835163075099189e-03,3.693261857622155003e-02,-9.049787905460357192e-04,1.339649081230163574e+00
-8.531541393103986293e-02,-8.175230592619142644e-01,7.663946709264847224e-01,1.287582871798280057e-03,1.346813544400892182e-01,1.810904144296487939e-02,1.393044352531433105e+00
-6.255564697983494182e-02,-8.753497719092313556e-01,7.580100371253348790e-01,6.917199349154778618e-03,1.275756089863204767e-01,-2.145363947418153783e-02,1.432223558425903320e+00
-7.344676288023638255e-02,-8.002424376184030796e-01,7.269265278016373566e-01,6.768354680219266411e-04,3.960238906855876456e-02,3.421681935348119905e-04,1.324856162071228027e+00
-8.369310555442022181e-02,-5.376978056667188755e-01,7.671801231240095165e-01,-1.136447390256134504e-01,2.441489209379921199e-02,-2.124275814125083789e-02,1.165458440780639648e+00
-5.409954850336547161e-02,-6.181838032373061509e-01,7.702933521007169215e-01,-4.155629438705489564e-02,2.559407697807075319e-02,-1.950031611364294939e-02,1.212900876998901367e+00
-4.931048769542832610e-02,-6.101110553040302031e-01,7.604120889128702654e-01,-5.027832657076983236e-02,2.142540588491059078e-02,2.472766198726100619e-03,1.197171688079833984e+00
-5.324881646172222732e-02,-8.316149506676792091e-01,8.122197978263241414e-01,-3.254308781881988435e-03,-6.083770238562192199e-03,-6.607938790216726956e-03,1.424364805221557617e+00
1.583064527365497520e-01,-8.865498149108431702e-01,2.470250478652161741e-01,-4.539058423166884675e-03,-1.903131137173932549e-02,-1.058846315130109461e-01,1.107735037803649902e+00
1.459751543012101083e-01,-9.097406008427981750e-01,3.089336727710016439e-01,-1.288783748189193182e-02,8.950425871309287962e-02,4.366537233232724996e-02,1.159042835235595703e+00
2.253307568343361211e-01,-9.304228828733419610e-01,3.022144279335237105e-02,-3.001038165120478371e-02,-6.599715113684866130e-03,1.595469296381637481e-01,1.107941389083862305e+00
2.696902842560956470e-01,-1.348517149253801062e+00,1.737060171820368204e-01,7.632931465064572707e-02,-7.045419669410406260e-02,-3.037570655632596244e-03,1.582682371139526367e+00
2.131411476424977525e-01,-9.351326546182658905e-01,6.546209240120959283e-02,-2.046329605454650855e-02,-8.828491381822024808e-02,1.694815026662488677e-01,1.132067441940307617e+00
2.377301591394468394e-01,-9.780266798313191901e-01,2.689047911492270515e-03,-4.526844507800194956e-02,3.977818137400154774e-02,-1.790486038502037691e-01,1.163884043693542480e+00
-4.482974074752402172e-02,-8.342799283022613865e-01,8.076188757405844409e-01,5.490354203187780210e-03,4.935261642441597131e-03,-1.351345132103353537e-03,1.422334313392639160e+00
1.605225970326961127e-01,-1.459518000074674360e+00,3.461597970476186781e-01,2.133282716251008390e-02,5.868954693024923397e-02,1.789683533416778771e-01,1.751433730125427246e+00
-4.718554578327800036e-02,-7.785866452056020570e-01,8.325710399094582437e-01,-6.401318707848371869e-02,2.388665188388161553e-02,-9.601198357257806348e-02,1.412102580070495605e+00
-4.020184941147828678e-02,-7.256434308416331858e-01,8.112091474678462255e-01,-9.912445202172925907e-02,2.206303466846333897e-02,-3.837120620600075610e-02,1.346728563308715820e+00
-5.890331701325825925e-03,-7.448853136875487335e-01,7.805997936746977839e-01,-2.429017306923879696e-02,1.598238894655693715e-02,-1.546705385874872808e-02,1.322553038597106934e+00
-3.735754878298646470e-03,-7.678174808500670689e-01,8.323761971431818951e-01,-8.786342697890395237e-02,4.182374511976549684e-03,-1.705701797821634891e-02,1.394936323165893555e+00
-1.669912250637856435e-02,-8.022674905431694814e-01,8.356670444538227827e-01,-1.331530451105474300e-01,1.344878518577345434e-03,-3.836607524188555274e-02,1.439044117927551270e+00
-6.769239560814036515e-03,-7.918525843518098295e-01,7.899845081057728091e-01,-3.826637204754376048e-02,1.514076747856094897e-02,-2.755443037412123874e-02,1.372606635093688965e+00
5.716091825334902385e-03,-8.001492761623235639e-01,8.051056501409205035e-01,-5.590941895549125795e-02,-4.931281707605419604e-03,-3.835178650428036368e-03,1.393605947494506836e+00
-4.675252931176612781e-03,-6.369725500326286483e-01,7.969817600365988186e-01,9.023784566073440871e-02,-8.148405774701125356e-03,-2.138410048606358832e-02,1.255125164985656738e+00
-1.250603692014586737e-02,-6.536112707208636685e-01,7.932873821214646570e-01,7.732242105437049651e-02,1.916252855957632437e-02,2.753128934998399016e-02,1.264210820198059082e+00
-2.271019844835533291e-02,-8.859365254480606744e-01,8.577781641350873398e-01,2.483363693818373130e-02,1.584536576905880637e-02,3.667088319908327898e-02,1.512321949005126953e+00
-9.201597612155304473e-03,-7.860567076138490483e-01,8.355256628942051567e-01,9.546178945396413540e-02,-3.369507546270147924e-02,-2.089479101878428599e-02,1.416105031967163086e+00
2.339284656884578831e-02,-8.004280913024892641e-01,7.910100582801165015e-01,4.110140327159569201e-02,9.195077331735301840e-03,1.522869074908032947e-03,1.380443692207336426e+00
-5.199629907723708755e-02,-1.040054265955846047e+00,1.104021392325994499e+00,-6.968386331384612831e-02,1.051692233107235676e-02,-3.530403747786366869e-02,1.863729119300842285e+00
-3.457517423684274005e-02,-8.196791872445980953e-01,8.055390747450170696e-01,3.388993575934079808e-03,-4.173506632768104628e-04,1.826622718575495515e-03,1.407765030860900879e+00
-3.125014664949011395e-02,-8.296181642705010573e-01,8.133744901799889737e-01,-7.891358124255940833e-04,7.910171585821855131e-03,2.318764158322141923e-03,1.423133611679077148e+00
-3.233488238065274772e-02,-9.646800259512021691e-01,9.594101892571769152e-01,-1.863159258740617330e-01,-2.074588367112613352e-01,-3.222268930456140441e-03,1.735155344009399414e+00
-5.045906309133853240e-02,-8.234292913519801749e-01,7.889973706525241770e-01,-4.067751610056744038e-04,-2.973601614549316145e-03,2.843124116894913712e-03,1.396816492080688477e+00
-2.827373837267330159e-02,-8.260319274105124565e-01,8.171828321022924779e-01,-1.470221930756838123e-02,1.204091130159491013e-02,-4.688512300539340524e-03,1.423669219017028809e+00
-3.870223565693474421e-02,-8.261703975427699964e-01,7.785492901176493952e-01,3.445741000210637058e-03,1.130127412529406856e-02,-5.555690895379388101e-04,1.389958739280700684e+00
-1.810659347495209570e-02,-1.116477930084109227e+00,1.139535919691532229e+00,-1.905419220219617682e-01,-1.011253779182247521e-02,-4.257535620396311199e-02,1.983113884925842285e+00
-1.558531349881470685e-01,-1.892103488594940042e-01,8.732440442445639217e-01,1.008899897404102880e-01,1.148282719360875503e-01,-1.379043133328428372e-01,1.105272531509399414e+00
-6.568586846203626484e-02,-8.229427916065407134e-01,7.888439851678631376e-01,4.548860365216598231e-04,-4.477216950565509127e-03,1.616517913380555692e-03,1.396719932556152344e+00
-4.614528930635149878e-02,-8.232337932513279499e-01,7.902284468545459628e-01,1.022514103762697845e-03,4.689012134967373430e-03,8.407500763134814065e-03,1.397714257240295410e+00
-8.959174313175854998e-02,-8.884915396347861094e-01,1.058723961595537499e+00,-2.824618228139895160e-01,5.969257508579471627e-02,1.212008635757652782e-02,1.767694354057312012e+00
8.323487652149491600e-02,-7.731131299992417549e-01,3.763085034369189064e-01,1.943465949677612714e-03,2.748693509307249556e-03,1.223631480724404925e-03,1.034521937370300293e+00
-4.884541909518820557e-02,-8.298991865283431579e-01,8.044971543130785552e-01,5.854683667473081429e-03,-9.926531956195716946e-03,-3.847175538723832458e-03,1.416046500205993652e+00
-4.426627713136573744e-02,-1.515085860332544998e+00,1.264422660463679238e+00,4.397571434223566944e-02,2.363298034673242398e-01,3.559658957218722608e-02,2.444990873336791992e+00
-7.589221257465515735e-02,-7.933486954755117893e-01,8.217824429150096810e-01,-3.851316384214357406e-03,-1.263530914963073310e-03,-7.462731079112014908e-03,1.401721239089965820e+00
-7.090962973810473191e-02,-7.196849776006235544e-01,7.843539565103837541e-01,-3.693980487865368423e-02,8.207672847751486256e-03,-3.699745066962693840e-02,1.309832572937011719e+00
-1.324477603388945351e-02,-8.395423237390688964e-01,6.875356836686120632e-01,2.993495560532660749e-03,-2.911966078048262851e-02,3.278994050892587026e-02,1.326163768768310547e+00
-1.740475894401334947e-02,-7.917695344316350026e-01,7.082950955316670294e-01,2.400494414613800844e-04,3.049880266508045706e-03,2.710002696257371620e-03,1.299341201782226562e+00
-3.867069975017815159e-02,-7.861611586566873422e-01,7.139963284392352172e-01,-5.781486366755339383e-03,6.977925779044229140e-04,6.164699646889311262e-03,1.299260139465332031e+00
-4.198117861116288513e-02,-8.184157895212867961e-01,7.850913628237737862e-01,-2.631594819745674239e-03,-2.648026252612480785e-03,-3.572668729687327252e-03,1.388937592506408691e+00
-4.527554919746993450e-02,-8.171311314054103825e-01,7.932431909111496982e-01,2.640251450603398053e-03,1.068643500614771535e-02,1.027936608417652324e-03,1.395154714584350586e+00
-3.123078350763132741e-02,-8.692900087459225489e-01,7.190928339593314345e-01,-3.807721663097400622e-02,-5.373979919129906468e-02,-1.641423238429828152e-02,1.381291508674621582e+00
-3.917915459291870794e-02,-8.332336453350899230e-01,7.999791085274440272e-01,-3.320643725904535775e-05,-1.073508989045503627e-03,-1.288215014056204874e-03,1.414586544036865234e+00
3.044820734230546666e-02,-8.055085818455548496e-01,4.602375383745853643e-01,-1.170065497263526183e-02,-2.023255201462055564e-02,-1.855079816618416047e-03,1.115561366081237793e+00
2.139364926353504864e-02,-8.058954992807689788e-01,8.043192838617442275e-01,4.909901817845309380e-02,-5.521067036690259500e-03,4.642312689628134113e-03,1.397309541702270508e+00
3.432541385768896058e-02,-8.013436873429047314e-01,5.237503721706049387e-01,-1.235801400928642976e-02,-3.921348142503023118e-03,-9.208397295133398733e-03,1.160877108573913574e+00
-7.147950272747109757e-02,-1.503404537696934273e+00,1.384635482783082461e+00,3.522086059545097292e-02,2.690398863694969944e-01,-1.284195887303056852e-02,2.545012950897216797e+00
-4.215281233933119293e-02,-7.503535937553881263e-01,8.223761019684123763e-01,5.139108984490533411e-02,1.842164567181048609e-02,1.760017141042117053e-02,1.367877602577209473e+00
-3.628711363449498711e-02,-8.275337914834527409e-01,8.306032053557608208e-01,2.169846742798701641e-02,2.677637021368766898e-02,3.947839559460581023e-03,1.437742829322814941e+00
-1.417029220694659974e-02,-7.740971136999816871e-01,7.980259071237685298e-01,2.357421872790472356e-02,-2.616243599918357046e-02,-2.030836680887987064e-02,1.363568544387817383e+00
3.306541129306800331e-02,-7.811306846643547575e-01,5.057996228326443466e-01,-5.101648490011157812e-03,9.784392958372406870e-03,-2.361058991361232769e-03,1.127684950828552246e+00
-5.267984689360379058e-02,-8.245296401566838407e-01,8.018890523532543613e-01,-4.053557571762145067e-04,-2.970390162973733303e-03,9.320727538759664491e-03,1.409229040145874023e+00
-5.315279198893325951e-02,-8.226697853875967192e-01,7.650633624403647692e-01,1.020973931923319436e-02,-8.354115997833318208e-03,1.074064569595710103e-02,1.375548481941223145e+00
-7.866994932524694339e-02,-5.815908212540686906e-01,7.653941035715737806e-01,5.471342134078856223e-03,-1.860643217339934263e-02,1.156280712395820615e-02,1.179576396942138672e+00
-3.889667880549547985e-02,-8.577137916092655301e-01,8.454590329365532231e-01,3.240944574269440798e-02,1.735904073243325560e-02,5.053792657645804660e-03,1.476754546165466309e+00
-3.135229520914589035e-02,-6.550955109944427424e-01,7.562157058389736841e-01,-7.467655586012776625e-03,-1.149241313964768918e-02,-3.578624868011105135e-03,1.225218772888183594e+00
-4.016907299807909171e-02,-8.391679148073158956e-01,8.531188121698390914e-01,1.891052716160713382e-02,2.653194791676629499e-02,-2.718541885625885661e-03,1.467414498329162598e+00
-7.117525836484814294e-02,-9.053902871513335171e-01,1.019704303673498513e+00,1.342871430121351795e-01,2.690668369133806803e-01,6.598400388982500475e-02,1.755082011222839355e+00
-1.880483546428830116e-02,-8.369566599875870594e-01,8.280717309281812044e-01,2.029058053240774193e-02,3.802333912907318939e-03,6.023520085627329101e-03,1.442509412765502930e+00
-2.448134055290394212e-02,-8.586628843387246190e-01,7.423937892526533133e-01,1.358737254110655990e-01,2.530749834936570353e-01,5.151263219671061572e-02,1.476196408271789551e+00
-5.941893712182143988e-02,-8.257131915276632039e-01,8.133504688255148718e-01,7.102637620043284914e-04,4.446261590799015576e-03,2.904668819878620297e-03,1.420499086380004883e+00
-5.270292849227978249e-02,-9.326846279017861896e-01,8.517022108742137165e-01,8.721153920277674443e-02,1.412450345388899242e-01,-2.238476600825942825e-02,1.572370052337646484e+00
-5.520168437584729859e-02,-8.240764637805785275e-01,7.590130165411701491e-01,1.321031828697028301e-02,3.095761971115013208e-04,7.557168292513415792e-03,1.371436595916748047e+00
-4.976345182647549936e-02,-8.283079839407624378e-01,8.030805443598387772e-01,2.959492929675005581e-03,3.542459651717874951e-03,2.439322117265011781e-03,1.413341164588928223e+00
-6.650734671336688830e-02,-8.216341008281078384e-01,7.930128591905994950e-01,-1.126657428486606966e-02,-2.792628971442089048e-02,-2.061421519773924682e-02,1.400725960731506348e+00
-5.713790922180121690e-02,-8.204521839784606474e-01,7.382193188077444956e-01,-2.078272218487073678e-02,-3.404128016703136111e-02,-2.088961898100984149e-02,1.352194786071777344e+00
-2.485063068243170692e-03,-8.395315409472469126e-01,5.313347637141159208e-01,-5.260214698010539161e-03,-1.752036383861332869e-01,-1.327941226737729304e-02,1.234966993331909180e+00
-3.508389691674710514e-02,-8.412804564186037171e-01,6.171403806743648301e-01,-1.813378411480592693e-03,-1.660088342521455762e-01,-1.517366948136989781e-02,1.297901272773742676e+00
-4.080077423987173851e-02,-8.281985964295475178e-01,7.754969796788281355e-01,3.483956816687560753e-03,-6.964585267832492863e-03,-8.969865061747763629e-04,1.388982653617858887e+00
-5.342029763574344253e-02,-9.352949992255370493e-01,7.912410522524827572e-01,2.912147321275196463e-03,-1.228229994286577226e-01,-4.665398333758843247e-02,1.512565016746520996e+00
-2.635840941935496673e-02,-9.282853203315657442e-01,6.806139089245037965e-01,8.795444292959924901e-03,-1.259483943079936497e-01,-4.811205959706326557e-02,1.416221976280212402e+00
-5.514126841740574214e-02,-8.210211605466382068e-01,7.370902663250806786e-01,-5.488279236784972259e-03,-5.388496184274440409e-02,-1.336146275886522169e-02,1.352883458137512207e+00
-4.814677274913349569e-02,-8.203571205925723753e-01,6.874662696739745060e-01,-1.074215755058143158e-02,-7.745697478326354912e-02,-1.284247660845078132e-02,1.313134789466857910e+00
-7.921157615039367550e-02,-8.493190281834411826e-01,8.328613184518602885e-01,-3.645775790878623846e-03,-6.574707584475768252e-02,-9.564733732223468232e-03,1.463085412979125977e+00
-4.523878315501540792e-02,-8.262171890326192036e-01,7.757853050413753282e-01,1.200162018207631513e-02,-3.058195256847152585e-03,3.056159649231280414e-03,1.387695193290710449e+00
-5.519424605309753568e-02,-8.250475586270247241e-01,7.881482498051922692e-01,3.833368811551586975e-03,-4.003378175319387625e-03,5.589289506679110016e-03,1.397618174552917480e+00
-5.069358056233440324e-02,-6.471487865214383683e-01,7.730035529243357573e-01,4.717475259878502886e-02,2.285706570135851226e-02,1.986085824803846336e-02,1.238935589790344238e+00
-5.456039755045283268e-02,-8.183896479329128004e-01,7.698192458394979010e-01,-5.715596011949561871e-03,-1.503125488812387389e-03,-2.115600820103557579e-03,1.375805377960205078e+00
-3.212210510529317498e-02,-8.295497290158745374e-01,8.178644369638645717e-01,2.660475331089280984e-02,8.175319629210408071e-03,1.111928161565062592e-02,1.427888512611389160e+00
-6.429702672045416179e-02,-8.215929376557944419e-01,7.609961523636470382e-01,5.651917063630487389e-03,-1.884800417588925608e-02,1.244729440890982898e-02,1.371577024459838867e+00
4.601777831269504224e-04,-8.060024280116583340e-01,7.923105583850225120e-01,1.863391203736037768e-02,8.061393268118352204e-03,6.588748051560897978e-05,1.384645581245422363e+00
-2.797342666949516332e-02,-8.059150473975005280e-01,8.010333385110803839e-01,1.913951419646313682e-03,-1.599027291812341045e-02,-3.244579964978666891e-03,1.392183184623718262e+00
-3.170301834108472244e-02,-8.054992030048494511e-01,7.950074958442904238e-01,-1.098992449952296627e-02,-8.130468165794490186e-04,8.081939442554820704e-03,1.386533975601196289e+00
-4.405907106803741424e-02,-6.554249365772946145e-01,8.452652725146855284e-01,2.244065349637539564e-01,3.391987418019037914e-02,9.071405235779884599e-03,1.364969611167907715e+00
1.600211760983009934e-02,-6.757379956584903535e-01,7.669259779734719507e-01,1.074795587791571999e-01,2.702512237624770243e-04,2.242561166130839359e-06,1.263523221015930176e+00
-3.891573282505031428e-02,-7.034345349901327538e-01,7.780543969709867724e-01,-6.396995376472026235e-03,-2.260172654945562590e-02,-5.741253744524825453e-03,1.285951614379882812e+00
-5.596746130189256610e-03,-7.689675245683951221e-01,7.882967660541250199e-01,4.043071215618611325e-02,2.410085978994051803e-02,2.697737865873375135e-02,1.351986289024353027e+00
2.403112028356878607e-02,-7.983145383851510957e-01,7.869425987473608330e-01,4.204254060653415948e-02,2.055519711224440896e-02,2.885831469508061062e-02,1.376492619514465332e+00
-2.644026170783020380e-04,-7.334331296534986055e-01,7.894061822443260157e-01,3.325488628632358723e-02,-1.847639037643641208e-02,-1.804515316191195734e-02,1.321134567260742188e+00
-5.702942593818328271e-02,-8.497990678941090836e-01,7.513197702813390055e-01,1.367026408786461977e-02,-8.521903927309798510e-02,1.945447586205919371e-02,1.395073413848876953e+00
-8.752683091663965298e-02,-4.960853229051735980e-01,7.315029203071287123e-01,1.275760203362366618e-02,1.118434461027381643e-02,-6.354509088220649041e-03,1.083206415176391602e+00
-8.933968965368173365e-02,-8.525749996780103146e-01,8.387534857477241257e-01,8.452479892386245350e-03,-8.926222977893603916e-02,2.145213490731140080e-02,1.475715637207031250e+00
-4.115288334234621509e-02,-8.287148681809788364e-01,7.336869029678929621e-01,-3.562007555846195134e-02,-1.032144872706501487e-01,-1.810802825732929977e-03,1.366250634193420410e+00
-3.436562959027981284e-02,-8.067850012887278766e-01,6.633731928245707454e-01,7.954571652040068330e-03,1.008970722717315721e-01,-2.468201896074594115e-02,1.286458849906921387e+00
-1.710241480729260410e-02,-7.981431890694000719e-01,6.864388048951644006e-01,1.419499621665809390e-02,-1.623562933038239647e-02,2.168159152726947467e-02,1.287359595298767090e+00
-6.391444071458966814e-02,-8.105150878054777630e-01,7.580844293289654701e-01,6.222132936797719269e-03,2.282330195058765443e-02,9.331084062143844881e-04,1.359588503837585449e+00
-6.490650802766007033e-02,-8.455830699693382968e-01,8.373469472914389922e-01,-2.810752354151821713e-03,-4.057251534672912802e-02,3.187723630821643131e-03,1.460437536239624023e+00
-8.018897895039014956e-02,-8.017079077138128396e-01,7.531173842314631273e-01,-9.108888281702645683e-04,8.519928265924578761e-04,-1.170700638648759090e-03,1.347681045532226562e+00
-6.453652333697182386e-02,-8.728689238579422360e-01,8.489215711477975379e-01,-1.342060626067190406e-02,-3.734646592301697071e-02,-4.319865120652009727e-02,1.495495796203613281e+00
3.051240226519294843e-03,-7.898533500284679043e-01,7.903003753414016286e-01,-1.359644881657811472e-02,-1.225229917499105932e-02,7.543127126918135889e-03,1.368885636329650879e+00
-3.281643755047704281e-02,-8.383131689668174014e-01,7.831650738911754006e-01,8.298515555832474896e-03,-2.627919791712306653e-03,7.948703194193086630e-03,1.404399514198303223e+00
-8.801294232296694164e-02,-8.664939449137734062e-01,9.057333271343593895e-01,-7.010097564772517671e-03,2.802304577587577325e-02,3.707189183281418311e-03,1.539389967918395996e+00
-7.088900632184787221e-02,-8.378008446491431727e-01,7.798874419153711823e-01,-3.826618966413446285e-04,-4.343015524831527613e-02,-9.337121322485092759e-03,1.403697013854980469e+00
3.974774454823466578e-03,-7.729631168567436816e-01,7.816488605027436254e-01,9.481153401472408246e-03,-1.022905611403733886e-02,2.647756396059176582e-03,1.346558094024658203e+00
-3.097892389018576387e-02,-8.388707230738965404e-01,8.640255069683272504e-01,-3.776480074076097454e-02,5.523792195477968039e-04,2.367838102269316167e-02,1.477413415908813477e+00
5.358905257802032071e-03,-8.143475123741449329e-01,8.208240268957381902e-01,-1.676555981808520307e-02,4.887967898238463650e-03,-8.110965511935021646e-03,1.416494369506835938e+00
-1.199065355398496249e-03,-7.723333173293829290e-01,8.129440307662582077e-01,-8.958062174984281201e-02,-3.530010807278885498e-02,4.131010857312179124e-02,1.384999155998229980e+00
1.038320703964638880e-03,-6.953279770605523824e-01,8.134617080182097171e-01,-1.886472649838475124e-01,-8.938680793660889676e-03,3.130022725766813934e-03,1.348233819007873535e+00
-8.759548947573708721e-02,-8.149054605406613749e-01,8.124262855853603416e-01,3.165852893489244646e-03,2.025530014693937425e-02,1.386101312844900636e-04,1.412400364875793457e+00
-5.670222936745890341e-02,-7.967629001776401765e-01,7.776271043540581296e-01,-7.925486897580723972e-03,3.767805590395637699e-03,3.512523598019307719e-02,1.365716695785522461e+00
-5.961076152071397710e-02,-8.272826395944694600e-01,8.115596539136092913e-01,3.610658525603681335e-03,9.376322844300224654e-03,1.022282662078461291e-03,1.420329928398132324e+00
-8.201333848999370346e-02,-8.019787277853314134e-01,7.650234982690902186e-01,-9.724038826032484553e-04,8.386689378628030961e-03,-2.205036980957521871e-03,1.358634352684020996e+00
-2.019260588567478240e-02,-8.328418727145768807e-01,7.195651859813407825e-01,2.001469220618961112e-03,1.837672223049317561e-03,1.886004518804263244e-02,1.345322728157043457e+00
2.436506136075085038e-01,-1.571029648505550824e+00,2.923386738244285743e-01,1.737852390362462987e-02,2.156575061362386164e-02,3.490982884795261476e-02,1.841126203536987305e+00
-1.435267262587482801e-02,-8.049348752284684050e-01,7.987734680251440400e-01,-4.090668360352415871e-03,-1.522270375339647430e-03,5.103977137221716621e-03,1.388946652412414551e+00
-1.030885899378181092e-02,-8.629296549126799221e-01,8.160504435834667891e-01,-1.097370071803006608e-01,5.255160681787388738e-02,-4.320901473237961921e-02,1.471195340156555176e+00
1.048043151401346212e-02,-6.807793899166483254e-01,8.114325128355108774e-01,-1.661177770419470512e-01,1.321782618757388721e-02,-2.050918698329655052e-02,1.325745701789855957e+00
-9.007898636865430478e-03,-8.181554000351942690e-01,8.390468087953989462e-01,-5.209160789791322799e-02,5.183928954173752136e-03,2.588475929898374425e-02,1.438870787620544434e+00
-7.938065896270614374e-03,-8.294742733277901126e-01,6.870781272156124553e-01,-7.084382007597750733e-03,1.530078092680465444e-04,-5.253578142702764603e-03,1.314984321594238281e+00
-4.606423407035017958e-02,-8.244556916470551222e-01,8.112683452854622113e-01,6.283174974394054035e-04,9.627926526632303930e-03,-5.733377392768537750e-03,1.417261719703674316e+00
9.691968755242197364e-02,-8.672156383093081455e-01,3.436446915831138371e-01,-1.409589498564775382e-02,-6.868054894925867959e-02,3.097389823901905079e-02,1.116213083267211914e+00
8.261200831354698071e-02,-8.543893427417481590e-01,4.288986177703218994e-01,-1.365093173731810917e-02,-1.823115452183927607e-02,-8.637050443076106643e-02,1.160298585891723633e+00
-1.309893579183262213e-01,-7.154392413648205107e-01,8.434626186510315593e-01,6.879656503468525863e-02,2.580324092138758241e-02,-6.105838406375928284e-02,1.374058723449707031e+00
-1.218153009099443573e-01,-4.346813056397732522e-01,7.455343841963543161e-01,5.889784929580044182e-02,-2.456290791788229982e-02,-3.838371280682367770e-02,1.066855907440185547e+00
-1.279637634612264541e-01,-5.396725166313680599e-01,8.621203594648690904e-01,1.089977522451281294e-01,-2.000671825778043908e-02,-1.142291718740101741e-01,1.278039216995239258e+00
2.738305576815176431e-02,-7.809142424890480605e-01,7.736012321802991920e-01,4.507510357374204177e-03,-1.213588896193592897e-03,-5.410351455318478976e-04,1.346632242202758789e+00
-1.146379393693813808e-01,-5.974986762745390090e-01,7.518759678172841632e-01,1.221075187522678851e-01,4.563436673121085141e-02,-1.318110746984302029e-01,1.226991057395935059e+00
-3.897908221003526519e-02,-8.366680475861670852e-01,8.120604593161381279e-01,-1.740986425581910130e-03,-4.373460155878089103e-03,-2.509964188607394621e-04,1.428113222122192383e+00
-1.028543113982213764e-01,-2.168519257701803093e-01,6.242029933685644405e-01,1.206421284017257373e-01,1.847114659902005518e-01,-5.886342732870117334e-02,8.836876153945922852e-01
-1.620631831048388316e-01,-1.162414983650932598e-01,5.216102872508858734e-01,-2.566143625931594646e-03,-5.360956692106558924e-02,-1.970911070465863890e-02,6.693198084831237793e-01
-1.581915532521270262e-01,-1.198776852988753250e-01,8.249647109462798777e-01,1.222580818806380254e-01,3.509108491493256182e-02,6.791898311313004921e-02,9.963784217834472656e-01
-1.352782560620004737e-01,-3.823569900707077251e-01,7.428021426942658101e-01,2.415002465573892407e-02,-1.308637206008049156e-02,-3.753606343482011193e-02,1.027384281158447266e+00
-1.737268969960904241e-01,-3.598304063571272082e-01,7.542888397262109690e-01,1.986749534701656716e-02,3.323498355614636079e-02,2.261001274380285316e-03,1.035889863967895508e+00
-1.709444826987790989e-01,-2.454310763933711947e-01,7.580144363065852708e-01,-2.592930926894442337e-02,6.907087596228010662e-03,-1.333926113776509048e-01,9.966186881065368652e-01
-4.522704733654776821e-02,-8.335468814892519340e-01,8.041695321726727297e-01,3.192409868253674472e-03,1.645780643483577086e-03,2.009887805313601960e-03,1.418650627136230469e+00
-3.274299965906317389e-02,-8.243749269926698986e-01,8.099777236614364995e-01,-2.777540294769944781e-03,-1.842193560583032901e-03,4.638997755117037214e-03,1.415655970573425293e+00
-2.246350822286077506e-02,-8.034560896146337727e-01,6.887397885786415985e-01,-1.809708021868057168e-02,4.019606839025429562e-02,1.103376872385889579e-02,1.295144319534301758e+00
-5.526307891700387581e-02,-8.181293294702147723e-01,8.295122545367465960e-01,-2.260844408118065432e-02,-9.393547786418108073e-03,7.745848837799795307e-03,1.428893208503723145e+00
-4.928132553265490712e-02,-8.219006964567737716e-01,7.703316983487936698e-01,9.451454553823636015e-03,2.124227183615475488e-03,9.861562087390275504e-04,1.379217028617858887e+00
-3.183800499596403655e-02,-8.349511862505110127e-01,8.084279391344939558e-01,-2.786290702953672562e-03,-1.847996759208662704e-03,-2.941353158867762545e-03,1.423350214958190918e+00
-5.363391296005022568e-02,-8.253982634501685345e-01,7.520544888087032920e-01,1.916254470571257182e-02,2.133616622646164127e-02,-2.796613126489965254e-02,1.367980003356933594e+00
-6.639778345520566671e-02,-8.183881687325260668e-01,7.924131765428050755e-01,1.928270195053583631e-04,1.437798257591450801e-02,8.817437479216275187e-03,1.396322607994079590e+00
-5.103447489687568117e-02,-7.937226379227443340e-01,6.634639760467219149e-01,4.988786401657859144e-03,3.980533765718078515e-02,2.160250624590688041e-03,1.263956189155578613e+00
-5.746658246665281577e-02,-7.945988571989989202e-01,8.128315886800496770e-01,-3.300468662201074335e-03,-1.583110613724884180e-02,1.213315285283445358e-02,1.394106864929199219e+00
-2.926518661029551410e-02,-8.342745834109616121e-01,7.787014277194396206e-01,3.498572021540271876e-03,-2.857531770023381129e-02,2.519051840674637558e-03,1.397775530815124512e+00
-6.743412281765000238e-02,-7.107445148897983955e-01,7.651100060795150704e-01,-1.594665255718751354e-02,-1.341383455071698538e-02,3.318973553541376686e-02,1.283421039581298828e+00
-1.394997791594249081e-02,-8.557186314827716078e-01,6.774090557118868094e-01,1.094769854528640507e-02,4.317115155112735865e-03,-5.798966333637475823e-02,1.333799123764038086e+00
-4.237791581192459911e-02,-8.021086726421370328e-01,7.698597114865828317e-01,-7.348601964375475921e-03,7.168786561852352746e-03,6.476224951590041183e-04,1.361734271049499512e+00
-3.284955332665170924e-02,-8.297474374209596881e-01,7.988934271956202871e-01,-2.280899597207307773e-03,-3.194058345741580384e-03,-1.248453234815885982e-03,1.410570025444030762e+00
-5.841988022563275595e-02,-8.235665475603113350e-01,7.995082321614840337e-01,-1.026757968276548671e-03,2.319620315409843419e-04,7.165848242663408300e-03,1.406445264816284180e+00
2.401223356932487285e-02,-8.500337996633138271e-01,5.870603605616380172e-01,-4.168497635814952945e-03,-4.016871951787798212e-02,-8.553828173476751839e-02,1.264892339706420898e+00
-4.500315110404058683e-02,-8.331457563624159457e-01,8.063708178162201090e-01,3.665415916699080678e-04,1.430551315377694783e-04,-3.514694161900280573e-04,1.420215249061584473e+00
4.114060733136520875e-02,-7.789478738019162130e-01,4.662958989842284074e-01,-4.710805450398793982e-03,-3.868044112094966291e-02,3.063586013389230783e-03,1.098430871963500977e+00
-3.232602570359181804e-02,-8.491584441083233070e-01,6.959513316807287575e-01,1.148556486730887838e-01,-4.515208341552671284e-02,9.981642856350021482e-04,1.355794310569763184e+00
-1.929860823845018503e-03,-7.992861098589512103e-01,6.161212560418333206e-01,4.629953694558154587e-02,-1.244494366678419034e-01,-5.612454034977890083e-02,1.254159092903137207e+00
-4.208835720969002908e-02,-8.016253950680175544e-01,8.167057282487011349e-01,-1.839983068637083326e-03,4.684836946952161685e-02,5.918232144928184738e-03,1.404780864715576172e+00
-7.275165944629780057e-02,-6.577203491408653013e-01,6.227570591151501134e-01,-6.115343758637780932e-04,7.985290770588329701e-02,4.982994170462135691e-02,1.122208237648010254e+00
-5.992417182587560232e-02,-7.952366824365227904e-01,8.352353910940178983e-01,4.012758706066007347e-02,1.769787839530392566e-03,-7.555346080474330435e-03,1.416060924530029297e+00
-5.237497070976850078e-02,-8.242884425966452433e-01,8.066352728814552009e-01,-2.175931717200413080e-03,1.573257687570878138e-02,5.854471696818071107e-03,1.413396716117858887e+00
-5.265694200145161485e-02,-8.228399620996807995e-01,7.862761321873483755e-01,-7.444868469323970305e-05,2.255162060660519802e-03,-1.725333731413412810e-03,1.393967986106872559e+00
-4.049135566319470719e-02,-9.496850935383048808e-01,1.049569881905166646e+00,1.538874280612219925e-01,2.712287296017425534e-02,1.094691678314567082e-02,1.754865884780883789e+00
6.745589015422304158e-02,-7.917702058268396570e-01,4.901568520166970089e-01,-1.275595109508165757e-02,5.095772007209927595e-02,-1.209158861972684483e-02,1.135278820991516113e+00
-8.790649438738300236e-02,-8.290496574862347146e-01,8.188720118883487942e-01,-6.413743416281967626e-04,2.151136076046319262e-02,-5.366105622871787488e-03,1.430059075355529785e+00
-4.880192926073540632e-02,-7.871355301066969012e-01,7.977454976666733533e-01,1.322395748840500020e-02,1.331471091779206500e-02,6.177268662613990234e-03,1.374039411544799805e+00
-4.712800969050869038e-02,-7.138745627188290976e-01,7.742176102273822247e-01,-6.509270283400060697e-02,-1.832289042044924973e-02,4.993455027591032352e-02,1.299225807189941406e+00
-2.781005915815801949e-02,-7.259711469937748518e-01,6.834002845645412716e-01,-6.311435629549369541e-02,4.390167208710268887e-02,-1.273143003256418937e-02,1.228009343147277832e+00
-7.297772747035259633e-02,-6.948992215651309534e-01,7.911674167312263695e-01,-1.593517578728229078e-02,-1.985641278460779230e-02,-1.770554883849039234e-03,1.293413162231445312e+00
-1.178938175138234401e-01,-4.948212136557116336e-01,8.279684558202649036e-01,-1.169298635880305220e-01,-2.790036918685778397e-02,1.151901467871956353e-01,1.215076327323913574e+00
-8.058912060013254108e-02,-8.019731811517929465e-01,7.585640967734879059e-01,-1.671938789498061907e-04,3.312068604992676659e-03,3.031903757052606873e-04,1.352759480476379395e+00
4.200946040894945610e-02,-7.922972689719957051e-01,4.910815438522220244e-01,1.493139119049948166e-03,2.739827056279691558e-02,-9.465394184538147154e-03,1.129125714302062988e+00
-1.204404724244683145e-01,-4.310515145233327905e-01,7.538063860718253739e-01,-7.538910311186947100e-02,-3.290529266303117949e-03,-3.550409220522037293e-03,1.072127938270568848e+00
-1.041970699639968578e-01,-5.817290463847805126e-01,7.771626284573017740e-01,-1.192936079718038000e-01,-1.155271411917864130e-02,4.433537497494378921e-02,1.214372038841247559e+00
-9.027868045462239532e-04,-7.967114517452155154e-01,5.497523775516107714e-01,1.164536946278822011e-02,5.556142506481961951e-02,-1.402554351992072595e-02,1.176863193511962891e+00
-4.822019502326413409e-02,-7.287636953232412562e-01,8.302026001786546594e-01,-9.742872097335666948e-02,-1.790771058094730792e-02,4.902524426362334792e-02,1.367194414138793945e+00
-1.049140721128058590e-01,-6.730896906388735834e-01,8.041297689249826686e-01,-1.039744512021426037e-01,-3.157912626837797946e-03,1.736986610828742950e-01,1.337406635284423828e+00
-5.414622986838134311e-02,-8.245110906645696236e-01,7.951038194322769259e-01,4.965621270103206435e-04,8.058285897068579243e-03,-8.619618608269525792e-03,1.403331160545349121e+00
-4.242885645189673621e-02,-8.370429560915283451e-01,7.808664218172176597e-01,4.857521092529382654e-03,-2.922946519575368891e-03,7.663926646658682923e-03,1.401321291923522949e+00
-4.798515134278262539e-02,-8.147057321438208044e-01,6.303590744282875358e-01,-7.806388983861383898e-03,-1.105342169791697776e-01,-9.084830943034247382e-04,1.266866445541381836e+00
5.617054583485228680e-03,-7.979586533340936594e-01,5.423507621953060909e-01,-1.238749727437806793e-02,5.719618692798763421e-02,1.846315543607618750e-02,1.173209428787231445e+00
-4.799045527333618832e-02,-8.039684969417899563e-01,6.738246197872642673e-01,4.005585354340311199e-04,-5.682753889117263257e-02,-1.878698711060802730e-03,1.283703804016113281e+00
-7.680098665401255409e-02,-8.003178368633070416e-01,7.516830794955998707e-01,-5.065577035317459171e-04,1.323447118497467212e-03,-8.764560607250008323e-04,1.345099568367004395e+00
-4.222747762670958638e-02,-1.016871057476657070e+00,8.133061377043649953e-01,-1.932638433538769185e-02,-2.298706651417172508e-01,8.296982921907569697e-02,1.641950726509094238e+00
-2.619461478627452267e-02,-7.951860260514408418e-01,6.437978896592799760e-01,-7.340891466243499967e-03,9.743592247141203908e-03,-2.594750092324842050e-03,1.247366428375244141e+00
-1.024419316283928238e-02,-8.355343458288235770e-01,6.050786913996090144e-01,3.247552701115459864e-03,-7.763459473567167757e-02,-2.299334151728395573e-02,1.259859204292297363e+00
-6.878364792266972172e-02,-8.149851410752970704e-01,7.261934380417902624e-01,-7.316478122948848542e-03,-7.969311679813419202e-02,-1.180380243751340957e-02,1.342255473136901855e+00
9.823891745120116176e-03,-7.985087119630174257e-01,7.906659091483636548e-01,-4.745223014420618148e-03,9.298032352719618615e-03,-3.823425980746826720e-03,1.376468896865844727e+00
-5.259209070587259928e-03,-7.820283362836126795e-01,7.937239409894741859e-01,-2.549211959355828644e-02,1.903869087781375272e-02,-1.570295549031570231e-02,1.366069674491882324e+00
-2.127098194746663423e-02,-8.206648985681530561e-01,7.993154924897404312e-01,-9.978900884696995099e-03,1.605264846073926541e-02,-1.632184687260998870e-02,1.403650879859924316e+00
-1.681889849665501105e-02,-7.798387890563606151e-01,7.958581884405611095e-01,-1.368847600412718100e-02,2.655657675290335612e-02,-1.544823012670577464e-02,1.366062283515930176e+00
-2.705720889809727636e-02,-7.196832657814919987e-01,7.727711616761919755e-01,-3.893868861247239826e-02,2.118425466733373473e-03,-1.046759251310772770e-02,1.295503377914428711e+00
-3.752727124570538753e-02,-7.368546945244063284e-01,7.034938795499739994e-01,-4.666051272071521788e-02,-1.781450581388995674e-02,-5.100093928349649919e-02,1.253664493560791016e+00
-6.191421390798475255e-02,-1.185117561482242010e+00,1.207468916226003275e+00,1.468552451906404988e-01,1.399257464368718409e-02,-1.319717796517642060e-02,2.089139461517333984e+00
-4.264183425210249512e-02,-8.338512586049775521e-01,8.102727944349322753e-01,7.197000655705624184e-04,-2.640116668093779270e-04,-1.005930252912837089e-03,1.424189090728759766e+00
-4.443728856259809151e-02,-1.079509633473278551e+00,1.173369307518393079e+00,1.407258554096453840e-01,-2.473463835480340378e-01,-3.312245086175632375e-02,2.015239238739013672e+00
-8.663297632833627526e-02,-8.151061574061586601e-01,7.782210232182634746e-01,2.272092661288806128e-03,1.738336559281866700e-02,-8.391247114352082606e-03,1.381955742835998535e+00
-4.021245683817665367e-02,-8.230049326284164524e-01,8.088862907865184138e-01,1.796781181742915972e-04,7.024100374063322119e-03,4.745995670437414167e-04,1.413700699806213379e+00
-1.355279825364005819e-01,-1.020793146661924888e+00,1.478676163215035810e+00,2.447122704837741969e-01,-1.049843008291582169e-01,-1.563791188732682191e-01,2.259298324584960938e+00
-7.687355671342205321e-02,-1.370993689760482637e+00,1.339654565887994142e+00,1.268737593322818991e-01,-2.267597915907968720e-01,-5.855625207251795306e-02,2.393176555633544922e+00
5.955291758397504576e-02,-9.111636202457507050e-01,4.661758904418530358e-01,-7.164329652274630672e-03,1.275486784217248759e-01,4.995079525231359979e-02,1.248516559600830078e+00
-8.460514188540826930e-02,-4.477508188195966632e-01,5.431872341856142095e-01,1.343691846036589865e-01,-1.113405539563782076e-01,5.108216607457736341e-02,9.236675500869750977e-01
-1.212170379275730736e-01,-4.556606277298322905e-01,8.935252413425242013e-01,1.240755544616092970e-01,-1.140904218000148018e-01,3.518305642251307042e-02,1.252946972846984863e+00
-8.413180997307603826e-02,-5.117827394340396241e-01,7.297134040600179450e-01,6.866656077415360382e-02,-4.444672686458634066e-03,9.743290879200708354e-02,1.111735224723815918e+00
-4.359823453072099453e-02,-8.341352653210956092e-01,8.134626154975724832e-01,1.938186054305894579e-03,-3.100115918568826113e-03,-1.711893599908789884e-03,1.427266359329223633e+00
-1.000389373573838392e-01,-6.054572584595968587e-01,7.944376285977418073e-01,1.050117574885091332e-01,1.606112150576372716e-02,3.364716418510147605e-02,1.242929458618164062e+00
-5.947536526253076328e-02,-9.321073053080606297e-01,8.789940906561589662e-01,3.029327466331566132e-02,9.789231998980864324e-02,-4.317686264991897616e-02,1.580583572387695312e+00
-1.311084871771422689e-01,-2.337703113841524960e-01,6.989226713397610480e-01,7.767865378277230386e-03,8.337172270865174373e-02,-6.601712271954891798e-02,9.048823118209838867e-01
3.270201869273398065e-02,-8.072910310819231272e-01,8.031636103233933399e-01,-4.959709244051902638e-02,-7.102210896694183609e-03,7.896685614377153828e-03,1.397891163825988770e+00
2.305662648218037569e-02,-8.057295540657428701e-01,5.471002331719820866e-01,1.858392863790691088e-02,6.482162534783282408e-03,-4.913045102764818789e-02,1.185002923011779785e+00
-4.970889678482041940e-02,-8.309511314741756527e-01,9.502283259051361730e-01,6.343934591260415312e-02,2.157939866359244105e-02,-4.288642619214523555e-02,1.552544832229614258e+00
-4.647906371958578781e-02,-8.373830161124012905e-01,8.138353652402008365e-01,9.936393781832366170e-04,-3.665064550282199577e-03,3.904140077857791992e-06,1.430433273315429688e+00
-2.249879025845616387e-02,-6.813702414705982147e-01,8.520767046619723839e-01,1.125094449999313601e-01,9.630465795448059363e-03,2.049824602509439306e-02,1.347123026847839355e+00
-5.622554526758311022e-02,-8.226216891042241741e-01,7.729974913645891732e-01,5.969203503161215132e-03,2.534347828300764850e-05,1.655194308822272899e-03,1.382245421409606934e+00
-3.548576787544306665e-02,-8.103011186814924605e-01,6.960558194435886303e-01,1.500320139165325396e-02,1.714423079803349768e-03,4.051894666660029592e-03,1.305003762245178223e+00
-1.134620711619046401e-02,-9.902837789667509050e-01,9.563077815052856145e-01,1.416673870953843728e-01,-4.173246124866763357e-02,4.838009651675867669e-03,1.705124616622924805e+00
1.602992962355131654e-02,-8.308444061943377479e-01,8.393674571736567946e-01,8.014779976328237354e-02,1.784868565003793969e-02,2.727445001199551959e-03,1.453476309776306152e+00
-4.672331599848615624e-02,-8.217394426300579369e-01,8.209355752557416785e-01,3.389713900755871728e-03,-1.844921981449796494e-02,-5.124504863057191030e-03,1.423750638961791992e+00
-3.672565558052540147e-02,-7.094997519604959724e-01,9.805887724019242135e-01,9.777508445561342021e-02,3.328813666036316288e-02,-5.441726936938258430e-02,1.487569928169250488e+00
-8.823132623119379903e-03,-8.836742580988832252e-01,9.326361193162014951e-01,1.562536422473110032e-01,2.018490216059658574e-02,-7.578778771249936042e-02,1.602200388908386230e+00
-2.565931368928776879e-02,-8.016732902289688267e-01,6.397262506668249804e-01,1.206525597848168152e-02,4.459888598387564719e-03,3.803686454188094819e-03,1.249729514122009277e+00
-1.030443913681797913e-01,-6.602778338384828194e-01,8.165456114580628144e-01,-3.874751856933460192e-02,-3.545846850888768800e-03,4.745442291366333554e-02,1.296101331710815430e+00
8.801684089045724857e-02,-6.385941489017964434e-01,1.835399939897726651e-01,1.174141949879551339e-01,-8.998070655919686300e-02,4.125707083149592752e-02,8.229523897171020508e-01
-1.029039814590423652e-01,-2.921322525073224985e-01,6.376414111378807537e-01,5.548905308224809374e-02,-3.781341803724358464e-02,1.368342639173948105e-01,8.910917043685913086e-01
4.604981899605647966e-04,-6.457888957528598040e-01,4.390698702275112053e-01,1.317200819979495209e-02,-1.024604175529841427e-01,1.609290758190015658e-01,1.001587152481079102e+00
-4.440666566134472693e-02,-8.371842735383338008e-01,7.957653870673749852e-01,9.691938929281388587e-03,-6.175672277349263453e-03,4.626682744953136521e-03,1.414537191390991211e+00
-9.719165699814294457e-02,-4.049758491193314325e-01,6.737779667250112237e-01,5.893773606789688008e-02,3.230190637272930577e-03,-8.782446248820144352e-03,9.680398702621459961e-01
4.731199275777975277e-02,-8.961721194894638476e-01,5.706019622502692679e-01,2.259609155005437131e-04,-2.074988958019472959e-02,-9.382212167336857755e-02,1.298233389854431152e+00
-4.426462873308534274e-02,-8.304772412104506341e-01,7.957992104755085006e-01,9.672879550736377405e-04,1.958695773300280461e-03,-4.759028330385121387e-03,1.408683300018310547e+00
-3.559082309170699676e-02,-8.001720711849663603e-01,7.341250956237821423e-01,-1.225015568066909616e-02,-8.898644943257904769e-03,-1.091403802362610372e-02,1.329136013984680176e+00
-2.725700600930466497e-02,-8.348059766594789766e-01,7.692740859724952474e-01,-2.670039327335787735e-03,-5.292274025926703082e-03,1.782808612836013842e-02,1.389566063880920410e+00
-7.066294472394725468e-02,-6.816438130134284679e-01,7.302369305319452719e-01,8.504974092238014316e-02,-6.398943482303924568e-02,7.078692450991955210e-02,1.246230125427246094e+00
-3.903555647740739043e-03,-8.835902850872381364e-01,6.813852154927081406e-01,2.141612232604919036e-02,-2.898138248201787351e-02,-1.194746334383527467e-02,1.360379695892333984e+00
-5.480854154762115904e-02,-7.376187305647329273e-01,6.927051887508625105e-01,-1.235460686511767256e-02,-9.916031245930111843e-03,-4.116712049733776274e-02,1.241472363471984863e+00
-3.610311410547155375e-02,-8.062850640614339648e-01,7.405404996430610121e-01,7.295556194341012816e-03,-2.992489275302565380e-02,-1.142709748496974730e-02,1.340802073478698730e+00
2.487469891207218231e-02,-7.165865043042878302e-01,7.557396538205559677e-01,-4.598918653770041332e-02,-2.667078649138596852e-03,1.914716283948183877e-03,1.277581214904785156e+00
-2.023734239472540358e-02,-7.277738101267856585e-01,7.845228499276141187e-01,-1.026772982642198545e-01,4.022487048849279767e-02,-1.647021051897811644e-02,1.324741363525390625e+00
-4.265064558176079323e-02,-5.208071778832304988e-01,7.218864397199883376e-01,-1.208761580005225517e-01,1.589446122620739301e-03,4.097157859561663396e-02,1.107969164848327637e+00
-2.854277268693233838e-02,-6.075783746336551605e-01,8.477960501474295363e-01,-1.538778889687293649e-01,-1.740173172603213386e-02,9.695582329435344093e-02,1.307986378669738770e+00
-3.850972786083037280e-02,-5.491369954883306148e-01,8.724936248716188558e-01,-1.859910867497860942e-01,-1.394847616807545765e-02,5.821045813159767685e-02,1.292430877685546875e+00
-2.653966137866867192e-02,-7.055271672416386641e-01,7.791951744289515869e-01,-4.199993109422607562e-02,-2.898979615808791425e-03,-5.032022633235004941e-03,1.289461016654968262e+00
-3.204789448060303692e-02,-7.639830869278158021e-01,8.525284812241292753e-01,-1.287815666161031825e-01,2.828703754695564496e-02,4.804210594867226736e-02,1.422932147979736328e+00
-2.487591721150132079e-02,-6.504860143985904397e-01,7.705235969367452142e-01,-1.376480821507523322e-01,1.708396578948383204e-02,2.110118620576273765e-02,1.257263183593750000e+00
-4.322108927444067578e-03,-7.851002331302200377e-01,8.093253813923949602e-01,-3.592473986175502565e-02,9.267910905761742382e-03,-7.488628507408908938e-03,1.382466077804565430e+00
-1.518343750159902028e-02,-6.466451684383748288e-01,7.927581254600479799e-01,-7.358848676048246329e-02,-2.994958811158289491e-02,5.094784845449432803e-02,1.260325908660888672e+00
-7.092213701551372540e-02,-9.593202303300620848e-01,9.554390415906057754e-01,4.243336462227959363e-03,-5.361718115026441189e-03,1.920590820975682025e-02,1.660039901733398438e+00
-9.577213489032464222e-02,-9.560293182899847197e-01,1.012341279594110688e+00,1.089867839706687089e-02,-7.906669853694354988e-02,1.192426334034431268e-02,1.714863777160644531e+00
-1.032608012340058556e-01,-9.120333247767203888e-01,9.844565452738085476e-01,-2.027462899863726777e-03,-1.601258522801370932e-01,4.354894915972998271e-02,1.673194766044616699e+00
8.648004576418016898e-02,-1.448732409024401147e+00,7.829000987136803813e-01,6.251919285221055334e-02,-3.216870997500582141e-01,-5.344015607805172735e-02,2.059556245803833008e+00
-4.286416447073089497e-02,-8.370477813814768409e-01,8.144541000942178144e-01,1.355793328517718556e-03,-2.089444484324946665e-03,-4.413959962448290079e-04,1.430597662925720215e+00
-6.051438574743057963e-02,-9.446510099523908188e-01,1.074497643561897808e+00,1.092374073727554878e-01,-2.910751339118159975e-01,-8.791204070167328577e-02,1.840275526046752930e+00
2.425332934813363706e-02,-9.479590045071383253e-01,6.433322419497951028e-01,1.195349114756931591e-01,-3.333552649298253678e-01,-8.528041047682007741e-03,1.518813014030456543e+00
-3.894047011055704749e-02,-9.954392144815393806e-01,9.885772106321801811e-01,1.830836509841194393e-01,5.880198272349397050e-03,-8.906877180557744300e-02,1.754412770271301270e+00
-2.052785405305750099e-02,-1.021555310515208648e+00,8.098687221990531482e-01,6.134875683749527880e-02,-2.098720960851812867e-01,4.416629639883754704e-02,1.634670019149780273e+00
-2.281727197395772011e-02,-8.554810471338267774e-01,8.778768871978561705e-01,4.301140028439408292e-02,-2.606171917154820675e-02,-1.238749624131166814e-02,1.504194855690002441e+00
-1.324244314967179710e-02,-1.001712742279452950e+00,9.692166855592283525e-01,1.372538223069885710e-01,-2.798266172913739872e-02,1.785518181872240012e-02,1.724312186241149902e+00
-4.505774616969109719e-02,-8.956307659449577185e-01,9.398758810340740455e-01,3.346184580852834545e-02,-3.379274558918623009e-03,7.752315217363293237e-03,1.592136979103088379e+00
-5.820792860595676299e-02,-8.237715672778823661e-01,7.816440509814640558e-01,-1.254774310855682334e-02,2.927921562315754719e-03,-1.282838067514064338e-03,1.391007661819458008e+00
-1.211370477332071594e-02,-8.698419584959863338e-01,9.194941356776653585e-01,6.055082231425583383e-02,3.135209468749323991e-02,1.952277010464288165e-03,1.554547190666198730e+00
-5.901195302363163031e-02,-8.978165670730579029e-01,8.688951046311050863e-01,-8.608239994702953854e-03,-4.604032270937057081e-02,-3.910083513548032186e-02,1.534309387207031250e+00
-4.640807545199834849e-02,-8.595057813327470209e-01,8.228906533177388072e-01,6.713734932389156182e-03,-3.279337411840388405e-02,-7.629922316340712225e-03,1.458481788635253906e+00
-5.638769377880799988e-02,-8.274880292105559754e-01,8.317773331911116896e-01,4.586276635429114949e-03,-4.314173510921909954e-02,-4.193258425714561921e-02,1.441949725151062012e+00
2.908108309112672485e-02,-8.300318074203368868e-01,5.279295547517537379e-01,-2.834392802947660259e-02,8.171197527091599022e-02,5.995719432854965114e-02,1.203626632690429688e+00
-5.325128214703903767e-02,-8.431746478022373870e-01,8.648051088062981284e-01,4.960490927221147817e-02,-1.142236390806366936e-01,-2.717004368208706180e-02,1.496909618377685547e+00
-1.085238401113766855e-02,-9.179090491907619942e-01,8.590583375527994781e-01,7.594533030512429228e-02,-1.730778015362702954e-02,7.192443869236675447e-02,1.549927711486816406e+00
-3.471069296839422724e-02,-8.229271579080862375e-01,8.034954909360795261e-01,4.596522791407352433e-03,6.044515767061631531e-03,3.363753346357279371e-03,1.408818483352661133e+00
-3.154760572525194817e-02,-8.201421605978601592e-01,8.596659067802946419e-01,6.956144045659612418e-02,-1.829487227893609319e-02,5.899373469123895403e-02,1.464551210403442383e+00
-2.152713798355855232e-02,-7.663454634169507562e-01,7.978604238215594169e-01,1.170088173596360408e-02,-1.887941472357344830e-02,-2.156789671531275307e-02,1.356215596199035645e+00
-4.635009909944140527e-02,-8.227465324467863050e-01,7.879295780066278843e-01,-1.201765053092564454e-03,2.855508564802493752e-05,1.686797142467837953e-03,1.395191311836242676e+00
-3.861812672474669583e-02,-9.628876266201205070e-01,8.694452872297664392e-01,9.600096103125414781e-02,-1.800501512844218666e-01,2.503908130254485498e-02,1.626324772834777832e+00
-6.012623986075281424e-02,-9.425111815718022479e-01,8.670799738937380319e-01,2.534160553345030792e-02,1.501585261126603676e-01,5.147051600605433153e-02,1.591849327087402344e+00
7.407522412701539327e-04,-8.130151048638865063e-01,6.306079551642760350e-01,1.767661276371521387e-03,4.137734376069918119e-02,-3.247513032769375890e-02,1.256900548934936523e+00
-3.576973575600814192e-02,-8.517102401199639905e-01,7.972963859620640914e-01,8.465913511272006586e-02,1.136570034847396993e-01,-9.160580878551069506e-02,1.457710742950439453e+00
-5.767212791041489983e-02,-1.234641874457163224e+00,1.070871026655787484e+00,9.292787744137961936e-02,1.692238720282331077e-01,-9.255659884109129765e-02,2.030922412872314453e+00
-1.068740420938495139e-01,-8.866531038003175880e-01,1.009761053252087093e+00,3.626224948780124718e-02,1.325988957997894235e-01,-2.278535966049522257e-02,1.668504595756530762e+00
-6.258979872262547539e-02,-9.581331690983746485e-01,9.281934050542060000e-01,3.565825248044393603e-02,1.149270719228997900e-01,4.449552970378024136e-02,1.649338483810424805e+00
-4.111455637094414695e-02,-8.130879685478218377e-01,8.010049138830147575e-01,-2.369625782634397163e-03,-1.522703047486304202e-02,8.700306747256515011e-03,1.398621320724487305e+00
-8.615114224110459462e-02,-5.200135192448047672e-01,8.844996875296735617e-01,1.075073368640595828e-01,6.686209339619938324e-03,-3.982837351520496921e-02,1.261386156082153320e+00
-7.001173437553998014e-02,-9.779676457952822810e-01,8.494082874514129466e-01,2.848412607264043384e-02,1.749470361421982534e-01,-4.945696297452909646e-02,1.614342451095581055e+00
-8.153098312787772362e-02,-8.037098160283835391e-01,7.650453328111387341e-01,5.986103074250651848e-04,7.119618771114892726e-03,2.134892885229257731e-03,1.360066175460815430e+00
-6.409517522860669336e-02,-8.581124517534870488e-01,8.801844727768445287e-01,-3.387835594529847375e-05,3.608886835991875763e-02,2.491718022246877315e-02,1.509195685386657715e+00
-1.164099050645009681e-01,-3.715895415770194554e-01,7.013578168334303475e-01,-1.417414748851874573e-01,-2.172809975897505540e-03,1.032975384252856899e-01,1.017268657684326172e+00
-1.182968005217758245e-01,-2.528732544768573232e-01,8.224887887900981243e-01,-1.484033389895536570e-01,-1.141349222307280059e-01,-3.276401960748147324e-02,1.066849231719970703e+00
-1.182814752141575776e-01,-4.972147460936711116e-01,7.181274738062798368e-01,-1.650909263322022369e-01,-9.418115770689110960e-03,3.581539205731611858e-02,1.116240501403808594e+00
-6.955015555905719182e-02,-4.319883411528735451e-01,6.174135806318731268e-01,-5.663495761607981877e-02,-1.279843027865303906e-01,4.405443482734468924e-02,9.575214982032775879e-01
-9.506067583887378714e-02,-3.994040159689146718e-01,6.849254102519461984e-01,-8.160866099896110781e-02,-1.478786737718560534e-02,-2.666811315436390731e-02,9.803857803344726562e-01
-5.100670644760285644e-02,-8.004205287342096575e-01,6.916285351350690558e-01,6.129346879642454289e-03,4.744527438517067569e-02,-2.123700428359202516e-02,1.295333266258239746e+00
-6.060240024296106170e-02,-7.970675345848413640e-01,6.980566892401920409e-01,-6.116053611234290380e-03,7.664684411551879982e-03,-3.805858610373531953e-04,1.294974684715270996e+00
-5.940239993037771393e-02,-4.114601837487852354e-01,5.057555480665818504e-01,-7.990033357728354435e-02,-3.639128420716426088e-02,-1.024396910741249694e-01,8.348193168640136719e-01
-2.147686900301468138e-03,-7.870486115343948708e-01,5.669571625681965044e-01,5.498402153612509322e-03,4.497871707969245542e-02,4.191589415298726737e-03,1.180192112922668457e+00
-2.552893862039197145e-02,-8.820842313031429516e-01,7.772136979694824754e-01,9.473270237834049978e-02,4.364691795192499058e-03,1.459339227591109900e-01,1.468518376350402832e+00
-3.788546426245255339e-02,-8.005142937055733654e-01,7.176032548614900142e-01,-2.163001098901659765e-03,3.179348636635550077e-03,-3.010602586774722630e-02,1.315783739089965820e+00
-4.019102870418937018e-02,-8.068130885191182600e-01,7.534865156713582701e-01,6.366572306852700397e-03,-2.955775078327349190e-02,-1.230434003449866302e-02,1.352509140968322754e+00
-4.362068364622467831e-02,-8.337508621330492753e-01,8.164095975266728589e-01,-4.298428774796215872e-03,8.077909745578959119e-03,-3.073198136017103038e-03,1.429605960845947266e+00
-2.107360521579861035e-02,-8.107660248315430307e-01,8.012477149504888541e-01,-5.194489801708869481e-03,-1.813117371568830603e-04,3.086369125610160125e-03,1.396179437637329102e+00
-4.577601588614516048e-02,-8.166959579818527937e-01,7.935978251264488303e-01,4.654873768832482940e-04,1.072335210795103029e-02,6.687197012849783496e-04,1.395099639892578125e+00
-1.011338103978482311e-01,-7.970761623510158600e-01,8.080758646904228071e-01,-1.548131013378366630e-02,-6.063337619681591654e-04,-1.582868437296038044e-02,1.394713997840881348e+00
-6.789642100639642353e-02,-6.976784811542762199e-01,6.780036230815248421e-01,3.638756664615042796e-02,-1.845005378148229305e-02,-7.736632303076461728e-03,1.194955945014953613e+00
-6.632768679338998941e-02,-7.637207468838160818e-01,7.629305486957813631e-01,2.991717584237696750e-02,-1.908926000982576199e-02,-3.611890183988196446e-02,1.326663970947265625e+00
-1.286119049330491093e-01,-6.601155480190772362e-01,8.068059884302264395e-01,3.531244819454141485e-03,-1.359760387579717761e-02,-1.634511024890093756e-02,1.286885499954223633e+00
-2.189423254923503898e-02,-9.146842802125377814e-01,7.125482589237945863e-01,-8.016416538003573455e-02,2.195641747057627546e-01,4.247562817326950430e-02,1.470203876495361328e+00
1.493818052684683061e-03,-7.838866138824361895e-01,7.810183595566171366e-01,1.202253436676361652e-03,-1.191644597728160233e-02,-2.268275257835825325e-03,1.355415105819702148e+00
-9.790241128882187782e-02,-6.133800904689257205e-01,7.875556118764150959e-01,1.031921895413773042e-02,-1.269633514148507149e-02,-2.589116145331852789e-02,1.228414058685302734e+00
-6.871775859426952626e-02,-7.307443669615277804e-01,7.770711814761580571e-01,3.168637833859146158e-02,-9.364381046911235060e-03,-6.024045451853870387e-02,1.314433217048645020e+00
-2.379582677089674136e-02,-8.247908172662817838e-01,8.032988850544493520e-01,-5.774277872275687630e-04,-5.893583033433446097e-03,2.699894943063104163e-03,1.410072445869445801e+00
-7.586039972032787571e-02,-1.257145300770332375e+00,1.202433010408556990e+00,-2.721931460347080112e-01,3.022851104758669250e-01,2.834850631417139624e-02,2.244616746902465820e+00
-8.436803426254231575e-02,-7.651437400913391196e-01,8.217138470235237913e-01,2.704362181911804455e-02,-2.825233855448898782e-02,-4.311187100751599777e-02,1.382549524307250977e+00
-1.051776480958911963e-01,-4.751041370409583298e-01,7.486811416659864271e-01,5.198472483452393905e-02,1.528430431222087011e-03,-3.767937336757319622e-02,1.092775821685791016e+00
-1.313741616157848291e-01,-3.626922027261877957e-01,7.439626947014010838e-01,1.191399747758721261e-01,1.497023179578332993e-03,-1.919743895797958178e-01,1.084138393402099609e+00
-9.590881185387735430e-03,-6.539087316463448873e-01,8.063392110349639763e-01,-8.415427728315313938e-02,-1.075340117568522776e-02,3.924561569536225494e-03,1.276026964187622070e+00
-1.069859718543568206e-01,-3.265567833876645842e-01,8.452118605479654878e-01,-1.633099757378478900e-01,3.492522876443675955e-02,-4.633138470634531186e-02,1.119855523109436035e+00
-6.804737449132189364e-02,-8.138750386591768748e-01,8.249440106603929124e-01,4.616390357503943062e-04,-1.695024739424622756e-02,-6.987303769847708415e-03,1.421519994735717773e+00
-1.264958234555391484e-02,-7.792061484986571029e-01,8.088757979007122900e-01,-2.479955617839200988e-02,3.612789195707250250e-03,-9.491940691695744878e-03,1.376376748085021973e+00
-7.113083409005606372e-03,-8.050112292423123872e-01,9.201322514988561352e-01,-1.364738675836726645e-01,-1.416435867652224290e-02,-4.445390047796011525e-03,1.514202475547790527e+00
-1.207117963357706714e-01,-3.025668916234044437e-01,8.838166485425984487e-01,-2.457729890649349991e-01,5.844966312659810592e-02,-9.471117006638431202e-02,1.201332569122314453e+00
-6.154656861447810323e-03,-6.510809295173772826e-01,7.746029508849301415e-01,-8.504976607111387754e-02,-4.050646478729806425e-03,5.641025899857705743e-03,1.245346784591674805e+00
-1.070265967916877864e-01,-7.589167390449810258e-01,8.259063794843948259e-01,-8.057093037297244353e-02,-3.339066126280715308e-02,-6.071992693342746078e-02,1.391896247863769531e+00
2.960805687295079217e-02,-7.946729769824683043e-01,7.890064729263046583e-01,1.007264917251944267e-02,4.816524688650883693e-03,2.643946214004145451e-03,1.372034192085266113e+00
1.495853943409489184e-02,-8.754318600201821399e-01,6.075308189921646562e-01,-1.421694784348165146e-02,-3.542888518201874753e-02,-4.811139286391630243e-02,1.297256231307983398e+00
-1.035170454698243481e-02,-8.271525043563159318e-01,6.670845460015667472e-01,-9.206265901934939863e-03,6.564343343497854553e-03,1.431846326562318840e-02,1.296307206153869629e+00
-3.786937164468259093e-02,-8.303119777703757975e-01,7.589521374401040354e-01,-1.046021233179249190e-03,-1.297579109000941006e-02,-3.314299846915516167e-03,1.376541495323181152e+00
-1.637966881433296912e-02,-8.504647668116316339e-01,6.609594644459940715e-01,1.680451766920113693e-02,-3.274759907017228688e-02,-1.832317257356503790e-02,1.313208460807800293e+00
-7.094971713921485734e-02,-8.280285649590621855e-01,7.825503644006656101e-01,1.164329486262651557e-02,4.502802462095460007e-02,-1.888792554353779102e-02,1.398340821266174316e+00
-3.489241896409551319e-02,-7.405905624348677607e-01,7.847360772518207073e-01,-8.018651315973010507e-02,2.435496594471572851e-02,-8.807860092234014171e-02,1.338862776756286621e+00
-7.167674911216249944e-02,-5.364196250719271974e-01,7.654654065861498102e-01,7.709243140543919556e-03,3.324523385187815733e-02,2.829724924906657987e-02,1.145314335823059082e+00
-4.566416426642659621e-02,-9.007529341398552436e-01,8.943019411475330305e-01,4.471136734375983496e-02,-1.571010005316118147e-02,-1.743459854307977119e-02,1.557599782943725586e+00
-7.326723342115731841e-02,-8.186793677735029195e-01,8.139886013344949101e-01,2.591653011972645717e-03,2.164101311793292098e-02,9.069910452421517388e-03,1.416299939155578613e+00
-1.644211631330888893e-02,-8.119645949962097653e-01,7.999623957763959403e-01,2.154628428097575901e-04,-1.601084814133358508e-04,4.375945423066245239e-03,1.396029472351074219e+00
-9.403688644668864449e-02,-6.382396387383838521e-01,8.053326113947072429e-01,-3.424867874703574344e-02,1.160268770626086271e-02,-2.422778416913652297e-02,1.264968514442443848e+00
-1.736846130229042356e-02,-8.323672684099809871e-01,6.951585375358955154e-01,1.322229387830166705e-02,-1.675689831090525217e-02,1.236370275878201364e-02,1.324557185173034668e+00
-6.817153143964924111e-02,-8.446010828563608186e-01,8.435004492193726167e-01,4.518307716814880075e-03,2.396657895383237993e-02,-2.794862033842424476e-03,1.464119434356689453e+00
-7.772183399314666619e-02,-7.043618140682796902e-01,8.378736332110192642e-01,-5.331877618401192204e-02,-1.850788744715759285e-02,2.460273307458476708e-02,1.347632646560668945e+00
-4.262122078481644233e-02,-8.290392982226691965e-01,7.907880013086813209e-01,1.130370002597747350e-02,1.041890657418405482e-02,1.548261032966898520e-03,1.403263568878173828e+00
-3.699481052089331756e-02,-7.421355863773502204e-01,7.894665862947878310e-01,-7.271364240878280816e-02,1.792055507692496066e-02,-4.295925682740064228e-02,1.336186885833740234e+00
-4.760961826779172568e-02,-7.617544246278781239e-01,8.009209834649607673e-01,-5.487975309562301111e-04,-2.245055951823580684e-02,1.087562231373500124e-02,1.355672717094421387e+00
-3.516262484052498638e-02,-8.224862281141775977e-01,8.059087137205276363e-01,4.587373061405914700e-03,5.993961986497587519e-03,4.975679259679921876e-03,1.410574316978454590e+00
-3.362695288884182121e-02,-8.569855937083535879e-01,7.655719772956774971e-01,3.996080228089496367e-02,-1.284926496932863038e-02,3.830906735647213179e-02,1.408671140670776367e+00
-2.509465936370442601e-02,-7.881925815248436162e-01,6.302948808231569888e-01,8.170301423308564889e-03,8.666982488092942957e-03,1.565725079047215187e-03,1.229802131652832031e+00
-5.049213045648035664e-02,-8.091155003220507069e-01,7.898671837542984298e-01,-1.212010511929304327e-02,1.389542164506739168e-02,-1.520303080069009688e-02,1.385980844497680664e+00
3.874946676943226420e-02,-8.301632990158055447e-01,5.494225091481491630e-01,-1.979144416209084947e-02,-1.019150948924495495e-02,-7.588383720715852210e-02,1.215848803520202637e+00
-1.854866838247095154e-02,-8.225997767340573752e-01,8.099818083436627347e-01,1.108814902873342216e-02,1.023846631596083030e-02,-4.650414729630738923e-03,1.414174675941467285e+00
-7.282039483260666080e-02,-8.306594779403595474e-01,8.154179678542478049e-01,6.583696622817541456e-03,2.218967922558897493e-02,2.140445762052074156e-03,1.427602887153625488e+00
-4.610030944928557306e-02,-8.353493261513202928e-01,7.752003471963646586e-01,-1.267043403792713317e-02,1.578278479004709134e-02,1.441764622081265906e-02,1.395532846450805664e+00
-5.702099821341743979e-02,-7.790938010008372494e-01,7.827539671005862010e-01,1.801445534524534920e-03,1.019818518937302097e-02,2.803620015846337854e-02,1.354868888854980469e+00
-6.539808181930657771e-02,-7.994933854061724299e-01,8.221275470924349627e-01,1.911864750915840891e-02,1.336213095411861035e-02,-1.081898582520280684e-03,1.407040119171142578e+00
-8.804879988287429848e-02,-8.338423793717685273e-01,8.212754979910800168e-01,6.454376835667963164e-03,2.096888159335349305e-02,1.243456066138276701e-03,1.436208724975585938e+00
-9.172609082239045752e-02,-7.535997852591106438e-01,8.001568826638644216e-01,3.430911560960354240e-02,1.922120021640768769e-02,7.393818323899724321e-02,1.358265876770019531e+00
-5.623668625169644941e-02,-8.116232915748644583e-01,7.712465324118333854e-01,-6.675389779567708452e-03,-5.583556451592668578e-03,-7.555724238149748827e-03,1.371424674987792969e+00
-3.722032963236952124e-02,-8.355445003642218982e-01,7.227430727425486756e-01,-1.342073105761680540e-02,-2.091566493753011652e-02,-3.085038795408505050e-02,1.351395964622497559e+00
-3.700391079493606239e-02,-8.273649993127375479e-01,8.126771223921810394e-01,8.000014327159271632e-04,-8.202425234693055955e-03,-3.539747769167665963e-03,1.420712709426879883e+00
-7.116874122732694263e-02,-8.156568456337369710e-01,8.116956753712668560e-01,-1.962498847956261217e-03,2.314590293021719092e-02,-2.912359253749528115e-03,1.411608457565307617e+00
-5.183084090004373007e-02,-8.126002685170656825e-01,8.191999088803542106e-01,-1.404401522417726873e-02,2.667436704245339241e-02,-2.127696104167921959e-02,1.415698647499084473e+00
-1.471959292219007787e-02,-8.007762137639895528e-01,8.200345968095971161e-01,-6.819950433358847042e-02,-1.819468870282075004e-02,5.455186852013631932e-02,1.412351965904235840e+00
-2.460186595936243378e-02,-7.987063354110142122e-01,7.974588686783538050e-01,-1.064478585336406033e-02,-1.117441316423265288e-02,2.479919681271119947e-03,1.382792592048645020e+00
-5.639885439931774380e-02,-9.597016017931682130e-01,9.239687635376606645e-01,8.582909635952217647e-03,-2.512770034615658191e-02,-3.658949459012982020e-03,1.632421731948852539e+00
-7.048948976215863027e-02,-8.756875026105227500e-01,9.036791789263999286e-01,4.892263283364109948e-03,-5.628080383002126473e-04,1.047949778457217583e-03,1.543315649032592773e+00
-7.727195940185729861e-02,-9.272960444874388530e-01,9.789003202750664601e-01,-1.349875421594702758e-02,3.846798622241750371e-02,2.976497396394313377e-02,1.656338334083557129e+00
-5.334621885650637357e-02,-8.651962549568560368e-01,8.949505500982316564e-01,3.850673005754209812e-03,2.001539380653489728e-03,-1.372191802829549620e-03,1.525878190994262695e+00
-6.245900114101683720e-02,-8.871165694856691930e-01,9.031067165012561793e-01,-2.202365667684415967e-03,2.941156492594073496e-03,6.913466345485188257e-03,1.552038073539733887e+00
-2.119449292521204120e-03,-6.591029351911908973e-01,7.589070206239042493e-01,-2.908293584097178600e-02,1.355043358831947015e-03,-1.587210100420541814e-03,1.230171084403991699e+00
-3.947029138516081059e-02,-8.237427315863685706e-01,8.049064236925543847e-01,3.347917346571858618e-04,8.225999737815773219e-03,-2.231381972867148115e-03,1.410848975181579590e+00
-9.859596978254400734e-02,-8.501123286030859427e-01,8.590152356861885385e-01,-9.948175184569297419e-03,6.534182498553767204e-02,9.355253770003825464e-03,1.488228678703308105e+00
-5.702733569668851088e-02,-8.633942598325525797e-01,8.783771022254754923e-01,-1.266914371299377069e-02,1.447439313417415475e-02,1.973374946976125081e-03,1.510168910026550293e+00
-6.227144709295338865e-02,-8.685659910521944527e-01,8.979914312242402996e-01,-1.048135349962712667e-02,9.496925799950648936e-03,1.532126004948200461e-03,1.532017469406127930e+00
-3.874619392537869550e-02,-8.236958967006506871e-01,8.085464313490786648e-01,-4.295970514923518405e-03,-6.509385033562359833e-03,5.920619550401183193e-03,1.414008736610412598e+00
-4.349698449079360263e-02,-8.677157348863375752e-01,8.659461263140723064e-01,-1.143106313272664737e-02,-2.394246046345942811e-04,-5.595364808915581460e-04,1.502130627632141113e+00
-7.724937816751617503e-02,-9.322078417035855047e-01,1.060218204892579674e+00,4.802934402323665031e-02,-1.212890478150558358e-02,-1.112848621817675437e-02,1.733495712280273438e+00
-6.958229162161418124e-02,-8.023564307845213461e-01,7.209153831245500577e-01,-1.713208103009058667e-03,-3.736403722870462740e-02,-4.477489098153198538e-03,1.321119904518127441e+00
-8.350013539652323402e-02,-8.277649227136104626e-01,7.873491187866333840e-01,3.905692939482396063e-03,-4.762666201446427716e-02,2.926681739701178769e-03,1.402614474296569824e+00
-7.940331883791068579e-02,-8.437060995902181393e-01,8.418041507877714880e-01,-2.999195183905012819e-03,-5.799426379400139664e-02,-5.337017581715868507e-03,1.465286970138549805e+00
-2.480260785150106145e-03,-7.394581685969799922e-01,7.899771839557354625e-01,4.424592175952807294e-02,-1.762479680293615450e-03,-8.455656073965920824e-03,1.327119350433349609e+00
-2.887032213083621721e-02,-8.163145730658394328e-01,8.062802472396517484e-01,-1.130726116972571469e-03,-1.568101065073393072e-02,-1.042753669416933529e-04,1.405674576759338379e+00
-9.136902378344186060e-02,-8.464407326475162918e-01,8.404891705408045199e-01,-1.519985728225444312e-03,-8.698799917568061923e-02,1.373996937600155226e-02,1.471525311470031738e+00
-6.455089942304663431e-02,-8.204716905174243013e-01,7.942920510052015048e-01,1.264630382375611130e-02,-2.770119463662029657e-02,2.268996661098388740e-02,1.400917887687683105e+00
-3.190550428446346787e-02,-9.112807769984901940e-01,6.579198360150049218e-01,1.986299963729949714e-02,-1.453557125384090931e-01,5.490478829853231990e-02,1.389023900032043457e+00
2.096164274238328587e-02,-7.892354229081279815e-01,8.147221820104975087e-01,-9.422111435337279794e-02,-1.435838793581321188e-02,2.271827536226568231e-02,1.399420380592346191e+00
-4.203998578468164798e-02,-8.118686012524158890e-01,7.538233425461068338e-01,-1.421260646741741686e-03,2.228660037234938066e-02,-8.733466881683124572e-03,1.356627345085144043e+00
-3.714471619890691301e-02,-8.197940481339145435e-01,8.133510182145640144e-01,-1.874177529944606041e-02,-1.959825654396372269e-02,5.264779703904700486e-02,1.418465495109558105e+00
-1.560630473277722918e-02,-8.267216707451005009e-01,6.543806594380813246e-01,9.369067579390778430e-03,1.480254065692034743e-02,-3.409827061519603991e-02,1.286326646804809570e+00
1.210119678939034285e-02,-7.997528365339101608e-01,7.835070266743972001e-01,7.304059398625860518e-03,2.341116861783186336e-03,-4.529755784278444164e-03,1.371379256248474121e+00
-3.786490933740512682e-02,-8.145475800631393204e-01,7.549626773970584681e-01,-9.667880596958869713e-03,3.038962681978625915e-02,-1.880759483496481296e-02,1.360771536827087402e+00
-2.181112607431772571e-02,-6.359326074126075978e-01,4.912167256707056229e-01,1.141173230501811020e-01,-5.342692141211061174e-02,1.793218763267942772e-01,1.048572778701782227e+00
-4.712353825199962210e-02,-7.347476067201196281e-01,8.113167123201437958e-01,-6.147686800175856947e-02,7.238944845242610560e-02,3.993931569878628879e-02,1.353467822074890137e+00
1.129071919069246470e-02,-8.093331619613300942e-01,7.994810160620571260e-01,7.726572712533632918e-03,3.952214319234761790e-03,-4.034589701661377321e-03,1.393466949462890625e+00
7.517928963764564099e-02,-7.921275643201173278e-01,4.298371231384715552e-01,-6.567305112629371819e-03,-6.296698261544663409e-03,8.071636426582831647e-03,1.089056611061096191e+00
-7.894981465111738927e-02,-8.249601410322451311e-01,8.141649216120221411e-01,-7.748834717196922094e-03,-2.027269331503292124e-02,-1.833451990813479010e-02,1.422279715538024902e+00
-6.954657001755590318e-02,-8.318468872045993168e-01,8.473804802121834845e-01,6.886020289494212965e-03,2.549914454125632932e-02,7.599766468526576030e-03,1.457085132598876953e+00
1.013109247982314221e-01,-8.044553691868315815e-01,3.596686598243689081e-01,-3.582690396614324636e-03,-3.679736684674694835e-03,-2.785351235411025542e-02,1.059990406036376953e+00
5.655979563167562452e-02,-7.786752346742424891e-01,4.619605769448705823e-01,-2.470318830723572390e-03,-4.370638943638422563e-02,2.980767006798564368e-03,1.098338723182678223e+00
-3.250289241998621792e-02,-6.159502169532012905e-01,7.445386544988366051e-01,1.352017931011332934e-02,1.123644612247032618e-02,-1.127879563978956886e-03,1.182581186294555664e+00
5.863545126672503605e-02,-7.954216025173295179e-01,4.772809037683806155e-01,-8.476992248557579934e-03,-1.698668637686619621e-03,-3.705920101372238429e-02,1.125419497489929199e+00
7.985681527333152174e-02,-8.067765342482582369e-01,4.477063577500746128e-01,-1.738860585420109583e-03,-1.467529673472553128e-02,-2.437251938056743741e-02,1.118041515350341797e+00
-3.775434558206502283e-02,-8.285440308936918852e-01,7.312368040735325314e-01,-3.502078160343254781e-03,3.179343239059462256e-02,1.782804713693886788e-04,1.351989388465881348e+00
-4.966958145926046730e-02,-8.448846386983540624e-01,8.331180786227111446e-01,1.128174841849257509e-02,2.048844491151891739e-02,-3.737447219361560678e-03,1.454431176185607910e+00
-1.259870025472676347e-01,-2.077781360195026794e-01,1.003344852264144826e+00,6.323080767888528131e-02,2.926567684474196129e-02,6.582388208883648006e-02,1.184065818786621094e+00
-2.197201640090071587e-02,-8.508339776733137017e-01,7.203034246600396040e-01,4.376837668764686773e-02,1.126196331085479868e-01,-1.487322493835535608e-02,1.377566337585449219e+00
-4.070970108884754829e-02,-8.389999512835113471e-01,8.179887468553572738e-01,8.380756363178096593e-03,3.238815867812961519e-02,1.227555072786399963e-02,1.436638712882995605e+00
-4.496103021546854484e-02,-8.286833438917284855e-01,8.050081017954816565e-01,-3.808500827384098987e-03,-4.348305743045346289e-04,1.353783217237049079e-02,1.415415763854980469e+00
1.478695630860371590e-02,-8.180472387342165863e-01,7.984007011614951965e-01,-2.267256898091553341e-02,1.129058861752633286e-03,-8.004282077546331919e-03,1.400721907615661621e+00
-7.839955193340808481e-02,-8.567218393399275156e-01,8.400352536158008920e-01,7.443907155249662559e-03,6.455932729018797056e-02,9.230502504158867236e-03,1.475490450859069824e+00
-4.678080910708429935e-02,-8.712005015951407305e-01,9.431500528853155041e-01,5.506209825011228187e-02,3.116328194469230803e-02,-1.560263127487545795e-02,1.577494502067565918e+00
-7.364510971062736278e-02,-8.489611486700184839e-01,8.522342010226231501e-01,-3.952573699853662785e-04,2.512187470872693021e-02,-6.440500415286539576e-03,1.475884437561035156e+00
-6.467071883424554968e-02,-8.617343306471003661e-01,7.871689992937608293e-01,-5.634428975746738968e-03,8.498985905329602131e-02,1.712741170334525567e-02,1.436160445213317871e+00
-5.458988527713174582e-02,-8.535984146612810575e-01,8.749110400991588765e-01,-1.021567876275546183e-02,1.021879012893179769e-02,6.209221117943113186e-04,1.498563766479492188e+00
-7.397104741888736734e-02,-5.416093144137313908e-01,7.052801747639392271e-01,-1.043477319839025697e-01,-3.035419766015710549e-02,3.751930599802778821e-02,1.109043836593627930e+00
-7.211734140510719926e-02,-8.243859651840406144e-01,7.742641766818266769e-01,2.704926634189522370e-03,5.060286886253628075e-02,-1.617523686549931106e-03,1.388051748275756836e+00
-6.316010181209943952e-02,-9.400297140325293288e-01,8.621729115883917105e-01,4.348408127329734217e-03,4.357608974868611845e-02,3.330992609641319352e-02,1.563847780227661133e+00
-2.950456176929258309e-02,-8.021954896039356075e-01,7.272267861873353834e-01,5.368414803040674060e-02,-9.043073483909561117e-02,-3.633756106451175270e-03,1.337023496627807617e+00
-2.845539465826199543e-02,-9.681071010069740579e-01,9.777011129226003128e-01,6.782749671418016046e-02,-4.201213165764695889e-02,-5.624601628319586370e-03,1.691131114959716797e+00
-4.481912796859967296e-02,-8.328722595966046027e-01,8.135189888000559089e-01,2.924702517079541455e-03,-4.406128531522366526e-03,-2.303755442379662195e-03,1.426284670829772949e+00
-1.349591042334626241e-02,-7.905731633749112364e-01,7.954711467890630550e-01,6.374958399636625021e-03,-1.403112332749044573e-02,-5.572195230130833933e-03,1.373940467834472656e+00
2.823624824138946596e-02,-7.949224680974769086e-01,7.762387910094802335e-01,-1.168740376869554370e-02,-1.344618433761392371e-03,-5.569187895558538534e-03,1.361371040344238281e+00
-4.991909979976016237e-02,-8.140393265279729507e-01,7.525144859710115597e-01,1.890820049260577909e-02,-1.563381693577109988e-01,1.212998544855734820e-03,1.383957028388977051e+00
-1.878614023065384303e-02,-8.309224734427681502e-01,7.178330639136796254e-01,6.157755387574886247e-02,-1.098670001261801699e-01,-2.705635418093268324e-02,1.360217690467834473e+00
5.986149960516842783e-03,-8.086817225848514923e-01,7.888326323345781210e-01,-9.100089404485403946e-03,2.990432498870130760e-04,-3.813476051938250247e-03,1.383685111999511719e+00
-5.673980880232459834e-02,-8.209745651386285425e-01,7.566134832401426591e-01,-4.160223765666559020e-03,-2.447741093115362448e-02,-5.417703188331742838e-03,1.367160797119140625e+00
-6.425363222930305374e-02,-8.179241779371935195e-01,8.017376604163214404e-01,-1.256394021467135231e-03,-3.688962705608975212e-02,-1.847918349788498643e-02,1.405611634254455566e+00
-4.491168846211238130e-02,-8.275810650016327541e-01,8.123381430216312094e-01,3.405452619417332640e-04,-1.117791778822046014e-02,3.627499971374566895e-03,1.420847058296203613e+00
-8.040778730536090116e-03,-7.712487744905087705e-01,7.929998770964292731e-01,6.735329344962587284e-02,1.367138314524645945e-02,2.420364662398495690e-04,1.360030651092529297e+00
-3.934578744360298086e-02,-8.263572314710529998e-01,8.097353509956269901e-01,6.534015100257221584e-03,-4.764744926107494088e-03,-1.451434889968661497e-02,1.417529702186584473e+00
-5.840691451271891321e-02,-8.288144500112009094e-01,7.951332018236914045e-01,-7.464575272900108964e-03,-3.192833202775819963e-03,-7.416303551742234323e-04,1.407064914703369141e+00
-4.035834809441683768e-02,-8.284998994755132795e-01,7.169237523282833147e-01,-4.190811710725670172e-03,-6.803211397621264367e-02,-3.235273771480880189e-02,1.344829559326171875e+00
-3.364446893354760409e-02,-8.287138726780769460e-01,7.896203516302858771e-01,1.388506351512740038e-02,-1.449717589342497219e-02,4.341365425723121710e-04,1.402020812034606934e+00
-4.813245195448311725e-02,-8.707385063910738632e-01,7.911673400031633552e-01,-9.336518007081164028e-03,-4.050939014132803190e-02,3.593162063818249735e-03,1.441090345382690430e+00
-3.659095400585592184e-02,-8.219816399005981378e-01,8.006834185725828501e-01,1.761910024794368160e-03,2.265920166258558396e-03,-1.028583081765751086e-03,1.405518531799316406e+00
-3.785413295040414294e-02,-8.218491571177288790e-01,7.988501224521097344e-01,-3.629470020797908626e-03,5.629971970897795427e-03,1.590031106372648411e-05,1.403862118721008301e+00
-4.027796307723651575e-02,-8.245106130957466917e-01,7.536888948119127019e-01,-6.346029665360687980e-03,-1.380432948432055301e-02,-1.143773340038156151e-02,1.367166399955749512e+00
7.717688812139805732e-02,-9.490846615054132629e-01,4.530017064080253952e-01,6.894453233256749025e-02,-1.908461130631871061e-01,3.433718355166560932e-02,1.306604623794555664e+00
8.581103623591657126e-02,-8.597023325679996608e-01,3.832389466791454868e-01,-5.914504142979545853e-03,-1.291255659187512117e-01,-7.464040426530121897e-02,1.153481602668762207e+00
1.514806191641673849e-01,-9.233569690016268927e-01,2.553186560505381619e-01,6.056772835278645406e-02,-3.001752388396316529e-01,4.367951134124226781e-02,1.250884413719177246e+00
2.433067786774736896e-01,-9.953470965717434726e-01,2.379320917288962889e-02,-1.379581063642281412e-02,-6.337651273742749003e-02,2.013967617641263252e-01,1.202019572257995605e+00
6.756166698926194258e-02,-8.786590426739885329e-01,3.887701103928753454e-01,3.406627127464127713e-02,-1.494200148453995458e-01,8.085893338452317114e-02,1.180049896240234375e+00
1.197772946426137186e-01,-9.333764077253562386e-01,3.814710060722056317e-01,2.442888573584466733e-02,-7.146316715132644548e-02,5.575087552917914330e-02,1.216410994529724121e+00
-2.829200799093942176e-02,-6.571519503870641987e-01,7.784379016581535193e-01,7.788840895208529180e-02,-2.008468189957745773e-02,-1.599577989322410049e-02,1.254502177238464355e+00
-4.602890452151614520e-02,-6.407836317726790520e-01,7.907289434119799676e-01,1.906343717608404709e-01,-6.620420585901359671e-03,-4.947759645466507511e-02,1.291534900665283203e+00
-5.341754522447142439e-02,-4.715099073158236509e-01,7.419416245066640103e-01,1.574101882495816396e-01,1.170934524669704942e-02,-1.411073787943330216e-02,1.102394461631774902e+00
-9.728704360358210457e-02,-8.765993545356847161e-01,9.528946894411755020e-01,6.299839080867298755e-03,3.068787951311652273e-02,-1.096434443289885825e-02,1.591205120086669922e+00
-8.383149281390900320e-02,-1.118674416213182532e+00,1.308867236116374899e+00,7.759237432078973373e-02,6.984278457440870613e-02,7.264768573217270098e-02,2.121382236480712891e+00
1.638559796708144445e-02,-8.182172198064219248e-01,7.969730090277029610e-01,2.006164334634173013e-02,-2.096983829748161419e-03,-6.796663838738749991e-03,1.399542093276977539e+00
2.581776934022023129e-02,-1.528108547521116689e+00,1.119621424478908667e+00,-5.229641180898206981e-02,2.329157891538891634e-01,-8.226097651543884393e-02,2.345642328262329102e+00
-2.356609326117926895e-02,-1.002452666033211592e+00,9.066089253122057157e-01,1.904227531555836572e-01,1.846779805842521660e-01,8.753356975378321844e-03,1.716190695762634277e+00
4.159974846952774197e-02,-1.006919384650053484e+00,8.134055981639604083e-01,1.704692281867441900e-02,3.551855863248400969e-01,2.163858263130989668e-02,1.698551416397094727e+00
1.269930125922387118e-02,-8.139332109510779567e-01,7.971266592685524177e-01,2.195441781566390138e-02,7.111828555334817788e-03,-5.165272278846491302e-03,1.395979404449462891e+00
2.866730098555944281e-02,-7.979064048154390631e-01,7.765947034959742590e-01,1.379053815596770725e-02,1.184449831554949643e-03,-5.435045915285145746e-03,1.364367961883544922e+00
-8.675567769422011521e-02,-9.788765367434901776e-01,8.454309230332375247e-01,2.592304939939577696e-02,1.586111667410571857e-01,-5.221150238585161446e-02,1.606904268264770508e+00
1.054932317556623277e-02,-7.654661142946046493e-01,8.300910675934556338e-01,1.037337295517672814e-01,1.116305130258852044e-02,3.327867395650305204e-02,1.394920825958251953e+00
-6.451523344776194380e-02,-1.021496526419991113e+00,1.011388450175471299e+00,1.353854084872721242e-01,2.768739896456751670e-01,-1.055151837189485624e-02,1.840733766555786133e+00
-2.824750477150715644e-02,-9.919921063538993389e-01,8.283423546823183159e-01,1.473738207743811035e-01,2.875312940154606256e-01,1.003858138776878928e-03,1.673698425292968750e+00
4.715900709652156783e-03,-7.995226701247636347e-01,7.948674436056117898e-01,8.610339194957069425e-03,2.190902227386717742e-03,6.386313135860713537e-03,1.380930304527282715e+00
-1.545840979259392386e-02,-8.422449274836587563e-01,8.344602117990317369e-01,1.867249989670786287e-02,9.357128305265478840e-03,-8.241607616406141160e-03,1.452636003494262695e+00
-8.008059047461366098e-02,-4.189843359791941002e-01,6.111431987038612457e-01,1.923790532436217005e-01,1.168233820765631481e-01,-1.627814458475492637e-02,9.897835850715637207e-01
-1.303800102849786702e-01,-2.814846282708906022e-01,6.437298882023100299e-01,1.168472628512098321e-01,1.041078882542154915e-01,8.742072527575643626e-02,9.140310287475585938e-01
-4.133870064491030477e-02,-7.612203105599525399e-01,8.024914329238288513e-01,-1.151746633736722836e-04,-2.857944655552736857e-02,1.060085042598245958e-02,1.356659173965454102e+00
-1.784746126748660289e-01,-2.693802131401097366e-01,1.209421019877140457e+00,1.662262994262873883e-01,1.530754840355289491e-02,4.480166839008062341e-02,1.466391324996948242e+00
-1.099831057486627406e-01,-5.130708246870379075e-01,7.726680997182203692e-01,1.532451441572410256e-01,4.004476062422036159e-03,-7.269403559040145575e-03,1.169614315032958984e+00
-1.960525757229316518e-02,-8.326559587144112262e-01,8.073444468854432676e-01,3.169072762100371560e-02,-9.846885896341451682e-04,2.344991274222927788e-02,1.421940565109252930e+00
-6.154742114657102414e-02,-4.848752484377282235e-01,7.996875726933642126e-01,2.477331924405397623e-01,-2.291332988598131920e-02,-3.601068226695026270e-02,1.214535951614379883e+00
-9.213055671448253103e-02,-5.275611449841178802e-01,7.366213665845184888e-01,4.518986802918284473e-02,2.043056283819820462e-02,-1.136533615220401416e-01,1.132882714271545410e+00
-1.531104011961399725e-01,-4.771449977502707496e-01,7.748947271461964492e-01,3.757502754024148045e-02,1.448928492163534254e-02,-1.005750751817351130e-01,1.141100049018859863e+00
-1.083840074529326125e-01,-2.038679847917094778e-01,7.361898347026673006e-01,7.515681749845173898e-02,2.474024470701350481e-02,8.312708364009577938e-03,9.066722989082336426e-01
-6.879053969629370102e-02,-8.536205595337111873e-01,7.554873545336729945e-01,-8.474851617070093199e-03,1.198129647095277084e-01,1.312422758099145853e-02,1.409293413162231445e+00
-4.886203573637779018e-02,-8.214406846287634067e-01,6.556645027184679897e-01,1.444079524280033906e-03,1.125951628481474259e-01,1.536968761232142440e-02,1.294714450836181641e+00
-5.868352933343913558e-02,-8.582377495298694203e-01,8.735114184275840632e-01,5.582919937778128144e-03,1.756897242872115794e-02,-3.614879448542437229e-03,1.501556992530822754e+00
-7.796215086169580588e-02,-8.249639666377655001e-01,7.631684423613362966e-01,3.852016501337429569e-04,6.127369957899209130e-02,1.240165142207701882e-03,1.380256056785583496e+00
-5.141314660527257496e-02,-8.185828348407910848e-01,7.529181627074594818e-01,-6.363004720520918332e-03,2.461959380521324542e-02,2.772777891000112807e-03,1.361807465553283691e+00
-1.254695492859179695e-01,-8.346135342837748272e-01,1.279917470362785581e+00,-2.630785663503780181e-01,1.877559438243397993e-02,-1.408072488271956968e-01,1.934628725051879883e+00
-8.363064044696805199e-03,-8.144442684324945114e-01,5.943809295593920350e-01,1.811110469147559146e-02,-5.304042821258594942e-02,3.913833860482037602e-02,1.230019211769104004e+00
-4.509368365133444023e-02,-8.435479804616595745e-01,8.038486154120659810e-01,-4.265647340395414128e-03,2.862107518866965905e-03,7.227718543190327950e-03,1.426993250846862793e+00
-5.464189212034192833e-02,-8.471332118603248640e-01,8.745109680867059199e-01,-9.224024625195345953e-03,-1.150117269925529997e-02,4.914249719795081919e-03,1.492795228958129883e+00
-6.904483532222438491e-02,-8.634068926924562959e-01,7.449455539126896841e-01,7.800840851241525042e-03,2.025949991311715992e-01,2.635164190045741466e-03,1.436499953269958496e+00
-7.208355423185429378e-02,-8.070375214015815812e-01,7.264499917151857611e-01,1.179701794446775739e-03,5.099518712789455344e-02,-5.417441229307170744e-03,1.331387400627136230e+00
-3.859832341905307385e-02,-8.439774405506135224e-01,8.270961070120695924e-01,-1.359529437320697656e-02,-2.042868253448971994e-02,-1.210265657540316939e-02,1.448281884193420410e+00
-7.722065249654072594e-02,-7.953086636246069485e-01,7.112248349696562721e-01,1.973012266281249337e-03,6.827019828981614746e-02,9.276134182669943523e-03,1.310618996620178223e+00
-4.681371135695476526e-02,-8.408173273419579097e-01,7.873250931410752385e-01,2.433002261630698784e-02,7.087127491548200764e-02,3.602543004715126618e-02,1.417489409446716309e+00
-2.602935756021752811e-02,-8.227668967690578983e-01,6.301567489220232243e-01,-7.987941661517231756e-03,9.654052282195470236e-02,3.902890974337466790e-02,1.273145914077758789e+00
1.447737484970615732e-02,-8.153205631327073988e-01,8.002067647777276749e-01,-1.907729965281199092e-02,1.695277391428263905e-04,-6.093047437407082649e-03,1.399691104888916016e+00
2.088524227108985373e-02,-7.717646333647452117e-01,7.725042332002306500e-01,-2.278378262716691458e-02,-7.087612295437172201e-03,3.463617709616047778e-04,1.338171839714050293e+00
-9.783657668509326832e-02,-8.871492344027155363e-01,9.162490868144329559e-01,-3.300047415530351080e-01,3.129860853223681016e-01,3.950484594237064356e-02,1.754162788391113281e+00
1.370918308959718883e-02,-7.818997255264614754e-01,7.779135466873590143e-01,-5.211827432740682954e-04,8.835326646172796377e-04,2.586212026892528628e-03,1.350937724113464355e+00
-4.252469216749195369e-02,-7.536901681414358567e-01,7.376447214039709710e-01,-1.041842885061191465e-02,1.816329444891073841e-02,-1.587092045933050088e-02,1.292795896530151367e+00
1.624276399673267590e-03,-8.250655957199370949e-01,6.969324280074716826e-01,9.884678667513779535e-03,-6.269567303527775158e-03,1.129020991412858256e-02,1.320025444030761719e+00
-5.155284771565496471e-02,-8.355032702174025605e-01,7.045368123524949899e-01,-7.762001947894232000e-03,1.041617644087498989e-01,1.152324003265770523e-02,1.346148133277893066e+00
2.127065185957290744e-02,-7.801589659024082968e-01,7.772746498503237955e-01,-9.427882269059734621e-04,1.274714004218139955e-02,2.395138422856228112e-03,1.349156379699707031e+00
2.847745308512191625e-02,-7.743948881164702813e-01,7.670486746088605035e-01,-5.543012288684838994e-03,-1.176487552453712917e-03,-5.476617754009510891e-04,1.335352778434753418e+00
-3.790775404213276439e-02,-8.314854251961976139e-01,7.660381115003950248e-01,1.077974103044246693e-02,-1.391714899753162225e-02,1.919426546978952874e-02,1.384240865707397461e+00
-4.629560374802166312e-02,-8.276905397539914278e-01,7.924127429567802139e-01,1.201518690752891461e-03,-2.961727925177683532e-03,-2.301270605328925665e-03,1.403359770774841309e+00
-5.597296678568080414e-02,-7.991944231384736641e-01,7.365595802964045591e-01,-2.174482718172439030e-02,1.287460502828153275e-01,-2.091046701731552951e-02,1.349803686141967773e+00
-5.123290811350819651e-02,-8.111056383576122908e-01,7.301738710197621662e-01,1.422773826368893199e-02,7.334137440066061404e-04,2.866515402011901234e-03,1.335067987442016602e+00
-1.436255688294057337e-02,-8.210625747488206061e-01,8.198877081003098644e-01,7.107741587442400165e-03,4.813363095016074192e-03,1.030341622608176759e-03,1.421250343322753906e+00
-2.841523328922011121e-02,-8.048349441255319148e-01,6.934475428723005930e-01,9.136538749400569849e-04,-1.412581870706385565e-04,1.407868220273644777e-02,1.298067450523376465e+00
-3.912613566695419959e-02,-8.491397644732159300e-01,7.941991603830181878e-01,-2.080427907542677438e-03,1.541835857665350626e-02,-7.544197797610950260e-03,1.423536062240600586e+00
1.548820049077275461e-03,-7.958836450953079567e-01,7.877318027686684987e-01,-5.855013918806920362e-03,-1.345069776103047449e-03,-9.883643077382418297e-04,1.371503233909606934e+00
-6.896071482290311305e-02,-8.432022720828775686e-01,8.460896260427154258e-01,1.492539148385087396e-02,-3.260948892988115022e-02,6.012992621957464687e-03,1.466016411781311035e+00
-3.018428498086433986e-02,-7.963218828920378689e-01,7.941406269277084817e-01,-7.744231478772595862e-04,-1.766836718424107458e-02,2.206892452464971534e-03,1.378033995628356934e+00
-8.259711154937035560e-02,-7.385515302687707395e-01,7.994169113784450609e-01,-5.450631385459539513e-02,2.937008628945585176e-02,4.853589126528351505e-02,1.343634486198425293e+00
-5.272017182629558374e-02,-8.326589074207122465e-01,8.025562503505397904e-01,4.944579513049432093e-03,3.365802548580626441e-03,-2.013922042727479128e-03,1.416680932044982910e+00
-3.429732907811000597e-02,-7.843825605978212989e-01,8.981443942091329458e-01,-1.290626022674984941e-01,6.476791974422156650e-03,2.429373171481413393e-02,1.477617740631103516e+00
-5.550124322601545507e-02,-8.397923590177939213e-01,8.068370440828190882e-01,1.453179399452755351e-02,7.891682393731971196e-03,-1.048763180562846745e-02,1.426959872245788574e+00
2.826031585106364777e-02,-7.740563917078064904e-01,7.720468019132955551e-01,7.348593768735595631e-03,6.154693841536528973e-04,3.243574280452075995e-03,1.339357137680053711e+00
-1.453741292058707835e-02,-7.499927838442198569e-01,7.839796192890841064e-01,-2.403585137630944238e-02,-2.092135811030633452e-02,1.123278930566728138e-02,1.330121278762817383e+00
-4.132654744086295545e-02,-8.571628912830508984e-01,8.640293954051868619e-01,-2.395636580857133172e-02,1.228388784217645559e-02,-4.850446876721214301e-03,1.492020606994628906e+00
-3.690649289436207653e-02,-8.017006150766082806e-01,7.789441020792770010e-01,-1.876686491107739177e-02,1.819244505757729169e-02,-1.336603592541244596e-03,1.369866728782653809e+00
-1.071602965086266845e-01,-6.861983186257160083e-01,8.941931162717149384e-01,8.837526019961346180e-02,-1.204237319672597437e-02,4.861555347855962134e-02,1.395984053611755371e+00
-4.248893748146329030e-02,-7.990313157344161032e-01,7.984375951037181451e-01,8.071390179261674069e-02,-1.022400265483209697e-01,8.240828886479821536e-02,1.409605264663696289e+00
-1.859071743844140784e-02,-8.178897709129768767e-01,6.827407499468083341e-01,1.220560220825696145e-02,-2.357554600978575138e-02,-4.235691355013018744e-02,1.303385972976684570e+00
-2.892004720203491391e-02,-8.344406292432284822e-01,7.437980748143774301e-01,-7.070582634427243114e-03,9.433664527176166027e-04,1.378782793948397701e-05,1.366949081420898438e+00
-3.742374315243811311e-02,-8.164177506203101897e-01,7.538545258871836019e-01,4.652934350544840614e-03,3.968627182590588227e-03,-8.444412845531276170e-04,1.359951615333557129e+00
-2.542281874069201447e-02,-7.910415742431470276e-01,7.932803769961737084e-01,9.760921547099850326e-03,-1.765656945466694341e-02,-2.321380536073402653e-02,1.373353242874145508e+00
-1.308515467908388102e-02,-8.242578341558117749e-01,6.503364162001140647e-01,-1.129243976621112887e-02,-4.748683502249062549e-02,-8.859100425093800746e-02,1.291112422943115234e+00
3.714904463464940854e-02,-8.111944243010792421e-01,5.199483505034677711e-01,-1.604540711120862773e-04,1.073215234679141851e-02,1.059247594371687771e-02,1.167494654655456543e+00
-3.744484330510197689e-02,-8.220339391277493579e-01,8.045951581214751958e-01,3.325549786836914760e-03,-6.720501467083855353e-03,-5.424403569129507795e-03,1.409086108207702637e+00
-3.103117956028195873e-02,-8.335071108575626830e-01,8.123373240374024418e-01,1.996088926737785499e-03,1.140435262770945384e-03,-2.635936917499654558e-03,1.425502657890319824e+00
-5.088710029036892790e-02,-8.096297133224166220e-01,8.072021119852533788e-01,-1.036557294420644738e-02,-6.334313667678237621e-03,2.433979051083248399e-02,1.401890277862548828e+00
-5.430263047867568693e-02,-8.228008574534276809e-01,7.783280211588112785e-01,-2.267381798486969857e-03,-5.818792332955828421e-03,-8.419545000030824802e-03,1.387107849121093750e+00
-9.188371776636760843e-03,-8.253814548676645657e-01,8.506931445544713144e-01,5.815932316165174989e-03,8.018845058221228325e-03,-7.709656843619819462e-03,1.451850295066833496e+00
-9.469932937438133025e-02,-6.559586365942708941e-01,8.579465369493332050e-01,6.345191771031433170e-02,1.287498450755583321e-02,4.860435458244025814e-02,1.333000540733337402e+00
-5.723202754119950664e-02,-6.400781759058247200e-01,7.811577026050680050e-01,5.631810707648420011e-02,2.392503764568562619e-02,1.187885870474812561e-01,1.258897900581359863e+00
-3.493892459534433254e-02,-7.705385059453564445e-01,7.712220147338531007e-01,6.455071920620969461e-02,4.520281336569892394e-02,1.177026266758440451e-02,1.342780590057373047e+00
-1.627767364686668605e-01,-1.967997388000611858e-01,7.078271928415600378e-01,3.436305231026100769e-03,-1.127754496432963440e-03,-1.123747745072989357e-02,8.883396983146667480e-01
8.723392534867591142e-03,-9.183227814385248600e-01,5.881631361433642402e-01,4.100328808712484785e-02,2.020191951165556388e-01,6.418330179043828243e-02,1.368272662162780762e+00
3.646343444549740576e-03,-8.823897995486887913e-01,6.297604875582597517e-01,-2.230238796537608106e-02,8.618699638497867577e-02,3.599095602687502060e-02,1.326462030410766602e+00
-8.971156849641247211e-03,-8.468207231190758577e-01,6.739187348464508176e-01,-2.579010380598157140e-02,4.369682373852386975e-02,5.835676360463151746e-02,1.326057910919189453e+00
-2.938989298186136037e-02,-7.844062126064500484e-01,7.717345093951600843e-01,7.504756290417020914e-02,6.221485174203342239e-02,2.778516055247514001e-03,1.358397483825683594e+00
-9.332853418556975866e-02,-7.226967126709928912e-01,8.173250447491243742e-01,-2.586854814431667482e-02,2.914888638002611707e-02,-3.170328627126720034e-02,1.343913078308105469e+00
-8.603268996480838149e-02,-5.918841702134709504e-01,7.750683975197282249e-01,-3.669072114273840696e-02,2.019238262295002667e-02,-2.848453418597279851e-02,1.200277447700500488e+00
-1.117201007614498087e-01,-5.931051874238691957e-01,7.930058101902226486e-01,-3.732845396150349243e-02,1.023932043847416984e-02,-2.561716934294992754e-02,1.221575021743774414e+00
-1.117780726043482442e-01,-4.063555192497876334e-01,7.486299092474616446e-01,-6.069564219754926965e-02,1.444483751373362018e-02,6.474477794327222237e-03,1.045149803161621094e+00
-5.196025193459199998e-02,-5.823762396005766062e-01,7.562364110391859295e-01,-5.418315274489210465e-02,2.682959590488907115e-02,-4.741626334643968266e-02,1.175123453140258789e+00
-5.526298720669209352e-02,-5.924245442151974128e-01,7.714715053366973940e-01,-6.626041273418055433e-02,2.294548227919214478e-02,-2.998537746158274134e-02,1.197318077087402344e+00
-1.541427735152128137e-02,-8.316595048895382147e-01,6.938389649125854541e-01,-6.710325759957315884e-04,2.979915531367558000e-04,-1.104396759698724438e-02,1.322342038154602051e+00
-8.515858738851303511e-02,-5.172201178680065903e-01,7.434591733859788887e-01,1.224488414457143223e-02,5.559220780674779296e-03,-6.271528010035058893e-03,1.109936475753784180e+00
-4.353918447000328096e-02,-8.439694290222409245e-01,8.608387857493992046e-01,-6.329976971775381697e-03,-2.070174951531052448e-04,5.068794303583024985e-04,1.477362751960754395e+00
-3.739633748658882650e-02,-8.282337245356236055e-01,8.234455333483725603e-01,8.874748532798468550e-03,1.201746656666632766e-02,5.208671412223168581e-03,1.431086778640747070e+00
-1.226036820526171106e-02,-8.291322035268320345e-01,6.988033758654798033e-01,1.776763906405870105e-02,-9.651318613367533723e-04,-1.873233987086332306e-02,1.325044035911560059e+00
-8.573502490322433556e-02,-8.316584003484486232e-01,8.575768587726709802e-01,-4.000888407951326553e-03,-2.441517059679279913e-02,7.289780250544452417e-03,1.466926455497741699e+00
-3.961234677167237844e-02,-7.932078424560514707e-01,7.189109239749410518e-01,1.647635506739626027e-02,3.166201943745601544e-02,4.075320017466711048e-02,1.312892913818359375e+00
-6.149993727673808142e-02,-7.842666681826233610e-01,7.890796591666989768e-01,7.118452741759016128e-03,4.169237138973352040e-03,3.749214375857440069e-03,1.364145994186401367e+00
-5.909476903817595383e-02,-8.201004953351909155e-01,8.104384242164550667e-01,2.247289578241329789e-03,1.206230167715368826e-02,2.380508819972286614e-03,1.413296222686767578e+00
8.054024472569698556e-02,-1.446162270781821357e+00,7.235626649801421006e-01,-2.709613211371961206e-01,3.275377764678988335e-01,1.050296628786279579e-01,2.073933362960815430e+00
-9.113011188491669523e-02,-7.947293414260960809e-01,8.254567131792241996e-01,1.349209642278013412e-03,7.372061423924135227e-04,-1.455027338745752165e-02,1.407385945320129395e+00
-1.872169600507611262e-02,-7.913285107829431952e-01,6.686245758988487164e-01,-3.028503250999604445e-03,-3.988362513501885614e-02,4.306711622161412192e-03,1.266992449760437012e+00
-4.407965826495142264e-02,-8.382701412257937967e-01,8.513630197623128781e-01,1.035179322020236305e-02,2.369382644881121440e-04,2.499884328843753403e-03,1.464257001876831055e+00
-5.998961816351983806e-02,-7.936298162965509384e-01,7.961133928720341979e-01,-3.893698252161603354e-03,-1.735803327645659908e-02,-1.576403984911408512e-02,1.378733754158020020e+00
-8.860326218793333763e-02,-6.247060586558419448e-01,6.795320070438652937e-01,3.790399662465634718e-03,-1.443129713430873866e-02,-4.558635275528705871e-02,1.138481259346008301e+00
-1.187962714976386891e-01,-4.558515258209875354e-01,7.496913492329777551e-01,1.319664788471301827e-03,1.949636785519322235e-02,1.175347473847822288e-02,1.078037738800048828e+00
-1.408943886828349645e-02,-8.554638068255809857e-01,7.216124999076722890e-01,8.554555926952202641e-03,4.204863696406346309e-03,9.646142058142043174e-03,1.367011547088623047e+00
5.435936899471631445e-03,-7.516400707486817767e-01,7.736739245688949440e-01,-2.028059370466400203e-03,-1.358685801193664638e-02,-3.584191115287429803e-03,1.321201324462890625e+00
-5.877778035869946072e-02,-8.470529059665695693e-01,8.613911587452270924e-01,2.066522680681100524e-02,-6.322921404567045933e-02,1.512623946148557554e-03,1.485502123832702637e+00
-8.962423728564977710e-02,-4.118911678597448889e-01,7.796103095152445706e-01,-9.907778310690587564e-02,1.591861456511255504e-02,-2.082455313923904650e-02,1.082155585289001465e+00
-1.368786990801037357e-02,-7.666836119842895814e-01,7.834443135750128739e-01,1.519489492454207411e-04,1.236649731798724998e-02,5.178426573689291247e-03,1.342832326889038086e+00
-8.063629228778831926e-02,-6.125946675610400849e-01,7.672184901310987737e-01,-6.117010353647279325e-02,9.800799128138165239e-04,8.545565710586828720e-03,1.210085988044738770e+00
-3.493351315760778036e-02,-8.116835808472281366e-01,7.491291201658223375e-01,-3.979074067057651078e-03,-2.588712275494068141e-02,1.658103777381126839e-02,1.352774262428283691e+00
-6.308593732544333366e-02,-6.676239270111136159e-01,7.360060158397269126e-01,-4.658178925475513210e-02,1.815974272466888348e-02,-6.601444997524180680e-02,1.227871417999267578e+00
8.389215018260276491e-02,-1.416601859320212320e+00,7.551065473303113507e-01,-1.380774659660935141e-02,-2.912665721955124409e-01,-2.070833740898899433e-01,2.023090600967407227e+00
-9.444763994848900945e-02,-6.406504831269485001e-01,8.703619247090450539e-01,-1.540410151106852144e-01,1.058472350525855969e-02,-1.166405165558068585e-01,1.366935968399047852e+00
-2.950599189801920291e-02,-7.390406304861143472e-01,7.830004324311062858e-01,-3.676330410484283939e-02,1.059649214649277527e-02,-1.034908837539023343e-03,1.320796012878417969e+00
-7.857552923186704452e-02,-6.857689605641235087e-01,8.093803008629978368e-01,-2.487124738793761169e-02,2.222382838265353142e-02,-1.518665717704249796e-02,1.303970694541931152e+00
-5.783014955733108142e-02,-7.990671268050648646e-01,8.207691416440479060e-01,-2.760031154191498574e-03,1.584748657869091901e-02,-3.988743696121039607e-03,1.404792904853820801e+00
-4.723847967376088725e-02,-7.968916473548011137e-01,7.678010577920238999e-01,-7.895895931142937058e-03,8.638298582022116466e-04,-9.474774352325054591e-03,1.355627059936523438e+00
-7.032966650154993948e-02,-8.227221772011905632e-01,7.894816901063558268e-01,7.234922644736859788e-03,-7.296565203309197944e-02,2.337287375911490869e-02,1.403585910797119141e+00
-1.310794895245608882e-01,-1.274495973740747301e+00,1.384973316788169928e+00,-2.220476010426865321e-01,7.525651883708475709e-02,8.360809103899391123e-03,2.346148490905761719e+00
-1.489872729291321848e-02,-7.666461530252475232e-01,7.909950069022316788e-01,-2.600829308775972487e-04,2.390755356117120478e-02,4.986404245769151394e-03,1.349891424179077148e+00
-6.340616343254409926e-02,-8.172780498656353476e-01,7.592744939805108340e-01,7.006033490874821745e-03,-2.887255882719581140e-02,6.715765905430534644e-03,1.366786599159240723e+00
-6.543823914010735154e-02,-8.242547004035418734e-01,7.626824677525472218e-01,3.183914507043135596e-04,-5.338674233237322708e-02,4.717261790840279051e-03,1.377895355224609375e+00
-4.678136707164783775e-02,-8.076430754041746818e-01,6.666440305182774750e-01,1.441759384314042535e-03,-7.329020338083809538e-02,3.303600229315736131e-02,1.284561872482299805e+00
2.715807651749497717e-02,-7.726655965353957933e-01,7.685293326623348076e-01,2.139824086683569937e-02,-2.348423916110850302e-04,5.609982043552017581e-04,1.335548639297485352e+00
-4.702014636968945838e-02,-8.450586175824893465e-01,8.439935230928351517e-01,-3.742448831931693976e-02,-4.562893419921613958e-02,-1.285120997871501414e-02,1.467234492301940918e+00
-4.482231852276196554e-02,-8.361208791695206033e-01,7.257369041400079102e-01,8.077795959797712255e-03,-5.468510708098130169e-02,2.984606804044723921e-02,1.357017636299133301e+00
-5.611624599604175812e-02,-8.287966000588444793e-01,7.624824692733079834e-01,1.664645285865293256e-02,-2.465984249577220233e-02,1.661053379704477070e-02,1.379542469978332520e+00
-1.884270314903905286e-01,-2.449622862590644656e-01,1.210977583984701678e+00,1.841311018831674473e-01,4.469919651548442951e-02,-8.014354254182655402e-02,1.472284317016601562e+00
-3.369214306497973765e-02,-8.293251611654012256e-01,7.865024145519093901e-01,-6.347204994373091200e-03,-6.721407777457845054e-03,-3.089943051129874583e-03,1.399503469467163086e+00
-5.594381938846540447e-02,-8.238976917985271209e-01,7.874712345905026112e-01,-8.888675256395036023e-04,3.916555335321436800e-03,3.642366126883435362e-03,1.396028041839599609e+00
-2.997949217404673530e-02,-8.236930071340834436e-01,8.073451824841152424e-01,-3.906799731949575465e-03,-5.528532307280646305e-03,1.855167202287604650e-02,1.413102865219116211e+00
2.952047546244757417e-02,-7.987321591953242539e-01,7.766283707726729935e-01,-1.190154668638721339e-02,2.483816311813840608e-04,4.511033019851720324e-03,1.365083456039428711e+00
-3.939846816993598094e-02,-8.183417496110612088e-01,7.540877962191046002e-01,5.034049356724567062e-03,-1.583770081489109527e-02,2.441578007741942308e-02,1.362743854522705078e+00
7.706948684358575809e-03,-7.255928411446611603e-01,7.556655522685798987e-01,4.758315911098632243e-03,1.082101086737431717e-02,1.323993579475227439e-03,1.282993793487548828e+00
-1.591307972863971465e-02,-7.939524005409595020e-01,8.079288859399773592e-01,-7.042074348176352062e-03,1.528766924561829332e-02,9.560147897667578901e-03,1.387863993644714355e+00
-4.474480632558922727e-02,-8.292897866297513909e-01,8.131550249107584172e-01,6.569644305995106341e-03,5.831380164464258775e-03,1.163252914089654699e-02,1.423095703125000000e+00
-4.454687248660603449e-02,-8.387109560725752866e-01,8.424198338690794818e-01,1.045831156644162589e-02,-1.495159542389272456e-02,-3.542766263706517704e-03,1.456996917724609375e+00
1.148074318710215307e-02,-7.251789012834808368e-01,7.596183937725468072e-01,5.879533975350336242e-03,4.921684161853097719e-03,-1.027136887158789952e-04,1.285953521728515625e+00
-4.382922183168748431e-02,-8.281783274234369996e-01,8.118946774755075868e-01,7.487069533167764988e-03,5.009421997289403850e-03,1.037262591729508875e-02,1.420992374420166016e+00
-1.179412060088688707e-01,-6.967018037781020912e-01,8.119003212189050966e-01,9.432881688786139834e-03,-6.287702725245830724e-05,-1.011016047487688259e-02,1.318445444107055664e+00
9.209860793683372071e-02,-8.199514522060876720e-01,3.614952223407263410e-01,-5.867762184911716472e-03,-2.220415203323049605e-02,2.205435662815576070e-02,1.073850393295288086e+00
-3.706819967202771432e-02,-7.523109451353794386e-01,7.896211037848921421e-01,2.756205219842298298e-02,4.993115411081613421e-03,-1.965017601717770554e-03,1.337399125099182129e+00
-4.258236256031870670e-02,-8.279961265131552395e-01,8.277180210422016016e-01,1.394708633129585797e-02,-2.031137722654328612e-02,-5.025455234545746393e-03,1.435179591178894043e+00
-3.151934010605712128e-02,-7.901134938674306829e-01,7.993635641554804883e-01,-4.000270732791255841e-03,2.122876475552844255e-02,4.397802411037309359e-03,1.377531290054321289e+00
-1.482273971249672799e-02,-8.047026491722151231e-01,7.972641101643185291e-01,2.335282412523062741e-03,-4.745358901405730308e-03,5.215292816490391635e-03,1.387447953224182129e+00
-3.921050124543955934e-02,-8.303142063233101000e-01,8.105657958699722387e-01,-1.178719925631746112e-03,6.058026868925983676e-04,-2.171234170390323130e-03,1.421353340148925781e+00
-4.544270425759192045e-02,-6.611480467738335420e-01,8.123481222477095809e-01,1.213127943110559742e-01,3.429272334417790558e-02,9.998087893405211909e-03,1.300393342971801758e+00
-2.379833699965114985e-02,-7.594198044174678142e-01,7.986920994928471407e-01,4.185183946328584204e-02,-1.082786677844414097e-02,-4.730112116898629523e-03,1.352162957191467285e+00
-5.542689613804284432e-02,-7.369301282874098913e-01,8.112391576241582136e-01,5.323011688207215930e-02,-2.007287620910184339e-02,-4.643750919818023098e-02,1.349952220916748047e+00
-2.484449764927356211e-02,-7.878090279043922228e-01,7.844819354391912025e-01,3.347825028422569266e-02,-2.483100548501736976e-02,-3.796798800857617562e-02,1.365338206291198730e+00
-2.481002036948137812e-02,-8.670064259395326989e-01,7.314290734753018386e-01,1.150831776010210854e-02,1.725078658881169791e-02,6.477802849354985515e-02,1.389954328536987305e+00
-5.460008559654079552e-02,-8.246654182126678112e-01,7.973181506488938863e-01,4.461085571348054855e-03,-1.184083130294159616e-05,-4.678115868785384830e-03,1.405319690704345703e+00
-1.336255777639053753e-02,-7.890419260667730361e-01,7.946817894773853252e-01,-3.595119340994332082e-03,1.820522676431196238e-02,4.539536430501764711e-03,1.372039437294006348e+00
-3.429028587734688632e-02,-8.208210917814553476e-01,7.872612215889197573e-01,-4.393549206821427237e-03,-5.031384545716639269e-03,2.058331917444834562e-03,1.392802834510803223e+00
-7.131694284375530990e-02,-8.131588506418495621e-01,7.643531249732076205e-01,-1.573047257651402110e-03,-5.398317593832776054e-03,-7.992370542597300800e-03,1.367075562477111816e+00
-1.238711098958371337e-02,-8.266019923971694716e-01,6.759336962430980700e-01,-1.508895594279873039e-04,8.357166347553953573e-03,1.158441812993768125e-02,1.302990674972534180e+00
-5.192411727792319714e-02,-7.041519702100255129e-01,7.870021313043508160e-01,-1.201002609281719494e-02,2.158922337775249362e-02,-1.799387939430644942e-02,1.295828580856323242e+00
-5.216337384170655761e-02,-8.325737802559761702e-01,8.173072020594960296e-01,4.018371033677054817e-03,-5.671410137537408538e-03,-4.857458622467255085e-03,1.429607987403869629e+00
-4.769949595682117932e-02,-7.661287458424717034e-01,7.939308045858307628e-01,-1.793628452563479636e-02,1.353060594080614763e-02,-2.040900344833193950e-02,1.353476285934448242e+00
-6.048399622712959112e-02,-8.104264548215167618e-01,7.932554311501703870e-01,-5.501151640402007596e-03,-6.817422306290323031e-02,2.416266892057170393e-02,1.395466089248657227e+00
1.596334107240505139e-03,-8.216724455886713629e-01,8.176014636487279885e-01,1.736995303934210297e-02,1.159468039374842059e-02,5.472970378880961939e-03,1.420149922370910645e+00
-8.261553699399071249e-02,-8.045449915102991234e-01,7.558827282629585476e-01,1.095299903642105903e-03,-1.449787078677959584e-02,1.906167233630472451e-03,1.352864742279052734e+00
-4.375626412355729244e-02,-8.130674951091526603e-01,7.849378781755470547e-01,2.336265742725501023e-03,9.925818617576683683e-03,2.131965916629187038e-03,1.384349346160888672e+00
-2.404378861221633662e-02,-8.045657736480769096e-01,7.854098631587599355e-01,-4.187768129901548592e-02,-9.864856180354087539e-03,-2.517160265668386479e-02,1.379739165306091309e+00
-4.511866103425360430e-02,-8.186611326672470490e-01,7.824438820890519120e-01,5.505076466066780895e-03,-1.135558612714426645e-02,1.979737931591142239e-02,1.387456655502319336e+00
-3.069726708591383538e-02,-8.214676976589355695e-01,8.064214856083825600e-01,1.243671325104646775e-03,1.420631153900844433e-03,1.704731843565850764e-03,1.409990668296813965e+00
-8.523700791809853128e-02,-8.133262583639830900e-01,8.132211674122765688e-01,1.068080308722524222e-03,-2.688117899444796011e-02,2.593547068347944358e-03,1.411980986595153809e+00
6.533557560086606167e-03,-7.438811067566848401e-01,7.709384059194103189e-01,2.652125193217660243e-02,-5.750865174505521982e-03,8.765778398418795463e-04,1.312733530998229980e+00
-3.468955478406421378e-03,-7.404826580735173192e-01,8.092133326358121881e-01,6.915038588283353715e-02,-5.848555691878366304e-03,-4.859989388611891253e-03,1.348005414009094238e+00
-4.889499226165297530e-02,-8.289995541678957247e-01,7.856259563227920850e-01,9.562466982853999944e-03,1.572983467400569874e-03,5.320134124682369264e-03,1.398702502250671387e+00
-1.381226115136573868e-02,-8.265616871108080188e-01,6.763021127611629213e-01,7.356914818870749842e-03,-2.011573967108562511e-03,1.172074260802471492e-02,1.303186893463134766e+00
-1.709859382207027517e-03,-7.347129673424407370e-01,7.802688772379229309e-01,3.817550031373855707e-02,-8.332086321072903340e-03,-7.448271324599762232e-03,1.314048647880554199e+00
-2.871904008075904652e-02,-7.575178887196175603e-01,8.162470026444202942e-01,6.861263393655332721e-02,-1.704526979943133194e-02,-4.752465227341465953e-02,1.372113704681396484e+00
7.872666195677287260e-04,-8.204720218800235498e-01,8.025327898047860398e-01,2.450271208346441881e-02,-2.117255474031974616e-02,-1.882883043677477386e-02,1.407093882560729980e+00
-7.271520811796677863e-02,-8.120337946407383267e-01,7.814104933523638996e-01,1.856121197197656498e-03,-1.804900052492645771e-03,6.971975309664355837e-03,1.381216764450073242e+00
-7.914292280507881361e-02,-8.146367350485284042e-01,7.830839287152946415e-01,6.313986944617939155e-03,1.581601331505376462e-02,-1.023465545969496487e-02,1.385544300079345703e+00
-3.490579435450583135e-02,-6.350351565093029782e-01,8.500254912918150385e-01,1.039047573266898838e-01,2.725355014214344770e-02,-5.014443632057511563e-02,1.310149669647216797e+00
-2.457137322596080614e-02,-6.702854538147837715e-01,7.688906462389067942e-01,7.376500181335443607e-02,-1.278176159354930085e-02,-2.156532531543677630e-03,1.255271315574645996e+00
-1.582033512758717619e-01,-2.326717934328187964e-01,7.315080023039766122e-01,-5.299087029444002339e-02,4.580824043699202944e-03,-4.099402122573541501e-02,9.364378452301025391e-01
-1.968851079265626983e-02,-8.220132661260896034e-01,8.039565790525936562e-01,-1.007575572827250007e-02,8.454989878886017343e-03,-2.026742456358086083e-03,1.408360242843627930e+00
-1.653841143546779802e-01,-3.108502260901365721e-01,7.433047545200902606e-01,-1.152589111527973706e-02,7.699512392394330072e-03,2.502947347584691742e-02,9.907144308090209961e-01
-4.858499640746107712e-02,-8.261621132365137843e-01,7.905568520499135499e-01,2.392949540567824562e-03,1.236322255672167233e-03,-5.091824222388748912e-03,1.400493621826171875e+00
-1.688110983703272616e-01,-3.155943568433506874e-01,7.470903277494310712e-01,5.212733342003276170e-04,-9.471482511559935506e-04,2.465587152009642360e-02,9.983420968055725098e-01
-1.538703459063670287e-01,-3.693965215922916934e-01,7.412157204908282893e-01,-3.968961295223893959e-02,6.993986244098060608e-05,3.788471781615890266e-02,1.024488449096679688e+00
-1.364249777511468420e-01,-3.801180198471241778e-01,7.376669265906957706e-01,-5.350613905938730180e-02,-1.541407106461005309e-02,3.382355519489027573e-02,1.024288415908813477e+00
-1.325762144628881214e-02,-8.104717695632873697e-01,7.974537441293554352e-01,-2.132128844652231899e-03,-1.030125838413103925e-03,-4.558386567372333352e-03,1.392549157142639160e+00
-1.675550935692648180e-01,-3.553614688990124892e-01,7.254009411001481888e-01,1.607069176666235276e-03,1.840677660728426424e-02,-1.595891425851274012e-02,1.001065850257873535e+00
5.446079704209907946e-02,-8.097894899739194186e-01,4.919139273198004370e-01,1.764277727660865666e-03,-4.664022366783714818e-02,4.060270424789614446e-03,1.150194525718688965e+00
1.508493731591442621e-02,-7.933425458097490557e-01,5.664466363926619064e-01,1.162478399365942001e-02,-5.159197152787651369e-03,3.845833204121091448e-02,1.186681509017944336e+00
-4.706945822418262537e-02,-8.469516903939851016e-01,8.090787680407678373e-01,-9.019251134225581001e-03,4.906764614536407443e-02,-1.503555438696031407e-02,1.437276721000671387e+00
-4.585826453632373817e-02,-8.130169479048600101e-01,6.589782551353184914e-01,6.186214655151040019e-05,9.674979479339233801e-02,3.466702235340464889e-03,1.286143898963928223e+00
-2.904311682455318344e-02,-9.680326690522012001e-01,7.322027382170814835e-01,7.166484563733171130e-03,1.876296782023753884e-01,2.186267184309396636e-02,1.511026501655578613e+00
-3.800674003159203174e-02,-8.215315577161845795e-01,8.076348772088639549e-01,3.389048078907515044e-03,-6.139368447497644925e-03,-3.395258575162396399e-03,1.411305904388427734e+00
-4.171011840056261522e-02,-8.356091959958571458e-01,6.542785759903595455e-01,-7.219253590456393976e-03,1.021425568298870434e-01,1.920844516104292660e-02,1.303757429122924805e+00
-1.113627877502059750e-02,-8.198602739546181351e-01,8.003083198533060827e-01,5.274630057619934635e-03,1.649153371548298195e-03,-4.547499204688951538e-03,1.403162598609924316e+00
4.091874443514548210e-02,-9.038254574337339919e-01,4.658876629477410880e-01,-9.540950426847289584e-03,1.389919451103130699e-01,1.280633024127922001e-02,1.238284468650817871e+00
-1.299843978944436283e-02,-8.210379060714245725e-01,7.995296212130974522e-01,-2.959821768845575379e-03,6.178221088510098789e-04,4.460303865937565240e-03,1.403485417366027832e+00
-7.266319001407302303e-02,-8.152080257842472255e-01,7.447737041590228868e-01,9.164123979732149289e-03,6.459499523654613218e-02,-5.109213701471552321e-03,1.356247544288635254e+00
-4.574271741347180065e-02,-8.549341312698123252e-01,8.430896376797829550e-01,-1.275262111222579334e-02,3.354512793704286788e-02,-2.646302699566084951e-02,1.473096728324890137e+00
-4.694293933809105812e-02,-7.557781009046831144e-01,7.758453085344322320e-01,1.461336234048981296e-02,1.564443521904213680e-02,1.333142300240482310e-02,1.328366279602050781e+00
-5.554183046196309315e-02,-8.287526280104563492e-01,8.136037173562233882e-01,-8.648265069458356200e-03,-7.829301503871496058e-04,-7.618798757964343610e-03,1.423271536827087402e+00
9.836265707741323472e-02,-8.044359888485321797e-01,3.725356788897167815e-01,9.325132286360430893e-04,-9.464742852160186112e-03,3.210278095732744391e-02,1.068223953247070312e+00
-1.398214668632810805e-02,-8.100942931062539154e-01,7.984414898645374459e-01,1.392938044164013407e-02,2.999980940909428677e-03,1.422110997731407126e-03,1.393277525901794434e+00
-7.422935487944072597e-03,-8.447615528949282693e-01,8.758019533830513348e-01,5.541892834432813469e-02,1.287711794731030875e-02,1.683847125731087815e-02,1.493767857551574707e+00
1.048683164253352840e-02,-8.146115647126166426e-01,5.839347176435851772e-01,-8.076061936470077529e-03,-7.640248831798405853e-03,1.584759175963108488e-02,1.218156337738037109e+00
-1.224904389752241168e-02,-8.139203758138584544e-01,7.999528669660612712e-01,5.326710865043837034e-03,1.648564239056511324e-02,-9.157183991280688556e-04,1.397988080978393555e+00
-3.682502133168780861e-02,-8.168063954119482162e-01,7.322714179375713339e-01,-1.625167034547937359e-02,-2.440687165733673725e-02,1.126606800264619290e-02,1.342654585838317871e+00
-3.507443824221681550e-02,-8.084884488997353680e-01,6.986449467275968050e-01,1.661296964764328796e-02,2.047605672358388234e-03,4.767640073961678000e-03,1.305714726448059082e+00
-4.808525938722288395e-02,-8.414814267933062863e-01,8.046296129459252766e-01,-9.520789523015446912e-03,-3.478407935120626966e-03,-1.426357761226234103e-02,1.426204562187194824e+00
-2.577449123288564140e-02,-8.488328797559688832e-01,7.072471526163498501e-01,-3.767508172000764467e-03,-2.873022660751522669e-02,-4.058766480135243826e-02,1.351120471954345703e+00
-5.245731051036545134e-02,-8.172811631284079281e-01,7.982715529462007797e-01,4.820745610183730344e-03,-1.243219695565697495e-02,-1.941454186194417316e-03,1.399963378906250000e+00
-4.690439370614349346e-02,-8.315155962480175189e-01,8.067127443905183215e-01,-4.217458178985774436e-03,4.204936339660637554e-03,-2.706603567256719595e-03,1.419212102890014648e+00
-6.864466341460973009e-02,-4.815191178020304941e-01,8.275089526260929196e-01,1.471691155405032425e-01,1.199917595567869325e-02,-6.155674737769691561e-03,1.187045693397521973e+00
-6.119210427212719988e-02,-8.281414937436660795e-01,8.132718526172396656e-01,-3.630933464752821981e-03,-1.676251015499321401e-02,4.871771445177024151e-03,1.422856926918029785e+00
2.479515242520199947e-02,-7.311469859305751440e-01,7.710188364707148967e-01,3.993526415806764041e-02,-3.265590700547646441e-03,-1.108269840818420582e-03,1.302774071693420410e+00
-4.978425272076276997e-02,-6.790145720018199160e-01,8.706119606233492236e-01,1.907419102780576470e-01,-1.266137249046433121e-02,-5.755224066280577311e-02,1.393472790718078613e+00
-4.899620445248027700e-02,-6.618890938254685663e-01,7.647247562735097759e-01,4.447331303158790633e-02,-2.561457736042050889e-02,-4.731397546858092523e-02,1.245440125465393066e+00
-1.376849393755918971e-02,-8.384726718101634946e-01,8.219018262914012940e-01,4.568452501345038330e-02,-2.513949902064550879e-02,7.832244311042813392e-03,1.440834403038024902e+00
-4.794194265287350654e-02,-7.406660856134830162e-01,8.039896482628392516e-01,5.309197501774755995e-02,-3.835985262877761315e-02,-5.987740788024857597e-02,1.348864078521728516e+00
-2.958288920821443291e-02,-6.660850725333880007e-01,7.951945970799887409e-01,1.159871437440938291e-01,1.452563158497753408e-02,-1.248848049579419014e-03,1.285053372383117676e+00
-3.402692595386785923e-02,-8.078947751437450808e-01,8.214856046716196847e-01,1.289677532386807324e-01,3.685056556690191609e-02,1.489434793912373933e-02,1.430896282196044922e+00
-2.511747345245120278e-02,-8.052304194749125843e-01,7.979011389444603530e-01,-1.250281094189763589e-02,-5.206524904957059510e-03,3.840889483220004483e-03,1.388732433319091797e+00
-8.192820271460721226e-02,-8.485986634374813598e-01,8.603191170129672605e-01,1.346767574323670018e-03,-3.044210814109557517e-02,-5.725935400800349212e-03,1.483539938926696777e+00
-4.251595977951118377e-02,-8.351711916084343379e-01,7.790161574590511728e-01,3.025530729576304118e-03,7.828493649734201507e-04,-4.076642757919084377e-03,1.398030161857604980e+00
-5.136523266604957338e-02,-8.256486793818572645e-01,7.846046574580017863e-01,4.160166038857136123e-03,1.043300567922372628e-02,-1.105017662070735887e-02,1.395128250122070312e+00
-3.815814187994678690e-03,-8.096400207860304787e-01,7.953878066079503872e-01,-5.314050695944042696e-03,-1.056656828687817413e-02,1.076730332701438366e-03,1.390151023864746094e+00
-3.756819894534983717e-02,-8.273072614686113324e-01,8.191158943733717335e-01,-3.092482808251094048e-02,3.647424592766256024e-02,-8.449746240585998339e-03,1.428714990615844727e+00
-9.676326640918379851e-03,-8.079031131412601763e-01,8.018628374381332469e-01,4.480725311570043709e-03,4.416209650115541195e-03,-1.684639699903895673e-04,1.394156694412231445e+00
-5.373341176093882759e-02,-8.648955845987085223e-01,7.144021106845827029e-01,2.883467134184519200e-03,1.396964692513379402e-01,-3.491604178593531865e-02,1.390441060066223145e+00
6.449469421949136083e-02,-7.997286731430626183e-01,4.533545748388009278e-01,-1.999319188934735748e-03,-2.943947595981512289e-02,-2.506442042258172007e-02,1.112947702407836914e+00
-1.253821925780508779e-02,-8.237768314080752274e-01,7.978649220736758751e-01,1.685663735159826032e-03,-1.877956145455367872e-03,3.627060155607856121e-03,1.404403924942016602e+00
1.225715593859343922e-01,-1.425753683951403561e+00,7.950134398339666619e-01,8.656138802967024148e-02,3.855787612556744737e-01,-1.936613783380576603e-02,2.088124752044677734e+00
-2.923651064011407660e-02,-9.965187117692123620e-01,9.318848643679072952e-01,4.825489365268890302e-02,-1.620555309044202641e-02,6.022627358712253492e-03,1.672407507896423340e+00
6.517026098661282685e-02,-8.045221419324991574e-01,4.838529652979827178e-01,-6.842467428831669474e-03,1.497748721947487344e-02,-4.033445320458783206e-02,1.140823960304260254e+00
5.761923758817283359e-02,-7.875463448259989452e-01,4.761765304829262968e-01,-9.892118262402327389e-03,-3.448859869107279846e-02,9.124757673174190703e-03,1.116851329803466797e+00
7.441521511211179885e-02,-7.835539555371207054e-01,4.179261544884392832e-01,4.574679064738565101e-03,-1.633189177086590785e-03,3.234355828067100739e-04,1.071869254112243652e+00
8.246692961000623434e-02,-8.134990196910569793e-01,4.124861983501540985e-01,8.961927824923261385e-03,-1.427045124840923239e-02,-4.881633523897976196e-02,1.102431297302246094e+00
9.546825178229861875e-02,-7.723091003764811502e-01,3.605903564770400749e-01,2.372685219702707661e-03,-2.492108138338442608e-02,2.019870865391839784e-03,1.027271389961242676e+00
-4.663904792226199192e-02,-8.240702703191807865e-01,8.050980353257206623e-01,6.276717937525716148e-03,8.341485952272386858e-03,2.374550248211496507e-03,1.411512017250061035e+00
-3.093242638780223375e-02,-8.137761082981495031e-01,6.936921675826116518e-01,1.440294521314350665e-02,-2.488743938994428077e-03,-4.559335295352210868e-03,1.306099534034729004e+00
-1.184940751593588706e-02,-7.783977496125319417e-01,7.885724245021553669e-01,2.040052904312150434e-03,1.781925255714021661e-02,8.473029178587927410e-03,1.357576489448547363e+00
-4.466292963844556430e-02,-1.413966489090393130e+00,1.278716312662956156e+00,1.380110358019586703e-01,8.292722292426972508e-02,1.137101155381201600e-01,2.356903553009033203e+00
4.244523431209280828e-02,-8.130388723380693738e-01,5.293170273340372933e-01,-5.633131217649954905e-03,9.219750729109379289e-03,1.903677665317720161e-02,1.177644133567810059e+00
-1.666699680165227293e-01,-2.578665147696470039e-01,8.385616584315196409e-01,1.119999725177795447e-01,-2.900851887625785844e-02,-2.649278525059767589e-02,1.073658823966979980e+00
-7.936605353325518197e-02,-6.340058474061461835e-01,7.758445770569464273e-01,-2.065663666038677904e-03,-2.128403870860503741e-02,-2.873322282311410996e-03,1.230748176574707031e+00
-3.149481458935673300e-02,-8.276735107973270944e-01,7.322678757339843303e-01,-1.245970044876803205e-02,1.028746283410370346e-02,1.557369607200397542e-02,1.351605176925659180e+00
-9.412475263333192066e-03,-8.309355910459478300e-01,7.006089343927121016e-01,-6.009696848597162293e-03,1.187425485029158269e-02,-2.050315609995578391e-03,1.327732443809509277e+00
-1.116910216913773179e-02,-7.924435336645437866e-01,5.999449843183546349e-01,6.495938214839240728e-03,5.676700019616081998e-03,-5.795618446159456205e-02,1.213094353675842285e+00
-8.959299010921217832e-02,-5.567574034464721766e-01,7.777092763642905471e-01,8.213660669251764135e-02,-1.093736657816739288e-02,-7.662012446726390591e-02,1.189049482345581055e+00
-8.274156704802518303e-02,-5.514235924972883396e-01,6.625994688583400904e-01,-1.597781806355023579e-02,1.948011364087178648e-02,-1.459137932723857944e-01,1.091009140014648438e+00
-5.693128328737424859e-02,-8.346441742280349407e-01,8.119498436266813224e-01,-6.140547524296918053e-03,-1.275955758137522437e-03,4.118269060196342191e-04,1.426762223243713379e+00
-2.856029389129322027e-02,-8.369913139459650431e-01,7.707783481971703932e-01,-1.383949218689147290e-03,4.987017705734733512e-03,7.127120521361390501e-03,1.392460346221923828e+00
-4.809112082093340568e-02,-8.347234330720698647e-01,8.127984808120628513e-01,-1.043113874308937124e-03,8.983670305982138088e-03,5.608870221582744001e-05,1.427364826202392578e+00
-3.065901093937656308e-02,-7.595844276769860848e-01,6.966437030177233813e-01,5.414651734336533434e-02,6.717234863241024201e-02,-3.133558630171234469e-03,1.269965529441833496e+00
-5.505225301648486447e-03,-8.006696469906520175e-01,5.759224898419472716e-01,1.368264467131401554e-02,7.332309310203552477e-02,-1.840807603168614567e-02,1.204318165779113770e+00
2.168257213333051048e-02,-8.369379254514598410e-01,5.760185016512521239e-01,-1.362043628911789941e-02,4.816412378702268626e-02,2.962679941595680946e-02,1.237186670303344727e+00
-5.665823443209063587e-02,-8.274141762948574730e-01,8.159549308765747799e-01,-3.914187957274863072e-03,1.301365192925880640e-03,-4.678989017706392493e-03,1.424151301383972168e+00
-7.563443658695656602e-03,-8.153774609978391430e-01,5.318057830508127193e-01,7.938932567529335266e-03,-1.918681848925618272e-01,-2.231509847484137304e-02,1.221194386482238770e+00
-3.978378457693835385e-02,-8.178891797204717040e-01,7.385862714528130812e-01,-1.106305947895009148e-02,-5.476000633930909467e-03,-3.520859544457660261e-03,1.348130583763122559e+00
-5.140298153121664743e-02,-8.556927522998563074e-01,7.499131871968922614e-01,-1.849969365352331294e-02,-8.789981426385035101e-02,-5.141352723466671021e-02,1.402004241943359375e+00
-5.212648603886178150e-02,-9.221684766636040198e-01,9.405379630406467406e-01,8.451287759819640921e-02,-1.535528178422929935e-01,-6.460343275382990358e-02,1.646420121192932129e+00
7.686662552875658805e-03,-8.218701491485309596e-01,5.841232966085586620e-01,2.582960806846956031e-03,-1.066795996945074237e-01,-8.697388089343059334e-03,1.238151550292968750e+00
-4.533380556249856641e-02,-8.373277874971050139e-01,7.859458121280064047e-01,7.711359599147192025e-03,-4.288878713910434549e-03,6.665387859638666722e-03,1.406063914299011230e+00
-6.476118581466282220e-02,-8.217761559854728226e-01,7.882333600869482204e-01,-7.524941891292700503e-03,-1.895689445622757152e-02,-1.272334703365344058e-02,1.395755887031555176e+00
-4.666894524803244515e-02,-8.335476675931234869e-01,8.122816461669677413e-01,-1.762567868459571441e-03,-2.549316416651280573e-03,1.529815886165405070e-03,1.425798058509826660e+00
-4.538576376651990568e-02,-8.294467254138085943e-01,7.833046696173318058e-01,-5.167048028397788068e-03,-1.744100785369331538e-02,-8.388729043841046396e-03,1.397292733192443848e+00
2.001910013766232052e-02,-7.263432879563678224e-01,7.622653595267762094e-01,3.826041747675010957e-02,6.370890177543130084e-03,3.956431012804332084e-03,1.290942072868347168e+00
-8.577740430485755740e-02,-8.041613784997688752e-01,7.826146863403885545e-01,3.595618006346999718e-04,-1.636578547625832519e-02,2.853465790986809813e-03,1.376534700393676758e+00
-9.763511683243714101e-03,-8.315580660055624795e-01,9.000125085368594346e-01,1.588803724355014602e-01,4.618781768037413804e-03,3.456211882644952965e-02,1.526454806327819824e+00
-7.725646467492704172e-02,-8.206613022932535140e-01,7.956248043766929179e-01,-3.471116383683421733e-04,-9.125486701065952180e-03,7.950627448373645545e-03,1.401398062705993652e+00
-2.710797280689898614e-02,-7.696979526290625984e-01,8.087850821801153556e-01,1.556208592203403573e-02,1.390718797796401500e-02,-2.779374754290684854e-03,1.368288278579711914e+00
-8.670606413195477979e-02,-5.426656059946047828e-01,8.172672101378126719e-01,1.068042438737805688e-01,-6.958040999744992058e-03,-2.727589372131098561e-02,1.214018344879150391e+00
-8.446134366463373122e-02,-8.046249222061112594e-01,7.671459629471049091e-01,9.454986483682582994e-04,-7.319934003272295792e-03,1.739694804521872262e-03,1.362842440605163574e+00
7.882095051323199583e-03,-7.913811082497306248e-01,7.867834445024912693e-01,7.552874535822109124e-03,1.797884383951546886e-02,6.691370510891558529e-03,1.367234945297241211e+00
-5.670119817547175645e-02,-6.748303684506263833e-01,8.036556157927822186e-01,2.751138628937822503e-02,3.788918763363734177e-02,2.820456892581036518e-02,1.289601922035217285e+00
-9.279604776985797554e-02,-4.982096430022059375e-01,8.681233270302558536e-01,1.064484030590371194e-01,3.485827194995513162e-03,1.019564966364164132e-01,1.241978883743286133e+00
-4.355636657762357311e-02,-8.164678324144872823e-01,8.140138836021368896e-01,6.422044664520505479e-04,1.733834052042197357e-02,2.513868235731196981e-03,1.412999272346496582e+00
-6.011530538030440685e-02,-4.205034206263054131e-01,7.292271514634732776e-01,1.639222699352090029e-01,6.676383173146302398e-05,-1.595315781375071865e-02,1.057726740837097168e+00
-8.050427660935077778e-02,-6.082533116707737886e-01,8.521829186467028139e-01,7.994211245701264568e-02,1.131612974045040007e-02,2.213903358242065231e-02,1.289060115814208984e+00
-1.122199985111305698e-01,-5.965234256423420645e-01,7.745674454242733598e-01,6.066486988301730138e-02,-8.014299287379683320e-03,1.019620555252527677e-01,1.221817493438720703e+00
-1.101313531750010843e-01,-4.495579761767590776e-01,7.128888289617510976e-01,5.139632092152363052e-02,-1.975911564657618566e-02,1.157851492831023371e-01,1.058887243270874023e+00
-4.503007494669933330e-02,-8.072919389962645020e-01,7.910122987731796895e-01,1.571132605993773648e-02,-2.603936295939286369e-02,-4.485406152826309709e-03,1.385686874389648438e+00
-7.487972985221098832e-02,-6.572486438977424017e-01,7.859127687492046821e-01,6.183654994590950804e-02,3.333126899178438796e-03,-6.794947650544628549e-03,1.262164473533630371e+00
-4.157004051914986453e-02,-6.540027206271332716e-01,7.044433472470452706e-01,8.521160666684222951e-02,-2.311728838773836198e-02,4.631048185229752479e-02,1.190929412841796875e+00
-5.311585527608424229e-02,-7.067388762880983943e-01,7.451539483931165497e-01,1.058115872306610028e-01,-2.602058008333165209e-02,4.590948628960150879e-02,1.275996804237365723e+00
-3.200709500992900830e-02,-8.220633613287863239e-01,8.089871777824331200e-01,2.109954571914162118e-03,1.841620342439577755e-03,4.791294076226648886e-03,1.412793517112731934e+00
-3.595834926790861946e-02,-8.413996751662657925e-01,8.133349102307853018e-01,-4.510075169649725366e-03,4.328263501706953488e-03,-2.058213494521744444e-03,1.433255195617675781e+00
-4.001094439772616418e-02,-7.786516355746905260e-01,7.900671021017963147e-01,1.427445028352107570e-02,2.624251550977829348e-02,1.444228867554280156e-02,1.360533714294433594e+00
-1.700831289895999437e-02,-9.140198148232482334e-01,8.099380216343509131e-01,1.120486462875441014e-01,-1.809071082406226924e-02,-3.911086284080273444e-03,1.506300926208496094e+00
-7.598093552944928941e-02,-8.106814824660750762e-01,7.671790557743300987e-01,1.164539478444258629e-03,3.719657074854835783e-03,-9.222558055940293905e-04,1.367560505867004395e+00
-3.485783145572753094e-02,-7.398902601423088532e-01,7.449360269026213954e-01,7.304078398409132034e-02,-7.805617433677401740e-02,8.078755615863973671e-02,1.307207822799682617e+00
-4.067580658557445883e-02,-8.305843974402778995e-01,7.999143635218692872e-01,9.735130021907452674e-04,-9.120465772988908901e-04,-1.963162350599289684e-03,1.412286639213562012e+00
1.606464014285388653e-02,-8.459068844859045644e-01,6.138537966061644591e-01,-2.725427549887618137e-02,-3.142038658456083183e-02,-7.424104915279738925e-02,1.279589533805847168e+00
-6.889464054802514614e-03,-1.093133114942055562e+00,9.968898291784107357e-01,1.038733732575170821e-01,-4.600182208094149433e-02,1.673511658567185256e-02,1.821374416351318359e+00
-1.096313949124540499e-01,-3.367127821466369686e-01,8.011648186406340466e-01,-1.433143607366153538e-01,-1.387912971614701785e-01,5.859638098967839825e-02,1.103470563888549805e+00
2.149474012121621591e-03,-8.281393179564383589e-01,6.619914508300839273e-01,-9.469867824466812398e-03,1.354252348824632780e-02,-1.068672277505420230e-02,1.293751239776611328e+00
-3.371185116078276311e-02,-8.355012952779674595e-01,6.848400917026409296e-01,1.688500951190200286e-02,-1.561931597819126716e-01,-4.934435049460498407e-02,1.347835063934326172e+00
-6.368022715979856918e-02,-7.938229100950351391e-01,8.163032624438433249e-01,-1.685894794546249171e-03,9.498510721377124641e-03,8.449413425221301982e-03,1.396598100662231445e+00
-1.563044653246192239e-01,-3.447877728439587841e-01,7.246870284560017472e-01,-4.195700491109972952e-02,1.273816487954175167e-02,-3.648689365288431546e-02,9.937232732772827148e-01
-3.849729264953952873e-02,-9.032198623790820280e-01,8.111355244076615678e-01,2.264535817228771272e-02,-6.176762925417478289e-02,-1.313161222880774269e-02,1.489234447479248047e+00
-8.644280855494773652e-02,-9.167364385083995870e-01,1.025685235095939341e+00,-2.526913773087352891e-02,-2.143760238426170237e-02,-2.171719657060508513e-02,1.689472794532775879e+00
-7.518832065410968601e-02,-5.260508225261181225e-01,7.759164647207512644e-01,-1.208760351596945143e-01,3.963313245699243842e-02,-3.437019956508436530e-02,1.167680144309997559e+00
-9.796976345662029156e-03,-8.508088131120700170e-01,9.231917273423161374e-01,-1.292281731850586646e-01,1.556415810843192124e-02,4.071462420958878170e-02,1.555063605308532715e+00
-1.018654260841680113e-02,-1.022023250606729494e+00,9.644817452091825061e-01,-9.762225052355291699e-02,1.406837211620789313e-02,2.200669100754648611e-02,1.729344964027404785e+00
-3.392072452204958344e-02,-8.255126721900652997e-01,7.984810633665720969e-01,2.787122907352854173e-02,-3.534361734206423189e-02,1.205888067259837469e-03,1.408728241920471191e+00
-5.116472986870214401e-02,-9.237989286276498957e-01,9.232449582648398767e-01,-1.717939776852638739e-02,3.520742696825125695e-02,-2.258369424021812802e-02,1.602311491966247559e+00
-2.773071129964724268e-02,-8.636581128166974652e-01,8.635709319212666601e-01,-4.272199031284070608e-02,-1.756406565767254166e-02,9.803598550263581835e-04,1.498219132423400879e+00
-1.387252232722284429e-01,-3.026211374115742037e-01,7.433067531127868222e-01,-1.513922618302065981e-01,7.150186430468498736e-03,-3.971817470830433378e-02,1.011458635330200195e+00
-4.161594199713170017e-02,-8.373664870292778506e-01,8.118547208557292949e-01,8.566737550174527080e-03,-1.769825300574310104e-02,-4.239852858684255328e-03,1.428983807563781738e+00
-5.419933679992952613e-02,-7.643952969530484198e-01,8.033237590457062982e-01,-8.052343784299241872e-03,9.835591499010476468e-03,3.098754163872392484e-02,1.360918402671813965e+00
-4.021293576843548712e-02,-6.084055271386035191e-01,7.844595023251016430e-01,-1.021858552661486091e-01,1.875727460137571745e-02,-1.671706007240556652e-02,1.226670265197753906e+00
-8.098989307231996282e-02,-3.529583807820672603e-01,7.575459495795118237e-01,-1.531619742230864445e-01,8.565598339639048445e-03,-5.995535816063359696e-02,1.042374372482299805e+00
-1.873188345831225399e-02,-6.368611796052464635e-01,7.899410118138823211e-01,-1.355549402800830805e-01,-1.637875105823631766e-03,-1.452853492319330746e-02,1.261612772941589355e+00
-2.497739165796913213e-02,-8.895220887310435476e-01,8.076279408167661433e-01,-2.101815654019325783e-02,-9.583129580515475227e-03,-7.548490048573553747e-03,1.470464348793029785e+00
-5.653258560622182599e-02,-8.028862280435761223e-01,8.145738577016587989e-01,1.868148821477625971e-03,1.657500261000225544e-02,6.220431957526232139e-03,1.402488589286804199e+00
-3.816823035336433870e-03,-8.093938442283988843e-01,7.941648115323364232e-01,-5.719501933656949595e-03,-1.006044727012048688e-02,3.667134881947820176e-03,1.388886928558349609e+00
1.367449463200785809e-02,-8.233466640810260806e-01,6.252168746358824913e-01,-9.857106547413944930e-03,3.884358436434755604e-03,2.913523900242962275e-02,1.260692596435546875e+00
-2.262642237017535585e-02,-8.157490437575898312e-01,6.943374598429701283e-01,-4.142602972119085319e-03,-3.643081406227403202e-02,7.180763237523873563e-03,1.309926986694335938e+00
-3.757894976857374669e-02,-8.742541864456261358e-01,8.592468996439127649e-01,-4.367588143617305053e-03,-1.568631023489437670e-02,8.821188324214201265e-03,1.501899719238281250e+00
-6.543642729816132042e-02,-8.219921186977020566e-01,7.875550040915241246e-01,6.548028178879207462e-03,2.552427698154808612e-03,9.874964300805746595e-03,1.394900441169738770e+00
2.813259930003890116e-03,-7.325319038434773278e-01,7.734285814276026239e-01,-8.636537536186178476e-04,1.181293294444065757e-02,6.885711018238983329e-03,1.304535150527954102e+00
1.339583852087233157e-02,-7.650216004993963814e-01,7.763421812943898104e-01,-2.322038289595976246e-02,6.202699615174347980e-03,6.510688889318266316e-03,1.335579156875610352e+00
-3.811671895653700320e-02,-8.256766012702780877e-01,7.511000821577764608e-01,-1.209623479587619566e-02,3.614944216173603033e-03,6.815921798062709626e-03,1.365754961967468262e+00
-5.503056118384799800e-02,-8.354995988000811780e-01,8.722613957130208595e-01,-1.526664225784124702e-02,-5.153953091942507780e-02,-2.637248581781656553e-02,1.484412193298339844e+00
-1.996351060859220122e-02,-7.353948934282135141e-01,8.156767330322512999e-01,-7.956964870700058978e-02,-2.173920645867681925e-02,-3.048065251648035545e-02,1.353210568428039551e+00
6.496916192174340826e-03,-8.675581915775719688e-01,8.219551617435920665e-01,-4.038081643363917311e-02,-1.685713677793555148e-03,4.956672193699324666e-04,1.465128302574157715e+00
-8.131912280999374631e-02,-8.022066930223075154e-01,7.646247314000530482e-01,-7.174542429406045559e-04,-4.900852208820655892e-03,1.791819335380981284e-03,1.358386397361755371e+00
-5.907265490101612504e-02,-7.823664364820495098e-01,8.830289310104146860e-01,-1.302460278044001718e-01,-5.185001190569651919e-02,1.516299516186622558e-02,1.466892123222351074e+00
-5.642968712728461955e-02,-8.089530089725378570e-01,7.567957590301164217e-01,1.527397949680844164e-02,-2.381056801575227172e-02,1.318405317607626061e-02,1.357394695281982422e+00
-1.898882650822104196e-02,-8.201166038007866588e-01,8.015550364566741415e-01,8.624719916722820359e-03,-3.490973841618274284e-03,-2.614709917173070781e-03,1.404542207717895508e+00
-5.127447362063826397e-02,-8.242190859967325478e-01,6.816199228869356253e-01,8.984118276887591986e-03,-6.166541487106660252e-02,6.220823117093999752e-03,1.308751463890075684e+00
-8.120652661058992694e-02,-8.297225265459521326e-01,8.504536070652941593e-01,4.832738761377203957e-03,-3.178159508671561662e-02,8.468628330592269451e-04,1.459017395973205566e+00
-4.554074701127698577e-02,-8.430741889137316480e-01,7.717451148730151145e-01,7.467187628884937312e-03,-2.881406219078717218e-02,2.678322925130838250e-02,1.400228023529052734e+00
-4.113551603224203240e-02,-7.759071529385342947e-01,8.457384140901930136e-01,-4.074502247393924775e-02,-4.685644936158951668e-03,2.251851506936722314e-02,1.408776760101318359e+00
-4.603788204298012166e-02,-7.772397541657278808e-01,8.321776354248324736e-01,-2.909572393741203383e-02,8.939164460487553782e-03,-1.258834042645093094e-03,1.396730303764343262e+00
-6.973463673410654207e-02,-8.629281672962566541e-01,8.587199017408690960e-01,4.308710909444551235e-03,-4.086698283382990404e-02,7.780353265200262193e-03,1.494280934333801270e+00
-8.197961316034016455e-02,-3.976817247929499421e-01,8.435039711426148834e-01,-2.112576762248687678e-01,2.315970133374780499e-02,-7.243520356536131688e-02,1.183048605918884277e+00
-6.281608489073699231e-02,-8.242656037303009997e-01,8.014554849160807626e-01,1.311162810431520335e-03,2.317087372651555673e-03,8.440060071890713098e-03,1.408937454223632812e+00
-9.588699742762982203e-02,-5.914475544069426327e-01,7.928145707551158550e-01,-1.006124200382020467e-01,1.314624015733189231e-02,3.078606350584285958e-02,1.228619813919067383e+00
-6.265858152557293725e-02,-5.233563132229773762e-01,8.921131657796237402e-01,-1.438656673338088443e-01,-4.454302100305927020e-03,1.127782081644958072e-02,1.275235533714294434e+00
-1.600575408541224376e-02,-8.276483902734088627e-01,8.306804712350380759e-01,-9.918085653479805086e-02,-1.105892200926405534e-03,6.762429536291035548e-02,1.451234459877014160e+00
-2.397713901705495615e-02,-8.153375711285614225e-01,6.883394805922473658e-01,-1.462531293169447256e-03,-4.332769208497301225e-03,1.736288706370192917e-03,1.302849650382995605e+00
-3.137627605706540257e-02,-8.330323203410765487e-01,7.533578816832419145e-01,-2.508459706912197912e-02,9.560550177556377538e-02,1.133367585527909026e-02,1.384644865989685059e+00
-3.853633383541255064e-02,-6.796361159312707123e-01,7.790943013236877324e-01,-8.338778301640316359e-02,-2.830416537116254086e-02,6.815912189220722783e-02,1.280981063842773438e+00
2.973642596743725046e-03,-8.048275030212194148e-01,7.911099646059395196e-01,-2.329252940660416285e-02,-6.656526590341031550e-03,7.369819108791230040e-03,1.382853031158447266e+00
-1.378114490830089078e-01,-2.420535180272749831e-01,9.059465707518919997e-01,-2.432985354536675304e-01,1.881369852387444475e-01,3.340469892632692145e-02,1.223199725151062012e+00
-6.029304949209692011e-02,-4.408227839940593307e-01,6.401525276971107292e-01,-1.871558766467334711e-01,1.669294256806214960e-01,-6.699083305770615893e-02,1.050765872001647949e+00
-1.334562754365269388e-01,-3.086573483631777082e-01,6.797526948465665297e-01,-2.158032422146420326e-01,1.115130159308763136e-01,1.004374767257516787e-01,1.020666956901550293e+00
-1.518500893834373033e-01,-4.590061275881206493e-01,8.692116040880775163e-01,-2.598435805711907243e-01,-1.879789919470554668e-02,3.676356428405417459e-02,1.287714242935180664e+00
-6.623909950963829951e-02,-5.429926683867190018e-01,8.597049257731390615e-01,-2.113486539370622863e-01,2.621354511321697944e-01,-4.646875347363407099e-02,1.368481397628784180e+00
4.908113753144768832e-02,-8.118896679271668804e-01,4.195969012526760133e-01,2.388878796436022696e-03,1.341760991665642000e-01,-3.370963623727366715e-02,1.120264172554016113e+00
-4.594473134481923127e-02,-8.245180580256139535e-01,8.000671166580483051e-01,4.459153873869958588e-03,-5.331116777986639847e-03,6.039062116025390239e-03,1.407426357269287109e+00
-4.179051582210991517e-02,-8.349875009581099183e-01,8.162883629182752232e-01,9.622426686676048817e-04,1.340883467202088177e-03,3.126339974667897720e-03,1.430427908897399902e+00
2.936903978781763014e-02,-8.906466644329780191e-01,5.851636035564157234e-01,1.563724677621375000e-02,3.782156498122793420e-02,-5.101694373436703456e-02,1.295958876609802246e+00
-3.626751778560790423e-02,-8.699206936997825323e-01,8.256805947956865621e-01,1.100120118876323112e-02,1.575996458847937418e-02,-6.400828383603869923e-03,1.468921065330505371e+00
4.609360428642880758e-02,-8.443816600780884585e-01,5.329881618940388588e-01,-9.548245150337527926e-04,9.017506701583515027e-02,8.015064476132229693e-03,1.219905853271484375e+00
-4.481996240421741440e-02,-8.390693532779712749e-01,8.162114636349352415e-01,-6.241287519449493929e-04,2.493952601734036097e-03,5.288878136478782598e-04,1.433911323547363281e+00
-2.556998306195359602e-02,-8.124384286884027695e-01,8.037427107346837296e-01,-4.746511087371354859e-04,5.166029779531403771e-03,6.319118334109819109e-03,1.399886488914489746e+00
5.283822911041879955e-02,-8.262958037161647340e-01,4.831687513416708102e-01,1.387315037195906327e-02,4.636295445641323149e-02,-2.735846169444642456e-03,1.159063220024108887e+00
-1.213188629718017775e-03,-8.025590004603224692e-01,5.713994280941196990e-01,1.058284816359373118e-02,6.900737331953211984e-02,-7.970411633394753476e-03,1.201546311378479004e+00
-3.333580582492017691e-02,-8.011410805766805421e-01,6.659162179961496397e-01,-2.151368491447403896e-03,8.594650758024537096e-02,8.145847515893192428e-04,1.279665589332580566e+00
4.312134567475450764e-02,-9.641169482550768777e-01,5.535269434593477200e-01,5.915729925143126816e-03,1.920707272594690540e-01,2.932121780468752159e-02,1.379311680793762207e+00
7.825962275792162220e-03,-7.830970392714470263e-01,7.807906693218140681e-01,7.517450644808976786e-04,9.165301411202207964e-04,-2.286684638173408415e-03,1.354403614997863770e+00
-1.631564985414182822e-02,-8.218886025923868299e-01,8.179418437758801952e-01,3.545154419582195737e-02,-1.029231297012003082e-02,-2.352099326225835091e-02,1.422229409217834473e+00
-3.792765861919401849e-02,-8.271302916409283279e-01,8.236405309251497719e-01,2.170084185010991845e-02,-1.741330227033484335e-02,-2.923531596753476541e-02,1.431774735450744629e+00
-5.766221029836626766e-02,-8.221487804645607467e-01,9.167620537996306052e-01,1.393978630419184517e-01,9.527869567062789702e-02,-2.418906394319008182e-02,1.538233160972595215e+00
1.445621530542291235e-02,-7.986138676188281327e-01,7.814396330090059850e-01,-6.833618191778912700e-03,-2.491433387662864412e-03,-4.677011681694100489e-03,1.368642449378967285e+00
-2.991429619498812628e-02,-8.241636172466260124e-01,7.518633923081217141e-01,-8.599850014771682821e-04,-5.752046315303076425e-03,-5.146098435427554768e-02,1.367838025093078613e+00
1.343840597346416220e-02,-7.804729417242565193e-01,7.812715621407089195e-01,-5.852313623876271437e-03,-2.253150638711447218e-03,6.497287427235745941e-03,1.352663636207580566e+00
-1.226753643917830872e-01,-5.089057424775221827e-01,9.366946806940958936e-01,-2.876086282954798956e-01,-2.622957645374892621e-01,8.463006216927802805e-02,1.468550205230712891e+00
2.103528330976280752e-02,-7.678109437102424994e-01,7.686800664626215474e-01,-1.293798347266690097e-03,-4.997545554888291504e-03,-2.151714473980660160e-03,1.330834984779357910e+00
-5.268828530825022533e-02,-8.341556743228962789e-01,8.076922330403423222e-01,6.212783791265451966e-03,-5.526247482609642978e-03,1.508605465275453901e-03,1.422504663467407227e+00
-6.992476589115872998e-02,-8.281086891650307757e-01,8.107532046567640371e-01,1.224591700392755863e-03,4.354712591993701448e-02,1.205210042627792057e-02,1.422772526741027832e+00
1.826574698245810729e-02,-7.822532218527166181e-01,7.774848608197797439e-01,-7.553134187547736581e-07,5.781610300890624443e-03,-2.975721679356134030e-03,1.350977540016174316e+00
-2.845497877203389744e-02,-8.274145944052191393e-01,8.250000357386169103e-01,4.695903103447272159e-02,4.247494726696207645e-02,-7.001236439485140212e-03,1.435539245605468750e+00
-3.693268677266357825e-02,-8.334566971071428743e-01,8.112905369340068784e-01,-2.187431433561381000e-05,-4.097904977934029198e-03,9.208036974355642565e-04,1.424646019935607910e+00
-4.030628685763550101e-02,-8.489859715689622721e-01,7.208319553690700765e-01,3.150808004896697018e-02,1.265982067042069614e-01,-9.552481139009805222e-03,1.378457307815551758e+00
-4.179193872946734140e-02,-8.344605315006508039e-01,8.069183255317130543e-01,2.628571989668496145e-03,-3.188006269221845511e-03,-9.571978419900554948e-04,1.421770930290222168e+00
-6.340077809362527905e-02,-8.105807486622760294e-01,7.333080210381978103e-01,8.833250586764649845e-03,-7.822019392559560530e-04,3.014250526757736824e-03,1.337374567985534668e+00
-2.054808263003207042e-02,-8.031199144172919135e-01,8.020376377374884846e-01,4.977345492680466076e-03,-1.151205236790598350e-02,-1.307819155749522649e-03,1.390422701835632324e+00
-3.662492033480135856e-02,-8.002492216260153057e-01,7.967591819226748084e-01,2.178638398244003849e-03,-1.077439640730092768e-02,1.719004973072920306e-03,1.383623838424682617e+00
2.950771875462719282e-02,-7.671138631456466683e-01,7.665583299374841841e-01,1.010495692578250101e-03,1.582522001108621276e-04,-2.108091434386272049e-03,1.328539252281188965e+00
-7.572138115506583424e-04,-7.819514942326465379e-01,7.827431194660141589e-01,4.904462915062338460e-03,3.894976448182005586e-04,-1.740985570559722096e-03,1.355095982551574707e+00
-2.731246676219139385e-02,-8.276114693042120329e-01,7.945665491313353979e-01,2.240029845790607408e-03,-6.586278928693933485e-03,-3.676899748418891931e-03,1.404954910278320312e+00
-1.512438762670360957e-03,-7.888842743177872929e-01,7.894979603605484231e-01,-1.011449975308862303e-03,1.092538948689120160e-02,1.500588367490140063e-03,1.367054939270019531e+00
-4.205716392784188129e-02,-8.265887853810841568e-01,8.106267597437399886e-01,-8.066215943558702802e-04,-7.328673240899872925e-03,2.973975672063910395e-03,1.418346524238586426e+00
-2.731503863601749196e-02,-8.183041182114200174e-01,8.034628481157096713e-01,7.331939142889547407e-03,-3.359367564739370975e-04,8.437407184121867992e-03,1.404765844345092773e+00
-3.603915698339879570e-02,-8.442584111144346704e-01,7.059203218807297286e-01,1.169923698755451083e-03,8.439844462539285164e-02,4.003777030307024976e-02,1.352616190910339355e+00
-5.650980863748196470e-02,-6.357456017387490554e-01,7.684071661376331575e-01,7.789717569119325447e-02,-1.812987577095888717e-02,-1.776254440391238434e-02,1.230430841445922852e+00
-6.613838142894953864e-02,-7.659117568212200355e-01,8.045461609480043519e-01,-1.283687034934446504e-02,-1.603386195517280885e-02,1.991037411233518781e-02,1.363638877868652344e+00
-4.889973276037940658e-02,-8.208038984462342480e-01,7.387619503031349621e-01,-1.864614686974161439e-02,1.137282615021869593e-02,8.678398892300313210e-04,1.351177096366882324e+00
-5.628520298682265083e-02,-8.015035059198167833e-01,8.143041000158798282e-01,-1.722152911254699317e-03,1.638587013232849221e-02,-5.735679974270714923e-03,1.401059627532958984e+00
-3.719484960575016735e-02,-7.698888960915435398e-01,7.993613498392813099e-01,2.165759390770157292e-02,-1.767548633885424395e-02,-5.208844335946567761e-02,1.363851428031921387e+00
-4.348665852117421238e-02,-8.055437909402852759e-01,7.972941470542868059e-01,6.451041718841304430e-03,7.880908965515713224e-03,1.975239322845499801e-02,1.389189720153808594e+00
-8.397658299304264218e-02,-7.471326741396937532e-01,8.089015455703335578e-01,6.522643258576308646e-03,-1.438433892954729156e-02,-3.422582279920829973e-02,1.354026436805725098e+00
-5.350060856346067206e-02,-8.301555916243803512e-01,8.148329085582944886e-01,2.540474022191928881e-03,-5.081763661842764179e-03,-3.969309794538591028e-03,1.425389647483825684e+00
-8.442429786555369353e-02,-6.246116361749036727e-01,7.812359380594852132e-01,8.453292289738276177e-03,-1.606855467774010587e-02,-1.584807548446583517e-02,1.229036688804626465e+00
-7.866853454319386318e-02,-6.693701604886631573e-01,7.888325804413572895e-01,2.529999697983587731e-02,3.463653231693174239e-02,-1.244967035079141832e-01,1.290712356567382812e+00
-8.587258053126177459e-03,-8.002841926224298907e-01,7.958088681116689544e-01,-1.050163745437350526e-03,-2.640781259347385612e-03,5.232717373864678376e-03,1.382310152053833008e+00
-2.078431823834752876e-02,-8.231153546649101482e-01,8.037288554961125042e-01,-2.941118496412566813e-03,-1.796479719424499001e-04,-3.297573173832764413e-03,1.408952832221984863e+00
-1.531866379916790866e-02,-8.115111030492347943e-01,6.467512980256506783e-01,5.874940146657740836e-02,2.420560391282229606e-02,-3.956099038818714636e-02,1.271299123764038086e+00
2.786222049949041435e-02,-8.361635281649734130e-01,6.130476073937194403e-01,-2.656096603934045980e-02,1.529693880727974083e-02,4.364802898259265151e-02,1.266148328781127930e+00
2.673873285666292232e-02,-7.856370125297773566e-01,5.223639175625129916e-01,4.753876738139867567e-03,9.668865714571612396e-03,3.730120014968515106e-03,1.143950462341308594e+00
2.134395586847988302e-02,-8.117867075821825207e-01,6.089979257598577833e-01,-2.857778313033680281e-02,2.124965408204984238e-02,3.502810243358590869e-02,1.239565253257751465e+00
-5.766040101392063549e-02,-8.527651098888343606e-01,7.730321306339229537e-01,3.307288521617123434e-03,4.971967417103506648e-02,-1.681297911973921033e-02,1.411037206649780273e+00
6.032746620933950379e-03,-7.322157947013679946e-01,7.638387091871939871e-01,-3.410813749580258493e-03,-1.275404882278573758e-02,-2.863195962673873579e-03,1.295869350433349609e+00
-6.311576143115019133e-02,-6.738034703278851234e-01,7.923005813564606425e-01,-2.949633346282105190e-02,-3.206219636498500170e-02,2.639366721346132066e-02,1.278613567352294922e+00
-5.229451583755517774e-02,-7.798829609368864713e-01,8.000480302818788747e-01,4.477569806325584767e-02,4.093311698723506309e-02,-9.213016765644715944e-02,1.382943391799926758e+00
-7.319284693617486570e-02,-5.284413839070086771e-01,8.705618116845643684e-01,1.761250510853649975e-01,5.698261926300462153e-03,-1.121222701210477929e-01,1.287803888320922852e+00
-5.969744169199072553e-02,-8.310401243614238265e-01,8.153584028592493205e-01,-1.995894626448915972e-04,-5.212776687267468324e-03,-2.926947972115511842e-03,1.426803231239318848e+00
-8.604171265501300847e-02,-5.044906667346196194e-01,7.348420789866727532e-01,-1.251939398290949877e-02,1.244245486381650306e-02,7.619310134686357351e-03,1.092500090599060059e+00
-5.093770098462937351e-02,-8.299717216049997681e-01,8.127738568475676439e-01,1.970305644188615098e-03,-4.557669320293397143e-03,-3.575581859933286023e-03,1.423328757286071777e+00
-3.794200136922584038e-02,-9.147082262223253935e-01,1.014189254033337928e+00,-1.651335430167409357e-01,-1.527036694596000110e-01,8.195857372208641134e-02,1.723393917083740234e+00
-1.598733144558821262e-03,-8.478709077546615624e-01,6.581312398267282759e-01,4.477581400944997264e-03,7.218561619106563833e-03,-1.058369119763033668e-02,1.307778239250183105e+00
-2.091746215859335498e-02,-8.456814413246365181e-01,7.152343237722912361e-01,-1.696347635494245901e-02,5.514918119310957545e-02,4.481035223864822392e-02,1.358424782752990723e+00
-2.887796034419487165e-02,-8.297616440163468887e-01,7.281910446667183567e-01,-1.246468534285286901e-02,4.405434929538190950e-03,-6.469690344865936318e-03,1.349645256996154785e+00
1.166877734138295486e-02,-8.289423834508464761e-01,6.212441251422474719e-01,-8.084869728764916205e-03,3.804497470223811711e-02,2.840754869722870307e-02,1.263955831527709961e+00
-4.183258100180260730e-02,-8.214412539825137749e-01,8.145955537249428557e-01,2.245364546951251778e-03,-1.929269084480354432e-02,-3.417173158983484275e-03,1.417781472206115723e+00
3.198376963347140944e-03,-9.040902127218305440e-01,6.398143270905319868e-01,-1.335217654606544492e-02,9.024558161983260718e-02,3.946105411160257675e-02,1.354874849319458008e+00
-7.927532133710556150e-02,-2.516795232088602785e-01,4.236640006239254519e-01,-9.021365687791972621e-02,5.509200768054428599e-02,-9.226427844250364649e-03,6.349459290504455566e-01
4.034528572449061490e-02,-7.594857332942658301e-01,4.579747144884628307e-01,3.937084777104667838e-02,2.408830504577040912e-02,4.909000161278197216e-02,1.077867031097412109e+00
2.154736944813879784e-01,-1.126177447282403765e+00,2.321207666905295564e-01,8.384523173102934393e-04,-8.221700841805121285e-02,-1.527321839578267004e-01,1.383076906204223633e+00
2.165500937715218455e-01,-9.257588638703816430e-01,1.688367623426834108e-02,-2.735850844393244649e-02,8.250778332520924963e-02,-1.254088326461069991e-01,1.089268565177917480e+00
-1.480129275141651990e-02,-7.854511775452331923e-01,7.922118576923758981e-01,-1.079110368279181248e-02,-1.919479524341772408e-02,8.072371148182870548e-03,1.367020964622497559e+00
-1.356134325097411650e-02,-7.706948588801306732e-01,7.896618743834871168e-01,-2.342015672951290475e-04,-2.244099138762950876e-02,4.428549694909846186e-03,1.352085709571838379e+00
-4.579090140585707902e-02,-7.691843022217398351e-01,8.011653497161398407e-01,-2.533539022576707556e-04,2.188836692774644502e-02,-6.661956615220445029e-03,1.361942052841186523e+00
-4.472489964244515115e-02,-8.255686943775799591e-01,7.777234525655829511e-01,1.268844264164565314e-03,6.395596911956857172e-03,-1.669022855255337945e-03,1.388696432113647461e+00
-8.155430331764214336e-02,-7.242705531963539167e-01,8.010063600988037713e-01,-3.481949464117551924e-03,-1.228389069791370643e-02,2.870797109108977341e-02,1.327476978302001953e+00
4.143247125125124747e-03,-7.965008496287485640e-01,7.953355280094540625e-01,-1.189842248841750313e-02,-2.455940816703149326e-03,7.348047669037136367e-03,1.378798127174377441e+00
1.306142984417131836e-01,-9.706796494145865095e-01,1.247414071118156387e-01,6.932268531985219528e-02,-3.065050388811511872e-02,-1.260053911359576839e-01,1.127511620521545410e+00
-7.411387009979747420e-02,-5.513444232686681712e-01,7.391582706466803820e-01,-2.305122616416622333e-02,-1.160474748207465136e-02,9.009547239818359310e-02,1.141765594482421875e+00
5.864093758379991528e-03,-8.007956308830305181e-01,7.895850301165804330e-01,4.376860095501248181e-03,-1.233069557813864511e-05,-2.497961562971742940e-03,1.377385497093200684e+00
-6.125538846408904586e-02,-8.264516102185223145e-01,8.157716177789462453e-01,-1.835985137614461757e-03,-1.042911959102769959e-03,-1.911624678862621938e-03,1.423314332962036133e+00
-3.359557622057105647e-02,-8.366067512089602198e-01,7.783976222297067649e-01,9.095752010530078896e-03,-2.611657381536601008e-04,7.588992021244995480e-03,1.398792624473571777e+00
-5.409837805984736570e-02,-8.305651084281192587e-01,8.147373754166061799e-01,2.265498403594678198e-04,-1.082089341379715132e-03,-2.835081387183485072e-03,1.425631761550903320e+00
-3.972306819002013878e-02,-7.530096882921427648e-01,7.964570075753563128e-01,6.443846759977901501e-05,-2.445013380053529320e-02,-1.046164157515287567e-02,1.344073176383972168e+00
-6.956596768960883470e-03,-8.506006183993448655e-01,6.869908878231592020e-01,1.372987068611247318e-03,-3.339384002441443244e-03,-2.590566560049080425e-02,1.334464430809020996e+00
-4.315097970764669028e-02,-8.172763900060067144e-01,7.680179919059902938e-01,8.024667187197428650e-03,1.359888995508095992e-02,-2.021282828809509505e-02,1.373748660087585449e+00
-2.919767836050276427e-02,-8.203913904526364265e-01,6.265180935315914912e-01,-6.058352406181418542e-02,5.940373151151323583e-02,-5.317675067051784443e-02,1.266818761825561523e+00
-5.476530688686336024e-02,-8.311781454540589920e-01,8.149905827652501600e-01,-2.776663789606488228e-03,2.827239400252366461e-03,-4.077565484274284745e-03,1.426421642303466797e+00
4.464880683194516475e-02,-7.650091276428546694e-01,4.078830219087700160e-01,-9.606953232230409923e-03,8.974947686801541813e-02,-3.099454422128144343e-02,1.053045272827148438e+00
4.813793759317008814e-03,-8.359899427519543735e-01,6.921132095132322970e-01,1.641733516467494547e-02,2.156965531483650764e-02,3.349737889615159517e-03,1.326443910598754883e+00
2.131649430245806387e-02,-7.917691896342903268e-01,5.725117842515384803e-01,1.904256470201588780e-02,3.732560954381607815e-02,-1.326287039337179560e-03,1.190951824188232422e+00
-4.597577739503974636e-02,-8.366536345646100603e-01,8.147185109655964430e-01,-2.325771016576410298e-03,4.886288748680148175e-03,-9.025928405207601099e-04,1.430590152740478516e+00
-3.620244422464573980e-02,-7.895698880621069282e-01,8.425365888050124763e-01,-5.348892324050845415e-02,-4.339582528788705346e-02,3.980352932680803618e-03,1.419872760772705078e+00
-9.487712024397050928e-03,-8.110897118300676167e-01,8.027639729100154442e-01,-2.007502681216249626e-02,9.310099400047296136e-03,-3.419785835856792040e-03,1.398186445236206055e+00
-1.089171681756582466e-01,-6.773910592540524078e-01,8.038195973823047957e-01,-3.923836782707882873e-03,5.730565265298258153e-03,-1.919151143688629241e-02,1.294746160507202148e+00
-3.402919826561594252e-02,-6.818816836676109272e-01,7.718185281728944247e-01,-4.419814102838436759e-03,-2.540345036930505285e-02,-4.967644206425694473e-03,1.262237071990966797e+00
2.541241818649994308e-02,-8.033196372671054242e-01,7.839158650861509647e-01,-4.417686967257219294e-02,7.906427884786751403e-03,-1.745363403044422699e-03,1.377233386039733887e+00
-1.840189967715391561e-02,-6.698747830304203621e-01,7.651629199299933015e-01,-6.699093700784598815e-02,9.882653640752475308e-03,-5.431148281757164700e-03,1.250082731246948242e+00
-8.647217066372853839e-03,-7.639918102365691466e-01,7.947252665171431474e-01,-3.598627136803920351e-02,2.748906660581710432e-02,-1.885910924579868239e-02,1.352773070335388184e+00
-8.900960759466013811e-03,-8.164475782241247259e-01,8.634949160965438297e-01,-1.376831664679276090e-01,-8.867011424511518983e-03,-2.809101087425503601e-02,1.475526928901672363e+00
1.114968989267401712e-02,-8.062080814017280606e-01,8.366016514350537170e-01,-8.070127276356293955e-02,-5.840758584338655302e-03,-8.190803142567256584e-03,1.429676890373229980e+00
-3.787203615915007981e-02,-8.230429272128600982e-01,8.152898808442025080e-01,3.645332117762303207e-03,-3.094481611775185253e-03,-1.003514775064165074e-02,1.419375658035278320e+00
-4.644190990437624400e-02,-8.280016511044470118e-01,7.840138860505485585e-01,1.605922291634184491e-04,2.520890406988132021e-02,-1.520070151298945869e-02,1.397191166877746582e+00
-4.769850594331714877e-02,-8.352529194365193588e-01,8.107273099051950371e-01,1.824356625030979298e-03,4.349442312826266865e-03,7.158970854875453156e-03,1.425978422164916992e+00
-3.321573369815730009e-02,-7.981552228796210402e-01,7.778215530479223316e-01,-2.222294430835090179e-02,2.293048343199899711e-02,-4.875090574308303497e-03,1.366176605224609375e+00
-1.494846270021972859e-02,-8.262617848644941976e-01,8.149714928904149280e-01,-2.990887516353396471e-03,-2.408312628512887694e-03,5.375591119253439465e-03,1.421426177024841309e+00
-5.248486928521110817e-02,-8.291777384415610630e-01,8.111345248757280135e-01,4.462503649332357457e-03,-3.114025833993301368e-03,-6.490698017160807971e-03,1.421292543411254883e+00
-3.899756385952141136e-02,-8.294319216654457705e-01,8.078392394573163937e-01,-2.565167870269920939e-03,-2.302097686312223543e-03,7.091570943435531252e-04,1.418211936950683594e+00
4.339014054509987214e-04,-8.069207191132297119e-01,7.947543515176365148e-01,4.334701171924775463e-03,-4.372291102435306919e-04,-2.728544743514743978e-03,1.387135148048400879e+00
-4.674840378661467011e-02,-8.391222142062645384e-01,8.081276959303747009e-01,-3.537408329105066248e-03,5.204335782154191278e-03,3.874594833123125911e-03,1.426959991455078125e+00
-5.908003242760564988e-02,-5.980756138053349158e-01,7.926235249814387318e-01,-1.829659742869368944e-01,6.181622553123461428e-02,3.903592720136261820e-03,1.259729623794555664e+00
-4.570893356359222170e-02,-8.368761680945322468e-01,8.149719436221637414e-01,-1.739113950477420324e-03,7.142778475078745241e-03,2.371822968793149862e-03,1.431027173995971680e+00
-4.415263302834995796e-02,-7.801417010344061653e-01,7.472715926915226570e-01,-1.524990023962568934e-02,5.490061804117896821e-02,-2.212713576739636437e-02,1.327298164367675781e+00
-3.481571723725938178e-02,-8.483584307412227465e-01,7.467225617715279595e-01,-2.933930502768274801e-02,8.204645963438345069e-02,1.408614098238198103e-04,1.389692783355712891e+00
-3.972831275109345306e-02,-8.314728028743924027e-01,7.687925902591173921e-01,-1.127764203751256168e-02,-6.541340782745213786e-03,-1.535300970852186697e-02,1.386334896087646484e+00
-2.356850287862605892e-02,-8.328166877877739571e-01,7.293730184661043614e-01,-6.668697360607855548e-03,3.193497064054739987e-02,-3.140046267799382479e-02,1.355459690093994141e+00
3.819342136909922858e-02,-8.506980764819837004e-01,5.628591930773880758e-01,-8.082431407712245205e-03,-1.468107478934581878e-01,-2.228947167634103693e-02,1.264167666435241699e+00
-1.975104246710532307e-03,-8.005346465184943749e-01,5.856678810131716872e-01,1.819029382831442222e-04,7.665913879574506873e-02,-2.788989550282036049e-03,1.212411999702453613e+00
-4.017156431708164555e-02,-8.299337156422020856e-01,6.980952227833064905e-01,1.519628440587514860e-02,6.076880137612986760e-02,-4.495583623609615553e-02,1.330282568931579590e+00
-5.335438732066966061e-02,-8.195070432884216105e-01,7.472730026870794129e-01,9.921934918422227467e-03,1.249309681884180900e-02,-5.644302587331999355e-03,1.357297301292419434e+00
6.919077053332139959e-03,-8.962502252200347241e-01,6.629864702568575296e-01,-1.154207021231838833e-02,9.989479676645403317e-02,-6.637354469881102947e-02,1.371944665908813477e+00
-4.406540876377400273e-02,-8.350754960147348527e-01,8.150565831229034108e-01,-1.196228670254760899e-03,3.389295816761397732e-03,-8.755449154773865166e-04,1.429476380348205566e+00
-4.029202008709145688e-02,-8.347619745359530219e-01,8.140846704544031365e-01,-2.039434850020964331e-03,5.738485865401882734e-03,-9.037984883518730824e-04,1.428297042846679688e+00
-1.717165651884824604e-02,-8.328212068233533660e-01,8.043728238723473201e-01,-5.485117792594771356e-03,-1.566458543843944964e-02,-1.004988705870702642e-05,1.418146133422851562e+00
-2.986853493753924976e-02,-8.110464594521381576e-01,6.436174103449932016e-01,9.946630422820330539e-03,5.223359116046358275e-02,-1.616121844316866516e-03,1.264288067817687988e+00
-2.751620739692003936e-02,-7.047891698038630803e-01,7.783579064387525781e-01,7.698501627078836729e-03,3.151794442584832795e-02,-6.127625909345885309e-03,1.287322402000427246e+00
-3.714049392121340776e-02,-8.294370838410408675e-01,8.130420976170621428e-01,2.260332864242057139e-03,-6.622853541684131087e-04,-2.814903790694008642e-03,1.422737360000610352e+00
-3.745569746186175331e-02,-8.806670775298726106e-01,7.633981616930214376e-01,1.136479293773011608e-02,5.995095910988317706e-02,-4.868427120031946879e-03,1.427901387214660645e+00
-2.548543549403163577e-02,-7.994802939395891928e-01,8.025239153838368278e-01,-1.028571125910420804e-02,-1.798934254727044615e-02,9.368496924813007887e-03,1.388198137283325195e+00
-2.961580476940506301e-02,-8.285339474860415887e-01,8.122407866967092938e-01,1.074165195663974795e-03,1.685222561488350715e-02,-2.674965675188802940e-03,1.421423316001892090e+00
-7.120105751288757778e-02,-8.518432529774546680e-01,8.314697856004054088e-01,3.864128078925267024e-03,5.536203202003668611e-02,-7.728448299764850704e-03,1.462292313575744629e+00
-3.661498332474454054e-02,-8.333241520374228273e-01,8.113886775479256519e-01,-5.729692954556242631e-04,3.824327689523304968e-03,8.533060629299637221e-04,1.424610495567321777e+00
-8.720299005257507730e-02,-5.820787273668424078e-01,7.587706326044409977e-01,2.202606227901044225e-02,3.063843293148646452e-02,-4.418243412780270551e-03,1.176246285438537598e+00
-4.268107837181667197e-02,-7.707996849889541258e-01,8.050732721377216183e-01,1.228499881545686533e-02,3.215101310767091297e-02,-6.409877248459766239e-04,1.367356896400451660e+00
-4.137159850659610782e-02,-7.688045712979396651e-01,8.022886741498840291e-01,8.050277408004882698e-04,2.623479482156681683e-02,-6.035202166530652911e-03,1.362645864486694336e+00
-2.158322697707591026e-02,-8.087615135948263978e-01,8.012928901517901714e-01,4.355659851294351424e-03,-1.335667668329150286e-02,-2.741747822095307735e-03,1.394682645797729492e+00
-3.936576666502544786e-02,-8.252192883623545860e-01,8.042956963522177594e-01,-3.903395779360887066e-03,9.766925776268789786e-03,-1.420209819208229215e-03,1.411617040634155273e+00
-1.387982700534773350e-02,-7.239052569952489913e-01,7.749866128569616874e-01,2.123008722950094421e-02,1.935916330555864651e-02,-6.347603568173095651e-03,1.299676537513732910e+00
-2.546465653589025276e-03,-8.021830512552989845e-01,7.941073067514418105e-01,2.046784558077861978e-03,1.428633089805069964e-02,1.304491253198403937e-03,1.382656693458557129e+00
6.587509929339398045e-03,-7.855500564868045377e-01,7.863315111726386641e-01,8.874143144050324755e-03,9.277285039067995932e-04,2.913176947732278033e-03,1.361400485038757324e+00
4.012594669958523090e-03,-7.807702247397247941e-01,7.860789375181493899e-01,8.159925407328790653e-03,1.264341057452032270e-02,6.814896536674187703e-03,1.357233524322509766e+00
-4.093285922343979644e-02,-8.385000241244218167e-01,8.115415049397284308e-01,-7.074584269388628456e-04,1.023753339996198589e-03,2.039372063185051608e-03,1.429247617721557617e+00
-2.322358984679480810e-03,-8.088353990187789888e-01,8.051168340034616788e-01,2.115999776242155975e-02,1.953983106621754243e-02,1.350172185660032317e-02,1.398809194564819336e+00
-2.177608092910448406e-02,-8.283381741922410946e-01,8.087884947585028961e-01,5.198091101828995926e-03,-1.528930498526583797e-04,-2.951742062937510059e-03,1.417881846427917480e+00
7.375369686592150864e-03,-7.999226557508399837e-01,7.889999131651482811e-01,2.922172815581129766e-03,1.747782816892273251e-03,3.736906002789865469e-03,1.376134991645812988e+00
-7.294606600142318487e-02,-7.984722464657610930e-01,7.271508136264449584e-01,4.367379786129561847e-03,-1.549976495141446031e-02,9.147038011734541854e-04,1.322049498558044434e+00
-3.995493404829437989e-02,-8.250140814099974351e-01,8.090907316590215670e-01,5.180188677554305697e-03,-4.099529513232657955e-03,-8.311983405590809421e-03,1.415657281875610352e+00
-7.319097557027727519e-02,-7.996626381157735386e-01,7.553484640109803250e-01,-4.893388751459801754e-03,-1.840259455743948475e-02,5.872419474562798515e-05,1.348049283027648926e+00
-1.754071036161821140e-01,-1.545256369737868507e-02,8.111316943444721872e-01,2.138896428500627195e-02,-2.204114744336222939e-02,-8.466497525042020189e-02,9.302565455436706543e-01
-7.689387874103706388e-02,-8.001896941149003739e-01,7.314890097434759708e-01,-4.148792896504042846e-05,-1.400362495725809495e-02,-1.610924587319913746e-03,1.327379345893859863e+00
-4.663090603274271106e-02,-8.135715265447887035e-01,7.901454930765258178e-01,1.013939675133773179e-02,-1.021671626489382631e-02,-1.376229376713777874e-02,1.389726638793945312e+00
-7.676861547996910451e-02,-8.045881716038063569e-01,7.616517632766952595e-01,-2.620576930421477605e-03,1.334231900509304019e-03,-1.154488516344418132e-03,1.357541441917419434e+00
-5.535312312019811942e-02,-8.128456471771894343e-01,8.198849757119398562e-01,4.605266985863938666e-04,-1.039927025085566822e-02,-6.970359213894812209e-03,1.415377616882324219e+00
-8.053635490404101316e-02,-8.038985507131258812e-01,7.554699419287339568e-01,1.362499356375770562e-03,-8.635673292046975105e-03,6.525955269288352635e-04,1.351711988449096680e+00
-6.154648612465275087e-02,-7.937134476503729941e-01,8.139959968050949346e-01,-1.411814438438257222e-03,-1.872419218307612660e-04,-8.288484723721978656e-03,1.394237637519836426e+00
-2.123491907800299436e-02,-8.435176928801382257e-01,8.380534140339424010e-01,-1.541094944030971421e-02,-1.065568761281867824e-02,-6.821231538722646003e-03,1.456810235977172852e+00
-7.609175042683065382e-02,-8.059295239808674793e-01,7.625838956812410752e-01,3.000022058768843283e-03,-6.009021852786853961e-03,3.451976309049895747e-03,1.359524965286254883e+00
-7.114514799738920481e-02,-8.120565484030362047e-01,7.644569355040152780e-01,1.192562149666396339e-03,-1.001878379914684231e-02,5.819063375210252811e-03,1.366270303726196289e+00
-6.727335185504978998e-02,-8.061315207560588725e-01,7.621707063772878987e-01,8.026948003202026213e-03,-1.029373730989208320e-02,6.312732002098656904e-03,1.359176635742187500e+00
-6.150727313438242305e-02,-8.165425738732247085e-01,7.629325800159106885e-01,4.367155865529877973e-03,-8.250599836411440929e-03,5.356903933304724835e-03,1.368432760238647461e+00
-6.606901547736687696e-02,-8.170660969034221344e-01,7.645771088475271648e-01,6.806818586543963642e-03,-1.131119509029965796e-02,5.317187275497326469e-03,1.370543718338012695e+00
-3.852088868474136396e-02,-8.261060743682413499e-01,8.016733717335305931e-01,5.414885205716489557e-04,1.071223443414555040e-02,6.528409100380521378e-03,1.410111427307128906e+00
-2.920657011838383860e-02,-7.989912547130855192e-01,8.000918710176184723e-01,2.277205430841021253e-04,1.280665993254239028e-02,-3.213432498308214143e-03,1.385355114936828613e+00
-1.149087392882260777e-02,-8.015017670915813852e-01,7.946534158751896726e-01,1.225019983461237512e-03,1.312575713783176081e-03,-5.056924121947682822e-03,1.382365703582763672e+00
2.539433340702024547e-04,-8.060005559895161431e-01,7.931373363342141269e-01,1.863910067618220270e-02,9.605706798080025990e-03,-4.164872097963929711e-05,1.385386347770690918e+00
-1.038460885584520203e-02,-8.050819842999420439e-01,7.957354968543434159e-01,3.189730059781043393e-03,7.176854450954946868e-03,7.850810229212674236e-05,1.386427164077758789e+00
-8.202720802431696934e-02,-7.965472410779355084e-01,8.200151794837837738e-01,-6.852644728096751042e-03,-1.368930666696746177e-03,-1.132142436798761267e-02,1.403309583663940430e+00
-2.848333182620737310e-03,-8.106228725170586680e-01,7.948910979090161311e-01,3.914310476359026715e-03,9.406428858467283036e-03,2.110063744805945780e-03,1.390541672706604004e+00
-8.173720664402855940e-02,-7.952851141961145842e-01,8.231214207739957489e-01,-1.295123069428347857e-03,-9.665283241788034246e-03,-8.343779043409717613e-03,1.405017375946044922e+00
-3.793449309346075965e-02,-8.258207117799569730e-01,8.060436961210738493e-01,-4.980342997881064687e-03,6.915806188349029986e-03,-3.464232190520279489e-03,1.413604140281677246e+00
-2.688622805832676516e-02,-8.254855124995330584e-01,8.030450357174900855e-01,9.140302816848640266e-03,2.719293760532707761e-05,-3.352901432528044342e-03,1.410536646842956543e+00
-1.099605641289038392e-03,-8.098991820050195356e-01,7.942809498851743921e-01,2.048634368479888227e-03,8.272675363680988270e-03,4.137566834559905198e-03,1.389373898506164551e+00
-6.555700275851496228e-02,-7.322365827433618968e-01,8.009562090294229941e-01,-1.321263516337044285e-04,2.625415819225823677e-02,-1.279301604043525144e-02,1.332498550415039062e+00
-1.437790952960858459e-01,-4.781894212374095954e-01,7.604617262654321808e-01,-5.131279274451366022e-03,-1.887061598078816627e-02,-1.249962064066833037e-02,1.110623836517333984e+00
-4.546819595418767623e-02,-8.214238192631936331e-01,8.156644130212395982e-01,-2.463715284014617382e-03,1.663558341500137594e-02,-3.928333872298807837e-03,1.418714880943298340e+00
-3.561744442034692204e-02,-8.294801243863790807e-01,8.094229549668496837e-01,-4.843955923159319436e-03,-3.168178709553324851e-04,-5.010776347883601689e-04,1.419587492942810059e+00
-2.336844486289180872e-02,-8.186470984433217302e-01,8.038415724400667095e-01,1.480256671933806445e-03,7.242886450561282323e-03,2.595571361422656202e-03,1.405272603034973145e+00
-6.525987860246001970e-02,-8.021754335065823804e-01,8.196480306282197814e-01,-3.796783293040823133e-03,1.319754865532436414e-02,-4.909046438424879109e-03,1.406714916229248047e+00
2.552129620377613026e-02,-7.884907335360389347e-01,7.897768927928265903e-01,-1.308883934480843149e-02,-5.890368585350318556e-03,5.787070149019990853e-03,1.367308974266052246e+00
-4.368146442015195807e-02,-8.371313339790009689e-01,8.139543884622320036e-01,9.633043077398580154e-04,-1.033851127365153491e-03,-3.426744445370429786e-05,1.430244326591491699e+00
-4.582064837868504714e-02,-8.372197442892912456e-01,8.140570797977361162e-01,5.520106462867191942e-03,-1.029993746143007330e-02,2.385524832367656983e-03,1.430606722831726074e+00
-4.282048092167101139e-02,-8.363567262309987704e-01,8.106275330135925827e-01,1.586075773243356005e-03,-2.716113253549351254e-03,1.234199660069879457e-03,1.426656723022460938e+00
-3.953490576320668748e-02,-7.824432328866117725e-01,7.606263215737446570e-01,-4.158788057953945530e-04,-9.137084398749653266e-03,2.612867879225191838e-03,1.336745500564575195e+00
-2.160390976182635994e-02,-8.121349116238871790e-01,8.029857867536500660e-01,1.411764175506425830e-03,9.370083839836784723e-03,5.771660932319407945e-03,1.398971199989318848e+00
-8.000523583381075055e-02,-8.039058671954690816e-01,7.670660337058076150e-01,-4.040592268663499944e-04,-3.141719740793404766e-03,-3.724602601062322778e-03,1.361921072006225586e+00
-5.165770603619831980e-02,-8.318374699986617049e-01,8.018224311874456722e-01,-8.223411708380513885e-03,1.114820968448242480e-03,2.369500725854267395e-03,1.415344595909118652e+00
-4.567292356551085758e-02,-8.347123480139121421e-01,8.084007032705536888e-01,2.994923571842457530e-03,-1.292714883629641391e-03,-1.458912071581287264e-03,1.423362612724304199e+00
-9.985013844252038639e-02,-5.231382480810907731e-01,7.538015562081548104e-01,3.838618142331639421e-02,-1.441798800978439862e-02,1.590594592812936969e-02,1.129175662994384766e+00
-1.122166299206301121e-01,-4.394166534666105184e-01,7.430551449018976129e-01,6.187060940194417241e-02,-1.142096960171551899e-02,-4.830533450829686826e-02,1.066428661346435547e+00
-5.497221939230449717e-02,-6.667677493867606442e-01,7.838107718607968399e-01,2.050309105171313137e-02,-2.907398850410054456e-02,-4.218013317197068929e-02,1.264969944953918457e+00
-7.899719220920937979e-02,-6.480320877313265893e-01,7.861345639568804167e-01,3.933818833520319122e-03,-3.218817178072955892e-02,-3.973648646023995867e-02,1.253967881202697754e+00
-4.768960852216153068e-02,-6.454977515368294227e-01,7.710434720240412210e-01,6.278150248796093846e-02,-2.048136573106292685e-02,-1.812840017716208299e-02,1.237421751022338867e+00
-4.922133491219660151e-02,-6.097093217924799413e-01,7.625606499126819093e-01,2.909075483066003720e-02,-2.039327338766181580e-02,-4.163775780938198424e-03,1.196649193763732910e+00
2.178258707796714572e-02,-7.755317989156763625e-01,7.794810567904125742e-01,1.797171829281361127e-02,-9.684056146528225231e-03,-2.265559495262304580e-03,1.347296118736267090e+00
2.071195625842096877e-02,-7.736082945623604656e-01,7.737557850146737914e-01,-7.175968773437995307e-04,-7.864989682110941696e-03,-2.288023246744592780e-03,1.340291142463684082e+00
-2.219373204292111879e-02,-8.205969242678098352e-01,8.055211311640942951e-01,-2.478593642704165784e-04,-9.585485816408872289e-03,1.144363134190054272e-03,1.408435106277465820e+00
-5.466081389823175540e-02,-8.283682638796890929e-01,7.942030988310777584e-01,-2.501279026452326356e-03,-2.227571530048686171e-03,-1.360785099919480665e-03,1.405704379081726074e+00
2.839132603452737547e-02,-7.644102831738293080e-01,7.666627018968678042e-01,-1.182134345465871644e-04,-1.209471167347309127e-03,-1.384576196450533351e-03,1.326232194900512695e+00
2.207607101170316888e-02,-7.510226384192131288e-01,7.642719463451053130e-01,1.784598451527858246e-02,-5.505800156084789121e-03,5.313205823075727681e-04,1.312773466110229492e+00
-2.040101962129412666e-02,-8.168179478723740505e-01,8.035353818550756699e-01,2.479184617324598720e-03,-5.140923128016201306e-03,-4.338554785782881092e-05,1.403369426727294922e+00
-1.466310849675184561e-02,-7.261764201144299546e-01,7.850392354577203635e-01,2.293862612620978236e-02,-1.759564669864911723e-02,-9.497455930664309640e-03,1.310554027557373047e+00
-8.290311121872739886e-02,-6.572490811509416053e-01,7.933865511740056942e-01,-1.581620428853278137e-02,5.002215998256290090e-03,-1.481784805843014592e-02,1.265912532806396484e+00
-4.691067670032869619e-03,-8.292769839812534904e-01,6.656145993006352679e-01,2.564341728185889555e-03,2.867581484179894651e-03,2.083568139773919053e-02,1.297429442405700684e+00
-1.567594116216392344e-02,-7.829887844300867927e-01,7.965900267164346404e-01,6.751471455411522070e-03,-1.766260293623644548e-02,-1.348985391689589905e-02,1.368731379508972168e+00
-3.084413079543234931e-02,-7.987346318832507786e-01,8.086022428153750718e-01,1.338925733930321216e-02,-1.755939633402111774e-02,-1.453015356151837571e-02,1.393206834793090820e+00
-1.164132946520043434e-02,-8.135128304183881776e-01,8.018277929416769423e-01,1.839641436574021918e-02,-1.890389907847317766e-02,1.006942985409932725e-03,1.399685025215148926e+00
-8.272375827943420634e-02,-6.755373570693422591e-01,7.905350726598316946e-01,-6.937458290001114782e-03,1.633582434621519072e-02,-1.817811446698316957e-02,1.278133392333984375e+00
-3.990244999531745301e-02,-6.822663821049952393e-01,7.775574009969706823e-01,-4.521357252325674397e-03,-2.580527341011920606e-02,-4.871410480927006181e-03,1.268112421035766602e+00
-4.508008166724131183e-02,-8.274108272408386977e-01,7.977676836753847534e-01,1.831311307954242365e-03,-9.981292743643371823e-04,-5.143848623594930378e-03,1.407803893089294434e+00
-8.892828473329826566e-02,-6.346831584771946977e-01,7.799338799283230816e-01,-3.351055625714704795e-03,-2.570360968297794729e-02,-2.598584590534426184e-03,1.236523985862731934e+00
-1.122142878850691805e-01,-4.943267703335235685e-01,7.866437418148338745e-01,3.572781821734155039e-01,-1.314826167790807410e-01,3.361776843292046957e-02,1.317428231239318848e+00
2.573156327676894353e-03,-8.197087570297575398e-01,8.111428072064001960e-01,-1.438670145739006680e-02,-7.361838670346552461e-03,9.007521552202433406e-05,1.412652850151062012e+00
-5.158699042643322130e-02,-7.435665970301689187e-01,8.003214877229970492e-01,-1.985244490367917697e-02,1.928724619340442537e-02,1.199550680282475239e-02,1.340454101562500000e+00
-4.233437696908252945e-02,-8.257917901407798578e-01,8.426622916954371600e-01,-1.518644482042546401e-02,-2.266295013008878811e-02,8.118612479330187398e-03,1.446655511856079102e+00
-2.961169284754513412e-03,-8.573097819921587925e-01,8.532854333363895094e-01,-3.626924182475676356e-02,-2.068532497227009923e-02,2.060948160204952723e-02,1.483612895011901855e+00
-5.687086426421595481e-02,-8.230622269705479832e-01,8.096210923342134214e-01,6.069988025544945619e-03,-1.000941888525271918e-02,4.393680781196591424e-03,1.415000081062316895e+00
-2.399605158853412509e-02,-8.418168647558288420e-01,8.532334484901259453e-01,-1.531433386913932417e-02,-1.010907838280940101e-02,2.586876948228017479e-03,1.468607902526855469e+00
-4.483071682651081080e-02,-8.268908918489265014e-01,7.937854234835992617e-01,2.390302664861101035e-03,-4.370143250002337353e-03,-5.777296724688025208e-03,1.403893828392028809e+00
-4.780657886877831553e-02,-8.311356272839627302e-01,8.150908235221313580e-01,2.741062472074793158e-03,-3.540218994805333953e-03,-3.713674884673939715e-03,1.426264524459838867e+00
-1.208209380355521056e-01,-5.210724599888283404e-01,1.010075813386614119e+00,2.329078116218827044e-01,1.779423169641471680e-01,1.181769272043993978e-02,1.466260313987731934e+00
6.530968015680124750e-02,-8.056463835231350012e-01,4.007732253036127013e-01,-1.956574638774366548e-02,-1.022446806206423198e-01,-9.812767162531627931e-04,1.093520760536193848e+00
-5.174672671053476974e-02,-8.451938538843071225e-01,8.553361507217898119e-01,-7.761370921716308820e-04,1.257761760659008472e-03,1.242221747430031446e-03,1.473801612854003906e+00
-3.834006357663258258e-02,-8.231843760006152255e-01,8.060704128634258447e-01,-4.290520993892204572e-03,-6.555316940798004005e-03,4.881284978546195086e-03,1.411380887031555176e+00
-1.241784693926490345e-02,-7.975770200263851972e-01,7.983675465222938028e-01,6.458974677492511883e-03,2.498237549502825561e-02,-1.933433426144390852e-03,1.382914423942565918e+00
3.967524402800684524e-02,-8.075288833939368027e-01,4.903460895863127611e-01,1.061189524273725877e-02,4.204782268610481738e-02,-4.824567352391993108e-02,1.146862745285034180e+00
4.052300182622861624e-02,-7.837735581815478136e-01,4.253383717019375565e-01,1.189716459714737495e-02,-1.128448114343905406e-01,-2.623473164679608789e-03,1.087840437889099121e+00
-1.378788068429474822e-01,-6.034115937247515049e-01,8.104152238455146762e-01,7.571741504944427825e-02,1.365556811847392325e-02,6.984841950733883253e-02,1.260888338088989258e+00
-1.022509846378379106e-02,-8.091110029696986228e-01,5.962316493092150171e-01,1.479170472737658532e-02,-6.308073898154446801e-02,1.055871386221719777e-02,1.226143002510070801e+00
5.413817233606496582e-03,-6.723905105086916967e-01,8.010348855055762218e-01,-1.442176208656654746e-01,1.686585323651025895e-03,7.035961274198383048e-03,1.301637530326843262e+00
-1.416387628981097789e-02,-7.752968884280748707e-01,7.932630620693678081e-01,-3.346600711933798988e-02,1.245504310531608382e-03,-2.329819721771533500e-03,1.359853625297546387e+00
-3.727454877891245993e-02,-8.171155502804824389e-01,7.420155308179927633e-01,7.386773933465260941e-03,1.651917249729494344e-02,-2.490488798736937084e-02,1.351299524307250977e+00
-2.305471696372739937e-02,-8.146347317129188914e-01,8.042863727406127650e-01,-6.432051370604992269e-03,-7.509381069898505255e-03,-4.761855266149692296e-03,1.402269601821899414e+00
-1.952353227774240169e-02,-8.020140743986498011e-01,7.993696809419583715e-01,-2.397707392982771114e-03,-1.142936407818750770e-02,-3.595982143444617467e-03,1.387119889259338379e+00
-3.087055517834928070e-02,-7.521750394658083261e-01,7.887331812234662509e-01,-8.453246141691741003e-03,-1.527734413062210514e-02,4.394996844055728061e-03,1.335734605789184570e+00
-1.826231812545515282e-02,-7.579226894865856989e-01,8.412685438355397283e-01,7.618362642946138741e-02,1.467170629244486831e-02,4.393540478300903690e-02,1.394811868667602539e+00
-8.853464408213526649e-02,-4.656104480033428361e-01,7.748745450615475150e-01,1.150617526651272482e-01,3.821312746576109587e-02,1.258863491431488069e-01,1.142310261726379395e+00
-3.459017120226962061e-02,-7.720966594808968964e-01,8.033306566607383292e-01,6.057408875423958561e-02,1.792785218050025470e-02,5.150181398068798613e-03,1.369689941406250000e+00
-8.070833481158035116e-02,-8.306340389130603130e-01,8.137948314495513369e-01,1.574942350359300781e-03,-2.181122295080430498e-02,1.503816030165468047e-03,1.426455974578857422e+00
-1.579099099984112827e-03,-7.967111700616269498e-01,7.924737497304884526e-01,-1.673254357035185809e-04,1.230427649464817252e-02,-3.182410803483584887e-03,1.376450657844543457e+00
-2.920923855200248387e-02,-6.163984377286264582e-01,7.594674621265324888e-01,1.643046153815388710e-01,4.302059910703964936e-03,4.467325582664238848e-02,1.231639266014099121e+00
-6.093045227085182314e-02,-7.638841610210792554e-01,8.961928365676273822e-01,1.412301328593610072e-01,-8.986655528462685061e-02,-3.915205739482299080e-02,1.473671197891235352e+00
-5.405946519863739919e-02,-5.826535004649155969e-01,7.528074454252384751e-01,-3.590675649777255729e-02,1.611860244675658582e-02,-1.850660079341224715e-02,1.167315602302551270e+00
-2.875975173652805909e-03,-8.007725498571094391e-01,7.926385077060932316e-01,4.198418411767929417e-03,1.176272481670271805e-02,1.399257351391229804e-03,1.380106687545776367e+00
-6.765424211729913206e-02,-6.054625409680846060e-01,7.477954008699894128e-01,8.314091530827637244e-02,1.741609164600164267e-02,1.069208181956172732e-01,1.203617453575134277e+00
-2.526832553827998429e-02,-8.050945784110077330e-01,6.534935775491496068e-01,-1.299727463163811297e-02,-4.976824061461095246e-03,4.099030121861245955e-03,1.264434456825256348e+00
-1.738097989127248069e-02,-8.227750571664043111e-01,8.024645055332443322e-01,-3.919743237423739361e-03,1.149149528462480897e-02,3.709570512488595973e-03,1.407689094543457031e+00
1.268048613661267986e-03,-8.002130792790854708e-01,7.923139074471212684e-01,1.534082665929290424e-03,-1.023265224408579678e-02,3.891947642845047795e-03,1.379311561584472656e+00
-9.861642356819869115e-02,-5.838448500497221971e-01,7.946837798261606745e-01,4.351280656947774383e-02,2.350653272152596063e-02,4.751210475205850520e-02,1.216961979866027832e+00
-1.143722825177536373e-01,-5.971531619430217042e-01,7.924606084875160938e-01,-1.073488987666372562e-03,1.412385507719310200e-02,-4.140810810018082100e-02,1.224324584007263184e+00
-1.444686441285218670e-02,-6.967610434146751519e-01,7.652940879998411106e-01,-4.753242414457355125e-02,2.398439061875427825e-02,-2.152295207144772418e-02,1.271011590957641602e+00
3.978041502606559539e-03,-7.349705150348266880e-01,7.660367608031140030e-01,4.373935473117583975e-03,8.026475396536700974e-03,-3.058053599460888294e-03,1.300068974494934082e+00
8.735754333116393933e-03,-7.664446384443396321e-01,7.757277602600564093e-01,-1.370476723985201463e-02,-1.147235547836103313e-02,-2.477580604015725517e-03,1.335932374000549316e+00
-2.170550957887889404e-02,-6.974078187087897618e-01,8.080991685345253472e-01,-1.061319379809429059e-01,2.373136837751635767e-02,4.417289072303508257e-03,1.319617509841918945e+00
-1.171602494041546205e-01,-4.668345264682203233e-01,7.466069098485493827e-01,-3.508988733357742973e-02,2.745527076135527780e-02,-2.743183452265656602e-02,1.085640668869018555e+00
-3.154736942660196775e-02,-8.252247339070037935e-01,8.105929195917191965e-01,-3.500378383120254441e-03,-1.200769478314156653e-02,-3.731749836303939211e-03,1.417047262191772461e+00
-4.048529427961215788e-02,-8.317951304489784592e-01,7.802157352044973848e-01,8.426065639943148763e-03,-1.084730661575774614e-02,-8.050636298762696994e-04,1.396323084831237793e+00
1.501541127221499294e-02,-7.314563026673029933e-01,7.631840012969367537e-01,-2.086133979872331710e-03,-6.158601764618592926e-03,-2.576868695245014291e-03,1.294453382492065430e+00
2.005334918956369616e-02,-7.498077891788674787e-01,7.684237758016164710e-01,-2.050668157409864245e-02,-6.751649469529504878e-03,8.740645823691467475e-04,1.315403461456298828e+00
-1.239472961513870819e-01,-4.364615837587243474e-01,7.317418494357885717e-01,-1.399776774379216278e-02,2.247835815723741269e-03,-1.213984328968164689e-01,1.068690776824951172e+00
-3.351367945237200552e-02,-8.250119133477676892e-01,7.098164986430126611e-01,-7.290790345741061766e-03,2.989421581677890322e-02,7.757589211845346451e-03,1.330554246902465820e+00
-1.257434823686278680e-01,-5.736889716420094931e-01,7.961536930757202590e-01,-1.515770257976552585e-02,2.245663355425688620e-03,-6.725378803600447208e-02,1.215640902519226074e+00
-8.597607601596662930e-02,-4.839139385939947857e-01,7.308955014158755592e-01,-1.124496292666342552e-02,-8.177931709827612750e-03,-7.213030023619549508e-03,1.073048830032348633e+00
-1.053212572964002947e-01,-4.431485606027371071e-01,7.232832408692312365e-01,-1.105387475087009526e-02,1.052139119955326600e-02,-1.291735600057510869e-01,1.063670039176940918e+00
4.422760925996299143e-03,-7.313031462438956964e-01,7.630741921792433269e-01,-6.008543344923331954e-03,5.613817955954431178e-03,1.974433134268730079e-03,1.294302344322204590e+00
-9.976640949039200512e-02,-5.721640198946820188e-01,7.483415632846740495e-01,-9.762137253888561461e-02,1.252054874439117657e-02,-1.008876529598934507e-01,1.184350371360778809e+00
-1.190942711853077984e-01,-3.167656004587194873e-01,9.426075237391697836e-01,1.454252476014345485e-01,8.066967559590013104e-02,-6.723192399229106601e-03,1.207996964454650879e+00
-3.119548751633027805e-02,-8.342087022064651469e-01,8.084814042175071380e-01,6.456891071546695410e-04,1.370427376288514036e-03,-3.205506567937752276e-03,1.422742724418640137e+00
-5.912618484401235830e-02,-8.223059469854898662e-01,7.799821766696380942e-01,1.317028905972607083e-03,2.327477295430282773e-03,-2.381348847404526469e-03,1.388155341148376465e+00
-4.141081203294594282e-02,-8.069590812545203162e-01,8.066363689023684502e-01,-2.283667142776873733e-03,-9.391380273047035890e-03,-3.963123191078616291e-03,1.398140430450439453e+00
-1.344222940211781125e-01,-3.553013492801719853e-01,7.445799375561911182e-01,-8.511969200312689832e-02,1.053530523373878702e-02,-4.134981178045481209e-02,1.021167993545532227e+00
-7.670578448155573881e-02,-6.243180382226961589e-01,7.744718840902286017e-01,5.045874108135415224e-03,2.699276966671016950e-02,-4.363964586994359060e-03,1.221809029579162598e+00
-4.703809503569227057e-02,-8.286499088651432254e-01,8.036008195790437236e-01,-7.605567599545020110e-03,-1.478844462547161155e-03,4.410801320023414671e-03,1.414076209068298340e+00
-1.492603311971971158e-01,-5.001114643801489734e-01,7.645344874412999259e-01,-3.553294117142179881e-03,-8.432038394976203860e-03,-1.994632312836800911e-02,1.131445169448852539e+00
-4.365860589689261884e-02,-8.302849398625961053e-01,8.021619933454001705e-01,7.348297509761609171e-04,-3.613739410445718681e-04,2.590912570811869028e-03,1.414058089256286621e+00
-2.159182393347747891e-02,-8.197944823571317041e-01,8.017453204310517334e-01,8.389474033531699182e-03,-8.095659974058887209e-03,-1.239852818877689670e-03,1.404497742652893066e+00
-2.850572893220377005e-02,-8.058844036365770958e-01,8.040216075443625821e-01,2.085958549875803481e-03,-1.226368262436959219e-02,-3.147479092167519178e-03,1.394669294357299805e+00
-4.565664040038409921e-02,-8.347986816607215754e-01,8.126353901115308531e-01,-2.273317576281692030e-03,-8.866703415315284201e-04,1.347330809715926786e-03,1.427146792411804199e+00
-7.552705895950573289e-02,-7.924091692896821915e-01,8.346429182334517138e-01,-7.429053403222332609e-04,-3.090876084172918675e-02,4.045753568737558287e-02,1.415129661560058594e+00
-8.297751340144349230e-02,-6.662741089618683388e-01,7.580378487433081514e-01,-1.767690588772381777e-02,-1.894682074297567714e-02,2.390254329459404192e-02,1.241705060005187988e+00
-3.723134593847096663e-02,-6.359193264470899276e-01,7.558544525693540184e-01,-9.834292555172473652e-03,-8.901604981508966577e-03,-4.003693056374711332e-03,1.209462404251098633e+00
-4.885545897373667901e-02,-6.977892766448438033e-01,6.580393634978948247e-01,-3.386699270726070427e-03,-3.410686543556377005e-03,1.919232230109402595e-02,1.175039410591125488e+00
-9.124774002885158164e-02,-6.253089301690685220e-01,7.858419674903038832e-01,2.135372273290222014e-03,2.412935836180443369e-02,-2.354685125583375754e-03,1.234789133071899414e+00
-1.089097037930647910e-01,-6.755967275531680194e-01,8.034491304399876688e-01,4.434216130107754804e-03,9.483063127829234953e-03,-1.882399439335454699e-02,1.293037772178649902e+00
-1.583886419940985224e-01,-3.015100434629100490e-01,7.041579296945480460e-01,-2.719652906881372435e-03,2.255372652625969605e-03,4.368118353967170506e-03,9.423449039459228516e-01
-2.881185648452155162e-02,-6.293150445048353303e-01,7.470969771400193249e-01,-9.697360909878214794e-03,1.128370063343949077e-02,2.388829524150127247e-03,1.195514798164367676e+00
-1.106193080961376807e-01,-7.050601085404607504e-01,8.244170808078954416e-01,-5.270992338855629705e-02,1.444486503231012103e-02,4.635583351872810814e-02,1.341224908828735352e+00
-5.979992424303257059e-02,-6.494024935260177545e-01,8.761041874139031682e-01,1.205420038009673012e-01,-1.035181027578206125e-01,1.021218546556516664e-02,1.360665678977966309e+00
-9.301963027257736938e-02,-7.049277409642273895e-01,7.998097667142910483e-01,-8.620079475363220251e-03,-5.819598704682757070e-03,2.331009327974977244e-02,1.311434388160705566e+00
-4.049345851486191306e-02,-7.057850134403353959e-01,7.779842835672380330e-01,4.820330259817554031e-03,2.123282081761004858e-02,-7.108862120164771009e-03,1.287873744964599609e+00
-4.415518863421557388e-02,-8.314621533729789071e-01,8.053308196830947230e-01,-4.657746531702730390e-03,-5.461878191968188396e-04,3.335450948768724395e-03,1.417880177497863770e+00
-4.518269184546153810e-02,-8.337607507910853588e-01,8.090628005828368607e-01,-4.486350352631064166e-03,-2.794634529969202471e-03,3.581745532626013501e-03,1.423148751258850098e+00
-4.431883256086779910e-02,-8.365480198761062747e-01,8.126824008170654423e-01,-1.867777028601391156e-03,-3.705140446885117449e-03,-1.597831490216394899e-03,1.428663372993469238e+00
-9.659964150421829210e-02,-9.656697788929008430e-01,9.948128720382329870e-01,1.760195470895623004e-02,-9.103573981621762568e-02,-1.425543767429521443e-02,1.709204435348510742e+00
-1.195823798274338323e-02,-8.402504723714129264e-01,5.799657247186701392e-01,-2.714264018293971806e-02,-1.411318048066908248e-01,1.846723345258742544e-02,1.260839343070983887e+00
-4.764853453111156378e-02,-8.362534149197231592e-01,8.592004354178908176e-01,-5.492589818875118213e-02,-5.927295280619260254e-02,1.107245700585103793e-03,1.476147770881652832e+00
-3.836359573359376940e-02,-9.115624851709861476e-01,9.102535225652882422e-01,-4.148460640387040960e-02,-4.134840130092583971e-02,1.378462954760674430e-02,1.581627011299133301e+00
-9.079323376572670523e-02,-1.042748503821121497e+00,1.101326489509337980e+00,-1.973025971961916286e-02,-1.979261277623191664e-02,4.565777243511948483e-03,1.861348628997802734e+00
1.811436261856448626e-02,-7.804080796282936161e-01,7.778764708633790770e-01,6.822839702555201329e-03,1.180616199345527022e-02,-1.705567510795680556e-03,1.349863052368164062e+00
2.895520369429152585e-03,-9.057655362976033686e-01,6.865258900476587378e-01,1.734903838434088408e-01,-3.123588496244485424e-01,8.366041103975174753e-02,1.522564172744750977e+00
-5.711435084077863544e-02,-8.279914667682222174e-01,8.039910540557421159e-01,-7.770166116582081020e-03,-1.484299429999322946e-03,-8.038278310496761378e-03,1.414193034172058105e+00
-7.002465614019430518e-02,-8.133093240940660884e-01,7.816412076042263957e-01,-1.885357814832236021e-03,-1.385086232333697202e-03,-6.425845060913688497e-03,1.382381081581115723e+00
-1.092924910563168872e-01,-8.576706200113095591e-01,9.519953095543978172e-01,-4.315690923283811882e-04,-9.163358966800815020e-02,-7.741878526364666911e-03,1.583040356636047363e+00
-1.051598149960206174e-02,-1.164314230210903300e+00,9.505202909958054835e-01,1.109515547187528706e-01,-1.631931172195319191e-01,9.207862267230704223e-02,1.872416973114013672e+00
-5.735977828381903787e-02,-1.081658635103365018e+00,1.123544825776070732e+00,-1.692946889228235940e-01,-1.844643242927714588e-01,1.077917885781909564e-02,1.960034489631652832e+00
-1.305152356690831780e-02,-7.179312798214894098e-01,7.696775476787564019e-01,-2.687938821039565981e-02,2.498724245954502682e-02,1.771065409612535132e-03,1.290465116500854492e+00
-9.985551252479182849e-02,-4.306162964054018327e-01,7.265399015597358012e-01,-2.019496658150301549e-01,-1.333527312281204136e-01,5.723815560820334769e-02,1.118570446968078613e+00
-1.537416436009702014e-01,-3.340951910925280544e-01,9.801743610584440214e-01,-1.504436088788666803e-01,4.728052729392114018e-02,-2.129106145758485891e-02,1.264422655105590820e+00
-6.359213874013192047e-02,-7.965792683566503829e-01,7.140361747056700459e-01,-2.393371797838365726e-03,-5.927873039433398990e-04,-8.754729024054464523e-04,1.308429598808288574e+00
1.879922867839443901e-02,-7.650463550447235139e-01,7.686301590050168553e-01,5.008702037656877042e-03,5.393231193871786096e-04,1.199296068354453036e-05,1.328340411186218262e+00
-6.225385665662055978e-02,-8.100493415708900358e-01,7.105016387814810930e-01,-9.571881513112302396e-04,-2.842187489806003234e-02,1.131801193595247113e-02,1.317961573600769043e+00
-1.200813627835806488e-02,-8.109313389868445521e-01,7.950998621945981615e-01,-6.033655902980674356e-03,3.446887797606968361e-03,-3.208294715323883450e-04,1.390922069549560547e+00
-5.986870932554988478e-02,-6.144859000453707365e-01,7.971648085589221333e-01,-7.258655776162946383e-02,2.478320728730104908e-02,-3.274541938495698079e-02,1.240281462669372559e+00
-5.417338319809422709e-02,-6.348716081459904181e-01,7.656328362120446984e-01,-3.757189555528576280e-02,1.742151914657602899e-02,1.000031232004881636e-02,1.220982432365417480e+00
-1.331057470587474756e-01,-5.768277423772008028e-01,8.557514982332158349e-01,-8.919088739394706589e-02,-1.437888516350429441e-03,-1.020292009278679773e-01,1.291745543479919434e+00
-4.262018756947307668e-02,-7.046800365581005199e-01,8.029031900299191671e-01,-5.649136944637289659e-02,4.571607948867462135e-02,-3.740294580722577228e-02,1.316457629203796387e+00
-8.193666652162182040e-02,-4.460748792526043616e-01,8.336565965822778645e-01,-1.449682681085693592e-01,1.548615486046667385e-02,-5.860315278066852845e-02,1.174044251441955566e+00
2.689208007404758453e-04,-7.970413079281376545e-01,7.918829942412600742e-01,-1.161293748012533081e-03,-1.064134978097084488e-02,-6.139203366098701029e-03,1.376217722892761230e+00
2.426926774953930971e-02,-7.890486937884290120e-01,7.763732189745072843e-01,-1.478437084859936766e-02,-5.634771543236960847e-03,-3.374616434974352531e-03,1.356330037117004395e+00
-2.121502960652544775e-02,-8.205963967857334840e-01,8.043762226267459070e-01,-3.609870350630170022e-04,-5.655968267288230544e-03,-1.102970815607476731e-03,1.407364130020141602e+00
-1.522753296799441228e-02,-8.160099962967097831e-01,8.032546757828226136e-01,1.185340877545148532e-03,-1.760398763884580067e-02,-6.821961780909548481e-03,1.402734994888305664e+00
-7.508644962699156933e-02,-8.122270211546552821e-01,7.802929126912944158e-01,1.661190303692454320e-03,-1.336935531971280428e-02,4.747024245463955447e-03,1.380650877952575684e+00
2.025967201657932759e-02,-8.272090288494468036e-01,5.531369090645340547e-01,-1.901937087488209804e-02,6.678594886779211370e-02,6.790420366806235175e-02,1.217397809028625488e+00
-4.405725375043116621e-02,-8.336463988631516164e-01,7.984169768365824149e-01,1.496293380001167787e-03,4.961961560551651947e-03,-3.390389558475636125e-03,1.413696408271789551e+00
-1.518081009477621063e-02,-8.124990801742761892e-01,7.997272841175507851e-01,-8.531330060821317113e-04,1.633692268883394456e-03,1.150626100401651048e-03,1.396261811256408691e+00
1.178067975860159766e-01,-7.184336886455897631e-01,1.719546086966746712e-01,6.530517680958827786e-02,-1.416367659851715533e-01,1.104037158175387862e-01,9.257726073265075684e-01
6.660706959646933711e-02,-7.891633955683596824e-01,2.976853621801213712e-01,1.653376045572429176e-01,-1.938086560853732876e-01,8.014090914849979208e-02,1.094281911849975586e+00
1.077522324256358077e-01,-9.437918275433734294e-01,3.751121526215042135e-01,1.245138165833673677e-02,-1.117893241625437101e-01,6.628050368445122242e-02,1.228617906570434570e+00
-3.963670108110237122e-02,-5.239919554195952012e-01,7.478250794595245887e-01,-9.591092133984130061e-03,1.194274872441489395e-02,-6.269480454396399172e-02,1.117409110069274902e+00
1.119777085112586001e-01,-8.687233068671607050e-01,3.256787950016718503e-01,4.088132655693861583e-02,-9.206823150701232139e-02,5.169616780956885760e-02,1.120482325553894043e+00
-7.709733232799061142e-02,-5.797781927033039961e-01,7.711269883750827558e-01,5.995092789441382186e-02,-3.812092698709869387e-02,-5.451493098009893568e-02,1.192734837532043457e+00
-5.242585088043866942e-02,-8.357424199461189751e-01,8.066967244059530806e-01,-2.592149570948038603e-03,6.812557122545466514e-04,2.751641803407340638e-03,1.422914505004882812e+00
8.959038571952279706e-05,-8.028103154692751708e-01,7.896342167121821465e-01,-2.306210685175569871e-03,8.961030558491664411e-03,-3.783525801907878031e-03,1.379222273826599121e+00
-4.123872335209501083e-02,-8.385914695387901574e-01,8.143710885669983579e-01,-1.324140530412312722e-03,3.081636418240306981e-03,7.656469471714133848e-04,1.431816339492797852e+00
-4.648508417574298557e-02,-8.353867918705909501e-01,8.128434297185379576e-01,-2.270922109908208707e-03,1.250565310408772394e-03,-2.133575057100269359e-03,1.427855372428894043e+00
-3.095305366511038811e-02,-8.178384664004677562e-01,8.065441237125072771e-01,-1.371309842612362939e-03,9.089354362187917688e-03,-4.196511590879824227e-03,1.407093048095703125e+00
-4.091663539838606006e-02,-8.320778257787667664e-01,8.143628705607143248e-01,1.700662366414842615e-03,9.145598111331650071e-03,3.082155284761365580e-03,1.426320791244506836e+00
-4.260841260447401774e-02,-8.374019188223811305e-01,8.165057614991150237e-01,-1.028074372392195554e-04,-1.305156792943348810e-03,3.290766879366484825e-08,1.432688832283020020e+00
-6.076141792604767417e-02,-8.191801956661955986e-01,8.078060989446951279e-01,-4.253317682958344774e-03,-1.641767865886956806e-02,7.597619599342758483e-03,1.410454750061035156e+00
-5.061174069389452745e-02,-8.296597307100841423e-01,8.032039750134403189e-01,-1.133582849412971549e-03,-1.180438032258649328e-03,-9.166304043077227667e-03,1.414687395095825195e+00
5.716257627627407967e-02,-7.790506287495917448e-01,4.149557096803114797e-01,2.063917281402024434e-02,1.038742065133264475e-01,-4.258941592444876606e-03,1.077108025550842285e+00
-4.183713475755018729e-02,-8.345039622094869713e-01,8.111906920372079499e-01,-9.739097461951222012e-04,5.427115911287654863e-04,-1.118700928212906310e-03,1.425535559654235840e+00
-1.499122891315454453e-01,-3.356514393231619375e-01,7.185443660909976993e-01,5.704134963978599662e-03,4.786431411544593388e-03,-6.970411286409495220e-03,9.748510122299194336e-01
-1.615210120656107584e-02,-8.375545207774399703e-01,8.341943202550108349e-01,-1.723630334978227055e-02,2.586078985226737442e-04,-4.883053205759453792e-03,1.448181867599487305e+00
7.205101203929658096e-03,-7.885717914974482712e-01,7.805655750929340053e-01,-1.218243916158863460e-02,-1.603773407193176057e-02,5.190608342007255183e-03,1.359436392784118652e+00
2.171643505147684283e-02,-7.756177788400629991e-01,7.743308184604742461e-01,1.075890030022288394e-03,-8.274492011785563456e-03,3.501737465233772505e-03,1.342572569847106934e+00
-3.069690781352175588e-03,-7.899099337979310631e-01,7.893139619043657573e-01,-1.123099651641056235e-03,-9.195807833674107465e-03,4.128483252624207643e-03,1.367763638496398926e+00
-1.157684369274315089e-01,-7.132831440014064661e-01,8.307526410357669588e-01,5.960809438929621368e-02,4.201044079852590818e-03,-6.229459940670299678e-02,1.356775760650634766e+00
3.441206270795116838e-03,-7.889716356583873491e-01,7.876402643068498577e-01,-1.343598419494858136e-02,-1.197437246396048337e-02,4.811685502777471139e-03,1.365773320198059082e+00
1.093320343919241058e-02,-7.872985038099926669e-01,7.833374606994205624e-01,-5.492324116330638516e-03,-5.915657203879251536e-04,1.784283580975906062e-03,1.360309123992919922e+00
-5.583885234703143963e-02,-8.462480720285491254e-01,7.990189159226660509e-01,1.994090233879091539e-02,1.343883769854161249e-03,1.574226306288703178e-02,1.425888419151306152e+00
-8.961772091562286713e-02,-4.961173802078397976e-01,7.249570431772780488e-01,1.209650767769668289e-02,5.270230996043077758e-03,-8.328753017288005600e-03,1.077324867248535156e+00
4.615772237143433987e-04,-7.447063430258076266e-01,7.783657125120575504e-01,2.829666080758764732e-02,-5.383170507496912172e-03,1.925675320115241129e-03,1.320068001747131348e+00
1.260185243604139589e-02,-7.306276276178151896e-01,7.632043081729293910e-01,4.724799293246083678e-03,-4.315840590545507068e-03,-3.771889983215066604e-04,1.293749332427978516e+00
-3.804329133482284991e-02,-7.176111127550157676e-01,8.142590446881826649e-01,2.236588949137907900e-01,1.535860254080494321e-02,-8.573055431024073636e-02,1.392930626869201660e+00
-1.142385364178699902e-01,-5.048036904553157012e-01,7.555291653986644373e-01,7.211131876735168977e-02,-1.415297029693337455e-02,-3.049184535926672407e-02,1.125934362411499023e+00
-5.061678984828539563e-02,-6.673377420632619073e-01,7.851867724440280139e-01,3.148419880036490426e-02,-2.501129806556408666e-02,-3.184974449598447499e-02,1.265805482864379883e+00
-5.476265159169474428e-02,-7.399408174747916789e-01,8.015426438479533733e-01,1.670018346483291560e-02,-2.643389317342374409e-02,1.161137179666055924e-02,1.338949918746948242e+00
-8.479803808629013395e-02,-6.019660343600812258e-01,7.775649589090783964e-01,7.881972045531910817e-03,-1.595299636789974593e-02,-5.718158841949504828e-02,1.211560249328613281e+00
-8.243164445145501062e-02,-8.474142973806326751e-01,8.530012475279118433e-01,3.762776411196881027e-03,-2.375545945669399125e-02,3.444030361567432946e-03,1.475667357444763184e+00
-3.429952515215368286e-02,-8.209456849833329795e-01,7.935112291125626660e-01,2.170151533244523128e-03,-4.903018521802159080e-03,-3.422259683653349187e-03,1.398355603218078613e+00
-2.638397498768446647e-02,-6.267530355146744281e-01,7.488521646838333101e-01,5.274164509231787402e-03,1.365515622177432796e-02,-1.736782477286046705e-03,1.194786071777343750e+00
-4.519734396430608037e-02,-8.305888457782135692e-01,8.122593584791610866e-01,4.142293692632344725e-03,-7.076420978142578151e-03,-5.079218657563689190e-03,1.423302531242370605e+00
-2.164265329181844222e-02,-8.200527142770754896e-01,8.052849973802466144e-01,2.641741325370473045e-04,-8.387171537151258058e-03,2.201853785849355351e-03,1.407736182212829590e+00
-3.681855748434273434e-02,-8.333225226075139380e-01,8.108479563902765141e-01,7.189435408194510624e-05,-5.631786435489312750e-03,-2.528386519638398154e-04,1.424156665802001953e+00
-3.589131054514217711e-02,-8.283419402936990084e-01,8.095793301000434594e-01,5.224173107181177486e-03,8.867408717002417309e-04,-2.029107557643039430e-03,1.418763160705566406e+00
-4.812071502399402345e-02,-8.290163522973592602e-01,8.060804391798430668e-01,6.400241049585504195e-03,-1.768524098413858060e-03,-5.225500121567049940e-03,1.416585206985473633e+00
-4.447077038746297117e-02,-8.264346574821169744e-01,7.565178912849247483e-01,1.121181830018772203e-02,1.217161664244498925e-02,3.920486563170323679e-03,1.371226549148559570e+00
-5.299755727741183031e-02,-8.283053502208789221e-01,7.882297161557851872e-01,4.596539150356225047e-03,4.102554588039554993e-03,-1.162299592302951361e-03,1.400390505790710449e+00
-2.203939874014804179e-02,-7.852610040401462044e-01,7.953452310136784886e-01,-1.449383254457493365e-02,1.865368191259614283e-02,-7.953531133103982492e-03,1.369793534278869629e+00
-4.830132358974309481e-02,-8.273383121195475587e-01,7.868157582111473536e-01,1.267435996109441158e-03,4.812233243149562079e-03,-1.814842010919882074e-03,1.398209691047668457e+00
1.888134780157119802e-02,-8.016341904530190909e-01,7.963614100750369129e-01,-1.118524090181296192e-02,2.387996076205646263e-03,-3.516741369012994518e-03,1.384227275848388672e+00
-5.623030235305193081e-02,-8.226651149107594430e-01,7.894215854553616740e-01,9.872413755684263451e-03,2.632826825895627065e-03,-5.074435898404512646e-03,1.396809577941894531e+00
-6.132137610621231361e-02,-8.322820915204288683e-01,8.126918129994210593e-01,-6.333906245946508209e-03,-1.237246475944361705e-02,-1.003161251830130170e-02,1.425829887390136719e+00
-3.717616215165210625e-02,-8.346036926735308503e-01,8.053352784954384003e-01,-3.146953320297841711e-03,-1.331404769758900639e-02,-4.828965691263805370e-04,1.420605540275573730e+00
-1.131072131924062973e-01,-3.136693085969715633e-01,8.890934199102700219e-01,-3.710520247358699286e-02,1.818109622491754715e-02,6.276911392386791931e-03,1.118425250053405762e+00
2.821852770835252266e-02,-7.773716799786997145e-01,4.967692085816206582e-01,4.007385181097440456e-03,1.065970859634868782e-02,3.213796631387555187e-03,1.116420745849609375e+00
-4.890355092498082507e-02,-8.392802084109625138e-01,8.122136829529961188e-01,-3.885219380819890465e-03,-3.908477394587048410e-03,-1.947450395962852009e-03,1.430708765983581543e+00
-4.295069566821371754e-02,-8.269964446328499363e-01,7.892549680003269064e-01,-1.374271794828278758e-03,-3.390461454312116568e-03,4.541166452938102949e-03,1.399958372116088867e+00
-1.991598765890556511e-02,-7.836779597578229506e-01,6.101553462861125654e-01,-2.177088652405695639e-03,5.662726735651992319e-03,2.023263185411228009e-03,1.208995223045349121e+00
-4.598451401942856009e-02,-8.267362542832497052e-01,8.042719832809434033e-01,8.099649093211230833e-03,-1.216678152211239173e-03,-5.440609180610547248e-03,1.413024663925170898e+00
-3.420348244654008996e-03,-7.782508565680221757e-01,4.633164322703773319e-01,-5.507521613817122075e-02,-7.037055725974553089e-02,-1.767709607857236298e-01,1.139099359512329102e+00
5.847547141217294617e-04,-8.102066086188856042e-01,7.980198906617209653e-01,-8.428595049239004031e-03,3.838059283560337864e-04,-4.386327743581094028e-03,1.392878413200378418e+00
-4.472686036448129954e-02,-8.342710733760477781e-01,8.109214668466490084e-01,2.589832173237236867e-03,-3.845038352114460802e-04,-8.192023384143695469e-04,1.425169825553894043e+00
-5.471461267408113394e-02,-8.279935489169326646e-01,8.068227837389377877e-01,5.373862732470835804e-03,-2.555259404675490429e-03,-6.010106528804392070e-03,1.416555762290954590e+00
-1.502737763702438334e-01,-3.730089581277516442e-01,7.216049782987249417e-01,7.927717987511448405e-03,-6.476321893632387000e-03,5.614676456618721868e-03,1.002192854881286621e+00
5.248018727093578528e-02,-8.071477210895461329e-01,4.781326877268897713e-01,-1.970701853573807606e-03,9.132401501214597664e-03,6.109745863260703652e-02,1.139080166816711426e+00
-4.186793483729629034e-02,-8.301075994637510114e-01,8.040679764429983223e-01,3.215941158809309608e-04,-5.651191085556615465e-03,-3.619722974791744416e-03,1.415579438209533691e+00
-4.282885336573520607e-02,-8.307435051823376382e-01,8.019044774638126594e-01,-8.386644915898774531e-04,9.187920753846176916e-04,2.010754163710840037e-03,1.414205908775329590e+00
-5.059354785322016379e-02,-8.342321366755560685e-01,8.088445858989733450e-01,2.831814705868071665e-03,-4.129469395079612450e-03,8.644897102277294618e-04,1.423478007316589355e+00
-6.650997655450635593e-02,-8.202655337700228699e-01,7.827811249375825620e-01,4.688376366168975524e-03,4.967674983746569496e-03,-5.396389365702380404e-03,1.389182567596435547e+00
-6.487649132269360241e-02,-8.063320196337638857e-01,7.674317601163381797e-01,9.455322683198645606e-03,9.510440696210235509e-03,-7.328935526812443459e-03,1.363933086395263672e+00
3.633134272997744219e-02,-7.886791044790304461e-01,4.969727673061290485e-01,1.957558138068350891e-03,1.265976926527515728e-02,4.445395306857164884e-04,1.128432393074035645e+00
-7.677776242040101895e-02,-8.076877172102280289e-01,7.657506078974776198e-01,4.345306709428066808e-03,4.990793527453725974e-03,-5.083480866473198342e-03,1.363856554031372070e+00
1.537908884172876911e-02,-8.040349730864035926e-01,5.469477347061076911e-01,9.003208093437442203e-03,6.170119436724877393e-02,-2.800700332212195318e-02,1.184734940528869629e+00
-4.002662273928923875e-02,-8.286215362976624421e-01,8.121762132377929877e-01,4.760392202171334153e-04,-9.291886637824471259e-03,-4.392270183676768441e-03,1.421440124511718750e+00
-6.277104396342932102e-02,-8.109922607602024769e-01,7.571277878258083627e-01,7.747645719308731554e-03,1.194579843680805900e-02,4.246101454297396098e-04,1.358728647232055664e+00
1.014625304566616620e-02,-7.985774142889292548e-01,7.896822101464245902e-01,-2.686225030661690272e-02,5.273605232728101333e-03,-7.175142472442210158e-03,1.376423597335815430e+00
-7.664159368341404155e-02,-8.258144855296462028e-01,7.931582990382730625e-01,8.153503390843336307e-03,-7.423974613959282570e-03,8.664696689660494888e-03,1.403578400611877441e+00
-1.338802824229695376e-01,-5.851709200723776982e-01,7.787059032443350848e-01,5.616323514355701582e-03,-1.996707738212829056e-02,1.171080539178781695e-02,1.204167962074279785e+00
-7.519787542287736937e-02,-8.216244835995845097e-01,7.998381135087951899e-01,6.983929198663164743e-03,-3.124717212633591756e-02,7.822936389046424369e-03,1.406858205795288086e+00
-5.488988611069128137e-02,-8.272333700799671119e-01,8.281532459032631133e-01,-6.706422811910406172e-03,-9.145252374044129853e-04,-3.564020326048027761e-04,1.434723019599914551e+00
-4.140144678378110399e-02,-8.303438473417146248e-01,8.266360969590500485e-01,4.586262739999518931e-03,5.786627995381842839e-03,1.309597558690501432e-03,1.435590386390686035e+00
-3.655067483667703149e-02,-8.075227584895184885e-01,8.155406186996481122e-01,-1.562558973903889481e-02,-9.181626084483555592e-03,-1.393011784732075750e-02,1.406756401062011719e+00
-1.292621041277022265e-01,-3.718316288564936234e-01,7.107795922861870341e-01,7.903553433135349429e-03,1.034627563471690300e-03,5.597562306650987959e-03,9.841560721397399902e-01
-6.644964363720748390e-02,-7.998974370571072523e-01,7.290819014168630208e-01,1.182515153426525882e-04,5.222882570010561193e-02,1.977265987840824950e-04,1.327584505081176758e+00
-9.201766921109510999e-02,-4.845934726130725068e-01,7.297446243115234266e-01,1.146548603389609469e-02,-9.516541310485591987e-03,9.360356134138929363e-03,1.073751330375671387e+00
-9.458142842622058177e-02,-5.826963689582653760e-01,7.689800922178612330e-01,1.343723822706760149e-02,-2.804053080303395631e-02,1.171781586647178269e-02,1.186939120292663574e+00
-6.613797901743015406e-02,-8.681305837075952159e-01,8.589806975340478212e-01,-1.791216534792377385e-02,-3.672264633612982998e-02,-5.014111017005920545e-02,1.501174807548522949e+00
-6.071259331492272204e-02,-7.995473874954291960e-01,7.127832618764121664e-01,-6.000792182901316073e-03,-5.007026124513898335e-02,-9.490682694109035941e-04,1.312741518020629883e+00
-7.095903522438856692e-02,-8.336755019379969989e-01,8.439378657959953900e-01,7.127679430861231721e-03,2.503964213646240472e-02,7.502319999381328909e-03,1.455603599548339844e+00
-5.202043448727526609e-02,-8.238141520770030368e-01,7.863595069177344854e-01,-1.301916190181793675e-04,2.545213579057611919e-03,-1.027240441113179414e-03,1.394856810569763184e+00
5.155743040215854389e-02,-9.551476453767677732e-01,5.238277767166708010e-01,-1.020357343906860316e-02,-1.476670048060317875e-01,7.653594231020834082e-02,1.339863300323486328e+00
-7.165378550176626504e-03,-8.012301127132712697e-01,5.571603521591005359e-01,-5.550352347389258569e-03,-6.456438247339282843e-02,-1.067703016198442122e-02,1.187456727027893066e+00
-8.007763106384711838e-02,-8.155650183348036597e-01,7.853122995835840614e-01,-6.062551214172760480e-03,-4.561973858573235147e-02,-1.573692483705961542e-02,1.390475273132324219e+00
-6.051382657072552906e-02,-8.034776428015032446e-01,7.111176495173794354e-01,1.256550846070142273e-02,-4.249134560969283075e-02,4.522306517418861471e-02,1.316332101821899414e+00
-2.590381847326347214e-03,-7.390176339331346878e-01,7.054681696710753958e-01,1.965424093845042630e-01,2.923065326513111239e-01,5.283104886684297785e-02,1.394881725311279297e+00
-5.598752380010291879e-02,-8.076486732772397703e-01,6.893497788111370150e-01,1.050476140609738276e-02,-3.574336978071653015e-02,7.351443446699592286e-03,1.298109889030456543e+00
-8.670792035856359631e-03,-7.378612515157830787e-01,7.755646541215904799e-01,3.317285423719659732e-02,1.724818987584460922e-02,1.084186263805858759e-02,1.312687039375305176e+00
-4.888861253639575910e-02,-7.157603649210071417e-01,8.113227318172674396e-01,4.513226368355597456e-02,3.931954033748299299e-02,3.985463049367171662e-02,1.331858158111572266e+00
-7.976671407789849566e-02,-8.008480634887845673e-01,7.519982740809011412e-01,5.629464629368004800e-04,-5.063620206737271629e-04,-5.919908211111577206e-05,1.345943212509155273e+00
2.750811228847688944e-02,-7.665731148897516611e-01,7.671343289671215260e-01,5.810195450306439909e-04,2.514417967445623414e-04,8.779480956584952622e-04,1.328509926795959473e+00
2.604827551983791845e-02,-7.777249386279591059e-01,7.781762532850066139e-01,-2.180219055838277312e-02,1.270726216790883222e-03,7.702496977602847497e-04,1.348228812217712402e+00
3.571985039124452553e-03,-7.653100851321262832e-01,7.794364549092117622e-01,-5.180619359835504298e-03,2.302593257834076659e-02,4.926409885198466260e-03,1.338445901870727539e+00
7.772969784962616840e-03,-7.828402154958308268e-01,7.808398126170238429e-01,-3.112281644242747766e-02,1.840379341780174274e-02,-2.271663284773951796e-02,1.356233239173889160e+00
3.007176720832136982e-02,-7.744976067064968106e-01,7.676836941536987480e-01,-4.762204737256782450e-03,-1.213837973235252317e-03,1.212843938258916974e-04,1.336014866828918457e+00
2.158485269652038463e-02,-7.824416684967232527e-01,7.752203332068993147e-01,-3.714018337845147177e-03,6.027109659095098056e-03,-3.367116036453039231e-03,1.349278450012207031e+00
-2.246172541415305396e-02,-8.226671844264761280e-01,8.039659338936950839e-01,-1.939207607367059291e-03,-3.983646682474506571e-04,-5.420103714953254919e-04,1.408771157264709473e+00
2.592064873413945508e-02,-7.425082850027616699e-01,7.597602541431583978e-01,-2.523577566875768313e-02,7.306233053915168855e-03,3.209386222424554739e-04,1.301913261413574219e+00
3.833725037095232768e-02,-8.212417020036315574e-01,5.507569665505946954e-01,-1.023487115860166607e-02,9.710182614397362341e-03,-6.611955922422564852e-04,1.201046824455261230e+00
-4.173387562366914771e-02,-8.350022327694791580e-01,8.129855579169315005e-01,1.108563180727242109e-03,-3.068085832255785465e-03,-1.942078245171236905e-04,1.427541255950927734e+00
-3.989813070524487332e-02,-8.348319382101451192e-01,8.124534754143203363e-01,1.416858866517501639e-03,-3.101337365781314109e-03,-1.862767223962064967e-04,1.426892161369323730e+00
-4.322695848427787757e-02,-8.349639596724519608e-01,8.121836974673705134e-01,2.117494430019495420e-03,1.373017584792614321e-03,-1.955435805474521008e-03,1.426837682723999023e+00
-8.139405723824995331e-02,-7.923313224247831021e-01,8.202981572978419456e-01,5.503622133074335086e-03,-1.168083584083484672e-02,8.108156561478523441e-03,1.400080204010009766e+00
-4.412775057667100986e-02,-8.350831073889644074e-01,8.103546954027995852e-01,1.718013806626545077e-03,-7.813273480374654471e-04,-2.398486923578690977e-03,1.425354719161987305e+00
-1.311031330293688235e-01,-8.966860925397731608e-01,1.087263342366018737e+00,-3.516413116603809841e-01,-4.452615268229737772e-02,1.330015498198722779e-01,1.852907299995422363e+00
-4.085879120017393840e-02,-8.349136194416759693e-01,8.086807262110692340e-01,1.000695956579712590e-03,-8.162743414749289248e-04,-1.898325791780175898e-03,1.423670291900634766e+00
-7.661167594097431643e-02,-8.063380518608983527e-01,7.654205575713859400e-01,3.725137880221419083e-03,-4.678915188218586187e-03,4.125194734105648228e-03,1.362398743629455566e+00
-8.057372594242423469e-02,-8.018164493335705467e-01,7.584050130304067494e-01,7.013215441085846611e-04,4.198575586437856139e-03,-9.851199597212094167e-04,1.352494359016418457e+00
-7.634436961551487044e-02,-8.048666926826261170e-01,7.494658063588229835e-01,-7.069217923426828962e-03,1.344216550713021700e-02,4.329013591850957611e-03,1.347247838973999023e+00
-6.983124104551521882e-02,-8.102627100377568503e-01,7.644548277813935089e-01,1.672340450937680016e-03,6.267033256729155491e-04,-1.497662398046246870e-03,1.364558577537536621e+00
-7.518659578166531077e-02,-8.053493053011885339e-01,7.639333237737654381e-01,-2.676309622032883515e-03,2.799002748761250572e-03,3.075996917071373380e-03,1.360157132148742676e+00
-3.620862967957858697e-02,-8.376027291998046076e-01,8.150503852385575509e-01,2.160857109815385486e-03,3.334668527882139744e-03,1.156519158866483503e-03,1.431474685668945312e+00
-8.455627558699635449e-02,-6.816462570086453399e-01,7.972655057979719517e-01,1.452553058168615631e-03,1.744620366539123904e-02,1.179082322777973320e-02,1.289181709289550781e+00
-7.486248242953047471e-02,-8.014298141876570192e-01,7.383124526773953145e-01,-3.604864026871468317e-03,1.792254238167052469e-02,9.159745317654032791e-06,1.334534525871276855e+00
1.889242895522432186e-01,-9.510201429979797672e-01,1.908060743608239185e-01,1.653299866369067547e-02,-2.858662770000444109e-01,-1.349892821246707723e-02,1.244245648384094238e+00
1.263232961093040951e-01,-8.486555719764372618e-01,3.255935470562689726e-01,-1.420516909505790482e-03,-3.838298714210843648e-02,-2.092217783017510935e-02,1.091015934944152832e+00
-7.294803630941065764e-03,-7.866282029378598439e-01,5.726909204062586856e-01,9.704704208182360001e-03,-5.463503687858441843e-02,-3.274427626597642589e-03,1.185333609580993652e+00
3.320697367041515469e-02,-7.938839598933036257e-01,5.354145598786848037e-01,3.927286970059370823e-03,-6.584696213669595510e-02,-2.823299458859628019e-02,1.169234037399291992e+00
-1.479413988101364180e-02,-8.032203873684408135e-01,6.189131917543186923e-01,1.690657662870212116e-02,-7.392759060500470047e-02,-2.451498762338533751e-03,1.241009235382080078e+00
-5.351230947448792213e-02,-8.360872147383106023e-01,8.184281558615755792e-01,1.824064676879474369e-03,-5.020090316224693622e-03,-4.171178265675565960e-03,1.433596968650817871e+00
-1.930462833129165112e-01,-3.087773455416615853e-01,8.249352767086497451e-01,-7.005024933495780128e-03,1.990907002279817650e-04,5.994246471271574145e-02,1.085550069808959961e+00
-4.466130466639958024e-02,-8.362285985962962798e-01,7.936812777482540326e-01,9.446972242358943339e-03,5.440924561824483398e-03,-5.679012197258308421e-03,1.411897659301757812e+00
-3.065357935435331083e-03,-7.994972638178023949e-01,5.934301025835562182e-01,7.199207393722813902e-03,-3.888553285632307538e-02,-2.100549194162209914e-03,1.212387561798095703e+00
-6.084293151199625382e-02,-9.148067274558985273e-01,9.839592793650151492e-01,-7.752726357046698345e-03,-3.067514225290078611e-02,-1.187980965326575385e-02,1.648185610771179199e+00
5.927979475987743552e-02,-8.113614854558707234e-01,4.444068330335292361e-01,7.369207844587176252e-03,-9.059441864369995046e-02,2.117627171040555381e-02,1.125955939292907715e+00
1.560544492092941771e-01,-8.821723122113915849e-01,2.184874351801054382e-01,-3.018048836858394993e-02,1.842459804784680587e-03,8.782546924430680024e-02,1.082827329635620117e+00
3.830532775084920065e-03,-7.519495524434053335e-01,7.775686636899441506e-01,-2.277753825406910772e-03,-1.184298385424585598e-02,3.927286566983738056e-03,1.324814200401306152e+00
1.061764494737929831e-01,-7.971663477008549270e-01,3.319697578975420726e-01,4.364155070354109461e-04,-1.786112666049847336e-02,-4.217936753864603809e-03,1.035369753837585449e+00
-6.944520971327394765e-02,-8.471923346962489942e-01,8.511377469379264316e-01,-6.917886293583616446e-03,-2.523570664076311282e-02,-1.495671507670490175e-02,1.473454952239990234e+00
9.542562432314169452e-02,-7.931456910442962194e-01,3.871573310049344352e-01,2.184475870844026352e-04,-2.123003828014810232e-02,2.241150075516523330e-02,1.066184759140014648e+00
8.780370465963671656e-02,-7.939996338948243082e-01,4.016395842927209525e-01,-2.050892337504533613e-04,-3.207572126206893748e-02,1.855837785221106997e-02,1.075607538223266602e+00
-1.403369862185621653e-01,-3.549062345478380398e-01,7.200537975206686703e-01,-1.025846367973387054e-02,3.175998177332741128e-03,-2.090075339968554876e-03,9.855377674102783203e-01
-8.100104818778394722e-02,-8.020155049949372339e-01,7.537352227105471592e-01,-2.437489775288754568e-04,-7.810575474646344303e-04,1.732045283171257963e-04,1.348519802093505859e+00
-7.806029701310265856e-02,-8.079848539079674818e-01,7.616018533848399885e-01,4.008608028666102788e-03,1.396352380896872733e-02,-2.614957599552984301e-03,1.360649108886718750e+00
-7.576442178702026686e-02,-8.075153040702173213e-01,7.661749113242128928e-01,2.971067011159300893e-03,3.147273786108810770e-03,-4.223607615080920107e-03,1.364009022712707520e+00
-7.452146039859265658e-02,-8.008658359287855744e-01,7.370112438417409928e-01,3.888792932587769452e-03,1.660565782651627839e-02,1.011591003768551062e-03,1.332850098609924316e+00
-4.974788755072884205e-02,-8.218367332903223632e-01,7.734800366939091898e-01,5.306229590738657624e-03,8.971300513144061725e-03,-3.768722551880557378e-04,1.381939530372619629e+00
-3.172767601380606373e-02,-7.892442035672673217e-01,7.985547451506767036e-01,-9.260155888609495831e-03,-1.702478049354653328e-02,-2.605659623950325621e-03,1.375972390174865723e+00
-5.238352893208785693e-02,-8.285704259873345467e-01,7.989924977370067571e-01,3.537158517555894725e-03,1.877693902638268974e-03,-3.958772096037803737e-03,1.410045862197875977e+00
-5.674880526583828827e-02,-8.230032371018459747e-01,7.886845255268648547e-01,-8.013102871782996515e-04,2.598473675506794180e-03,-4.829755039387922423e-03,1.396356940269470215e+00
-5.285648059515171693e-02,-8.252934252181512997e-01,8.112227708497384837e-01,-7.012598592767619156e-04,-1.379809421478024589e-04,4.030923914960621648e-03,1.418022871017456055e+00
-6.407773562931698419e-02,-8.213129109542361972e-01,7.890573630725763454e-01,3.836300154744109840e-03,-1.353399206982817092e-03,-3.385037623824450458e-03,1.395475745201110840e+00
-3.122634198095777108e-02,-8.334028656277655545e-01,7.237126228483212742e-01,4.174620556144234378e-03,3.157786892450411523e-04,2.013334327554433534e-02,1.349178671836853027e+00
5.636317104866242489e-03,-8.240059498334262322e-01,6.038621153148220344e-01,3.802041941121080300e-03,1.897262603872686701e-03,4.252808462892703617e-02,1.244176030158996582e+00
3.070325020746956721e-04,-8.053530173881751075e-01,7.929117641896801238e-01,-5.213711465315295189e-03,5.235362457733516587e-04,2.516030293095258830e-03,1.384189963340759277e+00
-6.052564164583389139e-02,-8.005411856887385547e-01,7.214935750459221531e-01,-3.744040705255929306e-03,4.736009609848891230e-03,-6.310459479695376662e-05,1.318329572677612305e+00
-5.086249071569149544e-02,-8.238466684545253660e-01,8.095459156322403205e-01,2.750012155010190477e-03,-8.492007025647275303e-03,-9.320765316315241314e-03,1.415411233901977539e+00
-5.165240453936389975e-02,-8.336564714504787199e-01,8.070792822549150980e-01,-1.598882343990338422e-03,-1.069401051709005339e-03,-3.786622792318661539e-03,1.421455740928649902e+00
-4.811228239737261325e-02,-8.345699235991065335e-01,8.097001417866269701e-01,-1.743529674038643432e-03,-2.468088007372987430e-03,-2.537555807611102492e-03,1.424442887306213379e+00
-5.257704220005743334e-02,-8.154799802733848635e-01,8.078105469568643837e-01,-1.203493063514728340e-03,-9.747754071657158473e-03,-9.831346699905409159e-03,1.406861543655395508e+00
-4.743267258473532477e-02,-8.353728953710124472e-01,8.036239807844598459e-01,3.585371003072209436e-04,-8.212606375020997825e-05,4.367545523966804427e-03,1.419783949851989746e+00
-6.034081466028934360e-02,-8.298473304048411547e-01,8.125777854070199702e-01,-7.963267905801201191e-04,-3.648712621016202574e-03,-2.883334805472909275e-03,1.423344850540161133e+00
-4.954860283280951294e-02,-8.311841409168124750e-01,7.945344857257443660e-01,-3.123497144157687342e-03,-3.821804378918181597e-04,1.036674895540619541e-02,1.408384799957275391e+00
-4.771370772724908144e-02,-8.358022502419193422e-01,8.115217945044128633e-01,3.058991451724956973e-03,5.344191243357079152e-03,-1.883810643976931978e-03,1.427111506462097168e+00
-3.683668728147105470e-02,-7.774363318896165831e-01,8.034629775965860254e-01,-1.354810032827177954e-03,3.002255245396228539e-02,5.143786853909864711e-03,1.371023654937744141e+00
-4.333025594609894032e-02,-7.780196851007061820e-01,8.005804116660188985e-01,1.518690922508947002e-04,2.269143847532505490e-02,6.318733931607333799e-03,1.368806242942810059e+00
-5.351546646829134779e-02,-8.326940625303039800e-01,8.053681994475990757e-01,-1.554201347592505786e-04,1.691987040834329456e-03,-4.163034192083137075e-03,1.419184565544128418e+00
-5.945263214430380333e-02,-8.088519610894536749e-01,8.080077236508996785e-01,-1.433445600221411407e-03,-4.339042215953933974e-03,-1.442711091042894224e-02,1.401730418205261230e+00
7.974367542658077762e-03,-7.488788688926016901e-01,7.728597512900552413e-01,2.814555559611984711e-02,-1.140301978315468728e-02,3.356107165732308186e-03,1.318932414054870605e+00
5.085852787181699246e-03,-7.567565892422137841e-01,7.751149763122830993e-01,1.448098435589081044e-02,-1.568996405315088716e-02,-6.015662496252115535e-03,1.327202200889587402e+00
-8.538970603145414062e-02,-6.817049971877265913e-01,7.974815311920834260e-01,1.314180460321553523e-03,1.674875519649068195e-02,1.157395573938515936e-02,1.289485096931457520e+00
-8.464203646048329421e-05,-8.483931170379520603e-01,6.492697079496798640e-01,2.254571964114668661e-03,-8.547380058942061209e-02,8.537881596791607741e-02,1.317551612854003906e+00
1.316896036106703430e-02,-8.168790504247395168e-01,7.938302566476080901e-01,3.192397013384637439e-02,-1.048100337986381837e-02,-1.494438017633841495e-03,1.396349430084228516e+00
-1.278850617929373074e-02,-7.636607466560880741e-01,7.949885435815126078e-01,4.755368529248498594e-02,-6.459620992948444072e-03,-6.194226424237408817e-03,1.352728605270385742e+00
3.046184276447570956e-03,-7.884192323607444042e-01,7.907187298162456912e-01,1.437361614071116026e-02,-1.369107764766128166e-02,-1.100373702729273359e-02,1.368139743804931641e+00
-8.842896634279506785e-03,-5.245729862419490352e-01,4.099979939789966665e-01,-5.056716218252704093e-02,1.056950904142250902e-01,1.320946993583951012e-01,8.665717244148254395e-01
-1.421716828940786798e-02,-5.108120004022922434e-01,4.062160388075730655e-01,-1.853730940858449028e-01,9.930837559046711005e-02,1.262864078903488119e-01,9.014855623245239258e-01
-9.401260888419996076e-02,-4.127087312836420496e-01,7.059267268929531047e-01,-1.365718369705233928e-02,-8.026960717195320144e-03,1.086227684205785249e-01,1.016148209571838379e+00
-5.741152208887126407e-02,-8.501613800771926632e-01,8.003690812387866949e-01,-6.935837849165901736e-02,5.026137081221187380e-02,2.525004856733896810e-02,1.438112854957580566e+00
5.581083358140451894e-03,-8.184793392938451984e-01,8.179667215715613615e-01,-1.382862378174361251e-02,-1.614025502172568554e-03,1.007758728206486739e-03,1.417422056198120117e+00
-7.971459154298914107e-02,-7.268517236822942262e-01,8.075897216426728420e-01,6.172472406845128145e-04,-2.630192331176975373e-02,1.231942007666564712e-02,1.335228323936462402e+00
-4.485492512890423139e-02,-8.163366124350062147e-01,8.126308866783901186e-01,-3.674712546274477593e-03,-1.642055353509413659e-02,5.899002174367901606e-03,1.411720395088195801e+00
-3.894514708858402841e-02,-7.664072814360425312e-01,7.995981733028568739e-01,-5.777444812666321676e-04,-2.511250778876496573e-02,8.475082876654889408e-03,1.358113765716552734e+00
-6.540919025905311823e-02,-8.727032551655006243e-01,9.577535214738384095e-01,1.980626591017736401e-02,-2.119925491611448012e-02,1.519476778543107443e-03,1.589688897132873535e+00
-4.797787464523493861e-02,-8.168502108152130292e-01,8.139983991840179511e-01,1.782705567091416024e-03,1.373850372526622642e-02,2.892548485379166975e-03,1.413335919380187988e+00
-4.904067580738870336e-02,-8.314430022592972369e-01,7.942335043974223519e-01,-1.405245442249888844e-04,-3.054675381783542466e-03,-4.020391671868784461e-03,1.408233284950256348e+00
-4.032980777046656778e-02,-8.228251862494407876e-01,8.043291613551141195e-01,4.187547254513389328e-03,1.716122066139775778e-03,-2.685232383478794796e-03,1.409529209136962891e+00
-4.476532121184274848e-02,-8.414608924801417755e-01,8.154039685938905269e-01,-5.440852637453632776e-03,6.938006101193016674e-03,2.466793900741060842e-03,1.435325622558593750e+00
-4.653744917411193477e-02,-7.669121204878985854e-01,8.074035050230833344e-01,-5.994128121802568725e-04,-2.536581888180449926e-02,8.498159312532980320e-03,1.365818500518798828e+00
-1.559739404713907443e-02,-7.534863571718247721e-01,7.844338793562718459e-01,4.840543094479936997e-03,-1.727002192582783452e-02,6.003540557743091213e-03,1.332643032073974609e+00
-1.274377741746570147e-01,-5.438014386281541102e-01,7.788464549043377927e-01,1.891551198147735091e-01,8.565523515868408988e-03,7.075653673195883564e-02,1.222551465034484863e+00
-5.409581798556101911e-02,-8.237543408501558639e-01,7.785714310761827628e-01,5.399836674539274135e-03,-2.729643955161322778e-03,-2.348553670459334070e-03,1.388057947158813477e+00
-3.154615098402993589e-02,-6.270945180676258390e-01,7.521638820343941045e-01,8.976060996648063672e-03,-1.002137099872092534e-02,1.560307225075496741e-04,1.198398709297180176e+00
-4.183699425860699928e-02,-8.356565596624951908e-01,8.145825858470230330e-01,-1.825101586661223487e-03,3.567250083059921896e-03,-1.025329596241820844e-03,1.429509639739990234e+00
-3.977725819682133984e-02,-8.321832960511105215e-01,8.103341201807875427e-01,-1.122035587161647821e-03,8.055680728187778264e-03,1.034672916788452164e-03,1.422825217247009277e+00
-4.010609590301226351e-02,-8.319202533931416843e-01,8.108546203412866360e-01,-1.731123472106708971e-03,-8.858559450816842415e-03,-2.206146861182859808e-03,1.423083066940307617e+00
-4.319324602146356468e-02,-8.382483012674895040e-01,8.118801469202298060e-01,-2.477275715204241453e-03,-5.153076624049371564e-03,-1.178765746069140516e-03,1.429404020309448242e+00
-6.172199455390836587e-02,-7.907343055140952925e-01,8.156392591590839736e-01,6.281323643075601348e-04,7.423149254983017970e-04,7.819415247791422496e-03,1.393203139305114746e+00
-4.811057696303795012e-02,-7.402456277520965688e-01,7.893953390470681564e-01,2.843293767700609195e-02,-2.454975414470267001e-02,3.542863786542003665e-03,1.328309178352355957e+00
-6.612816217327727175e-02,-7.257535044588465656e-01,8.058510424751125223e-01,1.660429300299593076e-03,-1.678219129956987077e-02,1.244454210289282561e-02,1.331146359443664551e+00
-5.546788013103550602e-02,-8.056402993167098847e-01,8.179907759585818283e-01,-6.760392458196518538e-03,4.788268304879945980e-03,-1.887866669699071395e-02,1.407909274101257324e+00
-4.721517663291495415e-02,-8.119255351769238960e-01,7.935700929853375385e-01,2.824893146482838208e-03,5.201003277839354004e-03,-2.545317558587373991e-02,1.391656398773193359e+00
-7.335471596320342069e-02,-1.107914083744404588e+00,1.289649092339315573e+00,1.172963824683098677e-01,-2.466318640109400537e-02,7.651476831472414641e-02,2.097347021102905273e+00
-1.804854484701017836e-01,1.616060484353920579e-03,8.521546209354934343e-01,1.572878510977057109e-01,1.284783314307237460e-02,1.259155078003602879e-02,9.933027625083923340e-01
-1.760060340028217207e-01,-7.192637335001783594e-02,7.924028290638753802e-01,2.059150438661355373e-02,3.871794491314607071e-03,-2.452779853529319515e-02,9.224849343299865723e-01
-3.533822295359875798e-02,-9.923215246780479060e-01,1.069090949485928643e+00,1.314792739011243494e-01,5.818385042929459169e-03,1.343246178351086180e-02,1.801389575004577637e+00
-1.456535402760446574e-01,-9.394914342206808766e-02,6.690579418050688343e-01,1.458146907687171701e-01,6.791946185157825278e-02,4.336319345891070931e-02,8.411718010902404785e-01
-1.451601409702708845e-02,-8.004764519904377096e-01,7.967738731113021000e-01,1.409168259820091362e-02,5.237325463378150227e-03,2.602402619368838089e-03,1.383569717407226562e+00
6.464406546884721334e-03,-7.710154135087362581e-01,7.980574048136546139e-01,4.246993025045598530e-02,-4.039892461869456532e-03,-7.866263626605116827e-03,1.360950946807861328e+00
-1.002002254777617854e-02,-8.072843860037284269e-01,8.047786032584263172e-01,1.768124828605219419e-03,-5.951546323967953425e-03,-7.413448596956060538e-03,1.396215438842773438e+00
1.489581740931069861e-02,-7.972844384981625510e-01,7.896117268716226212e-01,9.113712456139910073e-03,7.814022955889086963e-03,4.369110707296211885e-03,1.374598145484924316e+00
2.740397047295429697e-02,-7.655606184837348005e-01,7.674128597032184862e-01,1.399767501182910389e-04,1.086076202984434871e-03,-9.805586541914240403e-05,1.327859401702880859e+00
-2.308353245260820821e-02,-8.073610771123497232e-01,7.972717186775150067e-01,-2.249935661414487198e-03,-1.517289718066727917e-02,2.848308082102528685e-03,1.390032529830932617e+00
-1.089605899214619311e-01,-5.559580768522194294e-01,7.750416313122673317e-01,-1.118730785921113156e-02,1.053309307600744892e-02,7.281672095723984439e-02,1.180266261100769043e+00
-1.333879111754346647e-01,-4.958105429396421071e-01,7.602835968649509502e-01,1.068517413487136795e-02,4.696908413777381788e-03,-1.834027183057195323e-02,1.120403289794921875e+00
-1.404911330170018069e-01,-4.345902460050370397e-01,8.432136891967388914e-01,-3.011908383082549309e-02,-1.438988491018671975e-02,8.190752740083424854e-02,1.169164419174194336e+00
-6.540837499219065432e-02,-8.035665393030612114e-01,8.188235636243004212e-01,3.903597742813082281e-03,1.263583791502619416e-02,5.727732882315880215e-03,1.407149553298950195e+00
-3.803131007058432184e-02,-8.275254488073954251e-01,7.845074335705816138e-01,1.944495739674093103e-03,7.657053707436311391e-03,-4.494529961066744128e-03,1.396247982978820801e+00
-4.315423802611845217e-02,-8.284497191569214491e-01,7.858877188655410961e-01,8.060512041274553799e-03,-2.907781011662851148e-03,6.551488294987944938e-03,1.398353099822998047e+00
-1.698260789496689460e-01,-4.886747466480643176e-01,8.569766818617757798e-01,-9.717259957570652251e-02,-8.369617780810304636e-03,8.235328680966128023e-02,1.237847685813903809e+00
-1.682594023061220745e-01,-2.978953312971716061e-01,7.699879882790421348e-01,-5.406837915251477139e-02,1.814343129630197060e-02,-1.284905464880231260e-02,1.014394998550415039e+00
-3.218996538463993196e-02,-8.211026476466921631e-01,8.081735147469100156e-01,-3.380873187825630434e-03,8.680746199640900634e-03,2.469855216057576311e-03,1.411327719688415527e+00
-1.356137295500163820e-01,-3.847694557153165107e-01,7.422597050212413894e-01,-6.688900516332316540e-03,1.115209578733050017e-02,7.374711677855325109e-02,1.033581495285034180e+00
-4.110256441293150265e-02,-9.211259195534967636e-01,8.051753980838599611e-01,-4.215957752585266886e-03,-1.330452611913774397e-01,4.363744574807179588e-02,1.514675259590148926e+00
-8.445664296338165067e-02,-7.910034307360396255e-01,8.216835949121996663e-01,7.679565390220974633e-03,3.137992784719399741e-04,9.539264462942398382e-03,1.400349617004394531e+00
-5.725743142587449985e-02,-8.511777887617151261e-01,8.103550172907962867e-01,1.254294068482107900e-02,-2.027482813668168848e-02,1.798414160211040530e-02,1.440330386161804199e+00
-1.284582696803623220e-02,-8.724223464262731431e-01,7.461022466399888087e-01,-5.224100411169689540e-02,-5.826247019788258902e-02,2.331148314987134540e-02,1.409698247909545898e+00
-2.343354354034929421e-02,-7.889563860054772393e-01,6.286069995759666629e-01,6.775133427998536809e-03,-1.069550936693807602e-02,1.713765401666153586e-03,1.229155659675598145e+00
-6.351747196450160948e-02,-7.893496266155880514e-01,8.153101952983941025e-01,3.051278741156123603e-03,1.238757165664351734e-02,9.629795699802970801e-03,1.392055392265319824e+00
-5.439028817456804943e-02,-8.189300218252083541e-01,7.661223962229524176e-01,5.734208081592129941e-03,-8.443464892195492316e-03,2.664818255724058903e-03,1.373102545738220215e+00
-2.862866089267739056e-02,-8.043701671185751190e-01,6.568772556337167945e-01,1.495999829017374827e-02,-3.417930935380523050e-03,9.745985144683786197e-03,1.266672849655151367e+00
-4.194041413297495274e-02,-8.055203119325220484e-01,6.765144330859705901e-01,1.772778764496169002e-02,-2.544948707738770022e-02,2.008865377343866873e-02,1.285272717475891113e+00
-6.424465182851524236e-02,-8.032450510319203429e-01,8.170987105790201710e-01,8.589370592096734524e-04,-1.707510535936611340e-02,7.023232802159467235e-03,1.405427217483520508e+00
-4.157377198756508074e-02,-8.561261848560923760e-01,8.823157618526584756e-01,1.642532115714445684e-02,7.449138491049315906e-03,1.307779001284157389e-02,1.507021188735961914e+00
6.175277803457362991e-02,-8.111047874408904290e-01,5.136036072119014584e-01,1.218418553103911214e-02,4.422117495372094621e-03,1.068914370655957638e-02,1.166746616363525391e+00
-4.666872341920092621e-02,-8.188317979839021543e-01,7.250669799195136322e-01,1.250303120348984776e-02,-2.132019442237687024e-02,6.905401207647557382e-03,1.337794184684753418e+00
-4.668432456636219946e-02,-8.164410159905437503e-01,8.152523032725065288e-01,-3.318110135784166012e-03,-1.591088800250606283e-02,5.276291992346289136e-03,1.414149045944213867e+00
-5.483209434243833946e-02,-8.308430553355190540e-01,8.136664970563026733e-01,2.486041776595936462e-03,2.698499216428247322e-03,4.257002930291499398e-03,1.424970865249633789e+00
-7.487358932055478145e-02,-8.074338149208126758e-01,7.404720089534175820e-01,-6.756380167479336153e-03,2.264839484502505565e-02,5.120861015799586455e-03,1.341818571090698242e+00
-7.620690485037794060e-02,-8.168845201501711006e-01,7.788231461581167636e-01,-6.702110629772098024e-03,1.899286755626853826e-02,6.469559627150949822e-03,1.383590936660766602e+00
-4.038384328666865669e-02,-8.136466457330115976e-01,6.939027500726867581e-01,-1.395470328739868357e-02,1.716155612696312546e-02,9.800705204933668827e-03,1.306393742561340332e+00
-7.900038640716727789e-02,-8.076399229252606560e-01,7.671614595551202731e-01,-6.723569008674790473e-03,2.762853066734938939e-02,5.001268757786747968e-03,1.365998983383178711e+00
2.784387899371870007e-02,-7.718427157329931232e-01,7.705507909852225001e-01,-5.452976825606191055e-03,1.887872237989081858e-03,-2.101910581095993609e-03,1.336098074913024902e+00
1.918230725793772240e-02,-7.486448598332456905e-01,7.684202251618933444e-01,-1.740455833149034265e-02,-2.993788558574900140e-03,-6.983776738138446983e-04,1.314206361770629883e+00
-4.627431950445679704e-02,-8.317750749329896331e-01,7.980765532959429587e-01,-4.115994098777111046e-03,2.107956825980090119e-03,2.287298835905711512e-03,1.411827921867370605e+00
2.736842070710740829e-02,-7.717962391420590818e-01,7.719548047767349486e-01,-6.428618128657056889e-03,1.209168312623049024e-03,-1.008660340852606755e-03,1.337255239486694336e+00
-5.460019262653397626e-02,-8.024317092521461303e-01,8.153817072253423115e-01,-1.553030190887674756e-03,-1.050596220203425107e-02,6.713206873890533062e-03,1.402566909790039062e+00
-2.397898580119130554e-02,-8.231184603769292618e-01,8.075074380327315060e-01,-2.261870290229943403e-03,-8.591606307998496178e-04,3.153490839750435967e-03,1.412272810935974121e+00
2.902395369196270405e-02,-7.643762182580087217e-01,7.685100771616359960e-01,8.034772352373314910e-04,-7.420769017026074797e-05,6.482213609802507225e-04,1.327793359756469727e+00
-7.790325800330040462e-02,-9.392945910705077228e-01,8.575674876759068477e-01,4.645266828873943765e-03,-1.662125130901488390e-01,2.215994693305359947e-03,1.582992792129516602e+00
-4.974402591265223578e-02,-8.274191084089366210e-01,8.113212917906448274e-01,-2.731602851031483207e-03,-4.038196017712511986e-03,2.786900338445189550e-03,1.419836521148681641e+00
-4.461482890163340209e-02,-8.344567774610629485e-01,8.087892906717538688e-01,-1.201708478063079257e-03,1.855912159641279939e-03,8.431265847051021842e-04,1.423453569412231445e+00
-5.018301053684721957e-02,-1.274629569718805033e+00,1.048015394268085432e+00,1.688134093746214148e-01,-1.587383950526029264e-01,9.292164465763527725e-02,2.058393955230712891e+00
-4.453583987567673319e-02,-8.771422975941516320e-01,8.737484159164292663e-01,7.395634630921152017e-03,1.254504427449685058e-02,1.196702454466971660e-03,1.517131924629211426e+00
1.748755130647558498e-02,-9.603450121616698976e-01,6.880365435952188191e-01,1.226968255578320260e-01,-2.690951111147311670e-01,-2.938148637752215769e-02,1.525276064872741699e+00
-5.105565658393777795e-02,-8.448389536864153726e-01,7.914669683949718815e-01,-5.850944350719719175e-03,-2.432102326176019749e-02,-1.183015331498848965e-02,1.418102145195007324e+00
-4.891384446584656764e-02,-9.849172515048796317e-01,8.100758225271695867e-01,7.807387904877513898e-03,-2.031863635960658165e-01,6.881852944079312751e-02,1.598820805549621582e+00
-5.516834472278361878e-02,-8.472846840073209318e-01,8.234827900649984711e-01,1.787724780760818755e-02,-4.894913363988964011e-02,9.647093357302806080e-03,1.450481295585632324e+00
-6.210996199641326265e-02,-8.341124978649218091e-01,7.365674135497399799e-01,2.579186420462035306e-02,1.732875886173831578e-02,6.985620154340069221e-02,1.366744518280029297e+00
1.367842165434832169e-02,-8.493087286631636479e-01,6.583047655076763593e-01,-1.025508180639966155e-02,-8.540473656039960018e-03,-8.365057039284815379e-03,1.310472607612609863e+00
-1.544137787468724890e-02,-8.285411993823366128e-01,7.180658195587775738e-01,-7.543523747170824238e-03,7.897238628473586541e-03,1.738053116206556351e-02,1.340463638305664062e+00
-7.736249663304550772e-03,-8.325933173666013598e-01,6.959005272093157224e-01,-1.357592863389513009e-02,1.581507835164222900e-02,-1.963403814443263895e-02,1.326029181480407715e+00
-2.984535228909613105e-02,-8.301307351539399804e-01,7.145244580290591729e-01,-1.925485185118562840e-03,-4.469862759154310389e-03,2.414046234591182144e-02,1.338682413101196289e+00
4.788215939254061859e-03,-8.148497515549846248e-01,6.009545055559297744e-01,6.628453392275004442e-03,-1.100473066048374311e-02,3.601657724957189194e-02,1.232983350753784180e+00
8.317195729554888173e-03,-8.307887925580542676e-01,6.093836040032435397e-01,-9.066698107766913220e-03,7.450614015855010382e-03,4.829720236471009287e-02,1.255846023559570312e+00
1.652144464239731214e-02,-8.234364039321627748e-01,6.176441924530329253e-01,6.228554315813752615e-03,-1.239750354522527187e-02,4.135883985412949770e-02,1.255987524986267090e+00
-3.631555614006994059e-02,-8.268951127254899891e-01,7.445543333252032658e-01,5.163519902299401089e-03,-2.253036227069650857e-02,1.017694876239265585e-03,1.361513733863830566e+00
-1.239409982138171828e-02,-8.684160152664539556e-01,6.123138361482888259e-01,-1.230412334327049204e-02,-1.146491724953387949e-02,-6.114500821993907459e-02,1.292231321334838867e+00
-4.880733748116097143e-02,-8.291553185596072240e-01,7.912984110288988626e-01,-1.179789557420982951e-03,-2.809884092829277591e-02,6.853898071912965795e-03,1.404567241668701172e+00
2.726282987194249274e-02,-8.145790284775354939e-01,5.347810672806984078e-01,9.221382085954956884e-03,-3.820246059654898441e-02,1.426152296498568554e-02,1.182694435119628906e+00
3.490642404614277550e-02,-8.125422369935884070e-01,4.953573771105228563e-01,7.382980450202743933e-03,-3.566406221369636254e-02,5.129171872812074429e-02,1.154237747192382812e+00
2.196830094668955624e-02,-8.231744787077289738e-01,5.969350139414568712e-01,5.048710380170265584e-03,9.543414113274919673e-04,4.221931379478020829e-02,1.239438772201538086e+00
3.347308573507146168e-02,-8.740028201139319330e-01,5.818486402704977634e-01,1.852324478294850151e-03,-6.564342320510918941e-03,3.156036610411204479e-02,1.274752378463745117e+00
-4.047870414540068185e-02,-8.246763638121185069e-01,7.499599058644794702e-01,1.305148558842583392e-02,3.618479370040192464e-03,-4.912047862619502853e-03,1.363906860351562500e+00
4.475707580024668175e-02,-8.086306440816720675e-01,4.901081417657329187e-01,1.812475591596956689e-02,-2.447854212332403745e-02,5.199617675228635633e-02,1.147849798202514648e+00
-4.230845418968232768e-02,-8.356575801955122840e-01,8.143653066690023090e-01,1.800868081812707607e-03,3.235059111846239933e-03,1.046609213415672932e-03,1.429327964782714844e+00
-5.102088615640743008e-02,-8.359363134120628702e-01,7.956090963811709438e-01,-3.108435187437388631e-03,-2.092522922099264871e-03,-6.330986033620191952e-03,1.413354158401489258e+00
-6.125918982695343490e-02,-8.248119950831240832e-01,8.133725440798071915e-01,4.819402303209019281e-04,-6.089941929222999518e-04,5.055409553843475713e-03,1.419823765754699707e+00
-2.909368392032319825e-02,-8.289354508584714232e-01,7.426653110022930493e-01,-1.339039072450697553e-02,1.828972360756481652e-03,-3.202321723535154585e-04,1.361320018768310547e+00
-5.451216358228578446e-02,-8.358341168891768591e-01,8.114258628568746801e-01,-8.731312812974093831e-04,-7.233059122179170226e-04,4.206351367751203288e-03,1.427216172218322754e+00
-5.432128432570545312e-02,-8.242417407388564765e-01,8.121099331111913955e-01,1.553575813258813989e-03,4.109041982038610930e-03,5.177921695267681361e-03,1.417992234230041504e+00
-5.154518233947253530e-02,-8.394858478917079925e-01,8.105635800800149449e-01,-9.139679447831488635e-04,5.208846889914520162e-03,5.330413447364412867e-03,1.429525017738342285e+00
-6.028567417026004654e-02,-8.040532549434681320e-01,8.027833947579144924e-01,1.202056227050010261e-03,2.652927874525042029e-03,5.108456970505162280e-03,1.392876505851745605e+00
-5.933237280791778950e-02,-8.371175556957241026e-01,8.148472314353041313e-01,-2.014324718351124741e-03,6.749512158203304669e-03,4.632398945674889336e-03,1.431529521942138672e+00
-5.943464748911057166e-02,-8.258171612849539711e-01,8.135761170325002123e-01,-1.689012995641642851e-03,-3.730874126432952124e-03,4.123681512123976607e-03,1.420792579650878906e+00
-4.732872570168072945e-02,-8.357076974204695752e-01,8.105295433393029381e-01,-6.259637654925640816e-03,9.240871755740729873e-03,2.530133446167036424e-03,1.426244258880615234e+00
-4.491315774729261190e-02,-8.350319982103900918e-01,7.964482476099572494e-01,-6.547499803037285133e-03,3.514503593589867782e-03,-8.207399586624400736e-03,1.413265705108642578e+00
-4.864536802767772949e-02,-8.371943957135290493e-01,8.120593658003241178e-01,-2.385920685224846190e-03,2.452848157845083452e-03,1.706763337109368662e-03,1.428766608238220215e+00
-4.339241573644841282e-02,-8.311537088104417048e-01,7.962464845695410576e-01,-7.968632404591674198e-03,-7.238753100593246954e-03,1.444597928534621959e-03,1.409734129905700684e+00
-5.288721856335690252e-02,-8.276485273874112369e-01,8.136084431736567701e-01,-3.094711886867647886e-03,-4.862281819299979838e-03,2.998032869396965311e-03,1.422154664993286133e+00
-5.603127382724843591e-02,-8.287320261100756813e-01,7.923340064251328529e-01,-5.895699715687834422e-03,5.069537305393802089e-03,4.183393573735459843e-03,1.404477238655090332e+00
-4.572994431084523304e-02,-8.325926414314223090e-01,8.149227980320460363e-01,-2.986522194764305513e-03,-3.935807375549760928e-03,1.166585460794417528e-03,1.427294254302978516e+00
-4.471660218008487175e-02,-8.340812430236029806e-01,8.050801951321392425e-01,-4.515690572528495254e-03,-1.436956392573560549e-03,-9.160964651159466581e-04,1.419901609420776367e+00
-5.398563414203080835e-02,-8.285731192524723454e-01,7.957872068002449506e-01,-4.457621285190147692e-03,-1.233076700920797799e-03,3.509236422317620323e-03,1.407275438308715820e+00
-1.987945054321964555e-01,-9.556307570827271558e-02,1.097639025047816963e+00,-1.929845742362066435e-02,9.308757538696740830e-03,-1.393853943395471050e-02,1.248809099197387695e+00
-5.199274917696754261e-02,-8.094786249150306423e-01,7.364639606364726809e-01,-8.775669245788838765e-03,4.065660239959518855e-03,-8.075567565265099126e-04,1.339020609855651855e+00
-2.231143577937405587e-02,-8.197730272723515732e-01,8.056152778383116608e-01,1.906309528254966266e-04,7.100328156937292523e-03,-1.572011730506154377e-03,1.407766342163085938e+00
-3.125293523708226606e-02,-8.129526800918640550e-01,8.056379908428837888e-01,-9.815372988553560350e-04,7.580330734334244161e-03,6.531481308472190939e-03,1.402120351791381836e+00
-4.311277928033083184e-02,-8.362406782747955347e-01,8.164717593346108027e-01,-1.089496276897705657e-04,1.056684585823696853e-03,-2.824300461266959953e-08,1.431677818298339844e+00
-2.951307656141631194e-02,-8.287705879281973553e-01,8.083491787248626714e-01,-3.768133762004449456e-03,6.079136769227613639e-03,-2.131137012396049860e-03,1.417977571487426758e+00
-3.071882176596840708e-02,-8.276023128889982150e-01,8.060047365937086372e-01,2.320034652832662393e-03,8.776055324757678702e-03,-1.796398078506600358e-03,1.414976239204406738e+00
-3.045942789963768799e-02,-8.298876522020318669e-01,8.110167064272657544e-01,-7.215540519909403178e-04,5.995980289724757786e-03,4.918734536869203734e-03,1.421284437179565430e+00
-5.735229811998676652e-02,-8.203583331381675281e-01,7.942805450305586712e-01,-6.779498727910928703e-03,1.570605912969547709e-03,2.475966789859349818e-03,1.399078726768493652e+00
-6.472078903279340767e-02,-8.211901895074600333e-01,7.758025821712115633e-01,-6.226304228495012187e-03,-8.910621401509439925e-04,5.817792191103530151e-03,1.383754253387451172e+00
-5.278369337905852027e-02,-8.203433162608848583e-01,7.685791881486073729e-01,-6.813110327755981036e-03,1.976020115520250257e-03,5.780896253172222547e-03,1.376401424407958984e+00
-4.194605163559404076e-02,-8.311972321323051194e-01,7.882102288162495807e-01,-7.992467045604974285e-03,2.865861473798538527e-03,6.763587723139243522e-03,1.402723193168640137e+00
-4.861191749429374931e-02,-8.282446578824257388e-01,7.936924561812042089e-01,-2.557053902535964471e-03,-3.104706529876716118e-04,1.235221078578427941e-03,1.404996991157531738e+00
-6.479807788437244587e-02,-8.211618705147761821e-01,7.835376645266262097e-01,-5.599377847191150566e-03,4.744538252586165059e-03,6.395274863836383772e-03,1.390573382377624512e+00
-2.838677157777236976e-02,-8.458738664588296707e-01,8.312809703112942206e-01,-1.497969787366917015e-02,1.787261919036639210e-02,-7.781376219955592373e-03,1.453235745429992676e+00
-7.553162847139878455e-02,-5.892349919470000197e-01,8.006589859608730375e-01,-8.079552155606714581e-02,1.662283736703306508e-02,4.326421979846187954e-02,1.227897047996520996e+00
-5.254229353751541098e-03,-8.420629901834996156e-01,8.045253991394114568e-01,-2.172547162394295253e-02,1.509482834787271134e-03,-5.658232593403595377e-03,1.426583886146545410e+00
-3.220037782672296317e-02,-7.579088791919437185e-01,7.900319952954873992e-01,-1.667473439288624446e-02,-1.598975461298969211e-02,-5.563401551040851774e-04,1.342021584510803223e+00
-1.449741341484233996e-02,-8.268988929874161453e-01,8.174170709924741818e-01,-2.926485169089915184e-03,-3.267537987391488929e-03,7.298743386647202217e-04,1.424073696136474609e+00
9.094756413227459910e-03,-8.182047033161967686e-01,8.074135783790922227e-01,-1.919145852397853222e-02,-9.504209542849403891e-03,9.240507650129183362e-03,1.408480763435363770e+00
1.104074329338607108e-02,-8.016603051685042836e-01,8.027289935368637774e-01,-1.276144379534154168e-02,-9.046757175782777979e-03,8.201083536039748684e-03,1.389818310737609863e+00
-4.528157467073157944e-02,-8.297745253467566640e-01,7.898897260431766432e-01,2.249724597306789354e-03,-1.577830425600843748e-03,-4.402175325872611372e-03,1.402927994728088379e+00
1.295181565200006178e-02,-7.749014409561549854e-01,7.834554913698357215e-01,-1.466002364573267859e-02,-7.435490604395936405e-03,2.608304946825029495e-03,1.349912405014038086e+00
-1.096560613386511965e-02,-8.024473449128822766e-01,7.939479443791401803e-01,-5.307355893887239114e-03,-6.342657715080469473e-03,1.148874540830957958e-03,1.382610797882080078e+00
-5.047167351889914749e-02,-8.023993935750335371e-01,7.752337367540352853e-01,-5.134580980188981070e-02,-2.597156020906250459e-02,-1.187013552300514030e-01,1.385733842849731445e+00
-1.251379455851612810e-01,-4.271042023511156804e-01,7.577234672283824635e-01,-2.917651781386376123e-04,7.447128458281715435e-03,-1.274200602593610621e-01,1.089080572128295898e+00
-8.835292020694645448e-03,-8.409737603100082559e-01,8.503074064676536814e-01,2.285228987804971759e-02,9.885193055740624374e-03,1.022614812079835830e-02,1.465496420860290527e+00
-9.736449046952372344e-02,-6.422906010318851777e-01,7.972724539763630380e-01,8.189172730263996180e-04,1.062762390243301644e-02,-2.302461863312861221e-02,1.259667396545410156e+00
-1.110877712452207899e-01,-5.590850642341410603e-01,7.664163170336718567e-01,-1.052564421235904768e-01,-6.411502683201791841e-02,-8.019010656638640711e-02,1.195280194282531738e+00
-9.725275628055422839e-02,-7.185709034088726410e-01,7.916548087280910195e-01,1.771599461548014134e-02,1.188980602970548910e-02,-8.938821800120234397e-04,1.315239667892456055e+00
1.182634133063054094e-02,-8.077448508168647567e-01,5.601396367051337810e-01,-1.847874577610161481e-02,3.605330716291238469e-02,5.533059983664008474e-02,1.198263168334960938e+00
3.072339568002468990e-02,-9.441947442694784698e-01,6.053478366260919286e-01,-1.103603584593565098e-02,6.300963019735025816e-02,-1.993378018360944179e-02,1.361740946769714355e+00
-1.686634246107786284e-02,-8.329221470949093042e-01,6.656396427656704473e-01,1.257983602417561686e-02,7.420463959174913859e-02,-3.250798039528350614e-02,1.307244658470153809e+00
-4.567453681933231202e-03,-8.240087174804524572e-01,6.317110901065255968e-01,-1.323791441410079699e-02,1.253390631286487381e-02,3.283793651398263236e-02,1.265685319900512695e+00
-4.574312788655554574e-02,-8.306815649713289451e-01,8.119516714571064497e-01,8.149793910109092701e-04,-1.116317796775253765e-03,-6.433717221459351980e-03,1.423072814941406250e+00
-5.202895124166438678e-02,-8.089010104734276618e-01,8.034229471634128927e-01,-2.988130765101074809e-04,6.136355670313359961e-03,-1.037669154429297046e-02,1.397339344024658203e+00
2.167302498249934831e-02,-7.856500910013537453e-01,7.779942620235663631e-01,-1.694838511956833641e-03,-1.280252262386053982e-02,-2.677641537940173445e-03,1.354588508605957031e+00
-5.176155536288735287e-02,-8.342687315937952208e-01,8.077231870424821381e-01,1.870544290153147628e-03,3.916290373534929772e-03,-4.659588007972197653e-03,1.422570228576660156e+00
-5.291438086590537215e-02,-8.255219452760582666e-01,8.115656214259381329e-01,2.651889842115974331e-03,4.817622188817499533e-03,3.130755174736073957e-03,1.418545722961425781e+00
-4.463272965881692061e-02,-8.348862877978454611e-01,8.122577448052384907e-01,2.414204195887490779e-03,-3.759403648344680597e-03,9.461984243112626491e-04,1.426879525184631348e+00
-3.667980887616968666e-02,-8.355029872096111365e-01,8.154304105305304473e-01,1.125108252604551523e-03,-3.401534559704747288e-03,-1.890154444513954951e-03,1.430015683174133301e+00
-5.585801104040082760e-02,-8.246080129565374062e-01,8.123394521116111822e-01,4.325623992541892220e-04,-5.540935944538535283e-05,3.886717517853512712e-03,1.418526053428649902e+00
-7.087968994924387367e-02,-8.029153081207973663e-01,7.540778097053181250e-01,-3.213894009921288309e-03,-1.679607553113509136e-02,-4.673906684728048808e-03,1.349545121192932129e+00
-6.935974618042262119e-02,-8.067876201977282058e-01,7.555823429713237616e-01,-3.540779619231025806e-03,-1.863817611241196451e-02,-5.483956118658835262e-03,1.354191541671752930e+00
-8.023785502968809602e-02,-8.039716123838371864e-01,7.557738744136731635e-01,-7.161795163607684355e-04,-1.029780834283859636e-02,-4.237773469328787873e-03,1.352083444595336914e+00
-7.594173433959958142e-02,-8.070999285725898309e-01,7.625600522633831924e-01,-3.277242842243081791e-03,1.164410475433621779e-03,-4.100739145782445957e-03,1.360456466674804688e+00
-1.255855608635578560e-02,-8.091562071685243218e-01,7.962065064309277185e-01,9.117267491522052306e-03,-1.831279912532183737e-02,-3.551634515419259917e-03,1.390763282775878906e+00
-3.052000635975193193e-02,-8.148605946441500603e-01,8.040791958981734489e-01,-4.236793875832824650e-04,-9.608734790141633397e-03,3.442242126276559826e-03,1.402379751205444336e+00
-5.101189712015825883e-02,-8.274419834570523324e-01,8.140169123228256920e-01,8.412396306112847680e-03,-1.298895985152714004e-02,-2.259925552668579172e-03,1.422493100166320801e+00
-4.363391991786154389e-04,-8.006390369962990139e-01,7.898190102278530578e-01,1.743916393740520959e-03,-8.265699808426221415e-03,-1.881437387885602237e-03,1.377467632293701172e+00
-5.604737731939846146e-02,-8.098888879029693122e-01,8.057149479649986512e-01,-1.539485047656291182e-03,7.944273732358633766e-03,1.244676957826961958e-02,1.400430202484130859e+00
-2.398731464270648442e-02,-8.143200154341061481e-01,8.023234550890077088e-01,-4.202530068359890125e-04,-7.235137092755941808e-03,3.480103147096997359e-03,1.400239109992980957e+00
-1.484868999771679805e-02,-8.123689841027346148e-01,7.990384201263395214e-01,-3.630141855146531201e-03,1.262689120542418711e-03,1.113774663052080789e-03,1.395560979843139648e+00
-4.516524611591726801e-02,-8.344924283391863540e-01,8.117182456838273330e-01,1.489059797881439129e-03,-2.135339046588977780e-04,-2.083761493171344854e-03,1.426067352294921875e+00
-4.794482948909360720e-02,-8.363553326822794620e-01,8.140797426146424431e-01,3.009923515351640121e-03,-4.225418696081690434e-03,8.906534980972920755e-04,1.429821610450744629e+00
-4.437188771834647827e-02,-8.371822001136203228e-01,8.167653123093437939e-01,2.197608480016412669e-03,-2.906420975412588210e-03,-1.177272697932738119e-03,1.432783246040344238e+00
-4.319956368847568950e-02,-8.376462297048988814e-01,8.165492041648249044e-01,2.200337786092016693e-03,-3.526527787515273266e-03,-7.980473357177081612e-04,1.432966113090515137e+00
-4.351225582990863455e-02,-8.376964387840372117e-01,8.164659629489987580e-01,-1.378508339603875162e-05,1.080455865477824304e-03,-3.652487948472284507e-09,1.432925581932067871e+00
-4.518897016295725377e-02,-8.348485916905634685e-01,8.095638709373587094e-01,9.327260442584865653e-04,1.908131593249502017e-03,-1.160548618719111713e-03,1.424481034278869629e+00
-4.383408431928851462e-02,-8.345547401219652883e-01,8.111685066573236513e-01,2.708546616432677516e-03,-1.229524312245114381e-03,-1.810157427214734247e-03,1.425613284111022949e+00
9.621792569140854776e-03,-7.814724491705463683e-01,8.318750156651538719e-01,-6.176366697601049643e-02,-6.902161306685548024e-03,1.153577767938418139e-02,1.401569366455078125e+00
-4.985930332166832457e-02,-8.344170335616833967e-01,7.963944812611615243e-01,1.141700428872752943e-02,-4.973346435464426687e-03,5.060104913992092245e-03,1.412852883338928223e+00
-5.377084707202528513e-02,-5.577817263110769197e-01,7.483709987652751305e-01,-3.121544622151240997e-02,-2.827043691698872749e-02,3.946708725711116361e-02,1.145312428474426270e+00
-3.899798677220002452e-02,-8.352571370531152173e-01,8.050469718498943772e-01,1.607989492881290242e-03,-1.748007089807643516e-03,2.472668977433057583e-03,1.420758366584777832e+00
-6.024509118734335672e-04,-8.087309659709263077e-01,7.943363767276235832e-01,8.214804727905290760e-03,-8.585884648361467170e-03,-2.428724890087367687e-03,1.388471603393554688e+00
6.842760134841696651e-02,-7.865718889315477247e-01,4.156953173988989780e-01,-6.410426277378462531e-03,-1.732098327907409616e-03,4.646603540852973536e-03,1.071788072586059570e+00
2.885399850883876242e-03,-7.861100312880612284e-01,7.854965556318673769e-01,1.750612149087118694e-02,-9.905744032014969849e-03,-5.531894127582271878e-03,1.361534476280212402e+00
8.415457206842951940e-03,-7.917060436829621572e-01,7.856174444029545567e-01,-1.373108645634159037e-03,1.636249850599008756e-03,-1.382308979611916874e-04,1.366055369377136230e+00
1.764000623554444827e-02,-7.837976242143440686e-01,7.766090344127408729e-01,2.847248613377885949e-03,-5.445699617390805172e-03,-3.189910544767460537e-03,1.351571798324584961e+00
-1.621628489485310298e-01,-3.908735060132572658e-01,7.534740854724677472e-01,-1.199359547523239609e-02,-1.429632145570713594e-02,1.588695698858022878e-02,1.049722552299499512e+00
-5.788802736089564138e-02,-8.230503588309995289e-01,7.986281854228715060e-01,-2.246500534745893198e-03,-6.845976769872067283e-03,2.889191538470863539e-03,1.405221700668334961e+00
-4.567930951031817788e-02,-8.330371435695568261e-01,8.059682955231119994e-01,-3.122300758375331879e-03,7.690883876376320013e-05,2.691064277537739274e-03,1.419802188873291016e+00
-4.890075607586553963e-02,-8.323538791560799455e-01,8.131765748320837206e-01,-4.978422165398894809e-03,-7.361181095513845592e-03,3.070407739985972170e-04,1.425696492195129395e+00
-5.216130643200352773e-02,-8.356465146262523902e-01,8.106590210552407916e-01,-3.650305650335047055e-04,-2.244884339537817942e-03,-2.541213837724528917e-04,1.426299691200256348e+00
-6.837593261916874443e-02,-8.194221938405387151e-01,7.813237619875004203e-01,-2.674328537282253965e-03,-1.161998950932922707e-02,-1.320279888762617218e-02,1.387506127357482910e+00
-4.939824529710905299e-02,-8.302066586144547511e-01,8.117844506827384121e-01,-5.434255177121325234e-03,-1.036562956207912403e-02,3.329940361173012054e-03,1.422729849815368652e+00
-8.426028562247164788e-02,-8.135350496415109101e-01,7.772757661594125178e-01,-1.898340043001550985e-03,-1.872934249882089730e-02,-6.273683787571265533e-03,1.379696965217590332e+00
-1.156168226222714299e-02,-8.015192717953947277e-01,7.966465441312152729e-01,2.573124588268841176e-03,1.645052630959467545e-03,4.947228717484550634e-03,1.384118914604187012e+00
-1.117866693676274753e-02,-8.031168138224782371e-01,9.100603400276893185e-01,1.603628282167907926e-01,-1.522436316168602512e-02,-2.065643666514697246e-02,1.511468052864074707e+00
-7.443037095652130231e-02,-8.108841708628863332e-01,7.811212931636370982e-01,-2.131978496659228586e-03,-1.075743945444492672e-02,3.038102811153333728e-03,1.380143284797668457e+00
-4.568220875780074075e-02,-8.316114929948343892e-01,8.041100314870794907e-01,-4.807694926158611118e-03,-3.043055475760223991e-03,3.047353742324371284e-03,1.416980385780334473e+00
-6.320692491505649699e-03,-8.192756155613620805e-01,8.018136940013752545e-01,9.890639442054833391e-03,-1.419917673716424803e-03,-5.441990798597777165e-03,1.404044866561889648e+00
-8.107874233606451875e-02,-8.318684870726578140e-01,8.160515083379422663e-01,-3.478259264660576045e-03,-2.536146511961060238e-02,-1.154499866260533811e-03,1.429704189300537109e+00
-7.712672692095512428e-02,-8.100752863305907825e-01,7.652382711893415124e-01,3.275584705272695501e-03,4.548518744014137284e-03,-6.777322149977877026e-03,1.365442991256713867e+00
-7.794842304639895691e-02,-8.077805535596332964e-01,7.679121618518239822e-01,4.695445237687239162e-03,1.868638293905615713e-02,-3.516438223176186501e-03,1.366243839263916016e+00
-7.127012550930597601e-02,-8.128512868792897583e-01,7.955477645179157564e-01,-1.458740406934177147e-03,-7.816671057508715534e-03,-8.564365094551127777e-04,1.394389986991882324e+00
-7.608480193295941163e-02,-8.002731916139053103e-01,7.548478975094438104e-01,1.363002078041423894e-03,2.006031028320894721e-02,-4.153035811572345368e-04,1.348281502723693848e+00
-8.252231407655388762e-02,-8.047241322317860712e-01,7.619342515368274782e-01,1.386406027888474482e-03,1.039772821974072406e-02,-4.205882015654266275e-03,1.358283281326293945e+00
-4.722682176885002747e-02,-8.217956250448003042e-01,8.105705381563298451e-01,-6.030045721216292353e-04,-8.960369449334152497e-03,3.365542691314076310e-03,1.414380431175231934e+00
-4.787341827813411388e-02,-8.225340605427549079e-01,8.106564841124777043e-01,7.327281676454697537e-04,-9.712790840219262881e-03,5.483791402844960527e-03,1.415138483047485352e+00
-4.664949974414893397e-02,-8.354880769564810850e-01,8.080422170874593801e-01,2.149333777005844447e-03,-3.486920691745612737e-03,2.382768701018698337e-03,1.423743486404418945e+00
-5.530175988139205551e-02,-8.224271924279147328e-01,8.061958791098908783e-01,-1.381052879675081059e-03,-4.545925213141730967e-03,-2.201705961780371906e-03,1.411247134208679199e+00
-5.292683921759745724e-02,-8.231319719633165555e-01,7.929133030894128797e-01,-1.547912061754115522e-03,-8.909190825996539387e-03,-1.017156367754655164e-02,1.400245547294616699e+00
-5.172602743117540869e-02,-8.372421193840223763e-01,8.051828477875819789e-01,-2.498817880973734900e-03,1.158532191518486494e-03,4.751786589366621509e-03,1.422861456871032715e+00
-5.932956999205740017e-02,-8.299033950928249581e-01,8.098593483061765630e-01,-1.406015624714910867e-04,-1.250909093100011256e-02,-1.053905127112598344e-02,1.421214342117309570e+00
-4.603942924250674362e-02,-8.311016170863828600e-01,8.026709569268114519e-01,5.556193834589820933e-03,-3.463322384735022502e-03,-5.559515535764020071e-03,1.415324568748474121e+00
1.753728148727626973e-02,-7.662304793361668365e-01,7.703914231721064043e-01,1.776957993443150155e-02,2.947198494154674910e-03,1.458467567229734666e-04,1.331209063529968262e+00
2.783025953574108993e-02,-7.739308188951937728e-01,7.692301192538931742e-01,3.809809407327305938e-03,1.877367677870883352e-03,3.116724736432694961e-04,1.336777687072753906e+00
2.100575141091286235e-02,-7.678445353548419838e-01,7.736287328757621706e-01,1.929469644351736526e-02,1.078614034334862866e-02,7.162965679239992681e-03,1.335684418678283691e+00
3.000764786566424008e-02,-7.656640287922842347e-01,7.699233658545415748e-01,1.122272101469616937e-02,8.359632703104156581e-04,2.206236423172747586e-03,1.330298185348510742e+00
-8.240915835194755068e-02,-8.066780161067992339e-01,7.637953346838329827e-01,1.080328715015765537e-03,-6.219407905455815941e-03,-2.234126848049111636e-04,1.361479640007019043e+00
-7.601845024694769970e-02,-8.063655843461838835e-01,7.607131903901959147e-01,2.908214852888466994e-03,-5.324542427453349443e-03,3.671980568878599645e-03,1.358227610588073730e+00
-7.401411225182775999e-02,-8.115658217196114466e-01,7.767778260620932240e-01,3.270013193644942095e-03,-9.123263582210510217e-03,7.658178532032150834e-03,1.376876950263977051e+00
-6.033787912873186249e-02,-9.765545659877984397e-01,8.007818091364952151e-01,-4.759166917716745916e-03,2.175946113727599274e-01,5.621451219154934703e-02,1.587936639785766602e+00
-7.505703235407276686e-02,-8.068165300552633257e-01,7.301525948409544053e-01,-2.526966924514814812e-03,3.894809435431177691e-02,-2.847486370104617727e-04,1.333275914192199707e+00
-5.028456898166763778e-02,-8.248669329994201549e-01,7.810773956953671604e-01,-1.418338228965009169e-02,5.033384617303180916e-03,1.756965727844925912e-02,1.391655325889587402e+00
-8.265037384384180119e-02,-8.848895485766863356e-01,8.291235615280300175e-01,1.349168695435328490e-02,1.916687309772543424e-01,-1.505010027916645413e-02,1.522437691688537598e+00
6.284748737303852417e-02,-8.637510605938257813e-01,2.389165496920014897e-01,-1.231814324673663735e-03,-4.919808298938898455e-02,1.837310270359730768e-01,1.077621340751647949e+00
-7.992805612986300656e-02,-8.239203799402692319e-01,8.180109735912571844e-01,-9.173048353827580569e-04,1.504987274669340042e-02,-2.762497631159670577e-03,1.424283623695373535e+00
-8.221287147370417991e-02,-8.070326394488075428e-01,7.789594269607021948e-01,-1.587332427533998331e-03,6.947978147463739623e-03,5.692377012380408531e-03,1.375291109085083008e+00
-8.439909165027029148e-02,-8.305401471928203216e-01,8.140971903162883549e-01,-2.840855268208331182e-03,-2.784482408901569825e-02,-8.023129367272733431e-03,1.427224755287170410e+00
-4.393987237063981532e-02,-8.376912894890693462e-01,8.170769236571653327e-01,-2.450428411690625755e-03,3.580440525041823658e-03,-1.063231923177599238e-03,1.433486819267272949e+00
-7.893064564301391361e-02,-8.234072590973918748e-01,8.192016068351372082e-01,-2.223464532607683300e-03,9.236657524931633431e-03,7.014838947101992121e-03,1.424760937690734863e+00
-4.120528317285204745e-02,-8.235893408578042196e-01,7.926144874033038690e-01,1.987424443831960989e-03,1.777533154027843842e-03,6.145946857620431490e-03,1.399957895278930664e+00
-3.947250742726921002e-02,-8.155595826752530808e-01,8.012980908115343581e-01,-1.120970070611310198e-03,6.327747448439271713e-03,4.027595981408648926e-03,1.400674819946289062e+00
-4.507867601918456868e-02,-8.289209378490740576e-01,7.721511149882656078e-01,9.671806923947636955e-03,-1.130292714555603505e-02,5.685363718312881967e-03,1.386943936347961426e+00
-3.674971907632146317e-02,-8.158722975073809947e-01,8.108141054127026015e-01,4.584744561434367718e-03,1.530435141807347244e-02,3.604123127262047130e-03,1.409452795982360840e+00
-3.468956847576944169e-02,-8.212602344718138436e-01,8.007226833449462289e-01,-1.249458172744157903e-03,1.290887100351107743e-03,7.684275754671069519e-03,1.404957175254821777e+00
-3.985181984231460361e-02,-8.277600345016604688e-01,8.121883821684460214e-01,-1.806218210531818601e-03,1.018118564867709352e-02,-5.382194981580368937e-03,1.420742392539978027e+00
-4.807736736106203029e-02,-8.392986165017271016e-01,8.159508552398950787e-01,-3.766869734469818244e-03,4.567933162079916912e-03,9.865435702154647882e-04,1.433987975120544434e+00
-5.295626225652030894e-02,-8.345936583861002234e-01,8.053607074456734516e-01,-8.944029267833926086e-03,4.731491990230196447e-03,4.130310976910946986e-03,1.420885682106018066e+00
-5.847363063475762013e-02,-8.365463790181674186e-01,8.170668754424920133e-01,2.421786502241744278e-03,1.154030414836332936e-04,-4.544740915198321879e-03,1.432927846908569336e+00
-2.923886385867479482e-02,-6.678141555565887399e-01,7.604223603386071062e-01,6.855640476119959081e-03,-1.019581723115148449e-02,2.531751134749544475e-03,1.239384293556213379e+00
2.348737042996916491e-02,-7.770502870859343769e-01,7.802054608581656669e-01,1.579189587623745436e-02,-2.872625117421519301e-03,-1.816398457755388112e-04,1.349087476730346680e+00
2.501546206025929975e-02,-7.454829784406274973e-01,7.639304218823512738e-01,1.378773713500110014e-02,-3.110411964094790863e-04,8.535466303032499718e-04,1.307504773139953613e+00
1.994130249756269346e-02,-7.848738955192555711e-01,7.811036570849773097e-01,6.616285166365419232e-03,-7.456117587251883359e-03,-6.185658876258441803e-03,1.356504201889038086e+00
2.372931678047058082e-02,-7.740521860494777862e-01,7.733918575674709750e-01,1.694137912858454872e-02,-7.778203363178624354e-03,-2.735504323469418499e-03,1.340739011764526367e+00
-5.079602208459475798e-02,-8.265797271026461557e-01,8.142019877268793504e-01,-2.111229632053037136e-03,3.921683081111604872e-03,-3.468788428825510251e-03,1.421692252159118652e+00
-4.469511226617489674e-02,-8.391045217621555530e-01,8.110781542612996997e-01,-3.705980824224112350e-03,5.767111516508703108e-03,1.517549199160585357e-03,1.429481148719787598e+00
2.413979949915708717e-02,-7.446120933667956798e-01,7.630282338700409284e-01,1.614916350111956014e-02,-5.712842021424636464e-03,2.469226432817065537e-04,1.306077361106872559e+00
-8.094335418536832694e-02,-8.066124287567804085e-01,7.629707524045905576e-01,5.804856175731590035e-04,-2.124011846532682796e-02,-2.333646958087095429e-04,1.361081719398498535e+00
-6.778250407113539655e-02,-8.059387745042744244e-01,7.461230398287150845e-01,5.748862957337374721e-03,-1.393218255618230809e-02,4.824256345139080367e-03,1.344937801361083984e+00
-4.240832178890519694e-02,-7.665378079547584544e-01,7.937328034063083626e-01,-1.613841188127118024e-03,2.964892128061033874e-02,-8.333922314284012561e-03,1.353448629379272461e+00
-8.037375901836132930e-02,-8.018546967907717038e-01,7.543734788244993439e-01,1.625940328045670145e-04,-2.412162605399546106e-02,-8.627590113636506865e-05,1.349569439888000488e+00
-7.596256440208846994e-02,-8.063305077277466149e-01,7.640034330041439725e-01,3.475995366001791761e-03,-3.445149698666798242e-03,5.034422506144399165e-03,1.361106991767883301e+00
-4.212089605346223953e-02,-8.339871935602891639e-01,7.888035009108185225e-01,-8.587415917561245018e-03,3.972012015086338020e-03,4.101610487960753726e-03,1.405627131462097168e+00
-1.140918872690429436e-01,-6.787917183968711354e-01,8.079904145991383402e-01,1.091310073423563953e-02,1.494570081215235505e-02,-1.093649519426464524e-02,1.300464391708374023e+00
-7.427249277951594730e-02,-7.993674943365949304e-01,7.338530221206794879e-01,4.346738006967629762e-03,-2.378238628726467296e-02,1.264550409386801071e-04,1.329116582870483398e+00
-4.170416701421621186e-02,-8.369364667945047298e-01,8.163150459165915418e-01,-1.307103654217109737e-03,2.967413580771701906e-03,-1.431400015846785029e-03,1.432115077972412109e+00
-4.707116293505307636e-02,-8.343113156094174032e-01,8.156487456957642879e-01,2.175722381257837092e-04,1.020347835495638046e-02,-4.098744294143608535e-04,1.429515123367309570e+00
-4.856811696902353648e-02,-8.326989934138997462e-01,8.132922525426324878e-01,-5.621154136885365624e-03,1.290682008193782052e-02,7.982153921585204495e-03,1.426275372505187988e+00
-3.961440646585961955e-02,-8.278287585572583485e-01,8.087543692728476064e-01,1.598418900357628618e-03,7.203882934463539528e-03,1.739406571107375782e-03,1.417702436447143555e+00
-5.173926229468300136e-02,-8.305522706964995061e-01,8.149307172579515202e-01,3.012478333055861393e-03,6.211538854313232959e-03,4.645244147782457041e-03,1.425779819488525391e+00
-4.134699374075900824e-02,-8.333386625421388416e-01,8.109828335929399890e-01,-3.107016700225213521e-03,7.633638448996122282e-03,-2.416513333255132165e-03,1.424421429634094238e+00
-4.342184073672167299e-02,-8.319469868077864483e-01,8.004464615574820030e-01,-3.970912261831402966e-03,4.585263356174227277e-03,-3.200164180275354674e-03,1.414014935493469238e+00
-4.634679644211674859e-02,-9.874559299789859024e-01,9.684043857009712042e-01,8.622460981441440464e-02,-1.005834904819414288e-01,-1.854401129951286156e-02,1.709995508193969727e+00
-1.386332845066894776e-02,-8.395860165991064772e-01,6.949153651939549148e-01,1.530172316089912707e-02,-1.770221811970425219e-02,2.317203361921692240e-02,1.331425309181213379e+00
1.298820295034391892e-04,-8.142225557863543850e-01,6.169952532309891380e-01,8.809283494171680357e-03,-1.560696163026029266e-02,4.011127002021551424e-02,1.245724201202392578e+00
-4.689784402650788719e-02,-8.390514350217885831e-01,8.164010501573252254e-01,-2.221882651310444923e-03,1.279011240771826341e-03,1.178262884896281483e-04,1.434112071990966797e+00
-4.012377648361811072e-02,-8.351058240349672479e-01,7.842537938210956128e-01,3.160829417053799897e-03,-4.357208305640378893e-03,-6.530032052852467045e-03,1.402560234069824219e+00
-4.137091174469380989e-02,-8.370518949045268053e-01,7.747402133815490810e-01,7.010068014404729521e-03,3.595706597685769963e-03,-1.011226384549723800e-02,1.396066904067993164e+00
-9.636162173882671655e-02,-1.108547060362840675e+00,1.196284351444150129e+00,2.479199758070054771e-01,-3.336809342346998275e-02,-4.898690312824941114e-03,2.047353267669677734e+00
-3.254443896447935941e-02,-8.328947536019680742e-01,8.126137976415571673e-01,-1.770447110158006494e-03,-2.147627983129293675e-04,-3.017858251739438322e-03,1.425241231918334961e+00
-4.404222943210285568e-02,-8.310328566826482577e-01,7.966429522148694709e-01,-1.719373583058325097e-03,-2.929217007024263568e-03,-5.630410158191360807e-03,1.409910202026367188e+00
-4.361684646832326984e-02,-8.375217675782619109e-01,8.151896361619014320e-01,-1.190343703176318242e-08,6.401398251788409117e-04,-9.181561964596638814e-05,1.431658267974853516e+00
-4.221284841739586513e-02,-8.267410838063696810e-01,7.868959476170236389e-01,8.067686180397912882e-03,1.461919860062971472e-03,-5.852536322438831040e-03,1.397737383842468262e+00
-2.348631560079665614e-02,-8.112455497607713450e-01,8.038992746799645817e-01,-8.113985672810075656e-03,-6.928840132303313616e-03,1.741927933897042483e-03,1.399022102355957031e+00
-2.464794137677261271e-02,-8.130268386147866400e-01,8.043656792563419478e-01,4.017129079317448477e-04,-6.376545497856762716e-03,-4.680154191985564337e-03,1.400917530059814453e+00
-3.225422325523655265e-02,-8.214556495391727164e-01,8.071528279523848548e-01,-2.734213849108528484e-04,-7.496872123483388573e-04,1.197951342421429153e-03,1.410641908645629883e+00
-4.084335623419906719e-02,-8.369894579229303355e-01,8.130296186537128156e-01,1.876124911603747197e-03,-2.322195690577224299e-03,5.889018495735721557e-04,1.429259657859802246e+00
-6.726490063351957260e-02,-8.534674190212051537e-01,8.706951838913505881e-01,2.477304456716599920e-03,-1.500358716135057578e-02,1.052071051173989434e-03,1.495328426361083984e+00
-1.534721318083767105e-01,-8.704241342620544497e-01,1.248271025323759886e+00,3.452392896919432297e-01,-1.760907554683823761e-01,-9.606475852227924772e-02,1.990519046783447266e+00
-2.623996138192294728e-02,-8.236067039789475297e-01,8.037771724862436962e-01,-2.562050816940223547e-03,-8.681862505929144325e-03,-2.278147949638618941e-03,1.409543037414550781e+00
-5.265587401156492098e-02,-8.235317159920513275e-01,7.803218033158099143e-01,6.082844538216529949e-03,2.208218576207502792e-03,2.263945074842012208e-03,1.389375686645507812e+00
1.735536869850401454e-01,-1.352106806364287594e+00,5.111353089670809258e-01,-1.476630029666043675e-01,2.974769534328814968e-01,1.235110147771821126e-01,1.825730443000793457e+00
-5.473780438665079573e-02,-8.325141884737899955e-01,8.114017561103612497e-01,-1.069470800573964382e-02,2.935948278094761919e-03,-4.033491915543759021e-03,1.424504995346069336e+00
-3.741415049016659500e-02,-8.342791495972765592e-01,8.117333724589594901e-01,-1.191247896336738218e-03,-3.982097002025171244e-03,1.302285135714171052e-03,1.425748348236083984e+00
-4.575835316990523732e-02,-8.287749682914338223e-01,8.080945304373036153e-01,5.965503657769495593e-03,-1.287871361378666556e-02,2.035609071742410479e-03,1.418230414390563965e+00
-4.465683925518248998e-02,-8.313725060495428254e-01,8.053488334511501590e-01,4.428620624423834119e-03,-1.175067402264665063e-03,-4.113891505318347658e-03,1.417835593223571777e+00
-3.125021995402701980e-02,-8.362575598355836970e-01,7.811904798997841848e-01,6.546946631121540114e-03,3.630889659988800582e-03,5.379521658527425254e-03,1.400847077369689941e+00
-4.180193694284441153e-02,-8.306534383216107598e-01,8.120943151090017631e-01,5.943107713206034369e-04,-3.098132364812142270e-03,1.807791168359405246e-04,1.423043489456176758e+00
-5.716020060193491986e-02,-8.239096707037081302e-01,7.784863829167703031e-01,7.701880042065390591e-03,-3.429919993713528587e-03,3.147750320046400346e-03,1.388230681419372559e+00
-1.514811353883256835e-02,-7.957319042674275700e-01,7.910209720930374555e-01,-1.772038604413912061e-02,-1.777105871736698109e-02,1.504155195665065996e-02,1.375162005424499512e+00
-3.605836532568294089e-02,-8.248437968498429917e-01,8.078476203847702042e-01,-3.373566010469785997e-04,3.997554341437612076e-03,-4.428055960078943615e-03,1.414258718490600586e+00
-4.084000672320434178e-02,-8.304516284448871799e-01,8.013908942132922375e-01,-2.355182006547612648e-03,-1.930029721888551963e-03,5.046065052505150370e-04,1.413472056388854980e+00
1.370615752556846034e-02,-8.097772590775527135e-01,5.868915319085559190e-01,-8.540913679790207436e-03,-3.233287009876689017e-02,8.430078681398143342e-03,1.217474222183227539e+00
-5.276575286479728844e-02,-8.286693676054776025e-01,7.962804547276794986e-01,4.313264662257441408e-03,-5.514170921742422068e-04,-3.108329582297991896e-03,1.407753348350524902e+00
-7.987298113948954059e-02,-7.998266699598008955e-01,7.482395738253431183e-01,7.075560852477307764e-04,-9.878245509620518002e-04,1.154136792643410160e-03,1.341758131980895996e+00
2.591023747179541648e-01,-1.325576701697368076e+00,1.869439301005369480e-01,-1.805102251039698846e-01,2.096594769798458199e-02,5.526287602816867817e-02,1.584392309188842773e+00
-4.302682868888749179e-02,-8.326542557703225933e-01,7.973544078520086176e-01,1.270969839350802452e-03,-5.817081381380664884e-03,2.969466977371965077e-03,1.411903977394104004e+00
-4.509559691530700548e-02,-8.363388625113461483e-01,8.154321605964075514e-01,-4.225252992117459021e-03,6.096430422608177524e-03,-2.643790594059653928e-03,1.430960059165954590e+00
-8.370673952899243542e-02,-8.069083630671621821e-01,7.772723908424020722e-01,-2.358077717382966678e-05,-5.105610852464369936e-02,3.027239120245613525e-03,1.376522779464721680e+00
-4.448082713610039540e-02,-8.292099318050361045e-01,7.911719880580304620e-01,-2.341736219778202226e-03,4.245091476286962442e-03,-9.897641557976682644e-03,1.403652667999267578e+00
-1.022493856108518395e-01,-1.036496755469655806e+00,9.995126264979965480e-01,-3.260636121209950500e-02,-8.096350644580896372e-02,-4.307332825017670154e-03,1.771701574325561523e+00
-2.032698358455964360e-02,-8.120358515031090851e-01,8.009401565871890893e-01,4.449998408473820888e-03,-1.472447485222347428e-04,2.737056471471917794e-03,1.396985650062561035e+00
-8.815102279984907141e-02,-8.468927718572109020e-01,8.580634973679520661e-01,-1.412607017185333095e-04,-1.123230794403750309e-02,-7.682679696314841274e-03,1.479695558547973633e+00
-6.433529114224197099e-02,-8.263678137379956157e-01,7.429052678657779296e-01,-3.889533868023526460e-03,-7.909812239112444521e-02,-2.176294967880999451e-02,1.366641998291015625e+00
-8.356944124882983993e-02,-6.954667636291519406e-01,8.069667790132526441e-01,1.891805335462929663e-03,-4.196695864959192231e-03,1.475782233456956159e-02,1.308857083320617676e+00
-8.734029099763204740e-02,-8.241484713671636264e-01,7.848224250380334555e-01,6.761456756797508232e-03,-2.469073841189256546e-02,1.226806937406353139e-02,1.395918488502502441e+00
-8.932638012148277906e-02,-8.246599552962891044e-01,8.384852566766528570e-01,-3.896701230549092215e-03,-2.034478706957964025e-02,-1.774265108153368770e-02,1.444310426712036133e+00
2.419565990760061402e-02,-8.092608590619094766e-01,5.737098775523318261e-01,-1.008482339056209799e-02,-4.456733790705973402e-04,8.760130802205121428e-03,1.206295013427734375e+00
-2.926733318752680613e-02,-8.041345888325055480e-01,8.024296136539541546e-01,6.723276795236974614e-03,1.560441741643904534e-02,-9.617550029102550982e-03,1.392026305198669434e+00
-7.809281916825902559e-02,-8.071895367795253184e-01,7.671712730938832214e-01,-2.748487307999481367e-03,2.688049729489346007e-02,1.838941303002304640e-03,1.365479111671447754e+00
-6.565880050934948253e-02,-8.162730332489356311e-01,7.744544656754960288e-01,-1.252726853865361069e-02,1.482587136636582918e-02,1.192486402370226441e-02,1.378901720046997070e+00
-7.627738000371317439e-02,-8.070808620882327089e-01,7.658657314526831072e-01,-3.896687109019619528e-03,4.993481864200507298e-03,5.123736463772482486e-03,1.363421797752380371e+00
-8.002360141420170048e-02,-8.005142339119600825e-01,7.580958346779865797e-01,8.167317054220045664e-04,3.610774888415004078e-03,5.758694656282643647e-04,1.351092219352722168e+00
7.438403329931347896e-02,-7.732262586993172704e-01,4.116204500208523465e-01,4.155767293657512684e-03,-2.152027436808595304e-03,3.948815004304369845e-03,1.057416319847106934e+00
-8.339477576627563060e-02,-8.075142884866793880e-01,7.663755095923202587e-01,-2.143304529045051646e-03,6.944854394688702165e-03,1.971643092212723922e-03,1.364537954330444336e+00
-8.097454437494225332e-02,-7.993876423331510717e-01,7.525915727231941021e-01,-1.986443553356242835e-03,1.324326037430309955e-03,-8.770374057953645407e-04,1.345293283462524414e+00
-2.489975045899665493e-02,-8.420836707136880595e-01,8.449619881187023784e-01,1.508479399504472108e-02,-9.085548218166402193e-03,-7.925431758620638673e-03,1.461644530296325684e+00
-5.417777865649550662e-02,-8.272311214878720342e-01,8.100750149462808691e-01,-3.930970221246356949e-03,4.950050977441550768e-04,-9.694070207609449541e-03,1.418797731399536133e+00
-3.693476890332191009e-02,-8.302399531361664975e-01,8.156356503413936254e-01,6.122239700036310843e-04,-1.136841185725412026e-02,9.627082485371978200e-04,1.425815463066101074e+00
-3.607590093231417827e-02,-8.317487075359525361e-01,8.107733467610608313e-01,6.520183654499072919e-04,-4.530801459486225209e-03,8.637408037740341949e-04,1.422718882560729980e+00
-4.452068095259489183e-02,-8.334848083975643362e-01,7.893388027915113625e-01,-9.441320224930339552e-03,4.051564769339642026e-03,4.083639041917791306e-03,1.405716180801391602e+00
-4.938369792035548350e-02,-8.289189173050900417e-01,7.880258490816048900e-01,-9.263747472664146665e-03,4.838507431953573308e-04,-1.064877241267403463e-02,1.400827765464782715e+00
-4.685001425515286644e-02,-8.424902852160824906e-01,8.077310187627539939e-01,-9.482752077751722269e-03,5.757669052676771780e-03,1.864038616597389186e-03,1.429570198059082031e+00
-6.831601057107147823e-02,-8.234437428332253006e-01,7.941654421109384243e-01,-7.624304897246945295e-03,-3.244959417028266471e-03,1.750368015251884801e-03,1.401995301246643066e+00
-4.397176799501113786e-02,-8.318360035797823793e-01,7.983319123384640115e-01,-7.727569614918388015e-03,3.474025939293811510e-03,-7.494035919629489333e-03,1.412165164947509766e+00
-4.111865952672950214e-02,-8.197150898829781429e-01,8.142227952055538509e-01,-3.450395436401035732e-03,1.385900924847554248e-02,-4.057285123861344676e-03,1.415785431861877441e+00
-8.949299770088237072e-03,-8.200089527749985230e-01,8.170565737584553068e-01,9.656075492263799243e-03,2.901379501613134213e-03,2.554908122372971831e-03,1.417874455451965332e+00
-3.721358055761139760e-02,-8.238582852688891567e-01,7.868918530658614019e-01,-4.739653274876061179e-04,3.552400460200853816e-03,2.351598966997407378e-03,1.395096063613891602e+00
-4.667084370008045546e-02,-8.256908899174296712e-01,7.887437499408570529e-01,-2.443561280249246462e-03,-2.424796841765957615e-03,-1.016811378758613509e-03,1.398439526557922363e+00
-4.571485285708815072e-02,-8.321343296970225012e-01,7.979961327858895448e-01,-7.415521190589053442e-04,1.085331348230969811e-03,2.980814472788788187e-03,1.412036299705505371e+00
1.058664944088330215e-02,-7.872759583348961643e-01,7.901354202131704030e-01,-2.680014215898478269e-02,-1.789954768191430456e-02,2.703476615041038381e-02,1.368050575256347656e+00
-4.775805329767646851e-02,-7.783686360625859946e-01,8.037455518237358598e-01,-4.302663246556510533e-04,-1.770797438153653980e-02,-3.580763245672449226e-03,1.371840953826904297e+00
-4.946330347288534907e-02,-8.278455843886983745e-01,7.980904624713359707e-01,-4.532999069011380174e-03,-2.028882295208897339e-03,-4.289809164207188975e-03,1.408572435379028320e+00
-7.804381371968117931e-02,-8.242091938086965053e-01,7.557657084058879704e-01,-5.624194034321797903e-03,5.965986751442114988e-02,1.083260427339699170e-02,1.373057126998901367e+00
-3.801913095364935213e-02,-9.094179395441835956e-01,8.925811416300717394e-01,-7.529793612825165516e-02,1.382614723012038638e-01,-6.699687460700489219e-03,1.584540724754333496e+00
-3.824637528986520735e-02,-8.256360459741993729e-01,8.000135457906244474e-01,1.287942354389760846e-03,-3.257755618577037448e-03,-1.300682419311719514e-03,1.408098459243774414e+00
4.120553529108041124e-03,-8.036277937815250461e-01,8.223225355120475921e-01,4.960013569933145738e-02,-2.095098342208992492e-02,-1.105480421879655867e-02,1.411338806152343750e+00
-5.090691639683102981e-02,-8.190537800815758107e-01,7.678067731780524596e-01,2.695110035533983435e-03,4.703732994296242961e-03,-4.179621415559014834e-03,1.374545216560363770e+00
1.159720362320390639e-03,-7.845638621214883202e-01,7.876143663258434735e-01,1.218516015346910071e-02,1.349164872362275218e-02,4.999545797793832069e-03,1.361937880516052246e+00
-7.139168094075781790e-02,-8.316264435514917341e-01,8.163047835854183587e-01,-6.796399857298601743e-03,1.825925616915426500e-02,-6.176655482798130981e-03,1.429011106491088867e+00
-8.126553346316217619e-02,-8.236226525093900408e-01,8.492019722663656234e-01,-3.935737612800838635e-03,3.068805370810117825e-02,-8.855180783988222254e-03,1.452828288078308105e+00
-2.641170583207647776e-02,-8.767201976899710036e-01,9.261167456156909061e-01,-1.232218269963496760e-01,2.387518006946455149e-02,3.515106613615530829e-03,1.577205181121826172e+00
2.282794613889138624e-03,-8.584105885073030073e-01,8.333978015863455768e-01,-5.001375956215371038e-02,4.567882636361196265e-04,1.281889786033717574e-02,1.467950344085693359e+00
-6.328762642723813336e-02,-8.200907953394284133e-01,7.743306441349689928e-01,5.154871996997396205e-03,1.072991495717416036e-03,-5.017895387611601317e-03,1.381458044052124023e+00
-1.923274776826818314e-02,-8.198860752459625756e-01,8.035854880320700833e-01,-1.338163844316161760e-03,8.453325167131049700e-03,-1.089504878311838227e-03,1.406090736389160156e+00
-3.689341724818141072e-02,-8.331110100925542827e-01,8.123294604460653545e-01,-3.179105255344379316e-04,3.661931315565736082e-03,-2.130205742874497789e-04,1.425253987312316895e+00
-2.025798772683850418e-02,-8.341807086033657948e-01,6.905207416189679259e-01,-2.218529059950276414e-03,-4.563343028073063926e-03,-6.096353780495448321e-03,1.321508288383483887e+00
-1.209301004563041737e-02,-8.259462597795532712e-01,6.780699870671533791e-01,-1.119160376158341921e-02,4.109646411615871381e-03,1.231962485610164568e-02,1.304321765899658203e+00
-3.083228422448704154e-02,-8.241633744765053393e-01,8.091804054736499996e-01,-1.197046334334295930e-03,7.393893168987763359e-03,3.456250741371681180e-03,1.414781928062438965e+00
-3.472748382578076318e-04,-7.858600201650086658e-01,8.045958762483108595e-01,-4.276015993552617633e-02,-6.831906001736148988e-03,8.178166998846511312e-03,1.379522681236267090e+00
1.865342372432138816e-03,-8.242074117478992434e-01,8.183458546440793846e-01,-1.145411346147695575e-02,-2.836309335782605679e-03,-3.554792693866750709e-03,1.422661066055297852e+00
-4.351679442365334258e-03,-8.516158966410608544e-01,8.471107758353191297e-01,-4.146841433995328285e-02,-1.134072276622993293e-02,1.259671428675293754e-02,1.473186850547790527e+00
-4.870796059419400109e-02,-8.148656667663255471e-01,8.082963322150041874e-01,4.162411713541198759e-03,8.530238604323342119e-03,6.186659866365676851e-03,1.406570076942443848e+00
-8.464323197439313495e-02,-4.927004454726295890e-01,7.356976036103086702e-01,8.915787390678824031e-02,-7.030397452992299782e-03,-4.100997978289178808e-02,1.096930623054504395e+00
-3.150178216280591359e-02,-7.179126458436654312e-01,5.290861693527610932e-01,-1.511807688679402684e-01,1.345346675443890305e-01,1.167211080234461795e-01,1.154967308044433594e+00
-6.737139176564685417e-02,-4.656865708702881967e-01,7.340806460431991143e-01,-1.543317117943665551e-01,2.141883701645073967e-01,1.759864699529741731e-03,1.152954936027526855e+00
-2.647785481625239412e-03,-8.141745214942359699e-01,6.331514265637671057e-01,1.198808496424364281e-02,-3.611885126553644309e-03,-7.740825408808165060e-03,1.256755471229553223e+00
-8.285751421140086226e-02,-8.153477633971304428e-01,8.112947054242728440e-01,1.129635737604663256e-03,2.228541323600981977e-02,-2.739989881991555711e-03,1.411568045616149902e+00
8.314670746163188575e-02,-1.225698093081418083e+00,4.715314986856458113e-01,-1.950564451382994779e-01,-2.595026781407107075e-01,-3.098132453339814685e-01,1.725216388702392578e+00
-1.556520081396517430e-02,-8.343999565057832468e-01,9.333720927868731643e-01,-1.211398081437373569e-01,-1.290689811181850452e-03,-2.610243270393455134e-02,1.547277808189392090e+00
-3.759134361729740692e-02,-8.170865099247727192e-01,8.176797440825808172e-01,-2.459750050092326251e-03,2.025101850255945149e-02,1.628013994505449766e-04,1.416696667671203613e+00
-1.444612425875989314e-01,-3.350870343865536283e-01,7.075504653753490469e-01,5.121809005640973536e-03,1.535739214416862028e-03,-5.495936340810711127e-03,9.616932868957519531e-01
5.971609706383565475e-02,-8.128942300305792568e-01,3.986435471302408606e-01,-1.498121438030659142e-02,1.366697724136474446e-01,5.572876269008415068e-02,1.112698674201965332e+00
-6.676832767279004821e-02,-8.059126408206513936e-01,1.041490744673461144e+00,1.933165599000931101e-01,-4.451700871127256542e-02,1.560049406853100326e-02,1.646974563598632812e+00
7.666229986361347559e-02,-8.723848156354732097e-01,4.547568117306489688e-01,-2.998745489527189848e-02,1.023459394027017716e-01,8.933453267483128235e-02,1.208527684211730957e+00
7.687964832001539794e-02,-8.032045507209882862e-01,4.199019441955808007e-01,-2.543687559724762404e-03,-2.581115554271876805e-02,-3.846555480732694043e-02,1.095699667930603027e+00
-3.891534037888622760e-02,-8.305507810747139175e-01,7.719563413800549778e-01,-3.273844449803783776e-03,1.120137834694370262e-02,8.736780187520222854e-03,1.388074874877929688e+00
-5.933416984375539105e-02,-8.217939219001988427e-01,7.710318645953436745e-01,-7.018837248152885386e-03,-1.000520626639300921e-02,-1.573820523538021175e-03,1.380010485649108887e+00
9.712702357559332977e-02,-7.742957332122138991e-01,3.495502327348577465e-01,2.424100232771526225e-03,5.552703529903738923e-03,2.521170931437277662e-03,1.021367549896240234e+00
7.139741538543964428e-02,-8.048674703086328153e-01,4.714750860628392770e-01,-1.021509492932558445e-02,8.932321878723692779e-03,3.569389332551696492e-02,1.132630109786987305e+00
-4.007102972861895096e-02,-8.296112221437907941e-01,7.524582035125036983e-01,-1.495971826935766497e-02,3.418944240076423301e-03,6.508712048937201344e-03,1.370417237281799316e+00
4.056497362129860007e-03,-7.949505412150775774e-01,5.798042589171236161e-01,9.600665756705326070e-02,-2.050709352935409235e-01,-1.057103683713959616e-02,1.258599877357482910e+00
5.046673998277381723e-02,-7.968365365514046283e-01,4.559329920256861568e-01,-1.027490124887580659e-02,7.076337518640929414e-02,4.679393298442172805e-02,1.117043733596801758e+00
-3.289168233572589695e-02,-8.083718988109869219e-01,6.924968330432854646e-01,-1.539712200759965968e-02,-4.699598339513349869e-03,1.565925858639495788e-03,1.300333499908447266e+00
-4.229862059419019216e-03,-8.069808547171508639e-01,6.349922449659127777e-01,-1.186305226286833193e-02,-3.061710339502097481e-03,9.068989812118836980e-03,1.251737713813781738e+00
3.945485323902753194e-02,-8.111679511397383857e-01,5.701620719162701079e-01,-3.562126362697217406e-03,5.667928215291835603e-03,7.846386961714009109e-03,1.207046031951904297e+00
5.478410699786692706e-02,-8.005258370643109078e-01,4.722939872449959386e-01,-1.399013526573312204e-02,-3.737509829489422952e-02,-1.046992660192979339e-02,1.126089096069335938e+00
1.003486565643385564e-02,-8.444464570858806196e-01,6.209433509256270245e-01,1.227198261840353310e-03,3.331947127298454797e-02,4.308762827222274716e-02,1.278382658958435059e+00
-3.937276709995564394e-02,-8.283036594931725283e-01,7.955846430388980872e-01,1.290234179492282841e-02,-5.768185524488411361e-03,4.875201013848964524e-03,1.406755208969116211e+00
-7.579428348806858950e-02,-8.263507205168428849e-01,7.980958057141609441e-01,-3.920346965695676103e-03,-3.450935246236135068e-02,-1.225901101523513108e-02,1.409607172012329102e+00
-1.587577425711365203e-02,-7.954465989182802899e-01,6.030974352207034705e-01,-3.323218715807370587e-03,-7.516836338724508515e-02,-4.468348581878287332e-03,1.220834016799926758e+00
-2.429605838221600422e-02,-8.032401580350890802e-01,6.668117242634067354e-01,1.179395921136379075e-02,-5.472978430703933500e-02,-3.418826264107464007e-03,1.277558803558349609e+00
-5.813506434050408345e-02,-8.269121024773657957e-01,7.729890673414852031e-01,-1.470486653460643944e-02,-1.370546325931508175e-03,3.154489525056441805e-03,1.386152505874633789e+00
-3.533297585168355959e-02,-8.172419196443831968e-01,7.898919641659921664e-01,3.596355497863492050e-03,-6.625171054959568158e-03,5.768612608621407180e-04,1.392048835754394531e+00
-4.978889638709178833e-02,-8.071590609628563895e-01,7.190631846681966310e-01,-8.849388362476362860e-03,-6.678562138449469637e-03,4.963914862867795054e-04,1.321899414062500000e+00
-6.066645720459222513e-02,-8.010275953083962897e-01,7.206351374869659487e-01,-4.953082754576888097e-03,7.186043420873843186e-04,2.032786440686525867e-03,1.317990779876708984e+00
-1.119859711134354452e-01,-4.999508425454427529e-01,7.583274686905175921e-01,5.970693880538335829e-03,-2.852365825996900153e-03,-1.089398977471060098e-02,1.116288781166076660e+00
-5.490376653773974130e-02,-8.188814513584407040e-01,7.877397971883224326e-01,-1.876559046095047567e-03,-2.089462123647404211e-03,-2.542316451395239523e-03,1.391946077346801758e+00
-5.621721155676942527e-02,-8.220975623626989304e-01,8.087836334441363961e-01,-4.131928877500089074e-03,-9.188696536641942358e-03,-1.179500538679309658e-02,1.413509130477905273e+00
-7.918452334950620841e-02,-8.245191437270652512e-01,7.953484227571196996e-01,-8.344111496678883327e-03,-9.719643113331509141e-03,-1.632268465750871811e-02,1.404792785644531250e+00
-4.131272721340749354e-02,-8.275595981235347454e-01,8.050648929669296239e-01,-2.281615485942248538e-03,5.725500627628450634e-03,-1.756420539119382890e-03,1.414257526397705078e+00
-4.322577233756381976e-02,-8.275592958081439132e-01,7.973356480192256290e-01,3.538219523712650069e-03,1.474786829382148908e-04,-3.171042448411384631e-03,1.407505154609680176e+00
-4.563856564764584567e-02,-8.330427789047818443e-01,8.173074590419613372e-01,1.757473640914666889e-03,-2.955994819752124671e-03,-3.046716836103168565e-03,1.429766416549682617e+00
-3.493846164735527060e-02,-8.265333552585006904e-01,6.916652776526256430e-01,7.566401076739373913e-03,7.467609563082654167e-02,-1.832073989456283608e-02,1.321990728378295898e+00
-4.668547462583966245e-02,-8.278167300487240254e-01,7.763774501429229202e-01,1.638510970312255857e-02,-1.587488928832064610e-03,-1.119813220980936212e-02,1.389858961105346680e+00
-4.619364932512211308e-02,-8.285087304756779680e-01,8.079663993807388866e-01,1.893135282471014244e-03,-1.085697575215059489e-02,5.028366104719634265e-03,1.417839527130126953e+00
-7.620158038399442446e-02,-8.104839628260053219e-01,7.688070704172067504e-01,1.108104581727876320e-03,-4.437538655911939765e-03,9.798982679214917300e-04,1.368850231170654297e+00
-4.660023023044570362e-02,-8.363262134821722871e-01,8.096288942179358239e-01,1.351106811910366117e-03,-1.816918734234984926e-03,2.671965922050703254e-03,1.425839662551879883e+00
-5.483920476110924064e-02,-8.193802009282731280e-01,8.091958983257820925e-01,-2.674283710873717485e-03,8.567808105799608331e-03,9.563391817363370642e-03,1.411448121070861816e+00
-4.886674466687476737e-02,-8.345659969641470166e-01,8.186928905584448524e-01,3.991992253944815459e-03,-5.392096844695470556e-03,-2.898816417099701372e-03,1.432404994964599609e+00
-5.285101684006358880e-02,-8.150208532786551441e-01,8.112429891959331840e-01,-1.448063933789872117e-03,-1.167352380498360050e-02,5.629717728917844714e-03,1.409488558769226074e+00
2.052904386599987974e-02,-7.708767909966325327e-01,7.729128658882530312e-01,8.951827560785739768e-03,-4.527193075517430519e-03,-1.918381043436379312e-03,1.337220430374145508e+00
1.146053562522839249e-03,-7.984309844152311930e-01,7.878641516362221431e-01,1.806255449298028732e-04,-1.052169515108734854e-02,4.671025838503595207e-03,1.373931646347045898e+00
5.315336212414270567e-03,-8.132947082432838704e-01,6.137690349702080717e-01,9.225603784947786212e-03,3.319692719470874760e-03,1.123536593978975359e-02,1.240601301193237305e+00
7.951205015092662615e-04,-7.996588461803573189e-01,7.881409542927767520e-01,-5.651058874704690659e-04,-1.109092065444976412e-02,4.120177525464288441e-03,1.375243663787841797e+00
-1.009148351924694540e-03,-7.875980528044851381e-01,7.851234231657142626e-01,-2.356161260744919859e-03,-7.848040483041062582e-03,2.013721148038775683e-04,1.362090706825256348e+00
-6.594479068477737682e-02,-8.112546981737540630e-01,7.491456991360232465e-01,8.808714799905201578e-03,-1.143339654916171368e-03,9.904402218558659102e-04,1.351885318756103516e+00
2.164897593820358512e-02,-7.851094277192742776e-01,7.832757124806862814e-01,-3.247220334662329413e-03,-8.040473941005769204e-03,2.177294304195403433e-03,1.358537077903747559e+00
1.799014842579328421e-01,-9.685037519287086338e-01,1.698846495887380015e-01,4.034163510126030638e-02,-1.455727304357333496e-01,-1.296778335962945339e-01,1.194293618202209473e+00
-3.185537368701957944e-02,-7.646754652927010287e-01,6.791282820588918634e-01,5.088845602795648987e-02,-1.592433867185004404e-02,1.091080387092057714e-02,1.253966927528381348e+00
-3.720802460700117775e-02,-7.852553822779124726e-01,6.513950293786913148e-01,-2.134195354982597759e-03,-5.322909582083004860e-03,6.874878227798005004e-02,1.250253796577453613e+00
-4.137922961513884612e-02,-8.370479752720783040e-01,8.124863108354382080e-01,4.615999147800968700e-04,-1.263830555813949628e-03,1.441903340111038313e-03,1.428838968276977539e+00
-3.314901007247141040e-02,-8.123197933890137223e-01,6.989499226122638520e-01,1.558172676879491549e-02,1.960607611274432609e-03,4.942337327892454280e-03,1.309320092201232910e+00
-1.221233456806696399e-01,-6.843534340063107679e-01,8.142080501100604772e-01,9.879836337160186402e-03,4.304292440944254127e-04,9.592418517676072273e-03,1.311419963836669922e+00
2.020786481795366907e-02,-7.877877843875772390e-01,5.428640039745886714e-01,-5.574633138675220458e-03,-1.141087578835830486e-02,3.807975783268260049e-03,1.161403298377990723e+00
2.738259953826560622e-02,-8.728700546234968716e-01,6.663422801535463513e-01,-2.592400012780482141e-02,1.066970655632998449e-01,-4.192562685837213088e-02,1.354766249656677246e+00
5.162199818940838014e-03,-8.359153031737451833e-01,5.525829685479648479e-01,2.762973672086812063e-02,-8.384235387274815987e-02,-6.676111114760936716e-02,1.226480364799499512e+00
-2.968418782606855461e-02,-8.011245659453943846e-01,6.577073707833596128e-01,-1.164251011358602428e-02,1.620742734586972950e-03,-5.055176246754566199e-03,1.264278531074523926e+00
-3.202547948982778503e-02,-8.247668329711579371e-01,8.107913606986103527e-01,2.762702994881240885e-03,8.297233090783569243e-03,-1.993413969066267638e-03,1.416741371154785156e+00
4.748762914164691984e-03,-8.100214811660132463e-01,6.332857664488570348e-01,-9.075665472953129906e-03,5.908048324532437110e-04,7.803445379026600036e-03,1.253576278686523438e+00
8.710521143301061531e-02,-8.793435564819933603e-01,3.722635230024168296e-01,-2.080034743418921611e-02,1.482123602837201459e-02,3.939006590161406827e-03,1.137072086334228516e+00
1.979571905581838931e-01,-9.591671904236092061e-01,1.056194775172882849e-01,-2.800764063109914201e-02,-8.176115534018819908e-03,-1.168836462755610123e-01,1.133206129074096680e+00
1.978009124248262807e-01,-1.153466298787698907e+00,2.390331490831865691e-01,1.179589353576371638e-02,-1.328389242426184502e-01,1.819433869875397847e-01,1.426886558532714844e+00
-4.758076100517554669e-02,-8.388633461490138110e-01,8.111187393884182750e-01,-1.224709721412132329e-03,4.682496093486871423e-03,3.291950112605033889e-03,1.429359912872314453e+00
6.263750351972502406e-02,-8.918525216462755978e-01,5.195583239237974160e-01,2.335158583439820093e-02,-1.263362075196289291e-01,-8.228591460166793936e-02,1.275062918663024902e+00
-5.215249769175941963e-02,-7.943915489583438516e-01,6.650813134802886495e-01,-2.831489135762622900e-03,-3.497280676157606821e-02,1.293115558743828178e-03,1.265464544296264648e+00
7.201763775571989878e-02,-7.887262339021289259e-01,4.213218573398905820e-01,1.140974158833836819e-03,-4.053136951779021634e-03,-5.914634662901346873e-03,1.078755378723144531e+00
1.626405055369997688e-03,-6.020052801470383574e-01,3.060212711413890507e-01,6.131077326844569172e-03,8.282134578217067999e-03,-4.678963867732609944e-02,8.047708868980407715e-01
2.084087515864959661e-01,-9.983167981095838472e-01,1.132523971146270347e-01,8.313514375842195880e-02,3.315461954844279857e-01,-1.558942726034634463e-01,1.331850528717041016e+00
-2.208697916420391746e-02,-8.226409253669576538e-01,6.876455450788819812e-01,1.611210252396089865e-02,-1.404711651607587659e-02,1.891375549893571303e-02,1.309667944908142090e+00
-9.046681397698416727e-02,-4.845172283349290510e-01,7.306176685689486083e-01,1.144444364228510563e-02,-7.816115096881353849e-03,9.342841257358411658e-03,1.074170470237731934e+00
-8.510748525054331881e-02,-8.504724517846221632e-01,8.595726662271980789e-01,-7.390469579168791256e-03,-2.502598860403176806e-02,-3.761745776204804791e-03,1.484356522560119629e+00
2.100954624532816450e-02,-8.312431870491556740e-01,5.843720020309370877e-01,-1.359143583295233104e-02,2.863960179280637328e-02,3.021153990878039028e-02,1.236766815185546875e+00
-7.798971498283965853e-02,-8.063002352474567536e-01,7.223713600204357821e-01,-9.100913952342208103e-05,-6.492655424298678091e-02,1.351601647498501882e-02,1.329330563545227051e+00
1.487923165278266513e-01,-9.100068754046535258e-01,2.459563666321989972e-01,-6.067154904797172899e-03,-8.563119172357519862e-03,1.149316696542422161e-01,1.128420114517211914e+00
-2.364411955110370597e-02,-7.989809604856215053e-01,6.898995254613218275e-01,1.061334497766604386e-02,-1.526831036836800992e-02,1.686437190633526331e-02,1.290511131286621094e+00
6.726586623202532311e-02,-7.971310381306727644e-01,4.772721813597405882e-01,1.961152660643879740e-03,4.267846190152820192e-03,-7.068560097590419200e-02,1.133468508720397949e+00
-4.712673138639273535e-02,-8.319895200243091482e-01,8.140006048419107243e-01,3.298528496967090967e-03,4.719894387176364406e-03,3.081366431953247356e-03,1.426024079322814941e+00
2.873105113638627084e-02,-7.863482125134888534e-01,5.130448860118429488e-01,4.626148233084843159e-03,-1.040023860249289674e-02,-2.201323340427777803e-03,1.137572646141052246e+00
1.604777686341801735e-01,-8.295145045144999285e-01,9.591905262210204119e-02,-3.126880649289349307e-02,2.085970255218802614e-03,8.953587401596060924e-02,9.733119606971740723e-01
-7.708136817256366902e-02,-8.087382995771210670e-01,7.650052576980957975e-01,-6.036969663461804261e-03,-7.475316117190096031e-04,5.579724398224187231e-04,1.364060878753662109e+00
-6.504491473308024463e-02,-8.969152272908197387e-01,9.446674878131100517e-01,-2.198819642820209683e-02,-3.691114809453978352e-02,1.283236251917655758e-02,1.599221348762512207e+00
-8.345560563549002386e-02,-6.765301306902592460e-01,7.992474071947072156e-01,1.895013468957219057e-03,-2.510785607214684103e-03,-1.114095271379982391e-02,1.286395192146301270e+00
-4.929166495098964013e-02,-8.634630586898520699e-01,8.679725485646092586e-01,-6.336781034024050602e-03,-1.554643719447455774e-02,-1.140718612038241903e-03,1.500635981559753418e+00
-7.670502260643044523e-02,-8.469132335812113999e-01,8.793606630644126287e-01,-1.602250150638132335e-03,-4.896543567468064455e-03,8.292666676213610033e-03,1.497977972030639648e+00
-4.726830052885708233e-02,-8.221306699082124858e-01,7.690596552149366882e-01,-7.323601895611250856e-03,-1.366018676185268678e-03,3.144051157911742413e-03,1.378238320350646973e+00
-6.037370576576590181e-02,-8.082466509758772233e-01,7.220996203358559518e-01,-1.438673113070224052e-02,-3.548423097581713311e-03,6.070005704539838641e-04,1.325680494308471680e+00
-5.926302671341329709e-02,-8.754963532532187287e-01,8.985108787873097302e-01,3.808587890360323660e-03,1.562656319901165047e-02,-1.270766310185402620e-02,1.538374185562133789e+00
-5.149536432299845617e-02,-8.708057472745029948e-01,8.943475934374247593e-01,-5.057294701575662521e-02,1.560982309759635298e-02,1.012617174093877713e-02,1.532820582389831543e+00
-4.963800023475275353e-02,-1.268301687434252978e+00,1.100023892843149165e+00,5.162573618777496764e-02,-1.833827776041405122e-01,-3.576806343902662073e-03,2.077699899673461914e+00
-6.802550782702974919e-02,-8.516438355687774298e-01,8.899732102266200151e-01,-5.478559451193039777e-04,-1.901517905419812613e-03,2.354876169446284365e-03,1.510812044143676758e+00
-4.926786924384313204e-02,-8.857750789303641126e-01,8.996025395217106535e-01,-1.182652677412778398e-03,1.183937386108879775e-02,7.030604868297123632e-03,1.547387838363647461e+00
-2.753444674282653354e-02,-8.158784871055477783e-01,8.068525838770811420e-01,2.214498115832946173e-03,-2.046942065980017836e-02,3.128500767492800854e-03,1.405977606773376465e+00
-3.429878136158794749e-02,-8.340388929434128240e-01,8.096886178424892444e-01,4.178131156044450224e-04,-7.572981191163818612e-03,7.881774615391120902e-04,1.423743009567260742e+00
-7.348020719680638246e-02,-8.014545564260366906e-01,7.497548104590360252e-01,4.820599186801833181e-04,3.710925051673275802e-03,-5.976076513387460669e-04,1.344246864318847656e+00
2.603871679973028541e-02,-7.979954271828787471e-01,8.035490638788890250e-01,4.412305422369809660e-02,1.190861664109025024e-03,5.871950347868330191e-04,1.389278769493103027e+00
-4.903417705337120847e-02,-8.254892226145972289e-01,8.023868573707779728e-01,1.226898002297222663e-03,8.940908246905724180e-03,-2.661139805715267374e-03,1.410374402999877930e+00
-4.548250212425432315e-02,-8.251030418524299970e-01,8.341678723590408850e-01,1.789132537782104140e-03,-4.049940783490397697e-03,2.460376508620712617e-03,1.437867641448974609e+00
-5.450135554941699934e-02,-8.285262910201641740e-01,7.981180441671033021e-01,5.112141227530148969e-03,-1.057327141702508745e-05,-2.884015531701102173e-03,1.409299969673156738e+00
-5.654783333711682625e-02,-8.343182357162247653e-01,8.116411629501906200e-01,-2.573029414744717309e-04,-6.983691212337576545e-03,3.919167945075110169e-04,1.426210880279541016e+00
-6.185576929540878566e-02,-7.910411373295540560e-01,7.182679087668265572e-01,7.673414940818912289e-03,2.866255770717202576e-03,-5.571971990689848732e-04,1.307425379753112793e+00
1.239368669270488055e-01,-7.999989215838371193e-01,2.956946156999908371e-01,-3.097907647962127101e-02,-6.362932435614511439e-02,-1.836594128098244932e-02,1.028536915779113770e+00
-4.573034231217014411e-02,-8.319620393263378322e-01,8.065676607810726706e-01,4.570393615541457066e-03,5.880855774124142329e-04,-5.159281728360846399e-03,1.419443368911743164e+00
-4.575517205683672650e-02,-8.335648442713234907e-01,8.071577385759414192e-01,4.999851365097143091e-03,-1.341413603134822101e-03,7.261267124657796307e-04,1.421309113502502441e+00
-4.460279537606169631e-02,-8.334439862490219397e-01,8.082394387398730284e-01,5.563628451862535386e-03,-3.449945164002275570e-03,3.674343685753380349e-04,1.422145009040832520e+00
8.410499042574900996e-02,-7.885431495244574762e-01,4.190416308176372340e-01,1.713233959526722387e-03,3.727168735375096641e-03,-8.729935919958436985e-03,1.079934358596801758e+00
7.568639942882704474e-03,-7.455744147976405278e-01,7.831897614746273772e-01,5.434537350565627617e-02,-6.075516934613554073e-04,1.602594296521235237e-03,1.327341437339782715e+00
2.003737094174117689e-02,-7.982552873046128150e-01,8.087435024239547632e-01,4.139301938459304803e-02,2.154479247980024045e-04,-1.315203409653810211e-02,1.393811941146850586e+00
-1.962698787842136194e-02,-7.886709482149542039e-01,6.111105970535373189e-01,8.957169301397826036e-03,9.045231407480376629e-03,1.351367082588948287e-03,1.214419603347778320e+00
-7.115470863861325657e-02,-8.106175716616785820e-01,7.743214731413798901e-01,-6.785049759045642774e-03,1.272435912131563568e-02,6.950790859048720273e-03,1.373900413513183594e+00
-4.383624552794151280e-02,-8.148602043311602428e-01,8.646014380382608389e-01,3.252898296303962516e-02,-1.103943412697240209e-02,3.222341128451247649e-02,1.458361864089965820e+00
9.414776378991345819e-04,-8.391023990274273370e-01,8.334790140156711491e-01,5.063342903342454848e-02,-1.004373982368876074e-02,3.021520545501531010e-05,1.451259613037109375e+00
-3.131618119332438277e-02,-8.171729672601153460e-01,7.246400318047535594e-01,-1.738130026157503477e-02,3.925754529438578444e-02,-9.863798108619273308e-03,1.337510943412780762e+00
-9.226507736014294414e-02,-5.048949989773832137e-01,7.404432300678451817e-01,-1.133897274280321055e-02,1.176274795817816750e-02,6.593565165977090595e-03,1.099180698394775391e+00
7.053174027643482891e-02,-7.889013046518790206e-01,4.225096663105584183e-01,-5.534817236320790229e-03,3.229406471296797365e-03,-8.761324197273120604e-03,1.079522371292114258e+00
-1.136631805145248142e-02,-6.813707203308835281e-01,8.620397572580371648e-01,1.344471392361631934e-01,-2.003302203328374137e-02,-5.151457732488579251e-03,1.361044287681579590e+00
-6.593592549027070537e-02,-8.179231589775797229e-01,7.803754420470709885e-01,-2.851026463649236186e-03,-1.564349824828830272e-03,-5.582087901504309037e-03,1.385015606880187988e+00
1.890572792485582798e-02,-7.934711879271154622e-01,8.058658334652338828e-01,1.045024178583371655e-02,6.634911821232002821e-03,-5.256642361992453980e-03,1.385320663452148438e+00
3.411162714977883023e-03,-7.748527569437101414e-01,8.151475279419355680e-01,4.213526739958386308e-02,-8.456232795779504083e-03,-2.989334475643228711e-02,1.380064249038696289e+00
-1.611438402475623977e-01,-4.136831534111988229e-01,8.299100405729895602e-01,1.046021320237741636e-01,2.120915202352753950e-02,7.056549948497278790e-02,1.159895181655883789e+00
-6.847634905088109680e-02,-8.014806843941774117e-01,7.379469856460101340e-01,-2.603946030628656073e-03,-8.116457594177169804e-03,-1.828053263565115535e-04,1.333770513534545898e+00
-4.586580834400382639e-02,-8.387158140582410271e-01,8.113095825751444057e-01,-4.047685587910288679e-03,6.096784965233070612e-03,1.398884797318267377e-03,1.429384112358093262e+00
-1.362386635946754021e-01,-3.456034682736225938e-01,7.478879803016154071e-01,4.378932842658061347e-02,1.385548133284786104e-03,1.316239137025488476e-02,1.008412837982177734e+00
2.402606734415718703e-02,-8.084493782520824068e-01,5.658339388294454375e-01,-9.260957118947497901e-03,4.599866922415861772e-03,-8.750789618304397402e-03,1.199234485626220703e+00
-1.883964107335830418e-01,-1.401419153866710898e-01,1.180515605799073775e+00,1.464851286482885262e-01,3.471393872144588888e-02,3.694400242264259809e-02,1.371960639953613281e+00
-1.382760427045844620e-01,-4.577515758148315017e-01,7.514926625975032470e-01,3.283332462658121453e-02,6.905369398425236990e-03,6.352970745289424070e-02,1.092473149299621582e+00
-1.656135717785307479e-02,-8.284169611358801477e-01,7.187787453000130666e-01,-5.109324331783499269e-03,-9.966373643740429611e-04,2.109420894224712725e-02,1.340984940528869629e+00
-1.601198250649020494e-01,-3.557692419906303138e-01,7.222826235537302964e-01,-6.067392662997411756e-03,-8.923634792906297644e-03,-1.674849494445714796e-03,9.949432611465454102e-01
-2.461492839043295106e-02,-7.899629998282061694e-01,6.301278876033667986e-01,-6.041791293685904937e-03,-9.188127252615344367e-03,3.980901525475984137e-03,1.231244206428527832e+00
-4.511615282257150361e-02,-8.390367251753544364e-01,8.160150586211760704e-01,-4.868398351176954179e-03,6.839807179646933445e-03,-2.129189467048846373e-07,1.433784484863281250e+00
-1.013102553820498519e-01,-4.796387134850923495e-01,7.557626557081323915e-01,3.555328363024595761e-02,1.860995330201399914e-02,2.372883020368405163e-02,1.099309682846069336e+00
-1.114325301634357113e-01,-4.405472393234404205e-01,7.416680740286029083e-01,-3.533406114970969597e-02,2.072979277414678176e-02,-1.054299177565244834e-02,1.059355139732360840e+00
-9.497728255150322818e-02,-5.957316298525314746e-01,7.844978991766244913e-01,3.204360929695052040e-02,7.636591316793547857e-03,4.982897175591678024e-02,1.214634418487548828e+00
-1.200629336253240809e-01,-3.827874326729636678e-01,7.423092754597888643e-01,4.396595111226938440e-02,6.530445324334285297e-03,3.389153424535716608e-02,1.024035692214965820e+00
-6.382332381903320362e-02,-5.827297096376391483e-01,7.469527274286836827e-01,2.064889539788973272e-01,7.575116031611549283e-02,-1.537349719458399044e-01,1.250347852706909180e+00
-8.152193900084352129e-02,-8.022737250196065872e-01,7.585210772003047053e-01,-1.975373961062562751e-03,-2.494885522098660817e-03,4.849458528360184664e-04,1.353014826774597168e+00
-8.701166428013332177e-02,-8.143848904648672837e-01,7.839926764572197060e-01,6.607075461940340811e-04,-2.092603218022700759e-02,2.043199803230707958e-03,1.386576056480407715e+00
-7.307432812261255295e-02,-7.984334823306235007e-01,7.461282997157356878e-01,4.561084474070883216e-03,-9.861158154890960377e-04,1.152147127578774218e-03,1.338478326797485352e+00
-1.412236026051480464e-01,-3.855094998240699566e-01,7.470631610816002022e-01,5.001688418733296615e-02,7.473650435006449350e-03,3.355943162155169968e-02,1.037678241729736328e+00
4.463654191939261939e-02,-7.809124282815350648e-01,4.435454368766020838e-01,-1.407550766038928591e-01,-2.462597696349660414e-01,1.003198312414013832e-01,1.200640678405761719e+00
-1.032541953602900686e-01,-3.300262743747454652e-01,6.015951980982395808e-01,-1.320195860920513886e-01,-7.508307206285690094e-02,-1.651546719434619781e-01,9.268800020217895508e-01
-1.255163619925989127e-01,-5.775486606121574829e-01,7.949205404590605761e-01,7.017430714616055415e-03,2.013666663741661006e-02,3.644476105471932542e-02,1.213652849197387695e+00
-6.297049589094450006e-02,-7.949928174242416601e-01,7.135765608026117812e-01,-3.614802080001543010e-03,-2.323132442534133792e-03,5.114123221774952285e-04,1.306670546531677246e+00
-6.293058120039488057e-02,-7.479106802073358651e-01,7.964562794981437932e-01,-6.006515310166547425e-03,1.589480652246779216e-02,-1.230356219679418738e-02,1.340793371200561523e+00
-7.137534585988435099e-02,-6.534573448470338830e-01,7.558961325747166615e-01,-1.442081914893270089e-02,4.437271368229918356e-03,-5.625609415955339782e-02,1.230818629264831543e+00
1.855044171999375296e-02,-7.822638142243024673e-01,7.758186226409349295e-01,1.022171963573859926e-05,6.327115146488840498e-03,6.222539788002370842e-03,1.349602103233337402e+00
1.831876127543781430e-02,-5.040322786871249683e-01,2.042288126198693043e-01,-6.844415767271555713e-03,-2.041527892929505261e-02,-6.555233765384699263e-02,6.471519470214843750e-01
-3.354694290777055637e-02,-8.513627630990847628e-01,6.935123133657946637e-01,5.971262939138268638e-03,1.047018065180853504e-02,-2.128658933971955616e-02,1.339340806007385254e+00
-5.870625335219827740e-02,-8.241369018862864104e-01,8.007945384263747135e-01,-1.979818740378550511e-03,8.448738212838809852e-03,-3.016098787097010441e-03,1.408107638359069824e+00
-4.360655545579446291e-02,-8.345753516968178465e-01,8.147766208452963399e-01,-2.824614158726992518e-03,-5.361459799183107555e-03,1.022859745689869105e-03,1.428817987442016602e+00
1.166108627880628468e-02,-6.747649916299679473e-01,3.960522127212321997e-01,-6.241632728376994566e-02,-1.295963985881684044e-01,1.384777204332304223e-01,1.001196622848510742e+00
-7.493781056635019644e-02,-8.015108483920730942e-01,7.385945463742304984e-01,-2.555082262486758210e-04,1.589331953498726926e-02,-2.535756519220276704e-04,1.334762930870056152e+00
-1.935470111488305639e-02,-8.471994806909572961e-01,7.324129043828393471e-01,-1.116798504926426287e-02,-3.097726894410785664e-02,4.003776224320331617e-02,1.371455550193786621e+00
-1.093026032004789164e-02,-7.733551279341440710e-01,8.100987597678646068e-01,4.526520627227558630e-02,7.165399414605071009e-03,2.078624841141421976e-03,1.373924016952514648e+00
-6.077615807352296229e-02,-8.157746329871226054e-01,8.102738607279971195e-01,3.028051453751132941e-03,-3.793148123901560545e-03,-1.362990107996775620e-02,1.409617066383361816e+00
-4.922357357477651074e-02,-8.212049696796395182e-01,7.521183181612522972e-01,-3.578791709518366914e-04,2.451401886436560193e-02,7.100380274228216410e-03,1.363333940505981445e+00
-6.774422864814801104e-02,-7.518484196786369145e-01,7.956807453253139650e-01,1.433189460459447645e-02,-4.262177653631415292e-03,-1.532275069181435710e-02,1.343707203865051270e+00
-5.170069952129635604e-02,-8.105398990422317818e-01,8.136249162886259878e-01,3.614546177443747903e-04,-8.984036010689011240e-03,-2.886730538433660617e-03,1.407670378684997559e+00
-4.858650349514717637e-02,-8.236132028757191526e-01,7.800945142742506944e-01,-8.115412868711443725e-03,-1.997301875257036056e-03,-3.351924848454762660e-03,1.389198303222656250e+00
8.686251107360237755e-02,-8.066141898954967138e-01,3.906935312009434114e-01,1.983365788835885022e-03,1.400493860786775346e-01,5.832789014841179703e-02,1.109567284584045410e+00
-2.252923632795129916e-02,-8.211025087147569845e-01,6.737973431943792280e-01,-1.469842534456332686e-02,3.989871305960085435e-02,1.520605487673721071e-02,1.297988891601562500e+00
1.378995554443319949e-02,-8.114453279864091151e-01,5.690930650297576499e-01,-1.593076090110398871e-02,1.239878460468722427e-03,-9.497128586647090795e-03,1.203605890274047852e+00
-4.549108991406056873e-02,-8.274049361045067164e-01,7.719496340181671856e-01,-8.624809825107828190e-03,1.252715120750832328e-02,1.439745227702261474e-02,1.385670423507690430e+00
-5.486589743943333375e-02,-8.194775086152593646e-01,7.645002156406763838e-01,-4.897003553512764736e-03,1.256592918077173437e-02,8.275997113370117978e-04,1.372237682342529297e+00
2.141097823988217241e-01,-9.079499429170432290e-01,5.551420530618561555e-02,-3.288110150034025255e-04,-1.180076661084448857e-02,5.070972400098672228e-02,1.055627465248107910e+00
8.173426590960178317e-02,-7.832492283791104848e-01,4.010794590733883780e-01,8.497383672837179047e-03,3.224474604467750943e-02,1.025591240625225130e-02,1.063041567802429199e+00
-1.465584434586761076e-01,-4.574128928673715233e-01,7.569226039332362932e-01,-3.549436787728917249e-03,4.617811934963624194e-03,1.206769944287933508e-02,1.092839479446411133e+00
-4.425662226737252236e-02,-9.452674087122204805e-01,1.001348624951694966e+00,6.777660871423879518e-02,-4.525939293090991411e-02,2.110081202755059379e-02,1.693657040596008301e+00
-2.269465959697859747e-02,-9.640062634896060523e-01,8.672999977561429708e-01,7.500444718350873785e-02,-1.315879279253951983e-01,5.916237442908459099e-02,1.610976099967956543e+00
-2.422253577781222078e-02,-7.934334983577610023e-01,6.297486462189963996e-01,4.079422433187743571e-03,-1.099687831790349853e-02,6.301413074216368360e-04,1.234025716781616211e+00
-6.133421291851610946e-02,-8.361557632609339930e-01,1.017209916966405059e+00,1.612383745753175890e-01,-2.856269402248469702e-01,-1.082000643043965343e-01,1.719636201858520508e+00
-6.263789603305658371e-02,-8.403441508505739010e-01,8.753464247121736097e-01,2.314153313682120253e-02,-6.545458242656708447e-02,-8.112076486677381737e-03,1.492908120155334473e+00
-5.771936807864140595e-02,-9.296884991355717220e-01,1.165983630480953881e+00,1.168026176130061711e-01,-2.252564275265209193e-01,-9.489083330761609314e-02,1.882809877395629883e+00
-3.963644737030492388e-02,-8.376298160592913211e-01,8.597862256064598974e-01,1.458438783801660477e-02,-1.117949312600030089e-02,-8.431257186443006160e-03,1.471296787261962891e+00
-6.299965456629347260e-02,-8.789541583777097378e-01,8.674600597028476745e-01,1.147094484513484260e-02,-5.572703808083833560e-02,2.082095842689656376e-02,1.517155766487121582e+00
-9.390336884685528129e-02,-6.012838390427553970e-01,7.714711869621885265e-01,-2.180655789100707613e-03,1.812445663804307036e-02,1.130949814939388037e-02,1.202815771102905273e+00
-7.310328113747437129e-02,-9.825958780946713045e-01,9.536939592084321404e-01,-3.112665964117159942e-02,-1.146610960002374807e-01,4.347568544874051005e-02,1.692150235176086426e+00
-8.385897500873329413e-02,-8.901770271192684936e-01,1.017523387389006162e+00,1.780557969928021900e-02,-2.034631543955727970e-02,6.344532023668320031e-02,1.662986874580383301e+00
-1.037286994556196884e-01,-1.033716060838180573e+00,1.044140535393327740e+00,-3.932946580079386967e-02,-4.531254789281976419e-02,-3.296079426444280432e-03,1.805773258209228516e+00
7.992948557754522843e-02,-8.087514316856329044e-01,4.465934397060090655e-01,6.631313019615320443e-03,-1.824807938168250543e-02,2.303790843725677176e-02,1.119270563125610352e+00
-6.436671651821118667e-02,-1.012664974487942793e+00,1.010628485155021350e+00,8.661272869929787302e-03,-4.285991346152105697e-02,3.305493580637558493e-02,1.755936861038208008e+00
-6.296913702816958613e-02,-9.903859068051819037e-01,1.019319965306657139e+00,-1.731446537169106445e-02,-1.524272377228685568e-02,1.395905537693029920e-02,1.742803931236267090e+00
-7.457178183652832248e-02,-8.062845001126792699e-01,7.575776253531371074e-01,5.023331378849848865e-03,-4.143276177045735593e-04,2.600652339864431041e-03,1.355310678482055664e+00
-5.069527709136329580e-02,-1.541787687962190123e+00,1.397755597515940584e+00,-6.529669982461579203e-02,-2.851180113039665232e-01,1.833268254688025581e-02,2.595923185348510742e+00
-4.714155052443769894e-02,-8.759086491190181123e-01,8.888249044499311191e-01,-1.089181489571897088e-02,5.178642070332866061e-04,7.152436671564199946e-03,1.529410481452941895e+00
-8.035365173693648222e-02,-8.438776640936612727e-01,8.636400789503014819e-01,-7.493210334226979574e-03,-5.573225850959690614e-02,9.259067864978985304e-03,1.484789133071899414e+00
7.868742349214025156e-02,-8.059613346603617945e-01,4.192233989416285223e-01,-1.934056235914273329e-03,3.835404369656694040e-02,3.652870343813764686e-02,1.099204421043395996e+00
4.542683746757242291e-02,-8.108575599081812024e-01,4.872894464261434688e-01,-1.408069677397341853e-02,-6.435508556918567713e-02,-2.320000848086130329e-02,1.149547696113586426e+00
1.109109622972594134e-01,-8.850324712167642049e-01,3.885442077298544294e-01,1.886974419987247700e-02,-4.485420500973938407e-02,-3.134708467855507746e-03,1.163023591041564941e+00
6.780380129913191056e-02,-9.166279778641200915e-01,4.881278268909605700e-01,-9.178175708801200247e-03,-1.231044490874339814e-01,-6.726400407915480995e-02,1.272339820861816406e+00
-6.036953274287185783e-02,-7.954317672099824321e-01,7.129812815977690788e-01,6.528238145541872400e-03,-4.813169312696734779e-03,1.689315233050074291e-03,1.306543111801147461e+00
-4.224417535823295905e-02,-9.072908540950997969e-01,8.041414287687213003e-01,-1.800409063879770122e-01,-1.992713523178354651e-01,-4.832428909953883495e-02,1.555703878402709961e+00
9.427744472414514854e-02,-1.186779036044366409e+00,6.666236733773773793e-01,1.054127717142825243e-01,-3.800969640303097918e-01,-6.711962016833258448e-04,1.780070662498474121e+00
-1.431287018909270792e-01,-2.684336201413898837e-01,1.080234432907862363e+00,-1.503082341439652136e-01,-5.758974793829740174e-02,-2.340960529309598324e-03,1.320362091064453125e+00
-4.601422661260889946e-02,-8.369128664732460310e-01,8.153592870846700924e-01,-1.500888666642081516e-03,-1.484593357268616364e-03,2.458259287844043989e-05,1.431348085403442383e+00
2.214052524638094807e-02,-7.634711465892266569e-01,7.665216977552732347e-01,-2.920539913305775399e-03,1.198542306870574448e-03,1.539490750746833753e-03,1.325186967849731445e+00
3.658470016895370991e-02,-8.344261469399877340e-01,5.530568269495762523e-01,-1.118535497611630562e-02,1.296177467130288710e-02,-3.774579168283865444e-02,1.216720938682556152e+00
-5.493772454623946366e-02,-8.237747162087027952e-01,7.794312914233815226e-01,-2.021613542557647476e-03,6.090375935098508477e-03,8.823226643640533218e-03,1.388932228088378906e+00
6.324479005735061943e-02,-7.945354589304683968e-01,4.573004143294772117e-01,-7.402806958702490281e-03,-3.338735549042696343e-02,-6.503145382372744684e-03,1.110277175903320312e+00
5.759457159824288297e-02,-8.018840451290841775e-01,4.696488098462380245e-01,3.834895847315310854e-03,-5.314570803341749083e-02,-3.689404361990805247e-03,1.127476096153259277e+00
1.050906864564468135e-01,-8.008496558532739451e-01,3.419639437956158989e-01,-4.594814344093661566e-03,-6.132421373241767060e-02,-2.719777990940173279e-02,1.051187157630920410e+00
-4.401564993483615684e-02,-8.340287651120295020e-01,8.099872400463917765e-01,1.604403658886666053e-03,5.137413996229026536e-04,2.613683174560032553e-03,1.424129247665405273e+00
-4.347302311537060149e-02,-8.341501344580284361e-01,8.112514154935859256e-01,2.027438899502513603e-03,-8.494964317086850080e-04,2.172701923594788295e-03,1.425329446792602539e+00
-6.176690692426711066e-02,-8.111941830375589690e-01,7.631119584058595473e-01,-1.178719211563220476e-04,5.726443942914599163e-03,-8.371999940777041099e-04,1.363947868347167969e+00
-5.478835744523863349e-02,-8.288746246637489490e-01,7.904925450696607125e-01,3.568225494987736085e-03,-7.200769543333240472e-03,2.376609217337348652e-03,1.402939915657043457e+00
-5.314276603696692358e-02,-8.285635088945277893e-01,7.997713208043718547e-01,3.603028952822358213e-03,-2.668899877997339080e-03,3.925954577998895870e-03,1.410749316215515137e+00
-4.608843868864018894e-02,-8.330200946802986950e-01,7.787060204610690706e-01,-2.398693172246950563e-03,-5.517224766602529980e-03,1.266737043472923249e-02,1.396135449409484863e+00
-7.000341781935315311e-02,-7.226101937013913457e-01,7.881865175203408569e-01,-2.297918041723068933e-03,1.374608205617946013e-02,2.281839042568517897e-02,1.313236832618713379e+00
5.124106323585184489e-03,-8.166123066718089518e-01,8.175566506164793079e-01,2.034102735222372699e-02,-3.625560634815704671e-03,-3.602214905692666981e-03,1.415705680847167969e+00
-2.552766457396397209e-02,-8.059562058796198025e-01,6.576284694859755309e-01,-1.429762101365252003e-02,6.962138176430858298e-03,-4.520594232048981442e-04,1.268733620643615723e+00
-5.424476231883388483e-02,-8.090463775027172399e-01,8.053292799330985519e-01,-4.290976604529643740e-04,1.015029456202231305e-02,1.354894525587890287e-02,1.399378895759582520e+00
-5.673985002945087369e-02,-8.328018926181925963e-01,8.246049345975907663e-01,-8.088875097560848867e-03,2.147037233745107548e-02,9.797004277082894605e-03,1.436971187591552734e+00
-4.788848185419582182e-02,-8.350873298267809108e-01,8.094990747219548144e-01,-6.385761361373643898e-03,1.092783625971811834e-02,8.116609111037818153e-03,1.424923896789550781e+00
-8.709839758381904273e-02,-6.387446770662476014e-01,7.831097088567602338e-01,2.342526668828708719e-03,2.228691661953835848e-02,-8.471268902036244858e-03,1.242314219474792480e+00
9.586636030755715798e-02,-7.828612436662313323e-01,3.651798546472443396e-01,6.220136568815945975e-03,-2.810195295139289798e-02,3.929062649137530713e-03,1.041093945503234863e+00
-4.219880420692162515e-02,-7.634436676787748066e-01,7.929476537836247507e-01,2.504974595976014115e-02,5.808998045512505336e-03,1.931406261314720998e-02,1.350226521492004395e+00
-4.963600055823559620e-02,-7.720179408038269075e-01,8.029129690611025438e-01,5.059018167851493317e-03,2.086540611432970149e-02,5.061879650716538843e-03,1.366016507148742676e+00
-4.717384922017336946e-02,-8.332708679914354599e-01,8.071823595666507423e-01,-1.862182169536308590e-03,-4.383460477563730362e-03,-3.571909518549073754e-03,1.421121478080749512e+00
2.169062193237887570e-02,-7.842371240929767451e-01,7.805784809287791282e-01,-1.059200149992202931e-02,-4.658055215834880597e-04,-1.911570428805048783e-03,1.355502605438232422e+00
2.398206103474551099e-02,-8.084511762590276263e-01,5.658456627630492619e-01,-9.284964993187575302e-03,4.605025989678370076e-03,-8.746024915456245344e-03,1.199240684509277344e+00
1.806951722324505807e-02,-7.970891801147296230e-01,7.845364646575510026e-01,-7.730944626289498571e-03,-8.507345881616692335e-03,2.878899586737831365e-03,1.370098114013671875e+00
1.794596781913444100e-02,-7.756413845591672018e-01,7.803417125044207481e-01,-2.245507060605997102e-03,-5.815253472752501471e-03,7.595968004510832497e-03,1.347718596458435059e+00
2.962493669214576880e-02,-7.770799221694516534e-01,7.772038548897133303e-01,-5.626158584922532312e-03,1.647895288757539930e-03,1.491131561840558376e-03,1.346414566040039062e+00
4.347808351277554495e-02,-8.277093497025292956e-01,4.848666929194295205e-01,2.650781832839848098e-02,-3.428234708571172712e-02,4.718915905327210336e-02,1.162169456481933594e+00
2.964326887971424629e-02,-8.095001857088789388e-01,5.520361164827387590e-01,1.667320542542369451e-03,-7.921897175548950603e-04,-1.111155678758203071e-02,1.189873576164245605e+00
2.317853764860451984e-02,-7.715053833466376521e-01,7.667329874649928545e-01,-2.009352119478923990e-02,-2.703318393108362829e-03,8.252574413085438836e-04,1.332862257957458496e+00
-1.977114775611062483e-02,-7.430626160636696342e-01,7.886169426713064423e-01,-1.667636937284270454e-02,2.883950544377640590e-02,-2.380709450544125222e-02,1.329049229621887207e+00
2.350753158332947318e-02,-7.552618473208813077e-01,7.699244063312005171e-01,-1.997764915237772512e-02,-8.032568637893389499e-03,3.386609979896881145e-03,1.321488499641418457e+00
2.245450513247315011e-02,-7.421909996805904353e-01,7.613350898616042528e-01,-1.924756113141898664e-02,-2.660135294421912735e-03,2.269292314340518035e-03,1.302596330642700195e+00
2.313954085488617585e-02,-7.743135226460861054e-01,7.787447301968639657e-01,-2.122531426695005788e-02,-9.089212684497940259e-03,7.655674278923865241e-03,1.345810294151306152e+00
2.336822095390181375e-02,-7.468045733298563915e-01,7.615967191719597018e-01,-1.971466236920153131e-02,-4.356153559469774089e-03,-9.552965459988304675e-04,1.306880474090576172e+00
-8.017952243982617855e-02,-8.279394235898328569e-01,8.354774532408653087e-01,1.854349531974522954e-03,-5.763997384610734798e-02,7.834118422487207703e-03,1.446521878242492676e+00
-1.093231519867042360e-02,-8.690004939390796324e-01,8.551632625046436953e-01,3.346314861183952855e-02,-2.025710875950119741e-02,-2.486712176581153816e-02,1.495331764221191406e+00
-1.923569782658605259e-02,-8.549084364803591907e-01,8.398910153925195354e-01,3.941349425816866037e-02,-1.049222412707656940e-02,1.381202165423934050e-02,1.469679951667785645e+00
-3.227083417866949411e-02,-7.584246997167939375e-01,7.754988500427727471e-01,2.578983471696273330e-02,2.219515469240235239e-03,1.279562623375391645e-02,1.329984068870544434e+00
-3.246082313505280204e-02,-7.822517283810778155e-01,8.525263370799796014e-01,1.448980129823911056e-02,5.815180938287647754e-03,7.561375733102047338e-03,1.417690634727478027e+00
-3.535611652639461533e-02,-8.166406186758028429e-01,8.028664853940922219e-01,-2.698675054132475618e-03,1.772831330105571236e-03,1.131446249233955016e-03,1.402835726737976074e+00
-1.389034071625820654e-02,-8.249589761054881842e-01,6.970527663745326175e-01,1.551857815231507190e-02,1.466132477663743177e-03,-8.311231670415926420e-03,1.319406032562255859e+00
-2.895719676691793296e-02,-8.904305609179833381e-01,8.304118228995972517e-01,4.741180649815694009e-02,-4.706289516854787053e-02,-4.254932026460156447e-03,1.494796872138977051e+00
-4.845952079655242023e-02,-8.232567534420112132e-01,7.264865105481376206e-01,1.212053853748195492e-02,-2.320384214327115766e-02,1.346732297795776370e-02,1.343085289001464844e+00
-4.738543943947380599e-02,-8.284534109841644733e-01,8.050092896570125722e-01,8.071960437825280790e-03,4.279021999782688969e-03,6.200270985266658104e-03,1.415198922157287598e+00
-6.963912312476011612e-02,-6.870609479810579900e-01,8.744699461935622198e-01,1.248503508284912605e-01,-3.539579251557446737e-02,-3.481441385271536598e-02,1.381891012191772461e+00
-6.251210814880769906e-02,-8.109494388972555701e-01,7.636369355281628080e-01,7.241142419207186216e-03,1.455746402294475893e-03,-7.442776883431400856e-04,1.364245891571044922e+00
-9.205422755349246255e-02,-7.923775673456875390e-01,8.238627806287930344e-01,3.307451906770524433e-03,4.302571864859342822e-03,-7.467999735819370183e-03,1.403941035270690918e+00
-5.130010290502987069e-02,-8.359697011904554387e-01,7.830784383999577214e-01,8.647592712738845326e-04,4.243535595460680974e-04,-9.027643770963232617e-03,1.402445197105407715e+00
-5.364448280775951233e-02,-8.125354919400811227e-01,7.459470575591928831e-01,1.344108337385979506e-02,3.932340088856606090e-04,-1.430371428184372884e-03,1.350042104721069336e+00
-1.431788565153700558e-02,-8.726739666685443542e-01,8.551203101554588626e-01,-2.884228916417219679e-02,-9.451672471892932437e-04,-1.441926703959666572e-02,1.497366905212402344e+00
-4.075980943579894655e-02,-8.340837917656359624e-01,7.995570280755048831e-01,1.877485426703844702e-03,3.848960296315367437e-03,-2.377079301155967609e-03,1.414994955062866211e+00
-4.648721602585406676e-02,-8.248505749971530854e-01,7.707829365221464668e-01,1.274795130624415893e-02,4.223936199944989568e-03,-4.387433720338161126e-03,1.382212758064270020e+00
-6.589169914143376550e-02,-7.171813005476916913e-01,7.876787032988613602e-01,-4.493831153887124612e-03,3.471097637969732409e-03,-2.329483035742716673e-02,1.307825207710266113e+00
2.989672457255769869e-02,-7.628914596247677871e-01,7.628616342501908232e-01,-1.614753982515203766e-03,4.610340037285991233e-03,1.206740544993783158e-03,1.321708202362060547e+00
-6.437586316301441292e-02,-8.269129752727735205e-01,8.123446074322430155e-01,7.256797005200405371e-04,3.920197681907882856e-03,-2.488247869750425615e-03,1.420809507369995117e+00
-4.988626036716432843e-02,-8.291447874883383085e-01,7.893707217734527992e-01,-9.227509165073791500e-03,-2.705320720568039905e-03,4.321199593732441210e-03,1.402115464210510254e+00
1.809180334793999024e-03,-7.930199693259754046e-01,7.875541753078746376e-01,1.431325883122717101e-02,-8.087302097534245643e-03,1.683179860349231670e-03,1.369124174118041992e+00
-4.299184414103046636e-02,-8.334101857328085616e-01,8.137011088937351477e-01,-4.095553646667689056e-03,-4.490719108546877870e-03,1.855151810848058381e-03,1.426867485046386719e+00
-2.777812654815390095e-02,-8.158445765097791513e-01,8.079569510710054026e-01,-1.656357742893943639e-03,-7.567989864088651118e-03,2.906263388288392400e-03,1.406528353691101074e+00
-6.652123665670343911e-02,-7.912317459487488991e-01,8.134992087705916752e-01,-4.593178990419711800e-04,4.220063796510424917e-03,-4.972679598625208246e-03,1.391951680183410645e+00
-2.778811068806470719e-02,-8.214673866185278062e-01,7.932373462354882498e-01,5.982255551132435734e-02,3.378872741912030547e-02,-2.168333421939542746e-02,1.403998613357543945e+00
2.767136018759075097e-02,-7.743525152640241549e-01,7.707561523741708331e-01,-4.574051127248818238e-03,1.008657758993580322e-04,1.094033609469509914e-03,1.338452577590942383e+00
-1.130757206066237419e-01,-5.192856466310976638e-01,7.460046497895149731e-01,1.136839231857656243e-02,1.751027582810071870e-02,8.668383037481826314e-02,1.129531979560852051e+00
-1.763083101041906242e-01,9.937389415680814020e-03,9.105049484238910695e-01,1.357159448450031003e-01,-1.361593368658092253e-03,8.183650418728190268e-02,1.043450951576232910e+00
-3.867284663517019105e-02,-8.243269623531862544e-01,8.126226857594881503e-01,-2.268713554035973242e-03,-8.969878988386225868e-03,3.163026129495167399e-03,1.418120980262756348e+00
-1.614940173519116562e-01,-6.657573311866379906e-02,7.694956677328397276e-01,-9.364388862709403794e-02,-3.456412417196870110e-04,4.146688655465198547e-02,9.049031734466552734e-01
-1.618263678101439784e-01,-5.206142470404623301e-01,8.433459443373073627e-01,2.174114335821371660e-02,1.319091747011339952e-02,7.454363009101247495e-02,1.232215046882629395e+00
-3.548772111479393809e-02,-8.239841422284108763e-01,7.428625860172386464e-01,-1.128486828009404343e-02,-2.631608796906677924e-03,-7.523673481189236713e-03,1.357149481773376465e+00
-4.590388466070974977e-02,-8.366586702615309568e-01,8.140959281728490371e-01,-2.497626882507084523e-03,-3.916650079884743604e-03,-1.079384298269347011e-03,1.430038452148437500e+00
-1.699279113724694867e-01,-1.146462741309077771e-01,9.902727855275417213e-01,4.973706979469897163e-03,-8.453505689790473399e-02,1.131322926191177108e-02,1.143188834190368652e+00
-1.626179219199240522e-01,-5.079795114923559840e-01,8.445955571289659458e-01,7.792106020766242924e-02,4.520085052471687660e-03,5.636862793295892987e-02,1.228582501411437988e+00
-1.663897979915742731e-01,-1.565144022517067079e-01,7.857259287373418166e-01,-8.992379038130653146e-02,4.929331255860556343e-02,-1.161900791152339490e-01,9.845141768455505371e-01
-2.468756286262829489e-02,-8.286109456051632405e-01,7.201313025578635063e-01,-1.421086749719078016e-02,-3.243363360794703550e-03,-1.006153559719553774e-02,1.341926336288452148e+00
-4.691736120070078009e-02,-8.344205668593283054e-01,8.120050411238999288e-01,-2.106424202554380357e-03,-5.230380793808312237e-03,-2.134848876540090465e-03,1.426331758499145508e+00
-1.661415199002954091e-01,-3.318559250563876128e-01,7.975171257619619869e-01,-8.533271414194912308e-02,-4.888723276649455281e-03,1.050544795203017384e-01,1.082043170928955078e+00
-4.555898520328842405e-02,-8.283383576644294255e-01,7.933323891011860862e-01,-2.153185561711226312e-03,-1.295735439627553878e-03,1.234871375894211649e-02,1.404857873916625977e+00
-4.284040111734147005e-02,-8.367478478859525781e-01,7.813693158780293802e-01,2.054782679310876003e-03,1.260766033648355339e-03,-5.181710166053492099e-03,1.401447415351867676e+00
-5.286659823451950180e-02,-8.144610627989458118e-01,8.077739307863140983e-01,-4.751803092473913265e-04,-9.485220458831700868e-03,-9.464400666563652781e-03,1.405961155891418457e+00
-4.168728784994890635e-02,-7.882418332443626996e-01,7.643946888521804262e-01,-2.701853522799172597e-03,5.186728109765276554e-04,-4.268808429453209777e-03,1.344980835914611816e+00
-5.471516843490228932e-02,-8.259880075791486975e-01,8.098885867764921143e-01,2.151150809423916892e-03,-3.457158842258859985e-03,-2.917172095771258539e-03,1.417505621910095215e+00
-4.870183334803772357e-02,-8.346587960595293065e-01,8.078906221665322906e-01,-3.229215919021191736e-03,-4.648435027760573594e-03,-3.758300546590781326e-03,1.422976493835449219e+00
-8.122979116071468719e-02,-7.166565461735830977e-01,7.968067553312846441e-01,1.399773487944545652e-03,-6.528218073681209266e-03,-2.682383908275113096e-02,1.317169547080993652e+00
-6.279336796073407834e-02,-7.990030454732439669e-01,8.168148752388046940e-01,3.254640429849119890e-04,-1.028925613119468542e-02,6.828866982252475813e-03,1.401338338851928711e+00
-1.523362958459285876e-02,-8.310482423584878431e-01,6.940836613323192461e-01,-8.389632676586593341e-03,-1.558830581864374589e-03,-1.122334747207136794e-02,1.322101473808288574e+00
-3.259432690548161315e-02,-8.318369605291074942e-01,7.805043319906449506e-01,-1.102120388179248303e-02,3.318758532762866587e-03,-1.225422881716381300e-02,1.396649360656738281e+00
1.914397758349300344e-02,-7.715236952950906835e-01,7.727007431610717347e-01,-5.972876085068667615e-03,5.410315058141763715e-03,-2.047929723251840344e-03,1.337543845176696777e+00
-6.479622096148845989e-02,-8.086695501552818577e-01,8.087012672092526167e-01,3.125515779228562685e-04,4.152297768386998232e-03,-1.359804102060048654e-02,1.402399182319641113e+00
-6.955926735460329913e-02,-8.200083788608837354e-01,7.757531885699631147e-01,1.076196507384222407e-02,-1.341895962567713624e-02,8.122097658207224832e-03,1.383176207542419434e+00
-5.689373143248274700e-02,-8.178599631397672765e-01,7.745570911060946084e-01,5.152151858671075862e-03,-4.635535540761841211e-03,3.422860139029304354e-03,1.379588842391967773e+00
-4.773238296460562136e-02,-8.341492315248976164e-01,8.035396252716907606e-01,8.683515667668529128e-04,2.167320439984249478e-03,-4.677399446748440812e-03,1.418679714202880859e+00
-4.324648747306383822e-02,-8.367541242036042881e-01,7.836248907176688316e-01,5.686388446414533497e-03,4.089441937248706679e-03,-3.193862234850145410e-03,1.403451919555664062e+00
-3.091378630493839957e-02,-8.273246534697833443e-01,8.016531217192005565e-01,-1.155342183056294429e-02,2.415230538160984073e-03,-9.148709982859165243e-03,1.411089062690734863e+00
-4.599340987921081425e-02,-8.358846671148211227e-01,8.106790953817564205e-01,8.905482347842278573e-03,3.856454072982180240e-03,-1.301067948520481929e-03,1.426457762718200684e+00
-4.621122835595178197e-02,-8.245592609420216990e-01,7.671352157741955224e-01,4.175903765135000403e-03,-1.476340163641424660e-02,-3.299882035144517058e-06,1.378815054893493652e+00
-4.907982783557827966e-02,-8.312555487826793765e-01,8.143677449960927683e-01,3.444150467031761777e-03,4.335801077226102487e-03,3.342619197302597236e-03,1.425774812698364258e+00
2.766934065814199983e-02,-7.807422781294659497e-01,7.739052823513417056e-01,-6.059055916793484702e-03,-5.875247674314263173e-04,-7.489155919901882693e-04,1.346765041351318359e+00
-3.790084888512989386e-02,-8.259973691617775726e-01,7.495532622158097569e-01,1.357975665512544533e-02,3.526504505101747504e-03,-4.863831425153291796e-03,1.364709258079528809e+00
-4.631992734647127907e-02,-8.280026854506703504e-01,7.929037511282021056e-01,5.745615925244324657e-03,3.006599852569825058e-03,7.498655152851466414e-04,1.404086470603942871e+00
-5.346307914184085519e-02,-8.286039917071884586e-01,7.959005825052146710e-01,4.412308761478789948e-03,6.302466635159083373e-04,3.125593145718899915e-03,1.407383203506469727e+00
-7.396048760512879960e-02,-8.329251622823490298e-01,1.004233858361336384e+00,1.644657782047123373e-01,-4.629076539997896422e-02,1.245090072850332970e-02,1.626309394836425781e+00
1.651964471496207218e-02,-7.582441302109993453e-01,7.845482670244768864e-01,5.614535193928870543e-02,7.366326909688682319e-03,-1.355306029287244203e-03,1.339698791503906250e+00
-7.025443570721743441e-03,-8.521692844204660222e-01,9.006635966261122839e-01,1.678361430565497303e-01,-2.262154234571768160e-02,5.955029619094581034e-02,1.549831032752990723e+00
2.221964949321638891e-02,-7.319557700227348196e-01,7.661760635951383458e-01,3.721944265450923689e-02,7.133529137002423727e-03,4.603590309073306297e-03,1.299114108085632324e+00
-5.785378001630696321e-02,-8.241084547242552016e-01,7.736733241427475871e-01,7.919929333843903074e-03,4.665210073652595671e-03,-4.448855859723692234e-03,1.384217500686645508e+00
9.371287511678164095e-03,-8.400246833766268351e-01,8.554965442079658366e-01,1.539304029908990235e-01,1.778140386886081434e-02,3.239254628387606971e-02,1.493745923042297363e+00
-4.479074127207348377e-02,-7.390743699533338651e-01,7.675364229327268362e-01,-3.477358542073167007e-03,2.622555870060245056e-02,-1.887433177784650709e-02,1.307309865951538086e+00
1.924573994402763166e-02,-7.814900117589653750e-01,7.745917775366282232e-01,-3.574863676128222159e-03,6.406274915273325876e-03,-3.947510311848817163e-03,1.347874641418457031e+00
8.241015626621481238e-03,-8.018677668012252902e-01,8.368622079621139687e-01,6.999111782287635586e-02,-6.914700601093275818e-04,1.335741482915017535e-02,1.424568533897399902e+00
3.960098647361105784e-02,-8.184959954500111712e-01,5.352437858077946364e-01,-1.310127059341216829e-02,3.332931550786453340e-02,-1.038013805451372049e-02,1.188054084777832031e+00
-4.234905013328448681e-02,-8.339362244782854150e-01,8.097065129203813161e-01,1.558616237338772631e-03,1.249834986620865533e-03,2.625402324055995350e-03,1.423768877983093262e+00
-4.693084470579041156e-02,-8.379251335274392476e-01,8.165342539406511557e-01,8.427063517752156514e-04,7.656051569324908053e-04,2.111789330250609490e-05,1.433263301849365234e+00
-5.590653376180867995e-02,-8.338602979430079776e-01,8.117520122373521607e-01,-5.472476616397601787e-03,1.241128880226286153e-03,2.273192303917820649e-04,1.425880908966064453e+00
3.211256016164903623e-04,-8.302701545744891609e-01,8.167379257119373737e-01,1.925489478428447920e-02,1.002072273704931018e-03,1.231947788102427015e-03,1.426760911941528320e+00
-3.480769231270026270e-02,-8.234443135630177268e-01,7.148171605248904159e-01,-2.015952119298997786e-02,-1.479193542832594248e-05,2.317623548085176455e-02,1.333378195762634277e+00
-1.955144493444897422e-02,-8.223359151118252441e-01,8.023532927594516639e-01,3.470882374701558196e-03,-6.300713514424507219e-04,4.528395917315601246e-03,1.407089710235595703e+00
-1.311882695984153968e-02,-7.760724937240536248e-01,7.945459275225310591e-01,-2.747421415407229556e-04,-2.054896929218564053e-02,-1.214413497032192611e-02,1.361007332801818848e+00
-3.687034858575506668e-02,-8.285290090689935161e-01,8.007470831655518761e-01,1.930623873419445944e-03,-2.029414538735756311e-03,4.138505834083525126e-03,1.411208152770996094e+00
-4.232981586813286401e-02,-8.333119228653126376e-01,8.110764605781625169e-01,-5.162040543413861336e-04,1.887777993946209993e-04,1.144090911063642881e-03,1.424425840377807617e+00
-4.450042925421139606e-02,-8.345574893917006021e-01,8.119240872750976834e-01,-2.926027284919560049e-03,-1.719330466974210582e-04,4.997525838864408333e-04,1.426290273666381836e+00
-3.717620456628555753e-02,-8.232720351417829319e-01,7.989714719624491090e-01,2.856829983929008113e-03,-1.184239584413646507e-03,-7.598166753626288492e-04,1.405137777328491211e+00
-4.377856985434419590e-02,-8.365100743034816766e-01,8.170502531035905847e-01,-1.674746628553354507e-03,-3.176298654872224299e-03,1.061142012970262179e-03,1.432444691658020020e+00
-2.685498236787713447e-02,-8.018717816923012220e-01,7.999137556365515378e-01,3.648848064457116402e-03,5.059363688927109902e-04,5.885714551723638353e-03,1.387480378150939941e+00
-7.377093132726661451e-02,-8.077030474932213044e-01,8.969506612451905170e-01,1.184289981781783130e-01,4.461034246193384262e-02,-2.010052027307079187e-02,1.497551083564758301e+00
4.353491789575558712e-03,-1.612936215033716092e+00,1.289623743713873782e+00,-1.489152636540617691e-01,3.042170927458405852e-02,-6.138913920329945595e-02,2.535115242004394531e+00
-2.781083092534267914e-02,-8.086308602447598304e-01,7.995517881581702957e-01,1.287613428913171945e-02,-1.813814833371784827e-02,-2.824303643685604614e-03,1.393462777137756348e+00
-1.994298155158335736e-02,-8.124503411170506118e-01,8.012731327002604598e-01,5.794321736890584856e-03,-9.126051907051156882e-04,-1.089076221079778202e-03,1.397637486457824707e+00
-4.434594079388694265e-02,-8.330124890418963979e-01,8.041175902313383306e-01,-5.206203320929859470e-03,-3.225359509083438724e-03,-1.586234549648425250e-03,1.418153762817382812e+00
-4.330749958494291285e-02,-9.982025691183757932e-01,1.055445399094938841e+00,-9.564337491280570924e-02,-3.156122260896025711e-02,1.203830588886311073e-02,1.788614630699157715e+00
-4.058169007437103376e-02,-8.169210404559966721e-01,8.116196004362611349e-01,-4.282736361110506609e-03,-1.525976690256964675e-02,2.930274235593229026e-03,1.411143660545349121e+00
-4.590296753326331136e-02,-8.279119420132327045e-01,8.101369962344854292e-01,-7.482971711362653398e-03,5.986106001879044382e-03,-7.455946526668289463e-03,1.419230699539184570e+00
-4.456958325937358800e-02,-8.362712244488850200e-01,7.995641223996831082e-01,-8.314662691079305334e-03,-5.178060919002747120e-03,-4.341216804013539945e-03,1.417039036750793457e+00
-3.094177953115342938e-02,-8.300141558003945041e-01,8.107808024923686130e-01,5.123675822636722908e-03,4.795339273283879059e-03,1.430352133799736233e-03,1.421184301376342773e+00
-4.979954746466998261e-02,-8.268114982421658210e-01,8.056738745686135017e-01,-6.142608644484424951e-03,-3.182331811219715149e-03,-4.839850605937595814e-03,1.414393663406372070e+00
1.493603770785307816e-01,-1.159619783895214029e+00,5.236371179919461216e-01,8.121418740344180098e-02,3.276598593380798952e-01,1.722751821415592459e-03,1.638692140579223633e+00
6.557035406579694858e-02,-8.086368653024497144e-01,4.570309577592124306e-01,-1.424786931963105147e-03,4.447930235076475759e-03,5.389294877033194014e-02,1.126266479492187500e+00
2.278091061814702112e-02,-8.130966463524756938e-01,5.974085858396707138e-01,1.376703834051898508e-02,-2.902969339155226508e-02,-1.420230921430505784e-02,1.230003476142883301e+00
-2.198401397953540781e-02,-8.286763729499846409e-01,7.232932558092731723e-01,-9.960309430593049587e-03,8.885778141974678968e-03,1.416543116353665907e-02,1.344818472862243652e+00
-3.982617807152959155e-02,-8.339935221968882706e-01,8.078935495338385175e-01,-7.027401108343095957e-04,2.230819068038609240e-03,8.161387449327486224e-04,1.422174453735351562e+00
-4.321507087908205841e-02,-8.352765102672008446e-01,8.167624530720679621e-01,-6.651965329270226671e-03,9.325754592358683273e-03,-2.889247245348035027e-03,1.431256890296936035e+00
-4.287824890017628843e-02,-8.376374264322213881e-01,7.807168792609291419e-01,-5.533157026897334539e-03,-1.589147938473346516e-03,-6.338687568280043649e-03,1.401688575744628906e+00
-4.117107482795759332e-02,-8.305989979490997488e-01,8.058162628046875442e-01,-4.213180325438182334e-04,5.913298573971405986e-03,-3.841807286591566051e-03,1.417522192001342773e+00
-3.025533938263258449e-02,-8.368222579186670451e-01,7.771548748959222763e-01,6.530656004124246218e-04,-5.388165133074848331e-03,-6.282171547405896242e-03,1.397819280624389648e+00
-5.078728000669784082e-02,-8.599079252118739802e-01,6.550901144528861186e-01,-1.311771703290617874e-02,-1.637623213962522695e-01,-4.000431080126323757e-02,1.345306873321533203e+00
-5.491750587691537899e-02,-6.906958166597398918e-01,7.475861912008846533e-01,1.851526462907603565e-03,-7.585739203483076072e-03,-5.613707127479024284e-02,1.252229094505310059e+00
-5.260433576508163206e-02,-8.120373622952108406e-01,8.158893474909536536e-01,-1.295429912595818915e-04,-1.541098156267631074e-02,5.511890945141176452e-03,1.411164879798889160e+00
-6.495558732718414996e-02,-7.572369900896441797e-01,8.092873698544682526e-01,2.194301642026123302e-03,1.789579957277062303e-02,8.968753081701660509e-03,1.360144495964050293e+00
-4.276660058731621139e-02,-8.378256037471937256e-01,7.772781546863444246e-01,-7.424405092217498635e-04,6.556040053573459212e-04,-9.382393502763944348e-03,1.398872137069702148e+00
1.948670048784043041e-02,-8.143832386631165710e-01,4.902273138670280028e-01,1.143072246643309087e-02,-1.731246156685672943e-01,-1.038784091222290026e-02,1.183260083198547363e+00
-1.023093048084376677e-02,-8.065966694941635318e-01,5.989202511035837118e-01,-1.273554269948049510e-02,-5.703035567887731333e-02,-1.507748968770433913e-02,1.225274085998535156e+00
-3.644574751945915680e-02,-8.357741528029550837e-01,7.815853201677096518e-01,9.260554003674367068e-03,2.032055580461528295e-03,-3.309660305560149091e-03,1.400813579559326172e+00
-4.233426088713235225e-02,-8.075980857208682195e-01,6.855857463139064523e-01,-1.077437935769037965e-02,-2.618210039260535776e-02,-1.575296713686161892e-02,1.294486880302429199e+00
-4.932844754086576633e-03,-8.088291612166892408e-01,5.990450917682629273e-01,-1.473566826424411655e-02,-4.473925069532137117e-02,-2.732973803092342627e-02,1.226976513862609863e+00
-9.896839574444413201e-03,-8.338007876865629608e-01,6.190015322796086350e-01,-1.525007431831684225e-03,-3.192175847317665210e-02,-2.569945143228524048e-02,1.263933539390563965e+00
-3.331314002616095338e-02,-6.977996996280640962e-01,6.911115979045161506e-01,1.922881096173747334e-02,2.183604614760274384e-02,6.258529349121531860e-02,1.209129691123962402e+00
1.492620872329167292e-02,-1.369056244264837074e+00,1.004381081292479827e+00,-9.473472536838389857e-02,-3.314587317800903876e-01,1.000848688639020129e-01,2.156475305557250977e+00
-7.459365088995706383e-02,-8.257876817764480126e-01,7.989206024142180285e-01,8.360155002205132968e-03,-3.175404759814183520e-02,1.133346202535130513e-02,1.409651875495910645e+00
-4.070964482532832274e-02,-8.388070389672347416e-01,8.115030235446786255e-01,1.271701715675147481e-03,1.941020970620440907e-03,-1.974623651778451526e-03,1.429476261138916016e+00
-2.211288605429021989e-02,-8.256940122781608604e-01,8.064701701149468160e-01,-1.631188169182898426e-04,7.726362928397817464e-03,2.860642660544859741e-03,1.413622975349426270e+00
-4.788162365516468455e-02,-8.367331431609641434e-01,8.117674031493105069e-01,2.531240770803153215e-03,5.315681354185608845e-03,-2.009386899583276952e-03,1.428122758865356445e+00
-3.614696898628216859e-02,-8.268446021533170098e-01,8.110927617542593726e-01,-2.073676476679651472e-03,-1.961676108483572148e-04,2.976312847531584031e-03,1.418791055679321289e+00
-4.091844945575946052e-02,-8.362207105260827111e-01,8.070058103270757455e-01,1.703674518134177781e-03,1.884475695366548235e-03,-1.730647556275132599e-03,1.423329114913940430e+00
-4.617109202016700387e-02,-8.346512008495006185e-01,8.111541820697434346e-01,-1.103907354290636000e-03,2.495772471826553356e-03,2.407783536946288792e-03,1.425738811492919922e+00
-4.396470876647758097e-02,-8.363084670531703013e-01,8.153883882250110293e-01,2.962203625291505264e-03,2.772624874652427317e-03,8.173123923337503914e-04,1.430821776390075684e+00
2.622746815474223323e-02,-7.726484753902364000e-01,7.727002389784161096e-01,-6.579463409304395737e-03,-1.413990254969242069e-03,8.378135498089806475e-04,1.338619232177734375e+00
-4.213015816086387866e-02,-8.380898801906256912e-01,8.170418148169346084e-01,-3.039227084288911060e-04,-1.210977546626031675e-07,1.307607212893828995e-03,1.433736443519592285e+00
-3.982488528859045446e-02,-8.336874958835477356e-01,8.115928936154592765e-01,4.674723850474462976e-03,1.257273488517185629e-02,1.730772776383481806e-03,1.425337672233581543e+00
2.899021683196049970e-02,-8.912129184405706006e-01,6.017615391979227457e-01,9.062136041947308623e-03,7.216879427414221628e-05,-8.913913758886875260e-02,1.313769578933715820e+00
4.538055426366299772e-02,-7.878262085721885466e-01,4.556897668049002537e-01,-6.577191468681261362e-04,-7.568968075033749750e-03,-4.644627930947169137e-02,1.100501894950866699e+00
1.152373100643261372e-02,-8.344347017876475592e-01,5.589282857266659743e-01,4.565149923208115107e-03,-1.218110977819578389e-01,-1.887469569501987882e-02,1.234513640403747559e+00
4.430303169762508930e-02,-8.052919317864426496e-01,4.982098024895261767e-01,-1.771157251021602055e-02,-5.167671716598294662e-02,5.887600214063738735e-03,1.150015830993652344e+00
5.371281560493115781e-02,-8.048518695841946347e-01,4.909054244341430895e-01,-7.080043562667404262e-04,-4.068897261039172708e-02,-1.317880390652437575e-02,1.144167065620422363e+00
-1.167172658288848086e-03,-7.884668660360365511e-01,5.684526865778543048e-01,-3.206830106666396993e-03,-4.920561417591428482e-02,-1.390314456818457977e-03,1.183245301246643066e+00
-4.686904920804077501e-02,-7.628933215935623791e-01,8.070243414282128880e-01,9.823647689518599790e-04,2.626582479504086659e-02,9.890552927722567542e-03,1.362203717231750488e+00
-5.357331101462681211e-02,-8.336966606156810400e-01,8.093541136743338527e-01,-4.075075795664811649e-05,4.147284741307192060e-03,-5.053397888099021027e-04,1.423544287681579590e+00
-4.270234451335205850e-02,-8.197986938612674690e-01,7.772612414113230228e-01,-9.964479372562933240e-04,9.246835509889708487e-04,-1.833104447648159323e-03,1.383266210556030273e+00
-5.502320447453109414e-02,-8.168278949719268711e-01,8.117448150531704210e-01,4.528745924157940748e-04,1.121159313207046107e-02,1.197390173524729047e-02,1.411647558212280273e+00
-5.988632346681797836e-02,-7.878250373988620048e-01,7.743403129856419875e-01,-5.730723875526264402e-03,9.253666170810477543e-03,3.868852590074393222e-02,1.355706691741943359e+00
-4.405579291859744451e-02,-8.337404293693883028e-01,7.899385616468210802e-01,-9.472102882747641950e-03,2.307568935562284620e-03,3.830403033204838638e-03,1.406438827514648438e+00
-4.204446576245290945e-02,-8.243382105262002657e-01,7.594706346446088441e-01,9.730986478013741933e-03,-4.756625445903842064e-03,-2.421839829914825947e-03,1.371787071228027344e+00
-3.676327832959799813e-02,-8.187210115553313905e-01,7.424341881817965172e-01,-1.182613391325012218e-02,-2.024439270418622230e-03,-1.873044597865814245e-02,1.352549552917480469e+00
-5.103673837495875665e-02,-8.118677737529106375e-01,8.017087709697882092e-01,4.497918139453696909e-03,3.974737611722351481e-03,7.779023608783173539e-03,1.398257374763488770e+00
-4.246992591324204314e-02,-8.372057038252187500e-01,8.170251036605423733e-01,2.184520043989631941e-03,3.149681883403934735e-03,8.708739727313824031e-04,1.432987928390502930e+00
-6.350432516635963476e-02,-8.177100411369635502e-01,7.759424301171495841e-01,-7.691119940808381454e-03,-2.267466427764038006e-02,-1.086613443706262519e-02,1.381552338600158691e+00
-1.119017881051418382e-02,-7.901503286933533321e-01,7.953170609336642771e-01,-7.835509393187712474e-04,1.531608216104443643e-02,4.171576138348818269e-03,1.373399972915649414e+00
4.921978624871752028e-04,-9.319291319842440968e-01,8.711139548954559553e-01,-4.971652341927734753e-02,-3.412100914675250674e-01,2.285349633748171017e-03,1.672089099884033203e+00
-8.777896531893486509e-02,-8.266774829749540254e-01,7.960668330301775564e-01,2.146261162603415110e-03,-5.583890642881004368e-02,-4.071770007817267396e-03,1.410547494888305664e+00
-4.580776195781349064e-02,-8.374913147191648255e-01,8.165058776523466122e-01,4.741656114044895615e-04,2.646357506018932274e-03,-5.096712981126148411e-04,1.432846665382385254e+00
-7.346629975582011363e-02,-9.025406988628603688e-01,8.968330167073251813e-01,-2.582261943674281010e-02,-6.960886896906665067e-02,6.910395310437093949e-04,1.565194368362426758e+00
-1.258320050857382466e-02,-8.019588997888743576e-01,6.026758333390777045e-01,-5.814004688048989532e-03,-8.125461047431908890e-02,-9.692457176267918473e-03,1.227810382843017578e+00
-5.248710548420720129e-02,-8.056463069885840822e-01,6.843167754360702792e-01,8.031448118557859769e-03,-3.110040308683906587e-02,1.590887699872113419e-03,1.291573524475097656e+00
-7.992451702423175597e-02,-8.065626958316898243e-01,7.649523814605176941e-01,4.699684650339573840e-03,-1.512550186196412981e-02,4.297490425615777161e-03,1.362551927566528320e+00
-5.265161701789058263e-02,-8.142870928903407357e-01,8.053306010859866415e-01,1.972439030315409510e-04,9.938227077860739556e-03,-7.094032582003664128e-03,1.403616428375244141e+00
-6.903814336788798023e-02,-7.994045312546438353e-01,7.290947856070078004e-01,-4.602465691921856644e-03,-1.393752547308487952e-02,-2.273199773020491855e-03,1.324402689933776855e+00
-4.617338442322518888e-02,-8.353267514841619112e-01,8.133611096473366553e-01,3.801781965943466009e-03,5.918602704608673729e-03,1.310897596890474217e-03,1.428292989730834961e+00
-4.626700967983839174e-02,-8.352774355166395770e-01,8.159802309508157325e-01,3.734873408694825911e-03,3.972785008186205565e-03,1.821795635579972952e-03,1.430534482002258301e+00
-5.122584337623484196e-02,-7.949580472230187711e-01,6.628023486307759171e-01,5.007528336866999379e-03,-4.020647062130116439e-02,1.543827533643334277e-04,1.264493823051452637e+00
-7.294380773762293435e-02,-8.105715533673456541e-01,7.466036008245969802e-01,5.606075257421097753e-03,-9.150762763823460863e-03,1.562625444496947361e-02,1.349574565887451172e+00
-6.303005808879542926e-02,-8.059996205649795353e-01,7.401796876002677550e-01,8.075354064768372822e-03,-1.161483372135261281e-02,5.428815127615580459e-03,1.339626431465148926e+00
-5.065141882997668821e-02,-8.117031754307277858e-01,8.067919547281385828e-01,5.540230257809814450e-03,-3.522429684264458669e-04,2.491475762153416013e-02,1.403182983398437500e+00
-2.779583559342136551e-02,-8.178110035854521120e-01,7.060763590385518151e-01,-2.168654568734077956e-03,3.214694682195810838e-03,-2.329669313175426401e-02,1.320657372474670410e+00
-4.409523468702578053e-02,-8.370793010996711025e-01,8.147665545188185199e-01,2.944760015787548611e-03,5.254725924279681458e-03,-7.321370653022827874e-04,1.430958271026611328e+00
-6.487417649766916150e-02,-8.242484609137231688e-01,7.899619058560543028e-01,1.595111620377559188e-04,4.632212001849924862e-03,-1.918788205287482156e-03,1.398788809776306152e+00
-4.540165515484411579e-02,-8.135422283188949999e-01,7.777108815336238878e-01,9.983276032941043685e-04,-3.865831460992210679e-03,-1.950318175185576913e-03,1.378361225128173828e+00
-4.914193362143036425e-02,-8.274783273210557510e-01,7.794845566862175223e-01,8.927940492186718993e-03,5.199877227955844623e-03,1.861859537027406482e-03,1.392016649246215820e+00
-3.815436837909405576e-02,-8.244885801643033751e-01,7.985641774336036391e-01,3.595978060863516158e-03,-2.060057226674416337e-03,-2.860991262273236777e-03,1.405857682228088379e+00
-2.495782809081270592e-02,-8.173567490050105411e-01,8.108754485867323281e-01,-2.434911945982085740e-02,-8.906639069328871686e-03,-5.114713043729846031e-03,1.411000251770019531e+00
-3.321994899170545301e-02,-8.245537344118792911e-01,8.073742869645996745e-01,7.236013842110564781e-03,5.262912917106690736e-03,-2.919175184135890978e-03,1.413599729537963867e+00
-2.135892682088434691e-02,-7.999129097293382618e-01,6.829906303693562553e-01,8.863441250198281912e-03,4.717777823342082268e-03,2.529313055866161050e-02,1.285632252693176270e+00
3.547864933121002741e-03,-8.038735882794493248e-01,7.905077353926315276e-01,-2.165853073455489830e-02,-7.495201408186152360e-03,2.637939152798158843e-03,1.381390690803527832e+00
-1.469937271557754561e-02,-8.078673316707578600e-01,7.989650567394566139e-01,6.796190496745741459e-03,9.629705527604692913e-04,-1.261726246987944977e-03,1.391647934913635254e+00
-3.603380470921306589e-02,-8.077707387611740009e-01,8.065978872976531378e-01,-5.024532515326096856e-03,-1.563689508796451202e-02,8.867279044705437749e-03,1.398907184600830078e+00
-4.118035315329790502e-02,-8.170309052549422635e-01,8.068163646030201974e-01,3.256838984384907373e-05,-6.900965130675419494e-03,-3.845041925284037321e-03,1.406822085380554199e+00
-4.053191648036082173e-02,-8.388884246691924451e-01,8.114838077219722612e-01,-1.397718099390007126e-03,-1.898538926877619323e-03,-1.670693357748073574e-03,1.429524779319763184e+00
-1.189199452115613509e-02,-1.030807939921835725e+00,7.627994933553779999e-01,-3.155342511458665566e-02,1.685026045887553503e-01,3.020209357299552186e-03,1.586151242256164551e+00
-7.887876347963693191e-02,-8.245726916502679193e-01,8.273502378745638541e-01,7.617563948383116769e-03,6.715203368735905842e-02,1.271418990236598129e-02,1.437799453735351562e+00
-2.702145998940330002e-02,-8.116696432311436560e-01,7.532846186749017070e-01,-4.215072368897788274e-02,5.360933827941612162e-02,1.104276209487459366e-02,1.360563755035400391e+00
-4.324089857570254797e-02,-8.395918057232933940e-01,7.093966377660362310e-01,1.429291721131382108e-02,7.955439593332250259e-02,-4.068772361436535923e-02,1.350765585899353027e+00
-6.462271607472216961e-03,-8.269868926931713826e-01,6.047063730550324978e-01,1.175086788801426620e-02,9.761302417206799142e-02,-3.503941637371187773e-02,1.257357954978942871e+00
-4.007825947286719481e-02,-8.968490566395712627e-01,8.576955718936511985e-01,-5.708615279562035544e-02,5.843687696220985217e-02,-2.092167957323154415e-02,1.526621937751770020e+00
-4.790237033153570134e-02,-8.275248795327360130e-01,8.063367373412304584e-01,-2.249332423840895261e-03,3.440968861300550824e-03,-4.702331414034203322e-03,1.415498733520507812e+00
-6.155120190466352448e-02,-8.363209880678817987e-01,8.021188149018717573e-01,9.031886229797543445e-04,2.894458314225006618e-03,-1.121107025110074486e-03,1.419637560844421387e+00
-4.920150069672038495e-02,-8.340688861855195535e-01,8.067195693564154224e-01,2.264807913151721096e-03,4.312375400771492617e-03,-4.439385527621964901e-03,1.421454310417175293e+00
-1.178935833696773405e-01,-5.493781268444967170e-01,7.591962718911066110e-01,1.054268059948841874e-01,7.067189143285975729e-03,-7.705241251876002173e-02,1.176954388618469238e+00
-5.959932284726111862e-02,-7.830072441060190735e-01,7.883139806061376653e-01,-2.624756904143505515e-03,1.167021789497357104e-02,-1.930084167368379192e-02,1.362794876098632812e+00
-4.699700779848474397e-02,-8.296254761666677080e-01,8.091071949081554138e-01,-1.512184997438956700e-03,-8.788026050338091115e-04,-3.484010654587857501e-03,1.419675588607788086e+00
-7.794635455636779453e-02,-8.019207014944474965e-01,7.394452145894103712e-01,-5.048324396579401347e-04,1.354888415651296814e-02,1.814021656755746437e-03,1.335889101028442383e+00
-9.148046452099732606e-02,-7.181448682108387827e-01,8.044259816872705304e-01,-4.901596237099007779e-04,2.441028375593764458e-03,-1.877098099851995383e-02,1.325845003128051758e+00
-5.232550129033906872e-02,-8.344800200425691594e-01,8.097215393406937967e-01,3.030607580008529318e-03,4.020986819471569426e-03,-5.651224386682905144e-03,1.424540877342224121e+00
-6.111997965430997909e-02,-8.359384221926335901e-01,8.156030387795923930e-01,4.533323294965108346e-04,7.654426270406185923e-03,-4.049580797692558382e-03,1.431262969970703125e+00
-5.287668955360089185e-02,-8.329644424267665936e-01,8.081310673087319651e-01,1.007912491202936123e-04,1.212447092151702028e-03,-4.212080812359381143e-03,1.421826481819152832e+00
1.015807955728702597e-02,-7.823202020869904905e-01,7.790483307504856292e-01,2.229031204905554571e-04,-1.716194280535252460e-03,2.967957202815006343e-03,1.352249383926391602e+00
-7.926990354271711003e-02,-7.612448146210365474e-01,8.116029738195457144e-01,-9.829391742901389534e-03,7.351442571450876769e-03,-4.132735959935997239e-03,1.366309046745300293e+00
-4.526713644874472142e-02,-8.339998093407035018e-01,8.033917499198127699e-01,-3.872579580152442271e-03,1.133694207000070274e-03,3.339976435456212030e-03,1.418368220329284668e+00
-7.804157327998573201e-02,-6.618016361880250109e-01,7.874246690227517664e-01,-2.281751978903943413e-03,3.223911277047339374e-02,-3.705923292852907058e-02,1.265814423561096191e+00
-2.317164205002555932e-02,-8.256174511408291838e-01,6.728247291488164139e-01,-1.548062490185979877e-02,-3.506897189847126006e-02,-2.644508299194565926e-02,1.301282525062561035e+00
-3.558155473205463354e-02,-6.786157312118984430e-01,6.889675720436716500e-01,1.635617984583724940e-02,-8.134620149201082437e-03,5.512577145731375333e-02,1.189324140548706055e+00
-3.706066082691782809e-02,-8.287582314328743038e-01,7.546868736182983373e-01,-1.711031245240318688e-02,-5.348037365958954042e-03,-1.190661570513502389e-02,1.371810197830200195e+00
2.425938987182062190e-02,-7.871975706444621634e-01,5.307263960438195483e-01,-9.009495487700984809e-03,-1.095661801479667734e-02,1.478247007958131791e-03,1.151762843132019043e+00
-2.465976146062721225e-02,-8.071073450644677960e-01,6.439902125924124032e-01,-1.280000153165440635e-02,-3.404258748643591414e-03,-1.108034743187111953e-02,1.258330345153808594e+00
-5.292829126571051840e-02,-8.341136068033399020e-01,8.061851027797581892e-01,-2.013092044235539890e-03,-2.820607072667516684e-03,-5.207520493441294106e-03,1.421115875244140625e+00
-6.642948549018931614e-02,-8.172982855419429482e-01,7.674561063707326936e-01,6.770003037811806769e-03,-1.270016562491850347e-02,6.862840118442555502e-03,1.373342871665954590e+00
-1.271434753147662397e-02,-7.769073553275340771e-01,8.292268365476547221e-01,6.840347023857845654e-02,-1.797928039542355180e-02,-2.040666529738378865e-02,1.397325158119201660e+00
-4.512722336035682874e-02,-8.078342767884740816e-01,6.747515378285597887e-01,7.924615511326801517e-03,-8.152714142006237119e-02,9.137315466350623069e-03,1.292046070098876953e+00
-8.168188226453089451e-02,-7.914187213400787346e-01,8.195022833490835934e-01,-6.758180131745229226e-03,4.692628230243961062e-04,8.865034711851838695e-03,1.398512125015258789e+00
-4.705354830364520680e-02,-8.186068394238603663e-01,6.643495768363553156e-01,2.842701291723216325e-03,-9.112000280178396416e-02,8.685457472288446792e-03,1.294385313987731934e+00
-1.747192200950332258e-02,-4.027210184349884758e-01,4.413093346194730260e-01,1.543300844915671266e-01,-1.551366443612232360e-01,3.547473133403768880e-02,8.264822959899902344e-01
-5.911355993221058258e-02,-8.411993723912344345e-01,8.761644146849140169e-01,-4.071493752276431760e-02,-6.612762327312066146e-02,3.059031560895732194e-02,1.496251940727233887e+00
-8.163298936638753445e-02,-8.110266986981700121e-01,7.818209073611009918e-01,7.680983333867543589e-03,-1.675511458865615311e-02,1.094016804876844946e-02,1.381572961807250977e+00
-5.767130666298921071e-02,-8.221381509384959596e-01,7.884487585238497687e-01,1.025009829080830541e-02,-5.219429942728746885e-03,4.378205991410246897e-03,1.395569324493408203e+00
-4.422853255582061965e-02,-8.221066437420285755e-01,7.730069586142550575e-01,3.623364101166739494e-03,7.641094033942179981e-03,-7.170489341964309676e-03,1.381682515144348145e+00
-8.404660641638832252e-02,-8.140707138424476685e-01,7.926866262877400038e-01,-9.780259511902554548e-04,-1.166968688795918911e-02,-2.067222136954661657e-03,1.393577098846435547e+00
-1.126945574438108916e-02,-8.106764957502662350e-01,6.562689843233008302e-01,-6.686436270815317683e-03,1.010796362458287467e-01,4.476007975861337473e-02,1.286502957344055176e+00
-5.604715100359828478e-02,-8.222762964543571806e-01,8.051473815968192005e-01,2.233771808233388592e-04,6.325885377683461604e-03,-1.508306222573857405e-03,1.410234928131103516e+00
1.116559530729404129e-02,-7.281780473447498903e-01,7.624571101993682376e-01,2.300485307214691303e-03,-3.711400051574611884e-03,-2.613319248647607510e-03,1.290971875190734863e+00
-1.277645863416383351e-02,-7.109299679986504916e-01,7.696199052522354478e-01,2.137155020738352312e-02,-1.963114188857861472e-02,4.613637722551333295e-03,1.283894658088684082e+00
-3.218177114236976666e-02,-8.103449798933108905e-01,6.913229830618808913e-01,-1.313458926813031689e-02,3.245970503804169755e-03,-4.289015480708466277e-03,1.301002025604248047e+00
1.941493652764147981e-02,-7.792524618814528070e-01,7.751944722075926331e-01,4.206301951020057807e-03,-5.884968821786748863e-03,2.798398395764685031e-03,1.346428394317626953e+00
9.872464957650740891e-03,-6.468395032347020734e-01,7.475625848687099673e-01,4.067398331307613829e-02,-2.200531716012884328e-03,-1.238191773125891680e-03,1.210326194763183594e+00
2.001969766916241247e-02,-7.387255360681508343e-01,7.854480620806434388e-01,4.097438819607439331e-02,-1.734978167674266700e-02,-1.756188134290532360e-02,1.322575211524963379e+00
-3.752560353698104062e-02,-8.060143152651231269e-01,7.960657429341484459e-01,5.703554351623541484e-03,1.176276614199091818e-02,1.795699672069201239e-02,1.388356924057006836e+00
-6.842189609916272952e-02,-7.784480133962969894e-01,9.927189954978996589e-01,2.978652805272604120e-01,6.658230886360312628e-03,-3.014100044294242692e-02,1.628687977790832520e+00
-4.391339111844690113e-02,-8.369213816959946151e-01,8.149978876020594898e-01,-2.384202938641247823e-03,-3.465784300136413951e-03,2.018618310432745283e-03,1.431006312370300293e+00
-4.676288328119450333e-02,-8.385278677489920174e-01,8.136185676281456614e-01,-3.209491344262533925e-03,-6.292476695040296122e-03,-1.843600643414989399e-03,1.431267857551574707e+00
-5.240712365326358202e-02,-8.174275706438876021e-01,7.742145292919163646e-01,-4.428621080086994101e-03,3.333091659919037650e-03,2.059659502974478616e-03,1.378784656524658203e+00
-4.181824771549446512e-02,-8.304169663918690159e-01,8.096168534358492153e-01,-2.495897393137845073e-05,8.877966384663812244e-03,4.223488483853915336e-03,1.420760512351989746e+00
-5.266864257224426749e-02,-8.174909128130600777e-01,7.704373980864547278e-01,-4.564281115996942848e-03,-9.671104474068606665e-04,2.015999625156382914e-03,1.375523209571838379e+00
2.213477745682582501e-02,-7.743070263092923788e-01,7.686027254515886975e-01,1.861427810250076975e-02,-3.905579357191507443e-03,-1.453684807145642216e-03,1.336840987205505371e+00
1.832798037370911640e-02,-7.769457201814433667e-01,7.806495467933189936e-01,4.266528280845501703e-03,-5.642026102557774411e-03,-2.119897942635169067e-03,1.349078297615051270e+00
-5.720105059240216533e-03,-7.904012580510179076e-01,7.933795606429863145e-01,-1.091446451037578419e-03,-9.611431081750214378e-03,-1.088330864434971720e-02,1.371845245361328125e+00
-4.958655747337949865e-02,-8.249454297393877811e-01,8.040050345008951105e-01,4.778991882789151470e-03,3.944354279508269570e-03,-5.175941500756230627e-03,1.411324024200439453e+00
-5.266414759433064863e-02,-8.284419881224845961e-01,7.990061906946798187e-01,-3.837152777791635275e-03,2.309927518746599743e-03,4.169896674083355299e-03,1.409962058067321777e+00
-4.691575369287531022e-03,-8.124035357367456189e-01,7.963029140194293198e-01,-1.727850729354522700e-03,-8.203468971411160063e-03,-6.845982440743441982e-04,1.393260836601257324e+00
-4.033772741965375302e-02,-8.205952716431060834e-01,7.398962285748232892e-01,-1.497942077565122751e-02,-2.315239521288487822e-03,-8.322840413736789372e-03,1.351757168769836426e+00
-4.757892600600624466e-02,-8.169649365489725090e-01,8.155164278487904150e-01,-3.579284441963925378e-03,-1.642715444492093974e-02,8.231297630418922193e-03,1.414918065071105957e+00
-2.024288497744668874e-02,-8.271599644406538721e-01,8.068927013312038321e-01,-6.694799375078002920e-04,-5.970081939296872399e-03,3.047548941303656299e-03,1.415215373039245605e+00
5.537846221341524884e-03,-7.815541866669530879e-01,7.799022362451496493e-01,1.136918933472908996e-02,-1.565250735939271998e-02,-4.227993436141919115e-04,1.352691173553466797e+00
1.108754969570781984e-02,-7.829850818716428407e-01,7.825910585910330619e-01,9.290075323821249398e-03,-7.126385738100695852e-04,-2.324274459248692765e-03,1.355977654457092285e+00
-3.591104826857305365e-02,-8.280855690334745223e-01,8.054562173322080687e-01,1.069893111694844058e-03,-2.900300487234556491e-04,2.822273592933996749e-03,1.414912223815917969e+00
-4.911384485629356755e-02,-8.317764696871101648e-01,7.887714860453689525e-01,-9.500810399242751864e-03,-1.327505995695050806e-03,5.958371889490150439e-03,1.403843522071838379e+00
-3.657549882641469852e-02,-8.380831773286652187e-01,8.132758273102316249e-01,2.013737381911359019e-04,-2.585789422854943564e-03,9.433442892528984746e-04,1.430331110954284668e+00
-3.655762741711383185e-02,-8.307011757264795015e-01,8.109336714020465298e-01,1.514412595684660155e-03,-1.094387649047256095e-03,2.286664318875401174e-04,1.421951413154602051e+00
-3.654637470906658969e-02,-8.227355254674874052e-01,8.049293968452354564e-01,1.538683965859070912e-02,2.482991064851472474e-02,4.134975857406055812e-03,1.410795927047729492e+00
5.738616917036983012e-03,-7.404282696070331182e-01,7.865841633433831026e-01,4.101039976150200328e-02,-1.849748646117452960e-02,-1.351014640000877849e-02,1.325045466423034668e+00
-2.352682789068961944e-02,-9.530189653504105296e-01,7.504506662197758526e-01,2.807835712309523710e-03,2.372381919288364949e-01,7.243545314522574496e-02,1.538509964942932129e+00
-6.495460369494250596e-02,-7.951635338488839411e-01,8.168296793962905866e-01,-3.058555117705393303e-03,-1.282721601613371828e-02,1.222575864132159802e-02,1.398429632186889648e+00
8.501598689198794356e-03,-8.438801734189862458e-01,5.733493196978836082e-01,6.959150341945184726e-02,1.260525748515507471e-01,-5.667824963265391536e-02,1.264479160308837891e+00
-2.139155954320764996e-02,-8.292928279343798614e-01,8.083252335980437575e-01,2.085106801475116074e-03,-8.668005418302999338e-03,2.197931568883398478e-03,1.418349981307983398e+00
-4.875925537068888371e-02,-8.242071904035795926e-01,8.020089509404628725e-01,-1.488831862282461067e-03,3.523359364556552260e-03,8.586932085851267313e-03,1.408941984176635742e+00
-4.558416619244474999e-02,-8.386479192701984386e-01,7.967707728045351212e-01,-1.132489867001936629e-02,-5.061651447246120691e-03,-2.848325674022833282e-03,1.416700124740600586e+00
-3.347362369772414331e-02,-8.236603036914208475e-01,7.409838638381822662e-01,-1.264002445626045620e-02,1.073480858445781394e-02,2.650572447460574493e-02,1.356126070022583008e+00
5.675766265336557037e-03,-7.580274336999677232e-01,5.319355059431606358e-01,7.139743595533792897e-02,1.155349747903258173e-01,-4.451388027671037556e-02,1.150382757186889648e+00
-4.038179682401268900e-02,-8.366307313018497283e-01,8.139685129651648143e-01,-3.108948200701294393e-03,-5.573746846326874983e-03,2.012744687361041254e-03,1.429803013801574707e+00
-2.995435641688969780e-02,-6.961988449000288126e-01,7.733945079062298777e-01,-3.965575453477266851e-03,2.379553546857093513e-02,8.092945339660768955e-03,1.275311827659606934e+00
3.087778761514583387e-03,-7.380896123866772518e-01,6.584672443176681211e-01,1.980095835475050026e-01,2.809174089455757639e-01,5.094124116180274303e-02,1.351580858230590820e+00
-2.841789678775971315e-02,-7.915237655054763177e-01,8.031130763044714849e-01,3.324899925750575240e-03,2.339192193258950517e-02,5.085196159092423424e-03,1.382053852081298828e+00
-6.351456105714126110e-02,-7.986829268060898768e-01,7.144658718318172008e-01,5.395958361151051083e-03,-4.381191148764716249e-03,-4.269365143518125995e-04,1.310655593872070312e+00
-3.965455820148883204e-02,-8.179926787364774077e-01,8.124114309613750251e-01,2.303409620647986749e-03,1.549240613436463597e-02,4.424127786750201366e-03,1.412733793258666992e+00
-8.073024607752221637e-02,-8.003953263170194843e-01,7.533093857554329364e-01,1.374465897556160215e-05,-1.492483188040640582e-04,-1.377788822582105962e-03,1.346764564514160156e+00
-6.440976728656398753e-02,-8.169303457250013389e-01,7.764993083171783939e-01,5.927499687915381912e-03,2.760944734614864367e-04,5.543211942542428800e-03,1.380729675292968750e+00
-6.189528837137253658e-02,-8.059715108199266842e-01,7.370885308128428681e-01,7.299582320746750112e-03,-3.624637579118451802e-02,7.065774917916906039e-03,1.338200449943542480e+00
-6.467633529976432594e-02,-8.169503914414630863e-01,7.803220944161897155e-01,5.277122332694975278e-03,-2.409603738258630189e-03,6.198169957639087721e-03,1.384133338928222656e+00
-1.149683742079586624e-02,-8.333817027619285778e-01,7.572147308046827119e-01,-1.206177558434623209e-01,-1.132758647815381020e-01,-2.381180807764276056e-02,1.407851457595825195e+00
-3.954557964843745388e-02,-8.083990377560901219e-01,6.730318106723138794e-01,1.511594026521921076e-02,-2.241938222312586659e-02,1.786172672913568377e-02,1.284492254257202148e+00
-8.671958294278735158e-02,-8.150065115137884453e-01,7.920311883295373390e-01,6.973399898076872551e-04,9.904624597662677055e-03,-4.794486213407098997e-03,1.393898248672485352e+00
-4.345330337614107530e-02,-8.472458181326596449e-01,7.805661845842595259e-01,-1.650885797667348692e-02,6.403440869532346646e-02,-1.816055073557129931e-02,1.414757728576660156e+00
-7.223666293212274714e-02,-8.132631478902293543e-01,7.975002014931922290e-01,1.042070001703432726e-03,1.408440352208661928e-02,-1.816497995968098175e-03,1.396663427352905273e+00
-5.948264767144539195e-02,-8.031739620617487363e-01,7.165175776791659068e-01,1.282333319425375991e-02,4.471371092917546253e-02,-4.818402312950415315e-04,1.318654537200927734e+00
-4.075025387074351219e-02,-8.356865984915449186e-01,7.769397453894992811e-01,-2.509513154622971653e-03,3.382790379278915994e-04,-6.073421528520005393e-03,1.396668195724487305e+00
-6.143540805791015968e-02,-7.927398839608186254e-01,8.144518256130991452e-01,-2.669060071253637548e-03,-1.163446019577489207e-03,8.143059683048139985e-03,1.393825411796569824e+00
-6.757011757088536574e-02,-8.137593143403967222e-01,7.768919587826075279e-01,7.949198878277528163e-03,1.678339590084999486e-02,-9.322611650902257185e-03,1.378890275955200195e+00
-4.589133098174211223e-02,-8.278903698355472018e-01,7.979451963203240128e-01,1.372954172164853048e-02,8.489580337308179694e-03,1.638777974520371633e-02,1.408917784690856934e+00
4.882667682959251909e-03,-8.313295290671637305e-01,6.774076040135481591e-01,1.002552437776875124e-02,1.281328952225354537e-03,-1.294083514352752616e-02,1.309474349021911621e+00
-7.941385925683772107e-02,-8.145944534493282374e-01,7.799387104247135216e-01,6.368375145411550760e-03,1.366698215044671351e-02,-9.987041181281203911e-03,1.382656097412109375e+00
-8.353128802900904037e-02,-7.945029311944968864e-01,8.212388048963573661e-01,-2.681863471924438372e-03,1.163334742264011783e-02,8.182081692310230747e-03,1.402848482131958008e+00
-2.555656950791806298e-02,-8.269466971235654995e-01,6.620281377082831709e-01,1.380644705579126864e-02,6.563317370303803355e-02,8.395222027381625540e-03,1.296043515205383301e+00
-6.327959990863656070e-02,-8.074453388468210147e-01,7.501010397164203924e-01,7.113033878487222579e-03,1.864030441433736640e-02,-1.355033513708008052e-03,1.349763035774230957e+00
2.709820696288149991e-02,-7.423561390506129287e-01,7.622734725617342777e-01,-2.240565170924783273e-02,1.371182506125806066e-03,-6.224265621695066180e-04,1.303740501403808594e+00
-6.312763951170627386e-02,-7.899337755462665367e-01,8.152304347793963846e-01,-2.156381009583304819e-03,-1.127063454164279645e-02,8.551366302632356156e-03,1.392397403717041016e+00
-1.284319410771613823e-01,-5.709776729882511948e-01,1.228906470959090003e+00,2.116289722432802833e-01,1.641462293918869997e-01,4.060591924294989184e-03,1.689420223236083984e+00
-8.620661169130028334e-02,-6.891319785584998359e-01,8.090937098542915207e-01,-1.192567347035029682e-03,1.452475232794763664e-03,1.614128567298662303e-02,1.306014180183410645e+00
-7.327373510289417191e-02,-8.165266729927809219e-01,7.849081825090548081e-01,3.293973083640497259e-03,8.334890851058261371e-03,-3.436742210493086945e-03,1.388172864913940430e+00
-4.709723302006346701e-02,-7.771441089046521311e-01,8.024755306953156309e-01,1.638867530121676985e-04,-2.059211641620143501e-02,-1.011300366603768569e-02,1.369871973991394043e+00
-2.812859559970982137e-01,-8.586270033585287065e-01,1.510225836261932519e+00,4.123778470848877831e-01,-7.828193612774132781e-02,3.004019690373425228e-02,2.260178804397583008e+00
-4.156759381071457871e-02,-8.280386831908330691e-01,8.061995536600701229e-01,2.988417616767207667e-04,-7.667342856335014785e-03,-1.737338181456961382e-03,1.415689229965209961e+00
-2.062942369209340432e-02,-8.150842958454359577e-01,8.012162094083029595e-01,6.143475850561307171e-04,-6.461355692168011498e-03,1.647801342948714953e-03,1.399872303009033203e+00
-1.665368323477425111e-02,-8.097732435525680783e-01,8.002223234031725640e-01,1.526428176785069686e-03,-6.734694684230661983e-03,-1.971063739778997504e-03,1.394403100013732910e+00
-6.575112326880382108e-02,-7.206468916808658198e-01,8.003911748389990199e-01,-9.518765688135403689e-04,-2.715592821822248454e-02,1.195812383849243973e-02,1.322485566139221191e+00
2.807053148479964413e-02,-7.742306620826382435e-01,7.673373711777362605e-01,3.512916961522795020e-03,-2.583176655766407717e-04,1.919939837489367525e-04,1.335422992706298828e+00
-5.009839266015038428e-02,-8.261909616371511111e-01,8.085273058546692537e-01,5.591516761529679528e-04,-4.552220450924041213e-03,-4.329322800950724179e-03,1.416350960731506348e+00
-3.443304981254229069e-02,-8.192556069978452760e-01,7.190175100952987952e-01,-6.605267965257982654e-03,-1.329077238694399818e-04,1.738155252440386905e-02,1.332665205001831055e+00
-2.550360239183383643e-02,-8.201587757796234834e-01,7.171067581944082781e-01,-6.781774316555067711e-03,-2.743351455075737286e-03,1.802846770130061768e-02,1.331991672515869141e+00
-5.850608031850462742e-02,-8.053618484916036380e-01,7.998386615033132863e-01,1.504834822119775284e-03,-1.299894308659869761e-02,-7.774572111227236182e-03,1.391511440277099609e+00
-7.394041245466903556e-02,-8.855018303174463368e-01,9.213440298250958893e-01,-1.069824740709516241e-02,-7.004349969295832826e-03,-8.138014684030045118e-03,1.567688345909118652e+00
-1.600055870517267873e-02,-8.210657741139838484e-01,8.005041282127536295e-01,-1.948634775143261296e-03,-5.591091661720431561e-04,-1.085707854087648253e-03,1.404338002204895020e+00
-5.625518675308860406e-03,-8.134320476503503761e-01,6.018401929914988235e-01,-8.899860375470905124e-03,4.175527467930022912e-02,3.047354417050497644e-02,1.233099699020385742e+00
-4.890872065394927248e-02,-8.234100872391793002e-01,8.079818781277046114e-01,-1.734116686416752604e-03,-8.413069399696370201e-03,-1.895806178364810703e-04,1.413505673408508301e+00
-7.952696250742237460e-02,-7.216387576175412599e-01,8.084984350594747182e-01,-2.404518802741949755e-03,-2.237500512504779493e-02,1.138719409842910320e-02,1.331546664237976074e+00
9.394493740789228164e-02,-7.705852698451567395e-01,2.704471201794301227e-01,1.406580773580949628e-01,-2.177190704249696851e-01,9.303251189365838170e-02,1.076420426368713379e+00
-3.569560074145164408e-02,-8.296312528551710308e-01,7.521866168669411046e-01,-9.361327704663911439e-03,7.286567232169629312e-04,7.418027616894258547e-03,1.370054602622985840e+00
-3.368134261893258874e-02,-8.278405196059673843e-01,8.074248024241367228e-01,-1.659288032509894327e-04,3.054366676228839617e-03,1.461902271159489343e-03,1.416388034820556641e+00
-5.164406837694668351e-02,-8.055531570562020072e-01,8.136170094780484918e-01,6.438142784938152667e-03,-1.170665901294878040e-02,1.030856216876798251e-02,1.403651714324951172e+00
-3.011642109628545269e-02,-7.780436763209663820e-01,7.997715388986099683e-01,1.066491097971757410e-02,-1.999617961530093108e-02,9.668458342875095937e-03,1.367708444595336914e+00
-6.316536319431090285e-02,-8.042534759680478595e-01,7.294842507033600931e-01,1.071379060603344299e-02,1.957841526976795954e-04,1.177825161651241837e-03,1.328637242317199707e+00
-5.335425544783335694e-02,-7.563198072891054169e-01,7.997606619485938539e-01,1.817232029504832827e-02,-2.061355604243793327e-02,-1.045819337531542215e-02,1.350655198097229004e+00
-7.092287497725068002e-02,-6.315551880976532084e-01,7.977535308941317016e-01,7.634042004769892031e-02,-1.677010766712148590e-02,-3.059464984216474920e-02,1.255806803703308105e+00
4.700323327457994922e-03,-7.400311963522238079e-01,7.697319269754119286e-01,-2.932745525711835666e-03,1.269502719300803946e-02,-7.476000162871123712e-03,1.307791471481323242e+00
-7.926366615498771535e-05,-8.051484179548263898e-01,8.101887610348601498e-01,8.251489403127681282e-03,-3.853614304313256449e-03,-1.490194865369717315e-03,1.399016737937927246e+00
-8.136894287713584278e-03,-8.408640176345647532e-01,8.509236907462804922e-01,2.349353994508036544e-02,-8.589887026620782878e-03,-1.497827749242512489e-02,1.466060280799865723e+00
8.102020347251749632e-03,-9.617084810447490417e-01,8.609343519031406045e-01,1.457909147653810022e-01,3.819052872593587528e-02,2.419044465674164562e-02,1.601510882377624512e+00
-1.025681237660996080e-02,-8.019432339219372263e-01,7.966300203239591315e-01,-2.781029327690662765e-03,1.689771474038858582e-03,-4.257588885366005854e-03,1.384456992149353027e+00
1.837626162162680002e-02,-7.405141784939293093e-01,7.735314989609348713e-01,-4.048507117290938567e-02,8.294204010968407939e-03,-4.942314770228365604e-05,1.313155651092529297e+00
-6.318547459011004952e-02,-8.507655905119658746e-01,8.610111982252377505e-01,3.377240683997861058e-03,3.246609546900715293e-02,2.585544493226418425e-03,1.485098361968994141e+00
-8.641127747813137638e-02,-4.839326940402083332e-01,7.302853783951553934e-01,-1.131385586718927465e-02,-8.899528800360254066e-03,-7.320412328347018077e-03,1.072591900825500488e+00
-3.734663778550077751e-02,-9.785409298332998773e-01,8.924967532866110442e-01,3.283839689132282691e-02,5.480993391780957652e-02,-9.423401648846347831e-03,1.624232888221740723e+00
-4.453688861093087897e-02,-8.503345812875391374e-01,8.511451705423754843e-01,1.086728610364054784e-03,-3.083212889501943561e-03,-2.865220195348324242e-03,1.474229097366333008e+00
-1.166694120758705704e-02,-8.275535150562199904e-01,8.203941332875757109e-01,3.899594800512983742e-03,-3.153751104275409698e-03,7.860634355671275442e-04,1.427214503288269043e+00
-3.204665282093110273e-02,-8.380746876564700854e-01,8.119579499064873973e-01,-1.680498402177691211e-02,-2.469872552838870902e-02,1.196979356705172269e-02,1.430183053016662598e+00
2.419324400812954828e-02,-7.841080859534919067e-01,7.754038946452305181e-01,-2.022751631610136477e-02,-8.117116301293497704e-03,5.931638491132429602e-05,1.351405978202819824e+00
-6.638559949190482590e-02,-7.285247527011169399e-01,8.107621619995886153e-01,-8.481455462451694500e-04,1.757103374660066997e-02,1.070479336410987310e-02,1.337864875793457031e+00
1.059458330126295325e-02,-7.842061535510045367e-01,7.796266281185523228e-01,1.119628193996578466e-03,-1.338042035509140340e-03,-3.279943049505172105e-03,1.354395508766174316e+00
-7.615683943729951999e-02,-5.961376507840977501e-01,7.700180078093410430e-01,-2.120613672515187995e-02,1.691754543415938811e-02,-4.677775459539004754e-02,1.197981119155883789e+00
1.208004429212538276e-02,-7.976278204607828437e-01,7.850962436940626121e-01,-7.094735008646007972e-03,-7.534356750477795009e-04,1.515312593762696992e-03,1.370860219001770020e+00
-2.759367340773237823e-02,-8.215200051629584221e-01,8.077673479341139773e-01,1.861411649574020973e-03,8.868933052119993068e-03,4.117852276988790382e-03,1.411261677742004395e+00
5.289687276932486526e-02,-1.077859442902935561e+00,4.081141178809963854e-01,1.132052841174152093e-02,-2.534989899724317958e-02,-1.446057888246935208e-01,1.368027091026306152e+00
1.119523938336221616e-02,-7.921434371717430700e-01,7.957552835893593191e-01,-6.537477308492809294e-03,4.204899299312482575e-03,-1.174398178269962702e-03,1.375260114669799805e+00
9.310992511416725514e-03,-7.970503014745033976e-01,7.996236398001824730e-01,-9.875301137991451123e-03,-1.235336175271342478e-02,1.388761452851479221e-02,1.383263945579528809e+00
5.971560725218818914e-03,-7.551434771319902595e-01,7.745033595358600254e-01,-1.384538418833569998e-02,-1.576981581921504255e-02,9.290010138899061978e-03,1.325314402580261230e+00
-1.388291036895042060e-02,-8.095477700592756953e-01,7.989128156621465582e-01,-1.517521576559810936e-03,-6.448053362798892955e-03,-2.835669151712602847e-03,1.393049955368041992e+00
1.046827548067927847e-02,-8.023857359701227487e-01,7.864548618257963808e-01,-1.299128540586082280e-03,-1.917579970483536183e-03,4.339229993186834861e-03,1.376126170158386230e+00
-4.763441070054076631e-02,-4.975203518387664170e-01,5.160446979728556816e-01,-5.679209862288157711e-03,-4.179057489154443944e-02,2.699863622701339366e-02,8.838810324668884277e-01
-8.354650859634046856e-02,-6.853715361997807509e-01,8.021425518039455582e-01,-5.140974413067641267e-03,-1.732333101835713610e-02,1.955603778059440342e-02,1.296840429306030273e+00
-4.564540493911657670e-02,-8.267175335348806442e-01,7.892084478644034728e-01,1.327086071180782079e-03,1.924244033712526995e-03,9.455953314183505182e-03,1.399792909622192383e+00
-8.813981227306887101e-02,-6.100837846713598189e-01,7.766080127422069213e-01,-4.385716753482883645e-02,2.552993076635126993e-02,-1.905614980008092652e-02,1.216708421707153320e+00
-2.098508131691525017e-02,-8.327359149872186617e-01,7.004185020506714654e-01,1.010712443910407460e-02,1.028805445840663501e-04,-1.263269529464188315e-02,1.328814387321472168e+00
-5.288461373129956650e-02,-8.107193999822963626e-01,8.048265900252756788e-01,-7.167015195523810788e-04,4.010757018571436266e-03,-1.370834376483121182e-02,1.400213956832885742e+00
-1.198987562909347299e-01,-6.880184732782582691e-01,8.172312207655514360e-01,-3.435554674581663592e-04,-7.165439937786307169e-05,2.059379849585470795e-02,1.317060112953186035e+00
-1.535634515474130213e-01,-4.119452311886931395e-01,7.384451811475732930e-01,-7.231858350167624794e-03,4.742297727792178438e-03,-4.510322727595558550e-04,1.045535445213317871e+00
-7.677410400076145613e-02,-7.376668241206767451e-01,8.055637827622594838e-01,-1.779298354070758120e-02,1.473270198638398053e-02,-2.831748173427186058e-02,1.342548489570617676e+00
-3.667745679865209302e-02,-8.281907658636200598e-01,7.469692838591917017e-01,1.266782021913532598e-02,-4.222507278522071202e-03,1.762125506015641344e-02,1.364671707153320312e+00
1.282915571721509815e-02,-8.132771243350844781e-01,8.156473346133592539e-01,2.088938352882222307e-02,3.213946092034260932e-03,6.494972513970792907e-03,1.411257743835449219e+00
2.940700037615239654e-02,-7.800628560695569425e-01,7.673684432296176139e-01,8.237119427520258122e-03,1.724981560200306930e-03,-3.011249828281428384e-03,1.340681076049804688e+00
-4.555018540212892042e-02,-8.343479137806506518e-01,7.954792790699519722e-01,4.843084903387585329e-03,3.601280816166896760e-03,1.125954799450571038e-02,1.411886692047119141e+00
-4.496074067473497526e-02,-5.440042594540139831e-01,7.406648783237277378e-01,-6.926131597977031040e-02,-6.864059341199006160e-03,4.465630599874863271e-03,1.128231406211853027e+00
-1.480935676774699783e-01,-3.468024929566876913e-01,7.116990598838116577e-01,4.748494817680515116e-03,-7.595557091415452641e-03,2.143329429723943302e-03,9.745930433273315430e-01
1.542301472820875596e-03,-6.865195767103627889e-01,7.625215301539868262e-01,2.725169363630922104e-02,-1.466279153171268571e-02,-5.052611685102489751e-03,1.256610035896301270e+00
-4.361760806023451398e-02,-8.362018394189043580e-01,7.905218634461138594e-01,1.083638714230107832e-02,1.019814393710152768e-03,-5.049539871066871868e-03,1.409090518951416016e+00
-7.826709151633307049e-02,-8.479473271952158164e-01,8.240804267450839715e-01,-5.124322682743928832e-03,5.435273488079978357e-03,-6.481320302540509622e-03,1.449638247489929199e+00
-3.197060530297687886e-02,-8.145419542723496553e-01,7.366916260545445239e-01,3.410234378500876656e-02,7.589804209883518893e-02,4.003860151195572092e-02,1.352912545204162598e+00
-7.618535084985597616e-02,-9.203496730443383456e-01,9.192007776123769514e-01,-4.971832009012947320e-04,6.251884840552647538e-02,-8.417040365904016053e-03,1.598629236221313477e+00
-1.964447870047768621e-02,-8.131181612145486071e-01,8.003139670545234008e-01,1.478190654891985796e-03,-5.798561124145939875e-03,1.671244335494281505e-04,1.397374391555786133e+00
-1.786597766831173884e-01,-1.197135881244217437e+00,1.538573241097951128e+00,2.990303061521861760e-01,1.341400182210433778e-01,4.995476601044878534e-02,2.462695360183715820e+00
-1.244556111047645519e-02,-8.099619143853453718e-01,8.017179499664838227e-01,3.274927882160669993e-03,-2.511471241306406296e-02,5.097239615090910433e-03,1.396497607231140137e+00
-5.751601289591820598e-02,-8.656005047155205245e-01,8.923798640903267687e-01,3.018699287039821461e-02,4.952365317490824148e-02,9.865472190418155549e-06,1.527413010597229004e+00
8.411208314705556632e-03,-8.213970785543367459e-01,5.416536853238874683e-01,-1.312078580258389457e-02,5.754607897102145125e-02,-6.133321876750589402e-03,1.194144964218139648e+00
2.270699863639706259e-02,-7.657517985609469946e-01,7.689367321663808097e-01,1.555196638365864172e-02,1.125604839504835974e-02,9.446120921197150369e-03,1.329763412475585938e+00
1.945397177612346457e-02,-7.815785332851681311e-01,7.756279081171975065e-01,3.677162316338649598e-03,-8.315957376098085524e-03,-1.899662630329818384e-03,1.348862767219543457e+00
-4.745097032005484577e-02,-8.549470561638510269e-01,8.476093771077600758e-01,3.596763784213870274e-02,5.090341067199209701e-02,-4.408019478715124832e-03,1.479071855545043945e+00
-5.476469973375003991e-02,-8.338671012828754447e-01,8.472621705475572584e-01,3.089293943360891474e-03,6.546695502890885997e-03,1.573348255107470109e-03,1.457253932952880859e+00
-7.191156600369928709e-02,-8.435875356367342759e-01,8.490443818541052456e-01,-1.096495530792201967e-02,2.113092077829820808e-02,1.526688409821553086e-02,1.468578457832336426e+00
-7.185216048577426629e-02,-8.127058890054726925e-01,7.709362810542569333e-01,1.272612404857004697e-03,1.064022662029187084e-02,-5.938504897398761036e-03,1.372585058212280273e+00
-4.650705939293403590e-02,-8.331496888152685187e-01,7.853285316351963363e-01,1.083705325502649919e-02,-2.470816418199450575e-03,-5.480177179226697858e-03,1.401989698410034180e+00
-4.907589726647838130e-02,-8.227205055290002234e-01,7.601072755066679010e-01,9.597078942133779184e-03,6.315128896887324539e-03,-8.937586677329209181e-03,1.371116042137145996e+00
-4.256683873707601206e-04,-7.861037101373739011e-01,7.842975037255669468e-01,6.270969938545694440e-04,1.293210605588836909e-02,2.761207371476381237e-03,1.360200762748718262e+00
-6.290832230071173592e-02,-8.064103743137718272e-01,7.303592445282183210e-01,1.067257033219456974e-02,1.038199458690269861e-03,-6.613043806316868181e-03,1.331292986869812012e+00
-6.164267674238319006e-02,-8.198179350957185418e-01,7.751780634871138220e-01,5.782049868608797778e-03,8.950902737345540908e-04,-1.001051152145351376e-02,1.382012605667114258e+00
-4.769814719741752307e-02,-8.055599944102158627e-01,6.992695880974140188e-01,7.836256209431161426e-03,1.270106172055134736e-02,-3.534173485695908667e-03,1.303502678871154785e+00
1.204252358953863782e-02,-7.830600196313883821e-01,7.830974848915891462e-01,-5.438475476253296255e-03,2.209356358761405993e-03,-5.788232465232861709e-03,1.356460690498352051e+00
-5.179368779331409989e-02,-8.213421925247452737e-01,7.395519056254491463e-01,1.540595878482910880e-02,2.029018274980363967e-02,-2.563469970681606439e-02,1.353266477584838867e+00
-4.276629703162462132e-02,-8.257813353304391812e-01,7.822869960856088101e-01,5.599531674940819853e-03,9.860848244085085659e-03,-1.141369513683544723e-02,1.393065452575683594e+00
-4.499056432859895038e-02,-8.097740133553772424e-01,6.477195321455729848e-01,2.368496236797535022e-03,1.057150996012797273e-01,-1.138570446961428666e-02,1.276106238365173340e+00
-6.547527182083134889e-02,-8.201109388726384175e-01,7.758995001066344432e-01,8.126454987748409076e-03,1.037276226000398253e-02,-1.008625521050385103e-02,1.383164525032043457e+00
-6.820552801122044262e-02,-8.235567673507376840e-01,8.148668208221570008e-01,4.881402942752703124e-03,1.055974121300128424e-02,-6.888255367035797834e-03,1.420545816421508789e+00
-6.377432312852955587e-02,-8.197595461041483622e-01,7.930837657572052946e-01,6.990963304957833503e-03,7.888045280722276800e-03,-7.236530877476896398e-03,1.397848963737487793e+00
-5.123321508181354067e-02,-8.187431645113490974e-01,7.898345509137839615e-01,1.680467880821373246e-03,1.225979759940761719e-04,-1.440878596239242044e-03,1.393559932708740234e+00
-4.576086020807312166e-02,-8.318029205726937825e-01,8.137907385682620065e-01,5.855840301952195195e-03,9.810692786884520414e-03,-4.332921560844195299e-04,1.425737380981445312e+00
-7.227127896914128935e-02,-8.095740904160837470e-01,7.819882132658504403e-01,1.068416860445917192e-03,4.120060824160834238e-03,1.732126407691469408e-03,1.379596352577209473e+00
-9.744673296281225819e-03,-7.947560187712411350e-01,7.919887645895835604e-01,5.278620722267332241e-03,1.004577061561871473e-02,-1.424250463084313686e-03,1.374329447746276855e+00
-1.056082601894372391e-02,-7.515949533798571558e-01,7.794582014502319245e-01,5.760478425779852701e-05,2.363352898299636573e-02,1.900253244955048618e-03,1.326792836189270020e+00
-2.895954931648097100e-02,-8.231697127834157746e-01,8.137320630124134091e-01,6.979615886367214646e-03,1.978145275306405354e-02,6.657509471762818737e-03,1.418318033218383789e+00
-1.157493116665705146e-01,-4.613512245019321112e-01,7.459328725333556065e-01,-6.178014361334605367e-03,-1.883521691898331490e-02,9.482927799260149754e-03,1.077582716941833496e+00
-2.293022435398881995e-02,-8.276480804140511349e-01,8.024147983399472217e-01,-5.197410710407688586e-04,5.327873546977852232e-03,3.520178077314591904e-03,1.411757111549377441e+00
-8.834143261718746531e-02,-5.018789114935517937e-01,7.412801476614860885e-01,-9.715827957045390650e-03,5.208462442183505597e-03,4.237890138770408592e-03,1.096714735031127930e+00
-1.223193536807826512e-02,-8.170846417516648419e-01,8.005789190321880300e-01,3.844135315888573805e-03,1.665379847249599810e-02,5.921678531852814925e-03,1.401293635368347168e+00
-1.190899337367133312e-02,-8.523526647193789829e-01,8.823048884665239955e-01,-4.267123620137822787e-02,-9.109660339911824709e-03,1.015829560199842281e-02,1.504500389099121094e+00
-1.870551230011134325e-01,-4.916142045518848702e-01,1.278781692712139817e+00,-2.289769231401551364e-01,-7.897180518483645772e-02,-8.194514664008732685e-02,1.698238372802734375e+00
-1.099198146982759972e-01,-4.097425385026167155e-01,7.320290079472852041e-01,-1.426050053778938828e-02,3.716104202062107086e-03,8.717218846453878662e-04,1.025602579116821289e+00
-1.622864754152220090e-01,-3.877452707354256956e-01,7.498581121650254033e-01,1.397127800817139776e-02,4.250772314193600708e-03,-3.263148495900141527e-02,1.045143365859985352e+00
-1.261540844275761963e-01,-5.502629046836583493e-01,7.687454840975338488e-01,-5.437590184284313288e-02,2.704661723208453758e-02,1.749827450895416817e-02,1.171422958374023438e+00
-8.939921314385353146e-02,-5.736999271596008310e-01,7.632083921070360599e-01,-7.614877128957566778e-03,2.531188923868065918e-02,5.718234313628695054e-03,1.173285722732543945e+00
-1.266315912701325985e-01,-6.417432642717731950e-01,8.136595441175263899e-01,-1.504806543401742379e-02,3.126652304452966040e-03,-1.428623605270953369e-02,1.278735041618347168e+00
-1.373552628218902838e-01,-4.112083412974923968e-01,7.377266427904758395e-01,-7.783442337635322270e-04,1.918929778703221470e-02,8.860510855376139971e-04,1.039959907531738281e+00
-1.026144949899666647e-01,-4.303673055097596567e-01,7.139011073630662230e-01,7.368804842285221236e-03,-9.264420857173640000e-03,-1.000409397461849148e-01,1.035461187362670898e+00
-1.825418849761345497e-01,-4.093340747894719245e-01,8.778369782399924048e-01,2.865964985335668971e-02,1.513929267232233533e-02,-5.607956740242377863e-02,1.195370316505432129e+00
-1.616703216685175248e-01,-4.026081430651799464e-01,7.462452746956794725e-01,1.175180719661686121e-02,5.531452480986839837e-03,-5.512762330988296711e-02,1.053914666175842285e+00
8.398825786369135127e-03,-8.195438252156450609e-01,8.235206264090484396e-01,2.245534332466293109e-02,3.786632817761809502e-03,5.652273705069027661e-03,1.423530220985412598e+00
-1.254483644306573498e-01,-4.637617748525983963e-01,7.558767422015756354e-01,-4.012443180025378892e-02,2.472956583213169884e-02,-5.039511310138616862e-02,1.097104191780090332e+00
6.324256170473441241e-03,-8.254782376148650513e-01,6.731201462921051482e-01,-2.181981018880141312e-03,9.050768465630477586e-03,1.212513300202609952e-02,1.300713539123535156e+00
-4.581557994928653343e-02,-8.366555795039997134e-01,8.090616558555950855e-01,-1.497027366066643094e-03,5.526628176252374250e-03,6.043601128344604917e-03,1.425665497779846191e+00
-8.644166584501938866e-02,-4.964682248937971609e-01,7.258044752405040656e-01,1.265854787257116552e-02,-5.804573237128742361e-03,4.992296185266168959e-03,1.077759027481079102e+00
-2.554092393861106397e-02,-6.364413483535615867e-01,7.536571695282427985e-01,3.009985692287946851e-02,-1.261245404700932389e-02,-2.142393138459089061e-02,1.208690881729125977e+00
3.008738836494331131e-02,-7.724304786674506262e-01,7.776469952860597390e-01,6.939712507609057009e-03,-2.594928175360500244e-03,6.745373771950337078e-05,1.342748999595642090e+00
2.818185577929976579e-02,-7.737648884474173094e-01,7.731398492479694129e-01,7.155916070172132007e-03,-8.997051616167630423e-04,-4.680435101386058554e-03,1.340044498443603516e+00
2.927173888954377051e-02,-7.829441606159530664e-01,7.698548427117666293e-01,8.953309441491112339e-03,-2.171388322976069291e-03,2.774245289557905701e-03,1.345343470573425293e+00
3.900361922373034047e-03,-7.582242891256887329e-01,7.747204379692851361e-01,6.158134753501509455e-03,-2.186326747839186652e-02,2.718297810800440403e-03,1.328167319297790527e+00
7.213172303506591720e-03,-7.347492310926692083e-01,7.838097265915391354e-01,3.164712795299089859e-02,-1.465353309812282220e-02,-1.231807121976239046e-02,1.316783905029296875e+00
-3.982721219153016745e-02,-6.914686146435331526e-01,7.724275694446736118e-01,4.351545938565072082e-03,-2.221562980781705346e-02,5.680434825355579719e-03,1.270955324172973633e+00
-1.642525963811348466e-01,-3.056529646084141794e-01,7.224567483436281634e-01,-1.179573645065890887e-02,-3.108692313885298535e-03,-3.466088860211591349e-02,9.673050642013549805e-01
-6.055087985256749072e-02,-8.186766114519403725e-01,7.886894036368207184e-01,3.595637510139381744e-03,4.747899201813180078e-04,-6.077235052665723621e-03,1.392819046974182129e+00
4.611551925450176753e-03,-6.617826023805792879e-01,7.538293556358242054e-01,3.195275989723414534e-02,4.213855977880958358e-03,1.948319433848388210e-03,1.227929353713989258e+00
-1.406116531167987960e-01,-5.337637487171440487e-01,7.710034852364604507e-01,1.481959979628611011e-03,2.255483492284725538e-03,-1.632446928806893793e-02,1.159670352935791016e+00
-2.960797829024824218e-02,-6.907357149047276268e-01,7.698176007874529825e-01,6.580774741101691472e-03,-2.815987573737194910e-02,5.663629282946964355e-03,1.267792820930480957e+00
-1.229083535709876163e-01,-3.325163217184287645e-01,7.347390289684364584e-01,6.355057135467044593e-02,6.586652931499985784e-03,2.242225477012071977e-02,9.864171147346496582e-01
7.637053698504939203e-05,-6.608139632561077503e-01,7.510223911484240622e-01,3.434423579898606554e-02,-9.282022517393231573e-03,-2.018143868766671795e-04,1.225065708160400391e+00
-1.164133382395443270e-02,-7.594038244406479121e-01,7.803288723515385827e-01,2.426514308775234822e-03,-1.378514116613796178e-02,2.301732983972424717e-03,1.333857059478759766e+00
-5.372619443625376023e-02,-6.037848632114046765e-01,7.562576703513330667e-01,5.916610785866772276e-02,-4.017489621040394414e-03,-3.691698452770375213e-03,1.189440250396728516e+00
2.972547481271861289e-02,-7.720023143056675696e-01,7.714944836144232987e-01,-8.874768768928977675e-03,-1.409772011038012626e-03,1.772695809184053443e-03,1.337137699127197266e+00
2.640722284110100238e-02,-7.457638762908407326e-01,7.635650248786319816e-01,1.906470851733403984e-02,-2.703121208255564113e-04,-9.966815622007854040e-04,1.307652592658996582e+00
1.930715732197018156e-02,-7.777129396340172196e-01,7.751193271364239523e-01,-8.886088104189448838e-04,-6.230306446646331590e-03,-2.225709945939391247e-03,1.344999670982360840e+00
-7.494650538577939114e-02,-8.063845304998454866e-01,7.278325796460307640e-01,8.668179663109757674e-04,-4.124349778235541358e-02,1.244522857050037298e-04,1.331068873405456543e+00
-2.562895475652704480e-02,-7.922743842972818085e-01,6.312882455343863386e-01,5.804153299368244867e-03,8.884742832545592522e-03,2.549401437344855827e-03,1.234206318855285645e+00
-8.521190435287359644e-02,-8.068134480418335253e-01,7.793969349574448868e-01,-2.271385739863125062e-05,-1.096677227455458703e-02,2.193027277645730362e-03,1.375694513320922852e+00
-6.477648760997889443e-02,-8.204645668144607829e-01,8.022186838541115472e-01,1.303551695797560426e-03,-1.434597921142315678e-02,8.809109481935070707e-03,1.406690597534179688e+00
-4.918280311683253386e-02,-8.352473210935253967e-01,8.141746838781031004e-01,2.989366172384860972e-03,-3.886343643395178717e-03,5.969298436617317873e-04,1.428989648818969727e+00
-7.917640557195430862e-02,-8.127213570295221956e-01,7.789264419554408070e-01,-2.418764429695037695e-03,-1.241226823516655697e-02,6.102105707872874712e-04,1.379987835884094238e+00
4.010777330922582484e-02,-9.765601967331453137e-01,5.821426750862508381e-01,-2.653442204625354461e-02,2.117631525163155282e-01,7.310774987683272110e-04,1.419552683830261230e+00
3.033806664850062160e-02,-7.647850504830452367e-01,7.633406089269388906e-01,-2.297120514215376160e-03,-5.125511391572262591e-03,-6.393726962234431857e-04,1.323796272277832031e+00
3.009086718869231902e-02,-7.642295436508605988e-01,7.645958206939753588e-01,-1.733902542452899875e-04,-5.457469588297356091e-04,7.428567659619679693e-04,1.324340343475341797e+00
-7.493126529421462179e-02,-8.136904186000885053e-01,7.825119999635853363e-01,-3.362545416334163095e-03,-1.006704087468374663e-02,-6.156201856850665975e-03,1.383788228034973145e+00
-8.123086609804631986e-02,-8.143493950139329973e-01,7.881959135481567680e-01,1.848306290236818384e-03,-7.761893279559852442e-03,-3.397671638966652703e-03,1.389598608016967773e+00
-7.686789168451793608e-02,-8.130066712972896514e-01,7.756378392318716841e-01,-4.568842602871331891e-03,-3.970470147173137641e-03,-4.273442142216189038e-03,1.377096056938171387e+00
-4.018021536284523132e-02,-5.181021356899200292e-01,7.229442940061922007e-01,-5.993252440291742950e-02,-5.666724600795288239e-03,1.988310268657865996e-03,1.089204430580139160e+00
-1.660080819243843764e-01,-3.722014071675698865e-01,1.238592890331036589e+00,-1.957848477409246946e-01,-7.373365594260909706e-02,-7.758296348187184409e-03,1.560937047004699707e+00
-5.325182847704427319e-02,-8.471123529554343001e-01,7.518527889038028045e-01,1.037202339470266223e-02,-8.908905968563222977e-02,2.201071228793973281e-02,1.393963932991027832e+00
-6.668835013542144530e-02,-8.027302175806164675e-01,7.300540344094026413e-01,-3.266964215305080861e-03,-1.427189945633055776e-02,-4.102381091311737248e-03,1.328038215637207031e+00
-5.335825733756452416e-02,-8.489550894716799689e-01,7.467797640665511105e-01,-1.906473737565454046e-02,-7.835115256414502960e-02,-3.564467237246712189e-02,1.390360116958618164e+00
-9.248487186366707857e-02,-4.280744859554968529e-01,7.336699159360098310e-01,6.172800525433880248e-02,1.920473241782286525e-02,3.478802396713127215e-02,1.043345212936401367e+00
-9.191037338031332604e-02,-5.020523861066640281e-01,7.376877338578690102e-01,-9.680944664726843368e-03,1.021620819040051573e-02,4.177811096614934827e-03,1.094234466552734375e+00
-1.541943356219870748e-02,-6.099390289605460813e-01,5.988345475941649898e-01,2.608978828233756708e-01,-2.685466018729411597e-01,8.126741631161272378e-03,1.231544017791748047e+00
-1.532085951030219273e-01,-2.995467097006742074e-01,8.173981331419855056e-01,2.695767759087987561e-02,-7.109015765024034351e-03,8.904986407732959353e-02,1.063790559768676758e+00
-5.907814516449810816e-02,-5.451407694690406647e-01,8.287002075610410134e-01,-2.798875325594403773e-01,-1.613317256842108083e-01,4.138204697464047122e-02,1.331974267959594727e+00
-7.101665745201471425e-02,-8.187820366475889733e-01,8.098442315132149405e-01,-3.270063592036088693e-03,1.955946010177814914e-02,-1.084402422492929986e-02,1.412543416023254395e+00
-1.668719406178458264e-01,-2.425567942523673137e-01,7.997742493109183393e-01,-2.090818088874744629e-01,-9.661407371559393997e-02,3.660690155878527224e-02,1.084648370742797852e+00
-1.592179594142372756e-01,-2.569903685690980710e-01,7.640511413482369285e-01,1.148337721530565680e-01,-1.996059197717300199e-02,-3.874050827702092692e-02,9.987560510635375977e-01
-1.160781585325728060e-01,-3.610010799739276077e-01,1.065474973566585604e+00,-1.601108936831146523e-01,-1.787333283735039191e-01,-1.197523847744305786e-01,1.400431990623474121e+00
-1.474685874814483100e-01,-3.343699184284990578e-01,7.383241446939642350e-01,3.400966802336474054e-02,-4.021650910129247018e-03,1.015362917802557254e-02,9.944568872451782227e-01
-1.277411759457817986e-01,-4.682085749195643576e-01,8.650586409705761648e-01,1.340336509877565196e-01,1.877643367805019448e-02,9.455809983937227270e-02,1.233435034751892090e+00
-4.841617109605887703e-02,-8.286794931757542892e-01,7.888001868496351543e-01,-1.098042412024529194e-02,-6.113507957584673677e-03,-1.028403551418196477e-02,1.401350259780883789e+00
-3.250089574454628760e-02,-6.159293104119435425e-01,7.443775604675141322e-01,8.331625166998085988e-03,-3.535088643696128550e-03,-1.168917329998060998e-03,1.182130098342895508e+00
-4.693422782677701688e-02,-8.305894056219944588e-01,8.040850312667386923e-01,-8.769039362295415196e-03,5.195485184947627212e-03,-1.044204952823791404e-03,1.416181445121765137e+00
-4.234771029191974900e-02,-8.054277371876917835e-01,7.710074692845003685e-01,-6.951296243748842328e-03,6.391586356487604509e-03,3.565343221100729203e-03,1.365576267242431641e+00
-1.179388907892706118e-01,-4.069536743413577629e-01,7.304063594965349848e-01,-4.741526876799680851e-02,1.328911968654286103e-02,-2.276890440806821417e-02,1.028218507766723633e+00
-4.594368735737371784e-02,-8.349963864387082157e-01,8.031905498296907364e-01,-5.910912824873704868e-03,-1.015194917937785107e-03,-8.832874604719287773e-03,1.419149994850158691e+00
-4.163546962764744230e-02,-8.279598479257531674e-01,8.087987078508791505e-01,1.951934618552570008e-04,-6.153645724464106882e-03,-2.080806350186692726e-03,1.417881608009338379e+00
-4.054841174513065111e-02,-8.282540287191167971e-01,7.654110283163094719e-01,-1.116473133806969789e-02,2.643745334467625767e-03,-1.099870471322620183e-02,1.380459070205688477e+00
-1.273371240501298129e-01,-2.153324645323351216e-01,1.030001431399564016e+00,5.681442432625334604e-02,-2.682782090823310553e-02,6.356090146852038346e-03,1.208710074424743652e+00
2.138000716182100747e-02,-7.456593496276171518e-01,7.632716277378641667e-01,1.732601409598493250e-02,-3.907042063302961291e-03,-2.539887232154902294e-03,1.307202458381652832e+00
-4.346764640989864148e-02,-8.126506143580837227e-01,7.878247628036066930e-01,-7.282141908670026543e-05,9.756574768634724074e-03,1.866435183101120693e-03,1.386506915092468262e+00
-4.701928890364969610e-02,-8.105128132020330556e-01,8.073500292780386722e-01,6.144523976857881736e-03,7.298366380383954945e-03,-4.506064715217284432e-04,1.401944518089294434e+00
-4.389490520219989367e-02,-8.355045699003468274e-01,8.102161134993910441e-01,-4.796191866719930197e-03,-8.542310122515495152e-03,1.187045795266376369e-04,1.425679445266723633e+00
5.318046331458714526e-02,-8.769193730081080718e-01,5.214854056338101840e-01,-2.816130849304394630e-03,-9.128119225638006706e-02,1.277553188769506853e-01,1.262517452239990234e+00
2.088481358100601620e-02,-7.855876411660875913e-01,8.006119387509937901e-01,7.498194837241635088e-03,-6.002260778391423947e-03,4.454718635443823301e-03,1.373876571655273438e+00
-7.400083543675774200e-02,-8.610087964806623084e-01,8.425522972343070238e-01,1.824609748421611097e-02,1.325952250492860862e-01,1.787158097029129672e-02,1.495154619216918945e+00
1.135225586283253839e-02,-7.342566280649500676e-01,7.633345582655615136e-01,7.118013248870643135e-03,-9.532254090637065982e-03,6.609952132084498605e-04,1.297120094299316406e+00
3.217063438517280688e-03,-8.110694845639615513e-01,7.938997936425378210e-01,1.079901799017218486e-02,-1.196471166666507498e-02,-6.253084151620811292e-04,1.390275001525878906e+00
-3.643702158128818425e-02,-7.965466217847013697e-01,7.454225483702202615e-01,2.467682215608093393e-02,3.801460998800214319e-02,6.822656063656880841e-03,1.337786197662353516e+00
2.616299454827348409e-02,-7.936856323676265701e-01,7.895818699894874282e-01,1.467345163905746375e-02,5.437635148853675604e-03,4.258204492102636227e-03,1.371727824211120605e+00
2.812676941053081359e-02,-7.724753791123882829e-01,7.717785122325850899e-01,7.595421349447224399e-03,-1.443847958819708364e-03,-7.427503639818001328e-04,1.337733864784240723e+00
-5.173445135021453867e-02,-8.286343171409301656e-01,8.085869036104137431e-01,-3.193346615070536288e-03,2.892808461274080749e-03,8.752874951095775818e-03,1.418589234352111816e+00
-2.984211675159913202e-02,-9.350756551553631724e-01,7.004614393526120697e-01,-8.102856717286946930e-04,-1.713130700434988551e-01,-5.663648402718199359e-02,1.453119397163391113e+00
-1.489408889359052912e-01,-3.963116479962813243e-01,7.427661371158669201e-01,1.098276849191520731e-03,6.616965630351342997e-03,5.688674548007026377e-02,1.042477488517761230e+00
-1.444831599934601890e-02,-7.635145595184088529e-01,7.827459221703026993e-01,-3.734870642519828518e-03,-1.295406735384984145e-02,-2.971204703468619153e-03,1.339530467987060547e+00
-3.769773029169133649e-02,-8.194761717148243418e-01,8.093126793624367821e-01,3.208367804503877633e-04,-8.519474893337734486e-03,6.898335336435800456e-03,1.411077380180358887e+00
9.346442303314033556e-04,-8.074237721540922230e-01,7.966730525274426933e-01,3.979621879865014424e-04,-1.379633702820492330e-02,-4.871880732683436799e-03,1.389434218406677246e+00
-3.747878355140946138e-02,-8.334831389286555536e-01,8.057159663019481943e-01,-3.708217931003297222e-03,8.510740096962302048e-03,-1.848920560085022839e-03,1.419878840446472168e+00
-4.859739641885294642e-02,-8.249712678825870116e-01,8.102901416082060049e-01,-1.429763569719131808e-03,8.421118934096097353e-03,5.359348124715672575e-03,1.416886448860168457e+00
-1.248296561740240562e-02,-9.266927249603833516e-01,6.861690215146113436e-01,7.578541718677198058e-02,-1.315356792743881953e-01,-8.073155260830154611e-02,1.432234764099121094e+00
-8.056777974892487260e-02,-8.102061811128873359e-01,7.833756307070101066e-01,5.105639539954755744e-03,9.840115079257555353e-03,-2.683079936567480360e-03,1.381856322288513184e+00
-2.600977006651701215e-02,-8.283367918288357945e-01,7.188185162426785624e-01,-8.777302120870066407e-03,-1.738604500091682839e-02,2.781718950317420107e-03,1.340617299079895020e+00
8.455746884029172877e-03,-8.137457389174137523e-01,8.007687505012331952e-01,-1.490097947157950284e-02,4.399066798921700584e-03,-6.744495967044361129e-04,1.398549795150756836e+00
-4.290909655638344700e-02,-7.815373543611551233e-01,8.012293983412103193e-01,4.431470264517500422e-04,2.388060957416961519e-02,9.919012100967371237e-03,1.372462272644042969e+00
-4.868856695942572199e-02,-8.118328426806299403e-01,8.044360213889246713e-01,-1.186561331806816654e-03,1.048008615419388986e-02,1.382705063096503241e-02,1.400776624679565430e+00
-5.660705903132707412e-02,-8.219894586510281265e-01,7.696852123617213826e-01,1.348470460081876987e-02,-1.153833121039347237e-01,-2.358193815660971672e-03,1.393377542495727539e+00
-4.822611167402597598e-02,-5.373683305545509103e-01,7.345258234040317191e-01,-5.227705960980154332e-02,9.304970172099890843e-03,3.826737527583574678e-03,1.115051627159118652e+00
-4.410646154947095443e-02,-8.258318922859082534e-01,8.137563153300170216e-01,1.427771988785898200e-03,6.911084273790503787e-03,1.504561256575033101e-03,1.420490264892578125e+00
-9.013047271081064959e-02,-4.460300273060781029e-01,7.136192391236692023e-01,-1.430894467528845242e-02,-7.340935391196301736e-03,-7.512560619238997693e-04,1.029325008392333984e+00
-3.776486063935641235e-02,-7.887915208049777194e-01,8.016015767227128164e-01,6.131932071321420652e-03,1.802510654252652972e-02,1.248994519254119015e-02,1.378593206405639648e+00
-5.748879401343401363e-02,-8.280153923957048745e-01,8.094646892515632297e-01,1.144800196775415564e-02,1.410837673114399577e-03,2.418453359887750339e-03,1.419065475463867188e+00
-1.518810919813432525e-01,-3.700067282567671145e-01,7.190416145046288898e-01,-2.024905937269607650e-04,-1.696706698822096843e-03,-6.859102441021718011e-03,9.981009960174560547e-01
-5.817292959808832709e-02,-6.841990642273938494e-01,7.876058697497628769e-01,-2.548244902867375164e-02,2.808676450153206258e-02,-3.388139078904962853e-02,1.282376170158386230e+00
-6.499691386542343075e-02,-7.057057824118381228e-01,7.842354206334917199e-01,-3.414728487972381807e-03,1.515878248273529140e-04,3.105174794091831655e-02,1.295662641525268555e+00
-5.195196254854987650e-02,-8.295585162495245912e-01,7.950060081341824292e-01,-1.678964784033123167e-03,-1.486563098696748464e-03,-1.196310271215080901e-03,1.407348275184631348e+00
-5.973676433484909759e-02,-8.183707847141726832e-01,8.058942319810840083e-01,-5.874215686110057996e-03,2.879185675305474769e-04,3.521588881273349843e-03,1.407721757888793945e+00
-3.290544155113506175e-02,-7.029492582281838819e-01,7.803219202932807352e-01,-7.888859998559632353e-03,-2.889282105593778474e-02,-4.688541696199207721e-03,1.287615060806274414e+00
-8.334016022064617835e-02,-7.749633511347607806e-01,8.191982454899515709e-01,1.050053035676354503e-02,1.776167734082410247e-03,5.090818783553779578e-03,1.384757280349731445e+00
-4.745642566967206433e-02,-8.210175617341987087e-01,8.137434414735796873e-01,-2.682178346805545559e-03,2.361066052900879370e-02,1.710076611909551805e-02,1.417329907417297363e+00
-8.171731993175690434e-02,-7.051180334875908340e-01,7.910026202286422059e-01,-3.029684682113451162e-03,2.982157750995881838e-03,2.847388737753462837e-02,1.302616357803344727e+00
-7.646719874932651762e-02,-7.302254062608150020e-01,8.008153099099095673e-01,9.559700139934705285e-03,-2.609584892837461595e-04,-4.031993948603788611e-03,1.330743432044982910e+00
-4.848104400406978709e-02,-8.340389445720516326e-01,8.093220308445361333e-01,2.080146743811312187e-03,-1.851423499424324206e-03,-1.342421264178449353e-04,1.423658847808837891e+00
-9.159314101950816189e-02,-5.467488037880309237e-01,7.586185205732919323e-01,-8.785413449352243512e-03,-2.512933016293022667e-02,2.604382355434364804e-02,1.149419903755187988e+00
1.134318840876337615e-02,-8.209693028342905929e-01,8.119166082947085750e-01,4.741495973811480497e-02,6.436698635329748258e-03,-3.416594041275605557e-03,1.416648507118225098e+00
-5.335138574067551515e-02,-8.045276049062042301e-01,7.279143910873596690e-01,-1.360560978612968680e-02,-3.222022601203329562e-02,-1.998917936121040115e-02,1.329051733016967773e+00
-2.668077879519218515e-02,-8.661226380959490267e-01,9.986658335523126429e-01,1.572022414060133821e-01,-4.834655082028696538e-02,1.455131255421510290e-02,1.642711877822875977e+00
-1.127108527669945515e-01,-4.539011528759367975e-01,7.500229664256533590e-01,-2.373036405362947618e-02,-1.071763547252676217e-02,5.958525965901492749e-02,1.080630421638488770e+00
-4.210754517283216147e-02,-8.349757083862610063e-01,7.739779199174635638e-01,-6.620497937933404915e-03,9.316645367884531133e-04,7.936456468874924716e-03,1.393558979034423828e+00
-1.357304416143457759e-01,-3.690749626117616478e-01,7.092136592846132181e-01,-3.633352340301278325e-03,-6.457534832709959163e-03,-8.556347948817613625e-03,9.828161597251892090e-01
-1.233541956902267644e-01,-1.829679195336045283e-01,1.191639527401666676e+00,-9.276256746681152410e-02,-4.000854087915847734e-02,-2.437208575108623220e-03,1.357125043869018555e+00
-8.543297290624310425e-02,-6.386772375828287940e-01,7.786315895283091315e-01,1.799713716218195089e-03,3.243466761969851508e-02,-9.548299720541579202e-03,1.238614082336425781e+00
-4.283124737735678755e-02,-8.407580801012302096e-01,7.938908851715603676e-01,-8.173750743896890728e-03,1.644445256459412322e-03,-1.366044328119074731e-02,1.416051745414733887e+00
-3.958630176864386119e-02,-8.258295224226949172e-01,7.657286872008211009e-01,-1.405317122718341763e-02,-5.811115797958570257e-03,-1.063763184584625744e-02,1.378737568855285645e+00
-4.080873809370345884e-02,-8.718804043991964514e-01,9.801812678390459110e-01,1.198615519866022550e-01,2.602998106809572415e-02,-9.171078471949767330e-02,1.628490805625915527e+00
-7.613834258324460313e-02,-4.431273758572034649e-01,6.249094723321665379e-01,2.643243948114826214e-01,2.399721409934913174e-01,6.454919944371312335e-02,1.130613803863525391e+00
-1.786391546685557330e-01,-1.487066009102963604e-01,1.197033385267172623e+00,-1.035319994806579991e-01,-3.245374777454220448e-03,-2.863795031404790456e-02,1.373623728752136230e+00
-5.852638639522692726e-02,-8.980200877881713284e-01,9.374125723287214385e-01,2.244287604593281013e-02,2.312977644995382193e-02,1.113093590980424388e-02,1.592550277709960938e+00
-3.773436007798793013e-02,-7.249057308975416225e-01,7.904143382050561328e-01,1.896182510427763587e-03,2.838551949631381438e-02,2.278134558782413110e-02,1.315712690353393555e+00
-1.197348014813318096e-03,-7.756348237556103253e-01,7.859846571224562428e-01,1.428163410067566710e-02,1.518644015814605251e-02,-1.227048062555172528e-03,1.352900743484497070e+00
-3.249137513615494438e-02,-7.866033360991792067e-01,7.995821274190226813e-01,1.183210199586891623e-02,1.274846478307327564e-02,2.593523421374960020e-03,1.374567389488220215e+00
1.416949580730977876e-04,-8.259060734811762838e-01,6.648321574027427072e-01,-5.386403906542739858e-03,2.598564348702776111e-03,1.941236259734301778e-02,1.294013977050781250e+00
1.118237300525555186e-02,-7.812382572071019382e-01,7.826673754319041221e-01,4.568826898053271295e-03,1.811276664983480292e-03,6.518394235765296446e-03,1.354496240615844727e+00
-3.149004293088684958e-02,-6.158730417682328762e-01,7.450754953409224335e-01,1.371732517731357771e-02,1.009105188258149766e-02,-1.292668222115506181e-03,1.182896494865417480e+00
8.742061939783029798e-03,-7.926184160386990918e-01,7.855660567274455053e-01,-7.495794570578608517e-04,-1.622644143496923888e-03,-1.264419783960146282e-04,1.366806387901306152e+00
-1.560231003091256188e-02,-8.144926358158177671e-01,8.003795317835984413e-01,-4.793777889539829751e-03,-1.302699198533292498e-03,-7.697578093114022194e-04,1.398573517799377441e+00
6.228874267887608493e-03,-8.099597641658331515e-01,7.897002771803676158e-01,6.197772666954182684e-03,-4.480134020195208579e-05,-2.953339934439070530e-03,1.385493874549865723e+00
-1.160453869275148223e-02,-8.224076129199962004e-01,7.973775734058874409e-01,-6.694140782318128147e-03,2.896993067061137943e-03,-3.046980638972178902e-03,1.402842283248901367e+00
-5.536689271350449942e-02,-8.212193896343441546e-01,7.931221280372755533e-01,-5.938801321614157677e-03,-3.344397207393161927e-03,-7.611030284601362841e-03,1.398783087730407715e+00
2.017862106514394308e-02,-7.983731375046964063e-01,7.856995987973339757e-01,8.474341462237557077e-03,7.674252550105550852e-03,6.179380608796738658e-03,1.372288107872009277e+00
-8.715110203727369914e-03,-7.626356568396036595e-01,7.828158009915777704e-01,-7.187886319200192855e-04,2.209296207947001461e-02,-2.741296650011666725e-03,1.339088201522827148e+00
-6.756171156589605917e-04,-8.090910735197210935e-01,7.932994711322390868e-01,1.047934060049595002e-02,1.208767641428139901e-03,-1.567646748757846320e-03,1.387852668762207031e+00
-2.383935142998027269e-03,-8.089465949653472654e-01,8.030597291222263401e-01,9.253811389578708510e-03,-1.327097401330796676e-03,1.596378079441983016e-03,1.396135210990905762e+00
-3.302882083292475734e-02,-8.169863130174074284e-01,8.053554618938726373e-01,-3.681916327272341093e-03,-6.338989692860962782e-03,-2.844394048450621642e-03,1.405318737030029297e+00
2.039637520099033333e-02,-7.881927265157889773e-01,7.836436473248590273e-01,5.598064404244957638e-03,8.094560186352956280e-03,5.373432850022337275e-03,1.361577510833740234e+00
-4.566927975906522053e-02,-8.374165441393928155e-01,8.130796629536074516e-01,7.187287575113109148e-04,-3.433334676646713178e-03,1.584670242822358403e-03,1.429779767990112305e+00
-4.238404939276284311e-02,-8.343589364835337641e-01,8.167162039590912803e-01,1.042381987787131814e-03,-1.910894623396508464e-03,-2.576644455271938101e-03,1.430278778076171875e+00
-7.338779704920345148e-02,-6.255741802023735421e-01,7.749704922412518071e-01,-4.763314562147575280e-03,-2.686425047657957019e-02,-1.207786351855386769e-02,1.223006248474121094e+00
-3.061837557191719045e-02,-8.186825062816796006e-01,8.062480229188730974e-01,-7.032811633612158324e-03,-8.560774209211115607e-03,-3.424508097985393389e-03,1.407585978507995605e+00
-4.252227610783278905e-02,-8.338348437561152737e-01,7.943038453856667847e-01,7.261734797272149065e-03,-4.229478919780641465e-03,4.294382459008352394e-03,1.410287857055664062e+00
2.234440773325185436e-03,-7.872702095470391903e-01,7.823619076494854330e-01,-4.167029809953175755e-03,-5.274487101755339627e-04,-2.556708151877391724e-03,1.359376072883605957e+00
-3.914279260816983658e-02,-8.106987264443993313e-01,7.986694017327853334e-01,1.582712921870152488e-03,1.026048129532358341e-02,4.488474122819839478e-03,1.394284963607788086e+00
1.169086764566120221e-02,-8.032180871771527064e-01,7.888870007491315395e-01,2.300373878388742473e-03,1.239684898366647144e-03,4.005202032069696098e-04,1.378939986228942871e+00
-8.423108613194424388e-03,-6.855212696288466301e-01,7.659759354903147299e-01,2.481842420216099493e-02,1.610806021131217999e-02,1.668328956877830963e-02,1.259349584579467773e+00
-2.716666851061686622e-02,-7.345946555681048817e-01,7.891140673037793096e-01,1.291726819488468042e-02,2.785847535438238515e-02,2.635541941582556294e-02,1.322551012039184570e+00
4.443885126777243717e-04,-7.972252531772651141e-01,7.997602413777372687e-01,2.292084725613802859e-02,1.409438230672909083e-02,9.810342046937901156e-03,1.383919596672058105e+00
-4.365293731246951831e-02,-8.513997813850064933e-01,8.753817049675615136e-01,1.481216445162693574e-01,-4.027264450839235926e-02,3.875863376634099133e-02,1.521387338638305664e+00
-3.952662000502782380e-02,-8.161724329362475272e-01,8.683778939326733948e-01,6.059561156638586243e-02,-3.355991719043430882e-02,3.476632305039897147e-02,1.466495752334594727e+00
-5.251723073045909407e-02,-8.476926934502984068e-01,8.720549572862033028e-01,5.137530194555356595e-03,3.242916267629379363e-03,1.918548543729183594e-03,1.490790605545043945e+00
-5.036764682414436589e-02,-8.285412294156080382e-01,8.621014421119118643e-01,-5.806005646409364424e-02,-1.033058393061399710e-01,1.292812558942302639e-02,1.480149984359741211e+00
-5.099126113417655481e-02,-9.840149633774691873e-01,8.971862429356506352e-01,-2.434752972341536204e-02,-1.125115892472000612e-01,2.496124634170128129e-02,1.641910433769226074e+00
-4.665618862547558227e-02,-8.363798157789404941e-01,8.073330164619516580e-01,1.850676625645335553e-03,-4.732405726571017185e-03,2.978006844748778362e-03,1.423896193504333496e+00
-6.541837501500577523e-02,-8.503047246708818063e-01,8.311095809742294893e-01,5.083423724986563946e-03,-1.072415815020630152e-02,-4.607969626685324248e-03,1.457383871078491211e+00
-7.320448427039670525e-02,-5.024041200195558110e-01,7.018924296972340882e-01,-2.287967350824336721e-01,1.231722370428196267e-01,1.622035075220863987e-01,1.182855367660522461e+00
-1.070421297910052472e-01,-3.519330743569616948e-01,7.834475019128699369e-01,1.709754423410653479e-01,3.479038030098924924e-03,3.783078830223868955e-02,1.078445076942443848e+00
-1.203381633120084171e-01,-1.281316944012687586e-01,1.137786789282758004e+00,-2.264596521916502000e-03,-1.710773873878787543e-02,-4.600699863986734001e-02,1.264906167984008789e+00
-1.684670765484900384e-02,-6.580059350224787273e-01,8.083252928935266146e-01,1.060258119110806807e-01,-5.088954296892649054e-03,4.985355342379553870e-03,1.286443710327148438e+00
-1.762832918521016756e-01,-2.453869796384172131e-01,8.076104036171979361e-01,-8.971553279935788605e-02,8.070194313864714752e-03,7.093909594532883667e-02,1.039351701736450195e+00
-7.397897625254679088e-02,-7.366117800599556453e-01,8.070673855879225700e-01,3.438074802852907584e-03,-2.241045499621136319e-02,-1.283634533363743092e-02,1.342077374458312988e+00
-4.828273613235048445e-02,-7.783681253769698660e-01,8.070076845671965149e-01,9.198771180022372561e-04,-2.175420648932063078e-02,-4.322547861655939676e-03,1.374939918518066406e+00
-2.613894751697239810e-02,-8.508012409885632454e-01,7.605627697818333477e-01,-2.842125528689560046e-02,3.241769225504374102e-02,-1.015922395770773798e-02,1.397718310356140137e+00
-4.916467138901241263e-02,-6.569103387633936642e-01,7.739284113796067732e-01,4.063072713151173743e-02,-1.937100334535082208e-02,1.146920274908880960e-02,1.246411323547363281e+00
-8.466242511676275173e-02,-6.386024023786081028e-01,7.729067465958104899e-01,2.283044450003931820e-03,2.770973597097877578e-02,-9.170988966697860359e-03,1.232837200164794922e+00
-6.795875978749164881e-02,-7.287951391028794079e-01,7.984954608009993127e-01,1.513930588147454270e-03,-1.519559865923013342e-02,3.208867974768145337e-02,1.328089118003845215e+00
-3.270928728739823377e-02,-7.022091801037678716e-01,7.768635779126196184e-01,4.040884810963227790e-03,2.269280200071662965e-02,-6.784978868664880147e-03,1.283502697944641113e+00
-4.541636776362963090e-02,-8.163180062656875124e-01,7.829954153053277910e-01,-4.579714211343853363e-03,1.163015538521021582e-02,4.171043108604627347e-02,1.387395858764648438e+00
-6.012747263594930835e-02,-5.507873452500474665e-01,7.462359001912426404e-01,-3.698799583715687428e-02,-2.903577631351264565e-02,5.290819472236742843e-02,1.140899062156677246e+00
-6.220383213107412435e-02,-5.712277562561312028e-01,7.555083760099882140e-01,-4.622423258051466116e-02,-3.192865831766987517e-02,1.848981711084655977e-02,1.163824558258056641e+00
-6.158103041727577831e-02,-6.402855592081854175e-01,8.553192616217332178e-01,-1.311211757222510155e-01,-3.214046848963302699e-02,1.137054667131295327e-01,1.341522812843322754e+00
-4.616525029533392194e-02,-8.338817089701908714e-01,8.033840525680803202e-01,-5.505566875119613859e-03,4.724135065349614575e-03,4.123890494046219581e-03,1.418324351310729980e+00
-5.796318978832860902e-02,-6.010938964673040452e-01,7.032403934750179886e-01,-8.545424094797909875e-02,2.179341798001957139e-02,2.225995164531351447e-02,1.145719647407531738e+00
-2.053112438191010553e-03,-7.852711493894560801e-01,7.845891731973362315e-01,-8.330095722767788145e-04,1.198226007035929110e-02,-2.613486791182506597e-03,1.359706640243530273e+00
-5.880029404980027796e-02,-6.908383348649237421e-01,7.850573417446701230e-01,-5.872780621139968293e-02,-3.659801131553882397e-02,-7.083931272476994868e-03,1.288190007209777832e+00
-1.816811962709137529e-02,-7.835984979128183259e-01,7.939887682417098302e-01,-1.660682356776955332e-02,3.007516113608299166e-02,-9.585895779439489173e-03,1.367826223373413086e+00
-1.536825182616576024e-02,-6.817404452882525057e-01,8.056535523911110275e-01,1.134861502343089273e-01,2.551007952751519967e-02,1.328569362001598940e-02,1.306274890899658203e+00
-3.277735850711521043e-02,-6.648502738010484414e-01,7.668034785780361018e-01,4.166573645804004696e-03,2.254509801193677401e-02,1.958084502795742754e-02,1.243770956993103027e+00
-2.787268987715448704e-02,-7.946090822282710908e-01,8.012698493135932409e-01,-4.327353509581763000e-03,2.389031202851904165e-02,-3.975097519872924576e-03,1.383080482482910156e+00
-2.033664836271158877e-02,-8.206151805887773598e-01,8.034278244257990753e-01,1.053072542305269867e-03,8.470156479790876686e-03,1.452296489263527534e-03,1.406591415405273438e+00
2.321241331448965425e-03,-7.359551304047045051e-01,7.789554271481712311e-01,-4.386584676629352170e-02,1.252653983058236997e-02,-1.267194454444820796e-02,1.314651489257812500e+00
2.186031162586643539e-03,-6.954302803969201197e-01,7.652625210393119159e-01,-4.602872788275954447e-02,1.062865353515078312e-02,-2.306058476509585328e-02,1.268691897392272949e+00
-2.018156313317675740e-03,-7.758496674950704497e-01,7.823169886511748272e-01,-1.344050298586656764e-03,1.015293360695841175e-02,3.576160390514952943e-03,1.349552989006042480e+00
-2.088357320530224298e-02,-8.092910460747627654e-01,8.007044945892032306e-01,-2.324465047524930123e-03,7.973684917438741493e-04,-4.601258923948925612e-03,1.394425034523010254e+00
-4.243149995936194158e-02,-8.312996427449791392e-01,8.037153804802643631e-01,6.720557626683103247e-03,-6.633718945070332142e-03,-2.411366447321315262e-03,1.416354775428771973e+00
-8.167568719284096224e-02,-5.562577257852057144e-01,8.405805067823014509e-01,1.474192503415490407e-01,4.408683704651168191e-03,7.686935980569502280e-02,1.263508319854736328e+00
-1.162924493303657547e-01,-3.212206051303059806e-01,8.876272105252015487e-01,1.600554346531138095e-01,1.655519303504121575e-02,-2.656621543264950716e-02,1.155583977699279785e+00
-5.482825991652684472e-02,-8.334305857515049709e-01,8.095363986925637745e-01,-2.549153041206237932e-04,-6.117908960070536119e-03,1.299203182808893317e-03,1.423538446426391602e+00
-1.367521395412183392e-02,-8.042872324144680896e-01,7.977963340105811429e-01,3.221408253456351217e-03,-1.610943190058099943e-04,-5.145706042877553829e-03,1.387524127960205078e+00
-1.461963418613497490e-01,-4.928079354905180454e-01,7.999258608723980313e-01,3.755884829536689147e-04,1.432168662352824307e-02,9.882543232927538945e-02,1.171810150146484375e+00
-1.239300820857937857e-01,-4.246687377526496832e-01,8.230509202391330659e-01,8.869291409010912619e-02,3.610383689816899083e-02,7.630635991319764666e-02,1.147601127624511719e+00
2.975618701299031707e-02,-7.937960830655418354e-01,7.804128791830836631e-01,-9.890026172141375485e-03,-1.106354563948777148e-04,-1.657839675941050889e-03,1.363902688026428223e+00
-1.099535441454130291e-01,-2.328188380660050627e-01,7.737044567110880067e-01,1.561713677195215866e-01,-6.449465969327571914e-03,-1.602386569446842199e-02,9.892329573631286621e-01
-5.869035619463615350e-02,-8.152943005356380057e-01,8.110219422115926280e-01,8.535082697906810076e-04,-2.037329433953797859e-03,2.427780399157095093e-02,1.410198450088500977e+00
-4.745833564834433388e-02,-8.307012610859734192e-01,7.752668930683332960e-01,1.106316225742336352e-02,-1.477282215212054675e-03,-2.698359219339353972e-03,1.391091465950012207e+00
-4.572638177207696830e-02,-8.391512529453530878e-01,7.963000630075496300e-01,1.097131374811890180e-02,-6.709344211772667009e-03,6.967525514136914920e-03,1.416777372360229492e+00
-3.455779665375754289e-02,-7.616284192386252316e-01,7.961011427250141992e-01,-2.547402980605543207e-03,-1.889216478374610916e-02,6.290910695924870066e-03,1.350474953651428223e+00
-6.439443053278168239e-02,-7.965708861013623965e-01,8.135312415092322835e-01,8.450463296191884025e-04,-1.262176771156401506e-02,4.772420344159656810e-03,1.396488666534423828e+00
-8.350378666542444817e-03,-8.188885640700592772e-01,6.989909407475335401e-01,-2.548863153372550507e-03,9.193331627742180184e-03,-2.024380360677503071e-02,1.316105484962463379e+00
-4.484925964681831662e-02,-4.394681747334314159e-01,2.660220908455755984e-01,-9.389023009491162530e-02,1.708082736310255201e-01,1.223570311655098469e-01,7.307031154632568359e-01
-6.282729311527993077e-02,-8.143614188185895886e-01,8.116340270136854773e-01,-2.933502847725605149e-03,-9.899032797503594730e-03,1.303277630075543730e-02,1.409788250923156738e+00
-9.279540003851657892e-02,-7.000307290852347819e-01,8.184748324895164684e-01,2.179232354232930186e-02,7.171726069232146721e-03,2.883791857553694507e-02,1.325359463691711426e+00
-5.037855732019334842e-02,-8.257982052804935247e-01,8.045242639435012943e-01,2.821400028589188258e-03,-2.866626590122193455e-03,-7.198021831040501799e-03,1.412532091140747070e+00
-5.259669460260701923e-02,-8.140174491502610854e-01,8.059654391355500769e-01,-3.246244938977510129e-04,-1.329796806261776890e-02,6.958436173419611272e-03,1.404027581214904785e+00
-8.295320457422954152e-02,-6.941610714409292004e-01,8.006071903800772160e-01,1.550689182780956880e-03,-1.900999478288824263e-02,-1.059585823450791102e-02,1.302198648452758789e+00
-8.137638966837343335e-02,-7.687488470012321384e-01,8.108385747344718508e-01,-6.006562239121267314e-05,2.252695857972564393e-03,-1.069374645942693276e-02,1.371922254562377930e+00
-6.444496217367239044e-02,-7.359091338723633413e-01,8.030554684002304544e-01,1.411956986118425650e-03,-2.691338680306876868e-02,-1.319195405290240521e-02,1.337392091751098633e+00
-4.987996833605731761e-02,-8.341912456075792903e-01,8.077300444944417457e-01,1.458591276430116178e-03,-3.871022916958542087e-03,2.400161907490381500e-03,1.422441840171813965e+00
-5.290675299128630438e-02,-7.556262989550236453e-01,7.602771303687240190e-01,2.557840459177827819e-02,-8.200060873146246612e-03,-2.010330676546524115e-02,1.315256595611572266e+00
-4.982768253839291173e-02,-8.281156716148804220e-01,8.078059318223711482e-01,4.570431059949454054e-03,-5.194672250392293709e-03,-9.197261971342652123e-03,1.417445182800292969e+00
-3.105582462308408703e-02,-8.183155000547425173e-01,6.725191236938777850e-01,4.558433237174939925e-04,1.168160657035562100e-01,-1.939242230241013804e-02,1.307959675788879395e+00
2.401862028989542805e-03,-7.400992340637341238e-01,7.726316331962177486e-01,-1.242736429110405773e-03,-1.685290200686021672e-02,7.521245615682145211e-03,1.310528397560119629e+00
-3.317704809298756274e-02,-7.800713459504192704e-01,8.004263316420419105e-01,-1.435392837414805993e-02,1.356050880989392166e-02,-2.806424469206068601e-03,1.369873285293579102e+00
-1.400581343618794924e-02,-7.229447497535184119e-01,7.799320047700263325e-01,-2.754826095520593321e-02,1.682247695620021910e-02,-5.420986878615059214e-03,1.303456544876098633e+00
-3.369010362820923365e-02,-8.340014192490812217e-01,8.091334205694710180e-01,-2.341519352968333511e-04,-3.476546777154577300e-04,3.396787817155580251e-03,1.423167586326599121e+00
-1.002568309205587906e-02,-8.105688065649299112e-01,7.967364333981147295e-01,2.881237797794518850e-03,1.087081003782436328e-02,4.234775629936782942e-03,1.392126202583312988e+00
5.728827274032458061e-02,-9.833939400917013351e-01,3.510440948945287021e-01,9.837348927958994294e-02,-5.850440549484284963e-02,2.422688563577539977e-01,1.300154328346252441e+00
-4.514009188655914578e-02,-8.331630669809831913e-01,8.101569978600462463e-01,1.227223264683962190e-03,-7.926462326917793622e-03,4.095736498960095458e-03,1.423639893531799316e+00
-5.508897992708755575e-02,-8.269190104453800760e-01,8.160968479680790200e-01,-2.150927075099237553e-03,5.993092129548522294e-03,-3.478833588785111564e-03,1.423815846443176270e+00
-4.933155644221002417e-02,-8.163784865795952195e-01,7.233722970942526587e-01,-1.478103453333823661e-02,-2.344041048746155903e-02,-7.222109719170437606e-03,1.334388494491577148e+00
-5.215500702002567879e-02,-8.336320106313310774e-01,8.083904057970499046e-01,1.983226004259959832e-03,-3.688879364123834326e-03,1.871615671796351271e-03,1.422604799270629883e+00
-5.947730776139252551e-02,-8.063641849637362968e-01,8.059035069172767463e-01,3.471512349915993373e-04,-4.491587851543919589e-03,7.929125344036466391e-03,1.397610425949096680e+00
-7.062159605007208019e-02,-7.883393249736168062e-01,7.869959453343501332e-01,-4.771881333320105410e-03,-4.906679295003913387e-03,-1.079678527827311607e-02,1.366251826286315918e+00
-5.325957168618083992e-02,-8.280380379882941178e-01,7.954823864252422716e-01,-9.436183886005731353e-03,-8.568953514015210417e-04,-6.490202267948295099e-03,1.406636834144592285e+00
-4.317034363802696451e-02,-8.186442669435067820e-01,8.145364978176318216e-01,-4.146756397037724452e-03,1.855510567336024833e-02,-6.167518989751888392e-03,1.415397047996520996e+00
-9.004755208288466040e-03,-7.930698431143707872e-01,7.941496427316238060e-01,2.401959732282208184e-04,1.395734124999895368e-02,-3.393364648605428323e-03,1.374830722808837891e+00
-4.274219456657055161e-02,-8.318657361887977775e-01,7.757469796925654526e-01,6.354199521006458941e-03,-8.180325088186024898e-03,1.101961215723241787e-02,1.392557263374328613e+00
8.016000722093623299e-03,-7.914862040766448281e-01,7.867845262591729449e-01,1.081874410390152100e-02,1.784669742508970466e-02,1.182941990864176804e-03,1.367341279983520508e+00
-6.885211765509033355e-02,-4.909555614424743197e-01,7.762195108971408075e-01,1.679118818852136097e-01,6.581661989182462091e-02,-5.093868533139125215e-02,1.163781762123107910e+00
-9.246071241632297655e-02,-4.680797481871653565e-01,8.787919725474839794e-01,2.002695153137125372e-01,6.345801600361095085e-02,8.878658088469994214e-02,1.267002820968627930e+00
-3.784147938357524527e-02,-8.345381743323678769e-01,8.135987956911622243e-01,4.994967455073559380e-05,5.033893461578950630e-03,1.562301669241679750e-03,1.427620053291320801e+00
-3.804185174181125978e-02,-8.249082050365974528e-01,8.021248628148025528e-01,1.132590692055479841e-04,-1.687760211506497601e-03,-3.467012313363548436e-03,1.409319758415222168e+00
-1.397995027845839178e-01,-2.542843973834996718e-01,7.613360057991728214e-01,1.146093903727932600e-01,2.130221752930530274e-02,-1.270085231347695409e-01,1.008701682090759277e+00
-1.938662621170137990e-01,-1.138945745968482082e-01,1.167549714299611630e+00,1.116001922733079327e-01,-1.361236266040865284e-01,-1.221756782782708883e-01,1.374302625656127930e+00
1.068917070595206895e-02,-8.082363669426890773e-01,7.966374002855938219e-01,-4.541677928985554322e-03,2.177431922536381993e-03,1.876915748550664863e-03,1.389990448951721191e+00
-2.065620436957178729e-02,-8.267689823117079229e-01,8.053091276466887161e-01,-1.006297497891144293e-03,-8.470711762039040069e-03,-3.455976560353607192e-03,1.413545846939086914e+00
-1.299450066231098988e-01,-4.509575458965219275e-01,8.301489405539402844e-01,5.519379212318006184e-02,-1.425404499607190421e-02,-2.327806964254881816e-02,1.159485101699829102e+00
1.886416239836565673e-03,-7.129818401398604344e-01,7.720623486966250448e-01,3.869846627269476341e-02,7.893389474333600830e-03,3.257287580506749297e-02,1.289435744285583496e+00
-4.163653687266036241e-02,-8.327069676988958502e-01,8.163556614137947864e-01,1.755803319132822823e-03,-5.507016460353147090e-03,-3.043823692296732282e-03,1.428566932678222656e+00
-8.293570927412674543e-03,-7.343166342014919579e-01,8.217378152540337766e-01,1.044077749290138329e-01,-2.873784204859875652e-02,-4.704681304705779499e-02,1.364003062248229980e+00
-4.836911454343603700e-02,-8.339740414287236669e-01,7.959049800337198999e-01,4.542188632536900417e-03,-6.850868702839197841e-03,4.423350655620058615e-03,1.411913990974426270e+00
-3.645871551861278731e-02,-8.280348977912198594e-01,8.116807315837650805e-01,-1.009309247467931898e-03,-4.487853705245028915e-04,-3.466341858914506746e-03,1.420331001281738281e+00
2.295650631010401344e-02,-7.868074380111130806e-01,7.795916664570691212e-01,9.256215511351414266e-03,2.024848747738939875e-03,-5.657185315230113618e-04,1.356901049613952637e+00
2.942239075473189469e-02,-7.748392303122475511e-01,7.756425215761488801e-01,4.966100788288432995e-03,1.913424946217102875e-03,-3.942854647436200115e-03,1.343119144439697266e+00
3.017699204848945174e-02,-7.936906466028676999e-01,7.791087241994051338e-01,9.192800379770271757e-03,6.931592400586289492e-04,-1.759741615083256893e-03,1.362696409225463867e+00
-2.477635980325715304e-02,-5.377433432290711357e-01,7.772788456772301569e-01,2.292593408141586908e-01,-1.525079046338104075e-03,-5.700206363997680284e-03,1.214758992195129395e+00
1.062309811203978639e-02,-7.888063643660131463e-01,7.862450541850050101e-01,7.980639084530794999e-03,9.379206992469314372e-03,5.429593589173019319e-03,1.364285707473754883e+00
-3.999608949870887831e-02,-5.718914837842422605e-01,7.558548839192681390e-01,-5.507340304743241904e-02,-1.370839293091936570e-02,5.297445532076282791e-03,1.161614418029785156e+00
-2.989099319325946164e-02,-8.279098365396065917e-01,8.043157394642019842e-01,-1.496121908385694785e-03,9.015314308401963656e-03,3.158829299565217401e-03,1.413763761520385742e+00
-2.263194351500713575e-02,-8.292817090146036296e-01,7.241477653594878827e-01,8.185762335766512757e-03,-2.997681332334784128e-03,-1.963477575490023969e-02,1.346156716346740723e+00
-1.393678351655486813e-01,-2.435231453080699549e-01,6.791164601196034711e-01,2.407256006731862685e-01,1.725939246643825031e-01,-3.554566722457550704e-02,1.016374588012695312e+00
-4.708260207631407429e-02,-8.344725861915260889e-01,8.156097081179595198e-01,4.009029351732775609e-03,-4.477836270726185189e-03,-2.862381207665460996e-03,1.429555654525756836e+00
-3.017541535640930802e-03,-8.043298307646071788e-01,7.978709605947306160e-01,2.808094235746206105e-03,-4.439921201682153068e-03,4.369700873957622976e-04,1.387576699256896973e+00
-4.673685741060759624e-02,-8.302183529237457948e-01,7.911622705664439481e-01,3.832022225641334642e-03,-1.925306798167309916e-03,-2.699698446503052789e-03,1.404447793960571289e+00
-5.016050721970188864e-02,-8.296551895680797095e-01,8.208143802114017396e-01,-8.735742522650278424e-03,-4.516955094670887898e-03,-3.516557483362442969e-03,1.430194616317749023e+00
-7.671964097860788090e-02,-8.651881191073532706e-01,8.445291177220327627e-01,-5.354396243095490768e-03,5.054377713991958787e-02,-1.904633506273853438e-04,1.484758377075195312e+00
-6.295593581683842088e-02,-7.967300178448313286e-01,8.118062167687937203e-01,3.176319501160619011e-03,-1.276183574887431588e-02,-1.000119868075854783e-02,1.395109295845031738e+00
-5.364461070240214569e-02,-8.297563487737673604e-01,8.170993657368291752e-01,3.344454080512565975e-03,-5.500665242581075955e-03,-5.012053886332079600e-03,1.427073478698730469e+00
-5.325823642665628022e-02,-5.349670958189777226e-01,7.433717870880517387e-01,5.144477691635844507e-02,-3.946386262599472193e-03,-1.398948529949887477e-03,1.121783733367919922e+00
-3.796603204395485043e-02,-8.304382829985149650e-01,8.059680417162173871e-01,-2.132632357736000735e-03,-1.519043692300088002e-03,3.164021035013210147e-03,1.417420864105224609e+00
-4.570282940023593504e-02,-8.249779120691819179e-01,7.926035954005585804e-01,-1.904582128879612427e-03,3.352113417328364021e-03,4.475510427132623793e-03,1.401214957237243652e+00
-8.147352744856811713e-02,-8.048032450051544329e-01,7.610017358017335809e-01,1.160484265401409872e-03,6.356988537620507189e-03,-4.487346521653177382e-04,1.357381224632263184e+00
-8.307838313724162649e-02,-8.071620617629385874e-01,7.634191627041891914e-01,-5.783631069299346658e-04,5.542215700422793191e-03,-1.548516193493864159e-03,1.361576557159423828e+00
-6.860673523264038121e-02,-8.050255241736333778e-01,7.563740967631212841e-01,-4.404232089575725421e-03,1.653402330542878829e-02,9.927372584897183917e-04,1.353262186050415039e+00
-3.053673974582489514e-02,-8.264957974474246294e-01,7.393219308982302840e-01,1.676015724496035877e-02,1.143033048434910709e-03,-7.028722013835508528e-03,1.356467485427856445e+00
-3.969401149079133939e-02,-8.069943731624199534e-01,7.393437099987788530e-01,-2.378407726845764916e-03,2.716258765518071716e-02,-2.153989852458190746e-02,1.340532660484313965e+00
-4.487976132887096237e-02,-8.266692355848802576e-01,8.110173282351620383e-01,-1.460582351415519280e-03,1.150129286872541949e-02,4.661359107062553603e-03,1.418927192687988281e+00
-6.953525998031592770e-02,-7.942582337246636426e-01,8.198323034578336443e-01,2.152301975238488183e-03,1.447058732726275512e-02,-6.534469479126867736e-03,1.400540351867675781e+00
-6.096930683518155675e-02,-8.139013705840081325e-01,7.323045551869181713e-01,-2.164880075892283446e-03,4.841752026947756388e-02,-1.248239477450786860e-04,1.341833949089050293e+00
-2.442958887685512531e-02,-8.085183473075469029e-01,8.035002000347385431e-01,1.508755841089544662e-03,-1.471714022595685574e-02,-4.711513275563929820e-03,1.396480083465576172e+00
-3.439404811858775418e-02,-8.333919219983629834e-01,7.450367874053338557e-01,-9.098450961189585504e-03,3.032754555818663149e-03,-4.629959704424870654e-04,1.367095589637756348e+00
-4.090376644351589180e-02,-8.316487905843648054e-01,8.130224525058331597e-01,-1.861485496029041588e-03,3.663687404068622418e-03,-3.483488216792700407e-03,1.424707889556884766e+00
-1.701172135953393436e-02,-9.109386399210104290e-01,8.556524700857603971e-01,1.150661794004415039e-01,5.843158425865715988e-02,-1.401701145952371358e-02,1.546382546424865723e+00
-8.755719936027805961e-02,-8.075385455561584491e-01,7.844450362525263731e-01,-5.693898838785026216e-04,4.494859316864096427e-02,5.771301427761751750e-03,1.383021473884582520e+00
-3.523342367982384982e-02,-8.346374961538838289e-01,7.617236272965793864e-01,-1.209705181017751941e-03,1.311453839530849798e-02,4.994988432467383638e-03,1.382705092430114746e+00
-5.613534882976995571e-02,-7.932489139301214243e-01,8.113667516621599907e-01,-4.265946812371681053e-04,9.991558096926205987e-03,-7.686345740737782553e-03,1.391337871551513672e+00
-4.670071537895603697e-02,-8.188606385094048257e-01,8.190172745725542436e-01,-4.145905331327870598e-03,1.801716074632840267e-02,-6.166253145081874477e-03,1.419616460800170898e+00
-4.080885124692172627e-02,-8.222059989995172957e-01,8.146634284764390221e-01,-4.512924388142809315e-03,1.517849903012706732e-02,-2.875788967381497606e-03,1.418328285217285156e+00
-5.053110563171515912e-02,-8.033713533052961875e-01,7.149381347779982798e-01,-8.231955673049753952e-03,2.988587293245206084e-02,-1.551719627407826445e-03,1.316008210182189941e+00
-5.353953925581209777e-02,-7.989476196926349472e-01,6.537682929229537976e-01,-2.738940103876825257e-05,4.281503037682590079e-02,-1.243672722664315028e-03,1.260418415069580078e+00
-9.645552908362386990e-02,-8.365556612059387165e-01,1.033421195764118172e+00,-2.803949930826976078e-01,2.314023377546376714e-01,6.790350230513739205e-02,1.752406716346740723e+00
-3.808948416476987120e-02,-8.299103681623567486e-01,8.134929991006087935e-01,-2.476999560817368367e-03,8.736620507639940997e-03,-1.730267712783177710e-03,1.423632740974426270e+00
-4.385240275892630241e-02,-8.388184229751722842e-01,8.147101009327845089e-01,-1.624846548201448098e-03,4.569729230009856452e-03,9.857489305992186111e-04,1.432376384735107422e+00
1.297411618461521976e-02,-6.210761000404367849e-01,2.978444087564241505e-01,1.212725914772018465e-01,-5.661179178582016747e-02,1.515197914583913119e-01,8.867938518524169922e-01
-1.119606805034294994e-01,-1.684252971147845446e-01,1.142784478837694184e+00,9.563288724074026081e-02,5.845065324041268801e-02,2.056052113246900626e-02,1.298990726470947266e+00
-7.822741360363787144e-02,-8.016909780781684702e-01,7.565212232997754471e-01,-2.410986181593392287e-04,1.898641956611385462e-02,-9.476299352920418027e-04,1.350999355316162109e+00
-7.870983524637334416e-02,-8.068911208456517326e-01,7.617344981338465271e-01,-1.372743612840957505e-03,1.735157246934845854e-02,-1.525685848290204288e-03,1.359965562820434570e+00
-4.518294780341242101e-02,-8.350304979796044913e-01,8.058587902197350550e-01,9.171670091649673784e-03,-5.184678264537129905e-03,1.449357107691719984e-03,1.421500563621520996e+00
-4.608459235182670033e-02,-8.353958473870909396e-01,8.102893630196680297e-01,3.259122641971289210e-03,-5.730589067751885174e-03,1.210387562529235050e-03,1.425646901130676270e+00
-4.236021671690830270e-02,-8.037608526855156699e-01,6.886845447279538179e-01,1.323843822604149970e-02,4.903670971760971248e-02,-2.438403011131743889e-02,1.296263337135314941e+00
-4.642668162929312892e-02,-8.247002512095087390e-01,7.694332134324476380e-01,1.253297026568160957e-02,-5.846476471132554600e-03,3.589906293035854609e-03,1.380909800529479980e+00
-8.689685690493745285e-02,-8.073640140759680284e-01,7.803994242711337348e-01,1.282482374788899071e-03,9.674113821953498130e-03,2.545843290749755759e-03,1.377112746238708496e+00
-7.448522526807664634e-02,-7.200687076787876117e-01,7.132168768542215265e-01,6.329054320810026737e-03,5.585879749820906078e-03,-1.092718484754806423e-02,1.243524074554443359e+00
-3.855575055934065687e-02,-8.247639105050853514e-01,8.010231285279518776e-01,-3.139707029551278678e-04,3.511107689433514041e-03,-4.755655364340483256e-03,1.408263087272644043e+00
-4.684103710190754000e-02,-8.334784346743252526e-01,8.113178700317145164e-01,1.047704780996146874e-03,1.422103543289193446e-03,2.025377980834336140e-03,1.424891829490661621e+00
-7.404310467631812498e-02,-8.414594912759969514e-01,8.366238169326549734e-01,4.094884761356282731e-03,3.660308461895256382e-02,-1.442115353031899784e-02,1.456638693809509277e+00
-8.115361166718974839e-02,-8.036976519542580188e-01,7.591008268974277495e-01,9.420132064682165554e-04,8.060119102778245254e-03,-4.002573195478673768e-03,1.354792952537536621e+00
-7.916803199317132278e-02,-8.111705410204966826e-01,7.763287347907686931e-01,-4.449909642459747884e-03,3.999659734905305040e-03,7.015358159615462524e-03,1.376293301582336426e+00
-8.113106664978463056e-02,-8.010220850168392470e-01,7.540935781592614795e-01,7.192524672456308897e-05,-4.150499882130357786e-04,1.014701797279428689e-03,1.348005056381225586e+00
-4.695497957322410099e-02,-8.031934758548143760e-01,6.916218607689619269e-01,-7.985388837716687199e-03,1.993394397392545328e-02,4.979694564198427348e-03,1.295141100883483887e+00
-8.819405373121139147e-02,-8.041000226975454357e-01,7.831758208540148258e-01,4.677364940686682022e-03,1.939388791579152102e-02,1.602924818057163171e-03,1.377253532409667969e+00
-8.201378678718956872e-02,-8.239695575160593810e-01,7.839047638782802307e-01,-2.028835304233467945e-03,6.596318626593235084e-03,-2.330662954967870678e-03,1.393895864486694336e+00
-4.421951781446389895e-02,-8.235786048147062388e-01,7.996029663414868649e-01,-2.111963662603587571e-03,-4.079227529548219017e-03,-5.182775828144745196e-03,1.406137108802795410e+00
-6.015712300821194486e-02,-7.671128561954925207e-01,8.048458081054546964e-01,6.050609918485249858e-03,-1.024855376131619290e-02,-1.059274120317363344e-02,1.363927006721496582e+00
7.493767227585212964e-02,-8.808841224344240439e-01,4.241509041020439241e-01,3.128580355892261050e-02,6.516488309128740108e-02,-2.830292028679215824e-02,1.177883625030517578e+00
-8.128939899533063618e-02,-8.036878225976334944e-01,7.664644065159876840e-01,6.935538668422717556e-05,6.009792124071175121e-03,3.295694985492394775e-03,1.361287236213684082e+00
-7.441091533223742616e-02,-8.108151309106778060e-01,7.788801810866018416e-01,-3.840344976466796619e-03,7.418027325192028468e-03,8.906219365120499748e-03,1.378118753433227539e+00
7.623898803064013685e-02,-1.162828384932167447e+00,6.717398618525944887e-01,-2.016241861427500379e-02,3.114710668605835120e-01,-1.002742395608582915e-01,1.717615246772766113e+00
-3.471508649540174657e-02,-9.297663050207951585e-01,8.484253946868653973e-01,-6.856723879739233529e-02,-1.908912351777027616e-01,-1.090821184171591324e-02,1.579648494720458984e+00
-7.349592240989441527e-02,-8.078888193399382800e-01,7.527838607364231160e-01,5.756806645762084160e-03,8.899541068339887964e-03,-4.262461956977070879e-03,1.352507591247558594e+00
-7.346476853967463805e-02,-8.389804498596949989e-01,7.809327765790365916e-01,-1.322013568590204267e-02,5.330315324799835691e-02,2.058800528512137740e-02,1.407261133193969727e+00
-7.265489802899066651e-03,-6.710584273616055917e-01,3.642162105040047115e-01,1.275308659049795013e-01,1.382285897018704565e-02,-1.376740488363100041e-02,9.354896545410156250e-01
-7.751636887298933576e-02,-8.073663000036047643e-01,7.584169138136788169e-01,-5.452152672977798528e-03,-1.677083943198176032e-03,3.228274064307951920e-03,1.357092499732971191e+00
-2.233434831460474890e-02,-8.208025727278484007e-01,6.797294455416359460e-01,1.666222922400184200e-02,-3.096597431635376985e-02,4.174944410117881893e-02,1.303824901580810547e+00
-2.637208817820103565e-02,-8.360062222513755525e-01,7.652512475680348647e-01,-9.635881453569956770e-04,1.269049773261912879e-02,-1.477978503137015835e-02,1.387170314788818359e+00
-7.696324931571893457e-02,-8.070862381117089868e-01,7.642206836578230300e-01,-3.507879807461681057e-03,6.844905025221987779e-03,4.206862672354948207e-03,1.362008929252624512e+00
-4.651832762488875006e-02,-8.341724359222419949e-01,8.149915303078859585e-01,-2.530664198389171587e-03,-5.997408753726406888e-03,1.764560245411743965e-03,1.428743004798889160e+00
6.093482429905899833e-03,-8.280467235779298552e-01,6.148506742101489397e-01,2.310506505173128347e-02,-5.115410709317604748e-02,8.845605921229399149e-02,1.267710208892822266e+00
1.159878282074268407e-02,-8.095825055951051397e-01,5.982717186757756656e-01,1.036735648431868703e-02,4.283149564102797791e-02,-2.132558105981313332e-02,1.227794408798217773e+00
-7.258414167822663243e-03,-8.220037412831693313e-01,6.605831237453010374e-01,1.925367107192303348e-02,-4.015232598713544543e-04,3.308748937279587521e-02,1.287765502929687500e+00
-4.324870420253659059e-02,-7.884243529053175381e-01,7.661510295557965033e-01,9.243987115457629519e-04,-1.265082555889349676e-05,-2.856129287851405258e-03,1.346694707870483398e+00
-4.563026520640799111e-02,-8.228358022445314557e-01,8.061762315847196270e-01,-3.938417373258364801e-04,-8.667831345546474220e-03,-8.305272918920640797e-04,1.411339521408081055e+00
-4.369894608053352669e-02,-8.345560422724204175e-01,8.031648644009082849e-01,-4.400128103324651464e-03,-1.494956916601517915e-04,4.529212573561968228e-03,1.418626546859741211e+00
-1.420625247519036877e-02,-8.292723486604512972e-01,8.091778184619154990e-01,1.152861585650668749e-02,-2.144260389224314500e-02,-1.749887852855969150e-02,1.419895529747009277e+00
9.781013614958422586e-03,-8.218856237224022587e-01,6.133866650585519942e-01,1.291104920161605975e-02,-2.804795670418301287e-02,2.588970252697144619e-02,1.250151515007019043e+00
-1.651098195150711365e-02,-8.137965514250943277e-01,8.225519252796831271e-01,-2.669529824396143364e-02,1.266172703139316694e-02,-2.046994173266696720e-02,1.418640017509460449e+00
2.239906728648224238e-02,-7.918938053764473795e-01,7.825899734737827851e-01,-5.034033966438084332e-03,7.668997228548859839e-03,-3.199394588505696368e-03,1.363915085792541504e+00
-6.711000765187234707e-02,-8.249202968141275960e-01,7.905998464959248517e-01,-7.710674909124833401e-03,6.871972510658762735e-04,-1.824631717163911759e-03,1.400040626525878906e+00
-4.424625420331887438e-02,-8.363126669730169827e-01,8.119322611789698829e-01,-1.810510759234701785e-03,1.571355017723293944e-03,1.429696376173975048e-03,1.427790045738220215e+00
8.012346359396928935e-05,-8.099736755285551482e-01,7.947463487403357840e-01,-2.312345256780528636e-03,8.702050989445613352e-03,-3.754754447469569982e-03,1.389852285385131836e+00
-4.786940332754976990e-02,-8.235669103487357479e-01,7.788402444822104531e-01,-7.684913147089796753e-03,-1.886842692196411800e-04,-1.129242113723166654e-03,1.388024926185607910e+00
-4.310853254336806384e-02,-8.001781904867460993e-01,5.859241401494638124e-01,-2.943879459559415879e-01,-1.194774097882008446e-01,-3.685585173843261564e-02,1.323612689971923828e+00
-4.281896992589185463e-02,-8.376818236552193708e-01,8.148666778833861812e-01,-2.440168625473598633e-03,-2.392379767968509999e-03,1.123560647286958635e-03,1.431507229804992676e+00
3.909730983032988494e-05,-8.248728018754630797e-01,6.005258242545191694e-01,8.096852076174774690e-03,-1.104890400746231099e-01,4.412864180703129219e-02,1.256612420082092285e+00
-4.530811394742236681e-02,-8.327189294515745521e-01,8.077711723987369696e-01,-5.906107567032600411e-03,-2.755991365996917405e-03,1.095396192922462293e-03,1.421131610870361328e+00
-2.940112706042898733e-02,-8.262829055896496744e-01,8.126487542553756382e-01,9.733168128992633139e-04,-1.830038557557744569e-02,2.661240987519460782e-03,1.419898390769958496e+00
-5.607083366099546717e-02,-8.349689166857798828e-01,8.097389617122389138e-01,-5.538868652764390027e-03,9.729749088157987793e-05,-3.557575608365272325e-04,1.425053954124450684e+00
-4.516982580087124111e-02,-8.245432904515472838e-01,7.553964714256631297e-01,-1.029708134289270167e-02,1.127916713960959091e-02,-7.087670525594749055e-03,1.368619680404663086e+00
-8.168654845000772324e-02,-7.687580596415889422e-01,8.128600985619575114e-01,4.525720559525505358e-03,8.276807397296087263e-03,-9.428341817638911243e-03,1.373838424682617188e+00
-4.594031738305875273e-02,-8.352910405767477453e-01,7.957702342532019246e-01,9.922053654520810936e-03,-6.491240191362395232e-03,4.999680104869444995e-03,1.412958860397338867e+00
-5.655160379363814022e-02,-8.232672534533997943e-01,7.546688367685111531e-01,-1.810202110842702716e-02,2.350767808834630310e-02,1.032031910233802141e-02,1.367796540260314941e+00
-6.982015383061113134e-02,-8.205225871927730452e-01,7.750015063492075029e-01,-1.083937488802833027e-02,9.625337362311628051e-03,7.112975412014188072e-03,1.382848381996154785e+00
-4.255185549109855025e-02,-8.336525542228104824e-01,7.978487937574889610e-01,-5.971774637999480509e-03,-4.412735840063702723e-03,1.393270177311882897e-03,1.413197159767150879e+00
-5.290251932736830115e-02,-8.247964582838840375e-01,7.381846900118387289e-01,-1.297260076508451911e-02,2.455770500946283935e-02,2.522308588029018722e-02,1.355174303054809570e+00
-1.465119022176609720e-01,-2.570673146811454646e-01,8.801313087415090219e-01,-2.330192823721140838e-01,-3.535131961238508619e-02,-4.298690824429469981e-03,1.160352706909179688e+00
-4.954768311394641689e-02,-8.394625900021150944e-01,7.870102610904096130e-01,-1.349322618440663112e-02,7.130651990166719453e-03,1.781074028528399286e-02,1.409345507621765137e+00
-4.392985946535567232e-02,-8.363965655746079531e-01,8.140339982179392031e-01,3.374736395305616074e-03,-4.692443080198465191e-03,-5.333940725176426843e-04,1.429725289344787598e+00
7.804827488710150418e-02,-1.127154989357210368e+00,6.150224077498438469e-01,-2.207810741585070624e-01,-3.042488194075673169e-01,-2.102249118554905261e-01,1.715965509414672852e+00
-5.374729278746898792e-02,-8.258451739680507941e-01,8.135678170947718835e-01,-1.832941103634872643e-03,3.421780426469646624e-03,-1.908452143943616293e-03,1.420590996742248535e+00
-4.558394280354445549e-02,-8.315597358894403213e-01,8.007212421813417746e-01,5.058037931565294992e-03,-1.841420009905802386e-03,-4.500054598888456048e-03,1.413970828056335449e+00
1.492321592623716553e-01,-1.213020533021280212e+00,2.946410897115649963e-01,-2.278184351493296178e-01,2.117227253290716316e-01,2.916255938232380496e-01,1.618727803230285645e+00
-6.329118196663904850e-02,-7.950140236172781316e-01,8.176180510580400851e-01,-1.912789777942566511e-03,1.196562007416275900e-02,-1.037759011249664125e-02,1.398844003677368164e+00
-3.048194853590991543e-02,-8.360112587094897796e-01,7.835034975110799493e-01,5.949177757185709903e-03,2.366494122131155252e-03,7.282949541048867534e-03,1.402647852897644043e+00
-4.185326035405848022e-02,-8.285368675730804267e-01,7.864572466278116902e-01,-7.349890936177616747e-03,-1.152490885511098413e-03,5.337866177265787257e-03,1.398870706558227539e+00
-5.571658967494465264e-02,-8.181323611444126787e-01,7.615472954169818509e-01,6.664335885667829404e-03,-4.062757163953801404e-02,1.709053863441114054e-02,1.370494127273559570e+00
-6.093745353387111652e-02,-8.184011433375411038e-01,7.897069444399213989e-01,-3.083539007160418684e-03,-1.404318142741687063e-03,6.795898313242303493e-03,1.393503665924072266e+00
-6.512757293494861321e-02,-8.210305396661466970e-01,7.922302836290400219e-01,4.522196485263676492e-03,-1.538415701509508260e-03,8.434045241103596546e-03,1.398146271705627441e+00
-4.573479171051149372e-02,-8.318434215346995897e-01,7.934637636234505020e-01,-5.921335642062883420e-05,-1.497023546814154173e-03,-1.373483616296759932e-03,1.407811999320983887e+00
-2.787815267006946846e-02,-8.504337965250128306e-01,8.187009056182129596e-01,-1.374263959875891318e-02,-9.876858401973789836e-03,-3.227884738515580162e-03,1.445870995521545410e+00
-7.623042902922727571e-02,-8.045910733990748742e-01,7.526565323678416908e-01,5.263458814679660043e-03,1.212419535257066271e-02,-6.966303308122386191e-03,1.349800467491149902e+00
-6.563582633203707273e-02,-8.135778559380997255e-01,7.846089322073046546e-01,4.207622868847495957e-03,4.371273429955645912e-02,6.280121170386453698e-03,1.387144923210144043e+00
-1.072749684645513818e-02,-7.288493483375036996e-01,5.579586956496384031e-01,-6.455959284610485183e-03,1.342169305054301542e-01,-1.414924780281919814e-01,1.166926264762878418e+00
-4.488519265518720047e-02,-8.350763365787553516e-01,7.871684537023736494e-01,-1.599469212731423849e-04,-2.216286692028783274e-03,7.869225540851161257e-03,1.405132532119750977e+00
-4.888008917652347796e-02,-8.259305914138181937e-01,7.694033523882807257e-01,1.694949968212960956e-02,-9.274115064777417247e-03,1.381672389914020277e-02,1.382365822792053223e+00
-5.514051555333927823e-02,-8.202594759803876201e-01,7.887140642172268956e-01,2.664403650154370095e-03,-2.825544137440982352e-03,4.657027407269470967e-03,1.394007563591003418e+00
-3.366690004710264084e-02,-8.092824253763526432e-01,6.953569910846376656e-01,1.637093727653475203e-02,2.032401400517970004e-03,4.186339889844737684e-03,1.303597569465637207e+00
-6.767870329551839426e-02,-8.109938147858356539e-01,7.540808018653074596e-01,8.414197634104928283e-03,-1.768091860775672375e-02,-4.474515679209281897e-04,1.356386065483093262e+00
-4.852398630732093071e-02,-8.266294754345566709e-01,8.047804729993325301e-01,6.141745871177883842e-03,3.453968307614060929e-03,8.237217321890739560e-03,1.413467407226562500e+00
-7.101528089832967461e-02,-8.114234362741961082e-01,7.791009053328940004e-01,1.622929796009274289e-03,-3.748047290544349180e-02,7.799728911828594097e-03,1.380123019218444824e+00
-5.929210919308168515e-02,-8.205913103287630905e-01,7.905585688383289789e-01,5.298110993247314229e-03,-1.764093871594684011e-03,8.445549904952099479e-03,1.396109223365783691e+00
-4.995818081241756858e-02,-8.096037209924323852e-01,7.302553727851451848e-01,-8.074957181749010601e-03,2.409046465533406286e-03,-3.776785465512758067e-03,1.333692669868469238e+00
-5.355439526779316728e-02,-7.977709720547240257e-01,6.963487282165894410e-01,-3.126423559984423551e-03,7.322381238936782021e-03,-3.341982954876793698e-04,1.294022321701049805e+00
-5.406898684899251462e-02,-8.308430685651019276e-01,8.092599767795053411e-01,6.314780885661746071e-03,-9.992381463317835319e-03,9.115645216291275166e-03,1.421265244483947754e+00
-5.272553463966089815e-02,-8.200699475110569958e-01,7.898671316961399791e-01,1.903596407900639501e-03,-1.781017119996455497e-02,4.731570360543487473e-03,1.395123004913330078e+00
-3.926082703469569585e-02,-8.284246160627953826e-01,7.254001361245658863e-01,1.703167734714006523e-02,-1.050467164431968282e-02,2.589999697023028305e-02,1.346901059150695801e+00
2.147201746730911104e-02,-7.938042485704417395e-01,7.941617068011210812e-01,-1.577765994881945300e-02,-1.109429985319823229e-03,3.308960732913725483e-03,1.375668406486511230e+00
6.951010495075943263e-02,-7.761514907220732340e-01,4.344200860679225951e-01,3.564372256430495874e-03,6.508689849041843223e-02,3.478492693092422559e-03,1.081515789031982422e+00
-2.093951540467729050e-02,-8.357930712725407663e-01,6.571392501762798322e-01,-9.275413770275609069e-04,9.381839032629839259e-02,3.647181696095405656e-02,1.306411385536193848e+00
7.069431213797244817e-03,-7.991646511695048583e-01,5.813448361914460571e-01,-1.290734586484440852e-02,6.153607662467491801e-02,2.059051497986496768e-02,1.206622481346130371e+00
-4.390872579306590723e-02,-8.274201292473525315e-01,8.013823210650649065e-01,-6.159572759424065611e-03,4.771449683353168846e-03,5.933281431876597303e-03,1.411024451255798340e+00
1.607392043931001741e-02,-7.304874682740593039e-01,7.564803659151653203e-01,-5.998808553105314592e-03,9.849493282466106892e-03,1.971234033396216008e-03,1.287914991378784180e+00
4.684809630768160815e-02,-7.900212022865387151e-01,4.769521664872169442e-01,3.173504139791202328e-04,3.240833898420105580e-02,-1.006087411165862422e-02,1.117468357086181641e+00
-5.580549129655114349e-02,-8.362998691673667606e-01,8.166253684301330029e-01,-3.950137043937304582e-03,-1.957571985153102288e-03,3.970322902498874332e-03,1.432250022888183594e+00
6.803877617797571276e-02,-7.999771541778925021e-01,4.734525020391030514e-01,-4.309733665708579894e-03,1.806973174431269471e-03,3.352087340185727626e-02,1.128341197967529297e+00
-4.440908146079328156e-02,-8.340864758337424023e-01,8.035987640937967136e-01,-5.410575405797066889e-03,-3.259948487558621006e-03,-1.407678318774064968e-03,1.418621182441711426e+00
1.453975918423990044e-02,-8.339584910921467031e-01,6.022619443294662256e-01,9.394829657346099802e-03,1.049023952153825129e-01,-3.548400048292933706e-02,1.265347242355346680e+00
-6.699270117135146252e-02,-8.238815123394608309e-01,7.472533799940497268e-01,1.466916335837583837e-02,3.203787688561420682e-02,-1.585172222054562902e-02,1.362589359283447266e+00
-1.724035274025166598e-02,-8.343551666686772617e-01,6.288083096330138178e-01,-9.737266537413715589e-03,8.558234636538807061e-02,2.507101939374146993e-02,1.279489994049072266e+00
-2.732756025023289070e-02,-7.854244125109514085e-01,7.275138058725272305e-01,-3.317143465604374675e-02,-2.168641335557884575e-02,3.770135521688612601e-02,1.313664793968200684e+00
-5.193524099553733370e-02,-8.359161197133939680e-01,8.060129088861534008e-01,-9.727167577379434299e-03,-9.859588222650326420e-04,-1.092026446985563427e-03,1.422535181045532227e+00
-1.176225119621875370e-01,-9.428975255099913966e-01,1.258710702529732606e+00,1.363644448678311416e-01,-1.116249152861659016e-01,7.982345582846253618e-02,1.955379009246826172e+00
-4.076814426688475657e-02,-8.272805095012848442e-01,8.130551745134942943e-01,-1.941569871957389082e-03,-9.346763663000077701e-03,3.505961175737436469e-03,1.421080112457275391e+00
-4.366650595306503790e-02,-8.332060559257759014e-01,7.976090654951940584e-01,-2.019011709574072486e-03,-5.554850505934231207e-03,-2.959863816183104686e-03,1.412610650062561035e+00
-4.972439641344220118e-02,-8.351628425513778486e-01,8.160667412635264073e-01,-4.695576595949820659e-03,-4.913949812115441657e-03,2.924658945114512378e-03,1.430628418922424316e+00
-2.137382477193211158e-02,-8.197181750925083277e-01,6.948878080894832499e-01,-1.056120524411537955e-02,-4.245053864069590552e-03,-1.638030119897917677e-02,1.312783837318420410e+00
-3.767277734709142956e-02,-9.925987283760956403e-01,1.044752043185788848e+00,1.192286169250146403e-02,8.091170628738915058e-03,-1.635032419690525193e-02,1.765952229499816895e+00
-7.054493555038079955e-02,-8.430243421405740900e-01,8.485553251442545797e-01,-1.412057766981746759e-03,-2.317951309745525795e-02,-2.098855620041126246e-03,1.467339992523193359e+00
-1.194967993194043787e-01,-6.598478947693223740e-01,7.994135906207791020e-01,-7.598223081081817779e-03,-1.889732412809070825e-02,-1.405002723738464979e-02,1.278572082519531250e+00
-1.106764615697400089e-01,-6.248898024739486523e-01,8.052475001442994662e-01,9.724186225267098275e-04,1.399640294973782638e-02,2.594527814214621017e-02,1.255755662918090820e+00
-4.239781813537495114e-02,-8.246586163675836412e-01,7.491668579171013587e-01,1.504676110702058388e-02,-4.099334864865772365e-03,7.974004525429278026e-03,1.363318324089050293e+00
-6.720567525411161314e-02,-8.428823035511069373e-01,8.233988180402178614e-01,5.510087801727592619e-04,-1.504712896571588736e-02,-7.111286656456496449e-03,1.444473505020141602e+00
-3.783159967668484058e-02,-8.294178078808942534e-01,7.489654173671507209e-01,1.478396466025502960e-02,-3.960686949315316181e-03,7.834963974939752537e-03,1.367246508598327637e+00
-7.329337318807080393e-02,-8.414884466220476922e-01,8.068792830643292113e-01,-4.906687696720849270e-03,-6.588078844295031100e-02,-2.106199737392229140e-02,1.433665156364440918e+00
-4.634136094779633258e-02,-8.268237553425784592e-01,8.311673951197455779e-01,3.788955936308155675e-03,-9.440563087036222103e-04,5.138162311084317098e-04,1.436697959899902344e+00
-5.590919659121148383e-02,-8.246586474446758741e-01,7.878488498220972414e-01,4.368218259018229709e-03,8.328878261726915810e-03,-3.254019591120748626e-03,1.397082328796386719e+00
-4.789000317151242969e-02,-8.308774572615781340e-01,8.134825540595345128e-01,2.812699273497788754e-03,-4.296525364795174794e-03,-3.610830562843159435e-03,1.424638271331787109e+00
-5.083567581878344066e-02,-8.235455790797971964e-01,8.078934523235560272e-01,5.959841432553746737e-03,-8.808268937142583327e-03,-7.663925290027693085e-03,1.413704514503479004e+00
-7.878865860757020001e-02,-8.300123946719825119e-01,8.261810342352946535e-01,-2.805662388721168101e-03,-1.350934216010210923e-02,2.465596731585821891e-04,1.436563014984130859e+00
-1.506161595390673180e-03,-8.323491140038717928e-01,5.866988323238615521e-01,-3.237420768013277161e-02,1.708252135123221327e-01,-2.237610030871163905e-02,1.271684408187866211e+00
-5.249934284828923492e-02,-8.448751403768829382e-01,8.558330284206348004e-01,-1.033017932071088286e-03,-3.274202931547924231e-03,-3.401158148926957617e-03,1.474020957946777344e+00
-7.506698667090445920e-02,-8.463108984288190140e-01,8.715101315141665639e-01,-1.470253409061239450e-03,-3.885981404589560796e-03,-2.952098710213840651e-03,1.490283608436584473e+00
-1.095491399014614786e-01,-9.073878772649195401e-01,1.103637129397528005e+00,3.298386363100607732e-01,-2.998673809781842170e-01,-6.157325927544703842e-02,1.919325470924377441e+00
2.519759326278140157e-02,-7.724140238072575437e-01,7.713442719223218003e-01,-1.510601694297752408e-02,5.299751199213963149e-03,-2.005666405844271950e-03,1.337473511695861816e+00
-6.694577522597718044e-02,-8.466121595669752198e-01,8.788362916308031236e-01,8.326511140532297586e-03,-3.661618365380334660e-03,4.431517743403766765e-03,1.496691346168518066e+00
-5.330350458898346772e-02,-8.466068623539434457e-01,8.654831528458029055e-01,-1.167728757844857003e-02,1.240785641658934298e-02,-1.729693697272490372e-04,1.484333753585815430e+00
6.125007827541365316e-03,-7.429296519439239077e-01,7.691460097229344539e-01,-4.588324116563218674e-02,-3.210607208915786451e-03,-7.694221367612562139e-03,1.312003374099731445e+00
-4.457802747463783521e-02,-8.372788419796205472e-01,7.908531704998971179e-01,7.540156597532425564e-03,3.276594392185307419e-04,5.894623918943096841e-03,1.410263061523437500e+00
2.631606482003233383e-02,-7.739854311210597748e-01,7.787359028350646639e-01,-3.907867249253809197e-03,2.184427601626826119e-03,4.408805639230534840e-03,1.344953298568725586e+00
4.971299513100196910e-02,-8.993942067931293138e-01,5.671879300171672744e-01,-4.222008366856226658e-02,-1.768908012262672691e-01,2.920428939288445894e-02,1.327215671539306641e+00
3.510213771177786435e-03,-8.154556115163572594e-01,6.241928848040466660e-01,8.450704915312410789e-03,4.305688296957590686e-03,7.292015430687693624e-03,1.250879406929016113e+00
7.798965431122240055e-04,-6.408012983083611891e-01,8.067157040825331249e-01,-1.469625539356296806e-01,7.721491495530472156e-03,-2.546959886627574512e-02,1.282634496688842773e+00
-4.711969400781253203e-02,-8.246575862729703665e-01,6.718832555983180743e-01,1.069455591132015097e-02,9.289624413585821638e-02,-4.663492155778663217e-02,1.308945775032043457e+00
-4.584409723886230525e-02,-5.240887712000674714e-01,7.897051843704016028e-01,-1.516352673905447535e-01,-3.428784796168058715e-05,-1.481409843416102608e-02,1.181564927101135254e+00
1.216709564355146662e-02,-7.562482499573219830e-01,7.755189747023288893e-01,-2.121980905061104927e-02,6.040003878303641140e-03,3.755788378521986246e-03,1.327118039131164551e+00
-4.731321711542554875e-02,-8.237217189576409027e-01,7.746117212194769674e-01,-8.476635446374083255e-03,-4.346829918480938466e-05,1.844979790222996043e-03,1.384465932846069336e+00
3.410813905517688996e-03,-7.269915360265970516e-01,7.682136264226578914e-01,-2.505330656304806131e-03,2.054843120126955205e-02,-5.768765545819304168e-03,1.295534729957580566e+00
2.008990899075459302e-02,-7.885049224443004823e-01,5.345068107331245599e-01,-5.310034718586481052e-03,5.923704586344842593e-03,-4.294965496675610776e-03,1.155270695686340332e+00
2.519168196845960814e-02,-7.754606811404627376e-01,7.791187408525810376e-01,-1.487569282845181001e-02,-5.571103907198037171e-04,3.787615584096775106e-03,1.346770763397216797e+00
-4.419636124552893397e-02,-8.351191459939542039e-01,8.011575903296308532e-01,-7.117252450608577488e-03,-2.747659747575474133e-03,6.809062756716720809e-03,1.417429208755493164e+00
-1.314468759170676904e-02,-8.316409594950848749e-01,6.645260627023247268e-01,2.083026143467268249e-02,6.733501327651425505e-02,-3.553913682174085487e-02,1.304813265800476074e+00
-3.907461057889374811e-03,-8.049493281681916468e-01,5.900234900844166797e-01,-1.067983103311905685e-02,4.340384298159988274e-02,6.185619987938904135e-03,1.215028524398803711e+00
-4.137040235025550572e-02,-8.370801532141753931e-01,8.104610667831092519e-01,-5.278784404394991359e-03,-5.906556252709295636e-03,1.274831009089159037e-03,1.427156090736389160e+00
-4.741597499443760827e-02,-8.266363325947504448e-01,7.934549028793126402e-01,4.838736536490799650e-04,1.359945402705523866e-03,1.052645723188775674e-02,1.403499364852905273e+00
-6.099521303876086209e-02,-8.073417183117158613e-01,8.080489645053826608e-01,1.434592605564699889e-03,-2.565236338555979510e-03,-1.280372802677950950e-02,1.400498747825622559e+00
-3.161913310373272445e-02,-9.650049260604491863e-01,9.985200297681176007e-01,9.780512646927584652e-02,-1.682389311570173795e-01,-2.881294372447311056e-02,1.734939217567443848e+00
-3.623100393907904143e-02,-8.226526683001710305e-01,7.392435428390262686e-01,-1.408258321209910832e-02,-2.557300339234904688e-03,-8.197325014116263811e-03,1.352954506874084473e+00
-6.799156998620856096e-02,-9.005588333162066750e-01,9.854690696996695198e-01,2.474601613914617290e-02,1.513459228334429647e-02,1.047128475555892356e-02,1.637949228286743164e+00
1.280704926040215907e-01,-9.970450076069097278e-01,4.013838300595358177e-01,-4.352332258273455823e-02,3.014212776021245599e-01,-1.279427579377504509e-01,1.405506849288940430e+00
-4.484155066041854709e-02,-8.355048644163194371e-01,7.958971343561487277e-01,-9.449069303192088667e-03,-5.305304194589511441e-03,-3.649265829782575177e-03,1.413196206092834473e+00
2.647451358050974257e-02,-8.255023719772339730e-01,6.012496268981732950e-01,-1.632560249615612122e-02,-7.579937184844684483e-02,9.433072227765107454e-02,1.261212587356567383e+00
-7.117614616396616967e-02,-7.635424799037857646e-01,9.316856412867950965e-01,2.051718356437038371e-01,-1.581590840566407252e-01,-4.703568064611852312e-02,1.545126914978027344e+00
-5.795662241780846768e-02,-6.600699570908939995e-01,9.182159810367349628e-01,1.980646979220512527e-01,5.595447981245309926e-02,-5.938342693524321231e-02,1.428593993186950684e+00
-2.267551263648539400e-02,-8.620175279529468382e-01,9.290885347413162521e-01,1.475002622481464409e-01,4.170035189796281183e-02,4.676883676795361676e-03,1.574724316596984863e+00
-9.067398747767672386e-04,-8.187418562318479198e-01,8.259671697687911429e-01,-5.172183706424754446e-02,-2.420404642705545600e-03,2.081217049632727578e-02,1.427642703056335449e+00
-6.098584596534205315e-02,-8.245695371059811318e-01,8.137069664289489079e-01,-4.982000069528412642e-04,2.222868493655503867e-03,4.982002528894501243e-03,1.419908046722412109e+00
-5.066941255253085141e-02,-8.962998016455977490e-01,8.999265942915679606e-01,-2.204205977654794327e-02,1.552502076135609498e-02,-1.328279836275175763e-03,1.557164788246154785e+00
-4.068637512193956640e-02,-8.437495810997560630e-01,8.475818174894677037e-01,-3.203360075529095713e-03,-7.898969336236868685e-03,3.680182016127660563e-03,1.465443611145019531e+00
-9.364813938939706844e-03,-8.428741390925752475e-01,8.367852297309396059e-01,-1.659936395512502313e-02,2.293712717252150302e-03,6.178996639015994601e-03,1.454970359802246094e+00
-5.498017622982992458e-02,-8.081601458511189495e-01,8.025373708210623569e-01,2.424196238157591240e-04,-7.022475280838036231e-03,-6.081388303851042489e-03,1.395972967147827148e+00
3.887355183486789455e-03,-8.178849139109767297e-01,8.179027674420054073e-01,-1.857069542917797259e-02,8.473085592775630656e-03,-2.938353495785668481e-03,1.417089223861694336e+00
-2.020575219577533388e-04,-7.764221893654502660e-01,8.072619662446208766e-01,-5.699732980390836284e-02,8.076965270620881793e-03,-5.933339196266851877e-03,1.375257492065429688e+00
-2.387621465211519495e-02,-8.419577947457334011e-01,8.444418966467973631e-01,-1.167099366390258498e-02,-1.180901325765448644e-02,5.359283239446185378e-03,1.460993528366088867e+00
-3.487511659467296132e-02,-8.298906875571839814e-01,7.609477257437083919e-01,-1.198873577138747856e-02,1.020423532776475184e-02,3.193736196213214917e-02,1.379086256027221680e+00
5.628621794927329836e-02,-1.048256639985571725e+00,3.739404710316206470e-01,-3.513337818868735030e-02,-1.034573888171643335e-01,-1.444003078661658390e-01,1.330469727516174316e+00
-4.649411056309728230e-02,-8.341364234892346685e-01,8.103727298005607427e-01,-3.977800081818778401e-03,-3.286134594513120174e-03,6.354530499474610053e-04,1.424635648727416992e+00
-3.386467030969816938e-02,-8.197248483325609847e-01,8.064117611844249245e-01,2.485302637344335725e-03,-6.598312397395026882e-03,5.616378335413598800e-03,1.408625006675720215e+00
-1.973350628653122024e-02,-8.135461247663391404e-01,8.026334993827611841e-01,4.791380641168772186e-03,1.352930113170915452e-02,2.171721946968822089e-03,1.399951219558715820e+00
-4.694630248704043801e-02,-8.215577609096226253e-01,8.153784948033321323e-01,-2.858812882724734526e-03,1.521469255129944201e-02,-4.139477933443619188e-03,1.418578147888183594e+00
-3.691291334646806810e-02,-8.203113728088663459e-01,8.011097734499117440e-01,1.577046665593589926e-03,1.411525891980221084e-03,7.438884794973989190e-03,1.404521346092224121e+00
-7.652306391996982482e-02,-7.330757941150165546e-01,8.007097928222423056e-01,-2.498459053286875963e-03,1.748494133541809645e-02,-1.362951908786639264e-02,1.333432316780090332e+00
-2.482626051996428967e-02,-8.270140915317050201e-01,8.044260568921410837e-01,-1.536202573741697131e-03,4.946583113875917433e-03,-1.677135720755795062e-03,1.412964940071105957e+00
-1.481301357105122528e-02,-7.805547389892528720e-01,7.929565605727989519e-01,-9.141747129291260404e-03,1.636774194510856942e-02,-9.452363265127390612e-03,1.363347887992858887e+00
-2.042695510216101587e-02,-8.264511967524249547e-01,7.030512392500529728e-01,8.135388292683520123e-03,-3.741328697520880067e-04,1.221465097332021660e-02,1.325474739074707031e+00
6.388911125343929576e-02,-7.891585779533454303e-01,4.079792043880495767e-01,2.238465372319374189e-02,6.511951351265649057e-02,-2.305142524910130941e-02,1.074910521507263184e+00
-3.727405637633550428e-02,-8.175465895158483542e-01,8.009865903758941474e-01,-4.017126707125915318e-03,5.585188390898113836e-03,3.385989028151690020e-03,1.402053594589233398e+00
5.128028246608673513e-02,-5.734769368771523990e-01,2.665746024255495894e-01,2.014203993248233140e-02,-3.989348954205702846e-02,4.186592325222335265e-02,7.631708383560180664e-01
-3.724449812228626533e-02,-8.187782106297497586e-01,7.613517161522322940e-01,-9.255911475130730245e-03,-1.080583360327043441e-02,1.055396678544675854e-03,1.368682384490966797e+00
-3.847618488506635015e-02,-8.314639281989198993e-01,7.827680869484883175e-01,-7.044650274134793382e-03,5.541400620723699148e-03,4.476390412561223262e-03,1.398144960403442383e+00
-1.524432926218257343e-02,-8.092891794655083793e-01,8.138911174978663565e-01,5.845036645119643321e-04,6.006338561804425852e-03,-2.211945345575894064e-04,1.405863761901855469e+00
1.203510685859837670e-02,-1.520257504814528593e+00,1.201574412998542840e+00,6.077660993752995872e-02,3.268679583141175238e-01,2.011982224340251504e-03,2.432543516159057617e+00
-5.791721985799713757e-02,-7.866238259662481358e-01,7.591668548208798661e-01,8.508919280922429274e-02,-4.971294917781567818e-02,5.093687806383755123e-02,1.353134393692016602e+00
-1.134940561895570466e-01,-3.337455433249096881e-01,6.835019181078729744e-01,1.483681712430254540e-01,-2.516733141342226282e-02,1.373040917372431724e-01,9.918415546417236328e-01
-8.268217129968211121e-02,-8.037964569146327509e-01,7.606060900199977937e-01,6.605876863849426128e-04,8.699013131065889276e-03,-3.563360495670994926e-03,1.356287002563476562e+00
-5.420069158964116451e-02,-8.535780931429030050e-01,8.446653969606704448e-01,4.357678687050167872e-03,1.805585215047851924e-02,-8.649896200134087054e-03,1.471990942955017090e+00
-1.308914441048927568e-01,-5.132832847936534826e-01,7.867927816695374776e-01,8.498999488627572568e-03,-2.533276068481975229e-02,1.314894317923071820e-01,1.180378437042236328e+00
-1.131774407190033194e-01,-6.664634436027081499e-01,8.796986250384617456e-01,-4.661970378017125938e-03,5.846107304687885031e-02,3.649467846099815199e-02,1.362199187278747559e+00
9.381406812030146369e-04,-8.434488016916388275e-01,6.868246548762848569e-01,1.845378383880599479e-02,-4.798987837675559170e-02,8.529482061293959180e-03,1.330688595771789551e+00
-5.559442357724302120e-02,-8.196115868655740044e-01,7.604200547561505985e-01,-1.249780464610628430e-02,-5.324537185050802002e-04,6.213698515510909272e-03,1.368808269500732422e+00
-3.895742763911923950e-02,-8.282161925100978150e-01,7.635097799911552130e-01,-1.098402194836765877e-02,-2.524524925075326016e-03,1.072791848965810521e-02,1.378754377365112305e+00
-3.171668330312505529e-02,-8.289791879173242783e-01,7.303827147528780817e-01,-1.303428684649531565e-02,7.502307446816370087e-03,-9.496954609516241458e-03,1.350912809371948242e+00
-2.376500077081962481e-02,-8.204867069000632007e-01,6.772805965540413808e-01,-1.395953176235035717e-02,2.352567955235072839e-02,2.741136722515181631e-02,1.299718379974365234e+00
-3.842005367063167087e-03,-8.332586542134451379e-01,6.467548399821940741e-01,-1.249651669467780578e-02,-8.695408967720436033e-02,-2.700844836611353099e-03,1.293830513954162598e+00
-1.494036890898559761e-02,-8.082231058805818824e-01,6.304495781095158513e-01,-1.750095843379901803e-02,-9.458803703698781540e-02,-1.637434770754678595e-02,1.259510278701782227e+00
-1.618693216144813374e-02,-8.308394606448060715e-01,6.559538916571210354e-01,3.970748991725961408e-02,6.956579838173947150e-02,-4.557202055259174100e-02,1.299412131309509277e+00
-2.039540619880771122e-03,-8.110831872743256010e-01,6.451595877514684219e-01,-1.617849360674493420e-02,8.035933447693864497e-04,-1.055313369317286039e-02,1.264180302619934082e+00
-4.735176375726538739e-02,-8.139391531155731885e-01,8.096225005090126325e-01,-4.363969348804304545e-03,-2.759052798330674169e-02,-9.387246714161251102e-03,1.407697439193725586e+00
-1.976118419617788058e-02,-7.941301254007199217e-01,6.120942225083902954e-01,-5.637526319811564726e-03,-1.214290667975185568e-02,-1.560479806630583758e-03,1.220132231712341309e+00
4.207493947769383458e-04,-8.027827040650823420e-01,6.428133218138968319e-01,-1.071343918998390182e-02,-4.436014266336281756e-04,-1.355624279765333534e-02,1.254859447479248047e+00
-3.632386552016069609e-02,-8.237771714245546439e-01,7.957904853198908279e-01,2.344239651513862349e-02,3.959303461934039758e-02,-6.265844546365105516e-03,1.405068516731262207e+00
-1.096870056074482347e-02,-8.301616240415740089e-01,6.972004848884397754e-01,1.608537630970330659e-02,2.722848088385971654e-03,-1.215680463049395241e-02,1.324367642402648926e+00
-4.587827209452001453e-02,-8.334755956796536802e-01,8.079494143413266105e-01,6.455767399783826329e-04,-5.843496259731264381e-03,-1.813672144570328045e-03,1.421941399574279785e+00
-4.103748731932781169e-02,-8.385089883559984081e-01,7.828885720165301709e-01,-6.949861905729425374e-03,-6.796564430660757654e-03,-8.260993918486265672e-03,1.404407620429992676e+00
-5.776195840376504437e-02,-7.835144820363811879e-01,7.719232424064507159e-01,-6.112430251932745792e-03,-1.907327233298036166e-03,-5.157174445923300501e-03,1.348125815391540527e+00
-4.729778491541024310e-02,-8.071411739414787734e-01,6.973259528957169717e-01,-1.392502235864389801e-02,2.352898323413673762e-02,-1.689620138742671724e-04,1.303789258003234863e+00
-4.879147085689022889e-02,-8.234240586847940691e-01,8.018790955276574595e-01,9.904211466683032067e-03,-3.850127738087744198e-03,-1.294332050408367879e-02,1.408365964889526367e+00
-8.139660301766313277e-02,-6.514170956224094589e-01,7.642021178723998887e-01,1.147518934063576114e-02,-8.054561095562956866e-03,-5.575944024258231574e-02,1.237693905830383301e+00
-4.311145131461573132e-02,-8.220007079967585062e-01,8.153979285949093381e-01,-3.144039698696087480e-03,-1.429598499207864436e-02,6.307894518963564484e-03,1.418856143951416016e+00
-5.063610988963355986e-02,-8.037625475726669633e-01,7.630137897371802591e-01,-7.056830944626815184e-04,3.177543013049900777e-02,2.548273615907249712e-02,1.359038472175598145e+00
-4.847411197676915889e-02,-8.207199837587224600e-01,7.916386491312826790e-01,-1.083286534510765134e-02,-5.900030361973137780e-04,1.745180825197892652e-02,1.397209167480468750e+00
-2.090239027153302856e-02,-8.381118539357604869e-01,7.270621736536230229e-01,-2.690077362173634318e-03,1.381551558140808704e-03,-2.968910810767699457e-02,1.356907486915588379e+00
-6.552333167212001652e-02,-7.578851847822463128e-01,8.088820614170735279e-01,7.721386899114830987e-04,-2.312523545191954785e-02,-3.356905244347205969e-02,1.361742019653320312e+00
-2.747982533597686725e-02,-8.340969427432755046e-01,7.610939905325135868e-01,-7.898564296798611575e-04,2.283209532775458319e-03,1.884648411953940284e-02,1.381897211074829102e+00
-3.453710170441052357e-02,-8.690505846418512537e-01,9.173149101513459192e-01,-5.132372511872249771e-02,3.091263580580367112e-03,-1.591982377612931321e-02,1.550954461097717285e+00
-5.083440520363539938e-02,-8.262621467705019151e-01,7.901701031037361433e-01,4.367725887551124862e-03,2.646972082149661679e-03,-9.356053482685798908e-03,1.400377035140991211e+00
-2.385390326673023781e-02,-5.080117060786797367e-01,5.062818536048534490e-01,7.634371348969193338e-02,8.724154594959644682e-02,-4.053220464400974360e-02,9.040846228599548340e-01
-8.437556733007324505e-02,-7.343897149164553273e-01,7.928973544296369358e-01,1.534496882504841030e-02,1.433528212726030426e-02,1.522053620708565223e-02,1.328301072120666504e+00
-2.550909976994852890e-02,-8.425591766158138096e-01,7.791875284839144822e-01,3.130565717288457533e-02,8.509596622885034697e-03,-3.144856736854043100e-02,1.406666040420532227e+00
-3.201173318207842927e-02,-8.194328958634222726e-01,7.174038648386648065e-01,-1.509807401748481694e-02,3.473824816070707200e-02,1.386974814751763038e-03,1.332693338394165039e+00
-3.948505288815025438e-02,-8.318104032996400665e-01,7.638164063592214337e-01,-5.191442351228513392e-03,3.568977065664393714e-03,1.858897655140209423e-02,1.382282376289367676e+00
-1.256528439151238796e-02,-9.380030992757656394e-01,7.503735081217755010e-01,7.121467508407493263e-02,1.347077728267994934e-01,-7.270514917803415356e-02,1.493343353271484375e+00
9.979527144859817039e-03,-8.042134312516944217e-01,7.969844975153093092e-01,2.139387249777986374e-02,-6.157247522810559842e-03,-1.665804654413122199e-02,1.387580752372741699e+00
-9.396362573034541810e-03,-8.272571168726183810e-01,6.668611030972754206e-01,4.406932187486758880e-04,-1.378620300801927526e-03,1.431091792222951437e-02,1.296119451522827148e+00
1.022084066302221192e-02,-7.710033688688079367e-01,7.812899172535511250e-01,1.935592273247782255e-02,-2.903099968336895608e-03,2.081617575865531979e-04,1.344762444496154785e+00
8.992919740657676075e-02,-7.885341186787757639e-01,3.981723172011683576e-01,-6.899379312351785467e-04,1.974164805266969466e-03,-2.967461890399605839e-03,1.066551208496093750e+00
6.003456184415634569e-03,-7.752363038797291939e-01,7.800274821525715607e-01,1.208070943386712996e-02,-1.255795368776851419e-02,-1.594095379830905461e-03,1.347243785858154297e+00
-4.559811379749549587e-02,-8.110905458272379409e-01,7.134990927839270913e-01,-1.278012336137988522e-02,2.128325748029229539e-02,-4.095157399905564703e-03,1.321056246757507324e+00
2.673054191365653587e-03,-9.739497083369984543e-01,6.747622703642710551e-01,1.687110929269581769e-02,-2.222708348076762874e-01,-4.919185918436552035e-03,1.486947536468505859e+00
2.717248723352663764e-02,-8.164133694742283787e-01,5.618847317856646706e-01,-8.172624900615642687e-04,4.681869701008991268e-03,9.960340471734326767e-03,1.203742265701293945e+00
1.491012027515838025e-03,-7.824382295057271675e-01,7.857016846319457848e-01,1.414825527250906934e-02,-7.690169579040805926e-03,-2.917594636536159636e-03,1.358344793319702148e+00
-5.128212416221228365e-02,-8.144622822184225397e-01,8.093504749904455453e-01,-2.195599198921295136e-03,1.103011857242245340e-02,1.206170125802536776e-02,1.407396912574768066e+00
-1.931648833180724112e-02,-8.061872271767994702e-01,7.987387184138130536e-01,9.489592086027013457e-03,-2.299591187134537602e-03,5.065011902618116874e-03,1.390124678611755371e+00
-8.513983735068078595e-03,-8.329274075609058858e-01,6.676089081397956759e-01,-9.721617179541969939e-03,-5.649055867527564591e-03,-1.501503349623593657e-02,1.302021503448486328e+00
-5.645141900639288890e-02,-6.967587482799509901e-01,6.419686855652776414e-01,-1.358547608871904788e-01,-1.438924341891315573e-01,-7.239560111745088622e-02,1.215810656547546387e+00
-3.874643469876733193e-02,-8.244608630320258147e-01,7.469685712335013550e-01,-7.377714964049527334e-03,-4.341059996633297308e-02,-8.388426318628945319e-03,1.363110661506652832e+00
2.068602103779700399e-02,-8.021296311337743346e-01,7.842964299100630976e-01,1.019735725389713660e-02,-7.665870836846180002e-03,-5.619843561074032955e-03,1.374416232109069824e+00
-1.648276438126540858e-02,-8.587919475969478800e-01,8.952521966415404320e-01,7.004733236889920667e-02,4.141865159976362669e-03,-2.066680678790853987e-02,1.524716615676879883e+00
-9.006495950189224997e-02,-1.196670260832208177e+00,1.208726479946437893e+00,2.948305996456393463e-01,-1.574518018293045440e-01,1.012618239369035417e-01,2.171311616897583008e+00
-5.085949294437783902e-02,-9.376085927947555021e-01,9.687248287278965586e-01,5.099632169833428347e-02,1.795483003554749352e-02,-7.116714010335013774e-02,1.659504413604736328e+00
-8.065990185519536504e-02,-8.304406725820416835e-01,8.274534961293168456e-01,-9.340914054293515071e-04,-1.400582760345872417e-02,-3.567786849722263346e-03,1.438178181648254395e+00
1.684829033331876613e-01,-9.878559765978492946e-01,1.948296917596555877e-01,-4.135199203900732229e-02,1.319436678961846132e-01,-7.507463031545008603e-02,1.201060175895690918e+00
-5.887724961743404095e-02,-1.014714412741661409e+00,1.097334638608156610e+00,1.759709751989002313e-01,2.468332694934536123e-02,1.872673659326550347e-02,1.857788562774658203e+00
-8.163388440024051118e-02,-7.430600647597125352e-01,7.436237363587556715e-01,-2.325644593974720079e-03,-5.644468706316618789e-02,1.080732832722832749e-02,1.293949961662292480e+00
-6.662316490700762039e-02,-8.131278341513304975e-01,7.724434059249258855e-01,3.441595501510103287e-04,-1.850198745815280791e-03,-1.545232733518131117e-03,1.373931169509887695e+00
-6.210442971774607357e-02,-9.862443854692314327e-01,1.063378489928010096e+00,1.767259268380619308e-01,1.256857036321608057e-01,7.058027880954925726e-02,1.821230888366699219e+00
-9.991944782662361135e-02,-3.008180170433164546e-01,4.550843289216326970e-01,5.359450255676216635e-02,5.602863514969074615e-02,-5.620085290757148577e-02,6.981398463249206543e-01
-9.499611138046812342e-02,-4.441678353260469225e-01,5.830411490595424073e-01,1.307411203989025938e-01,1.576519625918188228e-01,4.025232184029454291e-02,9.742226600646972656e-01
5.934144914100861201e-02,-8.033276485659748278e-01,5.177651513976372355e-01,-8.693227002063702710e-04,-4.062079807414528481e-04,-9.505514696286503779e-03,1.161934614181518555e+00
-6.224734419493334336e-02,-8.105609592690866672e-01,7.369073939813556295e-01,4.221884010837396485e-03,4.492412205771924988e-02,-6.212503329455887346e-03,1.342707633972167969e+00
-7.720955907509940985e-02,-8.101088268678752202e-01,7.647418134358331399e-01,4.370019091154662971e-03,1.832439024559136265e-02,-6.808253448919974332e-03,1.365391016006469727e+00
-4.865537569935937667e-02,-8.326667225738232370e-01,8.047248459654314789e-01,6.275284242391674771e-04,-1.616446061982966184e-03,-4.933893223273995605e-03,1.418475747108459473e+00
-5.337441436926840949e-02,-8.257748069246135803e-01,8.132452339823054155e-01,2.278841862713192317e-03,4.931318872797818033e-03,3.351622965767438091e-03,1.420257568359375000e+00
-2.819987997176430158e-02,-8.379764415680382994e-01,7.744198645276103576e-01,-3.433311486054768788e-04,-3.855966710449592119e-03,-9.125692322222170305e-03,1.396486282348632812e+00
-4.582510565034829397e-03,-8.191644180536783448e-01,6.360883217279545976e-01,-3.383949486097048275e-03,-3.164014705452910386e-02,-7.549112360206669363e-03,1.264551401138305664e+00
-6.805928869886354593e-02,-8.208853701506300116e-01,7.916973651741769924e-01,5.935803445972920832e-03,7.245598735291594768e-03,-1.914553079813273656e-03,1.397658824920654297e+00
-3.478866985754353741e-02,-8.268515375985535654e-01,7.765270923936975489e-01,5.284568827448732700e-03,2.185158502933241906e-03,6.901251898358458543e-03,1.388686776161193848e+00
-6.838055399844830684e-02,-8.099594852326104100e-01,7.639928502016906098e-01,1.354937716010522642e-03,-1.704988618483131626e-03,1.249167208847262430e-03,1.363845348358154297e+00
-7.992217484399746774e-02,-8.153758416241668749e-01,7.818404392689140003e-01,3.034981640009730940e-03,1.076520461097456652e-02,1.865822637689458149e-03,1.384810090065002441e+00
-5.376464452779028402e-02,-7.778375269629879130e-01,7.646768764963853826e-01,-1.343953878419385135e-03,-1.136863685224289398e-02,-8.174684322815841319e-04,1.336837530136108398e+00
-4.005608043876284635e-02,-8.368313009367666089e-01,7.822301155500711589e-01,5.804231411884568960e-03,-6.448210968648026599e-03,7.135541747052037871e-03,1.402341365814208984e+00
-1.462405506035212299e-02,-6.581290036564638735e-01,4.308499948726840501e-01,3.841460502061386922e-02,3.282304845196369614e-02,2.060866626964055204e-01,1.016997933387756348e+00
-2.771934668287505399e-02,-8.305373417064463304e-01,7.608859744381972767e-01,-8.450527508179549868e-03,-1.718943159324874681e-02,1.304533132717040911e-02,1.378815770149230957e+00
-5.108153570308589242e-02,-8.308622344574978502e-01,8.148480394538130112e-01,-3.718891072010339308e-03,5.741787352705529646e-03,-4.343556744302759336e-03,1.425946712493896484e+00
-2.889329928859460384e-02,-8.661132189323696995e-01,7.780064998452504987e-01,-2.535069360067144367e-02,3.501049602984365045e-02,-1.766478036400947679e-02,1.426225185394287109e+00
-4.612861162874930948e-02,-8.275422722186764890e-01,7.771256547613780707e-01,-1.035763212403007644e-02,-7.318333897991231504e-03,-1.531453490021226528e-02,1.390267252922058105e+00
-2.478059033814654366e-02,-8.629782256348491609e-01,7.379131086084375069e-01,-3.228273017287244806e-02,-1.733542394869303643e-02,-4.304221889512375998e-02,1.390377998352050781e+00
-3.673477354939185674e-02,-8.193455272011714863e-01,7.404412676714089425e-01,7.411495231187737072e-03,3.040151405520031668e-03,-1.394607779655754332e-02,1.351104974746704102e+00
-5.989742720982130925e-02,-8.093556742054308639e-01,8.109809268455693276e-01,-2.821563579868122725e-03,-9.105929827194042883e-03,4.277754996341812804e-03,1.404681921005249023e+00
-8.113821186603759061e-02,-8.141629420900144964e-01,8.107246200349863541e-01,4.469550383086498373e-03,-2.183612739490560506e-02,-7.443625209296362948e-03,1.410020828247070312e+00
3.510633108243279340e-03,-7.647318352050768153e-01,7.786732239340895534e-01,6.486740160511642560e-03,2.304567451403660705e-02,-3.428601625212154488e-03,1.337288737297058105e+00
-6.206106747771109045e-02,-7.264205531082383871e-01,7.965355564854810222e-01,-2.966606016417835077e-03,-1.253023101308135996e-02,2.886421328983030873e-02,1.323622107505798340e+00
6.905907243279438279e-02,-7.777628259747962902e-01,4.172248059299766831e-01,-7.506278661105595523e-03,-2.548868244810760346e-03,6.297872870062182389e-03,1.064644813537597656e+00
-6.174939913712391981e-02,-8.001410535118713696e-01,8.188763788181029346e-01,-2.770626117728058630e-03,-9.151635813059904104e-03,-8.096516764437473174e-03,1.404080390930175781e+00
-4.391777786354481711e-02,-8.128511267139506558e-01,7.877405543231110752e-01,2.317259135431469757e-03,-9.827010548505866333e-03,-1.032903224903500066e-03,1.386619210243225098e+00
-4.744047806576345144e-02,-7.692200513495959235e-01,7.988623897780097183e-01,-3.187856836460569408e-03,-2.202281138124954213e-02,1.094498832503777545e-02,1.360104203224182129e+00
-2.127471665004427442e-02,-7.983677792896100023e-01,7.965431292888507375e-01,7.278053242812696638e-03,-4.965696867051916071e-04,-2.594491234051775341e-03,1.381448507308959961e+00
-4.167324194924618835e-02,-8.258981121635869949e-01,7.507573212100644433e-01,-1.464646463483914793e-02,2.166148859146782481e-03,5.782543927175303779e-03,1.365707397460937500e+00
-9.531588548311044351e-02,-6.119257319816220342e-01,7.916419048149112569e-01,2.804004530670352602e-01,-1.225093370609661447e-01,4.883252869375970251e-02,1.341582536697387695e+00
-4.572749191307316774e-02,-8.240074732559083959e-01,7.996798403211198281e-01,4.033234245528476581e-04,-3.072704622504127993e-03,1.235853310854194594e-02,1.406728029251098633e+00
-4.478331602070517725e-02,-8.267681753979069237e-01,7.907792417468485491e-01,5.728544418644380791e-03,1.229366494313086956e-03,7.851582362092365819e-03,1.401196002960205078e+00
-6.087002458033415053e-02,-7.952356196601547689e-01,8.154144714453016585e-01,4.519451352620682937e-04,1.255971943106200077e-02,8.578754555376945021e-03,1.396916270256042480e+00
7.586140030544796797e-02,-7.939621939646859250e-01,4.277530364415532693e-01,2.927369422580725165e-03,-8.541468671240908320e-03,1.483362800989996080e-02,1.089683055877685547e+00
1.687143420603270938e-02,-9.574899912794652135e-01,6.066884068602061975e-01,-1.236642932774988449e-02,-1.143930489114372839e-01,-9.081014407181259296e-02,1.391551136970520020e+00
-4.965010374394797366e-02,-8.290135579830733015e-01,7.925641463384788254e-01,2.517855946143827180e-03,1.105052305499990787e-03,7.809286701040939194e-03,1.404752254486083984e+00
-7.535110385838963976e-02,-7.044636609128005489e-01,8.099891929626135134e-01,3.160573933402869296e-01,1.701083847835324347e-01,-1.669203316792381153e-01,1.485484242439270020e+00
2.085217641179286652e-01,-8.635180781717105569e-01,1.238762508137622453e-02,2.402902382043789475e-02,1.757775067677729286e-01,-6.273743319940909557e-02,1.041012883186340332e+00
-5.903701932695817889e-02,-8.066331188597578583e-01,8.048112393033388656e-01,6.047118846028654504e-05,5.562216676313384671e-03,-9.958290892356490634e-03,1.396901488304138184e+00
-4.126878687121424139e-02,-8.329451088643509138e-01,8.109532121799731819e-01,-1.713767532262342266e-04,7.743712823472972788e-03,1.186162139292782540e-03,1.424044251441955566e+00
2.505684677305969332e-03,-9.165632636347850193e-01,7.124235188528696971e-01,-2.354546086159162444e-01,-2.594531180405753035e-01,-1.282934247906213077e-02,1.539445519447326660e+00
-5.045273022342485619e-02,-8.255660392105744760e-01,8.109169527593277360e-01,2.278327849716392430e-03,4.322085683776815367e-03,3.350867516580217399e-03,1.417929053306579590e+00
-4.089075890221804954e-02,-8.376688844726103422e-01,7.778907754716668510e-01,2.056491908849850548e-03,2.800996961791733103e-03,-7.843584161162445167e-03,1.399237871170043945e+00
-6.259398462691723175e-02,-7.184638621238984557e-01,7.912242857790617867e-01,1.666406284048841790e-03,-1.165373056892981055e-02,-2.975575583137561250e-02,1.312340140342712402e+00
-5.510845121728052964e-02,-8.248568665156724711e-01,8.117323691825037990e-01,-1.171445124633394876e-03,4.204753343576267247e-04,4.422080277682923638e-03,1.418181300163269043e+00
1.604367357179740661e-01,-7.335389405934944484e-01,5.749039428096366922e-02,7.391798715208966475e-02,2.640439561053869316e-02,-1.987501604182268650e-02,8.587357997894287109e-01
6.123687480886214063e-02,-7.978895778064790667e-01,4.689972526923146257e-01,1.317351651826920329e-02,-3.096077406220345152e-03,-1.367281861551450980e-03,1.120374679565429688e+00
5.372790358589857318e-02,-7.992574021442866439e-01,4.233321349961199909e-01,1.105804478113360002e-02,-1.030740150081114852e-02,4.837419349904338584e-02,1.089570522308349609e+00
1.006716392353409484e-01,-8.314946196781572985e-01,2.759978017455956278e-01,1.007424802713108442e-01,2.356749776742750602e-01,-7.589715619981902972e-02,1.130248904228210449e+00
-5.172891893622234144e-02,-8.344380949856303742e-01,8.063203544100143727e-01,-3.831947666103990803e-04,2.540546308404816305e-03,-3.598581720972377721e-03,1.421458363533020020e+00
-3.078088403576395571e-02,-8.362551618005999998e-01,7.717244178045101766e-01,6.521923973843161276e-03,-1.252335641363455329e-04,-9.782639671471514767e-03,1.392700910568237305e+00
-7.239067190814477137e-03,-8.313900515213268338e-01,6.691319556391881473e-01,-8.565330370408259526e-04,-6.990933008273270480e-03,-1.445072007253778157e-02,1.301887035369873047e+00
-5.247517369286953254e-02,-8.326215413201715210e-01,8.044862712518818793e-01,-5.370791456802957199e-04,1.514286432148772600e-03,-4.450052261904834973e-03,1.418320775032043457e+00
-4.989452048700349085e-02,-7.543575011618195436e-01,8.003600570972712047e-01,3.105727570618934882e-02,2.601741722175821350e-02,-6.643179159386794486e-03,1.350270509719848633e+00
-1.260200479851384670e-01,-6.162914050798876664e-01,8.307027251605025864e-01,2.553374314054929206e-01,-9.376610913229395383e-02,7.137914048912169518e-02,1.364547967910766602e+00
-4.239936880678308456e-02,-8.391017655035389877e-01,7.754570463462542307e-01,-1.928673726299590834e-04,-6.688578122255955070e-04,-9.891942106269802776e-03,1.398394465446472168e+00
-4.778641351647331531e-02,-8.311285869944132765e-01,8.084014404816829424e-01,2.656671928047426006e-03,6.432341984043596014e-03,-4.404460683050523601e-04,1.420393109321594238e+00
-5.591480320756041233e-02,-6.602668113548425532e-01,7.958066804877441669e-01,5.968313893039708246e-02,7.087822462769141282e-03,3.254038031492832717e-02,1.272565960884094238e+00
-3.419057979936081931e-02,-8.348490981474063766e-01,7.723431402207391328e-01,9.604120855931187750e-03,4.370169021698388015e-03,-1.114838448231465079e-02,1.392126321792602539e+00
-8.168352593802355455e-02,-8.264521972824582230e-01,7.690907352984562850e-01,3.516915408549678261e-03,6.571068874757850231e-02,-8.422356045795675178e-03,1.387562870979309082e+00
-8.700408401913786727e-02,-7.830106335960937969e-01,8.231579239417231575e-01,-2.663944544842204026e-03,1.940255575569631991e-03,5.196937435732202487e-03,1.395138859748840332e+00
-4.043699613314755831e-02,-8.284242807264200481e-01,8.028662877748233839e-01,2.283918819020242972e-04,5.114310917764365756e-03,1.589876754929227904e-03,1.413040280342102051e+00
-3.437434360945386402e-02,-8.275210394369123534e-01,8.029080803340717942e-01,-1.473133945366854845e-03,5.448485886033395398e-03,-1.300373764010462167e-03,1.412201166152954102e+00
-8.438437887846098051e-02,-5.672279030786523402e-01,7.822523132177665595e-01,2.050056123247284701e-01,-9.799643693087581320e-02,4.520555591947517798e-02,1.250467658042907715e+00
2.941011501624523836e-02,-7.767546621730881951e-01,7.723735911081868188e-01,-6.202956253579775155e-03,-1.612873390317466410e-03,1.187084646709877849e-03,1.342004060745239258e+00
-4.954936114734222186e-03,-6.955544317136211907e-01,7.600168846049760729e-01,-4.049818985930780241e-02,-8.093562406466886516e-03,2.067152629647705554e-03,1.263142228126525879e+00
-1.100170639588579635e-02,-7.665524304880209083e-01,8.226119699916734085e-01,-3.970147097418031540e-02,1.068306177210708897e-02,1.503512340327405571e-02,1.378896355628967285e+00
-4.601406023762595610e-02,-8.415574594343325776e-01,8.160600580622727751e-01,-4.146093293097553173e-03,7.069878086483889421e-03,1.583620371489043513e-03,1.435997009277343750e+00
-2.615192888371781210e-04,-6.717989021597241539e-01,7.543915590766080426e-01,-3.329393171500352744e-02,5.025687377267348474e-03,-2.508345218355958247e-03,1.237199068069458008e+00
2.989758551263925479e-02,-7.797733180668061648e-01,5.278134088772803434e-01,-2.202685857421937503e-03,-9.201429256231083778e-03,3.223475956560995295e-03,1.143212556838989258e+00
1.655379339952259277e-03,-6.619045026098825391e-01,7.512575188364213341e-01,-2.919814133830259117e-02,-4.162418965791384561e-03,3.326594864099309025e-03,1.225668668746948242e+00
-6.539828541056466604e-02,-8.218338773963042021e-01,7.916531655585251626e-01,-8.529225227223824479e-03,-2.209432716863485996e-03,-1.104959993365994299e-02,1.398440361022949219e+00
3.930070624005300994e-02,-7.997142143735576081e-01,5.151463277320025291e-01,4.833211531229371707e-03,-2.771996607225418741e-02,-3.644689378639863497e-04,1.154119729995727539e+00
2.783940909513692510e-02,-7.698220680960929929e-01,7.673083413900186889e-01,-2.362906915703965466e-02,1.400035165630673668e-03,-2.177241128542388871e-03,1.332148313522338867e+00
-5.795017888480889084e-02,-8.252357314740891292e-01,7.777768766153382307e-01,-1.413134263155061028e-02,-2.922949000869408918e-03,1.682032396330944380e-03,1.388899326324462891e+00
3.456768717245714551e-02,-7.946125286493648243e-01,7.793307146383908757e-01,-5.066447190682773355e-02,2.536463080846520536e-03,-3.301553593007133022e-03,1.366567730903625488e+00
-8.798608388666498414e-02,-3.103750678503376936e-01,6.465365680145046534e-01,4.287739531810740023e-02,-1.653689744422848495e-01,7.388386902846919013e-02,9.253446459770202637e-01
-3.791393384615079909e-02,-8.240791684157285912e-01,7.493703835948534175e-01,-1.198946389040458395e-02,3.026951138667520556e-03,6.079016565988367739e-03,1.362856388092041016e+00
1.260885344090820204e-02,-7.925072807633597449e-01,7.850651691280586819e-01,-1.240035733972311843e-02,1.000174429605697919e-02,-2.911679047419177442e-03,1.366603374481201172e+00
-1.096137280119413061e-02,-8.228112290296263343e-01,7.987731812232561346e-01,3.030059196107692029e-03,1.305278168229552244e-03,6.109120650006313533e-03,1.404385209083557129e+00
-1.623660780651988711e-01,-4.559335980853546078e-01,1.213389772759937646e+00,2.126778598074564319e-01,-8.086191404190369580e-02,-1.922178135855850956e-02,1.593481540679931641e+00
-5.917310390829869787e-02,-8.118313696679688718e-01,7.331758280334538247e-01,-1.351736460718438483e-02,3.031432777055357696e-03,-3.691947128166169628e-03,1.338392972946166992e+00
-2.398681683258650776e-03,-7.321274650678020190e-01,7.751451925837875567e-01,-3.777119731562879335e-02,-1.613946006264282279e-02,9.378021343010906410e-03,1.307593226432800293e+00
1.005611591056110657e-02,-7.846063789287873735e-01,7.841218266247008684e-01,-1.013090230764078677e-02,-4.720513615360427510e-03,-5.465882774786880085e-04,1.358735799789428711e+00
-2.656418091339481438e-02,-7.937467309287982165e-01,8.106990318922819849e-01,1.003898089265365251e-01,-1.679134904185649105e-02,6.809943508034663195e-02,1.406024575233459473e+00
6.050815294094785690e-02,-7.897468403225728073e-01,4.675901742921069193e-01,2.459137401234318034e-03,-2.542665053716613131e-03,-1.552919780100113674e-03,1.111223459243774414e+00
-2.653257802659091114e-02,-8.083086465355469041e-01,6.544986932747476338e-01,-1.526136273782196726e-02,-4.523433558069382687e-03,4.983106072200207785e-03,1.268158555030822754e+00
2.406492246647608593e-02,-7.742973066416231065e-01,7.715205459942102717e-01,-2.290501261420090084e-02,1.200123916704094740e-02,-5.330411901397058734e-03,1.339740157127380371e+00
1.397532256181472157e-02,-7.599802174521813614e-01,7.726851715970284307e-01,-1.466524744197457777e-02,9.113791961035865030e-03,-3.268744512092231977e-03,1.327697992324829102e+00
1.453742895808700364e-02,-7.770891767678099749e-01,7.758466456426661439e-01,-1.669407278155389529e-02,9.095998465542405945e-03,-1.187783924709979360e-03,1.345371961593627930e+00
3.088883346368050467e-02,-7.818272419553390362e-01,7.677864416581022811e-01,-8.256492136573203092e-03,1.978193329514077534e-03,3.037006947222286798e-03,1.342630982398986816e+00
1.596438994170317621e-02,-7.977109157745799761e-01,7.923319117271114820e-01,-5.456473924280997971e-03,-3.774706726964592324e-03,2.098337206042842976e-03,1.377196550369262695e+00
-1.403655377556927743e-02,-8.184634297967503525e-01,8.163973645838406012e-01,-1.133674762107211680e-02,-1.600083139997337265e-03,-2.999675924315661161e-03,1.416039109230041504e+00
-6.160265528872985175e-02,-8.204711393848078682e-01,7.959676449893997585e-01,2.352382298417867324e-03,-2.487215701337181558e-03,-3.852652903746678001e-03,1.400775074958801270e+00
-2.774400144564533044e-02,-8.006364383285278219e-01,6.503188856089677783e-01,6.015380330447262294e-03,-6.105874460721578793e-03,-3.094493964480224662e-03,1.257557511329650879e+00
-7.314446937097937584e-02,-7.992205561233008959e-01,7.487473876858159461e-01,3.555947544059592791e-03,-1.014574721250629608e-03,-2.602973519463558393e-04,1.341450691223144531e+00
2.976785005914051388e-02,-7.743857986934389315e-01,7.718190084473665058e-01,-7.155402172205450363e-03,9.396806936015240095e-04,-3.748917241659416918e-03,1.339486718177795410e+00
1.971286056065861547e-02,-8.012318241328069135e-01,5.625196449069862492e-01,1.458444616338225655e-02,-6.187877306835940817e-03,-1.343934584235736149e-03,1.189521789550781250e+00
-3.634954751703407122e-02,-7.985831974378660991e-01,8.051087974012275383e-01,1.272756421451162051e-02,-2.468508240173558979e-02,-1.485553410329251527e-02,1.390473365783691406e+00
-1.188534627141360767e-01,-4.046391516746061789e-01,7.388600331433630153e-01,4.060060469827843355e-02,-2.130033674492103762e-02,-2.100066590332334837e-02,1.034455180168151855e+00
-1.893887226562859794e-02,-8.232343646074282706e-01,8.033123215705394449e-01,-2.030862254753285339e-03,-1.704226747853568118e-04,3.172292498627374800e-03,1.408674478530883789e+00
-9.530366971479981020e-02,-3.022980260735737001e-01,6.512072489818674370e-01,-7.354063613147361622e-02,-3.771895610795488601e-02,-1.302041897162252992e-01,9.088459610939025879e-01
-4.680618629287251753e-02,-8.355693771041141638e-01,8.063979841424098183e-01,2.618021668461919822e-03,4.311681325982459276e-03,-4.438670449846458289e-03,1.422398090362548828e+00
-6.491413565405249053e-02,-1.066484520851664008e+00,9.292920195237904801e-01,-3.744010661926688854e-01,-1.939515802315007198e-01,-4.780315704272024291e-02,1.878188490867614746e+00
-1.724293319735021313e-01,-2.160032761408028357e-01,9.227171627458802261e-01,-1.095799966675214121e-01,-3.530086408320796867e-03,1.275297393610962948e-01,1.154909729957580566e+00
-3.974499118892536875e-02,-8.310925648253337794e-01,8.108454433680281070e-01,-3.384017299014026661e-04,8.616412908343109439e-03,-2.234410977577301703e-03,1.422352194786071777e+00
-4.249525309581791976e-02,-8.275756347617249098e-01,7.571310760102916149e-01,1.469823497429858031e-02,5.030374040921958313e-03,-8.031320941536180397e-03,1.372749805450439453e+00
-4.364524240497649754e-02,-8.363309564790954997e-01,7.782103602040667534e-01,-6.616620987318017413e-03,-3.866885611850906772e-03,-9.151516560038765527e-03,1.398462653160095215e+00
-4.098829900093611811e-02,-8.370174123762272878e-01,7.746357986972994825e-01,5.436537010005611757e-03,3.761196437785140675e-03,-1.129952440883428416e-02,1.395951151847839355e+00
-1.445268723775995634e-01,-5.307237536948151702e-01,9.098705622408617133e-01,-2.805699962184560747e-01,-7.598705693612828327e-02,9.887961015971161172e-02,1.396753072738647461e+00
-4.240111299254141486e-02,-8.241974047634005318e-01,8.100475053335249864e-01,-2.696542218819156927e-03,7.962688529312478281e-03,-1.915646072351858027e-03,1.415817141532897949e+00
-4.503668748312962544e-02,-8.343247656353538488e-01,7.932091855569284311e-01,8.407977967448354573e-03,5.863010498319901065e-03,-3.786241581970339193e-03,1.409825325012207031e+00
-9.601209235795107877e-02,-6.686091606529709352e-01,8.078446753982744255e-01,2.744771252710789811e-03,1.406096408834873329e-02,-6.400492356784180138e-03,1.289615750312805176e+00
-2.304061314784905390e-02,-8.282440368329424540e-01,8.089072240294963301e-01,4.143250642658563750e-03,-1.221434986924570525e-05,1.905309199365628169e-03,1.417899608612060547e+00
-1.224484340736256005e-01,-5.090503469347000820e-01,7.658539810544704451e-01,7.519985038939490385e-02,-8.743397294811935255e-03,-2.923403555967780607e-02,1.140929460525512695e+00
-1.941120837523195863e-01,-3.093500919087811551e-01,8.553224677462276659e-01,-1.645617762321143970e-02,-9.830214028412881735e-03,-8.028917872265013689e-02,1.120700120925903320e+00
-3.335450954589026795e-02,-8.262340697092652730e-01,8.072416696566119265e-01,-1.018685360833731759e-04,-2.904547971591008113e-03,-3.753884286226565319e-03,1.414856553077697754e+00
-4.519432815724339081e-02,-8.337739061281417285e-01,7.931766658873746767e-01,-8.069050502492047458e-03,5.650712144325274397e-03,4.664018736638545978e-03,1.409326910972595215e+00
-4.582439005854977571e-02,-8.329557152312945245e-01,8.004977747919048703e-01,-6.111017706718713770e-03,3.230947398812998757e-03,1.865963335017512643e-03,1.414976119995117188e+00
-4.190978896494235162e-02,-8.311990912074724847e-01,7.917468467860201420e-01,-5.309732902905613290e-03,5.540947106816919952e-03,4.596806774239799165e-03,1.405772805213928223e+00
4.963765272171336007e-02,-1.152239703971986273e+00,6.351236906705075569e-01,-2.548626845805447294e-01,-2.841140905524557891e-01,-2.060885472736011526e-01,1.747978925704956055e+00
-2.282200217211700910e-02,-8.124562993633577257e-01,8.010059725776597084e-01,-2.306889470544493895e-03,8.934832060268113607e-03,5.012190876069547336e-03,1.397522330284118652e+00
-3.686745529386906139e-02,-8.206423769931557866e-01,8.063914351783781909e-01,1.811565790602605091e-03,-5.942262766357994663e-03,-3.655221673046397425e-03,1.409421801567077637e+00
-8.026064590844936286e-02,-8.241651013090186551e-01,8.321007336058782178e-01,-4.330400226214490265e-04,-6.308435927387245901e-02,1.127963135670632770e-02,1.441120386123657227e+00
-3.252779207552628643e-02,-9.501916094463604967e-01,9.063220535118091670e-01,-6.452605844045013195e-02,-7.801883429821286631e-02,1.859739106002579771e-03,1.617360949516296387e+00
-3.788258982851203105e-02,-8.217902993523598099e-01,8.198093463982829565e-01,-1.074181197328879650e-01,-1.381562111873662346e-01,1.569464608435942182e-02,1.454343318939208984e+00
-8.249268555515942847e-02,-7.597663074845359965e-01,8.298302789132344648e-01,-2.739965033769047320e-01,-1.404355277060481133e-01,-1.440335685222670636e-01,1.501849055290222168e+00
-6.013608466060006708e-02,-8.229504341008107016e-01,7.927840188930099785e-01,-9.571472537968467656e-03,-7.108790323847793448e-03,-1.111625541847287464e-02,1.400276899337768555e+00
4.483892156622085179e-02,-1.026906787880115690e+00,6.832195114302729300e-01,-9.529078302955713842e-02,-2.918056087349477079e-01,1.322352077988179705e-02,1.588574051856994629e+00
-8.109551281095382647e-02,-8.034580679375554757e-01,7.556320473727166087e-01,-4.138565770533016164e-04,-1.549705493052805014e-02,2.801836382388063311e-03,1.351697444915771484e+00
-5.551409415104814615e-02,-8.228279147702347585e-01,7.798018374338638870e-01,-2.251141717078605602e-03,2.813320980128675066e-03,2.568241021809186155e-03,1.388355612754821777e+00
4.656131981323016755e-03,-8.262116163321303608e-01,6.283526062249309430e-01,-1.092000863675733624e-01,-2.438368637557027929e-01,-8.617607903988497992e-03,1.346073508262634277e+00
-2.647440626727090227e-02,-8.423228947500182029e-01,8.435172183721084682e-01,-1.233109920456723629e-02,2.067312020935040996e-03,-1.062409650969027390e-02,1.460507869720458984e+00
-8.380788826579428641e-02,-8.150029106385223709e-01,7.918539211503347053e-01,-6.046147839991529438e-03,-4.234587825491666763e-02,-7.889625131779712947e-03,1.395487427711486816e+00
5.176504317335725580e-02,-8.068096947484048043e-01,4.879460247437766851e-01,-6.386685160943494227e-03,-1.131351342862258391e-03,-3.459252516268511435e-02,1.142634868621826172e+00
1.338401871987873921e-02,-7.343365319580957840e-01,7.596499653256738593e-01,6.169579722203215322e-03,1.065870751350059611e-02,-4.013166501633842406e-03,1.294024944305419922e+00
-5.128567475644786600e-02,-8.247963572843959312e-01,7.917880137258859197e-01,9.925466563024369290e-03,4.227414820161280989e-04,6.482779649461917551e-03,1.400585889816284180e+00
-1.264233598543792469e-01,-6.013357495297048105e-01,8.396342532818510396e-01,1.074246185581172880e-01,-2.779675884992559645e-02,4.779018029068031470e-02,1.288949847221374512e+00
-3.248430884365804266e-02,-8.076565665660527804e-01,6.788753763920580830e-01,1.224658104792534889e-02,-6.002174651497817594e-04,-2.074811896474261768e-03,1.287949919700622559e+00
-4.884758700452816044e-02,-8.293107991892312292e-01,7.939552445995348151e-01,2.545541018970038771e-03,2.558215262681577847e-04,3.745215121354022840e-04,1.406142234802246094e+00
-4.437130574260659405e-02,-8.336290614024652879e-01,8.036392147017205057e-01,4.611749740208473565e-03,-1.662021547818862827e-03,2.555094876440266657e-03,1.418252468109130859e+00
-4.458492346668930378e-02,-8.342142198292653577e-01,7.969263159450826750e-01,7.732305655136690638e-03,2.614360216890407578e-03,-3.051008312944858848e-03,1.412927865982055664e+00
-3.664761797220152106e-02,-8.162427181744643656e-01,8.054978392315457203e-01,7.062627872215550143e-04,-1.220873081048345259e-03,8.586537605270257514e-03,1.404897570610046387e+00
-2.610642053225234460e-02,-8.268329170696604447e-01,8.085360881959066104e-01,-2.451369321950683678e-03,-5.792101285382516250e-03,2.576353270792471756e-03,1.416421532630920410e+00
-3.064901184513851851e-02,-7.974977656040017626e-01,6.504190239524274553e-01,6.236719754969912918e-03,-6.010513293159046831e-03,-3.193419313265210072e-03,1.254767894744873047e+00
-3.330424154514232543e-02,-8.178822644258131325e-01,8.077801572759967241e-01,1.108981632960541388e-03,-1.245131567478665116e-02,-1.563069300952784875e-03,1.408317446708679199e+00
-3.005896720161380098e-02,-8.122266192141195384e-01,8.024066901260343831e-01,-4.011923653829327190e-03,5.992356460401534503e-03,4.856130741944181609e-03,1.398620724678039551e+00
-3.173916738736193288e-02,-8.281482574694499776e-01,8.095344938734311269e-01,-1.173943903508154135e-03,-1.339072398498871753e-02,2.499494911282779380e-03,1.418649911880493164e+00
-2.126283468223849615e-02,-8.141206051236697938e-01,8.024698189849243102e-01,3.478512828791882790e-03,6.552510788174531389e-04,3.170277232383973166e-03,1.400117635726928711e+00
1.134644305408015474e-05,-8.122931257860657173e-01,7.984741679796946157e-01,5.035165507406365488e-04,-1.355496329133597591e-02,3.469493721289074618e-03,1.395193338394165039e+00
-4.731325417563450597e-02,-8.355569627814102285e-01,8.091254523520855502e-01,9.569165633947952646e-04,2.622367733902873817e-03,-2.609542791103016714e-03,1.424760222434997559e+00
2.288239625501965746e-02,-7.666243758803495956e-01,7.690553090528481350e-01,1.943576230326773957e-02,1.122521320719070161e-02,8.218558946127099349e-03,1.330758213996887207e+00
-4.208209778655171152e-02,-8.360939959551914047e-01,8.166835009611328466e-01,1.471465588811821708e-03,2.713759149829363376e-03,1.261176309242194055e-03,1.431725025177001953e+00
-3.887634688240793057e-02,-8.163278569672721696e-01,7.312411125854771932e-01,-1.242740977108782938e-02,7.519496025299801829e-03,-3.022779594066409524e-03,1.340485453605651855e+00
-2.167752960870276274e-02,-8.665684375250075622e-01,8.794570715450297227e-01,1.192661532077890635e-01,-5.636742764007067474e-02,3.159316337269389013e-02,1.530504584312438965e+00
-4.303292406194723224e-02,-9.052757887128431991e-01,9.545786128655422420e-01,5.800620280645670673e-02,-9.631133355739636415e-02,2.511320932406375678e-03,1.623827457427978516e+00
-3.681995753324441428e-02,-8.987800475768157327e-01,8.766244607784359211e-01,4.642423880570317046e-02,-4.162258089195267768e-02,5.023085471553914889e-03,1.541572928428649902e+00
-4.849820274364970152e-02,-8.289157908160489363e-01,8.075267396921944618e-01,-9.861955246346493925e-03,6.400147717413051836e-03,-4.497427898709337006e-03,1.417872548103332520e+00
-3.664460441636455817e-02,-8.153472000843301482e-01,8.235885465619202650e-01,-1.962637320859342283e-03,-1.730001154648245013e-02,-1.738609437147432824e-02,1.420584678649902344e+00
-7.030042934552219180e-02,-8.138797449701723474e-01,7.834378217443008774e-01,-1.590321186542626624e-03,4.074938264623429243e-03,7.737352835146785353e-03,1.384499311447143555e+00
-4.144768179254475216e-02,-8.381368859258295778e-01,8.132627658693444284e-01,-1.598470100309541111e-03,3.286300138881441749e-03,1.292470304520060200e-03,1.430464029312133789e+00
8.365693982818604713e-03,-8.187576112808260254e-01,8.023845931853366142e-01,1.416488756823834974e-02,7.070539556420448596e-03,7.807296018034657996e-03,1.404380798339843750e+00
-5.073048882387286296e-02,-6.648692268406984907e-01,7.813886804155117938e-01,3.788301919029144621e-02,2.580159631796745401e-02,3.027493868702238466e-02,1.260824203491210938e+00
1.040152774909983147e-01,-1.358059825410764310e+00,7.095659988297837728e-01,1.826131403041622581e-01,4.223662249706470195e-01,-4.169702661731224114e-02,2.007524490356445312e+00
-6.606891712605968137e-02,-8.250166718625179252e-01,7.871898705491617854e-01,-8.712762957815110842e-03,-8.106548171301519072e-04,6.609442183193965301e-04,1.397090554237365723e+00
4.248976693220704592e-04,-8.214431227386820300e-01,8.442872744325743417e-01,5.609450267697235065e-02,-1.316853360626280868e-02,-1.307794527403687360e-02,1.446232080459594727e+00
-5.225683993083300727e-02,-8.283330212578117191e-01,7.951067272565992550e-01,-5.377930073539625294e-03,2.624733808951627660e-03,-3.312533618472175267e-03,1.406441688537597656e+00
-9.807989033093524045e-03,-6.901622975642310864e-01,8.440551446256847612e-01,1.261990288772865398e-01,-2.614781471831176957e-02,-7.833705584181097081e-02,1.356883764266967773e+00
-5.255835846805363004e-02,-7.746019122099604415e-01,8.029574057059500891e-01,4.013675840594518656e-04,1.790762863939561814e-02,-1.013220467793649396e-02,1.368299722671508789e+00
-4.497354425779401255e-02,-7.758239181670032458e-01,7.992273123405285729e-01,-7.023591177449228090e-04,2.036821159963085257e-02,-1.295261740524020211e-02,1.365851879119873047e+00
-5.084495120619947697e-03,-7.555727697448958446e-01,7.918247713092511075e-01,-2.019302543827107901e-02,1.954596918877053377e-02,-2.001773680292001645e-02,1.341618299484252930e+00
-4.459406028139052680e-02,-8.255065158004423198e-01,8.110892146630562793e-01,1.086738770584893328e-04,9.748641532741976132e-03,-5.942676429908675534e-03,1.417964339256286621e+00
-3.652025276646577584e-02,-7.825965218586776739e-01,7.981709829416011592e-01,-7.820577737359351092e-03,1.901783196118499858e-02,-1.453410676149822882e-02,1.370395898818969727e+00
-3.482632248130466956e-02,-8.219167085515715065e-01,8.116454466759995823e-01,-3.319168585220169578e-03,2.380253733322053658e-02,-1.418601540128482455e-02,1.415843248367309570e+00
-6.029472575056496475e-02,-7.991349611821559895e-01,7.137102885870013624e-01,6.681591803943236381e-03,-3.441022396444154592e-03,-5.917709833305607840e-04,1.310345411300659180e+00
1.107390788351071687e-02,-4.696077208660863200e-01,2.523651868245525565e-01,-5.044126212802157311e-02,-7.152434752527850326e-02,-1.325630767279104005e-01,6.935125589370727539e-01
-3.195753345083404001e-02,-8.223462824324456744e-01,7.356071354853163102e-01,-2.161053365466174270e-03,-2.025017385542472390e-02,-6.191598423555456747e-03,1.349779129028320312e+00
-3.090984886949091348e-02,-8.184678323317783333e-01,7.360448990341752484e-01,-1.095608705175060531e-02,1.410385841113770107e-03,-1.676586631715860573e-02,1.346735954284667969e+00
2.310607845427152182e-02,-6.991177609236788326e-01,6.522482139689474989e-01,-1.240756653840013879e-01,-2.551034856213481028e-01,-9.791280141786151692e-02,1.281400442123413086e+00
-9.351247270684171289e-03,-8.188710602443596276e-01,7.990603563001076326e-01,-1.733974664092072585e-02,5.599536993654671141e-03,4.365325101485028475e-03,1.401545643806457520e+00
-3.528425315497015630e-02,-8.291638649539839756e-01,7.891703066502541164e-01,-2.441339564142790911e-03,-1.618195973245113196e-03,-3.650159916437478724e-02,1.403036236763000488e+00
-4.468681968956460249e-02,-8.314935414459643237e-01,7.675399164175810141e-01,-1.418555633935317771e-02,-2.041439585698315729e-03,-9.243547707238447441e-06,1.385084390640258789e+00
-4.405855737175279341e-03,-6.511999589020432966e-01,7.981619032961921878e-01,1.564898882527256119e-01,2.918217237906945913e-02,1.421295836449156403e-03,1.287471055984497070e+00
-6.220031063201214572e-02,-8.021060147985382693e-01,7.244565067864477959e-01,-3.599352048724143317e-03,1.929462752597502825e-03,3.074288410373083712e-03,1.322278261184692383e+00
-2.958708466987316696e-02,-5.370220857747050047e-01,5.394036314377860242e-01,-1.808585250326048000e-01,-1.326493519895988182e-01,-1.289429391696323979e-01,1.034776449203491211e+00
-9.122484991231381846e-03,-8.391137864672840729e-01,6.416157686395480564e-01,3.653865758605290195e-03,-2.103888723700239605e-02,6.425941031648210733e-02,1.290817022323608398e+00
-1.315014717974958836e-01,-5.566663322840708084e-01,7.821712960204707521e-01,-9.350436497348199247e-03,-5.402820642841425075e-03,7.113359524848690552e-02,1.191450595855712891e+00
-7.008043215910604584e-02,-8.060546905052012878e-01,7.587284882771636596e-01,5.694419785336359355e-03,-1.541617733749929900e-02,3.841187323788076893e-03,1.356251835823059082e+00
-5.447841522576975931e-02,-8.545989576914172492e-01,8.716754126296923921e-01,-3.190342776909163829e-03,4.502781347918300911e-03,-3.393533713543935102e-03,1.496367096900939941e+00
-4.763366355417253395e-02,-8.317477023362641608e-01,8.124234860934430591e-01,5.168414723367406420e-03,-9.627931809806523217e-03,1.316107510432814676e-03,1.424527764320373535e+00
-6.629977873886259976e-02,-7.724689936319240058e-01,8.123017936413265971e-01,-1.027923649888194940e-03,-7.422695000258207072e-04,1.112065324405366908e-02,1.375293731689453125e+00
-8.026077475553664020e-02,-6.453065952503772573e-01,7.938510911846841100e-01,4.324135154711091812e-03,-1.815065627717774716e-02,-2.605531699190778532e-03,1.256314635276794434e+00
-5.293424317445291627e-02,-8.273754133134739730e-01,8.109223960187161850e-01,2.735556553670454201e-03,-4.920819153042500435e-03,1.212345771932833932e-03,1.419546723365783691e+00
-5.348039830499090597e-02,-8.218164977438378038e-01,8.120052317884939308e-01,4.636998641429742251e-04,-1.048447745245272011e-02,5.129854519270027682e-03,1.415909290313720703e+00
-4.086741508196792966e-02,-8.383857582064342395e-01,8.122792047510256630e-01,5.611534408973930296e-04,-6.937408185664214414e-04,1.974693811116073200e-03,1.429793238639831543e+00
-4.463360743294596950e-02,-8.386744981019839118e-01,8.144101043432394604e-01,-6.501716711655454017e-04,-2.150606803247052425e-03,6.436931001048963553e-04,1.431987881660461426e+00
-6.983906504933626302e-02,-8.131679071709445594e-01,7.766002702940814073e-01,-1.796647779787941316e-04,1.429857204685575653e-03,3.793728690019963160e-03,1.377762436866760254e+00
-4.358384819129990095e-02,-8.244365191154072736e-01,7.721494323635872403e-01,8.240157877070568640e-03,-8.642897727242906600e-03,4.845124469550281601e-03,1.382974147796630859e+00
-4.605186473733846597e-02,-8.349941676521748235e-01,8.130731957988877046e-01,2.818048927470563972e-03,-3.222589322059150711e-03,5.030586980311270613e-04,1.427718997001647949e+00
-4.708600675398689345e-02,-8.339905663831961302e-01,8.180902997960621814e-01,4.836737439793725550e-03,-5.583895311810679017e-03,-2.987759998168363490e-03,1.431345701217651367e+00
-4.533980946443527671e-02,-8.261409137544539760e-01,8.054331114878352516e-01,3.102241282285429780e-03,-9.956220499697861215e-03,2.253085149746357832e-03,1.413538455963134766e+00
-4.193315361556632093e-02,-8.249210987619438606e-01,8.156060675715690600e-01,3.262359214714714156e-03,-1.464834109469189023e-02,-6.389357067857550114e-04,1.421465277671813965e+00
2.244414447469530657e-02,-7.758872897788283707e-01,7.737087934048676452e-01,-6.207152568667656002e-03,5.006821328407564872e-03,-1.391992327189978118e-03,1.342269182205200195e+00
-3.707322899960674434e-02,-8.367752961235780385e-01,8.145712908223928794e-01,2.182453059625483801e-03,6.004174994866226436e-04,8.700499551675554191e-04,1.430350065231323242e+00
-4.574467920897062889e-02,-8.336030966431411393e-01,8.100805143980471801e-01,5.113710654086969093e-03,2.219238451186898720e-03,3.155758573307632965e-03,1.423920631408691406e+00
-4.145716436152641765e-02,-8.359174163989140371e-01,8.161136236866545213e-01,1.150586085132519488e-04,-6.040081100550501468e-08,-1.722791993897960020e-03,1.431051969528198242e+00
-4.399829071127232816e-02,-8.340982197153218314e-01,8.005177141941867136e-01,8.183706049575167549e-03,5.910930329211847023e-03,-2.553957684460145174e-03,1.415995240211486816e+00
-2.889843091910476031e-02,-8.124722329492781725e-01,8.025669176283053430e-01,-2.762004114394259885e-03,-8.374942907767701089e-03,1.090456242611681677e-03,1.398954510688781738e+00
-6.568846816297851943e-02,-8.184627852155734740e-01,7.775126945190533601e-01,-1.485085994958161917e-02,-2.474726144297388283e-02,-2.627656612262239261e-02,1.384546041488647461e+00
-4.243296235477281297e-02,-8.284741372758940292e-01,8.040516867244021926e-01,4.976478074156704540e-03,5.020854966087475585e-03,-6.831046973044300856e-03,1.414234280586242676e+00
-3.923151450172224913e-02,-8.222798918379262689e-01,8.161738595451004663e-01,4.264591759955041472e-03,-1.859656026352659317e-03,-9.136551276605120453e-03,1.419514775276184082e+00
-3.451994543755684125e-02,-8.227362233763085841e-01,8.100462397044189133e-01,2.430123195480977071e-03,-1.351109081087612613e-03,-4.273780777838075660e-03,1.414339303970336914e+00
-1.062034784063710657e-01,-3.677123481927936921e-01,7.253340286140226301e-01,-4.626593827624449901e-02,-4.456885565629648861e-03,-1.710844621089046072e-02,9.922979474067687988e-01
1.933341702919365648e-02,-7.072615574091536406e-01,7.751267391846776711e-01,-7.888141584898535064e-02,-7.361000794906715893e-04,2.785974252126229272e-03,1.291127920150756836e+00
-7.482981081729672690e-02,-8.070217838933921861e-01,7.663627501763138339e-01,-2.961167539590317532e-03,-2.619386306302284775e-03,-4.409077441211816176e-03,1.363719105720520020e+00
-5.327242663006765550e-02,-8.335454195264373478e-01,8.026280080428622732e-01,-4.897466842103586140e-03,2.928485530616739552e-03,1.961242775543487697e-03,1.417510747909545898e+00
-4.382774617192598116e-02,-8.319415730052661662e-01,7.997478245897238214e-01,1.749318957416494424e-04,-1.941236529342145033e-03,1.577910468729267716e-03,1.413363218307495117e+00
-4.604306949599201726e-02,-8.385193817955027829e-01,8.144347216867336980e-01,-1.797678019241826484e-03,1.709286665081946512e-03,1.185984723919426527e-03,1.431911945343017578e+00
-1.575916903818942449e-01,-2.689961414613392665e-01,7.341035388472962886e-01,-1.288313717671293601e-01,8.159699742167526512e-03,-3.240284818129049449e-02,9.798021912574768066e-01
2.760368151313865800e-02,-7.643447939236500677e-01,7.658538326092035886e-01,2.984068279692869436e-03,5.451977482849642426e-03,1.332104374320205716e-04,1.325506567955017090e+00
-4.402057909063164520e-02,-8.300142835030369648e-01,8.063397562618795922e-01,5.571373041734488819e-04,5.968440287211651367e-03,-1.769945481875959039e-03,1.417530894279479980e+00
-1.337069774706671488e-01,-3.628836805484160766e-01,7.337630241930708230e-01,-8.332345627906374841e-02,8.573581348503084287e-03,-2.609963806143346388e-02,1.013371825218200684e+00
-8.061097359832422593e-02,-8.032122814346844830e-01,7.560854682370740099e-01,-3.145585988694775143e-03,-1.850831453030162910e-03,-4.459103802562754603e-04,1.351610898971557617e+00
-1.719871833994435772e-01,-7.860603796185916536e-02,7.863738706377060295e-01,-1.062987687361036382e-01,2.088265562806230352e-02,-1.144715508728324366e-02,9.344959855079650879e-01
-1.452830879222496985e-01,-1.556356804602256338e-01,8.047493886276498865e-01,-1.906544825933780274e-01,-2.986768986073730803e-03,6.626291234130461671e-02,1.017226934432983398e+00
-7.766681930925731225e-02,-8.086366006415395269e-01,7.729483119632628574e-01,-6.400908091041975466e-03,-2.639110054760557700e-03,8.408791510475963028e-04,1.371051669120788574e+00
-1.316376501165272273e-01,-3.092353245998490929e-01,8.026468778713278240e-01,-2.560766132880737955e-01,-9.656532330194178559e-02,4.220208109724981477e-02,1.140350222587585449e+00
-2.951262429683716715e-02,-8.080528286152610651e-01,9.264362697404778801e-01,1.125979587313308550e-01,-1.872553776772920399e-03,-5.424903532734760142e-02,1.520224332809448242e+00
-7.335936007491687672e-02,-8.110843701091121627e-01,7.813594581782380422e-01,2.059080516347959640e-03,-9.329184136608740727e-03,-3.022236504016084270e-03,1.380445957183837891e+00
-7.483323293348689842e-02,-8.014879210929660713e-01,7.541711968337964089e-01,3.926511550464991773e-04,-2.015151540776574744e-03,-4.790324222751628116e-04,1.348216891288757324e+00
2.075498089571523042e-01,-9.110485531234333578e-01,5.319801908430221715e-02,1.869811051146130776e-02,1.805547598733480974e-01,-2.644733161983116657e-02,1.096985101699829102e+00
-6.100146079667029264e-02,-6.568445437287701028e-01,9.534244322190461585e-01,2.059766935621115402e-01,7.330826570167078837e-02,7.857757719076108316e-02,1.466442108154296875e+00
-1.112693405716322914e-01,-9.219839825622577756e-01,1.344141278662651651e+00,1.421601997156962949e-01,1.315917171552764831e-01,-1.751352602148335824e-02,2.017151117324829102e+00
-3.470000579126932688e-02,-8.197331437373456264e-01,8.062460124665421501e-01,-4.884393772326888969e-04,-2.390332697667708385e-04,-8.568926169109951016e-03,1.408495306968688965e+00
-1.069418824360801878e-01,-6.550716289537200643e-01,9.415141788619382224e-01,3.429733964213199093e-01,1.565485034286039634e-01,3.341223639668081807e-02,1.550535440444946289e+00
-9.662252513601511661e-03,-8.348066121235879766e-01,9.499350006382792921e-01,1.460248320665828436e-01,3.343484573002905580e-02,-3.812550108261197196e-02,1.570089340209960938e+00
-9.434251683323248081e-03,-8.106172822256888510e-01,7.973490570650275666e-01,-4.070714010909384957e-03,1.071498523063832593e-02,-3.831478673014309787e-03,1.392699837684631348e+00
-7.985982778664563186e-02,-8.006076330233093952e-01,7.508355954966617896e-01,-2.522455778481099190e-04,2.367888980714516608e-04,-1.055632272033104111e-04,1.344713568687438965e+00
-7.038630873749945893e-02,-8.130138219670657307e-01,7.952493268733741294e-01,7.903841457013130890e-04,-8.076319255993745505e-03,1.630720524236188096e-03,1.394227743148803711e+00
-2.372572610313306019e-02,-8.173591276058812527e-01,8.069032828908782040e-01,5.068796434515000999e-04,5.519888561714680550e-03,4.465651852892652506e-03,1.406828165054321289e+00
-1.436949616040371878e-02,-8.146234759052735086e-01,8.003181290209260279e-01,4.588843294419258506e-03,-1.187709615451433207e-03,1.325680721305082591e-03,1.398625016212463379e+00
-5.466319288186344966e-02,-8.236140640391172996e-01,7.922541643810605549e-01,-3.511777425720030623e-04,5.035476231250092527e-03,4.318259683807819903e-03,1.399973154067993164e+00
1.094447963189502243e-03,-8.010726975735437128e-01,7.911822489924638102e-01,-2.297505362774362667e-03,1.035673391803408269e-02,-3.437992074679017268e-03,1.379081726074218750e+00
-1.216033331102745613e-02,-8.129764834339420210e-01,8.017438410234523083e-01,-6.389491110900971313e-03,1.691646830849527494e-02,-6.211153779189840761e-04,1.398755192756652832e+00
-5.739719272830869079e-02,-8.236702626151326534e-01,7.937740882714504620e-01,-8.000582648392673760e-03,4.362407347961363285e-03,7.735829963189096679e-03,1.401543855667114258e+00
-5.381609757822264362e-02,-8.087060340217367971e-01,7.374182575782946003e-01,1.489837742640523488e-02,1.497633465529917950e-03,-3.645479963544610716e-04,1.339357495307922363e+00
-6.505482905007395344e-02,-8.243265291804334760e-01,7.949304106017648364e-01,-6.222885800782361476e-03,-1.045892417493253382e-03,8.098609643028512051e-03,1.403334140777587891e+00
-3.026233456447299797e-02,-8.242989791515001885e-01,8.057134107337119433e-01,-1.250200017300867421e-04,-9.441443869501095140e-03,-1.657381888759548684e-03,1.411885499954223633e+00
-4.073906343996623602e-02,-8.334057409914107373e-01,8.101848657080042981e-01,1.138341240147655061e-05,-3.707880008910375571e-04,7.864099767230643646e-04,1.423690080642700195e+00
-5.673718167780233274e-02,-8.290953643266791850e-01,8.053891455793651399e-01,-3.773252571146635571e-03,3.099818279485663190e-03,1.770783336183353457e-03,1.416245102882385254e+00
-5.316114795475275490e-02,-8.171710643016564246e-01,7.870544573731204085e-01,-4.169460406235533760e-03,-1.642096288189000665e-04,6.335244817060326807e-03,1.389884591102600098e+00
-2.734512404327076041e-02,-8.230265300183515764e-01,8.025814671637423459e-01,2.281575138509780998e-03,-1.111118217922895876e-02,1.871223382192520237e-03,1.408062696456909180e+00
2.097957230582653265e-02,-7.708279816360791292e-01,7.724807344469667436e-01,6.748438383059691438e-03,5.610928028752950811e-03,3.256000502752628804e-03,1.336794853210449219e+00
2.493922147535148487e-02,-7.443209045123602152e-01,7.599407391489598762e-01,2.193690504195976165e-02,6.502867979206869951e-03,-8.085023170482025841e-04,1.303444743156433105e+00
1.983616544377787144e-02,-7.807032997179739198e-01,7.746935539299188989e-01,3.140586363762631894e-03,6.096207736993301644e-03,4.178035639878481013e-03,1.347278594970703125e+00
2.521129301970220782e-02,-7.739819702235043453e-01,7.765064170169846403e-01,1.942349396729275979e-02,4.807043948715637076e-04,-3.998970440113865620e-03,1.343415379524230957e+00
-4.827532574860640691e-02,-8.302824868071809750e-01,8.117635179475497509e-01,-6.912523631356270928e-04,5.882635344701861013e-04,-5.892956510945724508e-03,1.422626137733459473e+00
-6.400728162605563709e-02,-8.184709801386415018e-01,7.811414932853463222e-01,-6.342931909537134413e-03,-2.573668495297446596e-03,-4.252511369331512039e-03,1.386117219924926758e+00
-4.062445298152733003e-02,-8.294663946401200638e-01,8.142285630818767439e-01,-1.675727793856275323e-03,9.397519595350503283e-03,-3.021536613391445723e-03,1.423969745635986328e+00
1.658550281240582236e-01,-9.686561080653914857e-01,2.475012145526732099e-01,8.464374143757825986e-02,-2.079482222515225964e-01,-4.692589191588759229e-02,1.242673516273498535e+00
1.478660909424297509e-01,-9.799157874050600237e-01,2.326044624622727874e-01,6.556079556999259983e-02,-2.651626856098289187e-01,-6.781838484483050655e-02,1.269750118255615234e+00
-4.919163547842566458e-02,-8.070050451700039318e-01,7.220556160388256206e-01,-7.886950457466922193e-03,-6.558230668071320449e-03,2.247130493542890545e-03,1.324347257614135742e+00
9.306815716844724085e-02,-8.271646572777284767e-01,3.151083289217762595e-01,2.845770425154432997e-03,-9.099009753141182322e-02,-4.667501639494181509e-02,1.063887476921081543e+00
-4.822181491904925510e-02,-8.228932118408083252e-01,7.890769804196789972e-01,6.912973938151646203e-04,-3.485244412821183677e-03,-2.159786869408911961e-03,1.396376848220825195e+00
9.046790827797637768e-02,-7.918560014448468021e-01,3.563137554677577867e-01,-8.845809838898261238e-03,-1.691986304006267913e-02,-4.514758589926873289e-02,1.044480800628662109e+00
2.510812431905651287e-02,-7.974777450376975274e-01,7.868740229807771325e-01,4.343425104845032025e-02,9.707321211491863611e-03,5.057899692624651458e-03,1.374616980552673340e+00
-8.647774938412358670e-02,-8.147615751307922816e-01,7.858494742563449931e-01,2.453152330982360987e-03,-1.388107742403642611e-02,-2.744287541038851076e-03,1.388262391090393066e+00
-6.390840039381477655e-02,-8.104065458365080632e-01,7.696619513861866491e-01,-9.210590203843817964e-04,-2.632620605687350113e-03,8.388114682627871230e-04,1.369081139564514160e+00
1.275970227301552185e-01,-8.939949533942029847e-01,3.356003698984242889e-01,-1.512583770154495369e-02,1.289804780080066882e-01,6.134721787811110022e-02,1.166745424270629883e+00
-8.491683151352272252e-02,-8.044880847715095706e-01,7.840574543344515090e-01,2.982288748031181741e-04,-1.326585021749507667e-02,-1.795971547667676990e-03,1.377942681312561035e+00
-4.801316518770162856e-02,-8.265549178651074858e-01,8.054416529290898685e-01,5.115936622525594189e-03,-2.775194060483569466e-03,4.629928013862227507e-03,1.413905382156372070e+00
1.984350668517689126e-02,-7.672202759777915215e-01,7.684544394176865412e-01,1.946728191426608018e-04,-4.864805820891202059e-03,8.379545879928613442e-04,1.330099821090698242e+00
-5.482014961279992743e-02,-8.032081482425514896e-01,8.174100539231500262e-01,3.878767217862556967e-03,-6.086074846449263456e-04,-5.029312053860209887e-03,1.404905319213867188e+00
-6.035166499222452408e-02,-8.306517637766515083e-01,8.126459613204978227e-01,3.100937853382557553e-03,-1.198799151957685716e-02,-4.194118794320095094e-03,1.424243688583374023e+00
-1.514969563079251146e-02,-8.509788423712613126e-01,8.542001834864532128e-01,-5.145657126200649245e-02,-2.902517890657411656e-02,1.639417088214808723e-03,1.480366945266723633e+00
-6.727378217095514312e-02,-8.106893682970259807e-01,7.651370409903087699e-01,-1.279208940531857035e-03,3.600846361051097001e-03,1.230552176807086324e-03,1.365448713302612305e+00
-1.244367176314997991e-01,-1.751498295807278893e-01,6.004263139679538730e-01,8.963861588313010165e-02,-1.051509040126306395e-02,9.578946404722868402e-02,7.853165864944458008e-01
-5.978309645295585423e-02,-8.202002936154013657e-01,8.058803513936730889e-01,3.266981174552455788e-03,-1.187687836465612344e-02,-7.151408324016153908e-03,1.409425973892211914e+00
-6.662057419580205697e-02,-8.080090011283919127e-01,7.542187635057053807e-01,-6.383577810184891052e-03,-2.081480324793634484e-02,8.545551693387269665e-04,1.354038000106811523e+00
-3.732980259787385680e-02,-8.275849428982716693e-01,8.239594175417680466e-01,-1.436877106208968857e-01,-1.660068110722091594e-01,1.820836569244947342e-02,1.480732440948486328e+00
-1.425978414967664087e-01,-1.074506835934071036e+00,1.058621829377008883e+00,-4.152597746765937514e-01,1.105143456346692650e-02,6.693422205054246066e-02,1.990462183952331543e+00
-7.435561429213286000e-02,-8.040344793679556901e-01,7.479517352113460582e-01,6.995070550270973686e-03,-1.700541610265682291e-02,7.522573681815790739e-03,1.345297336578369141e+00
-4.784629741110379975e-02,-8.784878983390763674e-01,9.336241084109681010e-01,-4.184763563798327146e-02,-4.246115798268691732e-02,1.027547023342625584e-02,1.574636220932006836e+00
-8.245925392439543145e-02,-1.256647213014745024e+00,1.178560829647408159e+00,1.856684819197393366e-01,-3.241440851759582187e-01,2.008018047782690607e-02,2.206671714782714844e+00
-3.696840521192480689e-02,-1.005812383960239975e+00,1.001354052454489274e+00,-8.977725693103719151e-02,4.124248742922048162e-04,-6.669337976227877191e-03,1.745582580566406250e+00
-7.715147872924563166e-02,-8.017646904382753625e-01,7.344362301978947238e-01,-7.796375713595965332e-05,-2.062718960445918473e-02,1.541056461582883527e-03,1.331581592559814453e+00
-1.247868809304472637e-01,-9.465931005694779854e-01,1.124851347871871798e+00,-3.327475598461922535e-01,-1.247361218703093855e-01,-1.124295443261380117e-01,1.918510556221008301e+00
-5.431648887912390866e-02,-9.970273532090685453e-01,9.857871142036422896e-01,-1.446497544216609511e-02,-3.734955077156459219e-02,4.856177070939295820e-02,1.721314549446105957e+00
-5.001104056679446519e-02,-8.235548781625583459e-01,7.858252418403325334e-01,7.276698046316473940e-03,2.340787033340559903e-03,-1.856153322331852758e-03,1.394178628921508789e+00
-6.735241504165125070e-02,-8.462381172386111983e-01,8.691353288177281478e-01,1.754486470075259947e-03,-9.532574236374673562e-03,2.297242344211545238e-03,1.487745523452758789e+00
-6.782186761751113346e-02,-8.190650108262244045e-01,7.827068857515182554e-01,2.243272150564344994e-03,-1.245805218844967671e-02,1.267857163948253943e-02,1.388409972190856934e+00
-7.366915623173878047e-02,-8.070051025887925444e-01,7.553068113825781582e-01,-3.046853365115534569e-03,-7.740733369983807989e-03,-5.122306416421574388e-03,1.353952407836914062e+00
-6.814650436963214097e-02,-7.221159806617802879e-01,7.895002130795316653e-01,-8.385750983081361951e-04,1.056180184849634177e-02,2.183338684372332361e-02,1.313725829124450684e+00
-3.400124448909835895e-02,-8.315534103488733120e-01,7.746127699522399324e-01,5.858138002186740953e-03,-1.170911561915599641e-02,1.289997496563822545e-02,1.391355991363525391e+00
-4.532205351267391824e-02,-8.327278406972085101e-01,7.989474225698959264e-01,-5.000175165968872258e-03,3.118242189525825391e-03,-5.988699880119448780e-03,1.413433194160461426e+00
-7.435984439632994936e-02,-8.062902998899016405e-01,7.582984547136487619e-01,4.336318539384163666e-03,-3.666823183347401975e-04,4.017343430544887545e-03,1.355948090553283691e+00
-3.570709593012406924e-02,-8.153057616048947631e-01,7.972308243443846365e-01,-5.224290491641431916e-03,-3.220839202672318028e-04,1.728474136941102147e-03,1.396784901618957520e+00
-4.881366244997921433e-02,-8.328679769184992310e-01,8.156914664376847535e-01,-1.899307255661609106e-03,5.554768351377815591e-03,-3.093194215315113460e-03,1.428307175636291504e+00
-6.073047193083602746e-03,-8.069048620015699669e-01,5.617275305817510667e-01,5.170182928019712888e-03,-7.495316158912590510e-02,1.437215344499817929e-02,1.198330402374267578e+00
-5.572534410295246210e-02,-8.238944179240521581e-01,7.794253800833573775e-01,1.232441512968627997e-03,-3.539882920703869319e-03,8.058759687737292871e-03,1.389004826545715332e+00
6.910713234936080585e-02,-7.974972049606008362e-01,4.272034547852164854e-01,1.225617797731622972e-03,7.868917398493799342e-02,3.451505187778094313e-02,1.100780725479125977e+00
-5.234873923981375743e-02,-8.299503352602503048e-01,7.928113849320193030e-01,-5.098909414300712220e-03,-1.096363611225064424e-03,-1.083705280939114418e-02,1.405913114547729492e+00
-5.154342467281187307e-02,-8.278835038591919604e-01,7.959241714787389510e-01,3.935817345234688368e-03,-6.987925196604494920e-04,3.322385621072955833e-03,1.406737089157104492e+00
-5.109749403689226033e-02,-8.242238017742659073e-01,7.925570938103548846e-01,8.499061624886724642e-04,-8.554295266285759022e-03,1.046021826484214504e-02,1.400813579559326172e+00
-4.408752600656697107e-02,-8.345985722605406831e-01,8.113372677048165116e-01,2.103161070501778120e-03,-7.989399214619898027e-05,5.265901434512412944e-04,1.425796627998352051e+00
-2.347831285372322663e-01,-5.955645600452532662e-01,1.305168624189238180e+00,-3.694463768164507611e-01,-9.644974017588969772e-02,-8.285194361406142405e-02,1.874879598617553711e+00
-4.939981434599006321e-02,-8.390356627779416154e-01,8.105376579107935742e-01,-4.276102263606814703e-03,6.622960583874335817e-03,6.592216082434918835e-03,1.429115653038024902e+00
-5.490464381012792605e-02,-8.374287691403152767e-01,8.097189280590730842e-01,-2.954307562644000167e-03,9.612117280025535683e-05,5.235096123160948300e-03,1.427100300788879395e+00
-4.071479293052598925e-02,-8.225747218165340158e-01,8.136616896280581823e-01,4.998111110216651304e-03,1.512623330761246089e-02,4.774096852582339172e-03,1.417778730392456055e+00
2.035942671930909137e-02,-8.021008898799228959e-01,8.076488536075886460e-01,-4.406749624144563199e-02,6.682395969202192289e-03,-6.907752794139463901e-03,1.396382093429565430e+00
-3.085353871475303086e-02,-8.171498656865238130e-01,8.064909811768373737e-01,3.724720275613741297e-04,7.811357696859861158e-03,-1.551246558621476165e-03,1.406413674354553223e+00
-4.425581797593637623e-02,-8.313084145669802361e-01,7.969301348549413522e-01,-8.531382197036361734e-03,9.291045814190407315e-03,-4.212115804908034972e-03,1.410543799400329590e+00
-1.906606610109558980e-02,-8.234189125218598360e-01,8.042700977223616876e-01,4.245922188466472527e-03,9.743756963594554094e-03,3.369638108906859979e-03,1.409784317016601562e+00
-3.272920281281053306e-02,-8.291861963676233627e-01,7.983297324413166640e-01,-2.718610294294516051e-03,2.816514636276394416e-03,1.829737708849027552e-03,1.409596204757690430e+00
-3.415953076680371125e-02,-8.124383501013426878e-01,8.064420306459602061e-01,1.098997756602652920e-03,1.228632199508076193e-02,5.164403259786736096e-03,1.402529120445251465e+00
-4.872204330746666978e-02,-8.148976818280313505e-01,8.099515709427244081e-01,-2.790490210575575711e-03,6.799197968210199394e-03,-3.178833576240224206e-03,1.407988905906677246e+00
-4.034591878653505381e-02,-8.134055190090689891e-01,7.828615568705181715e-01,2.745409074263223479e-03,-2.817756214873517670e-04,4.137111620629622087e-03,1.382662057876586914e+00
-9.827595120941237661e-03,-8.269161011628005653e-01,6.883429956226206903e-01,-1.396627854673153368e-02,-9.226702565950782586e-03,2.017911625642907977e-02,1.314383983612060547e+00
-2.495306592240706389e-02,-7.896038711120718645e-01,7.917964735118072639e-01,2.591445091829432112e-02,1.381548527632785574e-03,-2.167932904951548612e-03,1.370522975921630859e+00
-2.414233179198693041e-02,-7.894756970013714348e-01,6.122623906106562375e-01,-5.350716719162328799e-03,-1.104935293826996880e-02,-2.683320726311858202e-03,1.215846061706542969e+00
-1.877177352726511900e-02,-8.238897902030187792e-01,8.104318287917489094e-01,1.398153672228330188e-02,-1.138467630345941020e-02,1.192116171383167866e-03,1.415761232376098633e+00
-4.733804884918924039e-02,-8.366654164165878704e-01,8.102804500044713532e-01,-7.246633341650271162e-03,4.537065409959638133e-03,-1.809029846877711163e-03,1.426785945892333984e+00
-6.101802169517146074e-02,-8.637149111001674040e-01,7.467352798463410268e-01,-2.974760677259295858e-03,-7.707239676762381309e-02,-9.764600990120937294e-04,1.401077628135681152e+00
-4.289383768888341275e-02,-8.243338412253610192e-01,7.580569295507392225e-01,-1.055494968408934170e-02,-6.807370697669952279e-03,5.383835074234667034e-03,1.370629668235778809e+00
-3.794730794835953630e-02,-8.254345968054361826e-01,8.076940792920083156e-01,4.102367670732096593e-03,-5.711076307635537530e-03,-4.121141099803481492e-03,1.414700269699096680e+00
-6.676989249419630623e-02,-8.023518591311010750e-01,7.407203131861209711e-01,-1.296302622983861591e-03,-8.506243505801871010e-03,8.987663751850566950e-04,1.336907267570495605e+00
-6.697108760488636181e-02,-8.209579299278400022e-01,7.937165443399740727e-01,9.459949602213462523e-04,-1.103292660155378961e-02,-6.936110667800800440e-03,1.399549484252929688e+00
-1.740774189511133385e-01,-3.901539713633589423e-01,1.200116256712403517e+00,2.152093643228507047e-01,4.016515303743135173e-02,-9.297367367439853675e-03,1.541451454162597656e+00
-4.827203349461972604e-02,-8.276129828333929073e-01,8.114696173744327945e-01,3.543101187909127817e-03,-5.043333659226264393e-03,-2.843541302242968277e-03,1.420104980468750000e+00
-5.891180752078465505e-02,-8.217810458959320385e-01,7.917491971974339737e-01,-7.406133375436093312e-03,-9.112788306922010514e-03,-1.060986719264601572e-02,1.398316144943237305e+00
-4.253201196393135292e-02,-8.307948251615906443e-01,7.798158409527697899e-01,-8.837226629960897792e-03,9.112060602529509744e-04,-6.201784562880422076e-03,1.395060062408447266e+00
4.231804070023061602e-03,-7.693845100815216442e-01,7.792114951493727126e-01,7.289683994455822304e-03,1.084464819252812726e-02,-2.488534177095793037e-03,1.341321587562561035e+00
-3.501400179555707454e-02,-8.607926730376370683e-01,7.907219337164573814e-01,8.316664033244879073e-02,-7.191042041948964014e-02,4.972668172882460658e-02,1.445443511009216309e+00
-4.672560439482914552e-02,-8.278473074951260280e-01,8.004129753835439454e-01,3.819432955279237433e-03,2.948329890061743893e-03,-9.005041711007626126e-03,1.410611987113952637e+00
1.722626057444443665e-02,-7.940429066338922093e-01,7.930573014636744800e-01,9.165399974707432243e-03,-4.004325603490514057e-03,-7.986042232930065481e-04,1.374693155288696289e+00
-9.187245954780981494e-02,-6.031235970232311505e-01,7.771893848635548219e-01,-4.211751347896677128e-02,-2.108497537357428061e-03,8.700849092950473096e-02,1.220246434211730957e+00
-4.573350050986976778e-02,-8.229948518391879686e-01,8.005197079627187629e-01,-6.568564298032714653e-03,-5.387869077214542043e-03,-6.344362426574448599e-03,1.406547904014587402e+00
-8.514851252341873455e-02,-8.157298641470480671e-01,7.852655411862875523e-01,-1.916350617939591681e-04,1.386518133033176614e-02,2.775978675199600784e-03,1.388480424880981445e+00
-6.715720862674282032e-02,-7.997417796812635871e-01,7.225680513190974041e-01,-8.213331220847448115e-04,3.127061319375598874e-04,-3.647349017686333660e-04,1.318669557571411133e+00
2.107005313860562529e-02,-7.504926621714205215e-01,7.776160456650598185e-01,4.511493187765670820e-02,1.220726397802987528e-02,7.336159538595281304e-03,1.325936675071716309e+00
1.001247203079314030e-03,-6.872651125212656531e-01,7.619296111432460883e-01,3.135686895394734081e-02,1.112497773421206211e-02,5.722388842953024350e-03,1.256926059722900391e+00
1.463063802923267147e-02,-8.172976138058649642e-01,8.105288493674157602e-01,3.126207259127941618e-02,3.338824484037983091e-03,6.408574888425917250e-04,1.410905838012695312e+00
-5.043670722369403281e-02,-8.244655222575508757e-01,8.021045597261651228e-01,5.747178003187057094e-04,-4.665351505974303127e-03,-8.405988115566444957e-03,1.409296631813049316e+00
4.385168795425416557e-03,-7.289468602200459557e-01,7.664482134962570248e-01,4.295770447734871544e-02,4.087365769178707628e-03,4.467586143695662960e-03,1.297307729721069336e+00
-7.662658453673597270e-02,-8.578251019042781866e-01,8.283249796041260993e-01,6.755012715408941631e-03,5.972806988444895326e-02,3.594638516652973268e-03,1.465275883674621582e+00
-7.151562686511689360e-02,-9.636942089579105808e-01,9.384762324316506810e-01,-1.182998664443322447e-02,9.947887276294477277e-02,-8.313649564503859668e-03,1.657550811767578125e+00
2.618177979711797110e-02,-8.080252310584187247e-01,5.672714854793108330e-01,-9.626767743429187618e-03,5.936562065085906328e-04,1.054119549062306968e-02,1.200280189514160156e+00
1.029007791106989998e-02,-8.143607239915767737e-01,8.136270838568473440e-01,-6.131754075342268906e-02,2.702942470026890517e-04,-9.556649133846013009e-04,1.413914561271667480e+00
-7.670121500429474826e-02,-8.216234268831861254e-01,7.952221891988836555e-01,6.114334096316634271e-03,-5.853381409791433808e-03,1.173007100652221149e-02,1.401892423629760742e+00
1.843897154988479586e-02,-7.943855106973560787e-01,8.071518768693470847e-01,8.843842242040827681e-03,5.964059950799823276e-03,2.764851215686721549e-04,1.387147545814514160e+00
1.810184456726535163e-02,-7.458859859326716357e-01,7.663446463371936801e-01,1.322812593687658703e-02,2.605279109684314424e-03,1.651482648693865457e-03,1.309865117073059082e+00
-3.797039295352651334e-02,-8.247255397687015543e-01,8.028982320926904004e-01,-4.631170845007854045e-03,-3.740075846693364982e-03,7.134388687569526676e-03,1.409915089607238770e+00
-6.155107140493462636e-02,-9.814904085492318631e-01,8.955220928084552945e-01,5.392975597514684111e-02,1.468033147479488043e-01,8.666118942994049598e-03,1.648129463195800781e+00
-3.566426328414080277e-02,-8.254800052699985402e-01,8.052747633385920478e-01,4.084716297403858873e-03,7.209775510685927438e-03,3.514361662204543504e-03,1.412592411041259766e+00
-5.355609666083480103e-02,-8.232788284602585716e-01,8.062129288584898301e-01,6.345835495737628873e-04,-4.187518142421668525e-03,2.131745985475412206e-03,1.411923170089721680e+00
-5.970646375843707832e-02,-8.244469394261698669e-01,7.761199258661778400e-01,9.743578765893249130e-03,1.206496951186693256e-03,-4.500572331479398176e-03,1.386713385581970215e+00
-5.774563767990371910e-02,-8.192463433610140955e-01,7.632818214692141945e-01,1.298506499979093509e-02,-7.045887271889530665e-04,7.459077336589173789e-03,1.371078610420227051e+00
-3.072186750058500393e-02,-8.221964629358887722e-01,8.042796387784190149e-01,-7.171640819184531800e-03,-6.072848997344895521e-03,4.305093396219919141e-03,1.408851504325866699e+00
-3.709243332844506386e-02,-8.308889536430709155e-01,7.601236068600962792e-01,8.701392871909735885e-03,-1.082075475265247694e-02,2.056399545002677090e-02,1.378528475761413574e+00
-9.063326165129309553e-02,-8.506677043864552257e-01,8.402098183386639274e-01,-9.738540614523090791e-03,5.835598111087871714e-02,3.452688058241274848e-03,1.470418453216552734e+00
-4.016509745287020344e-02,-8.343170773931883888e-01,8.082258278681447861e-01,3.803098306258646463e-04,2.134516951949830960e-03,-1.425290523263048623e-03,1.422749519348144531e+00
-3.768773435387203635e-02,-8.266940753739737691e-01,8.107658753088965442e-01,-3.525796662955187153e-03,-1.441625882568020383e-03,3.053538802492048679e-03,1.418418645858764648e+00
-6.642315162804632300e-02,-8.254598144005448335e-01,7.963001929427748760e-01,-1.379931942308620235e-02,3.113261277568247012e-02,2.424897307209529854e-02,1.407305955886840820e+00
-4.615220052437064846e-02,-8.214381159528125753e-01,7.880868628751891425e-01,-2.278656352815620467e-03,-3.211862547761587180e-03,3.744437348983231401e-03,1.394232869148254395e+00
-1.168451872993861700e-03,-8.069987643091507401e-01,7.954458821037505567e-01,4.477654841418925169e-03,4.485591060980570022e-04,3.437637951406139099e-03,1.387800097465515137e+00
-2.297714029033747635e-02,-8.088119881406581335e-01,8.021947178107043941e-01,2.027140451275328929e-03,1.303523292976282999e-02,3.358427776457081990e-03,1.395510554313659668e+00
-3.714662978791345022e-02,-8.248844873019377522e-01,8.021825036859263625e-01,-6.209833899897788338e-04,-1.405973283467460691e-03,3.372619801646143875e-03,1.409332036972045898e+00
-7.652396496001279136e-02,-8.247835542530035369e-01,7.955692857398060092e-01,-6.924120058742939954e-03,3.805843652836835966e-03,9.414047846781061976e-03,1.404793381690979004e+00
-5.305928601328813859e-02,-8.303230167898474345e-01,8.134176452468095952e-01,3.066218631735148897e-03,-5.261628901317494562e-03,-2.969357912895916572e-03,1.424268245697021484e+00
-7.079015683170780671e-02,-8.174209179216890275e-01,7.525102894000759157e-01,-1.233490573210278655e-02,5.796969945522159606e-02,1.202837647544426590e-02,1.364168047904968262e+00
-1.940951358403251170e-01,-6.913696291161098850e-01,1.243453837759699088e+00,3.521496487556221577e-01,-1.054341394837420565e-01,8.402146914690029889e-02,1.858827948570251465e+00
-3.759394113750256367e-02,-8.232707059088471002e-01,8.049608654838318333e-01,4.058115063844972871e-03,-5.772348100926859814e-03,-3.995298981556321891e-03,1.410446643829345703e+00
-2.182767974281073567e-02,-8.297697241148420666e-01,7.001837617370663125e-01,9.376786170147120153e-03,-6.041387887169924822e-04,-9.292504950272216860e-03,1.325872659683227539e+00
-6.710009239044432972e-02,-8.106206823157695585e-01,7.641753463392639834e-01,-8.874597492080022257e-04,-1.312309901644395215e-03,-1.063510409403104666e-03,1.364523053169250488e+00
-1.448321419868194293e-01,-2.890383850852434877e-01,1.155361417452417605e+00,1.266875346163251481e-01,-3.517145189975091207e-02,5.644515490365342031e-02,1.400076150894165039e+00
-4.947146231129839755e-02,-5.045818214788748701e-01,7.661097670173404595e-01,-1.275568757850341906e-01,8.232982390007343929e-03,-1.194827347368640665e-02,1.137067079544067383e+00
2.838176473430788216e-02,-8.016209901400891402e-01,7.785267799383469578e-01,1.402695643893310182e-02,4.688229838627575724e-04,3.555087607839171968e-03,1.369260191917419434e+00
2.784518735924428751e-02,-7.724814028746511685e-01,7.729820040669529435e-01,7.378178367950827786e-03,2.488358031487365642e-03,-3.673236726944589131e-04,1.338763117790222168e+00
-3.407599484643305393e-02,-8.659594813310316219e-01,8.191269085699397490e-01,4.381021001780045082e-02,-5.195902995789999923e-02,-3.830001042112791531e-03,1.464121580123901367e+00
-1.684161023629149878e-01,-2.598148933293855101e-01,7.781310481627718989e-01,7.129936403654175102e-03,-1.748790078404725834e-02,1.388645814380409793e-01,1.024567484855651855e+00
-6.643821734500132692e-02,-8.463247539812498443e-01,8.675237348758911837e-01,6.513906972551564319e-03,-1.174184728591220117e-03,2.470053317587864693e-03,1.486284613609313965e+00
-6.313411994287224105e-02,-8.079447284528231688e-01,7.390883947986416347e-01,-1.323205518172393229e-02,4.073738647867651379e-03,-8.091611310425375798e-04,1.340292692184448242e+00
3.776812106108479693e-03,-8.033238672083259369e-01,7.970226729783189690e-01,8.075025839638894434e-03,-3.709594020747393906e-03,-3.371255448118894507e-03,1.386055827140808105e+00
-1.068967184326417297e-01,-5.253999476770183641e-01,7.448400061597602040e-01,-1.146630611489288659e-01,-2.530046279375120638e-02,4.265408199747115076e-02,1.141874074935913086e+00
-3.830643079045697313e-02,-8.229860819310578224e-01,7.979876992955228232e-01,-6.243191756841810942e-03,6.120628046874442181e-03,2.646007501740493470e-03,1.404130816459655762e+00
-2.305959316567684353e-02,-7.879500763588362933e-01,6.070511892869834281e-01,2.938332819878065605e-01,3.382761600682330783e-01,-1.829576456333486742e-02,1.437836289405822754e+00
-2.173936380757643949e-01,-7.547709630188014218e-01,1.269168854586373740e+00,3.588060538011133005e-01,1.263511031172703802e-01,-1.049886205645599556e-02,1.931822299957275391e+00
-1.205080725860458724e-01,-5.287538071024265873e-01,8.725901291265359960e-01,-1.720732631629968423e-01,-4.156188722231377031e-03,5.397827926095906392e-02,1.286839962005615234e+00
1.654974818860557861e-01,-8.724336959085284837e-01,1.141070802881550272e-01,-2.262611258278501153e-02,9.622887084772235866e-02,-1.625697385483684462e-02,1.027964591979980469e+00
9.638241460163890495e-02,-8.542089140074761167e-01,3.934369585381789491e-01,-3.065541454567431191e-03,6.680979088181804824e-03,-1.268090916992385964e-01,1.150063633918762207e+00
-2.245016345038965966e-01,-9.770912005486354079e-01,1.354083298958128845e+00,3.585849507430830529e-01,-4.510631096232540355e-02,-5.881719738276883908e-02,2.156056404113769531e+00
7.596059267669652559e-02,-7.737899708821863731e-01,4.147450945042165937e-01,-1.692190381835339489e-03,-1.985262227435877647e-03,6.539197232984872779e-03,1.060604572296142578e+00
-6.101701316171443540e-02,-8.180798545674438094e-01,8.109357958285906554e-01,-1.707913771067184417e-03,-1.276491131943330824e-02,3.432584752981786540e-03,1.412126660346984863e+00
4.093119761951814761e-02,-8.279139557277825912e-01,5.370330358551120842e-01,6.649091215274543186e-03,-1.825912890445240133e-02,6.147907394474610944e-04,1.197154402732849121e+00
1.259362794551525111e-01,-8.337225797664276072e-01,2.264951427161642772e-01,2.742908031748283668e-02,-1.174115532009960550e-01,7.806269084516333223e-02,1.043769240379333496e+00
-2.082333798898099858e-02,-8.194548311048842626e-01,8.022985862800172674e-01,1.365992782091838458e-03,-1.000478879588599830e-02,-1.896981164602921629e-03,1.404645800590515137e+00
-4.973437248055844612e-02,-8.334481892754667109e-01,8.071640106199458042e-01,2.052521539001149562e-03,-4.659519843207911467e-03,1.796330820470494558e-03,1.421313762664794922e+00
1.007646685729801095e-01,-8.663266098700298512e-01,3.323891135214175341e-01,5.215883645550050546e-02,-1.071958452288443997e-01,-4.667397866150112262e-02,1.123426556587219238e+00
-1.563465104165193478e-02,-8.559712483326465948e-01,8.404787712238441788e-01,1.221832898726704295e-02,-1.049216402065414507e-02,-1.377119203734718982e-03,1.469456672668457031e+00
-8.243982010158197593e-02,-8.305210827948061869e-01,8.146862021723904057e-01,2.925349493917408106e-03,-2.503336112731699772e-02,7.249927728034865661e-03,1.427461862564086914e+00
-4.067139033716961338e-02,-8.558184274329589947e-01,8.725866998889062476e-01,4.863047566942870804e-03,1.150553361797292768e-03,-6.815731340824470645e-04,1.497671842575073242e+00
-5.519162251404759190e-02,-8.452300340979606030e-01,8.743778588959711939e-01,-7.784137806183899153e-03,3.835012535485745645e-03,-1.611160258419268645e-02,1.491194248199462891e+00
-4.580602473941567526e-02,-8.568513069959460271e-01,8.601217065245865268e-01,3.233773689123598254e-04,-1.250587714252846504e-02,-6.144276285755807636e-03,1.487894654273986816e+00
-4.188407895168418105e-02,-9.124958526192346042e-01,1.001711556268319869e+00,1.264093395046133050e-01,-4.624783099233892303e-02,8.950834759952928932e-02,1.683452725410461426e+00
-4.721412097299110266e-02,-8.355605734365276760e-01,8.069401371082688401e-01,2.163504162098272860e-03,-5.389460360405635454e-03,2.391194501883607722e-03,1.422869443893432617e+00
8.894424651403319906e-03,-8.215707453925465975e-01,8.033275961133677923e-01,5.888455822817331015e-02,-1.034180109925951843e-02,4.769540736022650010e-03,1.411147356033325195e+00
-1.185132503714774084e-03,-8.051325722227367088e-01,8.140535868177704026e-01,8.187719119309891380e-03,5.846474297836851478e-03,8.281136176338570404e-04,1.402376770973205566e+00
-3.591880549008517193e-02,-8.262806751287757878e-01,7.450128989947272240e-01,-7.139870450920517489e-03,-1.369558052902494598e-02,-1.141213925780643589e-02,1.361194729804992676e+00
1.961346933303441398e-02,-8.965550187117559133e-01,6.195261071019891874e-01,2.165168101012012944e-02,1.003821545637720580e-01,1.663506056157955382e-02,1.334671258926391602e+00
-4.547453160660000493e-02,-8.379601817378029560e-01,8.406386098822116182e-01,-4.740993206761010860e-03,-9.559362938706338422e-03,3.516796167355105453e-03,1.454592943191528320e+00
-8.032809729641084140e-02,-8.478247789271908808e-01,8.550560617020792620e-01,-3.188039469897137410e-03,-2.351628663654594525e-02,5.647669531205759194e-03,1.477729439735412598e+00
-2.756342778801289251e-02,-4.307093065906307805e-01,3.264728563057783806e-01,1.243326556976410459e-02,1.318237809065757847e-02,-6.975697534761113316e-02,6.679669022560119629e-01
-1.882200988304976244e-02,-8.128545433725683500e-01,7.991594517206734860e-01,-4.483752549552539463e-03,-8.138853592917551791e-04,-1.042915562642255213e-03,1.396119952201843262e+00
-9.303979759860973864e-02,-5.991332840316838659e-01,7.772212353789065276e-01,-6.778767840132352354e-03,1.433734193078386836e-02,-3.684184691384704419e-02,1.207785129547119141e+00
-1.096773496142407558e-02,-7.772318724532615297e-01,7.899332729463955927e-01,-2.874953411013495344e-03,2.024178949874871208e-02,-8.449040162287264899e-03,1.357856035232543945e+00
-2.775252388019423117e-02,-8.114836658467908803e-01,8.055025606062644616e-01,-1.680116766526377906e-03,1.740904837653169460e-02,-6.258158464497037832e-03,1.400939583778381348e+00
2.040997133279270209e-02,-7.843751868581367859e-01,7.785300464246113217e-01,3.782306967271759687e-03,5.337553495241365367e-04,2.772946220658264321e-03,1.353741407394409180e+00
-6.356243409633829944e-02,-7.901645076467712636e-01,8.092734035065008991e-01,-5.870394705671911663e-03,-4.948506676290938266e-03,-8.066209741517326240e-03,1.387216448783874512e+00
2.356493134253033472e-02,-7.606235820439044559e-01,7.690165867031539815e-01,-1.935056459295082798e-02,1.202160912383895726e-02,-7.650769148062609888e-03,1.325502514839172363e+00
-4.520051219473544130e-02,-8.259529848082997061e-01,7.922779557979141574e-01,5.646178594120848833e-03,-3.435250721654910678e-03,-1.057770636585076036e-02,1.401882529258728027e+00
-2.072788677113860181e-02,-8.234850506438150530e-01,8.214669751435483835e-01,1.389851086672524993e-02,-8.924812570075140589e-03,-5.096845633940948368e-03,1.425021290779113770e+00
2.168947305318476640e-02,-7.890767392576414352e-01,7.828365475601898327e-01,1.005505379334333156e-02,-2.488561210584638622e-04,-1.906913730635824292e-03,1.361658334732055664e+00
-1.444381042655817557e-02,-7.522511194691070546e-01,7.842818564691024230e-01,3.723441068304487317e-02,-2.010417226820966977e-02,3.821612645837830537e-04,1.333041667938232422e+00
-5.238950673094847771e-02,-8.104459437192118587e-01,8.045350479019635070e-01,-7.921846446109510193e-04,-5.138674869716681678e-03,9.561892692500245303e-03,1.399614930152893066e+00
-2.432910215278447433e-02,-7.592798169237460204e-01,7.961375490204312122e-01,4.229075017674620296e-02,-1.349565050582491633e-02,-4.758185976447260566e-03,1.349926114082336426e+00
-4.939484424398532525e-02,-8.221570149677069894e-01,8.082903082604732115e-01,1.335506182670551404e-03,5.541141751228171111e-03,4.481759059408676853e-03,1.412702918052673340e+00
-1.753339604869071089e-02,-7.285990030093549841e-01,7.813754229145388752e-01,3.538166250367641430e-02,-1.868302451615648160e-02,-5.370845830064459835e-03,1.310280680656433105e+00
-1.713535587395982607e-02,-8.211678931774926138e-01,6.447365040913003442e-01,2.313017746655837703e-02,-2.086832028489611288e-02,1.047048271035255773e-02,1.272772431373596191e+00
-2.474111136108095993e-02,-6.618875037119552607e-01,7.680640576854490531e-01,1.145093284608777323e-01,1.145814638605625012e-02,7.303364103570307402e-03,1.256789326667785645e+00
-3.138997702992470801e-02,-8.312781335257481974e-01,8.086863279218353684e-01,9.201929327745553104e-04,1.191428828634735759e-02,-7.482309591764692725e-04,1.420544385910034180e+00
-4.217217193733418384e-02,-8.381919389934752163e-01,8.156780150457507705e-01,1.773049991728098147e-03,2.644787581077417526e-03,-5.093687369561428722e-04,1.432637929916381836e+00
-1.726142448243163097e-01,-1.792675890826787577e-01,1.237671990866361371e+00,1.733193995575565971e-01,1.255005980509023289e-01,-2.143325202197015333e-01,1.507819652557373047e+00
1.873084800233293379e-02,-7.487281486930474905e-01,7.650404969585431481e-01,1.379422219057615563e-02,3.526099056613536762e-03,-8.780350100002446562e-04,1.311237573623657227e+00
-4.152137397880531489e-02,-8.371219479825071641e-01,8.158391891321155054e-01,1.137790081044811020e-05,-3.706708284874393245e-04,-1.034249857305560916e-09,1.431839466094970703e+00
-4.163700345669327230e-02,-8.381642678071314911e-01,8.147606880572715315e-01,1.214291446502992937e-03,2.376022292579080958e-03,-1.123674897889873417e-03,1.431796789169311523e+00
-1.809972197924634707e-01,-4.088895024269162404e-01,1.211331309260273992e+00,2.623412835780287722e-01,3.744718397892493611e-02,-8.424426656532700564e-02,1.593669176101684570e+00
-1.039137303520153710e-01,-9.613269487015161374e-01,9.183958393922730945e-01,-2.932566630213949421e-02,-1.840010447485694867e-01,-1.982461808164625444e-02,1.661970019340515137e+00
-2.323763137341660137e-02,-8.425838377370862275e-01,8.550351639201150267e-01,1.878034755952440529e-02,-4.313665430909104787e-03,-5.335545740707488965e-03,1.470884084701538086e+00
8.340973234000209624e-03,-8.122150413642779121e-01,7.976938641898400073e-01,2.128552914793898840e-02,1.027864808352890779e-03,4.573301246651115433e-03,1.394820213317871094e+00
-5.385428729909195328e-02,-8.396855165655631170e-01,8.337586523226029334e-01,9.785891781708194390e-03,-2.115803004430076226e-02,1.732152041909301591e-03,1.450703501701354980e+00
-4.645781203954067740e-02,-6.364486148714424418e-01,5.669380186916878062e-01,7.507818741537769514e-02,8.104188993691066600e-02,-1.818637036099706727e-01,1.105476498603820801e+00
-7.960870163415327549e-02,-8.016870974089066459e-01,7.514373851136757487e-01,-2.484764431540590571e-03,1.874341259158616513e-03,-5.543145694393391935e-04,1.346159458160400391e+00
-3.625162110872051646e-02,-8.329627563676629265e-01,8.121272941789990929e-01,4.407805654147378753e-05,4.814514365740730009e-03,8.212504477690797753e-04,1.424949049949645996e+00
-4.508669755250888089e-02,-8.346831517279612589e-01,8.115000518587182077e-01,2.131899599742390333e-03,6.167694196108950517e-04,4.954174616687956985e-04,1.426035284996032715e+00
-1.218876366226014918e-01,-5.193718494078076731e-01,7.612884513124776875e-01,4.403274701005015918e-02,6.888131563595407784e-03,3.597653062436446947e-02,1.139685988426208496e+00
-1.085583592932830299e-01,-6.194928217036529405e-01,7.887951853573472727e-01,3.617774250616273644e-04,2.240961824996837159e-02,-1.381334123814761602e-02,1.235664010047912598e+00
5.702076818823020865e-02,-1.451137860578108674e+00,8.580847643580531425e-01,2.940178991824548768e-02,-3.685483679285614378e-01,-2.339612600561130629e-02,2.129811525344848633e+00
-1.485573360592579439e-01,-3.858420502824220222e-01,7.492042271895197336e-01,1.366112094660653286e-03,9.623368557475863686e-05,7.234250696187316532e-02,1.044514656066894531e+00
-1.706994734319323692e-01,-3.361080466551056301e-01,7.353858537795726624e-01,2.694515403141254165e-02,2.284437052041120297e-02,2.407755578790839526e-02,1.001852154731750488e+00
-1.397405919087352233e-01,-4.967470199796204522e-01,8.469834933664003307e-01,-8.248404725253477565e-02,8.260524833092326019e-03,1.060627056222656489e-01,1.227887749671936035e+00
-1.282176022088410416e-01,-3.352227720153143076e-01,7.501507668760731828e-01,3.151920595840258799e-02,1.874747965053746163e-02,1.057164506597189392e-02,1.000289440155029297e+00
2.713155705715481619e-02,-7.937441390826500687e-01,7.886783399776868819e-01,-1.279050817175785872e-02,3.597228731575887167e-03,-5.137966954866096669e-03,1.370961189270019531e+00
-1.972147075966974514e-03,-8.039247377124983940e-01,7.938455894010142400e-01,3.175721702071109855e-03,-1.088686226096710272e-02,-5.918941297989138185e-03,1.383890509605407715e+00
-5.994704624386987257e-02,-8.061977440764732661e-01,7.387555883189805828e-01,9.517543791106511733e-03,1.453237380146280879e-02,-7.197359788148618813e-03,1.338622093200683594e+00
-6.645566264406222064e-03,-8.109746454284139094e-01,8.044955856992572762e-01,-1.137623948246938152e-03,7.389739064721824457e-03,-9.314385310914471148e-04,1.399103283882141113e+00
2.314638759877869767e-02,-7.888936062387916781e-01,5.423382572595999429e-01,-4.696349534836094519e-03,-1.058989439995786618e-02,3.507088280820349832e-03,1.162330985069274902e+00
9.815691170873479948e-03,-7.280070363107913334e-01,7.602271174686315858e-01,-6.938128716207019042e-03,-9.515527032878473568e-03,-2.208763746730582622e-03,1.289031028747558594e+00
1.170617902050203121e-02,-7.512655981242589709e-01,7.772910112331952170e-01,2.501854951023510867e-02,-2.899376114250602852e-03,3.883283621500446554e-03,1.324505209922790527e+00
-2.960234764709917046e-02,-8.084840190866067200e-01,8.068787219619751871e-01,1.284140311123888739e-02,-2.830924889754097423e-02,-8.578601307188031891e-03,1.400355935096740723e+00
1.297339502923352400e-02,-7.833207962369743704e-01,7.832550271692876320e-01,1.193137148727468726e-02,-6.094363470042167726e-03,2.196145295529804663e-03,1.356960535049438477e+00
2.157928262243179879e-02,-7.649722864171023540e-01,7.651816860841966772e-01,-1.178627186647699700e-03,5.792608909774878134e-03,9.680859369174365766e-04,1.325366854667663574e+00
4.205286331929125598e-03,-7.503741880809998710e-01,7.760791876730136485e-01,-3.593149139053680805e-03,1.437683308927916077e-02,2.044754545528846244e-03,1.322229623794555664e+00
-2.840556266678754757e-02,-9.900224821007443943e-01,9.218955738919778486e-01,-2.154505880095611628e-02,-1.400908081798888337e-02,8.883276357929200881e-03,1.656448960304260254e+00
-4.417117304659341770e-02,-8.737893630812011425e-01,8.674400630978363891e-01,7.731561136773739545e-03,1.153622177944603477e-02,-9.844300115133285123e-03,1.508794188499450684e+00
-1.165766007345392652e-01,-5.323613912286605521e-01,7.690045691740309275e-01,1.927716914970539113e-03,-1.392328501079752485e-02,-1.630062084355697605e-02,1.151838541030883789e+00
-7.422302635973603013e-02,-8.421587075538661260e-01,8.818004939584416224e-01,-3.831293876969932375e-03,2.436649318250819728e-03,-1.241099843158183528e-03,1.495973706245422363e+00
-6.206777340563523343e-02,-8.455764630156148431e-01,8.929504577407914034e-01,-3.446895194812454096e-03,9.281701555373632340e-03,-2.242151690625877620e-03,1.508151173591613770e+00
-2.125172547907771062e-02,-8.632661598947836135e-01,8.895481222159211665e-01,-5.245325065019409982e-02,-1.463592003548869203e-02,1.289805541029890971e-02,1.521462082862854004e+00
5.702439098436367683e-03,-8.002846563183327877e-01,7.964817938176365075e-01,-9.180798367771397100e-03,3.644019827665223761e-03,-5.863108959577327008e-03,1.383004307746887207e+00
3.083004835619506181e-02,-7.704849538756032290e-01,7.666967750197635212e-01,-6.535791338712459986e-03,-1.716485250090080768e-04,-1.912132562000360509e-03,1.331692814826965332e+00
4.701632363958208050e-02,-8.088421969798200717e-01,5.474306627192456753e-01,5.364331889167839144e-04,2.635498389683136895e-03,-1.145180792901729326e-02,1.188110828399658203e+00
-3.121352383977978387e-02,-8.085068371481799465e-01,7.875907461662128295e-01,-1.883652748182245221e-02,-1.334151428160306255e-02,1.061066436533378288e-02,1.383116960525512695e+00
-6.412700562576764685e-02,-8.657208014749619984e-01,9.028370789359478898e-01,-9.835262980277070452e-03,-2.547888553047184673e-02,-1.629414355194168168e-03,1.534578204154968262e+00
-3.779462732712340813e-03,-8.323143858198863709e-01,8.134952630829007658e-01,-5.096293286898028602e-02,8.452274190774376403e-03,4.692887719010650251e-03,1.428152918815612793e+00
1.145689049541487314e-03,-8.053109036285114319e-01,5.832728097516063359e-01,9.738759008803929418e-03,5.972795219366149738e-02,-2.190917465664739272e-02,1.212902069091796875e+00
1.217025562296904923e-02,-8.165695745540966222e-01,7.988259970939773913e-01,2.034921167974237943e-02,-7.380183895079722375e-03,7.016122518297932854e-03,1.399686813354492188e+00
-3.464712658295231174e-02,-7.213960446480409683e-01,7.854453164539590970e-01,-7.566861888446300977e-02,-2.221546049620325147e-02,-7.171330429317396803e-03,1.313843727111816406e+00
-5.618839257576507817e-02,-6.839840300833247566e-01,7.943003702253973453e-01,-3.134381612115036408e-02,-2.580521827040413094e-02,4.083182745221163729e-02,1.288929104804992676e+00
-7.522999940466140734e-02,-8.250297701333145772e-01,8.130099261761668528e-01,6.483009229302352794e-03,-2.042950584954553173e-02,1.216434989688871572e-02,1.420913100242614746e+00
-5.500268267597427374e-02,-6.197502322903638561e-01,7.813411167420635239e-01,-3.094703457197837612e-02,-3.563057818469327065e-02,1.958228496788869122e-02,1.224159359931945801e+00
7.464718570277245960e-03,-8.207928173270191419e-01,8.270776092876178653e-01,2.039975401508178909e-02,-6.122239897414075149e-03,-5.691358727584958956e-03,1.427614927291870117e+00
-6.143148580553936533e-02,-1.009550348185240587e+00,8.877926807789120467e-01,-5.874896700767307661e-02,-1.365161308724736067e-01,2.622766101949962347e-02,1.663809299468994141e+00
-6.712005736654222399e-02,-8.032077952039783364e-01,7.238143963707279749e-01,-8.184307758101680430e-03,4.745379025297822087e-03,-6.322728899517129572e-05,1.322825789451599121e+00
-8.406966226434010869e-02,-8.758454439812025649e-01,1.018657153542007254e+00,2.063188377648763894e-01,-4.352161312830522821e-02,-4.432729615490674929e-02,1.689765453338623047e+00
-1.448758434115987592e-01,-3.613035119604852685e-01,9.531375076117429845e-01,1.058692342416857751e-01,9.165044909563349607e-02,5.531362104600424413e-03,1.244600653648376465e+00
-5.952367941311793864e-02,-8.204648407131548415e-01,7.895505444834446385e-01,3.405005641595747028e-03,1.003522626080455293e-04,5.173718279266744172e-03,1.395051717758178711e+00
-6.782077512254977569e-02,-8.282562833294632165e-01,8.195217072583382834e-01,4.021749739629514563e-03,-1.277038570689627110e-02,1.467913028266199307e-02,1.428842067718505859e+00
-6.916330748766356951e-02,-8.584792370837235342e-01,8.613262961578884713e-01,5.865540854953327568e-03,-3.503313110114220086e-02,1.809716959993175681e-02,1.492664933204650879e+00
-7.195125123983295290e-02,-8.854781520892108793e-01,8.576704929048055703e-01,-5.126969205209978668e-03,-1.156877886181446047e-01,2.860520517365919974e-02,1.524788379669189453e+00
-3.646765064002231715e-02,-8.442995820151064645e-01,8.436103010418065651e-01,1.629684485257451923e-02,-1.712273099534743562e-02,4.704151933909193201e-03,1.462814927101135254e+00
-5.270822653300498428e-02,-8.314713751439143374e-01,8.510919690280752681e-01,3.577573986355600511e-04,-4.897121439704818502e-03,1.119344786690567271e-02,1.458636760711669922e+00
-4.249801846383052112e-02,-8.264112678622889119e-01,7.464109664025266877e-01,1.670781917751593126e-02,-1.435059598484011946e-03,6.672366330880035064e-03,1.362464904785156250e+00
-4.225737433272523658e-02,-8.332800509074600459e-01,8.118162253282469321e-01,2.369252684334152356e-03,7.788082830404910624e-03,1.051602237873703162e-03,1.425114870071411133e+00
-6.225739397773259048e-02,-8.108771574663224957e-01,7.651659850557637199e-01,7.338018446392015337e-03,-2.520232357052648586e-04,6.204667152711383984e-04,1.365521669387817383e+00
9.523214812196412887e-03,-8.168237368140929267e-01,7.978161386106884523e-01,-1.644244355763893953e-02,-1.343253558564846484e-03,6.048842634526492568e-03,1.398779749870300293e+00
-4.538959647439450018e-02,-8.324818042260959672e-01,7.994686825251863249e-01,3.261591033834474167e-03,1.940148100647982833e-03,4.895006358705503158e-03,1.413646340370178223e+00
-6.810816040177408714e-02,-8.520610587208351516e-01,8.751453700933901070e-01,-3.291012428386465901e-04,-1.178969772230806581e-02,2.678770752422343637e-03,1.498070240020751953e+00
-4.123613957213917436e-02,-8.441007751306569551e-01,8.293341605255045712e-01,-1.080671876273904541e-02,1.669147835925091292e-02,3.813772219631222492e-03,1.450056672096252441e+00
-4.227015311237596051e-02,-8.196213353275528801e-01,8.264612582165584698e-01,-1.351258065868313034e-02,-5.298879750435627964e-03,7.380816045345912034e-03,1.426560163497924805e+00
-4.495156165577204183e-02,-8.312843173274689912e-01,7.999677153511598471e-01,4.803200668591613154e-03,3.032633202081907488e-03,6.260732252497869590e-03,1.413085222244262695e+00
-4.496182804632920665e-02,-8.371971111821953082e-01,8.128207217408969232e-01,2.816133348783865249e-03,3.038011282847094454e-03,-8.766077633557748088e-04,1.429351925849914551e+00
-3.705572839426077292e-02,-8.391967845707143381e-01,7.747550118821421306e-01,8.047502817318884227e-03,9.646659545600748745e-03,-1.491960440552699517e-02,1.398139834403991699e+00
6.003132999816194679e-03,-7.197349633014888948e-01,7.552433778585702084e-01,-5.254327399674689654e-03,9.806906236842709290e-03,-2.597803172026698967e-03,1.277576088905334473e+00
-5.108559163082981164e-02,-6.972618301170080413e-01,7.579912331662002067e-01,-1.233991399927678555e-02,7.478125282202277568e-03,-5.657149336789332045e-02,1.266957283020019531e+00
-1.767676754152745777e-02,-6.755992820575222879e-01,8.011110043020841509e-01,-1.331660853170743564e-01,-3.757665423171308028e-02,2.306596106562057956e-03,1.303620338439941406e+00
-7.293677225569866751e-03,-7.913435934466057642e-01,7.984675022868295002e-01,-6.726397651085287699e-02,-6.852042590758633013e-03,-1.001229512532408536e-02,1.381939649581909180e+00
-2.110934493855294927e-02,-8.434391644270080590e-01,8.560226555227179457e-01,-1.378504382552379198e-02,2.208030408563019069e-03,-3.464642649973316904e-03,1.472242951393127441e+00
-2.235554950382243663e-03,-8.424344383039947814e-01,8.285164347702226317e-01,-1.718364186986823597e-02,1.370343119100351104e-03,6.903811520100691830e-03,1.447450995445251465e+00
2.250097705938896436e-02,-7.653936023843039838e-01,7.662822279224071886e-01,-3.470397748394628886e-03,-1.106931208055695519e-03,-7.961405580778263330e-04,1.326669216156005859e+00
2.495803713522812273e-02,-8.318857348512860295e-01,6.108020470312081063e-01,6.531264709629891474e-03,-2.043028651693138548e-02,2.330166003727944177e-02,1.257926940917968750e+00
-3.530486798778811885e-02,-8.394064440988034947e-01,6.795658143916930571e-01,-3.886413980089144411e-03,-1.170560049003349229e-01,-9.323422530994631557e-03,1.331863522529602051e+00
-3.226704439049443013e-02,-8.294339943513493463e-01,8.236144602138244508e-01,4.492135666659801546e-03,-1.082380258949209445e-02,8.703966987023265683e-03,1.432106137275695801e+00
1.860912253210868228e-02,-7.987669624106205069e-01,5.544514688626731580e-01,1.894384601411450153e-02,-8.127912302620908525e-02,1.092846929181185908e-02,1.189314603805541992e+00
-6.436570544625952461e-02,-8.134710380505537630e-01,7.791955320693451092e-01,1.423242285262777502e-03,1.040904154148298254e-02,4.568724214754295646e-03,1.380240678787231445e+00
3.354007721999337915e-03,-7.284776108879664758e-01,7.630190324962511372e-01,-5.673863975090952770e-03,-6.526691498064177838e-03,-1.944134756382364868e-03,1.291840195655822754e+00
-1.144882176266724949e-01,-2.147495656678222731e-01,8.692837883803418153e-01,5.407209665423300116e-02,1.000412141056945814e-01,6.425599177038832099e-02,1.061921238899230957e+00
9.371826784775036390e-03,-8.252781749570874403e-01,6.168005864607412070e-01,1.407570390808154590e-02,-2.119638462823541722e-02,3.050164479234536430e-02,1.255919575691223145e+00
-1.431425657701951987e-02,-8.495814434206679922e-01,9.984325745338200608e-01,1.435476689093926062e-01,-2.912220208254348575e-02,-1.729694676456580357e-03,1.622840881347656250e+00
5.113813191817874124e-03,-7.312686581494812765e-01,7.631515976281327829e-01,2.808159906200910494e-03,-1.025399503515266215e-02,-9.556089928516797120e-04,1.294383287429809570e+00
-9.394029633208075825e-02,-5.825788000184520810e-01,7.953816381285778725e-01,8.786667985294357996e-02,9.405746975451372005e-02,-1.157234971343731357e-02,1.230577826499938965e+00
5.687339579307143511e-02,-8.085755970166443873e-01,4.287808336012741695e-01,-8.604358323010706175e-03,-4.261488806552413133e-02,2.127082896086430336e-02,1.102819800376892090e+00
3.527273470552511059e-02,-8.288636204209890446e-01,5.795210042568016418e-01,1.178848165666080208e-02,-1.594305697638688513e-02,3.324575294249563356e-02,1.231965065002441406e+00
-7.090123039802473381e-02,-8.167552399221094106e-01,7.952831464891603197e-01,2.397363253311726380e-02,-1.591172805917069914e-03,-2.181296824857545044e-02,1.398491978645324707e+00
6.142254831531007708e-02,-8.033412158347799092e-01,5.026347310212170294e-01,-7.972892694752388085e-03,3.858489776343992927e-02,-7.731215208164205106e-03,1.152764201164245605e+00
2.603301690587284112e-02,-7.946236952173028056e-01,7.896336793715882374e-01,1.544448916600260450e-02,-3.087698385824554862e-03,-6.825359053352414961e-03,1.372625708580017090e+00
-4.989475909334198378e-02,-8.231238736359683950e-01,8.114718918891568045e-01,1.076076681751404491e-03,4.496296416396485321e-03,3.298898437750264184e-03,1.416321396827697754e+00
5.389889606469640271e-03,-8.104815832142403531e-01,7.901806279371260677e-01,6.436319536397328706e-03,-1.155380262873630538e-03,4.859831549130568494e-03,1.386373043060302734e+00
4.158392756771883692e-02,-7.987676006413705343e-01,5.143606881991743540e-01,1.201544774025178029e-02,-2.925747841229606183e-02,-4.520512310739150199e-04,1.153260111808776855e+00
5.986153347534950431e-02,-7.991161878228709714e-01,4.249139659697991345e-01,1.325344983161848289e-02,-3.845269801039178509e-02,3.354641318366954200e-02,1.092253088951110840e+00
-3.398755084230259405e-02,-7.929034479994183648e-01,8.025926164984796829e-01,-2.967679746360381895e-03,-1.878462328179114973e-02,-6.633231360569175061e-03,1.382725834846496582e+00
5.897048721864792120e-02,-7.225883225551436029e-01,4.436690229845803302e-01,-8.299437530193863599e-02,-4.555548736449185204e-02,5.571450189433579253e-02,1.046754121780395508e+00
-3.320926960386632720e-03,-8.111129558127818662e-01,7.955432381991813795e-01,4.433345403059249165e-03,-1.001627805493843053e-02,4.265629549124185741e-04,1.391541719436645508e+00
-1.613831454211440281e-02,-8.140281290530280156e-01,8.147947103813364400e-01,1.250041526583896452e-02,2.686840506249763699e-03,-1.394340357799103269e-03,1.410874605178833008e+00
-7.755079302279926923e-02,-8.477476231217488944e-01,8.534496600277035050e-01,2.389775416801223108e-03,2.340643518492140432e-02,3.487493042205078771e-03,1.476047396659851074e+00
8.705064315408159170e-02,-9.656446226220678497e-01,4.421204856766247637e-01,-5.911813563192654108e-03,-7.462405784216979976e-02,-9.281866675469654937e-02,1.284787654876708984e+00
-5.200253255185034729e-02,-8.132165795393194729e-01,7.458449699900091545e-01,1.427210445284813299e-02,-1.140538320657102618e-03,9.880067716281810963e-04,1.350539922714233398e+00
-3.807327064706225728e-02,-8.272394400253796354e-01,8.100304971200099624e-01,3.187806915298727929e-03,2.350985879654964635e-03,5.339476344741695378e-03,1.418270349502563477e+00
-3.996266802281109309e-02,-8.294015265759366873e-01,7.452053012541230981e-01,-1.607255723201559197e-02,-2.323796927502764630e-03,-7.242948383907024147e-03,1.363998889923095703e+00
-1.778057388028081442e-01,-1.723561585872508406e-01,8.541521184278628720e-01,-4.097111141278694975e-03,-4.273090208372298804e-02,1.030386742669481687e-01,1.047245025634765625e+00
-6.698906794251686947e-02,-7.989442026646513817e-01,7.213253866170489248e-01,1.307569806138843575e-03,2.874401742036142553e-03,-5.587805934300467880e-04,1.316905379295349121e+00
-1.550814810905698504e-01,-2.543354461824813284e-01,7.241671820683081018e-01,1.164335600571914514e-01,1.562459188451491114e-02,7.364356346153221392e-03,9.548633098602294922e-01
-5.712431954826341363e-02,-8.973564491423113854e-01,9.625687155547429930e-01,-2.227018021000443104e-02,-6.837487889741471203e-03,-2.189032897457672891e-03,1.613748788833618164e+00
7.121097164774856103e-02,-1.012223693879967135e+00,5.275885447314030419e-01,4.290515264375319854e-02,1.916042673512980687e-01,8.526367395534241445e-02,1.419167160987854004e+00
-1.193442637525461980e-01,-3.472908333332670461e-01,7.303967082870784777e-01,6.803346363763447535e-02,-4.973498429179393221e-03,-1.515229272618429449e-02,9.911425709724426270e-01
-6.255383286094541584e-02,-8.410573799587350852e-01,8.792050927331911403e-01,-6.637114145983670846e-03,1.035787019851360825e-02,-4.508151186477822071e-03,1.492198109626770020e+00
-1.221877508595476947e-01,-4.068797133487709328e-01,7.399928328908159658e-01,4.549043934037790698e-02,-1.963849095089398311e-03,-4.471657537416290698e-03,1.037371873855590820e+00
-7.738932403672978133e-02,-8.341516841485274725e-01,8.483773553832298919e-01,-1.007905025319386907e-03,2.264245011837333690e-02,-2.429296754989234818e-03,1.460095047950744629e+00
-6.291183193249019756e-02,-8.187401973404042632e-01,7.708811603975712634e-01,-5.676861806288124000e-03,3.698296573360437822e-02,-2.859082849224346429e-03,1.378737092018127441e+00
2.489458540165736741e-03,-7.621608128042061114e-01,7.793449940926963082e-01,-6.772405784525380862e-03,-2.380488256947348169e-02,-2.716394603043019180e-03,1.335693478584289551e+00
-1.655928425000834370e-01,-3.094018855078242702e-01,7.342008800366606192e-01,2.812993075561856862e-02,2.418673767535870454e-03,-1.503672017303370190e-02,9.812124967575073242e-01
3.127737690660216396e-02,-7.938136568723085373e-01,7.753257743151750203e-01,-1.314183839754231968e-02,6.020450823234187523e-04,5.389050437322937676e-03,1.359741568565368652e+00
-6.182704992183619790e-03,-8.399781624160811422e-01,8.500280164669005156e-01,-1.787303680850631238e-02,1.235798387775402865e-02,-6.389895484793335287e-03,1.464156866073608398e+00
-5.108922540492630282e-02,-8.233409013452698266e-01,7.850149730786675217e-01,6.919377891658469275e-03,-3.153141718756287924e-03,1.494939824676465821e-03,1.393307566642761230e+00
2.082978901677935701e-02,-7.377509714716938838e-01,7.722554647764124924e-01,-3.642607821000699159e-02,-3.747808212920791717e-03,2.459993545487990443e-03,1.309252977371215820e+00
-5.904220648402472987e-02,-8.374829908996110905e-01,7.643346134306560069e-01,1.990560681793230105e-02,9.797803155484992310e-02,-6.634907083486399348e-02,1.402876973152160645e+00
-7.759133865665583663e-02,-8.819369184846975740e-01,9.048355821848194092e-01,1.499992386995054917e-02,7.559247996884103926e-02,-1.905005706056509332e-02,1.556037187576293945e+00
-3.092876491436091085e-02,-9.499654891433227943e-01,9.370698683389362404e-01,-8.482131995616064291e-02,1.746016217711443830e-01,-8.333829891978464244e-02,1.674859166145324707e+00
-1.191274336711497239e-01,-3.547751240438082876e-01,6.147500017684586204e-01,1.134167581509554906e-01,8.218926305409035571e-02,-2.476114588702789041e-02,9.098005890846252441e-01
-1.094763704072396759e-01,-6.069064169026755495e-01,8.033568380114378682e-01,-1.064843197323663143e-01,-6.136478527749079578e-03,1.347268886867897253e-01,1.274109721183776855e+00
-1.604935204249339498e-01,-3.780766851542260443e-01,7.458702529637789569e-01,-2.306076910464214397e-02,-2.161003622895163803e-02,1.527822800204709820e-02,1.034284234046936035e+00
1.968377477367420220e-02,-7.834712840823443436e-01,7.763727256650798658e-01,-3.675698812409582128e-03,-8.112262419320720799e-03,3.712586693838295770e-03,1.351167678833007812e+00
-1.728208613306377872e-01,1.758006111676982397e-02,7.635332430433622308e-01,8.231397892790388165e-03,-1.683164537001332825e-02,2.076786852699866875e-02,8.585312366485595703e-01
-1.197967062241347136e-01,-3.504769715921320916e-01,7.274424516561553977e-01,-1.239977236566826568e-01,5.580049986720542893e-02,6.846544853799559072e-02,1.017840266227722168e+00
-2.799901026383549030e-03,-8.033839928246969686e-01,7.942860546166115032e-01,-1.753184883228348393e-03,-1.046060585478219077e-02,3.687548345707952844e-03,1.383760690689086914e+00
-1.125955598515158418e-01,-2.836497203477444384e-01,7.087532279106695254e-01,-1.793057723766540712e-01,7.522612762450663071e-02,6.400432585048236589e-02,9.849298000335693359e-01
-2.783589727150675985e-02,-6.269248742345220338e-01,7.428208709846940705e-01,9.782554883959902400e-03,-1.387895331915015538e-02,-3.011434723571698117e-03,1.189707398414611816e+00
-9.888367193081901152e-02,-6.179776222841824040e-01,8.382464009133787641e-01,1.807785039074025213e-02,-4.677272625639017356e-02,4.814108506873251286e-02,1.283988356590270996e+00
-1.270534049206719918e-01,-4.452902537949350315e-01,7.536033509175603662e-01,2.750299464880293782e-02,8.970517705986821855e-03,1.060431657599641975e-01,1.092398524284362793e+00
-1.421791320100016520e-01,-1.457381314217056634e-01,6.469848259430749371e-01,3.828376371827775515e-02,-3.104364175704837914e-03,1.267676672787286518e-02,7.940459847450256348e-01
-1.143850700823343114e-01,-6.694858843125580661e-01,8.126157135801418407e-01,2.030118412722246163e-02,4.695599645766971100e-03,4.145254503615150576e-02,1.299424409866333008e+00
-2.584476834080759455e-02,-7.705163910383694414e-01,5.969427918359003771e-01,1.241972591183886226e-01,1.788985657223039205e-01,-2.849864034028680437e-02,1.245350480079650879e+00
-8.127138119303392583e-03,-8.194701399184798341e-01,7.995482150879609229e-01,-5.607731437044481682e-03,-2.671950271332117557e-03,-4.734915588065003074e-03,1.402177453041076660e+00
9.982549396774757430e-03,-7.873702658952366207e-01,7.824377979114499615e-01,-1.142766404444432553e-02,-1.119158741397650175e-02,4.726485545242258999e-04,1.359833121299743652e+00
-1.267967824157573697e-01,-6.049656420411455571e-01,7.957481121108443967e-01,6.673682103897300710e-03,-8.715693941110420548e-03,1.351406973570208440e-02,1.233602881431579590e+00
6.922151919909078077e-02,-7.085151121255596207e-01,3.768102315541727587e-01,-2.661424878144318940e-01,2.757586344543090373e-01,1.187252178139497211e-01,1.192316651344299316e+00
-1.188408928694525274e-02,-7.993774656738452666e-01,8.718103814431578114e-01,-2.383570253938157857e-01,3.258256887731591500e-01,1.234199116335480267e-01,1.622218251228332520e+00
-5.477737770065563283e-02,-7.764291199241455388e-01,8.445432420629347403e-01,-1.876084935562074840e-01,1.582861752518108789e-01,1.127873555212250273e-01,1.482387423515319824e+00
-5.957333592355739532e-02,-7.260492966309183283e-01,7.804930718268197065e-01,3.870584109503925202e-02,1.931072571587035447e-04,-1.566396608493449139e-02,1.309586405754089355e+00
4.073454014772801002e-02,-7.998579819689262127e-01,4.788904983606854238e-01,-8.442000644183211833e-03,6.887138580189119084e-03,-3.206060760029025292e-02,1.127087712287902832e+00
1.087587988927773974e-01,-8.400016731242464507e-01,3.417701452029445752e-01,2.005627982227534828e-02,9.110796067949952781e-02,-3.474886669326982674e-02,1.097836017608642578e+00
-6.992902667432286667e-02,-8.134138471519278824e-01,7.944320844015033689e-01,-1.054364514268642770e-03,7.417579137642141274e-03,7.973814846272008925e-04,1.393807530403137207e+00
1.147837869756363482e-01,-1.275198059130189909e+00,5.520002702339207312e-01,2.427215733591780167e-01,3.784171286669066325e-01,-3.308634335642229862e-02,1.827718496322631836e+00
-5.237208598523737657e-02,-8.537038818039927035e-01,8.634328768800563214e-01,-9.304970711752843376e-03,-1.165705229999459275e-02,-5.428421895648218032e-03,1.488439083099365234e+00
-1.091266708659296199e-03,-7.940683965916516263e-01,7.885355676181478035e-01,2.722890679387537927e-03,-6.284334247348104599e-03,1.688299782622163566e-03,1.370630741119384766e+00
-1.582688636696870377e-01,-3.468683369420357820e-01,7.497106253727344738e-01,-3.272293891757413475e-02,2.595732294485724595e-02,6.679606158450081439e-03,1.018139719963073730e+00
6.110715105144792769e-02,-1.071968600936635152e+00,6.336865204062334112e-01,6.970959958241125520e-02,2.805471323796311367e-01,-9.214744098259586291e-02,1.592688083648681641e+00
1.461995455527088650e-01,-1.007516244395015192e+00,2.868936950646132633e-01,-1.554244707680616996e-02,2.837726191778451867e-01,1.561588471818990131e-01,1.352271437644958496e+00
1.371863135498202491e-01,-1.326642001413260941e+00,5.147565650034099383e-01,-3.054845542163987515e-01,3.084353847325417841e-01,1.044510230354840224e-01,1.853682875633239746e+00
-1.568410067061794949e-02,-8.023537711922515969e-01,5.871299120819877260e-01,1.554809443733116275e-02,5.519888033825183504e-02,-2.304538744783757656e-02,1.211572766304016113e+00
-7.379168666369040341e-02,-8.075969999130726551e-01,7.443849983859045505e-01,4.721683926601333813e-03,1.940743590527998011e-02,-3.566763985636208206e-03,1.345176815986633301e+00
4.771865349028583947e-02,-9.616848975517707787e-01,5.279934086390981607e-01,4.533451776555913471e-02,-2.172237679728499238e-01,-6.175810853853232196e-02,1.376051187515258789e+00
-2.282692451807342288e-02,-8.123629964360647993e-01,6.721804918014027130e-01,-1.902870969663775919e-02,-3.726165981413181311e-02,-1.984680769666872027e-02,1.289018750190734863e+00
3.917435188596371520e-02,-8.061150731902611000e-01,4.895898825133583321e-01,-9.146899838138265390e-03,-2.410573552928014021e-02,-4.520154633646088216e-02,1.142910122871398926e+00
-9.865112439807721678e-02,-5.102335407818925361e-01,7.292366315035418989e-01,-4.790069318884059707e-02,3.688339530230580910e-03,-4.922564820222491422e-02,1.099879980087280273e+00
9.431078639693904475e-03,-7.224503303325409131e-01,7.607723660581625635e-01,-2.812199214627115595e-03,-4.078039551393481538e-03,1.715959415096339220e-03,1.284577488899230957e+00
-4.521790680242436522e-03,-8.284935584473036574e-01,6.495105134490023469e-01,-9.289466793597427052e-03,-4.434006001947766486e-03,-1.898843042983720114e-02,1.283351659774780273e+00
-4.919362364189290571e-02,-8.205403061847016399e-01,7.915957876426180650e-01,-5.421505815453168606e-03,3.748803440967984121e-03,-4.385703152873495457e-03,1.396649837493896484e+00
-4.353831790544614860e-02,-8.287185997782310354e-01,8.375104480862867184e-01,-1.092988607588179714e-02,1.677558030573682302e-02,-1.052521589558361344e-02,1.444324135780334473e+00
2.180035381718778420e-02,-8.082492292861211958e-01,5.762649166797649825e-01,-7.759266112099577790e-03,-2.502775279794636556e-02,1.014066974789969502e-02,1.207896828651428223e+00
-2.921424549738774190e-02,-8.233533567875241932e-01,7.083207748688932215e-01,6.874116371768417694e-03,-1.848819268775511726e-02,2.134165536261122681e-03,1.327215552330017090e+00
-1.634002045081236476e-01,-3.406971680935367286e-01,9.003914446048539855e-01,1.347274296813601724e-01,1.411602298931240694e-02,-2.932687160257314157e-02,1.187150478363037109e+00
-1.574324240331493874e-01,-2.841189644482671195e-01,1.089429205298924952e+00,1.758919246778707646e-01,-1.963967245532274516e-02,-3.882161509330981503e-02,1.351727247238159180e+00
-1.411820461433448970e-01,-2.911894072324689997e-01,1.114801922587671523e+00,1.388291436381139110e-01,-4.588636056549003084e-02,-8.973026578703123882e-03,1.361169934272766113e+00
-1.313589799128503204e-02,-8.199230807324472403e-01,8.052154728576754739e-01,-6.547043242052023176e-03,5.160970965537599493e-03,3.235864440354263225e-03,1.407508373260498047e+00
-1.521157388645835544e-02,-8.221604383192661070e-01,8.177900917333154052e-01,-6.540094288918189488e-03,5.095238083947029213e-03,-2.220523421508605651e-03,1.420376300811767578e+00
-4.820229731126039752e-02,-8.201958083631312180e-01,8.075964353977813648e-01,-6.378730172490439457e-03,1.394345055373402351e-02,-6.394828200804419070e-03,1.410625576972961426e+00
-1.645049559179712628e-01,-3.298165341200182121e-01,8.832311734827822391e-01,1.344513338301306926e-01,3.562278179789723359e-02,3.313915956667442403e-02,1.166025280952453613e+00
-4.505550254330459303e-02,-8.330916444987138680e-01,8.086707186888500987e-01,-1.829875069499021297e-04,1.675578402471487611e-03,2.227977851408560045e-04,1.422190308570861816e+00
-1.609707881194082923e-01,-2.990754251724678237e-01,7.957589815646539666e-01,1.466224113504762949e-01,9.523705381210084914e-04,-1.438032692423439618e-02,1.063790917396545410e+00
-7.027509631261342170e-03,-7.872393696545801900e-01,7.889817158573497746e-01,2.061108840742340714e-02,-1.389302528420417217e-02,3.318552311948126405e-03,1.365761160850524902e+00
-1.273810077061647839e-01,-6.118212127318739535e-02,8.710389429644915804e-01,1.650221413691347061e-01,2.288487883180615468e-01,2.665931778469134844e-02,1.084469795227050781e+00
-7.216788311674765533e-02,-9.801226724691419756e-01,9.634341432369413205e-01,2.276535059404245775e-02,8.992549900422300291e-02,2.886474256191266449e-02,1.692763209342956543e+00
6.807235788848031710e-02,-1.415797342989207896e+00,9.095136152872045354e-01,7.011416154060906569e-02,3.702822413321826822e-01,6.018451422906129222e-02,2.143693923950195312e+00
-1.155066498053538560e-01,-4.747791461294701421e-01,7.884456818304753645e-01,-1.529671846574542048e-02,-3.415289078408488208e-03,-2.132753332546730510e-02,1.128305554389953613e+00
-6.367092293536481817e-02,-9.584316710548832496e-01,8.399437291078095669e-01,-5.152816190682478655e-03,1.215711752299697135e-01,1.723408790562032042e-02,1.571923851966857910e+00
-2.887398335462926582e-02,-8.256638315940243444e-01,7.870820304211543217e-01,2.152240591203226361e-02,2.324215904349622927e-02,-1.088084872556075409e-02,1.397915959358215332e+00
-4.227291012686468230e-02,-8.244150737669309059e-01,7.988781748576084807e-01,9.419247390244740389e-05,3.945037532263300471e-03,4.281318674478744660e-03,1.406158924102783203e+00
4.863864268362237675e-03,-8.281687653249195646e-01,6.877329668802101281e-01,1.064494947127718992e-02,-5.354507187232744603e-03,-1.152647558865993113e-02,1.315268158912658691e+00
-8.139162431169692791e-02,-8.445109983376137830e-01,8.782239741146977696e-01,1.712069561128071182e-02,1.256454520216841730e-01,7.335920010764269972e-02,1.516541719436645508e+00
-8.138885948846563689e-02,-8.939887197492213389e-01,8.622172223216867382e-01,3.198172210485036859e-02,1.745094649130701780e-01,6.430962136527219354e-03,1.553073883056640625e+00
-5.805181467932463840e-02,-8.304416000285178567e-01,8.079339111440073662e-01,4.134830622655795044e-05,1.343104921211380094e-02,1.040906652680452515e-02,1.419951438903808594e+00
6.375661989098807547e-03,-8.044796205589700433e-01,5.279782836756188313e-01,1.533124655946344408e-02,-5.883529337065239451e-02,6.015423177432290859e-03,1.167774915695190430e+00
-6.679231707381930172e-02,-8.103992299189790582e-01,7.518088316506913449e-01,-7.391267581994329441e-03,1.492147899375896591e-02,-5.386326955824556639e-05,1.353738665580749512e+00
-4.822705650263900412e-02,-8.309502756229004694e-01,8.144890084330381752e-01,4.723709448271752598e-03,7.711999200660993661e-03,1.653723945018949334e-03,1.425642371177673340e+00
-6.587081629712977782e-02,-9.426570255692884315e-01,7.678541021594941229e-01,-2.152833785211777720e-02,1.597836421510114568e-01,8.692417260904780618e-02,1.515090823173522949e+00
-4.883761030346227272e-02,-8.174225632829662525e-01,8.086795830189192902e-01,6.841500849244770786e-04,1.137884316616646387e-02,-1.158887442042609052e-02,1.409228920936584473e+00
-4.762065850179363069e-02,-8.247356413835161826e-01,8.144707100216146411e-01,7.855911261992523089e-04,1.136968573761777679e-02,-5.689378590048964693e-03,1.420401334762573242e+00
-4.797527333427017981e-02,-8.358658351927250596e-01,8.094116506647822673e-01,2.436482920032993164e-03,3.075674619489602874e-03,-2.386109032076368444e-03,1.425297975540161133e+00
-7.653785584045724733e-02,-8.129503972661913380e-01,7.829046817321878571e-01,1.915123563374990234e-03,1.085455943792674668e-02,-4.490914320628187559e-03,1.383572936058044434e+00
-6.335958510236604224e-02,-8.199970811512352631e-01,7.639266204232311175e-01,5.341263736292286429e-03,1.346068091146700695e-02,-2.730850387120176571e-03,1.372410297393798828e+00
7.666738412153167870e-02,-8.047689255891783411e-01,4.550433701164183775e-01,5.254817368100407095e-03,-1.236753483668696744e-02,4.615384578494623191e-02,1.122739911079406738e+00
-1.633491970329695522e-02,-8.584193553188760317e-01,7.739337310526246405e-01,-4.184893006947157379e-02,-5.233571929821212443e-02,3.749018520259748966e-02,1.420137763023376465e+00
4.486776137520775976e-02,-9.257087408294769615e-01,5.970772326849930201e-01,-1.111054623869813483e-02,-7.851853656786221547e-02,8.913524804256122563e-03,1.342393279075622559e+00
-8.631590239162979794e-02,-8.143101473181288963e-01,8.120796299889829761e-01,-2.898918618707190193e-04,2.283635886720635638e-02,-5.558336551961673075e-03,1.411656618118286133e+00
-7.304265508944618457e-02,-8.001124391370002531e-01,7.381823872907581352e-01,1.344281004670446877e-03,1.758694017890864714e-02,8.191535607836394504e-04,1.333217620849609375e+00
7.925698641279027568e-02,-8.436468483942843877e-01,4.203217545728743509e-01,-3.566960543807526363e-02,4.365973877718892088e-02,2.265020614901832804e-02,1.137506604194641113e+00
-4.720076766440579885e-02,-8.131365376882934148e-01,7.133866778469495351e-01,1.195557034532521851e-02,2.013251368615730577e-02,3.623529844670569499e-03,1.322647452354431152e+00
-5.359635751197233677e-02,-8.287379970901121995e-01,7.969654549037776814e-01,-3.736599201792176455e-03,-1.755544397095724300e-03,1.975435339175162560e-03,1.408427715301513672e+00
3.502911854532023139e-02,-7.942619359090449249e-01,5.064581625614902327e-01,-1.893559739396904118e-03,8.212757372642121370e-03,2.368634724589040348e-03,1.140679955482482910e+00
-4.068099993977908335e-02,-8.332390161298486309e-01,8.075916872632601384e-01,-3.655433204900227894e-03,-1.300677935175171759e-03,3.765117486728986225e-03,1.421304941177368164e+00
-2.462309235979108502e-02,-8.261351826319975888e-01,8.092404079963332331e-01,3.019531803254745048e-03,-8.161637629559469892e-03,-3.668224015752816897e-03,1.416463613510131836e+00
-4.284134309071718771e-02,-8.356036752535979106e-01,8.166051667113685131e-01,-6.788790536670306344e-04,-2.253659255425736422e-03,1.492423382916071998e-03,1.431251406669616699e+00
-3.816022145962676138e-02,-8.311543751574940186e-01,8.119492999589584814e-01,7.765466199120293986e-04,-5.253271092065747716e-03,-1.562362231418067083e-03,1.423288345336914062e+00
-3.155700888433576878e-02,-8.006270021738568499e-01,8.045257104237137913e-01,5.209033431036295698e-04,-1.767493631326910730e-02,6.593847657814628192e-03,1.390890955924987793e+00
-4.111057801196361938e-02,-8.800167532770363232e-01,8.491114809955451204e-01,7.396373415019068080e-03,1.025152794619653245e-02,-6.799433816485165628e-03,1.497895121574401855e+00
-4.406080960777607192e-02,-8.223614336387613521e-01,7.426573375523194409e-01,9.417082894415554004e-03,5.237967522217961205e-03,-6.755774455695935828e-03,1.355531573295593262e+00
-4.334128156832550705e-02,-8.363049409882494789e-01,8.145105417593968555e-01,-1.424839519545920511e-08,-4.636333721272644661e-04,1.516936276739471866e-04,1.430016517639160156e+00
-3.812746487009134599e-02,-8.319435008323873282e-01,8.056880241792300223e-01,-2.279435125862623503e-03,-3.727348013686376371e-03,2.276302590773719291e-04,1.418471097946166992e+00
-3.844349383502506518e-02,-8.360722230688671930e-01,8.151824463188362957e-01,-2.191750043439368110e-03,-2.255482452997367162e-04,1.100416908895299629e-03,1.430308938026428223e+00
-1.594662847176742670e-01,-3.321833334071039867e-01,7.332052147038661261e-01,-4.792854920994821244e-02,-5.222162203626996152e-03,3.758826039663834551e-02,9.960346817970275879e-01
-1.625299383320068514e-01,-2.701683279548216521e-01,7.433122675080904296e-01,-1.251390140835175468e-01,2.036688528089775942e-03,3.909293939822276742e-02,9.905635118484497070e-01
-1.252815289699902579e-01,-3.645835485262375331e-01,7.531111583051428582e-01,-3.980032880012568386e-02,9.440969223974844324e-03,-3.462768505255967716e-02,1.023551225662231445e+00
-1.699119157979573358e-01,-2.714989342687229579e-01,7.459964554125926295e-01,-8.816155967557205708e-02,-5.201300854474728667e-03,1.223427320610273039e-01,1.005263328552246094e+00
5.731566479656748786e-03,-8.527143295066359485e-01,8.760189839433125680e-01,-6.059377750426155756e-02,-3.126233996414193739e-03,5.023062763511069485e-03,1.500847816467285156e+00
-4.522791604911204077e-02,-8.304952285287234837e-01,7.985531521006756783e-01,-9.186295957566265567e-04,3.662387011690965057e-03,4.499175428139147621e-03,1.411137342453002930e+00
-2.803230473188603883e-02,-8.200416069707594513e-01,8.044875617921659616e-01,1.204027356928977135e-03,-1.447931965632475197e-03,-1.568206714724383784e-03,1.407035708427429199e+00
-4.120279232511911416e-02,-8.283796735289880031e-01,7.899024001528940353e-01,-2.107068671139096690e-03,4.330118010751054548e-03,-1.594593476138739816e-03,1.401673078536987305e+00
-4.790606648022015246e-02,-8.228555949909424072e-01,8.000486669903631443e-01,8.920093533137607661e-04,9.495725446221441740e-03,2.625186300634579136e-03,1.406054615974426270e+00
-4.405226783102378363e-02,-8.301359043187999109e-01,8.108911793540911628e-01,9.407680488846804857e-05,3.940049726540569182e-03,1.175691446184659508e-03,1.421605944633483887e+00
-1.213135910110680130e-02,-8.165301099764156190e-01,7.977849803889061064e-01,7.471636098579671585e-03,-1.781206776051900281e-02,-9.484024131626241777e-03,1.398537278175354004e+00
-4.905969798716676433e-02,-8.297877527763325434e-01,8.130419839814622129e-01,-2.930537899342524049e-03,-3.952004932759095937e-03,2.384216686107569396e-03,1.423345446586608887e+00
-4.305613331539551170e-02,-8.220862274643763179e-01,8.045527751781890169e-01,-4.772564914913940588e-03,1.643423433860317223e-03,5.100167940911096501e-03,1.409182786941528320e+00
-4.149797239786295888e-02,-8.343527120954642440e-01,8.135007835556730127e-01,-4.356099216915706313e-03,-4.498200343462614194e-03,1.894583807495310883e-03,1.427466154098510742e+00
-4.376642450147186225e-02,-8.320885093479356565e-01,8.103917528487059041e-01,-4.983655345786067344e-03,-8.897857791188025153e-03,-1.950981231430943489e-04,1.422920107841491699e+00
-5.277657809624786145e-02,-8.234215914285843985e-01,7.903305567906715456e-01,1.934044779739015106e-03,-3.304809941760776699e-03,3.507570631333799694e-03,1.398048877716064453e+00
-6.570154121554450111e-02,-8.248226859313519954e-01,7.902447239750103325e-01,-6.887122552721435323e-03,1.315598778940899917e-03,-1.028194627609119909e-03,1.399580836296081543e+00
-8.145788636562166507e-02,-8.251958582650354979e-01,8.020228694078580522e-01,-5.003423652085104562e-03,4.267242026457127024e-02,9.967786439506300458e-03,1.413010478019714355e+00
-5.931500121463288699e-02,-8.252714115127947059e-01,7.833168760103976780e-01,-1.386955422417596520e-02,1.243724224306119123e-03,-3.139626915501858746e-03,1.393825054168701172e+00
-6.957672338173157001e-02,-8.204980149254501587e-01,7.769178408530311719e-01,-1.082786191432405856e-02,1.500280743163181531e-02,7.266556881981936673e-03,1.384655952453613281e+00
-7.807418380912750644e-02,-8.049695447327877007e-01,7.577614146098107240e-01,-7.016165907936066162e-03,2.069471376135307086e-02,2.049860199552580760e-03,1.354993820190429688e+00
-6.750120554967511954e-02,-8.212125914180035124e-01,7.833179967818403311e-01,-2.926087522070531296e-03,1.146392880084104275e-02,1.215146420343865725e-02,1.390722513198852539e+00
-6.220525156957783242e-02,-8.182610240318601846e-01,7.769607448660272864e-01,-3.382610862824459320e-03,2.412592972581517788e-03,2.154072689881464386e-03,1.382151246070861816e+00
-7.046143082227294963e-02,-8.137543562167116606e-01,7.645135146065114018e-01,-1.890132340436427192e-03,6.200160299619973496e-03,7.854184503901663617e-03,1.367702364921569824e+00
-4.309166043255897860e-02,-8.004897928671349527e-01,6.516873478751600279e-01,-9.735813778538783200e-03,3.269900472600977687e-02,1.616837436748475368e-02,1.259710431098937988e+00
-6.942003455883674623e-02,-8.135703870058574871e-01,7.763243866671210025e-01,2.802161966679331479e-04,-1.850158195820279013e-03,3.761131810084536800e-03,1.377845168113708496e+00
-4.695077276610794270e-02,-8.222967432487774397e-01,8.109476351788437176e-01,-5.222930036173265532e-04,-1.558249808215917548e-02,9.424781366186189141e-03,1.415385007858276367e+00
-8.078779193460453034e-02,-8.047680460115747003e-01,7.591111556505599767e-01,-3.000055141010392985e-04,6.401739114063966646e-03,2.987160570274870718e-03,1.355654001235961914e+00
-7.438380732741542434e-02,-7.974446593235400282e-01,8.229852426573802671e-01,-6.672296058251913145e-04,-1.554989043588387611e-02,5.322514528139254963e-03,1.406325817108154297e+00
-8.481060302214807334e-02,-8.157520383545063813e-01,7.817025614959430824e-01,-1.862071438140046028e-03,1.488632579583811476e-02,7.243331796470795989e-03,1.385396480560302734e+00
-6.564809737939501788e-02,-7.341256242605862514e-01,8.023116011358318866e-01,-2.557807987007013929e-03,-1.272493235088989483e-02,3.180404366690736673e-02,1.335652589797973633e+00
-8.123602864230530796e-02,-8.046136866955553302e-01,7.662710747799501565e-01,8.552434719151110441e-04,6.177880261297914039e-03,-2.954229958825648275e-03,1.361893534660339355e+00
-8.840458551519322916e-02,-8.146355376985358054e-01,7.864557030079912803e-01,-6.595749947371610340e-04,1.175784000309344594e-02,-9.744861161728302469e-04,1.388726592063903809e+00
-8.790638098295988634e-02,-8.050304866041952945e-01,7.801702835967869731e-01,1.635961316282581518e-03,1.307010889940064639e-02,-3.626810941267148702e-03,1.375100970268249512e+00
-9.523640503717491212e-03,-8.425229222357177861e-01,7.262203614804559892e-01,1.375264387090923204e-02,5.116776367070023646e-02,-1.625406583858535984e-03,1.362538456916809082e+00
-6.658362895674174720e-02,-8.095893387621354576e-01,7.323714389467759212e-01,2.572316199973397055e-03,3.483507767377302250e-02,-4.879737446836929747e-03,1.337066411972045898e+00
-7.147645281482786772e-02,-8.125773563564993029e-01,7.824490220055159151e-01,1.946468451746688911e-03,3.797321577615125638e-03,-7.515045599978758227e-03,1.382565855979919434e+00
-6.287610783347025167e-02,-7.557485325881880822e-01,7.986658980020460152e-01,-7.066595416677196820e-04,-1.958824237352638567e-02,2.083255424614159981e-02,1.349711060523986816e+00
-4.766982226044282067e-02,-7.663687617019654397e-01,7.934065220436794519e-01,-2.034055766231668977e-02,-1.222731530521233533e-02,2.874385273455357451e-02,1.353730678558349609e+00
-6.233972189446655709e-02,-8.182678430454608520e-01,7.762780379964551170e-01,3.834898545693812832e-03,-1.401678086882640357e-03,3.396928781217372489e-03,1.381566643714904785e+00
-7.861193919385464635e-02,-8.195038435473245286e-01,7.970209869822331150e-01,3.567469251239333136e-04,6.869037268847644380e-03,-8.221350824600053703e-03,1.401694655418395996e+00
-6.302909677687412726e-02,-8.182869982050176016e-01,7.774405846219686333e-01,5.902842036400521644e-03,-3.735390302210180057e-04,4.707332696348333866e-03,1.382659196853637695e+00
-6.037217246120067660e-02,-8.231382991995448428e-01,7.999761119262490672e-01,1.416749750914108805e-03,-1.694231458274211583e-03,-7.781152654850743457e-03,1.406574606895446777e+00
-1.949532086938566416e-02,-8.072841042668233991e-01,8.014549997436839490e-01,-6.271445925485821284e-03,-1.380719046981532770e-02,-8.524210760445381091e-03,1.393633365631103516e+00
-5.630135886136261592e-02,-8.229111518611663678e-01,7.917331361123081113e-01,5.947640832469253168e-04,4.893605976256352325e-03,-1.757211998404218300e-03,1.398944854736328125e+00
-4.615817270082879509e-02,-8.272204214008167522e-01,7.941290210151435991e-01,5.122767625781764374e-03,1.337921307431148843e-03,3.557588790637514209e-03,1.404485464096069336e+00
-5.120625869695327737e-02,-8.268261835699609597e-01,8.063673072664355734e-01,3.180735903972737449e-03,1.059075260123893596e-03,8.893102150834329353e-03,1.415076255798339844e+00
-5.920845523100362606e-02,-8.236690968293493009e-01,7.989611263978484423e-01,1.256052324574150883e-03,-6.939705270420110789e-03,-3.126829018759240061e-03,1.406083345413208008e+00
-5.306830760064651376e-02,-8.279736441913833067e-01,7.982455431671073853e-01,3.532414740056845880e-03,-1.230695893196637062e-03,3.759065462023583690e-03,1.408895134925842285e+00
-1.283383648006064803e-01,-4.667850684760950219e-01,7.511415287828164811e-01,-5.910562261481464713e-02,-2.077832561835803865e-02,3.426202982737883845e-02,1.095894813537597656e+00
-2.012217206338336173e-02,-8.220788710813070610e-01,8.237638780782221559e-01,-9.879399228185875223e-03,-2.297419973784359942e-02,-3.841295412985870107e-03,1.426169276237487793e+00
-5.490670680303536000e-02,-6.588029840937106307e-01,7.770113464151100491e-01,-2.402863044301003712e-02,-2.270202196088919044e-02,-9.488961841110922849e-03,1.250087618827819824e+00
-4.353812366944466439e-02,-8.333571332103488771e-01,8.064859152273228249e-01,4.884946656613874637e-03,-2.715943711769473398e-03,1.077942075987308379e-03,1.420498967170715332e+00
-3.881379869765384794e-02,-8.259167257480598545e-01,8.088138908824745732e-01,-2.705707083812881018e-03,2.717093155237242184e-03,-6.223888451715519493e-03,1.416098237037658691e+00
-1.161633372427382620e-02,-7.918033640482800006e-01,7.964871477548214340e-01,8.328140180053206221e-03,1.241893941339035703e-02,-4.274597734821093502e-03,1.375834465026855469e+00
-2.434667935152631107e-02,-7.838179272602826542e-01,7.933727338299906284e-01,-1.534199832383729284e-02,-2.253061501200974426e-02,-1.155644720604662515e-02,1.367159724235534668e+00
1.356550737219631153e-01,-9.670770794506385881e-01,2.609984749846763208e-01,-9.768749495700297658e-02,-2.418079725273152014e-01,9.428562646734053171e-03,1.254694342613220215e+00
-1.962707214422347232e-02,-8.427527818185778230e-01,8.555630823878120905e-01,-1.714667669102416803e-02,1.164883307584471071e-04,3.615867992495971298e-03,1.471328139305114746e+00
-4.417270269552495132e-02,-8.285556374509698285e-01,7.918322975971657796e-01,-2.033337953616608934e-03,-1.328434254068166197e-02,4.372152988819081980e-03,1.403747916221618652e+00
-1.530634758647459459e-01,-2.550673070319164348e-01,1.139041021044144841e+00,-1.680142376886504252e-01,6.071657149138388887e-02,3.398495966632423398e-02,1.382370829582214355e+00
-2.628396267194197528e-02,-6.291869230799838064e-01,7.400762148220744185e-01,-4.865562345857642364e-03,-7.373725162811782530e-03,3.343302351668028284e-03,1.188742399215698242e+00
-5.409871525830734634e-02,-8.458557676428031247e-01,8.599792775653215537e-01,1.012017462308542268e-02,-1.464895202596926474e-02,-4.814241371067854423e-04,1.478883743286132812e+00
-4.111937048067498823e-02,-8.161575939653942235e-01,8.094970646656677316e-01,3.895587353972392756e-06,8.026349346078471766e-03,2.183689013095167688e-03,1.408439040184020996e+00
-4.403194308631901144e-02,-5.321318702675736922e-01,7.533897673474758694e-01,-1.342159631913507900e-01,1.645766794861197591e-02,2.314735491956329549e-02,1.148828148841857910e+00
-1.352356324954680500e-01,-1.104079548863531324e-01,7.618804516020739603e-01,-2.717755247224856990e-03,1.780437571526062579e-01,1.733376967643041611e-01,9.840828776359558105e-01
-1.885057720129302283e-01,-1.241942196348290173e-01,1.155569724472755855e+00,-1.546375550769797311e-02,-3.315700881779027470e-02,-3.544555015562219497e-02,1.316062331199645996e+00
7.146164490283549164e-02,-8.173237448907447744e-01,4.517947760767020426e-01,-1.984449851072731495e-03,-1.544882962763102253e-02,-6.587058934545966804e-02,1.134183406829833984e+00
1.386630249845992036e-01,-8.477534334913012781e-01,1.937825758909467733e-01,2.395600399424356944e-02,-9.731224597362689299e-02,-1.804965549156059834e-01,1.076240777969360352e+00
-2.956051557259726376e-02,-6.691181997253146108e-01,7.663002857941322299e-01,6.005866405944051273e-03,-2.818117646048459365e-02,1.056167250435706938e-02,1.246696710586547852e+00
-4.441901564249224610e-02,-8.261443416106897253e-01,8.127653779957770830e-01,6.315877629123338617e-04,-7.703908746603147992e-03,-3.402099815566147177e-03,1.419914126396179199e+00
4.322166771663073226e-02,-8.157662429461222109e-01,5.644407471869057336e-01,-5.302747438050367697e-03,7.335577707736914456e-03,7.547254243970923961e-03,1.207338809967041016e+00
-6.015732819289730526e-02,-8.278591507917213432e-01,8.092478436376703277e-01,4.002331769403405818e-04,-1.387610650748013000e-02,1.064342481039663550e-02,1.419011354446411133e+00
-2.022782418887272282e-01,-1.024529230506034505e+00,1.333686954229736932e+00,3.395477856324308208e-01,-6.836769533306015501e-02,3.621792922686182387e-02,2.159182786941528320e+00
-3.851878943355997731e-02,-9.998241032045159793e-01,9.473202911392732961e-01,1.723241339181778298e-01,2.161211354265242801e-01,-2.033840743134807463e-02,1.753320217132568359e+00
-1.835789793908208511e-01,-4.565034405773991111e-01,1.304569678000745192e+00,-2.386438407967256814e-01,-4.363668993006909053e-02,8.189298185334062397e-02,1.700561881065368652e+00
-7.469036395724017174e-02,-6.610016912066833950e-01,7.790415046689159739e-01,2.813134575702217269e-02,-3.739441355770216358e-02,-4.029699579938873094e-02,1.258813858032226562e+00
1.438794806787576340e-02,-7.584652061058553274e-01,8.304034650847497145e-01,-1.048136293900584354e-01,6.639672691411673683e-03,-1.076131282695426926e-02,1.388265371322631836e+00
-1.473107117367843388e-01,-2.743213161284390189e-01,8.611465660849080272e-01,-1.245025840832984926e-01,-3.825435726217322335e-02,-7.240077654085680381e-02,1.108070850372314453e+00
-8.106702033404233898e-02,-9.977460987195956310e-01,1.014801556678746497e+00,-5.030211805761167221e-02,4.869713312760119012e-02,-1.406495436529498974e-02,1.749596238136291504e+00
-1.721520268432099043e-01,-1.689465903690049453e-01,1.233426933842529660e+00,-7.808139907818513470e-02,2.186182977801041580e-02,-4.274211522705604477e-02,1.412926554679870605e+00
-6.888540157564163047e-02,-8.532707486950705800e-01,8.835782411210982845e-01,8.206886728306691040e-03,3.513176602072337097e-03,-2.026879616694061362e-03,1.506584644317626953e+00
-9.779400310555635967e-02,-8.348546653270768614e-01,9.739658318655410874e-01,2.640423183146283215e-01,2.325425205206702040e-01,-4.101936575133961066e-02,1.690653800964355469e+00
-3.864759496727942362e-02,-7.021201043546980713e-01,7.789771782896631747e-01,4.679566303041358954e-03,-3.106203444762596286e-02,1.361726475042257870e-02,1.286349177360534668e+00
-3.023924565705213285e-02,-6.270767465603285240e-01,7.428390322211065877e-01,6.893241692628311081e-03,6.487674685716112062e-03,9.428991233048869981e-04,1.189764142036437988e+00
-3.176785236738700197e-02,-8.201510363537827253e-01,8.099107357177479649e-01,2.851659366843542834e-03,-8.491361395840042389e-03,3.362047540414440146e-03,1.412023663520812988e+00
-1.534338192659840394e-01,-2.912317953618103195e-01,8.541153368889070618e-01,-1.593284326984611698e-01,5.537559843055125247e-02,1.027055383062848576e-01,1.135774254798889160e+00
-1.659525541879201538e-01,-3.237997477319789486e-01,1.238844863063081725e+00,-2.157612409218727656e-01,-7.094469452137130983e-02,-4.585601970926540122e-02,1.543107748031616211e+00
5.094636324439606734e-02,-8.135325342847079533e-01,5.551522483902806560e-01,1.241739781903705882e-02,6.013135910815854994e-04,9.618817273543389321e-03,1.199234724044799805e+00
-3.166807700759763367e-02,-8.212008047494591123e-01,7.339983077051547289e-01,5.048606761044332342e-03,3.455004973422307057e-02,-2.039234140939516146e-02,1.348714470863342285e+00
-5.223474748672411044e-02,-8.365964928669485934e-01,8.099064876362966903e-01,-1.266040332336536072e-03,3.730138148771711126e-03,3.655234433086020866e-03,1.426473975181579590e+00
-1.292416760922666386e-01,-1.093246691014344352e+00,1.192465646698193105e+00,3.546158725307855808e-01,2.276266893183143403e-01,-9.660392425522035253e-02,2.123921871185302734e+00
-1.216073926309683140e-01,-4.010855817177190197e-01,7.144410636383283775e-01,4.631428224538488431e-02,5.525592598044907176e-03,-8.054418189912000009e-03,1.008694052696228027e+00
-2.968920501370109905e-02,-8.272858547871441148e-01,7.393459064156344684e-01,1.998491265529650594e-03,1.966493773942994128e-02,-5.273503641912352831e-03,1.357280611991882324e+00
-5.571061042447528894e-02,-8.285735870671957493e-01,8.147409786084193195e-01,-3.577343052030985395e-04,-1.624986050855026709e-03,-2.432564765659974999e-03,1.423997521400451660e+00
-6.819207521929260274e-02,-8.455967500995630326e-01,8.737593697756108613e-01,7.752202714153049931e-05,-1.302108845458377698e-02,-5.704950845717595212e-03,1.491480588912963867e+00
-5.289766458880303113e-02,-8.357288266094186069e-01,8.097028782215253129e-01,-1.795551901550344030e-05,-7.209171260672442728e-04,3.263398161294208712e-03,1.425555467605590820e+00
2.068353968469954091e-02,-7.809765057695546853e-01,7.764391508747406911e-01,2.224481897138943370e-03,-1.244160543205442143e-02,1.999554273105057407e-03,1.349138855934143066e+00
-1.050332293474319778e-01,-5.047819320192246106e-01,7.593184266529994231e-01,-8.790591803828640138e-02,1.267364418389170522e-03,-2.640655238919193890e-02,1.130356311798095703e+00
7.788437465848330188e-02,-8.815009201402591588e-01,3.926390363101417424e-01,2.246529258380607075e-02,1.852871648567083751e-02,-1.455458432388404000e-01,1.177945852279663086e+00
-4.479632325092493261e-02,-9.545974793712563855e-01,1.009880591365732050e+00,1.494745791466934592e-01,1.777540643647332608e-01,7.064966854530607687e-02,1.753972411155700684e+00
-4.873364125011676179e-02,-8.333418935542863393e-01,8.080671960453585934e-01,3.025353507190944782e-03,-7.971318414779269114e-04,3.226284159609861622e-03,1.421981453895568848e+00
-5.342114236868641952e-02,-8.261721400384451908e-01,8.011116502820400109e-01,-1.588706300723427339e-03,-3.015071529663583636e-03,-8.441028961776866207e-03,1.409950375556945801e+00
-6.585032341056439031e-02,-7.946524186396864975e-01,8.153300050440233093e-01,8.332727763964036839e-04,9.894969141428374641e-04,-9.278198539480874557e-03,1.396460056304931641e+00
-5.284019907312721698e-02,-8.395472547126984209e-01,8.130394823520913361e-01,-2.586172706793218434e-03,4.358170572424643896e-03,7.173334610509051260e-03,1.431810259819030762e+00
-1.392892712335769279e-01,-4.635786747384267326e-01,1.047417983197676872e+00,-2.558160529640391423e-01,8.502743450452258933e-02,3.541935908044210185e-02,1.456040024757385254e+00
-8.884011690598278554e-02,-5.240553572575132879e-01,8.920979664302723933e-01,2.343075634952522246e-01,2.108254254557170859e-01,-2.119965354403037863e-02,1.370387315750122070e+00
-6.299034071984344930e-04,-8.125209224921993156e-01,8.022305020865427849e-01,-2.512341494284453872e-02,2.144102820178700464e-02,-1.701819950912200965e-02,1.399903059005737305e+00
-7.605414350325785666e-02,-7.660564585983586916e-01,9.423383898281891824e-01,2.084802506346938311e-01,-1.602145863767983069e-01,-4.993185286779095594e-02,1.559101462364196777e+00
-6.247546416236701705e-02,-7.361851932970439050e-01,9.247569443387698707e-01,-2.081207454621755715e-01,2.250943431446163993e-03,3.007544909444846010e-02,1.492076516151428223e+00
-2.453454688818048485e-02,-8.091566276914371469e-01,9.137764532299661457e-01,-1.144696689569793951e-01,3.911446115390942307e-02,-1.152979490394722382e-02,1.508833169937133789e+00
-4.281694654773113284e-02,-8.337396877227286618e-01,7.844143503861684685e-01,-1.015174342349949889e-02,5.695761143948053704e-03,4.538506177000235092e-03,1.401647210121154785e+00
-7.005126373366458992e-02,-8.223666963460026791e-01,8.917537763983161003e-01,1.955584048873555969e-01,-1.315060865135743162e-01,8.088219758820293370e-02,1.549472451210021973e+00
-4.820240647908503179e-02,-8.077540903180837617e-01,8.134960608652331837e-01,2.894623522881263275e-03,1.519262153279073504e-02,-5.195172240410432518e-03,1.405256628990173340e+00
-4.780000629256617867e-02,-7.862118390862276041e-01,7.610643417650942988e-01,7.653690138327444437e-03,-3.223370675030495618e-03,-3.014154329290680018e-03,1.340530753135681152e+00
-7.018622198262064460e-02,-7.928807481299571247e-01,7.998943181273012737e-01,2.620481027941819197e-02,-5.145954782168633140e-03,4.463617272613321085e-02,1.384285569190979004e+00
-1.208590051102207685e-01,-2.425317547253498796e-01,6.167232663167772078e-01,-7.481025605227992203e-02,1.737966135801555234e-02,1.319909468717223033e-01,8.476651906967163086e-01
8.541117555414751150e-02,-1.007990315680387106e+00,3.414664408067549228e-01,-2.223442737940636571e-01,-2.772405800003760468e-01,8.914076398864802242e-03,1.385712385177612305e+00
-1.433771881183441149e-02,-8.562154035478055647e-01,1.008374220383965181e+00,-1.323536094283031261e-01,1.246038405359885942e-02,-3.734717767533139287e-03,1.633632779121398926e+00
-2.278207702514906466e-02,-5.796843399679273423e-01,4.754808877229986797e-01,-2.234776860893761263e-01,-2.073630909685304224e-01,-1.061438645674719072e-01,1.071687698364257812e+00
-5.397359254203812351e-02,-8.172719702683101106e-01,7.270335679812919283e-01,-1.363986534298530610e-02,-9.228174291515558667e-03,-1.766397986016035940e-02,1.338091135025024414e+00
-3.443489423939519178e-02,-6.294092199377425700e-01,7.494073392475338879e-01,-9.189099091376129805e-03,1.162303635363293348e-02,5.124771925371403823e-03,1.198126196861267090e+00
-4.388113028559120776e-02,-8.281909439397749928e-01,8.143583226919911544e-01,-9.672943940919622417e-04,1.231401169841992750e-02,-6.230758953984329336e-03,1.423171281814575195e+00
-5.804878116010074585e-02,-8.288928243354544145e-01,8.059999019968573375e-01,3.598936022102226361e-03,-2.591383000309696334e-03,2.173840517987263559e-03,1.416651248931884766e+00
-1.554889244232408596e-01,-3.211007255732526433e-01,7.823818641454456380e-01,-1.338950376558688815e-01,2.344922246045716419e-02,1.607101831559809915e-02,1.057619690895080566e+00
-6.868558158924059631e-02,-8.808789389997579988e-01,9.294436885835478668e-01,1.533861953554736465e-02,1.918275682085833489e-02,-2.566368868288172039e-02,1.571744203567504883e+00
-1.400854327804409993e-01,-3.293650779117331950e-01,8.861801612286674956e-01,-2.679772412860805253e-01,7.122260632999016794e-02,-8.294539888658861160e-02,1.238786578178405762e+00
-8.473735957264044716e-02,-5.977419698846204721e-01,7.751953895943888284e-01,-1.024859436814610225e-01,2.524534847123976675e-02,-6.877017272123876757e-02,1.221236109733581543e+00
-1.261092533951218009e-01,-1.363084370941146095e-01,1.080291005454276254e+00,-5.887433254160349960e-03,-6.295007041992874489e-03,-4.742427552116246919e-02,1.214405179023742676e+00
-5.145222234724158156e-02,-8.172326402308648374e-01,8.166250988421664969e-01,8.085187399255847757e-03,-1.897607887421967621e-02,-4.507478386643459095e-03,1.416358709335327148e+00
2.610221537886139864e-02,-7.338923845007663260e-01,7.711681882804024557e-01,-4.437597816037636839e-02,7.078979413465160114e-04,-3.791060775155448686e-03,1.305723309516906738e+00
-1.779908528636530152e-01,-1.992915453516516111e-01,7.705338736945110956e-01,3.448542138610431913e-03,3.217611111980530486e-02,-9.908987364591637093e-02,9.761942028999328613e-01
-1.241669587123835350e-01,-1.847181326653600797e-01,1.094104795793417129e+00,5.631894272643698379e-02,3.026448358802397154e-02,-5.173542831067424325e-02,1.257741332054138184e+00
-4.571576528450208010e-02,-8.305199190805612197e-01,7.980605914441640802e-01,-5.871063270591331609e-03,-2.121091275385321179e-03,6.073963578862952295e-03,1.410780906677246094e+00
-1.317548806217705981e-01,-1.609882463448226719e-01,1.173744194842708755e+00,-9.688979875508381412e-02,-5.815648822442650960e-03,5.117376527306223555e-02,1.333966732025146484e+00
-5.650984031837155003e-02,-8.578960039707216323e-01,8.773480575825027827e-01,6.707938030832921381e-03,-9.120187856734839407e-03,1.512777458085344268e-03,1.504354476928710938e+00
-3.372430162897697981e-02,-8.115855871134675104e-01,6.939663284222626904e-01,1.420132862595019883e-02,-2.110847275629853474e-03,-4.848392838833103652e-03,1.304351568222045898e+00
-1.202482982577829929e-01,-1.147047228616121517e-01,8.954669547492876136e-01,-7.855647526782463808e-02,-1.214526604768099427e-01,-7.738060608463087631e-02,1.052048683166503906e+00
2.636846554374480678e-02,-7.655667677277254723e-01,5.290756037807593515e-01,1.056202012631621279e-02,-1.703234804590130977e-02,9.216658439305672190e-02,1.142224311828613281e+00
-3.505358596476609162e-02,-7.047632668686962809e-01,7.746619127503723279e-01,-5.919243200485931923e-03,2.295291622502023884e-02,5.801490729292215452e-03,1.283826708793640137e+00
-1.236127553904765031e-01,-1.558288535432038602e-01,1.157446251103575907e+00,-7.988533473208067615e-02,-6.797546539564018608e-02,4.673526434448201095e-02,1.312623500823974609e+00
-7.290857681748598440e-02,-8.072918867159876166e-01,8.222628988356447399e-01,1.592748202665839399e-02,-1.695223405358693355e-02,-8.836570785120371682e-03,1.414180755615234375e+00
-6.882777440771101207e-02,-7.270751536501910417e-01,7.752295754655121884e-01,2.234283812829440316e-02,-1.862224935201957018e-02,-3.505214342314479092e-02,1.306730628013610840e+00
-1.926001284832859484e-01,-1.000906794350761575e-01,7.939213175461202754e-01,-1.531658186327895452e-02,3.652712696893971583e-03,6.213619256757087206e-02,9.501823782920837402e-01
-2.508049367405866883e-02,-8.197481503813295323e-01,6.815218091750178120e-01,-1.604868978084237480e-02,-3.951570418157566295e-02,-2.833895457846056717e-02,1.303903341293334961e+00
-2.891262438968790482e-02,-9.648128797359123432e-01,6.442243891021055546e-01,-3.601330841892961265e-01,-2.909521478592937971e-01,-1.138024674277685888e-01,1.625088214874267578e+00
-1.524919785269931299e-02,-8.037177936627654118e-01,7.966013523015174069e-01,9.955049816368147231e-04,8.538502108052726386e-03,1.756622108749776980e-03,1.386049628257751465e+00
-1.201388116499496894e-01,-4.286622199304543912e-01,7.281088434180612579e-01,-5.169089541542875449e-02,1.200214713066984247e-02,7.875101694077115896e-03,1.041656851768493652e+00
-2.257722691880533622e-02,-7.927651911028787968e-01,6.301832968361126275e-01,-6.502325277000687784e-03,-8.710441546857293146e-03,3.338952053790533725e-03,1.233864665031433105e+00
-7.612868132656080977e-02,-8.018816366234640114e-01,7.569985047830155578e-01,7.219474110783202737e-04,-2.006051594646150477e-03,4.869832549764538734e-04,1.351102232933044434e+00
-4.599933635271578891e-02,-9.832675453655459474e-01,9.080677216974402111e-01,-1.770803034766459116e-01,-1.587757925858861718e-01,-4.788396874991295016e-02,1.691009283065795898e+00
-7.520189111997681308e-02,-8.062256176705041577e-01,7.432360413231859919e-01,5.007147447231120180e-03,-1.405287567106989176e-02,4.558153346649942809e-03,1.342856645584106445e+00
1.207924527554633531e-01,-1.187205252315294945e+00,3.315044667560139713e-01,-2.849824184665130516e-02,1.331077594206695087e-02,-7.930941241102971995e-02,1.432726860046386719e+00
-1.417045560307392954e-02,-8.191352328135338423e-01,8.066090872888959096e-01,1.158577621578613928e-03,1.097290691786980028e-02,2.069804628433498991e-03,1.408092379570007324e+00
-1.424092811590917385e-01,-3.377404901085551692e-01,8.387544405598539310e-01,-1.467985576754302635e-01,-1.471700896764304746e-02,-2.788732517493611868e-02,1.122550964355468750e+00
-1.709861100691277835e-01,-1.090555128548877373e-01,8.037291879923204041e-01,-1.440528569915708323e-01,-5.205580194600030464e-02,5.510876672168647794e-02,9.864251613616943359e-01
-1.994523836972427744e-01,-2.730478021992150395e-01,8.593574855793690848e-01,-3.682394061715048295e-02,1.935246215615334109e-02,-3.296768192974417616e-02,1.101303935050964355e+00
-7.166360017889854273e-02,-6.962290788483456172e-01,9.206372503773875282e-01,-2.149530394306097547e-01,3.787427039374163112e-03,4.456184169927399075e-02,1.462571263313293457e+00
1.573683635421823657e-01,-1.299614743299453590e+00,3.056223928746912843e-01,-6.190396659081342373e-02,-8.066886122966618333e-02,-2.198390817764734328e-01,1.592730045318603516e+00
-1.418794399678097607e-03,-7.921999561318009420e-01,7.885685825322582554e-01,-4.250250164704109414e-03,6.429968740634549665e-03,8.531795355185501023e-04,1.369051694869995117e+00
-3.060994870603649110e-02,-8.065446243147142980e-01,6.915146916843335489e-01,-1.338438303894259017e-02,-4.048263814300011830e-03,1.966861465400013970e-03,1.297866821289062500e+00
-1.670242181409787863e-01,-2.567563849642806595e-01,8.521184095023767169e-01,-5.773748327002943548e-02,1.150661148487303574e-02,-2.671084909969086846e-02,1.072703123092651367e+00
-3.578559862095893884e-02,-9.453109062624496239e-01,9.789496921779505811e-01,6.038720094386923476e-02,-2.016027050904806509e-02,1.500797767148979826e-02,1.671133279800415039e+00
-2.985657523844471861e-02,-8.269714988015782753e-01,7.337846901389503129e-01,1.577983985364758354e-02,-4.700790264315152060e-03,-2.990297982702890250e-03,1.352068901062011719e+00
-6.457151568309280054e-02,-8.219750882430015837e-01,8.003066079037460812e-01,5.892671185628669921e-03,-1.779023185620143624e-02,4.132792652104385484e-02,1.408159732818603516e+00
-2.345188104091610118e-02,-8.779648178155585736e-01,8.538694652882439229e-01,2.219693819644604632e-02,-2.827451911669082163e-02,-1.522471941305084987e-02,1.501379132270812988e+00
-1.152504961483808987e-01,-2.660433220752001504e-01,7.658751997836426018e-01,1.552402279565524568e-01,-8.290523030907188951e-02,-4.650163773777329229e-02,1.015575766563415527e+00
2.596462803271338757e-02,-7.466667978732793864e-01,7.607138360948907385e-01,-1.705408032945289129e-02,4.251865927482343169e-03,1.356066747079725078e-03,1.305924296379089355e+00
1.517041594026303196e-02,-7.668567111106620038e-01,7.752018310830112169e-01,1.018230855795567748e-02,9.468420794947599028e-03,2.139638081042193052e-03,1.335729479789733887e+00
-2.062150824558022649e-02,-8.367219924491360317e-01,8.292885187174181549e-01,1.862245742998534445e-02,-8.748717638247752865e-03,-4.937406778258406591e-03,1.443371772766113281e+00
-2.414344063286183104e-02,-8.425810654826757506e-01,8.511664525721298613e-01,1.720301911762830288e-02,-2.658332763141445666e-03,3.486398393697674215e-03,1.467426180839538574e+00
-1.025924917400361513e-01,-4.778238700770719438e-01,7.515663762826194638e-01,3.111308049987509747e-02,-1.829760197092545129e-02,-2.438977165667263747e-02,1.093885898590087891e+00
-3.827257775085591424e-02,-8.112718617538852151e-01,8.071264602111889452e-01,1.067584051780911619e-05,-1.383551001270077584e-03,-1.225609980307725694e-02,1.402204155921936035e+00
-8.042742977316470754e-02,-1.257661853411201180e+00,1.132797956692341401e+00,2.598139618781037385e-01,-3.262392820586190734e-01,1.215488552215415394e-02,2.192782878875732422e+00
-5.816385846115953301e-02,-8.420936202476164700e-01,8.559491841697055570e-01,1.028269889068863033e-02,-3.531600369936853390e-02,-2.585479532694983165e-02,1.474046587944030762e+00
-4.623489817913158800e-02,-8.158116205574708069e-01,8.041187444958205477e-01,-1.053561857136889194e-03,-1.034411797232788650e-02,8.685296399340541873e-03,1.403678297996520996e+00
-4.377455210929297874e-02,-8.911759017430938012e-01,8.227221845041940984e-01,3.325017797446815776e-02,-1.054100774040425126e-01,-8.330881601086958035e-03,1.496674656867980957e+00
7.656999604867770204e-02,-8.371572000649658563e-01,3.694235555302686214e-01,4.211153909789157020e-04,1.894427971929735222e-01,-1.675397500512187943e-02,1.138752460479736328e+00
-6.737049233532313441e-03,-8.268858917381557427e-01,8.449638183076005893e-01,4.871260191441764698e-02,-1.100990772838609209e-02,5.675706228935411407e-03,1.450565099716186523e+00
-1.498425138690919756e-01,-5.021195364147980067e-01,7.611985724650479623e-01,1.211412600387077113e-02,2.267508359090152428e-02,-1.207057549417700319e-02,1.130244970321655273e+00
-8.732202763354482422e-02,-4.550229249304174606e-01,5.933548724142552189e-01,-7.657314087311492545e-02,2.675963656923561335e-02,1.103683277573784122e-01,9.513635635375976562e-01
-2.474117251884371677e-02,-8.017108825163835606e-01,6.457814424513238505e-01,-1.633849086287531352e-02,-5.435810856980045208e-03,-2.412624852498066949e-02,1.255744338035583496e+00
-1.244320778021458518e-01,-7.034558891316844420e-01,8.960838301395752659e-01,3.890603239382826040e-01,-1.490492734817462639e-01,-2.725460821351170532e-03,1.577465534210205078e+00
3.442248659755135776e-02,-7.905631112884379252e-01,5.073365942026802911e-01,-9.524086721326447541e-03,9.833819995780833378e-03,-2.773895463013542617e-03,1.137972593307495117e+00
5.786411213623152139e-03,-1.363565340695872985e+00,1.024363202814687623e+00,-2.784418523544329727e-01,-3.665343729216084534e-01,-3.395284550296551185e-02,2.224073648452758789e+00
-1.864392234203035917e-02,-8.202064428833149012e-01,8.440706778970555879e-01,4.482389258692814904e-02,-2.446195819615573641e-02,-1.664354970935257028e-02,1.444628834724426270e+00
-1.742770283584977042e-01,-1.158503059847097338e+00,1.411880030113264572e+00,3.739751365368643721e-01,1.142749822613965960e-01,3.699857892501354478e-03,2.346171617507934570e+00
8.488504713656273848e-03,-6.069404568616777462e-01,7.459726642565434052e-01,1.037319913815050176e-01,6.498433415876665210e-03,3.635367940973663597e-03,1.186992883682250977e+00
-1.001669516121510284e-02,-8.280637208929625404e-01,7.006256940135439093e-01,1.218776963583977253e-02,2.512680684389906501e-03,1.164527960869594925e-02,1.325301408767700195e+00
-9.510940607907203415e-02,-4.843944590540396611e-01,7.900041769443507667e-01,-1.656272649368198402e-01,-2.708022125845156031e-02,3.268620282249852516e-02,1.169287323951721191e+00
-2.251282057249496399e-02,-7.719708250172925279e-01,7.955622103973820636e-01,-2.427651481785501430e-04,1.236473739086215405e-02,-1.129863004982702450e-03,1.358127236366271973e+00
-1.413733555584761707e-02,-8.190875610890215874e-01,8.049587424634361277e-01,1.149451550207015310e-02,5.764748825788620738e-03,7.252344262292025751e-03,1.406715512275695801e+00
-6.711375699640659276e-02,-8.689663088318653195e-01,8.865502851432546239e-01,8.322105405140349868e-03,4.558055204235131504e-03,9.002321330543066637e-04,1.522305250167846680e+00
-8.049293317241189294e-02,-8.434881650929596519e-01,8.507297683620989037e-01,-7.792296049262925975e-03,3.154691093522587336e-02,3.097693369672412794e-03,1.470731973648071289e+00
6.274908050836847107e-02,-8.015773039906552988e-01,4.746279829099414593e-01,-3.474672184621228292e-03,6.275400598809700858e-02,-1.730963582236824672e-02,1.133777499198913574e+00
-1.409778322100891934e-01,-1.052600922190607191e+00,1.253799687972159793e+00,3.699401221431127817e-01,2.376753303319781296e-01,1.742658874066472033e-02,2.151492357254028320e+00
-7.428978775924875710e-02,-1.003991024395249454e+00,1.043178294899049563e+00,2.569804762113056182e-02,1.303350131427658508e-02,-1.565598011009591145e-02,1.776293039321899414e+00
-2.518335813392707720e-02,-8.324342451633797157e-01,8.448451526913427490e-01,1.512626340245822563e-02,-3.142794320801322542e-03,-2.271875928155058042e-03,1.453157424926757812e+00
8.205901969999995771e-02,-8.111542135265680242e-01,4.525110896019911566e-01,4.655642188567436714e-04,-4.243051476839179714e-02,-3.509407077270354502e-02,1.129182815551757812e+00
-1.168298031058311870e-01,-4.465188585050509085e-01,8.679113142926070390e-01,1.660880506270591694e-01,-1.545685633321116359e-01,-7.288277906350681956e-02,1.254366040229797363e+00
4.348239323916211485e-02,-8.063712578203069414e-01,4.945017866720150534e-01,-1.241753750506461619e-02,-4.535168936299490555e-02,-2.315689920071187582e-02,1.147698521614074707e+00
8.847034914057977373e-02,-8.092405363664464391e-01,4.272312488021328125e-01,-5.495742830496529695e-03,5.344811751387132381e-02,2.885353976759988046e-02,1.111715555191040039e+00
1.031190209932059954e-01,-8.146278360797295504e-01,3.716660723230959529e-01,-1.048044006256508478e-03,-1.501248105072004735e-02,-1.450338604698538786e-02,1.078028559684753418e+00
1.705838867674602244e-01,-8.973379332135329456e-01,1.970720798724219236e-01,1.924994390127046998e-02,-9.951969656831138877e-02,-7.910153035107861386e-02,1.104102015495300293e+00
-1.559092866193774463e-03,-6.868140931538732064e-01,7.631306380608419149e-01,3.088257882614974317e-02,7.745733951972053576e-03,3.293028062168983430e-03,1.257539629936218262e+00
-1.302162683878510530e-01,-1.409737240441380601e+00,1.455266556773465725e+00,8.400734238106048746e-02,-6.927376355234887706e-02,5.377912301602062435e-04,2.493021726608276367e+00
-8.009474977746688928e-02,-8.297865006019554679e-01,8.482447215296341492e-01,-1.913489352222885178e-03,-2.316970664117208242e-02,-2.146383014414859468e-03,1.456521749496459961e+00
1.198153858930060545e-01,-8.261741391977690530e-01,2.742576260682981770e-01,-1.333320436547916904e-02,1.163055233560777030e-01,3.558861157444833528e-02,1.053452968597412109e+00
-1.893345292217271658e-01,-2.232118799349848692e-01,7.312163340074181450e-01,1.375565922408894873e-02,2.224242510871525177e-02,-3.606402379007802878e-03,9.390624165534973145e-01
-1.717233926315131498e-02,-8.354512912835289073e-01,8.311181184718562376e-01,-1.597294239021194648e-02,-5.724671490182926988e-03,5.264955166418569012e-03,1.443697452545166016e+00
-1.358317802795689644e-01,-4.668028841949715124e-01,7.577839455988111261e-01,-3.567292818917571634e-02,-6.184709559369253214e-03,3.041768068986738099e-02,1.100254535675048828e+00
-5.991758034274221462e-02,-8.514493879627997863e-01,8.669055352380559132e-01,-7.847002082297709069e-03,1.263005683804463083e-02,8.992880881843776791e-03,1.489979743957519531e+00
-1.669719156861031173e-02,-8.275310236432767974e-01,8.202479045990425099e-01,1.239695713831046866e-03,-3.706020929225851187e-03,1.077370646504027362e-04,1.427094221115112305e+00
1.937598616657057460e-04,-7.985546155631961796e-01,8.311839033915615627e-01,2.766557527295171459e-02,-1.660906898919121619e-02,-2.164706603012018105e-03,1.412598133087158203e+00
-2.962641427793450549e-02,-8.035426453298915028e-01,6.772491973807752697e-01,1.568837070609402362e-02,-1.358509770452873740e-03,-2.934121108639230029e-03,1.283141374588012695e+00
-1.954987250033709406e-02,-8.418083413447797758e-01,8.653343110006233019e-01,2.024506937441523241e-02,1.328088779586373593e-02,9.986577995248669889e-03,1.479456186294555664e+00
-6.293110333961285385e-02,-8.747889650512764570e-01,8.999540760827023922e-01,6.353223978555310857e-04,4.072443155683935605e-03,-7.053148233516791377e-03,1.538891553878784180e+00
1.009789464486605670e-01,-9.113367145176021200e-01,2.600267211950819113e-01,-6.185224113601187762e-02,3.018608442353883092e-02,-9.323108822217855696e-02,1.118647694587707520e+00
-8.300956959111539801e-02,-8.142769767350955812e-01,7.814277126642916738e-01,9.084301067301939116e-04,1.121559249960191705e-02,-2.700827110185423981e-03,1.383669137954711914e+00
-8.626574466510200656e-02,-8.244868899850379407e-01,8.151754065487128997e-01,-2.618705228083825949e-03,2.260775897217620622e-02,-7.233065393275627019e-04,1.422879099845886230e+00
1.198399657180723547e-02,-7.639034681426062345e-01,7.745080227850059673e-01,5.979079554504994863e-03,6.708692883083698655e-03,1.430226031018715094e-03,1.332413434982299805e+00
-1.466195727041542107e-01,-3.598834916254028959e-01,7.329596334128058999e-01,-3.776389923857925387e-05,8.231459450679016673e-03,-1.544666374240134636e-03,1.003461003303527832e+00
-2.375529989621652516e-02,-1.265911430368519497e+00,1.018748882993176785e+00,2.642708282282287269e-01,3.723079859497516741e-01,-4.484986547088354314e-02,2.134505033493041992e+00
-1.850555428612467301e-02,-7.913433306688337776e-01,6.113769528437726919e-01,8.112558771295458673e-03,8.726860915751729134e-03,2.144198767571561803e-03,1.217073082923889160e+00
-1.511937668216465358e-01,-4.369427745436316735e-01,7.489909043728170124e-01,3.286722671025767151e-02,8.751339754107018490e-03,1.770698951305172894e-02,1.074068427085876465e+00
-6.633004940862517740e-02,-8.237878519978122371e-01,8.040523662746269506e-01,-3.348977378764474155e-03,1.282932201899533546e-02,9.293199488496542079e-03,1.411159873008728027e+00
-1.804308211614235047e-01,-4.425823093126797225e-01,8.486334287116952257e-01,5.711166347925119430e-03,2.876269211596139790e-03,6.134978251834866114e-02,1.186963081359863281e+00
-1.461706092330991025e-01,-2.398026094290987009e-01,7.030578080067637625e-01,3.673644742111716738e-02,9.129970654802649008e-03,4.471991451371552101e-02,9.054110646247863770e-01
2.659257118755256610e-02,-7.815965917637047733e-01,7.738644259385057955e-01,3.488790517296145016e-03,4.316078940582093325e-04,1.670873734679273817e-03,1.347429871559143066e+00
1.148172829460257227e-01,-1.332885894971356011e+00,4.821918496525986475e-01,1.848416001712087087e-01,2.001752312840374692e-01,-1.495971787153070054e-01,1.747142076492309570e+00
2.327055702144514848e-02,-1.372407884415731694e+00,1.015699726655381108e+00,-9.119618137263779678e-03,2.871841157453604576e-01,4.374390229198332758e-03,2.136744499206542969e+00
6.456911607088422489e-02,-7.896264825254768471e-01,4.714206294390925756e-01,-6.116139547053578256e-03,3.778036322254454266e-02,-9.370201725138641718e-03,1.116855740547180176e+00
1.302600479560481195e-01,-9.119263150591188083e-01,3.084997597039417783e-01,-5.058286620558444420e-03,1.044346932330916661e-01,4.022979930761881595e-02,1.158159136772155762e+00
-1.297373214723007012e-02,-7.530884223812960299e-01,7.805815096556137922e-01,3.323576457927375125e-04,-2.311559779473053647e-02,-3.912787642550249155e-03,1.329086422920227051e+00
-1.641849454785038187e-01,-1.134001656296890759e-01,8.959067786880420270e-01,1.111617015791564050e-01,4.337859726256428072e-02,-7.734413538462144022e-02,1.064518332481384277e+00
-5.065350709262696899e-02,-8.358536757102557058e-01,8.164663433926150349e-01,-3.944102191896406429e-03,-6.072664543043102860e-03,3.964255821560773267e-03,1.431608676910400391e+00
-4.010935592542010097e-02,-8.179404967043613084e-01,7.968196481851846924e-01,-1.466943156051013757e-03,-1.050853519929061640e-02,-3.229487650903302681e-03,1.398867368698120117e+00
-2.175424026467141433e-02,-8.300675225475938612e-01,7.201700520639943148e-01,5.072841998164798021e-03,1.320313835197465266e-03,2.533517793291927694e-02,1.343702793121337891e+00
2.711000038253962366e-02,-7.740251889116128714e-01,7.682929554697914831e-01,3.639347364237508885e-03,5.392454764780755735e-04,1.336749425732725811e-05,1.336038231849670410e+00
-1.065663594406141279e-01,-3.585650424622617849e-01,8.034513048023178561e-01,-9.327749427361511914e-02,-8.178941369043639387e-02,-1.010039720420487230e-01,1.094410657882690430e+00
-4.745520563231588052e-02,-7.304092528045479371e-01,7.799288536812377659e-01,-1.323327659736566603e-02,1.393968673379569062e-02,-4.021297012311687152e-02,1.312255859375000000e+00
-1.513408228742758044e-01,-4.632119347412956278e-01,7.501418358273328479e-01,8.444772125148690368e-04,3.641843929870532213e-03,8.729519936378033959e-03,1.091490507125854492e+00
8.246046301166187753e-02,-7.890831999901590788e-01,4.276594911028811508e-01,-3.037873597631109276e-04,-3.926858300175549432e-02,-3.128992283872010678e-03,1.088238239288330078e+00
-1.207479160417027630e-01,-2.931043340459915658e-01,7.357935483550550604e-01,-1.267880002603442025e-01,-4.371726840312142176e-02,-1.452506889021731515e-02,9.826456904411315918e-01
1.196692774105036217e-02,-7.999395989590420974e-01,5.642590336692200337e-01,1.146368991123516284e-02,-8.716842603535191261e-03,-8.935695716400760772e-04,1.188803195953369141e+00
-1.279602367363447402e-01,-5.834931241723986250e-01,1.040398720988306547e+00,-2.239565074627421493e-01,-1.463580383637620996e-01,1.205639589831002112e-02,1.523143649101257324e+00
-3.878022086842446148e-02,-8.522008093868665979e-01,8.542278958981252002e-01,4.802560503842827691e-03,3.983955106975131839e-03,4.428435845278777625e-04,1.478386044502258301e+00
-8.530115845797181517e-02,-7.072999492024454327e-01,8.070331194418968179e-01,6.349947389803070781e-03,-1.394431451322563666e-02,1.649218610052680112e-02,1.318974614143371582e+00
-7.622086154007838565e-02,-5.728138560345343855e-01,7.543352889308904130e-01,-1.001779357394116596e-02,2.162541231221376190e-02,4.391177032929494649e-03,1.162169694900512695e+00
-1.579421431648701801e-01,-3.476008744511501214e-01,7.245268247173874965e-01,4.765478469534361119e-03,-9.029878514263334904e-03,2.170410232521693093e-03,9.911693930625915527e-01
-1.249201847442702185e-01,-3.741128041819077876e-01,7.186711612904281843e-01,-4.871036708966909601e-02,7.476583545924364062e-03,-7.509544481744877438e-03,9.956982731819152832e-01
-9.629335433406319145e-02,-5.622533898675831088e-01,8.503366666680810537e-01,-1.107895866962926579e-01,2.808512720044651495e-02,-1.122501372780634471e-01,1.277226924896240234e+00
1.126696935079654627e-01,-1.196721755357158079e+00,5.665942058052814145e-01,-1.466609656539042406e-01,-3.878492630229259941e-01,-3.566172315116761249e-02,1.741994023323059082e+00
-9.083353390733681088e-02,-8.247777148322130714e-01,8.158129239339815264e-01,4.446593828603489194e-03,-3.563021180780555353e-02,1.770398671617870803e-02,1.425102710723876953e+00
-3.687717754990089969e-02,-8.166163673404748247e-01,8.137178748108377935e-01,-2.691069273100728590e-03,2.218572763491908836e-02,-1.751744269631680872e-03,1.412888884544372559e+00
8.593630910695593261e-03,-8.064254762497177209e-01,6.114919390993578396e-01,1.438677562274505439e-02,3.781823799273187695e-03,1.195273484234470919e-02,1.232967376708984375e+00
-5.066578178776928038e-02,-8.568435641226568311e-01,8.531893649117627820e-01,-3.281651384139253405e-03,-9.937405319033686905e-04,3.933466791884900580e-03,1.481764554977416992e+00
-1.220047469489029257e-01,-4.467784120611666410e-01,7.465485689865826169e-01,2.823749440984838627e-02,-2.514586104077496526e-02,-4.982734030874910042e-02,1.074096560478210449e+00
-4.756854033375444019e-02,-7.784038077066925965e-01,8.004202170467684674e-01,-5.970332681271034881e-04,-1.535443478339435647e-02,-1.896959063248313850e-03,1.368818640708923340e+00
-8.895427168627281778e-02,-4.460818414954949018e-01,7.206843765969569438e-01,-1.398083308504953666e-02,-1.282625675245622696e-02,-2.044023050059679339e-03,1.035997867584228516e+00
-1.525253629071162131e-01,-4.354005720135077917e-01,1.183122032238312915e+00,-1.956111321078896348e-01,8.284849105444462569e-02,2.099025620416373247e-03,1.541813850402832031e+00
-1.377343802997468836e-01,-4.053496002710364476e-01,7.563569618921082149e-01,3.884251261561712243e-02,-1.484436562392746177e-02,-2.422508867611685227e-02,1.056994557380676270e+00
-1.223236865235280968e-01,-5.268615612713611895e-01,7.594472751010044043e-01,2.568770552782101077e-02,-2.449492854695850194e-02,1.506778980213391121e-02,1.141201734542846680e+00
-1.266726681192794635e-01,-3.398578691458596923e-01,9.189808330497277744e-01,-1.516977889847015981e-01,-9.670550386718300417e-02,5.682551185573380542e-02,1.211832046508789062e+00
2.542600123234345366e-03,-6.458096173577964061e-01,7.493241657099756203e-01,3.648513066420980278e-02,7.654101136370965695e-03,1.091973188863159909e-02,1.211093664169311523e+00
-3.996546186117091309e-02,-7.776048621464179966e-01,7.302485732166026366e-01,5.541201658747479247e-02,3.814132464535319178e-02,3.149879411498164583e-02,1.312262892723083496e+00
-2.952647323847660751e-02,-9.182778260034284434e-01,8.143406986569723394e-01,-6.192100515445680964e-02,9.119837518413921595e-02,6.918070507389964541e-02,1.517494916915893555e+00
-1.129395263867688237e-01,-5.966411557674290433e-01,7.814140047253771426e-01,-4.481124944154575443e-04,1.925048745299062780e-02,-4.109416914335738136e-02,1.213513255119323730e+00
-2.740972603039338457e-03,-8.183425881549956094e-01,8.237266055550418464e-01,-1.948560034489297058e-02,4.077573909609041002e-03,-4.625718344234021513e-03,1.422524571418762207e+00
-3.162454879244176731e-02,-7.920401644090073745e-01,8.023551240185884392e-01,2.409361878336385016e-03,-2.352218636141815283e-02,-5.082873377194595775e-03,1.381911754608154297e+00
-4.579077552124182285e-03,-8.350823373942692918e-01,8.311738383530125063e-01,-3.206886405309614801e-03,-4.223302655905500011e-03,7.927667162235606246e-03,1.443117141723632812e+00
-4.355691084360532872e-02,-8.260028961566805439e-01,8.258615670847433421e-01,-7.327882944429565774e-03,-1.307057453715261899e-02,4.231650245052912852e-03,1.431471467018127441e+00
-1.196438355020310040e-02,-8.207205134410241465e-01,8.052925419585320599e-01,-1.109386353864066747e-02,-3.625792111947452687e-03,4.582904057079833539e-03,1.408342480659484863e+00
-3.926061489896437440e-02,-6.969309971696299177e-01,7.752132081775258143e-01,-4.238851891419902380e-03,2.976533749749130792e-02,8.129955041529737456e-03,1.278461337089538574e+00
-6.621530204679659803e-02,-3.904402478657104658e-01,7.157711810026760046e-01,-1.629557389328883388e-01,2.017208532321029639e-03,1.080451950564136933e-02,1.024787902832031250e+00
9.742526767636347507e-02,-8.043927530328645048e-01,3.677065029663734719e-01,4.587605344252583387e-04,5.103366272431124340e-03,3.276109598923573202e-02,1.064598917961120605e+00
1.008926021599868827e-01,-8.121067403313886324e-01,3.730806478737133114e-01,9.040198743180148655e-03,-1.392406168470692457e-02,-8.606974485014559639e-03,1.075737237930297852e+00
4.960953906672987967e-02,-8.336794114904628739e-01,4.860594401998722391e-01,-2.412791338124490800e-02,8.139301309995318479e-02,1.117086398977842551e-02,1.173965334892272949e+00
8.785145966739105194e-02,-9.753428875199025017e-01,4.497254919959274844e-01,2.175180328010492114e-03,1.623795091925284706e-01,3.523049686545974904e-03,1.313480138778686523e+00
1.187209228046957055e-01,-7.878968758487693291e-01,2.009542540988141224e-01,-9.858607323690211921e-02,1.620775726489409596e-01,1.600709243252414204e-01,1.043123006820678711e+00
-7.338910352532590498e-02,-8.274117201349197037e-01,8.441542331389451093e-01,-3.208976332004682963e-03,2.562442241352118344e-02,2.853626176237345196e-03,1.450623869895935059e+00
-5.952465479581614538e-02,-8.430344562121554475e-01,8.739914689087466826e-01,2.043747651783138584e-03,1.634116004138309181e-02,6.375265403579986889e-03,1.489192605018615723e+00
-1.504018491169212823e-01,-3.822387430870680669e-01,7.353449530366396036e-01,5.950132616941209394e-03,-4.751579293477746144e-03,-5.270077469367524109e-02,1.025743961334228516e+00
1.029857036730944253e-01,-8.277536586514449013e-01,3.860515912914801451e-01,-4.128800366289780803e-03,-4.389267896252434936e-02,-8.908583725161392172e-03,1.102692842483520508e+00
1.010035539802448534e-01,-8.135780292507596156e-01,3.168246438541921783e-01,9.867989462878546877e-03,5.912977145658281780e-02,-2.008960287469527956e-02,1.045187115669250488e+00
1.354425784066494720e-01,-9.400349710357875921e-01,2.776278959826338766e-01,-1.022533597684752507e-02,1.751080423580370915e-01,-5.183125089795720397e-02,1.195887684822082520e+00
-2.375748971913076851e-02,-8.287057379424331849e-01,8.093891163201109018e-01,-3.592137171149298747e-03,1.266356439571836615e-04,-1.728330070721915664e-03,1.418718695640563965e+00
-1.460596192511087743e-01,-3.442414160447050953e-01,7.134316803993970835e-01,3.159504950320295158e-03,6.051435741240789425e-04,-6.527802105261651909e-03,9.739074707031250000e-01
-1.393166812728219295e-03,-7.943106831545792001e-01,7.897546299051109164e-01,2.358017497544743265e-03,7.138367319247327855e-03,-1.521183578469887613e-03,1.371905446052551270e+00
-1.146744106314624145e-01,-6.912865777901604503e-01,8.151786049256248834e-01,2.323843699062731500e-05,1.927890256830214546e-02,1.618006035384116428e-02,1.317259788513183594e+00
-6.505387046885037494e-02,-7.580877009239955777e-01,8.104301664007750317e-01,-4.762938755935968967e-04,1.901905558044068856e-02,-2.421116246761307461e-02,1.362480282783508301e+00
-1.601941668628950322e-01,-3.721556897174245759e-01,7.292878323958515985e-01,-1.777336466652930727e-02,-1.052952379264102123e-02,6.739061706570129845e-03,1.012945413589477539e+00
-1.708957675108649377e-02,-8.118758696885460813e-01,6.598035785574172252e-01,-8.801103022704714202e-03,2.719364159981429649e-02,-8.618122851887580205e-03,1.276921510696411133e+00
-1.244371859779291878e-01,-4.984284957917954895e-01,7.900048892511777332e-01,3.249323188152167252e-02,-1.931025726265298698e-02,-1.111128463258692078e-01,1.165929436683654785e+00
-1.078318422223179529e-01,-3.789271761795238724e-01,7.263640524857548630e-01,6.493791501574991409e-02,4.326459768462190963e-03,4.683130813825588275e-03,1.004138827323913574e+00
-1.313257095900373095e-01,-1.917426781843653560e-01,1.148585523017374488e+00,-7.655483453230609026e-02,-1.747051873959082346e-02,-3.536289165715445632e-02,1.319621324539184570e+00
-5.628979419613665269e-02,-6.219916931285726092e-01,7.872264722708567364e-01,1.229426902699153890e-01,1.600995348451943537e-02,4.498747118273508511e-02,1.249360799789428711e+00
-1.531451121718894748e-01,-1.035069541459320841e-01,7.098789759204643390e-01,5.114265760123734572e-02,5.768047070970496598e-02,2.049687013103074565e-02,8.506020307540893555e-01
-1.033180113389929045e-01,-4.186058105545966690e-01,7.882325699726904222e-01,1.760546932020482236e-01,1.542826068089817593e-01,-5.019799672894137421e-02,1.160740494728088379e+00
-1.268677004878369652e-01,-2.941152636846507407e-01,7.914420263819216261e-01,-1.268761778567406573e-01,3.988716492573737143e-02,-5.998992849746929978e-02,1.043413400650024414e+00
1.310429937462494199e-02,-7.963418171838665405e-01,7.847162161912667466e-01,1.085650633886016923e-02,1.684869850128500662e-04,-3.931535887002753256e-03,1.369513154029846191e+00
-6.507487578461126909e-02,-8.896789378398122228e-01,8.937211237622342264e-01,2.326673816372963231e-04,3.782748680511448941e-02,4.119278101781498683e-03,1.547330737113952637e+00
-4.765917314841350283e-02,-5.844990635096651843e-01,7.561042615062010253e-01,8.733131160482841826e-02,2.158390509597992379e-04,1.634721505240614020e-02,1.178731203079223633e+00
-2.043587736160895618e-02,-8.207347364561359271e-01,8.201895681737045862e-01,1.074233623850623202e-02,7.711857914609450589e-03,2.114122970665945588e-03,1.421414494514465332e+00
-1.613501978414292326e-01,-3.916182510722464039e-01,7.380379828462327874e-01,-1.944121701961427917e-02,-1.312203936307825350e-02,-5.652718577653775833e-02,1.039355158805847168e+00
-1.368262988466565355e-01,-4.110069882690166043e-01,7.316329703455525246e-01,-4.294403314003342881e-03,-2.520106326974374047e-03,2.438705937832333923e-04,1.033240437507629395e+00
-7.090140837015936059e-02,-7.011193691890835744e-01,8.019364117038538797e-01,-1.834926879075403795e-03,1.407116418693677914e-02,-1.807112559786063638e-02,1.307930588722229004e+00
-8.457332178743981466e-02,-6.742925960736864122e-01,8.001703654197662718e-01,-1.407523819414849796e-02,2.173002462468792695e-02,1.249828114967561866e-03,1.286198377609252930e+00
-5.449363255694095187e-02,-5.933995274742314141e-01,8.143709815100719229e-01,8.641702346965501880e-02,-5.887121142795932564e-03,1.055896525583937401e-02,1.239525556564331055e+00
-9.452238194845545560e-02,-6.775216140993061131e-01,8.045705011928503403e-01,3.935584655171303625e-02,1.968778900798165768e-02,2.422765504928025768e-02,1.296146988868713379e+00
-5.686649545731345401e-02,-6.729988732615462821e-01,7.953114384372536039e-01,1.326769391849285940e-01,1.806428802144233528e-02,3.509339766523462273e-02,1.299370527267456055e+00
-8.817704307339087333e-02,-8.157401938180789402e-01,8.160114646634725188e-01,-5.879584162129463483e-04,2.158770094998380129e-02,9.978572307406971195e-03,1.416494607925415039e+00
-3.954837881036512431e-02,-9.566615040834033357e-01,7.363706023861734673e-01,8.464373212486853279e-04,1.418710695381162068e-01,2.433774918875486817e-02,1.488930344581604004e+00
-4.291093813834353371e-02,-9.457458801363241019e-01,8.682035103301567469e-01,-8.575869966857699311e-02,1.668089970131439448e-01,-5.441320396514974511e-02,1.606937527656555176e+00
-1.364952753109526240e-01,-7.279789649587130596e-01,1.140775465782273068e+00,2.623718875598141098e-01,1.599741045266640793e-01,4.217774986407056559e-02,1.739364027976989746e+00
-6.130254791871465880e-02,-5.383247357854611392e-01,7.532559283362958436e-01,1.122124305663516342e-01,-4.329940059270231630e-04,6.170026118374916969e-03,1.147827386856079102e+00
-2.130474984679706085e-02,-7.277037652130659007e-01,5.593888710200530801e-01,1.597228843227498640e-01,1.916910323708356789e-01,-1.313876006405866603e-01,1.218591332435607910e+00
-1.290504061561633387e-01,-3.954446921111753332e-01,7.488633877476753575e-01,8.612610937504390496e-02,4.363375904774571303e-03,7.276265632526081328e-02,1.055349826812744141e+00
-6.275265990018041862e-02,-7.853201908214013649e-01,8.144262781423330377e-01,1.382082196880294114e-02,3.060862931209972632e-02,4.392671305855401498e-02,1.390877485275268555e+00
-1.335303526432304599e-01,-3.208113526661097170e-01,7.744353497999195701e-01,-7.344554896796888499e-02,-1.488230367313230808e-02,-8.974591698021645858e-02,1.034664630889892578e+00
2.498152516170657617e-02,-7.657276002902375645e-01,7.680616712999944751e-01,1.780339034415159838e-02,-6.164938250004511682e-04,5.256540841959873867e-04,1.328872561454772949e+00
2.408246163490676550e-02,-8.670455502289343697e-01,5.793425383946346763e-01,9.835924666635022240e-02,1.692592283897252359e-01,5.272391981838944752e-03,1.308542609214782715e+00
-2.801858750776184057e-02,-7.909421904711988471e-01,6.433852221784985836e-01,-6.038633701881716657e-03,1.018466733278961846e-02,-3.643856617362147519e-03,1.243191719055175781e+00
-1.513950867677311685e-01,-1.517622058107091498e-01,9.433757120447249234e-01,-1.257315691142905645e-01,-1.154896466542955497e-01,3.613868845933413537e-02,1.135905861854553223e+00
-1.520929936513469305e-01,-3.213008983196285473e-01,7.241424663046736043e-01,-4.886844740588620374e-03,-7.500599851128620862e-03,2.898933242143075795e-02,9.733691215515136719e-01
1.121277853988530103e-02,-7.355633638194353230e-01,7.636211345557512020e-01,5.766721475197787716e-02,-2.620541038994632713e-03,-3.808373092906318694e-04,1.302179336547851562e+00
-9.605357245016446499e-03,-8.327137243153416302e-01,6.944968744434816266e-01,-1.157004451666532666e-02,-1.340551619946686156e-03,-1.946891613077383898e-02,1.324524044990539551e+00
-1.119083505060947670e-01,-6.677230349053414615e-01,8.241351026500649546e-01,2.045430947502882915e-02,-1.570631352027688707e-02,-1.306945453659663914e-01,1.326126813888549805e+00
-5.304844264372904350e-02,-6.919754710016688959e-01,8.063218729571539622e-01,3.560615089511461745e-02,-3.630827044481042820e-02,-4.060727601137819470e-02,1.307105660438537598e+00
-3.376443368936395129e-02,-8.126698930781061092e-01,6.922298114033267336e-01,-1.506782782867762023e-02,3.328799837131390157e-03,-4.200593483771217392e-03,1.303844094276428223e+00
-2.909144955804015067e-02,-8.113290876283310027e-01,8.058831035364587558e-01,-8.161104190695927119e-04,-1.485936360077817417e-02,5.261823623009888144e-03,1.401061773300170898e+00
5.225280646630314080e-04,-7.968007148421083485e-01,7.888360062552599583e-01,-5.218842905544842465e-04,-7.406712266820686397e-03,-2.699349567905962467e-03,1.373277306556701660e+00
-1.230598118977338229e-01,-3.229423834558701745e-01,7.370025555432087039e-01,-7.892686177958434246e-02,2.606612430729026569e-04,1.427092155708084694e-03,9.850210547447204590e-01
-1.569504132638637195e-01,-1.028337470248560925e-01,7.287676586008496882e-01,-1.267807531565242618e-01,-5.976427506529134737e-02,3.207961463275565105e-03,8.935654759407043457e-01
-9.360667510539430469e-02,-3.298215546019637734e-01,6.800601546029817479e-01,1.640007857387884918e-02,-7.119766580880848572e-02,-9.779041767175720989e-02,9.390487670898437500e-01
-1.942982723781796484e-01,-2.086255298739627673e-01,8.379432619277498162e-01,1.312511438790478664e-02,1.633575483570296263e-02,5.121418707582003904e-02,1.043888449668884277e+00
-1.157552353664553224e-01,-6.345395269303588659e-02,1.068811147912555715e+00,1.518819409735689685e-01,9.546683000856866219e-02,1.891132722888326512e-01,1.244112610816955566e+00
-3.757973155846801999e-02,-7.121965227069254611e-01,5.317586782947193447e-01,6.750495676400573852e-02,5.135814192903041114e-02,-1.399700522654952484e-01,1.115212082862854004e+00
-1.655553655868167162e-01,-1.647102480064344121e-02,1.244798692895905390e+00,1.902171915763599397e-02,-5.824714118005050456e-02,-2.810578326242521487e-03,1.346235632896423340e+00
-1.692003537662350454e-01,-9.319936683176005543e-02,8.509762238272493562e-01,-1.234966445490347231e-01,2.721313149594972378e-02,-1.518397080451165393e-01,1.042182207107543945e+00
-4.404231685232862237e-02,-7.760774926812649133e-01,8.141074259330149943e-01,2.353949872713386599e-02,-5.786962625951519446e-03,4.227323755149762358e-02,1.381164789199829102e+00
-9.003730830017414588e-02,-9.712519940367803084e-02,7.638723400727100987e-01,-4.690608238733275093e-02,6.157694745324664154e-02,-1.240396160368584764e-02,8.681598901748657227e-01
-8.322170986146984473e-02,-1.098244121090236503e+00,1.101012140387189087e+00,-3.444651406198288024e-01,-2.662278778996860495e-01,-5.603771009659277297e-02,2.052492380142211914e+00
-2.213463206346741666e-02,-8.575336492403643485e-01,9.014364201895584960e-01,-5.297455656375617272e-02,-4.132500241060066762e-03,1.056249208381440565e-03,1.526728153228759766e+00
-4.020201821135371834e-02,-7.624490293544740060e-01,8.001921775197542441e-01,1.123224251126409088e-03,2.602476876104408213e-02,1.003496687530746646e-02,1.355438351631164551e+00
-2.935787257599805494e-02,-8.317055914105995207e-01,7.447565624007067564e-01,1.235057779715075139e-02,2.718973861349004238e-03,1.613552401925928692e-02,1.365790963172912598e+00
-2.483399586687339011e-02,-8.238000225600594639e-01,8.020418862979118435e-01,-1.630370163007130706e-03,8.553614866243007195e-03,2.264055440081170784e-03,1.408175826072692871e+00
7.475408722264592978e-03,-8.107456337899182630e-01,7.898269654870905265e-01,-6.773826681828905988e-03,9.506835743181633576e-04,4.309509209054607388e-03,1.386323332786560059e+00
-3.863510952756449984e-02,-8.313489451901280303e-01,7.569067965693196953e-01,1.459929088011104742e-02,4.515210046077561441e-03,-7.544606875744192150e-03,1.375787258148193359e+00
-4.740823147727164094e-02,-8.163421932195095154e-01,8.164555884769867378e-01,3.078775730251582469e-03,1.556250574430265675e-02,4.661761364500188222e-03,1.415130615234375000e+00
-1.362967789022936638e-01,-3.084575271281370101e-01,7.327406038350152695e-01,-6.287661735048967471e-02,-1.058591876008466073e-03,-4.833103925477378812e-03,9.728377461433410645e-01
-1.606051040220051185e-01,-3.163841948642873159e-01,7.260594180213981730e-01,-6.274915398667754891e-03,-6.169787891362518012e-03,2.618139903611044206e-02,9.751172065734863281e-01
3.724486551544832491e-02,-7.401003138220652033e-01,5.754464870370137319e-01,-2.224259419808755356e-01,-2.688365050389473487e-01,-2.518261819345181049e-02,1.295930743217468262e+00
-6.430511160286833672e-02,-8.108139257500460717e-01,7.406727316750996160e-01,8.989247249079566557e-03,-1.669851614946078842e-03,-7.446281244478707368e-04,1.344038724899291992e+00
-7.632287404375212581e-02,-8.068996018618744825e-01,9.002510730506438907e-01,-2.710974580392127575e-01,-2.313110285075202777e-01,-2.306737390903452339e-02,1.607324957847595215e+00
1.172655286027296170e-02,-7.841274946451215477e-01,7.832572385537628357e-01,3.769104175377998699e-03,-1.207239694539924630e-03,-5.203355653655451600e-03,1.357496738433837891e+00
-7.450726358474446531e-02,-3.975964342911266769e-01,6.735798670783045283e-01,7.156460721482608978e-02,-5.727803333709258898e-02,-4.942627866534932135e-02,9.686359167098999023e-01
-6.429023212324135039e-02,-6.172947610149545072e-01,7.121243695788586070e-01,-4.735969012942329442e-02,5.169587964955485102e-03,-3.046181411830567454e-02,1.160856246948242188e+00
-8.081066658094333832e-03,-6.775058342433635250e-01,8.079256248007472552e-01,-1.266720969722508194e-01,-2.257288342375100496e-02,1.669236145688669792e-02,1.307957768440246582e+00
1.246950670586925540e-03,-8.572387488957950996e-01,8.422544434532067692e-01,-5.474583104452009075e-02,1.277145556298688728e-02,-1.500783534007929998e-03,1.475049734115600586e+00
-3.825397200021900257e-02,-8.300955910802191307e-01,8.102105758196693763e-01,6.247490884563189481e-04,7.707026595655094760e-04,2.185521564031880828e-03,1.420835018157958984e+00
-7.719149779762439489e-02,-7.206622289155767414e-01,8.049693017272248063e-01,-1.815143293142751010e-02,1.262754617967125174e-02,-2.211173461153455311e-02,1.327720046043395996e+00
-1.606501064587188554e-01,-2.971507190453987479e-01,7.364485037208402529e-01,-8.341567215829599757e-02,2.158475764342116486e-03,-1.040579153743979336e-02,9.834054112434387207e-01
-1.601994997759563777e-01,-4.050317080605873588e-01,7.542437259786555215e-01,-9.599444829872219934e-03,-2.947938068521977796e-03,5.745106899291069907e-02,1.063126921653747559e+00
-7.184388432924113110e-02,-5.299258845070565771e-01,8.960719292814314230e-01,-2.738895174214301953e-01,-1.490150154872487698e-01,7.715838340299922826e-02,1.378262639045715332e+00
-1.480077103349717871e-01,-2.113918032306789652e-01,7.083952686696280976e-01,5.897001720881433345e-02,-7.658541764870163346e-03,4.336342742864699590e-02,8.988745212554931641e-01
-7.118002041352458620e-02,-6.671643469560644135e-01,9.277078529053935929e-01,-2.474666899871887371e-01,-7.123575832955408860e-02,6.035932422577749284e-02,1.469070553779602051e+00
-8.825475281435089803e-02,-8.293437877303480033e-01,8.432002706113546076e-01,4.037003958695368697e-03,-1.768776662734641500e-02,1.748031999841032774e-02,1.452245354652404785e+00
-8.296798943203123611e-02,-4.143522138927802634e-01,7.041188454282596432e-01,1.696057852202893096e-02,9.571048946157010781e-03,-6.356442867412306907e-02,1.001702785491943359e+00
-3.376129521481387175e-02,-8.270603335165511716e-01,7.095078983500822112e-01,1.958395763750078733e-02,8.988738736287945350e-04,2.716843161621784741e-02,1.332206606864929199e+00
-1.277518767959374135e-01,-9.274052092219897681e-01,1.311504561848076955e+00,-1.631182987019703101e-01,-4.370731559681101386e-02,2.089381420523211269e-03,1.986800789833068848e+00
-1.138030006792132010e-01,-5.953592662260780433e-01,7.804752912912044094e-01,-2.835196460963965159e-02,-1.176905665613565619e-02,-1.429366796232540635e-02,1.210667371749877930e+00
-1.937549230117133758e-01,-5.960947531825742107e-01,1.141465116142853731e+00,-3.642398299960531993e-01,3.753212852344096212e-02,-1.163914804091341210e-01,1.710199117660522461e+00
-1.627248169877666129e-01,-1.037431430841912361e+00,1.324420470019023410e+00,-3.488043876784360231e-01,-1.346404119167379509e-01,-1.415922740503629262e-01,2.181066513061523438e+00
-5.186859635564529392e-02,-5.995837981293560270e-01,7.458730267143811599e-01,-2.364680256858748553e-01,-1.267305042314184615e-01,-7.522334632617207195e-02,1.267370462417602539e+00
6.246170201816372836e-02,-9.474799208907006554e-01,4.910198897507132010e-01,-1.622938729612128095e-01,2.264239483149362575e-01,1.177349262545737546e-01,1.382341742515563965e+00
-1.038797646567634902e-01,-3.680760496207358123e-01,7.452804464956181985e-01,-8.415293777178388390e-02,4.249435128976673803e-02,-2.732910713444687903e-02,1.021822333335876465e+00
-8.374678267952043176e-02,-8.130602162668162380e-01,7.803912192566566652e-01,2.361354520084707476e-03,-1.502935289573160450e-02,5.851740823044395030e-03,1.381903409957885742e+00
-8.943694070729660273e-03,-7.911228177890149427e-01,7.922222081769191293e-01,-2.856967607897392680e-02,1.976706834176629110e-02,4.140411079241438155e-03,1.372588276863098145e+00
-1.165269334060344830e-01,-9.744695776470602144e-02,7.557392430286404839e-01,-9.518765243628789230e-02,1.454246891541657351e-02,1.548415506798755774e-02,8.792640566825866699e-01
2.145033820464100835e-02,-7.992136111393632891e-01,7.842673447148318377e-01,-7.866774449213558701e-03,7.034875909285313172e-03,-4.365008962794038154e-03,1.371782302856445312e+00
9.506333313880198366e-03,-8.139127177160894178e-01,8.204951423973547708e-01,-2.097951524368882673e-02,-8.030143426869138998e-03,8.026254225761529290e-03,1.416055321693420410e+00
-1.385670063763909110e-01,-1.431401084655204548e+00,1.489241898980693701e+00,-1.273128542910131333e-01,-7.318213008135143749e-02,-3.069918146794748878e-02,2.548173666000366211e+00
-9.873395116784502989e-02,-4.883495218847879737e-01,8.060091059441637507e-01,-2.997295085513630997e-01,1.384773530150864573e-01,-1.242985842370775314e-02,1.284666180610656738e+00
-1.123956016916902723e-01,-6.620943339469814726e-01,1.244832474710240833e+00,-2.326266649050793556e-01,-9.554690142547576925e-02,5.543840416531922027e-02,1.757628083229064941e+00
-6.371572538448010137e-02,-9.362917563966342005e-01,9.017953747741674908e-01,6.019302893530105621e-03,-7.093455380534276211e-02,-2.454554243002358971e-02,1.597840309143066406e+00
-1.235852445900521845e-01,-3.356837744584009187e-01,7.833314869276503112e-01,-6.942645124925715672e-02,-6.118888551065676876e-03,9.307511982643429382e-02,1.048999905586242676e+00
1.571471717185189410e-01,-1.289624434924571572e+00,2.724827422034959978e-01,-3.033081163950614514e-02,8.225463452397592523e-02,-4.905517344751357534e-03,1.515402317047119141e+00
1.300648636690589499e-01,-1.184501997000455331e+00,3.688643930970798568e-01,1.093950923344412796e-01,1.994267266710987863e-01,-1.204025913908805395e-01,1.515828013420104980e+00
1.251353211083241490e-01,-1.230865972198379676e+00,3.629417324281416501e-01,-7.732093298470750498e-02,-2.231245362964521528e-01,-3.018661453560421704e-01,1.630464911460876465e+00
1.937795559287379399e-03,-8.305827635431117795e-01,6.894402223861701984e-01,-2.958465935158363988e-05,-5.580448314948384218e-03,-1.105988963620662020e-02,1.318548560142517090e+00
5.055551314705980515e-02,-9.704494460609346396e-01,4.817721547224210754e-01,-7.641546264988356707e-02,7.667846369631745040e-02,1.296066622437917482e-01,1.324471116065979004e+00
-2.406704178709154207e-01,-9.132101396396925530e-01,1.385839520781746659e+00,-3.991315018078745447e-01,4.573694560035478779e-02,-4.238940255632944049e-02,2.163635969161987305e+00
2.108538513563458228e-01,-9.026846069467683309e-01,1.943963193409004031e-02,-2.129748484698894967e-02,2.226182720017033309e-02,5.289024885604130116e-02,1.036677360534667969e+00
1.151431642920628939e-01,-1.413335643115928741e+00,6.810418270741772639e-01,-4.442567768862325933e-02,3.304383273555731027e-01,4.143347294164821670e-02,1.964711785316467285e+00
-5.889562986424869834e-02,-8.205573218408486191e-01,7.635360821885394111e-01,1.380958216763334117e-03,4.678906993163052530e-02,-1.125845484518269921e-02,1.374732971191406250e+00
5.856739254360776581e-02,-8.362443435506951017e-01,5.336053904894261235e-01,9.468447697661700607e-03,3.678234957267817462e-02,-3.448926539736219682e-02,1.208021163940429688e+00
2.548902731432881041e-02,-7.803183106188740226e-01,5.216123095137213950e-01,6.988967973728813302e-03,9.473202646626918688e-03,4.752119508811388816e-03,1.138300061225891113e+00
5.164276069309364781e-02,-8.667158233567797687e-01,5.066787103602885534e-01,-9.635941610795136772e-04,3.356620656711151174e-02,1.982948084688674478e-02,1.213626265525817871e+00
1.912314400162284933e-02,-8.244820691697262172e-01,6.207108830502652275e-01,1.039373476044025413e-02,7.397745891507268023e-03,-5.751113978706623442e-02,1.261543035507202148e+00
-2.751591145586088083e-02,-1.067015307709391347e+00,7.571041724209786050e-01,3.136627145224017976e-01,3.373860443996225533e-01,-1.578919494049363381e-01,1.795335650444030762e+00
1.086979618811743098e-01,-1.360062099118776846e+00,6.777359520457517661e-01,1.897651282560096353e-01,3.759987472233330408e-01,-2.632033821637024245e-03,1.961891651153564453e+00
3.359058118728495967e-02,-7.944387518636731871e-01,7.745792522755946541e-01,1.540065305165756390e-02,-9.050000074347232899e-04,5.334088879177256021e-03,1.359800219535827637e+00
8.131603115825095096e-02,-8.101993133823345294e-01,4.340329910427231930e-01,-3.780352440063910070e-03,2.956725565923128130e-02,-4.027636476207869382e-02,1.114088654518127441e+00
7.614499883994316209e-02,-8.046429488913979799e-01,4.379182699070847118e-01,1.969338925587562489e-03,2.544121397464031709e-02,-2.483300709416342081e-02,1.108655214309692383e+00
-4.998994054604674608e-02,-8.563648465727947690e-01,8.885281530235826786e-01,2.875987129913335633e-02,-4.196651982897742217e-02,-2.024637745219758436e-02,1.515535831451416016e+00
9.387416137492887724e-03,-9.362910573090722499e-01,5.944150716192974082e-01,1.612008999717211566e-01,2.430162384092176553e-01,-1.894898341796054375e-01,1.467194676399230957e+00
-1.100317417653516039e-01,-1.392012701673199793e+00,1.450945687367445336e+00,1.057854895046614757e-01,8.204786541540988465e-02,1.695084629248400435e-02,2.477074623107910156e+00
8.729656667177621010e-03,-8.072672272202031651e-01,6.211354298650276773e-01,1.520803815421108325e-02,4.005691914895417698e-03,6.922470592625551075e-03,1.241571068763732910e+00
9.347953093500704913e-02,-7.773813123664303770e-01,3.745909405058329145e-01,4.921081982238314882e-03,2.850665220591552893e-03,1.181736575302145620e-03,1.040351986885070801e+00
9.117539424916115687e-02,-8.524329130170164026e-01,1.644480480141248813e-01,-6.525965066382942437e-02,-1.771263905169414843e-01,-4.581087992918661533e-02,1.038315892219543457e+00
4.568839019431264470e-02,-8.046544228823800937e-01,4.820394175979600959e-01,1.645186368978919511e-02,2.763540058611957048e-02,-4.657757223594635732e-02,1.137604832649230957e+00
7.594109602211207566e-02,-9.303061772385623485e-01,4.541814613669609146e-01,5.802595233622113990e-02,1.488015882156014658e-01,-3.475742670191219602e-02,1.271358966827392578e+00
2.519369811227506473e-02,-7.930703688422255926e-01,5.341252729209539085e-01,-5.195438499499597206e-03,4.427545833409444499e-03,-3.007143856178666908e-03,1.159816741943359375e+00
1.203129110922905309e-01,-8.792924985750373290e-01,3.936459824591905798e-01,-8.494568267829802691e-03,-3.159507950140233445e-02,7.477870792224125887e-03,1.162121415138244629e+00
-8.612742879495630111e-02,-8.153195360294374083e-01,1.025026548282326644e+00,-1.596959716018514774e-01,-1.217669354585165613e-02,-2.732358173286676684e-02,1.629669308662414551e+00
1.000814160833311817e-02,-8.086945648326128167e-01,6.142505580102712859e-01,-1.214357356787283682e-02,-1.575914787273346431e-03,5.915555172913956883e-03,1.237187385559082031e+00
-1.770977473130441182e-01,-3.071945018494364188e-01,8.189830987704345144e-01,1.561444367684048165e-02,1.429548458703851568e-02,1.020158179093455103e-01,1.082245469093322754e+00
1.711655732880603686e-01,-1.437067248255684992e+00,4.681007709287504648e-01,8.272395380205217752e-02,2.685469587410420078e-01,-7.347049864637333894e-02,1.845318436622619629e+00
-1.206982137800178267e-01,-3.488828897593610479e-01,7.303045789095456986e-01,6.659032814913039278e-02,-6.144694565953325895e-03,-1.659195849186907018e-02,9.923213720321655273e-01
-1.695690670932411548e-01,-2.563252431676285581e-01,7.368730671196777049e-01,-5.967475575763539139e-03,9.592502753519520364e-03,-4.472445464745891316e-03,9.530195593833923340e-01
-1.627104739841395420e-01,-3.536728490678307524e-01,7.241455851430376178e-01,-1.146184588851018038e-02,-7.584593430566867467e-03,-1.457769603367273584e-02,9.967650771141052246e-01
5.155511247572641675e-02,-8.170198040271213769e-01,4.896606333755286755e-01,6.095511613127076525e-03,5.118994728560775226e-02,-3.626555345180101225e-02,1.157067179679870605e+00
1.158246097202421943e-01,-8.093229136161445014e-01,3.145822778794564734e-01,-9.271189077833543422e-04,3.973099655541915270e-02,-2.737627911231837324e-02,1.042242407798767090e+00
7.906768916039275119e-02,-8.156888861133565483e-01,4.815008199964084801e-01,5.373712991403174722e-04,2.539381286224235562e-02,-3.520974770686501054e-02,1.152508616447448730e+00
1.023010575577299464e-01,-8.508668255552772619e-01,3.279407947594348838e-01,6.911933017236015012e-03,9.450169915563105816e-02,4.453559212368517900e-02,1.098817586898803711e+00
-2.960959870753350140e-02,-9.457346851397704368e-01,9.455212211639856257e-01,-1.359946944451183581e-01,-1.441287368088905174e-01,9.846863492091662007e-02,1.682378768920898438e+00
1.500348169523456517e-02,-8.425075313907370855e-01,8.428384805517031841e-01,5.548181417532265652e-02,-6.568579317815233069e-03,5.211862771540242550e-03,1.462859988212585449e+00
9.093496301210882149e-02,-8.976982236929776926e-01,4.144563607001906513e-01,-1.907077514540021432e-02,1.370737274391768679e-01,4.216454909527426326e-02,1.210247039794921875e+00
4.302002101719459848e-02,-8.009983514576252128e-01,5.091788532331731343e-01,1.414228981346969151e-02,9.953609372568505975e-02,-9.566663928097317304e-03,1.163492441177368164e+00
1.107430424636819122e-01,-7.993391782089962483e-01,2.801456388121913443e-01,1.428080991650966395e-03,2.111821832020057202e-02,-1.906544046919912347e-02,1.006753087043762207e+00
1.197485682292033782e-01,-8.186027846609394976e-01,2.957018217363136525e-01,-3.097539216273874092e-03,4.890556930226267612e-02,-4.019205486222070180e-04,1.041044354438781738e+00
-5.432833324622748233e-02,-8.280255901557584952e-01,7.902832517461705342e-01,4.639817568523740311e-03,5.792422194788241288e-03,-3.910157143091395546e-03,1.402020335197448730e+00
5.912327678145848364e-02,-8.081182802419906164e-01,4.654772889122726909e-01,-1.437367215373470735e-03,-3.329966943157251780e-02,-1.110116936808477721e-02,1.128424167633056641e+00
1.674487803912645401e-01,-1.448385352495095812e+00,4.793547497516199574e-01,1.064334538623083193e-01,2.602992355059730034e-01,3.533725505768621489e-02,1.858276367187500000e+00
-8.798367104021723173e-03,-8.049288803886583965e-01,5.895920719302206736e-01,1.635845131834046465e-02,-5.477481701411972270e-02,2.619664980712074417e-02,1.216615915298461914e+00
9.372370675610397495e-02,-7.938462702803067428e-01,3.840339765562347241e-01,1.725053689984259607e-04,1.367131393917621991e-03,1.245021039205225846e-02,1.063109517097473145e+00
-6.388155588190980172e-02,-5.804473512903839394e-01,7.835817737582189135e-01,-1.787997256501583920e-01,7.174110667992504575e-02,7.115786293058612433e-02,1.244726300239562988e+00
9.894062027486930089e-02,-8.854420216774343544e-01,4.127392086983088237e-01,3.931081273881604360e-02,-7.311994758400966465e-02,-3.194177275457465298e-04,1.181969761848449707e+00
6.661526425163122322e-02,-8.085563360836792723e-01,4.835661624866507413e-01,-1.637389969349738661e-03,3.194096281850075658e-02,-2.924924586137231386e-02,1.144688725471496582e+00
7.307547282480153505e-02,-8.076116241854727207e-01,4.451637326401401973e-01,3.361375351409519319e-03,1.362244197188418890e-03,-2.645996309349080144e-02,1.115299344062805176e+00
-7.604663795638379187e-03,-8.276741474391031694e-01,6.917696431017770209e-01,2.480121606468557727e-02,-3.240499403412592377e-02,-1.361179112664586766e-03,1.319156885147094727e+00
6.979654214578290272e-02,-7.975141095485893672e-01,4.490690832842444413e-01,-5.279348001152653173e-03,-1.606442284329568856e-02,-2.806287473830063398e-02,1.108261227607727051e+00
8.141766448305229331e-02,-8.007667782000228440e-01,3.633034529170821592e-01,-5.383963408598994339e-03,-5.083919976051894107e-02,1.927394547053119800e-02,1.056096315383911133e+00
1.202094333606833487e-01,-8.064691464539133214e-01,3.212235664814870884e-01,-1.575957713895505957e-02,-2.022425881847550108e-02,-2.035574040390392830e-02,1.043374657630920410e+00
-6.524380099865559335e-02,-9.484028833852421458e-01,8.247861555358985131e-01,9.206006907578523704e-03,-1.235477162187594846e-01,-3.191718694716829535e-02,1.551535964012145996e+00
-3.750250355957990972e-02,-8.296606568587954200e-01,8.132941839025414899e-01,3.194238097190828587e-03,-9.596078755217287218e-03,-2.954834802779891540e-03,1.423259735107421875e+00
-5.419838309070165727e-02,-8.500072131814802034e-01,7.278036179635489766e-01,-4.771672872052960465e-03,-1.461303672747522875e-01,1.197111426209176988e-02,1.389864563941955566e+00
-5.773476640626622886e-02,-7.990498442575496574e-01,7.193254237016833974e-01,2.575795551890290060e-03,-4.011958507492163761e-02,-2.189632257980636803e-03,1.316920638084411621e+00
2.344457404532637734e-03,-7.997842968820031428e-01,5.450329530747780593e-01,-8.588735170092780258e-03,-6.600414204404146667e-02,-2.824020135705108264e-02,1.178520679473876953e+00
-3.798905624134765041e-02,-8.011083763694689663e-01,6.450268603004154500e-01,-3.482388562434365030e-03,-9.508439441136344594e-02,-1.790688619535158593e-02,1.264201760292053223e+00
-6.566796906787285282e-02,-5.206012691779180468e-01,6.519041746633350565e-01,2.485432514376953728e-01,1.773955166389934446e-01,-1.947606149324043398e-02,1.152904272079467773e+00
-7.343034304740259088e-02,-6.255034887333922322e-01,7.781907923241485614e-01,5.960064237364644940e-02,1.718718842511043551e-02,-1.339982976313817443e-02,1.229748725891113281e+00
-7.239179270920199916e-02,-8.112105570160589307e-01,7.163492996261273671e-01,3.775109030286509428e-03,-1.053801177936643935e-01,-1.189671062517247933e-02,1.335846066474914551e+00
-1.503824381757840056e-02,-7.988698776266874857e-01,5.770766972567806796e-01,-1.040509104178659197e-03,-5.154647128118862442e-02,-6.041077574530024415e-04,1.198785185813903809e+00
-4.774338599658645849e-02,-7.985218904301241150e-01,6.617758705646724637e-01,2.095432146014019389e-03,-3.352310898691219371e-02,3.233306034773841386e-03,1.266172885894775391e+00
2.224132149852323104e-02,-9.115023287045604938e-01,5.346088821116984358e-01,1.992036304092306975e-01,-2.369460095350542639e-01,1.843045047194511732e-01,1.414990663528442383e+00
-7.208073941194113876e-02,-7.504482652915624996e-01,8.118699344389785910e-01,-4.368469534140227706e-02,-1.619982875985524068e-02,4.533835931741455466e-02,1.361570358276367188e+00
-1.629700228101771398e-01,-1.222364936212788078e-01,7.464461388351470994e-01,1.110328748202251727e-02,-4.877932800460304565e-03,-8.292348652800131392e-02,9.015117287635803223e-01
1.356449335427578617e-01,-8.940012267870904861e-01,9.668805053440182595e-02,1.533434596219444661e-02,2.734674211060923038e-02,9.692875001679415736e-02,1.026017308235168457e+00
7.941926396678705702e-03,-8.077104044026690577e-01,5.602980717881570483e-01,4.146993883860589612e-03,-1.209551922534723156e-01,-4.514652561020864388e-03,1.210338711738586426e+00
-2.923944789856317006e-02,-6.364218504654776121e-01,7.832901069802488125e-01,4.953386762419403899e-02,2.332975304933283464e-02,2.970682366678105077e-02,1.238494873046875000e+00
3.258507359723719077e-01,-1.397137077282137874e+00,1.074861013287359279e-01,-2.810975604114880969e-02,-6.054828188008201661e-02,1.045120823823212225e-01,1.638983726501464844e+00
-6.614964635090694878e-02,-3.916448791266990415e-01,5.000587430701772806e-01,2.103727405423436725e-01,-1.400317745564257088e-01,7.461514025614385259e-02,9.050614833831787109e-01
1.908838533400297743e-01,-1.370839396088215256e+00,2.840256560801893704e-01,3.166479664514257331e-02,2.427825199506121467e-02,7.289650182649917709e-02,1.616735816001892090e+00
-2.807615335385279035e-02,-5.089016782314602638e-01,5.385504809408467874e-01,1.842207789007958840e-01,-1.518769395649686993e-01,5.913085290746172146e-02,1.003099441528320312e+00
-2.510344600284003524e-02,-9.319218052625111159e-01,6.800955540528497156e-01,2.630952899756817676e-01,-2.435588618854199194e-01,8.825153024030303606e-02,1.538862466812133789e+00
-1.942953353356597912e-01,-1.620163160429647919e-01,1.102042470536278795e+00,-8.789190535652351144e-02,-5.930983092776771770e-02,8.024256289813931978e-03,1.293680906295776367e+00
-7.847667251233285401e-02,-2.962751047047766928e-01,4.417490538367053743e-01,1.002160759687629049e-01,-5.984765315407325481e-02,9.126258138760370842e-02,7.051502466201782227e-01
-1.508345917285157378e-02,-8.270180634730809333e-01,7.119232148898100299e-01,-1.069787980245355020e-02,6.682110298505324411e-03,1.177457856806742205e-02,1.333773493766784668e+00
-1.492713147438012589e-01,-4.105225946892784861e-01,7.612928284226498921e-01,1.033240254028085503e-01,2.051933349024897060e-02,6.558394948392919088e-02,1.086949706077575684e+00
-9.103286793997122928e-02,-6.493890209954142900e-01,7.575689443202280327e-01,-2.970811460673638410e-02,-6.531809620635399376e-03,7.017239865293667389e-02,1.234202980995178223e+00
1.991313431182175075e-01,-1.388418824098608395e+00,3.541941882737521530e-01,1.599716961368334578e-01,-2.746490669036917298e-01,2.443705403723641090e-01,1.809074401855468750e+00
-1.388758432869162673e-01,-2.047103489117482744e-01,6.550638017746920339e-01,1.004708424462333674e-02,-1.034856845880624023e-02,9.657070670143771962e-02,8.458988070487976074e-01
-8.535610373495718627e-04,-7.987142054622272669e-01,7.908795535117085773e-01,6.880910756536849290e-03,-4.359535225879727569e-03,1.810322895144697575e-03,1.376707911491394043e+00
-5.160731390996384574e-03,-9.462737524653215271e-01,8.956133133518563438e-01,-2.421143857989250248e-01,-3.186857306121151923e-01,-6.647325391239043701e-03,1.739393591880798340e+00
-2.537764856342178410e-02,-9.667751779874436124e-01,8.880534094079490792e-01,9.822163622131692418e-02,-1.504969219307468187e-01,2.138985375352396925e-02,1.636688828468322754e+00
-2.145268793826094963e-02,-6.529433073687482825e-01,5.924140834232828334e-01,2.841491221752217577e-01,-2.876951043962628907e-01,3.657924130274081004e-02,1.287557959556579590e+00
-9.885123054407396470e-02,-6.050968175983836295e-01,7.851968511678530938e-01,3.606395595256168402e-02,3.868198866244956097e-02,1.094745608356524208e-01,1.236816763877868652e+00
-1.451346571015866282e-01,-2.658875098605543164e-01,1.134981511897318995e+00,-1.448093621751819216e-01,4.932124412647916761e-02,4.359144878185786803e-02,1.372502803802490234e+00
6.551272385076148397e-02,-1.269832022599459487e+00,7.056457665363229381e-01,-2.773267745062248935e-01,3.078433403748956354e-01,2.207939896446406425e-01,1.925875663757324219e+00
-1.468331425528982687e-02,-7.535500342593801637e-01,7.790827734229917034e-01,2.368242118482019338e-03,-2.549324639136581541e-02,4.923772439078092332e-03,1.328350543975830078e+00
-7.254729807402995889e-02,-6.677925819663330653e-01,8.850998230649947951e-01,1.446561258488749946e-01,2.939232543887144306e-02,9.495534947501135803e-02,1.390632033348083496e+00
-1.231764618404541101e-01,-4.657267395150382905e-01,8.797744529327017338e-01,-1.581463019859795927e-01,1.380805578617862739e-01,-4.327446007523642196e-02,1.266751646995544434e+00
-4.907566470497153055e-02,-8.079461930999062291e-01,7.231184235577284847e-01,-1.065804262383159180e-02,-3.065019011386224332e-02,-1.418565443671831322e-02,1.327375769615173340e+00
-1.199488768270006236e-02,-7.917977899327786062e-01,8.029412582666122233e-01,8.222171752044081516e-02,2.725440604661023142e-02,7.786076911486657093e-02,1.395850896835327148e+00
2.839845734225435875e-02,-7.741617462874532674e-01,7.685383501931746242e-01,4.553138840338136727e-03,-1.337006829090817877e-03,-1.274951500198975201e-03,1.336409091949462891e+00
3.802194245393314236e-03,-7.409666659494812402e-01,7.700282047758555404e-01,-3.983587903056446528e-02,1.121076959621288872e-02,-1.943866827057469208e-03,1.310569882392883301e+00
5.179937465655559681e-02,-8.009758456423839990e-01,5.034629909264274339e-01,-8.302772271632823803e-03,9.768348651340165011e-04,-2.975948454550025185e-02,1.148590326309204102e+00
4.620506007289684747e-02,-8.570244482623968763e-01,4.929567675550696748e-01,2.546442233740182221e-02,-3.635090483101502401e-02,4.887838065767829976e-02,1.196664810180664062e+00
1.664376123014821296e-01,-8.334195925054130871e-01,1.644467046398380150e-01,1.637624505693466292e-02,-1.160163320806611165e-01,4.524575876434126093e-02,1.022278428077697754e+00
2.870651963443742252e-02,-7.625019242860241464e-01,7.641598049419729977e-01,1.264481534249380166e-04,-7.767305561101725585e-04,-7.349471655286831089e-04,1.322422981262207031e+00
-1.382298457209402837e-02,-8.262755497285162454e-01,6.973415921565681019e-01,5.478483321180460403e-04,-7.514212096288791325e-03,-1.293105752656892489e-02,1.320717096328735352e+00
-1.631324160240775478e-02,-6.300821175191064771e-01,8.059589473032023887e-01,9.880774183929293131e-02,-3.159130435881391322e-03,-6.970943967633106732e-03,1.259759306907653809e+00
-1.057194930814519818e-01,-4.867687068302609665e-01,8.393021119934909180e-01,-1.763642922133809854e-01,-1.899710548993678860e-01,-1.117193089004400210e-02,1.265036940574645996e+00
-1.145058146788675846e-01,-3.569291691803591071e-01,8.610584099931518631e-01,-9.522122669570157183e-02,-8.603506477724372214e-02,7.898863586323386088e-02,1.146786451339721680e+00
-7.533300297333353490e-02,-7.014335644738003417e-01,8.031969479716613014e-01,1.170046507552413746e-02,-1.501999232143579749e-02,1.380202125882740508e-02,1.309780120849609375e+00
-1.995051763417449511e-02,-8.065564932400365317e-01,7.921792898196260424e-01,-1.550150454788862958e-02,8.212470303979771402e-03,-8.298538401220299440e-03,1.385012507438659668e+00
-6.568257733629190298e-02,-8.112779440443644852e-01,7.488910220906774828e-01,8.504256149381786423e-03,3.941099888265637251e-04,-1.433554564430893812e-03,1.351668834686279297e+00
-1.327483696892929610e-02,-8.694987183816605958e-01,7.451722269126047626e-01,-1.632008639786329193e-02,-6.610549801906062672e-03,7.651926826890310430e-03,1.399595499038696289e+00
-4.295763173779745120e-02,-8.181746724628735645e-01,7.870568332826586300e-01,5.995491719288229167e-03,7.730154860954243159e-03,1.471362336138356663e-03,1.390546798706054688e+00
-1.353551875322308584e-01,-3.104245027957168723e-01,1.072559597891419081e+00,-2.023864931684153934e-01,-1.117755008885271684e-01,-2.759008325470152165e-02,1.365218639373779297e+00
6.080252932524099485e-02,-7.989804496425735314e-01,4.805414764901777547e-01,5.261101148393195100e-03,-1.812342743061765753e-03,3.099017854369199090e-02,1.131046414375305176e+00
1.377179621543205001e-03,-7.035498112462506004e-01,8.213358296985335816e-01,-1.495779714929197923e-01,-2.908309701282783561e-03,2.727882270318078214e-02,1.347829222679138184e+00
1.850174529607254148e-02,-6.690300522547601991e-01,3.722860802900869182e-01,-1.014001684021489935e-01,2.101953144510722293e-01,1.405051371996236254e-01,1.031367301940917969e+00
-1.556288227325772905e-02,-7.459146042048547809e-01,7.871743607905073992e-01,-2.286648234978648844e-02,-2.816901854843232092e-02,2.202300301469565375e-02,1.330220103263854980e+00
1.000358397477692923e-02,-7.732236449753114860e-01,7.791275238351669241e-01,1.341763525969049027e-02,1.326613869146539212e-02,-2.050050429970523471e-03,1.344795942306518555e+00
3.034927822948586471e-02,-7.736215471553061773e-01,7.679452453465016593e-01,6.718735614686350416e-03,-3.896846232127094706e-04,5.543377335689854109e-04,1.335499644279479980e+00
-4.186529615365354451e-02,-4.503273161575849226e-01,4.940235649722054534e-01,1.297124509243053614e-01,-9.634918770006309363e-02,6.718906045210444600e-02,8.745152354240417480e-01
1.909924121925547780e-02,-7.633289829114362490e-01,7.650664403468061536e-01,1.256118100439166611e-03,6.190087553913755508e-03,-9.559771849761282718e-04,1.323801040649414062e+00
-4.927238959821848147e-02,-7.419475225104860128e-01,8.004681558591691948e-01,-1.597967441194843644e-02,-1.805937429909142827e-02,-1.170839769117559132e-02,1.338883042335510254e+00
9.726074693076314226e-02,-1.042980293123645374e+00,5.220551555204043792e-01,-3.658310360786481974e-02,3.909940323830392028e-01,-7.346237352078588412e-02,1.563266515731811523e+00
-1.332584918803702556e-01,-2.956443552140103348e-01,9.511921948794840320e-01,6.646635274331462451e-02,-5.244409228409863816e-02,-8.825003798820096890e-02,1.193050980567932129e+00
3.674865416396843470e-03,-6.536810970459637771e-01,7.430947943086841923e-01,3.750893858436066958e-02,9.173421084924809552e-03,-3.047180603867279857e-05,1.212185621261596680e+00
6.652554625590920839e-03,-7.494495346761519405e-01,7.697878704381163617e-01,2.638247148196826587e-03,1.345986025725543454e-02,8.439645967610272248e-03,1.315998554229736328e+00
-4.470687483478256313e-02,-8.650243514940586520e-01,8.670362812751050141e-01,2.158482113760617875e-03,-9.293291921863169533e-03,-2.959295598548188251e-03,1.500804662704467773e+00
1.729923963869651193e-01,-9.986400328292742712e-01,1.830747539200806018e-01,-1.230182654784285796e-02,1.658918084091774436e-01,1.289846678701025706e-01,1.231893897056579590e+00
-1.167550890736861191e-01,-5.632039848199571486e-01,7.731280589237939926e-01,1.078606262364953080e-03,-1.044790013291800601e-02,5.907622050540873443e-02,1.182918787002563477e+00
-4.525344470511205586e-02,-8.361509490070117012e-01,7.938240544070062077e-01,9.216707879803606035e-03,5.597451698205547881e-03,-5.708003462238164967e-03,1.411963462829589844e+00
-4.385818624375419778e-02,-8.379772205679978381e-01,7.849471225357466109e-01,-4.794906857273613057e-05,-1.717313418869094617e-04,5.198643708239089958e-03,1.405629634857177734e+00
-1.314354767877399244e-01,-1.865158243221098910e-01,1.188956132548544042e+00,8.553552622809854067e-02,-5.067406971236115137e-02,1.225608294704574712e-02,1.359889268875122070e+00
-2.226920719337372595e-02,-6.089985953433189048e-01,5.948338767970744456e-01,1.024144174080846015e-01,-1.619401354900105450e-01,4.129752067952338623e-02,1.096538424491882324e+00
-5.835749817180697213e-02,-8.756733500641820100e-01,9.128639730873974178e-01,5.745245245857727792e-03,-1.992448566822560552e-02,-3.727211607981387263e-03,1.551258444786071777e+00
-2.372644549862846369e-02,-9.727624086353745536e-01,9.428863931911068974e-01,1.357808051634954161e-01,2.041134685295256310e-02,-9.962413968391981012e-03,1.676071882247924805e+00
-8.175873105783712513e-02,-8.470574111575899234e-01,8.994991558328477854e-01,3.703004887099955317e-03,6.368362931013175215e-03,-1.277381347539680370e-03,1.516466975212097168e+00
-6.541640033230614049e-02,-8.847683069705227776e-01,9.128606874172870977e-01,-7.127338790271202200e-03,-2.807553106853612548e-02,1.397543972738168536e-02,1.559814095497131348e+00
-5.613263127341533432e-03,-7.907160738434676484e-01,5.897182366300735001e-01,2.817816667201979326e-03,1.902921895032836166e-02,6.718297321973647207e-03,1.199769973754882812e+00
2.881956414774324016e-03,-1.092569063615231650e+00,9.157277536117672811e-01,-3.009943085870895318e-01,3.525477744273949887e-01,-2.162801813842245985e-02,1.918161630630493164e+00
-3.454485640892653725e-02,-8.219350001753776835e-01,8.229251821361988073e-01,3.059937780376253188e-03,1.180208027961926129e-02,-8.947193382341759801e-03,1.425162315368652344e+00
-4.464229915014750888e-02,-8.464241026790616518e-01,8.616590846161193973e-01,6.682937509849456829e-03,9.564449254158625610e-03,8.178823852843913542e-03,1.480372071266174316e+00
-7.014458629851211269e-02,-1.001792556126936518e+00,9.362507839391966957e-01,-8.392537484012146595e-03,6.788475667690584137e-02,3.331861888546659017e-02,1.683975219726562500e+00
-4.833395128679582320e-02,-8.641405100258627847e-01,8.912710101280699737e-01,-1.152911261676170356e-02,2.952209746617712009e-03,-5.649933589970325409e-03,1.521661758422851562e+00
-4.366703610690517157e-02,-8.340912766454003924e-01,8.066793273293600963e-01,-1.762359387936736788e-03,2.594120703840205409e-03,-5.453592048303018431e-04,1.421275496482849121e+00
-3.255238549887776167e-02,-7.918557298151455148e-01,8.000551939098071719e-01,-6.796387414387635405e-03,1.866727362201121496e-02,-7.445105344245174506e-03,1.379611849784851074e+00
-7.918245714217019005e-02,-8.731661475137962869e-01,9.037173980462335221e-01,9.584781101465237804e-03,6.915318180403290382e-02,-3.036681595894636168e-02,1.547351717948913574e+00
-1.049534796754236776e-02,-8.916149675688016529e-01,7.079128243066868942e-01,2.285027177678614421e-02,3.843250785723417717e-02,1.221239697767308608e-03,1.389779686927795410e+00
9.539742682786200856e-02,-1.598264743600811055e+00,9.148992246186540278e-01,-9.540768940393459796e-02,3.205868072692101278e-01,9.699643865509742502e-02,2.300411701202392578e+00
-1.784138775969141763e-02,-1.023890181972702873e+00,9.596074782321252217e-01,7.148397107223763980e-02,2.864213033832047617e-01,-1.620450011183990208e-02,1.792520761489868164e+00
-6.158005658664965354e-02,-8.541795837757653054e-01,8.986024104997736295e-01,3.248100526878050509e-02,4.275483385992223662e-02,-1.198357987372133601e-02,1.523247957229614258e+00
-6.039681944083375581e-02,-8.601247474997046893e-01,8.959793435695212471e-01,3.476825649786093042e-02,4.133290111520637050e-02,-6.637592284878185596e-03,1.525760412216186523e+00
-7.782088857673147286e-02,-8.077430841588143506e-01,7.683914235143821658e-01,3.666713111576858260e-03,5.053801009852937169e-03,-3.487649898058250379e-03,1.366266608238220215e+00
-1.580549272621612489e-01,-3.101678286397797635e-01,8.677686794841793505e-01,-2.542179152329289704e-01,1.204057539532400571e-02,-1.094364028076695583e-02,1.194222688674926758e+00
2.007986392191426495e-01,-1.410553859423496981e+00,3.908241188802468180e-01,1.515464330358665956e-01,2.208828643305725814e-01,-2.712206170744211886e-01,1.837039232254028320e+00
3.137044522836490712e-01,-1.520336368391985271e+00,2.386822768310103982e-01,-7.949993210188638360e-02,2.229714762045326981e-01,2.500460913592702505e-01,1.894048333168029785e+00
-2.960591853133574466e-02,-8.152391875170221791e-01,8.055802085469001561e-01,1.578356789290309052e-03,1.544493004402103416e-02,3.005293851569861095e-03,1.404156565666198730e+00
1.182319426534365059e-01,-1.455434012313625791e+00,7.656314398656509645e-01,4.628998238745395122e-02,3.508492690024238025e-01,-8.876806269386584847e-02,2.076943635940551758e+00
-9.551178454377010074e-02,-2.654457556293111642e-01,6.286297501254639597e-01,-6.462708307004444430e-02,1.597123875155437994e-02,1.502633796493965945e-01,8.702570199966430664e-01
-4.098880801518499373e-02,-7.620267483143452480e-01,6.279169894267950802e-01,-1.443745801501511994e-01,1.851056361686132523e-01,1.605001634762851237e-01,1.300862193107604980e+00
-1.523602107993511923e-01,-5.779209050905740330e-01,1.123568525289750930e+00,-2.566492563767418522e-01,3.187174177788079654e-02,1.251789648552560918e-01,1.612372279167175293e+00
8.736171894195773890e-03,-8.252494925787132729e-01,6.700771867800806580e-01,1.051585324184337207e-02,-2.743068875997152836e-03,1.147448324574488858e-02,1.298153400421142578e+00
-1.344543887000607674e-01,-3.209072674826196070e-01,8.532575588002015987e-01,-1.870562495733824049e-01,7.265114881079717812e-02,-1.253364553794854841e-01,1.167233347892761230e+00
-4.914828411677596431e-02,-5.342360277057333073e-01,8.760196602999849036e-01,-1.284140160361446625e-01,-4.685274734157001547e-02,3.792731820678888616e-02,1.265071153640747070e+00
-7.153360246853417148e-03,-6.887533664449043691e-01,8.200845556541715986e-01,-1.900204799205984507e-01,1.071799639482558589e-02,-1.223212619973513063e-02,1.349764227867126465e+00
7.147938032971892786e-02,-8.362331519307419914e-01,3.766778880960054421e-01,1.493879974976622697e-03,1.883417195820228929e-01,-1.324459335257737076e-02,1.140645146369934082e+00
2.050175946186896803e-02,-7.789147735146885188e-01,7.887222724183728939e-01,-4.129653794345942985e-02,3.988422437683283861e-03,-1.535384322369476480e-03,1.359606146812438965e+00
-1.662289667605527932e-02,-1.101619706679833666e+00,9.200524737674575793e-01,-1.525809315973312708e-01,-1.849386902081618933e-01,-6.376828116444417660e-02,1.804305315017700195e+00
1.363069924205343245e-02,-7.341579112643600302e-01,7.676941710956572962e-01,-3.711886760483597281e-02,-1.408042970240597040e-02,5.777231547361888313e-03,1.302500605583190918e+00
2.989950253261721216e-02,-7.644793604447606139e-01,7.658113718184103025e-01,4.057960606312311443e-05,-9.239109808903173300e-04,5.022920276816497187e-04,1.325594305992126465e+00
2.991012347348476902e-02,-7.745590079485460411e-01,7.662017694828867631e-01,-4.715963578743147255e-03,-1.562520876063392913e-04,4.412288679035413641e-05,1.334798336029052734e+00
2.909024873955923934e-02,-7.826915162436123286e-01,7.737261466534886001e-01,-5.622823492879881757e-03,-1.012740385575836488e-03,9.894686963275744519e-04,1.348352670669555664e+00
5.656593294194772747e-02,-1.033389074518351380e+00,3.495811307295334514e-01,-9.009538357295809874e-02,3.781229944459882364e-02,2.760336822853859950e-01,1.360315322875976562e+00
9.100088390940381730e-03,-8.044939428399195958e-01,8.117427655655132801e-01,8.554147562932056664e-03,-1.341634114389665677e-02,-1.274235589569678966e-02,1.400158047676086426e+00
-3.696047498108574747e-02,-7.659757520097191241e-01,7.977512995707203292e-01,-1.992425000853224101e-03,2.222079703274487325e-02,-7.918760951961017341e-03,1.355878353118896484e+00
-3.369000022335202904e-02,-8.542152253031504161e-01,9.973714979848979922e-01,1.074312960377249576e-01,-1.123353263309041956e-02,4.218472010946658357e-02,1.619476199150085449e+00
-4.655780527915634459e-02,-8.290262359364630740e-01,7.994350012223221391e-01,5.578335551300566200e-03,1.452888433944786624e-03,6.365872483759712694e-03,1.410724878311157227e+00
-4.594217791899961323e-02,-8.333953974114722829e-01,8.008162897128460189e-01,6.751931345824143706e-03,-7.724457477679720760e-04,8.627156131452125634e-03,1.415707230567932129e+00
-5.507099424179812824e-02,-8.171133053413223157e-01,8.105131750680237834e-01,-5.544455162426648086e-04,1.059999039896037352e-02,-1.111412174044120946e-02,1.410767436027526855e+00
-4.975648438200691581e-02,-8.352268049511397674e-01,7.955502021920118905e-01,3.117153162868524768e-03,6.202874467772227134e-04,1.017820564965690906e-02,1.412731885910034180e+00
-2.309362221226073791e-02,-8.094006436959227946e-01,6.890859265207558426e-01,-9.053480439674790534e-03,-4.092950404377060196e-03,-2.016225795302029403e-02,1.298840165138244629e+00
-7.387597425177305777e-02,-8.075671611552197593e-01,7.529244545768982722e-01,3.380653466942156772e-03,8.938637501912368583e-03,-5.568299600842921936e-03,1.352362751960754395e+00
-7.602224474481372729e-02,-9.411565423830386967e-01,9.396640497975640161e-01,3.115078265550338954e-01,-2.645598952653369640e-01,2.503042611309376497e-02,1.778130412101745605e+00
-2.899757816670608945e-02,-9.511461814133004289e-01,6.836861940646202784e-01,-4.236158016592975195e-02,-2.696438543094386020e-01,1.366145725643695338e-02,1.496510386466979980e+00
7.950690669112270292e-02,-1.507864279245112238e+00,8.892896083170649391e-01,1.355685404952352568e-01,-4.050634916873559477e-01,-1.809815553222687704e-03,2.237922430038452148e+00
-1.772836727214742447e-01,-1.151993347129868450e+00,1.453064417321755730e+00,3.169722909974417857e-01,-2.366263155224132553e-01,-2.790929982120564715e-02,2.380953073501586914e+00
-2.617616552309737915e-02,-9.476169216942442741e-01,9.226358584226357351e-01,-8.839913377603067501e-02,-1.109101946705511044e-02,2.459383456272067406e-02,1.627635717391967773e+00
-2.965229097589756196e-02,-8.042153728810010893e-01,7.993371228148304919e-01,1.006721761421319750e-02,4.059998700469237077e-04,-4.607407065716629183e-03,1.389116406440734863e+00
-4.874150821819949603e-02,-8.162510536337119760e-01,7.249530917393443019e-01,-1.426782369050808366e-02,-2.907047713521081211e-02,-1.280345944385628300e-02,1.336087584495544434e+00
-3.006574682226833412e-02,-8.366108601901575126e-01,9.347457389093667413e-01,-1.383386307380342628e-01,-1.532987193064992877e-02,5.098806655981991598e-04,1.554882168769836426e+00
6.836553286602711776e-02,-9.596344991437865124e-01,5.172493159012957475e-01,2.075030556306671145e-02,-1.152449803678329832e-01,9.624939646159708095e-02,1.337408304214477539e+00
-4.698033168745421873e-02,-8.365317207256633969e-01,7.284372904853427810e-01,1.111557632834024936e-02,-1.196685121987534350e-01,-3.129952986192097164e-02,1.372285366058349609e+00
-1.492126710581999638e-01,-6.683917841908055824e-01,1.268962325140970959e+00,-2.644534080396885312e-01,-9.866763738141640094e-02,-9.441093745770573475e-02,1.811851859092712402e+00
-6.349716209727084004e-02,-6.502134361766994664e-01,8.598703442301980360e-01,-1.390709581617504409e-01,-4.788654130097337591e-02,-4.932428170859501880e-03,1.342971682548522949e+00
-4.235205820038438762e-02,-1.016998527015072318e+00,9.562117194876121884e-01,5.358147757449965853e-02,1.503044183550562851e-02,-1.797391556990788480e-02,1.711891293525695801e+00
-8.520713174623398278e-02,-4.854560684618206556e-01,7.939044752896549095e-01,-2.104213505254144134e-01,-1.053606139360901139e-01,-5.836583828510222977e-02,1.208823204040527344e+00
-4.387183907415648232e-02,-8.553611739642569267e-01,8.688684679903624364e-01,3.823697165645661717e-04,1.192045795036484647e-02,7.406123240384067385e-03,1.494282484054565430e+00
-6.303072712702499636e-02,-8.059711033009874237e-01,7.320513918710600532e-01,9.576532884991134642e-03,-8.462819309576041348e-04,4.757968276488334404e-03,1.332351207733154297e+00
-7.656742325125856508e-02,-4.564135889081282205e-01,8.036026622925046548e-01,-2.304630637761561907e-01,-1.211785767000818220e-01,5.037481129721752687e-02,1.210089683532714844e+00
-4.982254678899401129e-02,-8.170678417496657353e-01,7.290936821371866161e-01,-1.477728788129791145e-02,-3.329819922052615344e-02,-1.749960650517409094e-02,1.340856313705444336e+00
-8.839809342370677503e-02,-8.540196851452988014e-01,8.594268758437387801e-01,-3.670075255176091268e-03,-1.356685058203597853e-02,4.773712279267591958e-03,1.486904382705688477e+00
1.350247073110049517e-02,-8.389740381656664026e-01,8.448299202852523893e-01,-5.316012355987490001e-02,5.146587610821718069e-03,-1.214261150652148034e-02,1.461337924003601074e+00
-7.959624356850755755e-02,-8.297110800286234822e-01,8.610611962678410558e-01,-6.223351047520399304e-03,-2.898834013652694299e-03,6.246167306204601123e-03,1.467435956001281738e+00
-4.886203235681934459e-02,-8.320857512853861992e-01,8.167516355371184922e-01,3.120303583239945108e-03,5.417490702498521660e-03,3.448133815862990809e-03,1.428582668304443359e+00
-3.215043946179325929e-02,-8.006169307154019643e-01,8.348091649400508629e-01,-4.979835488277715300e-02,-2.475823141117808671e-02,-2.099084086082180205e-03,1.420450925827026367e+00
-1.447491240177932736e-01,-2.140418543255956374e-01,7.288813342822972885e-01,8.116354044793316902e-02,-2.317026358404425390e-02,-7.106957864203899966e-02,9.301041364669799805e-01
-1.106944487968599677e-01,-5.068888468481865806e-01,7.705081157337266839e-01,9.988794262534426982e-02,3.254734696901835731e-03,-4.265766377972250549e-03,1.145702719688415527e+00
-3.961326377899766771e-02,-8.304516202864317131e-01,8.154516371217969128e-01,6.637045473386470919e-03,1.466937102212185345e-02,6.565142786363198889e-03,1.426073789596557617e+00
1.793603102598585741e-02,-8.114922548886323028e-01,6.034215963550900730e-01,1.482322492634889632e-01,-2.566466671173921466e-01,-2.508166383281790202e-02,1.334830045700073242e+00
-1.267103239433338135e-01,-1.347543599184908514e+00,1.566647402579041559e+00,1.776376476930552339e-01,-7.997331687027697811e-02,-1.897645199560638041e-02,2.557368755340576172e+00
-1.224415525968635676e-01,-3.913285821495182670e-01,7.492399715645673419e-01,6.236204263208234427e-02,-6.796182173383821627e-03,-1.583843959231590395e-02,1.038783431053161621e+00
-5.738936792283273747e-02,-5.376712555121220261e-01,7.106722236906322099e-01,1.250235058227008866e-01,3.152405967470015284e-04,-7.197834871848295124e-02,1.118888258934020996e+00
-7.764266031886069008e-02,-8.280917806475412979e-01,8.235335171195844461e-01,-4.706661823040629578e-03,8.826526031457216509e-03,8.832709228814634615e-05,1.432438254356384277e+00
-6.518516539310398317e-02,-8.476668804358056253e-01,8.154689533105657917e-01,-7.660938800969595286e-03,-1.347314415852585850e-02,-1.148887026681862274e-02,1.441541433334350586e+00
-1.351135771078611492e-01,-4.437168249228151673e-01,7.504897997562399725e-01,3.394420342207943309e-02,-2.246422045709835572e-02,-4.105948776181738563e-02,1.078358769416809082e+00
-4.121739994649105399e-02,-8.597129850965200548e-01,9.697468828246154082e-01,9.387371569960467621e-02,-1.804579937187392180e-01,-5.831165930503876688e-02,1.629044651985168457e+00
-1.183464729186598507e-01,-4.354268473685800611e-01,7.542727712232045745e-01,5.466295873994377746e-02,-7.146185277792739543e-03,-2.754350473963269874e-02,1.072421550750732422e+00
1.255366024388958508e-02,-7.996323092796822074e-01,7.836317608546627955e-01,7.022033412918573039e-03,-1.924171627634112128e-03,4.231056534217386006e-03,1.371378540992736816e+00
-3.325805270128225771e-02,-8.278902929343381345e-01,8.075369481105771907e-01,-5.860859175493596598e-03,1.350407432168573146e-03,3.478412659979895124e-03,1.416560769081115723e+00
5.019913508654659171e-03,-7.359929194996722712e-01,7.712751296561979331e-01,-3.095402817121263583e-03,-1.568519834195901408e-02,1.051822272284499288e-02,1.305814266204833984e+00
3.189749270645353407e-02,-1.400725626956111025e+00,1.072220287935215843e+00,7.166164292714101436e-02,3.023362979508716908e-01,3.718571256944567388e-02,2.217847347259521484e+00
-8.244314710233498211e-02,-8.066457124948063218e-01,7.648566251900351665e-01,-5.292759436952707485e-04,-1.941058865567575620e-02,-2.804262766728013185e-03,1.362775683403015137e+00
-7.395233840283770010e-02,-9.170213332626343528e-01,1.078437409286320481e+00,5.952256024832015824e-02,-5.999403336260895198e-02,-4.172341660178604389e-02,1.742687821388244629e+00
-5.839304531359400946e-02,-8.227919301388032514e-01,7.933924605656459406e-01,-9.718989019215367939e-03,3.853216177781284071e-03,7.131806151431108187e-03,1.400510072708129883e+00
1.038806186766074724e-01,-1.409020148504054770e+00,7.059886960877261863e-01,-2.326754826213690286e-01,4.067037961431156923e-01,1.751823921013224150e-01,2.076785326004028320e+00
1.371009963083549277e-01,-9.599477637306613742e-01,4.037746132108256392e-01,4.610254431068542408e-02,3.501506806698779783e-01,2.820119391679450430e-02,1.394189238548278809e+00
-6.186319277958187562e-02,-8.285503153131592580e-01,7.993231465981243122e-01,3.255048684538869135e-03,3.041908254986300589e-02,-1.150017917106859085e-02,1.411706805229187012e+00
-4.198626223803990365e-02,-8.235863408986384693e-01,7.820101726227146610e-01,-6.205780415509668489e-03,-4.742521450087325459e-03,-1.262005847201425838e-03,1.390716433525085449e+00
-5.340191973637578582e-02,-8.169646342052856447e-01,7.984780804832781742e-01,2.392874134270568318e-03,4.363721405389890673e-02,3.229091433349734475e-02,1.402871847152709961e+00
5.222996981409699924e-02,-9.119898327312819797e-01,5.041676736471152331e-01,-3.021044889042981754e-02,-9.519792357102335734e-02,-7.665757004297125976e-02,1.271727085113525391e+00
-8.177664178699516062e-02,-9.465581905193500845e-01,8.763137162308808348e-01,3.537485122422038275e-01,3.505667176532161755e-01,1.640032590191243395e-02,1.799787521362304688e+00
1.788150386228747890e-01,-9.103861944033845299e-01,2.032885757004315175e-01,-5.199067000614233415e-03,-6.275331827461935741e-02,1.021172802835769583e-01,1.121068120002746582e+00
-4.275236626330274070e-02,-8.243904605469537517e-01,8.095161575313410962e-01,2.428453298585087333e-03,2.474366243884694970e-03,7.327510498932907762e-03,1.415514945983886719e+00
-1.351817702305355140e-01,-2.158830660057640682e-01,6.903331996289316930e-01,-2.442117190719890196e-01,-1.263452598009646433e-01,-5.416534315563948862e-03,9.907084703445434570e-01
-1.234501446247188161e-02,-8.535391059999390961e-01,6.752403697683875272e-01,1.442783588580799081e-01,2.602092132209328224e-01,-4.673481814534740514e-02,1.425096988677978516e+00
1.044711114008739505e-01,-8.540092972318876763e-01,2.164133894434269179e-01,4.219024518833375389e-04,-1.733493406831405625e-01,3.188498958464842242e-02,1.063818931579589844e+00
-2.269188276497781376e-02,-8.212947446294079912e-01,8.060642768737661390e-01,-7.188655713925891236e-04,9.422570786825863048e-03,4.783214309351764624e-04,1.409510135650634766e+00
-4.523323922208985493e-03,-1.375843248606216429e+00,1.067832629127587918e+00,-2.723906211486020190e-01,3.159268886741413707e-01,8.968751530118668214e-02,2.246588468551635742e+00
-1.283185104465631721e-01,-7.097683411089603656e-01,1.002800620284959976e+00,-3.203954694502697542e-01,-1.122162855145759225e-02,1.402009449598671555e-02,1.607523083686828613e+00
3.831406688366909008e-02,-8.224605470102200888e-01,5.175178123047953216e-01,-7.180746183881772660e-03,-1.348017055583277113e-01,-1.813728208239619860e-02,1.199463129043579102e+00
7.895538606928304004e-02,-7.968594908734618620e-01,3.411980435423419000e-01,-1.622093374385305108e-03,-9.783674670770776960e-02,-1.148568991517034781e-02,1.046240210533142090e+00
1.338426350186903147e-01,-8.806686435312921502e-01,2.892505091184745525e-01,1.152955792607730234e-01,-2.618741977892243278e-01,8.113780604745311764e-02,1.215076684951782227e+00
-4.516783437885084351e-02,-7.641735932062249104e-01,8.003861819466281391e-01,-1.440189459363189553e-02,-3.207409833032235508e-02,-6.283113177992267519e-03,1.357835054397583008e+00
-1.268320351988550254e-01,-1.325509095871550080e+00,1.535881029226275674e+00,1.597892698419381419e-01,-9.894735518460717749e-02,-5.028540881591530426e-02,2.511583805084228516e+00
-4.062588879148347487e-02,-7.494892463371337632e-01,7.042563251215442355e-01,1.149141314918476417e-02,-2.934232760018538715e-03,1.882345732088696114e-02,1.259698987007141113e+00
1.836042094576231798e-02,-6.811305832362296586e-01,3.273969812013012848e-01,-3.728660177296035799e-02,2.749513163922578246e-02,-5.566436615654456882e-02,9.037111997604370117e-01
-5.593447042361641974e-02,-8.126844160163341213e-01,6.383598066506925850e-01,2.363421871558557194e-03,-1.057601309435906856e-01,6.325056556957535554e-03,1.270359992980957031e+00
-8.936303331471995293e-02,-5.395369730251710072e-01,7.536959882961735691e-01,6.268986762992954237e-03,2.895940501044233853e-02,4.148703094652243795e-02,1.140493631362915039e+00
-3.991839592864033365e-02,-8.276259698765305872e-01,7.793955869336515185e-01,3.403083705559827032e-03,-5.783015574872569543e-03,1.149379224704456283e-02,1.392002105712890625e+00
-1.146608238586386413e-02,-8.223211874002642752e-01,8.026946053019115013e-01,-1.581233703102436980e-03,-1.019319999344203871e-02,7.411316776587901882e-03,1.407477855682373047e+00
-7.751906510970757447e-02,-8.213709301063377710e-01,8.229598120747981804e-01,-4.769334502070485086e-03,-6.254580425371773778e-02,1.084283799425035319e-02,1.430439591407775879e+00
8.419666652287632891e-03,-7.830324431688121534e-01,7.828615263530098733e-01,-1.457471158076890407e-02,-1.058244546884651131e-02,5.861065936346893622e-03,1.356527447700500488e+00
8.945271796256740529e-03,-7.868535528272058155e-01,7.836938330645922823e-01,-5.448801563927110382e-04,2.495615664716071321e-03,1.270239548385934799e-04,1.360181927680969238e+00
-1.060076409183765556e-01,-4.683060783103305535e-01,7.453475157739488655e-01,-8.525707560425811737e-02,-7.621808269212283424e-03,1.182433976407649273e-02,1.089454174041748047e+00
-1.690322504306802642e-01,-2.592454984378169125e-01,1.149080698822116720e+00,-1.867565042056462676e-01,4.121308131862223834e-02,1.984181516799322226e-02,1.405482888221740723e+00
-1.924218214923945763e-02,-8.087232461704525477e-01,6.475947907563776029e-01,1.375959125547742204e-02,3.781796362696585034e-02,6.450602028349770173e-03,1.264670133590698242e+00
-9.573537617760558005e-03,-8.044735551167957466e-01,6.188842741130898828e-01,1.515707563276627243e-02,5.024567547333172457e-02,-1.576049993577890995e-02,1.239110469818115234e+00
-6.874238851540773187e-02,-9.215669196291473853e-01,7.497465816868382760e-01,-3.278520199663543244e-01,2.890438277535787859e-01,1.553813294703338677e-01,1.655533552169799805e+00
-4.505162230014526925e-02,-8.286748690287666363e-01,8.050638761859304493e-01,5.848102333531927759e-03,-1.284260555513183156e-03,-5.256190387028487378e-03,1.415317058563232422e+00
1.124414235703932174e-01,-1.249766616092552018e+00,4.700940395324891830e-01,-2.085078862233931962e-01,2.663591847021015702e-01,3.012198495202975113e-01,1.756756067276000977e+00
-4.277945248500791831e-02,-8.403437754373699331e-01,8.002481552220973571e-01,-2.846612973704168610e-03,-3.239969561635054097e-03,-9.612396493574478645e-03,1.421093344688415527e+00
-5.083198097888861483e-02,-7.054413952169142910e-01,7.885333890036301252e-01,-1.013639282098330839e-02,-2.250450360138781317e-02,1.391626623943089530e-02,1.298041939735412598e+00
-4.375762718712096488e-02,-7.779177013213688374e-01,8.370214498778546508e-01,-7.746366965785557446e-02,1.520278686100836989e-02,-4.789297969348038642e-02,1.409600019454956055e+00
9.758910247328889120e-03,-8.304300626962830556e-01,6.622606863197063598e-01,2.647269479056649439e-04,-6.770792174219695614e-04,-1.461491352502486754e-02,1.296357631683349609e+00
-1.176545115441785527e-01,-1.141275232396663508e-01,1.237408592368233418e+00,5.820654684624870789e-02,-2.630810989182037762e-02,-5.867076408876987365e-02,1.361615300178527832e+00
-5.391064369847999027e-02,-6.989912056385337857e-01,7.801362679880542439e-01,-2.018645490535585577e-02,2.134621455001481025e-02,4.210496326003752843e-03,1.285470008850097656e+00
-6.549977110218192788e-02,-8.088198183134385211e-01,8.099946346997154434e-01,-9.372131573827474594e-04,-1.905862676902897587e-03,-1.286665854048337637e-02,1.403673052787780762e+00
2.010953687058631978e-01,-1.390700484652679370e+00,2.318723223987675386e-01,-4.164425265645001206e-02,-4.242184720615995580e-02,7.810897933538119009e-02,1.616371393203735352e+00
3.449457048506623935e-02,-8.105587542843478710e-01,4.973180448598196746e-01,-1.280626641172261104e-02,5.046211265421460257e-02,3.801447209763049451e-02,1.154078722000122070e+00
-3.252884414216783426e-03,-8.255640801025517783e-01,6.544954822702279129e-01,1.957049685868870320e-02,1.079322247674225710e-03,3.612130903452265285e-02,1.286378383636474609e+00
9.348517401580208608e-02,-8.213478804603160377e-01,1.535004309102188658e-01,-1.296064831641212667e-01,6.653811146058653814e-02,-9.202861982155002840e-02,9.922240376472473145e-01
5.573596249517889789e-02,-8.329996224474489619e-01,5.403980669457727481e-01,-4.973748451555779805e-03,2.572849766966574941e-02,2.584654952905384925e-02,1.208117961883544922e+00
4.826385312478032041e-02,-8.758328550942926505e-01,5.407222970319343069e-01,-1.852451737787149180e-02,-2.049334180768420076e-03,1.235090278425075849e-01,1.264260530471801758e+00
2.396838773145930634e-01,-1.493511361751807209e+00,3.841057595875313480e-01,3.232147915456707460e-02,-2.337436207999372406e-01,2.260306609114405563e-01,1.896166324615478516e+00
3.495459864134037309e-02,-6.724841492575486246e-01,2.294461331483049205e-01,-1.248907562085164596e-01,-2.800798059203606777e-02,-2.257455905730239992e-02,8.523864746093750000e-01
-1.431948601096690726e-02,-8.292297884397715757e-01,6.989749062028333126e-01,6.886418669732430158e-04,4.277014086845488255e-03,-1.775928059802613090e-02,1.324817419052124023e+00
2.893032455879097908e-02,-8.228374425777685852e-01,5.964253119080257237e-01,-7.549167455026441730e-03,9.442262284979879849e-03,3.479656636677175285e-02,1.238952636718750000e+00
1.534267388910142138e-01,-1.456571682745235297e+00,5.995906768051814106e-01,-1.400572183933354309e-01,-4.060234704774474679e-01,-1.238009608061903660e-01,2.027035713195800781e+00
7.141298860466246956e-02,-8.613404485305495850e-01,3.661228879363187527e-01,-1.565848032444696891e-01,-3.052642370240028491e-01,-9.031641915643902341e-02,1.268605947494506836e+00
-5.522959416749539940e-02,-8.198484729837071106e-01,7.857334759230306664e-01,3.956030436393910728e-03,-5.646721119248337278e-03,6.933671455708346684e-03,1.391101717948913574e+00
9.395383984835578572e-02,-7.474972085744869821e-01,2.416751802314680009e-01,2.904423860725950310e-02,6.635083799925505128e-03,1.758729072851222125e-02,9.261492490768432617e-01
4.225911795403380911e-02,-9.678417064400302028e-01,5.892240685957570445e-01,2.404143970510548289e-01,-3.382787303829416503e-01,5.418014158983952555e-02,1.548375010490417480e+00
1.435910768065137844e-03,-8.069515623462433229e-01,6.161142534050336739e-01,-1.542352873411785043e-02,-3.890634680111481041e-03,6.434351695647346631e-03,1.236568331718444824e+00
-2.777281880579252765e-02,-7.750704048787924183e-01,7.977518437243854565e-01,3.411177396127266451e-03,2.149710100113570721e-02,-6.498938391471091765e-03,1.363233327865600586e+00
-3.218092103988666464e-02,-7.665187446008474570e-01,7.886096330710001823e-01,1.754222587663417307e-02,5.284482565337182518e-03,-4.575937625558320829e-03,1.347871065139770508e+00
-1.795528269341692407e-03,-8.183067766978615598e-01,6.215899720085605873e-01,-1.950945660933008563e-03,-1.133199800137223712e-01,4.958867364010118538e-03,1.266061186790466309e+00
-4.899404490316688898e-02,-7.053647112637061456e-01,7.888865351154632499e-01,1.020335910226104030e-02,2.318601273648952452e-02,1.340753497020808274e-02,1.298187613487243652e+00
5.772046974582645262e-02,-7.791355449162238322e-01,4.588494989289308990e-01,6.586314198228064402e-03,-5.268852061707834933e-02,-2.784769712148805077e-03,1.097907781600952148e+00
-2.207522631587688355e-02,-8.125899401828272639e-01,8.018635672546072790e-01,-5.316458268817684726e-03,-6.222676115559418707e-04,1.598295400613863057e-03,1.398291110992431641e+00
-2.910919442262390605e-02,-8.350277256160092421e-01,8.007033325762080711e-01,4.858213066352092338e-03,1.523435302850442361e-02,1.032380948448384690e-02,1.417018532752990723e+00
2.763507259402747662e-03,-7.877194330112038401e-01,5.727116010637248733e-01,3.661388111232221580e-03,-3.841258845600850624e-02,-1.263864243885468855e-03,1.185204625129699707e+00
-5.555760620840480973e-02,-8.454443563091770253e-01,8.088904997291861410e-01,-1.702909687521589333e-02,-1.213669291476993485e-03,4.054660910973485743e-02,1.435205221176147461e+00
-1.024220148809577291e-01,-6.442298392328322798e-01,8.819791367284862682e-01,2.511668231465257750e-01,-1.991491831781624644e-01,8.958322603397104317e-03,1.450666666030883789e+00
-1.726665670496048410e-02,-9.972926153525073500e-01,6.584652897638106905e-01,-9.204625926936422717e-03,-2.153068273566735302e-01,-3.761857988900294686e-02,1.490929245948791504e+00
-4.119478215520105263e-02,-8.269865786842961475e-01,7.871027896832590853e-01,-3.821308574530582112e-04,-2.576811143326224185e-03,-3.468495351297572454e-03,1.398024201393127441e+00
-3.917592198540117282e-02,-8.183716440403345782e-01,9.202833036402829903e-01,-1.152319771188412417e-01,-4.423886683659505187e-02,-4.343270274042018708e-02,1.525345921516418457e+00
-8.920590901488917313e-03,-8.051024920159378651e-01,5.929689425431706740e-01,1.073851494025705906e-02,-5.286124885978748383e-02,1.342867422011833310e-02,1.218466281890869141e+00
5.370003034740555847e-02,-8.114499425445632630e-01,5.003068893967392849e-01,2.082275232087211613e-03,-4.987398847655779427e-02,3.548530996110755339e-03,1.158376932144165039e+00
2.621297218304380339e-02,-7.882448211611647881e-01,5.266314622525194444e-01,5.812072783665186287e-03,-1.168183150251705590e-02,-9.579440519619109723e-03,1.149832963943481445e+00
-9.536354122190257576e-02,-5.268197275112849187e-01,7.587881082745266959e-01,-6.933501592997584617e-02,-1.049970503399571056e-02,-9.830037177576616408e-03,1.139868974685668945e+00
-7.980398203322487671e-02,-7.362789343042814849e-01,8.278176502123487657e-01,1.882015382121810659e-02,6.598767342888289117e-03,2.365982769976372399e-02,1.361410975456237793e+00
-8.848706327693979523e-02,-9.316202914666725787e-01,9.729275219692239407e-01,1.725670670033931445e-02,-8.407379397600370230e-02,-2.900281747455038528e-02,1.660424828529357910e+00
1.163783929176429310e-01,-8.214618031099237827e-01,3.656976981501613988e-01,-2.678749906147199350e-02,-5.021886295021657509e-02,1.879955138943759790e-02,1.089176177978515625e+00
-9.625558298685951697e-02,-1.080491656865864236e+00,1.062547852930848302e+00,3.843066490958725878e-01,-3.596657398936448646e-01,6.415038953159657442e-02,2.072578430175781250e+00
1.617790305016728047e-01,-1.308674777870107109e+00,3.727588446888876472e-01,1.313007827916668480e-01,-2.239738192814329232e-01,1.814289222073152685e-01,1.678673505783081055e+00
-7.072036018170517468e-02,-7.761225325902721961e-01,9.242123790291842944e-01,1.596207893436117353e-01,-1.609692414926620907e-01,1.288498920277451887e-01,1.547025442123413086e+00
7.685620014090560614e-02,-8.089036738214167022e-01,3.504566393424224935e-01,5.251403739537720966e-03,-1.024662399259754775e-01,2.561861593235787576e-02,1.065514802932739258e+00
-8.950140882744438142e-02,-8.223771114705699103e-01,8.196780507903609347e-01,-8.323497798539924303e-03,-9.150282838151777010e-02,7.755222462859708444e-04,1.433651804924011230e+00
-4.898943824184575496e-02,-8.421596576557160985e-01,8.040954603774996823e-01,-1.252016312552748332e-02,-8.467594133671915701e-07,-3.709709304873299619e-03,1.426192760467529297e+00
3.738025702755209956e-02,-8.013984082111674789e-01,5.035475102936263214e-01,5.805911881900614573e-03,-5.651739996165460606e-02,1.137456249988921808e-02,1.149758458137512207e+00
-1.557791455337363684e-01,-1.189923290346536211e+00,1.339278819236092710e+00,2.393053214894450553e-01,-1.130207803326740701e-01,1.057301311705843676e-02,2.249714612960815430e+00
2.343904717638035928e-02,-8.013068920403262352e-01,4.810133937113281188e-01,-5.280660493383027530e-03,-1.689672122144863786e-01,-5.920640915509551433e-03,1.163099884986877441e+00
-7.321525552952923288e-02,-4.594727024722210507e-01,7.997165246803793481e-01,-1.672492692887096455e-01,-1.549025754250277047e-02,-5.295621429503569351e-03,1.154600381851196289e+00
-6.867977269813704821e-02,-4.805604100653917410e-01,7.993168946876342273e-01,-1.644880619194601101e-01,7.308988925473806908e-02,-1.680752409811598833e-02,1.174145579338073730e+00
-4.674484761951314127e-02,-6.991093740390312838e-01,8.132448337692359530e-01,-2.198294639905222225e-01,1.802967466545145683e-02,2.469291604473017321e-02,1.368929505348205566e+00
2.173773945716861444e-01,-1.497457602629267859e+00,4.109489734759261825e-01,8.490220547800842593e-03,-2.399204780850784091e-01,-3.897387351894519847e-02,1.867493271827697754e+00
-1.220384928647785805e-01,-5.674144758096179020e-01,9.208690079447334753e-01,-1.190075008071613538e-01,1.990485632677077912e-02,3.074398066361534385e-02,1.340527653694152832e+00
1.524769349443087507e-01,-1.258244308740217754e+00,4.568281328836727440e-01,-1.641967625352162841e-01,3.254785404236560931e-01,2.930934719785212028e-01,1.780033946037292480e+00
-3.217545358318867760e-02,-8.297207415055661839e-01,8.320048217488253961e-01,-2.619231854475861931e-02,8.106799308479156968e-04,6.621068636889245037e-04,1.440198063850402832e+00
-7.825774447258367073e-02,-7.025414431678133065e-01,8.120282701688100735e-01,-1.256632232977111518e-01,-4.157494864349304230e-03,1.091877657742024166e-02,1.336380839347839355e+00
2.832694826749680705e-02,-7.938828974406734185e-01,5.191142597165023798e-01,5.581628744133694704e-03,1.068927785660311533e-02,-3.375577875065136502e-03,1.149304866790771484e+00
6.346016837845844250e-02,-7.876897913748241997e-01,4.384044854979769479e-01,-6.612454552953099356e-03,-4.645554499511823920e-02,-1.799834462036848173e-02,1.091673374176025391e+00
-1.741340789251411558e-01,-3.382606391299536330e-01,1.197676150517502425e+00,-2.308011012414624974e-01,-1.026791892151126817e-01,-6.693000737657421595e-02,1.529322266578674316e+00
-1.386559892130972971e-01,-4.554380463486596975e-01,1.033405720557877716e+00,-2.593827946855505884e-01,8.896354918272475487e-02,3.933783790125107427e-02,1.440691471099853516e+00
2.170878147461791086e-01,-1.549374079291808259e+00,3.635975312728478848e-01,-6.871826976640683926e-02,2.254179223187368630e-01,7.449153557776549799e-03,1.888764023780822754e+00
-6.085066156102128532e-02,-5.160101587125082157e-01,9.118069780037205696e-01,2.492243619505615793e-01,-7.459229842008807676e-03,-1.120880044644624596e-01,1.349127054214477539e+00
-9.229591204208179023e-02,-5.055675900147721391e-01,8.510290994088138827e-01,-2.425483449164916039e-01,9.783862617628893976e-02,-8.771949174093120194e-02,1.295683383941650391e+00
-4.190627138493308035e-02,-8.652265401637639908e-01,8.866748916505181599e-01,2.957561108640346242e-02,-2.263063881117033035e-02,-7.596552741559802618e-03,1.519530415534973145e+00
-6.172797230100736388e-02,-1.044134887278159285e+00,1.106027003825404975e+00,1.662832357161516117e-01,1.950881026115483877e-02,1.247646777505419247e-02,1.886940598487854004e+00
-6.454279236924947982e-02,-8.160358056813495908e-01,8.150575434021228860e-01,1.502167046600050694e-04,-1.928999092187441689e-04,1.672370207739142314e-02,1.414316534996032715e+00
4.438599256271942572e-04,-6.820410024741564436e-01,7.560423584816108322e-01,2.731076829724850968e-02,-8.063439326379333652e-03,1.916884956838801543e-03,1.246933460235595703e+00
-2.479915493657872672e-01,-6.154603170152103120e-01,1.329008113927533374e+00,3.125160446124162217e-01,1.015724797347511470e-04,-1.767733087114835375e-03,1.869349479675292969e+00
-4.407595297904437492e-02,-8.273944666918101598e-01,7.754417544945375607e-01,-1.043129805469434311e-02,-7.681466249703993235e-03,-1.115314525101416751e-02,1.388530611991882324e+00
-5.581990254708191213e-02,-8.170782828586787838e-01,7.906591065562493803e-01,-8.616254368963163031e-04,2.294777724452101014e-02,7.508211909569495121e-03,1.393621683120727539e+00
-5.483432948993671729e-02,-8.240495924498270064e-01,7.838638943624829380e-01,-5.743477693794722498e-03,-1.142855790286699492e-03,-2.050257642094823699e-03,1.392968654632568359e+00
-3.833756125158392647e-02,-8.319315855989805053e-01,9.172227614551274888e-01,6.432023779752808756e-02,7.684677998682561129e-02,5.195365357089257868e-03,1.526899695396423340e+00
-1.582112758878463921e-01,-5.668769567155905742e-01,1.159682655630397630e+00,2.419926028610039637e-01,-1.160022365966323632e-01,-7.361237574143122964e-02,1.635462403297424316e+00
-4.511097799173820200e-02,-8.232857144901611912e-01,8.083396318320846818e-01,-3.353758986526675324e-04,-8.659662375480957353e-03,-4.191974803888917460e-03,1.413628578186035156e+00
-2.198423990196053945e-01,-6.623088549907671929e-01,1.459072841565801859e+00,3.241106118109567391e-01,-7.214188349937560030e-02,3.647570477296036701e-02,2.022904872894287109e+00
-1.315837548452563344e-01,-5.679267362737259184e-01,7.815537589992491707e-01,1.371997150086964531e-02,-4.312876448864279288e-03,5.603434222145021321e-02,1.196953058242797852e+00
-4.221542358349005680e-02,-8.366111653144897575e-01,8.136970247888861696e-01,-6.706718516800840588e-04,-2.464108502761776232e-03,-6.034650494809579288e-04,1.429546952247619629e+00
-3.726270173212793690e-02,-8.293011564636413313e-01,7.473740686850463000e-01,-8.809794666653209330e-03,9.256762631750120075e-04,1.598002800199209775e-02,1.365812540054321289e+00
-2.546680294513319759e-02,-8.224858843054387858e-01,7.232011162616374111e-01,5.996875314224785550e-03,-1.958804658807546117e-02,-2.688293011967871071e-02,1.340101718902587891e+00
-9.094590298862276212e-02,-4.968248044671488284e-01,7.354406779960388496e-01,1.199592894522189500e-02,-9.076509294334388425e-03,3.103848081804503473e-03,1.088013410568237305e+00
-3.106953131789215450e-02,-8.329027899032254156e-01,8.108522990863308300e-01,1.187264829909147421e-03,-1.081315335024099489e-02,-4.286826147483536326e-03,1.423818826675415039e+00
-1.681883722418063276e-01,-2.535012786307115906e-01,7.741051375642871157e-01,2.351497460370998837e-03,-2.302769526103165196e-02,1.405123197384496869e-01,1.018049001693725586e+00
6.039774788093121849e-02,-1.375622126658482935e+00,8.071147075847776575e-01,-2.585583680627001057e-01,-3.261210477315311662e-01,-1.911218369019226093e-01,2.078760385513305664e+00
-8.741747706296837395e-02,-8.870822559049575950e-01,8.853800970953281668e-01,-1.139209031515939392e-02,-7.118806561864682303e-02,-1.936903235026327108e-02,1.542863845825195312e+00
-4.513540567736042119e-02,-8.369861593880508766e-01,7.936376127833724148e-01,-7.815243810079067557e-03,-1.326384889559303502e-04,-5.261463156101730577e-03,1.412450790405273438e+00
-1.320749216428111494e-01,-3.741443089364381303e-01,7.505029931066992122e-01,-1.353927459993160137e-02,6.115993792627065669e-03,2.630119024419640128e-02,1.026607990264892578e+00
-6.198778267149171461e-02,-8.070791225046499706e-01,7.254600246095379568e-01,-1.395119567505312581e-02,-2.882502859529427128e-03,2.067636195555870842e-03,1.327620983123779297e+00
-4.745893526950102637e-02,-5.350441006110364661e-01,7.337739891525687508e-01,5.706002082306887296e-02,5.334162916552572485e-03,-4.693474348193883879e-03,1.113059163093566895e+00
2.562868504981180573e-02,-8.923373101717049227e-01,5.630068712580973411e-01,3.793674035806935459e-03,3.778050572169349558e-02,-1.258376267364433865e-01,1.294821381568908691e+00
1.995478149693014069e-02,-8.510263780290051594e-01,6.129236934545764237e-01,-3.832239768031344557e-02,4.531199537611873933e-03,5.792432394025131409e-02,1.281100392341613770e+00
-4.662949169668013927e-02,-7.616500403684287601e-01,7.305286282958906030e-01,-3.125690791958277148e-02,-1.856780278018132710e-02,6.838130822770472836e-04,1.294171452522277832e+00
6.755800351224050537e-02,-8.552671759786814043e-01,4.623113839198399466e-01,-1.147442986746331599e-02,-7.742720364477223560e-02,-8.809273837291030362e-02,1.188858985900878906e+00
-8.594629854196088325e-02,-8.042858439430465856e-01,7.790562167998786869e-01,-5.296545025953872457e-05,-1.529126487440678021e-02,-5.667640464528465004e-03,1.373464345932006836e+00
-4.995288175587089818e-02,-7.414874615457691664e-01,7.998416801046607238e-01,-8.337450518970290075e-03,-2.494800394254795967e-02,-7.876755508328094069e-03,1.338019132614135742e+00
-2.853683922218937935e-02,-8.043423214516808306e-01,6.569098824727735986e-01,-1.973051429414636460e-02,-7.380227769061042942e-02,-1.305082821805041062e-03,1.273184180259704590e+00
4.357064761366594152e-02,-1.277381085724011989e+00,7.532214357543455252e-01,2.654566317445671841e-01,-3.677160569727455086e-01,6.971601133754827540e-02,1.953857779502868652e+00
-5.156874390464797481e-02,-8.232014175080899498e-01,7.869095911410166622e-01,9.833155021208674681e-04,2.403943190806934020e-03,-2.810011203623216658e-03,1.394813299179077148e+00
4.653443638873877575e-02,-9.923437915577688617e-01,6.023937406696943109e-01,-1.444842892073989679e-02,5.456218569925337658e-02,1.256818533552578158e-02,1.405613303184509277e+00
9.277058029087731361e-02,-1.139329959321887520e+00,4.516052430378300064e-01,-1.236348900556091535e-01,2.182810468523264658e-01,9.021972401394721952e-02,1.517290234565734863e+00
1.488049192150593392e-01,-1.291819478895330553e+00,2.810430039447624484e-01,-1.977924704801674663e-02,1.019637125133603245e-01,-2.073577395148431396e-02,1.522184014320373535e+00
7.093745457252459419e-02,-9.783640999621262546e-01,3.634503900470216209e-01,-2.099555121669282199e-03,-9.580626913483630824e-04,1.354327991953375721e-01,1.244417071342468262e+00
-3.195938673200784258e-02,-7.972583554877117340e-01,7.192878762732380915e-01,2.540293581016980773e-02,1.088556647403511601e-02,-9.023516880077199487e-02,1.323518872261047363e+00
-7.896451332949262769e-02,-9.038545590879132341e-01,8.298014078294614349e-01,3.926559428815786304e-03,1.820653778954654523e-01,2.342673453366727471e-02,1.535274267196655273e+00
3.999094254632762357e-02,-8.813884713459219089e-01,5.749656283501139997e-01,-3.560422629832178665e-02,-3.114837539015144659e-03,1.429137529845417483e-02,1.277692198753356934e+00
-3.828002170241949498e-02,-8.232519372455693318e-01,8.012515392564709682e-01,-4.203629769086376575e-03,2.353840113951805296e-03,5.554784200639902372e-03,1.407183408737182617e+00
5.482277630974624616e-02,-1.098948254129509028e+00,7.001577293880977271e-01,-9.903369141962983790e-02,3.702335397192927924e-01,-1.580549419002969802e-01,1.734300851821899414e+00
-1.556408753828447677e-02,-1.493769531514269167e+00,1.214961526031087313e+00,-8.423726050728928827e-02,-1.834568223662171038e-01,-3.848083374872460216e-02,2.375910997390747070e+00
-1.109702141653874929e-01,-3.826876992039510705e-01,7.304279104814375145e-01,-3.232990679546048768e-02,-1.181179310647369023e-02,2.204395869110807246e-02,1.007678389549255371e+00
-1.105467292624593006e-01,-1.121094609153983068e+00,1.101358465292553213e+00,2.707441662171431451e-01,2.852438169463353268e-01,-5.049015988598085092e-02,2.046034336090087891e+00
-1.838662895298517341e-01,-8.671126357832396048e-01,1.315978060198330635e+00,3.081245310694001316e-01,1.485476608748575178e-01,5.690406442955801142e-02,2.025304317474365234e+00
-1.135877084699966344e-01,-6.156133887732466725e-01,7.843611401439342101e-01,-2.666967313301743178e-02,-7.333438220379793690e-03,4.735932329412685660e-02,1.232136011123657227e+00
-6.843692370280968218e-02,-1.509921880613290579e+00,1.431128709978002123e+00,-9.431080670670748123e-02,1.260417240930125082e-01,2.157245916045121351e-02,2.562014102935791016e+00
1.067762873260136303e-02,-1.034543645251239763e+00,6.593391911396924154e-01,-3.222428417869432210e-02,1.941126375877411658e-01,7.229046947176266669e-02,1.524164080619812012e+00
-7.479011340616170678e-02,-6.466187149109218213e-01,7.884174528162447571e-01,-4.182303021376173463e-03,-3.534593479747041161e-02,6.047333217163786828e-02,1.257176876068115234e+00
-2.637401884797828389e-02,-8.121469938412643197e-01,8.035127542093545294e-01,1.027127452479224129e-02,-4.108665586465216728e-03,-1.286728905939559051e-03,1.399509191513061523e+00
-1.135277530624484998e-01,-1.041082249840225238e+00,1.365337913904222766e+00,1.491249478206808088e-01,4.439021392667964055e-02,1.414424973163960070e-03,2.119377613067626953e+00
-4.630397122286826483e-02,-5.343006251075467228e-01,7.324791583416794261e-01,5.287716709754394784e-02,-1.500254852546929448e-03,3.516478393661443685e-04,1.110442519187927246e+00
-7.432306988432417494e-02,-7.094274491713569164e-01,8.015605542668794437e-01,-1.322964698373595496e-02,-2.304999887174758594e-02,-1.225089158693988545e-02,1.315057635307312012e+00
2.444114571534426392e-03,-7.440503887233249625e-01,7.677385172321100626e-01,3.744263766860302101e-02,-1.188823765815668135e-02,-3.792630057683923223e-02,1.312692880630493164e+00
-1.051609098933144193e-02,-8.013773372780677029e-01,7.956401441184861589e-01,3.540524021528845735e-03,-1.729176173655114397e-03,-4.652034571712826590e-03,1.383119106292724609e+00
-2.229444822903272061e-01,-7.768686372718516253e-01,1.474712547162401188e+00,3.438215389127979860e-01,-6.666921868142926255e-02,-2.924799962043317034e-04,2.120664834976196289e+00
-4.644410675359143120e-02,-8.331494204530566217e-01,8.062276547376975300e-01,-4.223591992608444722e-03,-1.782357226569290061e-03,-1.045670900915509141e-03,1.420148611068725586e+00
-1.292475572364182035e-01,-1.438854410501292147e+00,1.603434472129248611e+00,1.977421646473795924e-01,-6.899412671560797850e-02,-1.011211312672840278e-02,2.668010950088500977e+00
-5.468061074661385162e-02,-7.990133905722736074e-01,8.121382754527626258e-01,-1.278284094291751681e-02,1.408366846289744664e-02,-4.203483965052013174e-03,1.397049069404602051e+00
-9.978152800102167361e-03,-8.185753503884638516e-01,7.982917303623240368e-01,5.833931575020917699e-03,-1.868996203636263389e-03,4.680391268115090785e-03,1.400311589241027832e+00
-6.379533592919058027e-02,-8.492324859003195225e-01,9.609427284574548755e-01,-1.176659292735072332e-01,-1.348417862464424410e-01,5.678925278324679915e-02,1.605498313903808594e+00
-3.650226797438642368e-02,-8.327758591315083114e-01,8.118220151140752572e-01,8.569347545489060551e-04,-6.013751803393307081e-03,-8.542963617273630636e-04,1.424540877342224121e+00
-2.298686034503161224e-02,-8.203870873165581834e-01,8.146246860509533949e-01,-5.998571130227641456e-03,1.157823864180445618e-02,-5.734925282039841227e-03,1.416319370269775391e+00
-9.260750521526622814e-02,-7.523445223034701534e-01,1.018428689020448363e+00,-2.848703768390756230e-01,-8.944335389411586790e-02,6.462958251105244134e-02,1.637873888015747070e+00
-1.181722281258615614e-01,-6.029261626395392426e-01,9.105063689214450973e-01,-3.037316088247226653e-01,-2.817921482383825213e-02,5.404914341949070000e-02,1.442125797271728516e+00
-3.050090175392216468e-02,-8.760840854958047430e-01,8.978987053529821072e-01,-5.139517001451469197e-02,1.483117996608112818e-03,-2.637215229561410725e-03,1.539456963539123535e+00
-1.507755884518610090e-01,-4.666226698657960359e-01,1.096546961215587812e+00,-2.322270661405363978e-01,-1.086408541722710536e-01,6.462804314062964815e-03,1.498952388763427734e+00
-3.400576391472038412e-02,-8.022544477560472620e-01,6.492472115210384809e-01,-9.250315410178915412e-03,2.927537525361594006e-02,5.523001674630188991e-03,1.258915543556213379e+00
-9.990025370311568509e-02,-1.564752107347451515e+00,1.565522687241519995e+00,-1.140787504155367782e-01,-7.318987989762658353e-02,-3.759108818319825684e-02,2.723669290542602539e+00
-1.228298925444532841e-01,-1.609970287233458475e+00,1.662979925374092449e+00,-1.116438808150220369e-01,-6.897136486896429663e-02,-6.256212521198732668e-02,2.849536657333374023e+00
-1.196176118560227652e-01,-5.712264013578309818e-01,7.786782320163297966e-01,-4.860492731958497396e-03,-1.143296058874516963e-02,8.003724557212878177e-02,1.198434472084045410e+00
-3.051755659227952180e-02,-8.267221966254421073e-01,8.051596649227159563e-01,1.007451703650438183e-03,-1.228066155792147639e-02,2.234041254092768939e-03,1.413555383682250977e+00
-8.775711053925645821e-02,-1.365009921546913807e+00,1.480133861722948918e+00,-1.312032307735840897e-01,1.064682218194744345e-01,3.174315869914646343e-02,2.486145973205566406e+00
-6.094503194032248328e-02,-8.472393878796286026e-01,8.695321205827626354e-01,-9.733821565075250620e-03,1.463543760421258605e-03,5.476865347996751239e-03,1.488642334938049316e+00
-3.113612147632799365e-02,-8.305491330053481613e-01,8.107059784315214790e-01,8.404523376661219474e-04,-1.115284203134799673e-02,-1.412496769829249457e-03,1.421661019325256348e+00
-2.370275529533488745e-02,-8.237527625231099160e-01,8.038637115414936085e-01,-3.290303880766679272e-04,-7.151948226426599678e-03,-1.653452811411236512e-03,1.409681797027587891e+00
-1.840330199520375243e-01,-9.076035209962813877e-01,1.408332172779561020e+00,-3.183339995178304238e-01,1.096490409370140806e-01,-1.161604291815558909e-01,2.142878293991088867e+00
-2.839342202424229716e-02,-8.320713498129234109e-01,8.105571002273225245e-01,4.066904677102274081e-03,-3.207097166213875787e-04,2.676508737059707290e-03,1.422692418098449707e+00
-3.054733346007691003e-02,-8.320654943062085751e-01,8.655470667294997700e-01,-1.176765489970381801e-01,-1.014787293571480647e-01,-2.275774757770181178e-02,1.495875477790832520e+00
-1.872876364041208830e-01,-5.090085210542365513e-01,1.229798860139934558e+00,-2.601856835989841410e-01,-6.012246850668145209e-02,-2.322649329992173411e-02,1.668261647224426270e+00
-1.002835139972244466e-01,-1.106987182752384502e+00,1.208737459271322923e+00,-3.220501833154036930e-01,-2.863780881244440413e-01,9.077242776771442256e-02,2.150974035263061523e+00
-6.413839949571105425e-02,-8.037804355529087896e-01,7.215237575831973116e-01,-6.129045659858405395e-03,-4.534478046222802788e-02,-4.774393874594133266e-03,1.323553442955017090e+00
-1.122468393164586520e-01,-4.937956249291319821e-01,8.451639177439985717e-01,-9.278182208914967366e-02,-1.051368080354934606e-02,7.875743918665153998e-02,1.213374972343444824e+00
-4.063504903534088247e-02,-9.146594046194863603e-01,8.391686513988044771e-01,-1.186780173207231115e-01,-1.261846534931881370e-01,-4.949285307845384396e-02,1.550584673881530762e+00
-4.865652101922701006e-02,-8.542069422606051177e-01,8.513378811910020660e-01,-3.474192215878361273e-02,-5.739018188146381705e-02,-3.478318145926345868e-03,1.482373237609863281e+00
6.647573284050173337e-02,-7.817545931024812988e-01,4.025292048830698688e-01,1.462927429229793873e-02,-2.129026280090407647e-02,2.648981563064358585e-02,1.059048771858215332e+00
-3.615284331958663194e-02,-7.048143484564680650e-01,7.773868812962599906e-01,-5.762211441680740315e-03,2.409730275717656550e-02,5.159433336349960632e-03,1.286413311958312988e+00
-7.702743468842591229e-03,-8.198097577781048306e-01,8.104023433553885214e-01,-1.351784683621441892e-02,3.212794466542245961e-03,2.196711406060509932e-03,1.412018537521362305e+00
-2.921936416048632676e-02,-8.400334560599145295e-01,7.737427598586352762e-01,-1.723887695386011956e-02,-1.395328479966414029e-02,3.041151054176954513e-02,1.399096488952636719e+00
1.055520071693142464e-02,-8.149030817220928036e-01,8.224928239979939493e-01,-2.144429498258556069e-02,-2.661652803795988998e-03,7.151352508731479395e-03,1.418590545654296875e+00
-4.689845537226522421e-02,-8.123260195282007157e-01,7.129716317319170216e-01,1.163764039245878540e-02,-1.968029579146262850e-02,-3.498826748886416874e-03,1.321556806564331055e+00
-1.114998089599837372e-01,-1.828344764913600873e-01,1.090271789983936701e+00,-6.939127195109093260e-02,4.263882132775537875e-02,-3.482083413641395842e-02,1.248442530632019043e+00
-1.044936922889047604e-01,-9.457980117130789788e-01,9.970231545567442843e-01,-7.641384908495092720e-03,-7.899200393927478803e-02,-3.579721454908481315e-02,1.694279193878173828e+00
-1.329516828228691494e-01,-4.307508861846134351e-01,7.485621609075940874e-01,2.428981321623615956e-03,-1.547222991836768972e-02,-6.757853681493170006e-02,1.068972229957580566e+00
-1.027209735566212978e-01,-1.087554291626168790e-01,1.259942795346850053e+00,-3.083319519468366229e-02,-1.196355466613307746e-03,2.185433443997967379e-02,1.367260456085205078e+00
-1.582100757520606138e-01,-3.175397873533882254e-01,7.067816713569453624e-01,3.319910176837666260e-02,-1.308713228193703541e-05,4.832125765429081711e-03,9.564476609230041504e-01
-1.604015086493340569e-01,-3.196424310165458249e-01,7.273831089463150823e-01,-2.208523702093502690e-03,-7.857250729971549275e-05,4.063671319568073342e-02,9.797242283821105957e-01
-1.498441935977257167e-01,-5.631886377489514484e-01,9.952072757305783224e-01,-2.474197455033763648e-01,2.015898694819383830e-01,-3.598164901668427645e-02,1.504907369613647461e+00
8.612132468811345420e-03,-8.111078153526930512e-01,6.133999181472984397e-01,5.480653473922647914e-03,3.300338183198238406e-02,3.771091913032566939e-02,1.241406321525573730e+00
-6.959561793728909207e-02,-8.477563019704400515e-01,8.441392018203579539e-01,-4.338382126724766967e-03,3.487705673200936201e-03,1.813468965500797392e-02,1.467159628868103027e+00
-5.372112439456409871e-02,-5.335088953404121259e-01,7.405613145284495324e-01,-6.815059006891527327e-02,-1.798837653742641624e-02,4.017201623168524353e-03,1.121213912963867188e+00
8.394351866501620352e-02,-8.824083106253003406e-01,4.240071565533827247e-01,4.640182838646680907e-02,-1.764948868515986251e-03,1.210967130864380216e-02,1.176864027976989746e+00
-1.177043914672140923e-01,-4.766398417620666406e-01,7.533546757077175249e-01,-7.561374425141908703e-03,-4.856606560634711689e-03,-1.228095567821154560e-02,1.095868229866027832e+00
9.045573404267162609e-02,-9.691766914394323029e-01,4.898419726051003176e-01,3.688196962591435563e-02,8.662357512139381988e-02,2.547098278202838961e-02,1.316841244697570801e+00
-9.995992050907551163e-02,-3.710283546690962830e-01,6.878035472111847515e-01,1.894478152018257144e-01,-8.857470188677747658e-02,1.193589924368684968e-01,1.039968609809875488e+00
-1.210583625052332191e-01,-1.914390138863606428e-01,1.262310664012842087e+00,7.625494249267558700e-02,-2.895777033419642908e-03,-5.803642537330214179e-02,1.429545402526855469e+00
-3.869342200489526984e-02,-8.100028846002115257e-01,7.114612266333185664e-01,2.405682103174035420e-03,-6.037547075765626464e-02,-1.966780187849885911e-02,1.322257518768310547e+00
-1.434675505080627855e-01,-4.370531178470800637e-01,7.536745626832940248e-01,-9.995704283932327523e-04,-8.235304324538179899e-03,3.431235722186173898e-02,1.076189041137695312e+00
-7.541947687819255952e-02,-8.656318772106510462e-01,8.846194781134928409e-01,-3.963105470215815690e-03,-7.085134649940437283e-03,-1.780459019773729390e-04,1.518203854560852051e+00
-1.611101925318529637e-02,-1.291631481980880736e+00,1.099617853051510163e+00,2.879714009645671993e-02,-2.975700743204706122e-01,8.407612524652355313e-02,2.141092300415039062e+00
1.936220918880098701e-02,-8.331287201755404048e-01,8.179221175554522993e-01,-5.744515945926988859e-02,3.130310717941689903e-03,5.776861165246964872e-03,1.433608412742614746e+00
-3.284312974278483926e-02,-1.148996978923058299e+00,1.037358512628661744e+00,1.331609115542404555e-02,-1.805861848864318345e-02,7.610215699386653487e-02,1.898558855056762695e+00
-1.094112023292615476e-01,-2.077231112078339881e-01,9.317175355255076230e-01,-3.456843916567424457e-02,1.631659218094155470e-02,-9.995848993729580800e-02,1.109201669692993164e+00
-9.873871146880866534e-02,-6.137581046649956962e-01,7.820121619084678954e-01,-3.183256113351432687e-02,1.015309768197497978e-02,-1.291103607304792955e-02,1.224099755287170410e+00
-9.472877513297256469e-02,-6.596852077200450193e-01,8.143083024320011409e-01,-3.755670533816952983e-02,-4.823700347067469592e-03,4.745194402863132932e-02,1.292341589927673340e+00
-1.717608382767381592e-01,-9.330704549053925323e-01,1.349367118112818842e+00,-2.903830905974298937e-01,9.324595710664990156e-02,-2.947228087468677440e-02,2.081616878509521484e+00
2.669045918729229250e-02,-7.715547294354063723e-01,7.707842501517820910e-01,-1.650012889068439015e-02,-6.858034409702324632e-04,-2.007897219654611147e-03,1.336289882659912109e+00
-6.487146257653030046e-02,-8.848850511350484505e-01,9.005975679375831655e-01,6.652230140447406605e-03,-8.285212256059852273e-03,5.338661328809534909e-03,1.548119664192199707e+00
1.784265368768273886e-03,-7.682170933767020760e-01,7.879360006821150009e-01,-1.981799687259698517e-02,-8.787270216261041864e-03,-1.385318654913873619e-02,1.348428726196289062e+00
-3.680890552013121875e-02,-6.295622052757210430e-01,7.511436446542507639e-01,-8.694616220925755617e-03,1.107176012657452684e-02,4.817987434685581938e-03,1.199979782104492188e+00
-4.609802940456312302e-03,-8.106997331412053587e-01,7.982934073449509116e-01,-8.809757597521393133e-03,1.160227630903049208e-02,-3.145873039738929147e-03,1.393668889999389648e+00
-1.721874544088433101e-01,-6.233858542789414425e-01,1.282787822750494300e+00,-2.749676725888416939e-01,9.901458123473726169e-02,5.491161556915314691e-03,1.798148870468139648e+00
-1.239897808762345788e-01,-5.874270813820157144e-01,7.802468790838118506e-01,-2.483124253544322785e-02,2.243706200366732059e-02,-5.254692148203304880e-02,1.209594368934631348e+00
-1.548640664671956380e-01,-4.670398106191220311e-01,9.918830978689279210e-01,-2.532254155082840352e-01,1.895694980197524804e-01,-9.853049282680254040e-02,1.449059486389160156e+00
-4.542377264379884871e-02,-7.952987489554927958e-01,7.687797069777676517e-01,-1.346407031217385086e-02,7.441550688923988070e-03,7.548477520752371397e-03,1.355238556861877441e+00
1.899498042319323898e-02,-7.845350307183736049e-01,7.853358493371322968e-01,-4.822106380618479057e-03,1.119101448853698083e-02,-7.779404921011472997e-03,1.359905719757080078e+00
-1.850126056543886510e-01,-2.988679438458782256e-01,1.263241971452559342e+00,-1.777876889758037704e-01,1.885442649957825602e-03,-1.188590423976238278e-02,1.539660930633544922e+00
-4.907914257629586441e-02,-1.001899431875483248e+00,1.000421723612285207e+00,4.129730927249063155e-02,-2.378411136437906959e-03,2.054035245908094470e-02,1.736578106880187988e+00
-7.605059648029455222e-02,-1.226039767061431141e+00,1.172500740449547552e+00,-2.712782484370492853e-01,-2.549340288713088376e-01,-1.188032700793682263e-02,2.175626277923583984e+00
2.182910705700494280e-03,-1.195885536372920610e+00,9.972686643702910470e-01,-1.251339176494208894e-01,2.600029157123493473e-01,9.524185890320923872e-03,1.966671466827392578e+00
-5.824540553211936256e-02,-9.540709211388114230e-01,9.849023258929785474e-01,-1.091253498756030310e-01,1.164528126593492030e-01,-6.060912976999600910e-02,1.706624746322631836e+00
-5.287167590738280076e-03,-8.539678742096391550e-01,8.666066953364146563e-01,-1.340049051305995109e-01,-2.468345942845998411e-02,1.679559577474061191e-02,1.508961081504821777e+00
-7.287712254963268910e-02,-1.227082444897987346e+00,1.249147350293829950e+00,1.383999764784270281e-01,-1.913195522659344450e-01,-1.483109689997673952e-01,2.199792623519897461e+00
-1.005367357820902002e-01,-8.512703976317829158e-01,9.085659572747937229e-01,-4.254037187749329547e-03,1.215134106698439742e-01,-1.338570570696425398e-02,1.544132471084594727e+00
-6.577836171632922557e-02,-1.399582697490597161e+00,1.182814053232342344e+00,1.333503861547406522e-01,-5.454132185702629913e-03,-1.219349499205298060e-01,2.258635759353637695e+00
-4.505628302379288685e-02,-9.302356908919591216e-01,9.382591456703762711e-01,-2.492713635606552958e-01,-2.694304359079628397e-01,-3.745256346785705986e-02,1.740476250648498535e+00
-4.245447510058641960e-02,-9.833894936198525061e-01,7.560578318723139013e-01,-3.441363403079955585e-02,-2.672957409864280542e-01,-1.663785337657888025e-02,1.578940510749816895e+00
-4.870438235596186161e-02,-8.683632102577995004e-01,8.632022358086125502e-01,-3.299318517904146347e-02,6.696415100800534592e-02,1.016089085052960389e-02,1.505953073501586914e+00
-4.583709425051531172e-02,-8.313535531004981882e-01,8.103908321351631638e-01,-2.073691811487105713e-03,-4.581120127644534965e-04,-4.266409649054130407e-03,1.422255873680114746e+00
-3.380691898302258525e-02,-8.282556172649985227e-01,7.180094677241065648e-01,-1.983235715817996403e-02,-4.188295796005421599e-04,-2.079148782492820299e-02,1.340199112892150879e+00
-1.187036620600197614e-02,-1.020228750732614209e+00,9.613377188491030179e-01,-1.214887735942927344e-01,2.400336598264768417e-01,5.225469086395638507e-02,1.780612826347351074e+00
-5.834993119403744655e-02,-8.410418603637356272e-01,8.441491999366647070e-01,3.678877361347383974e-03,1.680817448748591486e-02,-1.059343862621725876e-02,1.461066365242004395e+00
2.142564461803668496e-02,-8.196927534806029980e-01,8.090984197914977694e-01,6.192057954670852904e-02,-5.266139036253209178e-03,8.876904868534629331e-03,1.415011167526245117e+00
-3.782828185724410042e-03,-1.024760161375136036e+00,6.674244107862931097e-01,1.810628916932608135e-01,-2.068500946365438575e-01,1.451294499741237198e-01,1.571019172668457031e+00
-4.994256390691596131e-02,-8.517477996703893828e-01,9.053428048760338021e-01,-5.302246709586674184e-02,7.288210259639663069e-02,-2.378675332493466327e-02,1.532149314880371094e+00
-6.477971410008945274e-02,-7.674599355126190403e-01,8.062631457739883878e-01,-1.478834479653455243e-03,-3.430074216000820390e-04,-1.024203288873077808e-02,1.365599274635314941e+00
-1.132048479265709492e-02,-7.701547384844200650e-01,8.336943598704897873e-01,-8.240160525725398477e-02,2.145945953107658566e-02,-3.174679119069105659e-02,1.398528099060058594e+00
-2.243689031710011106e-02,-8.259178146346090044e-01,7.402637237265946579e-01,-8.784033645325064338e-03,4.526042335164974853e-03,5.583394590685306210e-04,1.356614589691162109e+00
-3.653670813253027949e-02,-8.653469888577646207e-01,7.674150114847061444e-01,-2.169125292270895032e-03,2.857720978360184932e-02,-1.753733248609965975e-02,1.415264964103698730e+00
-4.566349412328152280e-02,-8.384612700230682503e-01,8.121134239807951127e-01,-3.167582983853938373e-03,-3.738041827840258690e-03,-7.644568561224265868e-04,1.429834604263305664e+00
1.169209075073742166e-01,-1.170364038931306361e+00,3.685895091703080828e-01,1.163859913194733031e-01,-1.681757628294226758e-01,2.121507803912180690e-01,1.518195986747741699e+00
2.199462941098198621e-01,-1.337201236057435239e+00,3.774348621457883635e-01,-2.235378131048688932e-02,-2.850989511302838286e-01,-5.811964791736688729e-02,1.717620730400085449e+00
-2.144700014418108799e-02,-8.394878362306416042e-01,8.391153080359144978e-01,3.751584998493099048e-03,-3.810010019406239162e-03,3.442265030871244705e-04,1.453898072242736816e+00
-7.316203732327464238e-02,-8.248087726710094936e-01,7.900419150522014489e-01,4.254995759700428456e-04,7.780342988959609504e-03,-1.670784984445582589e-03,1.399681687355041504e+00
-7.311465165505001695e-02,-7.989525241326909111e-01,7.332451193433775494e-01,-3.065803556401782912e-03,2.254917567890589447e-02,-2.961730375708629230e-04,1.328117847442626953e+00
-8.852200535828329275e-02,-9.492946281470625580e-01,9.717728773436482559e-01,-3.457588674107132665e-01,-3.419765528730593362e-01,-1.809592184718100336e-02,1.867699503898620605e+00
9.660950660739886509e-02,-1.200354895142306422e+00,6.050659877762059047e-01,-4.327216782292829800e-01,-4.830633681527170542e-01,-1.427502900542369224e-01,1.980662107467651367e+00
-7.320039040029370503e-02,-8.007205721244395891e-01,7.519158615313976668e-01,3.901446118471392239e-03,7.462614883908696463e-04,9.850040450328748261e-04,1.345526456832885742e+00
2.476634355950625005e-02,-7.887954582567310302e-01,7.832901739931065199e-01,-1.001537216703617117e-02,-3.599119990114068332e-04,2.404389762910630335e-03,1.361861228942871094e+00
4.417318962488772649e-02,-9.575548591642366603e-01,6.592115419330243364e-01,-4.083354685039574106e-01,-4.412236337586014634e-01,3.888551778394443159e-02,1.756877064704895020e+00
-2.269113254864215876e-02,-8.123038058098964731e-01,8.018044475990909747e-01,-1.498093604649587164e-03,-4.012059109339155029e-04,4.842301718565406206e-03,1.397995352745056152e+00
-3.875726704726638328e-02,-8.230323768046994282e-01,7.214091596441953858e-01,1.738062772742902939e-02,-1.555786493462883203e-02,2.262680729195040014e-02,1.338763713836669922e+00
1.997639982097010880e-01,-1.551206371556378860e+00,5.432451169311410810e-01,-8.572973254944445121e-02,-2.872057091741195278e-01,-4.086988320178971262e-02,2.014900207519531250e+00
-8.295284884918062429e-02,-8.217916406981715660e-01,7.960269280879994636e-01,3.297963268473488776e-03,4.782404030417754942e-02,-1.013738842351927585e-02,1.405387759208679199e+00
-8.264349479780407071e-02,-8.010906837586149187e-01,7.666124379711150016e-01,9.944749611544142706e-04,8.255175871137047927e-03,1.987917077807549535e-03,1.359325885772705078e+00
1.523065037222177120e-01,-1.553822932495247500e+00,7.389959888681693068e-01,-5.602135121671153462e-02,-4.191610077600126383e-01,-6.249372354500420251e-02,2.191864490509033203e+00
3.974612497403301470e-02,-1.012676604218414766e+00,6.758229709367871152e-01,-4.024945522977146223e-02,-2.400978483550282594e-01,5.541380874752240698e-02,1.539032816886901855e+00
-8.122263284810475603e-02,-8.020962681021892582e-01,7.595817562326919736e-01,-6.056353995550321648e-04,1.681563754813085801e-02,1.168248679262283993e-03,1.354096770286560059e+00
1.641623431323669946e-01,-1.402642305265611622e+00,4.271973529119955648e-01,-9.093920759339105264e-02,-2.483284074903141514e-01,-2.235254394386056165e-02,1.774119019508361816e+00
-3.430536217260810733e-02,-8.730163821488753362e-01,7.157812006983274022e-01,5.416772454257735847e-03,-5.512985560615597108e-02,1.194422115801354115e-02,1.380146980285644531e+00
3.604560894255390280e-02,-1.320781260454211736e+00,8.425072133897945070e-01,-1.949034720629538309e-01,-4.108994264334241975e-01,-6.131581509721525242e-02,2.053617238998413086e+00
-3.556160788637169334e-02,-8.131891144948812933e-01,7.121330412585754610e-01,-1.715163498448174853e-02,4.112541596856457860e-04,-2.373560228252044602e-02,1.322026014328002930e+00
1.715226808011824922e-01,-1.376193203006851773e+00,4.521570045316505304e-01,3.957452501554694496e-02,-2.613610552303432533e-01,6.993416705678778822e-02,1.769977927207946777e+00
-5.513209441420460072e-02,-7.990985446245768564e-01,6.789225842632413688e-01,-5.524860570053189042e-03,-4.474371894920775583e-02,-5.368127164454987270e-03,1.282426714897155762e+00
-1.744777996767056180e-02,-8.090593728457561307e-01,7.997505227251866522e-01,4.021736901479756009e-03,-1.672468193762183470e-03,2.706459087651928719e-03,1.393357276916503906e+00
-2.586217583998979413e-02,-8.074869490624569934e-01,7.452568431751397382e-01,-3.031861379551853072e-02,-1.688265812909565261e-02,-2.471822296982451386e-02,1.346749186515808105e+00
-3.895312506992616025e-02,-9.601174772268520341e-01,9.775451672612976983e-01,-1.426465342348055554e-01,-1.883694232820669057e-01,2.227908500810144368e-02,1.728339314460754395e+00
1.145227753698019324e-03,-8.106256747286002540e-01,7.965879084975671098e-01,-2.790954909536048911e-03,1.417360240905794766e-02,1.740621767194275912e-03,1.392139911651611328e+00
-1.390459294630005949e-02,-8.311093538227692923e-01,6.414072179231933291e-01,7.531059176471445460e-02,-1.090913635559622730e-01,3.605893945693178226e-02,1.299769043922424316e+00
-5.703401532568210669e-02,-8.378125998648922046e-01,8.081849514399609413e-01,6.536258866125421903e-03,-4.251230275474055659e-02,2.473274862071574501e-02,1.428687691688537598e+00
-1.434383822374784082e-02,-8.301550003255435684e-01,8.334771329982693100e-01,-2.301915025933316556e-03,-5.227796427966841485e-03,8.681421997240409971e-03,1.440948963165283203e+00
-2.642816756192130356e-02,-1.551138683112558203e+00,1.271288329106455839e+00,-6.681684641802984603e-02,-2.371931322961336464e-01,1.687841349554237633e-02,2.484045505523681641e+00
-5.316577614549504449e-02,-1.242094907607984133e+00,1.082980495945737198e+00,-2.772993304513222124e-01,-3.046734782251264706e-01,-8.509725933058558123e-02,2.141510009765625000e+00
-7.405166350261344066e-02,-8.967436410783700129e-01,8.460369206670511621e-01,3.948066258848905927e-03,-1.120193790184711435e-01,-3.920949789187380685e-02,1.524020552635192871e+00
-1.412777051381058219e-02,-8.033637074498067854e-01,6.177420474519532689e-01,-1.756601466674620818e-02,-4.713206932775812485e-02,-1.828231619284752252e-02,1.236705303192138672e+00
-5.474189822093086105e-02,-8.553582316655692352e-01,7.159033208318787977e-01,6.451835010493750348e-03,-1.359473016097600684e-01,1.381962130233148345e-02,1.381309032440185547e+00
-5.005078619137633134e-02,-8.149851912173536883e-01,7.308824188321357829e-01,-1.302672984083292837e-02,-2.580326046970335407e-02,-9.721584350980248465e-03,1.339826107025146484e+00
2.578103294077277452e-02,-9.570997454401490856e-01,5.498353138120849470e-01,-4.105829230103906491e-03,-2.165350690755743768e-01,5.483233977673906794e-03,1.377161383628845215e+00
-1.518688905142623335e-01,-3.190005081009417709e-01,7.205319427729551807e-01,-5.024976362789319861e-03,2.555060023117624625e-03,-4.086115521252531996e-02,9.694979190826416016e-01
-1.390328633307592598e-01,-2.179429393409360038e-01,1.236206568124019078e+00,-6.363769656753297255e-02,1.781930415229529205e-02,-4.082067004018452572e-02,1.422719717025756836e+00
-1.581550695466397427e-01,-3.451671427426396543e-01,7.275180793932136680e-01,5.113022509058921805e-03,-7.443192391726830015e-05,-4.109104583381780959e-03,9.925478100776672363e-01
-6.893356063447005078e-02,-6.562357053196538059e-01,7.865004680100199375e-01,2.727408238638635504e-03,-1.641953844359419004e-02,-1.300297658260162435e-02,1.257150650024414062e+00
7.486729959252827471e-02,-8.398728307732664655e-01,3.670942793454506914e-01,-1.935045998231335140e-04,9.160829080223151233e-02,-1.225098677992156743e-01,1.122345805168151855e+00
-4.214224815154095360e-02,-8.281634280693651595e-01,8.093353152115720928e-01,-2.395230794884468139e-05,8.965632873624399674e-03,3.611250536982107094e-03,1.418591856956481934e+00
-3.464618988851739939e-02,-8.226356723062759890e-01,8.066036395640975298e-01,-5.973354466677372474e-04,-3.335831261341977395e-04,7.546946745931665083e-03,1.411274909973144531e+00
-4.319116394547951876e-02,-8.383499406551572219e-01,8.114246831238143276e-01,-1.995020711950964455e-03,-2.951012392767711403e-03,-7.895487770634814287e-04,1.429069995880126953e+00
-4.706018290865951470e-02,-8.169336270727651783e-01,8.148020903529399339e-01,-3.579449067912361671e-03,-1.630178388896532868e-02,8.231676480029384568e-03,1.414240241050720215e+00
-6.174019030055705876e-02,-9.269363539902907290e-01,9.556291646818144692e-01,2.512052148775077015e-02,-3.497641788199366136e-02,1.609430450679173383e-02,1.634065270423889160e+00
-2.393811990741220863e-02,-8.225517122443156692e-01,6.678597015848010132e-01,-1.282823461610256392e-02,7.697687347269240032e-02,2.982796167137817187e-02,1.299917697906494141e+00
-3.579144640100205554e-02,-8.320384926014408045e-01,7.476528860155402523e-01,9.048200156464791810e-03,-1.364545168920955516e-02,1.348816910058232843e-02,1.368561148643493652e+00
-4.352696315565394991e-02,-8.342733566269598944e-01,8.091383919214973908e-01,2.240095707561544185e-03,1.026053079535596286e-03,-2.117271135870531402e-03,1.423584103584289551e+00
-2.263863585638160175e-02,-8.638334813192621864e-01,8.585806953157597565e-01,4.261177741111865647e-02,2.395424549550268650e-02,8.379157248940080280e-03,1.494259953498840332e+00
-6.533667594333938955e-02,-8.116675189917136324e-01,8.104565148865735535e-01,2.299628970751173198e-03,-6.355307925472424967e-04,1.834366801801241148e-02,1.406656146049499512e+00
-3.135160256905002163e-02,-8.205963300966108154e-01,8.097461721561366454e-01,6.800986871550309537e-03,-9.101195034592618124e-03,-4.615244492746127004e-03,1.412315726280212402e+00
-1.022914278507643104e-02,-8.415646072864688687e-01,8.445880000092255147e-01,2.323693165013691192e-02,-7.788899289670915896e-03,-1.053928291527741166e-02,1.461029052734375000e+00
-5.324553365379787288e-04,-8.226948409889036640e-01,8.146902574583778645e-01,8.928175225885981794e-03,-5.661840580745819071e-03,-5.483003827061684078e-03,1.418171405792236328e+00
-1.622441193330728323e-02,-8.249880254123717060e-01,7.937846840095178491e-01,3.545710995336110588e-02,-1.268738960454229674e-02,-2.202608527494882493e-02,1.403933525085449219e+00
-4.209090925652964749e-02,-8.934282754816607053e-01,8.385377418250544723e-01,1.244699434015281714e-01,1.496685055537616271e-01,-6.834636053919257437e-02,1.541975378990173340e+00
-3.652901241060569487e-02,-8.775763601632651234e-01,9.159417392532226421e-01,1.161968675382560323e-01,1.345245939074230512e-01,4.759069545063594059e-02,1.586576342582702637e+00
-5.535066822796926717e-02,-8.277711709408172025e-01,8.116618712029339822e-01,1.158107182220736477e-02,-5.153410703118328079e-03,1.854697358028040838e-02,1.421110987663269043e+00
1.592693213295836574e-01,-8.288508932815560337e-01,1.560726248658070303e-01,4.144103160933858970e-02,1.691623917633680307e-01,1.119974584665571204e-01,1.049696683883666992e+00
6.285039258823599262e-02,-9.314661193674776962e-01,4.931264999634147328e-01,-1.844516960773186741e-03,1.769336246851901939e-01,7.344846451228215743e-03,1.302198886871337891e+00
1.215422829748710742e-01,-8.042009573632056263e-01,2.529978063306583813e-01,-3.016573026331336241e-03,3.651446773504662957e-02,-3.645886370560898204e-02,1.001993060111999512e+00
7.010325386025983985e-02,-8.265148518086949947e-01,3.934397278660011210e-01,1.510100201275918312e-02,1.731788900874508541e-01,1.653404871554555941e-02,1.135718703269958496e+00
1.159774900628565697e-02,-8.257835141413814029e-01,5.732325927410421018e-01,-7.290659139611478309e-03,4.501551824945297653e-02,5.797081242641385218e-02,1.226076722145080566e+00
-4.237628636559867545e-03,-7.827202464716158659e-01,5.384077315462677538e-01,9.461547956065019527e-04,6.019471762893133931e-02,-5.925458248394103013e-04,1.154908299446105957e+00
6.389334112787603548e-02,-8.019721196460990464e-01,4.888485730616002334e-01,-1.367534815863161689e-02,3.009818198646436321e-02,4.207313680192466959e-02,1.143176794052124023e+00
-1.343103298015511926e-02,-6.852116505253844636e-01,7.653428504105027619e-01,2.650833794067700144e-02,2.379817353154637521e-02,1.663647864902412926e-02,1.259198427200317383e+00
-4.782823183455350846e-02,-8.277557982373492385e-01,7.736403484027672972e-01,1.353323430972972440e-02,4.734537397565601567e-03,-5.582886308933779178e-03,1.387261271476745605e+00
-7.336753082525000746e-02,-9.204573070615034158e-01,1.062210096218704880e+00,-2.560154198270976969e-02,-2.072091143675501915e-02,-5.835608305225602546e-03,1.724062204360961914e+00
-5.939885682369065723e-02,-9.199312980442270193e-01,9.353031698923570669e-01,-2.000672826356153858e-02,4.122770783518888565e-02,2.320171415753410644e-03,1.610042810440063477e+00
-1.226109533147092256e-01,-9.146780184286793514e-01,1.344782053148709355e+00,-1.879506456543988679e-01,1.593084846259188170e-01,1.668835850445677116e-01,2.051475286483764648e+00
-3.731587841199019567e-02,-8.371584447885628277e-01,8.146864774179360946e-01,2.264088196777398233e-03,-1.180738549587052785e-04,-7.994793728973148810e-04,1.430783390998840332e+00
-5.479398371276377605e-02,-8.221023486441980666e-01,7.922018590924624348e-01,-3.233522778652578138e-03,3.567250737242975544e-03,3.702647414718831208e-03,1.398635625839233398e+00
-4.521856904239314467e-02,-8.162114083819509425e-01,8.135086991566763404e-01,3.079316848482169851e-03,1.602341441023923813e-02,4.662580774948741832e-03,1.412366390228271484e+00
-2.832799582679921407e-02,-1.089694373475330602e+00,1.167781936246030439e+00,4.255686609746642257e-02,7.840263999245521143e-02,7.391108291792659879e-03,1.962326765060424805e+00
-4.830137528367287048e-02,-9.381462001438560794e-01,1.024533157530361782e+00,1.041955702564654890e-01,-3.014363397689876489e-01,5.533187401009417861e-02,1.792149662971496582e+00
-1.605738033848085750e-02,-8.241827665426838534e-01,6.311226774540664719e-01,1.649722519631037544e-05,-9.859786842975144794e-02,3.407524248381841887e-03,1.274406075477600098e+00
-5.216219398847354166e-02,-7.990943356051318780e-01,6.694190513574833634e-01,-5.200301577882349450e-04,3.720243428244821016e-02,6.791094189316887811e-03,1.273518919944763184e+00
-7.286019650360237021e-02,-8.213261952663591936e-01,7.974702139289858716e-01,3.715811514703450721e-03,-3.261617120412894921e-02,1.217010936075412116e-02,1.404551982879638672e+00
-6.809657309171267270e-02,-8.045887256026240664e-01,7.454218458777212009e-01,9.213785681624921814e-03,-4.019318728278464814e-02,-2.897507746623211727e-03,1.344808220863342285e+00
1.584792032265149864e-01,-1.025620972321718671e+00,2.999688640694964104e-01,-4.415352455029519091e-02,2.384289731841906235e-01,-1.033281559826860763e-01,1.340922951698303223e+00
-4.766829775986460016e-02,-8.555095355927271328e-01,8.654490579755715896e-01,8.013624680788098212e-03,-4.885813084505626069e-02,-2.547113755194446022e-02,1.494438052177429199e+00
-7.914027453382954658e-02,-8.118885250450970092e-01,7.841437289127944910e-01,3.941240235981652990e-03,-7.640745764084753804e-03,8.381658913233206235e-03,1.383900880813598633e+00
-4.184895151988488049e-02,-8.345638815474100136e-01,8.153618807793858725e-01,-7.240517813589992819e-04,1.049867124366821863e-03,-2.599406323287675128e-03,1.429250240325927734e+00
-3.909150913751422568e-02,-8.283763289510245320e-01,6.373492754305513097e-01,8.517409177537814402e-03,-1.074589784891431116e-01,5.681029893373031568e-03,1.284291148185729980e+00
1.694556207966609052e-02,-7.994106517206043261e-01,7.976923222587178897e-01,-1.205610325445113928e-02,7.430426480976961342e-04,-1.494307358544936203e-03,1.383406996726989746e+00
1.563706603062567715e-02,-7.768424270219045358e-01,7.900039098543220062e-01,-1.421801233489037794e-02,2.398073228752885689e-03,-1.677229920478796833e-03,1.357191920280456543e+00
-3.797267366619122564e-02,-8.371954209308792860e-01,8.152165602570592418e-01,-1.884899229116988612e-03,1.005205339131864283e-04,-1.044574954779017070e-03,1.431290030479431152e+00
4.262001005021810729e-03,-6.839804326341876184e-01,8.150058721927864180e-01,-1.402788420551263904e-01,1.839668833845880744e-02,-1.114271908408992311e-02,1.322646498680114746e+00
-4.612516016366571131e-02,-8.743053989984175267e-01,9.512266799340831636e-01,3.640996207084035152e-02,1.923737122086075424e-03,1.765427281469143794e-02,1.584772348403930664e+00
-3.571110383722961995e-02,-7.594965876970887209e-01,8.222052339647826225e-01,6.278190348029791257e-02,1.553360914982359654e-02,-4.333246671917954929e-02,1.378047466278076172e+00
-2.345140244631176152e-02,-8.168067218248712402e-01,8.024421865184561131e-01,1.273048640737190016e-03,-9.470878961325838660e-03,-2.384181325220623843e-03,1.402508854866027832e+00
-1.459147214681890889e-02,-7.492309575073778927e-01,7.946866435411975571e-01,-2.442172950063054709e-02,-3.269302282947283977e-02,2.110152167394225772e-02,1.339957237243652344e+00
2.925290562429527438e-02,-8.032587122491253728e-01,7.888173844049883865e-01,-4.446487845833514696e-02,-3.742046650003100997e-03,-7.624128668225222533e-03,1.381487488746643066e+00
-4.343481241720959646e-02,-8.352431306392672505e-01,7.929760121688265162e-01,8.685033896475910856e-03,5.388873853811341694e-03,-3.513495823071339542e-03,1.410379767417907715e+00
-4.174023091938597330e-02,-8.345742422617796752e-01,8.159030933115973827e-01,6.957953146244722289e-04,-9.011350560451184813e-04,-2.474676020771388388e-03,1.429730415344238281e+00
-3.232309554814354058e-02,-7.758992588054886008e-01,7.992246836032584900e-01,-1.326280583067201979e-02,-1.909908590462975828e-02,-6.993759929636112448e-03,1.365454196929931641e+00
-4.431759049031860909e-02,-8.309389150595271056e-01,8.031152093961954064e-01,5.365837159937180724e-03,-2.048206209980254708e-04,5.250628947054223478e-03,1.415518760681152344e+00
-3.217838325876136440e-02,-8.004804400019162047e-01,7.995136003683579462e-01,6.425627892167795098e-03,-1.972154771763783357e-02,5.661612753689877764e-03,1.386498093605041504e+00
9.574063099476885774e-03,-8.127834850885584661e-01,8.252334005811909901e-01,-6.042475318120834465e-02,-4.830511051414413531e-03,6.050941236030977534e-03,1.422486901283264160e+00
-6.203695133024141051e-02,-9.188723327660124340e-01,9.502005725480555665e-01,-1.966072518631158811e-02,3.756698896236861096e-02,-7.414592766119739928e-03,1.622242569923400879e+00
-9.024320793074776248e-02,-8.250516589362409947e-01,8.157147966032857189e-01,-4.881539716445417593e-03,-3.435089288229751375e-02,-1.979978139297500217e-02,1.425200462341308594e+00
-8.097584228991772104e-02,-5.290064095728590488e-01,7.333954815096909163e-01,2.319059998755674812e-01,1.216300245296884075e-01,1.317047575337727122e-03,1.197715878486633301e+00
-2.214529600556780845e-02,-1.139688287737777417e+00,1.021918251500697705e+00,1.483326032562144459e-01,1.552933393430139808e-01,-8.800001503030800698e-02,1.915031194686889648e+00
-6.832518042459685692e-02,-8.937808557505099172e-01,8.646357321265131235e-01,2.754818208696122473e-03,5.991400323612388473e-02,-3.413459644495496492e-02,1.528462767601013184e+00
-6.499160423956207300e-02,-8.129477649325304034e-01,7.796817769336787940e-01,2.341156619034993891e-03,-8.235703742222976256e-03,-4.214929790724290803e-03,1.380204081535339355e+00
3.135621475061582675e-02,-7.646665879137777289e-01,7.664951113729265852e-01,9.398557077295666487e-03,8.095340378254079448e-04,-1.068929137286470099e-03,1.326476216316223145e+00
-3.671291513048255406e-02,-9.381573955524618036e-01,7.956672595591394170e-01,-3.294525102981398640e-02,8.961581705495147432e-02,1.206747900251266270e-02,1.511155009269714355e+00
5.791464628903614242e-02,-9.172599500521160243e-01,5.823495994632515993e-01,1.047071902658782035e-03,2.645906689035492088e-01,-5.028458074905942793e-02,1.398222684860229492e+00
-3.639976995534816018e-02,-9.256759453894826128e-01,7.076991987317394761e-01,-1.032442222072926935e-01,2.932596709573311311e-01,5.447142400152003849e-02,1.518251657485961914e+00
-4.280548841130770582e-02,-1.057323299186890386e+00,9.742380775998464859e-01,-2.959502325317491314e-02,4.524098508574821847e-02,1.739563491168980014e-02,1.762131810188293457e+00
3.356499237619234299e-02,-9.453144309852071769e-01,6.808692347634718312e-01,-3.825230595816291740e-02,-3.048676997130802535e-01,-8.560130516869271511e-02,1.521856069564819336e+00
-9.084544666050806128e-02,-1.031642597073594736e+00,9.063588204870196563e-01,-2.758230888930667674e-02,-2.139802281497634739e-01,-4.670932188622387016e-02,1.721590161323547363e+00
-4.042848050892981770e-02,-8.354062857026907096e-01,8.160927956176488030e-01,2.397810660436858633e-03,2.063278946421061300e-03,9.637480522203805289e-04,1.430582642555236816e+00
-4.060414042502923093e-02,-8.304737401286336196e-01,8.127673627170980408e-01,7.803535878281634385e-05,-2.195675037969537738e-04,3.276194679754414283e-03,1.423454046249389648e+00
-7.259440669909997257e-02,-8.528330293054195987e-01,8.702570309259380910e-01,5.167820129227470059e-05,-7.001428406712682274e-03,8.003884961759194158e-03,1.494566679000854492e+00
-8.321153274598563909e-02,-8.293279158912775229e-01,8.170663284643168156e-01,-7.728131808140677541e-05,-2.461817885350153778e-02,-4.679639985250801278e-03,1.428560733795166016e+00
-2.561557560331309893e-02,-8.266546275469700555e-01,7.201086553454599803e-01,4.416579708642918121e-03,7.509372620672182322e-03,1.929927879062509621e-02,1.340323686599731445e+00
-5.135537780710110189e-03,-8.258774670564811293e-01,6.738575461813883782e-01,1.180500381261417528e-02,5.069399143455326434e-04,1.174508553712053267e-02,1.301061034202575684e+00
-5.960557867872265381e-02,-8.272515807991313030e-01,8.020502690288784375e-01,2.046095792808463355e-03,-1.081730461053691250e-02,-2.394506695734623363e-03,1.411934375762939453e+00
-8.585328111659572270e-02,-8.555980201642728877e-01,8.434671506679062292e-01,2.977343075290152501e-03,-8.970924882461944749e-02,2.404225881922478474e-03,1.481779336929321289e+00
-4.585751267349612303e-02,-8.265456240639801333e-01,8.076022784967731294e-01,-4.359393740911495820e-03,-2.914069733269262943e-04,-9.598536441269270650e-03,1.415799140930175781e+00
-4.566282615224503960e-02,-8.363860573084700434e-01,8.155979956878635084e-01,-4.210349555616274726e-03,6.436436158895085698e-03,-2.644013074444504126e-03,1.431164145469665527e+00
-1.282904085702530894e-01,-2.131731440114444931e-01,1.124921919659404246e+00,9.260115273065326613e-02,-4.510046140376188645e-02,-5.343009529978325241e-03,1.309975147247314453e+00
-4.123639574747655495e-02,-8.275414726882340810e-01,7.463154701219218978e-01,1.672668114826075109e-02,-1.772324005487916146e-03,6.965234787369599910e-03,1.363364934921264648e+00
-5.413661818204636156e-02,-7.181026832504807667e-01,8.180493268223599790e-01,-6.878139107266989516e-02,-1.859042740553925807e-02,7.458740876688847547e-03,1.340170741081237793e+00
-8.636162899248096825e-02,-5.661135549228848429e-01,7.563897079506103349e-01,9.597393115943969599e-02,2.602396036183369024e-02,2.321465474980416790e-02,1.173023819923400879e+00
-1.194683225157591178e-01,-2.019080947980242957e-01,6.703825526068730722e-01,1.560350910258393731e-01,-6.979947755587480318e-02,5.093108386224834416e-02,8.895024061203002930e-01
-1.252460137945275720e-01,-3.673444643763269513e-01,7.439130579332997595e-01,5.132765979622930241e-02,-1.227236519544633265e-03,3.714765135055764916e-02,1.018095850944519043e+00
-1.506549644310056779e-01,-4.391686055344018458e-01,7.590834582308346734e-01,2.660841111798947431e-02,7.682624937876117357e-04,6.599396484383979189e-02,1.090196013450622559e+00
-1.628220288082606881e-01,-4.091556133620039004e-02,8.139380361812790232e-01,3.417631532040710934e-02,-7.002758131229070565e-03,-4.458619053155071094e-02,9.270722866058349609e-01
-5.385249334203296573e-02,-8.373925267257120719e-01,8.436573271625316117e-01,-2.468777370015966342e-03,8.603538438041806805e-03,2.545628709398432225e-03,1.457035899162292480e+00
-6.307539565907432921e-02,-8.052244290578859376e-01,8.078568327282062977e-01,-1.542931750515305492e-03,-2.515169971452057836e-04,1.845945134021922951e-02,1.398820638656616211e+00
2.306397883054134984e-03,-7.700897079629637210e-01,8.190342996503373607e-01,5.817584451254936145e-02,-1.258707882105883011e-02,-1.962055772763492828e-02,1.380674123764038086e+00
-1.613487755138438007e-01,-3.800238658407524839e-01,7.381495858160438406e-01,-4.503145058326052386e-02,9.880934964823344391e-05,2.486908681278138591e-02,1.030316948890686035e+00
-1.613670076512190299e-01,-2.617006318951498600e-01,8.510206302184529781e-01,2.992703139883525210e-01,9.357604706917646564e-02,-5.414833942899793112e-02,1.200135707855224609e+00
-1.734171653921051104e-01,-2.525866340890509654e-01,9.010432647581456678e-01,1.203411364419507551e-01,-3.918994065100726842e-02,-6.221093205553649558e-02,1.142567992210388184e+00
-2.120749999543333209e-01,-5.649703526513851770e-01,1.331281697909958206e+00,2.749492337058176972e-01,2.850847363322881606e-02,-3.306480100582465803e-02,1.812081098556518555e+00
-3.754110269318807619e-02,-8.301331588214966306e-01,8.030680008758094290e-01,-2.810311122025201808e-03,2.926882328158794851e-03,-3.492577301578790984e-04,1.414615035057067871e+00
4.960130289522084353e-03,-7.762212194642247320e-01,7.803611419706218966e-01,-8.945363591677494772e-03,-1.260730933936042748e-02,-2.771550093610592597e-03,1.348317384719848633e+00
-9.445569229839995140e-02,-8.297298866729883038e-01,8.378217057221576392e-01,-2.797400891270111767e-03,-9.951868054464688140e-02,5.826530333886852965e-03,1.457767486572265625e+00
-1.893694063156144969e-01,-1.061843186026713015e-01,7.967041118745310513e-01,-2.738228438479304791e-02,1.031531880422957223e-02,1.387692629542838611e-02,9.488837718963623047e-01
-1.643802823297085269e-01,-1.971261412511263744e-01,7.106372334802988355e-01,4.728680456870077223e-03,-3.179486872092356694e-04,-1.004255949936885481e-02,8.920488357543945312e-01
-5.856065700892688908e-02,-9.277570736438247589e-01,9.637799785741582026e-01,8.002108090691212317e-02,-9.799522679821980053e-02,2.790664126355108660e-03,1.654490947723388672e+00
-1.550017628371264111e-01,-3.156545249177409307e-01,8.024946300082272943e-01,1.092324793356771670e-02,1.393865765059669470e-02,-1.104827450509359293e-01,1.064891219139099121e+00
-1.463555221897284986e-01,-4.955224092879625397e-01,8.833370837881897586e-01,-9.347031122086421617e-02,4.618436589118821503e-03,-7.797392517367908449e-02,1.259457349777221680e+00
-3.955393879146192754e-02,-8.387028553027491284e-01,8.391111697662161362e-01,6.808820881323758914e-03,8.517323470423571879e-03,3.060532983298350218e-03,1.453705787658691406e+00
-9.597525143212937149e-02,-4.472092144221173626e-01,7.548627869883925978e-01,-9.286762059810323849e-03,3.544079865192823094e-03,-6.264510737193713930e-02,1.076198697090148926e+00
-4.931912803462800560e-02,-4.892221192705303312e-01,4.738851457905102760e-01,3.964066769317128869e-02,-8.481622657910781182e-02,2.086425417615726530e-01,9.242873787879943848e-01
6.733941360279049881e-03,-1.113928737230454935e+00,7.480206349836164836e-01,2.518436622429087168e-01,-3.093704155138755629e-01,1.470945812537457209e-01,1.782817840576171875e+00
1.476325644578440066e-01,-1.088604314074098633e+00,3.755257880151541272e-01,-3.995056468875485267e-02,-2.887011109892416716e-01,1.568728421969908526e-01,1.480069994926452637e+00
5.963070239897782197e-03,-7.614536198435732928e-01,7.778459997054786301e-01,2.846430016803521736e-03,1.406530682417106437e-02,-2.424532345367504203e-03,1.333312749862670898e+00
4.155093463639836227e-02,-1.207544424280525996e+00,6.934581745282543119e-01,1.682226309276235732e-01,-3.469060173787838486e-01,1.036706797954558973e-01,1.810438394546508789e+00
-3.117397845157723890e-02,-8.175028543025679717e-01,8.056028601954525747e-01,7.579266108980209924e-04,8.220834502781469016e-03,2.474583894268208781e-03,1.405956387519836426e+00
-7.480795248368801720e-02,-8.044801793593948647e-01,7.633819207209120439e-01,-2.602827908441098220e-03,-1.600424303763204941e-03,-1.200042756420800034e-03,1.358904004096984863e+00
-6.341324841850837224e-02,-8.102367990710767076e-01,7.616826964642297026e-01,-4.487831517701976083e-04,-4.768299732498531597e-03,1.187675953101252884e-03,1.361911416053771973e+00
-3.224339466334206344e-02,-6.356452810109509688e-01,7.467771926222090961e-01,-9.751601627364665792e-03,-1.158966001477951431e-02,-4.231823180508680060e-03,1.200737833976745605e+00
-3.843146030602193064e-02,-5.261697498691385588e-01,7.377074940948298298e-01,-9.455203578616611787e-03,-8.057261294933764501e-03,6.788916184637268370e-02,1.110460638999938965e+00
-5.318506655962729202e-02,-6.394526778249446375e-01,7.778783581710009276e-01,-6.798588066910712935e-02,2.271060060877242576e-02,1.267410634253108952e-02,1.239958524703979492e+00
2.062240788040624676e-02,-7.733382670906983059e-01,7.729621428881277012e-01,-8.824222601755839874e-04,-5.930038797477865317e-03,2.150925575122230368e-03,1.339342594146728516e+00
-1.292941936561810556e-01,-4.361019991948336672e-01,7.499785457914034392e-01,3.611065119701346859e-02,1.601073627151497827e-02,7.888792428263186052e-02,1.077204823493957520e+00
-3.070010679983766963e-02,-8.389699528008403018e-01,8.351108715796823345e-01,-1.542981991002740673e-02,1.317617820962066998e-02,-2.859934017259677368e-03,1.450516223907470703e+00
8.590667255140687839e-03,-8.034601865583959057e-01,8.143601273104107419e-01,-6.755528188648145076e-03,-3.920887039402597791e-04,2.940161251892960213e-03,1.401135325431823730e+00
-4.138893645885605155e-02,-8.317247089824624240e-01,7.324597389597363728e-01,1.187191005777014398e-02,-7.529161822818729310e-02,3.580542179136022435e-02,1.362478613853454590e+00
-1.461364932679320994e-02,-6.722450014742832325e-01,7.606179391143758073e-01,-2.745830224087543459e-02,-2.739604614542341665e-02,2.525388383496500466e-02,1.244872093200683594e+00
-1.033575956677608154e-01,-8.324906504422932008e-01,9.498418650893002413e-01,-3.294901042592326412e-01,-1.657183355748221287e-01,-1.732690586112690598e-02,1.678620338439941406e+00
4.647045705283741820e-03,-8.161961515941067447e-01,7.981643937660810595e-01,-1.577079079139075829e-02,-1.510882032535163432e-03,-4.761126462488540594e-03,1.398437619209289551e+00
1.935757546548906582e-03,-8.000278838272002480e-01,7.956171051008512629e-01,-1.228474755660840037e-02,-2.800279776053028833e-04,-3.062216973045251128e-03,1.382049322128295898e+00
-4.739408203427555866e-02,-8.562596373699923324e-01,8.985356069260524992e-01,2.186228019504007046e-03,-7.415897635146052359e-03,-4.586637502553784357e-03,1.521321415901184082e+00
7.285464351395734735e-03,-7.444450636836460466e-01,7.716966674898857459e-01,-1.154270691039271240e-02,-1.381233688225278616e-02,1.328915288394494354e-02,1.313604354858398438e+00
-6.354420245602642771e-03,-8.207666163715776619e-01,8.030418061108465233e-01,-1.335141825647746458e-02,5.474078339043946841e-03,-2.487435984097890063e-03,1.406490325927734375e+00
-3.626513906627417717e-03,-8.017232740338622321e-01,7.984450897719828077e-01,-5.886828549764346226e-03,6.314218230863517453e-03,-5.303167903099994867e-04,1.385868787765502930e+00
-1.093022179102229596e-01,-1.100920989517031101e+00,1.438022693779963390e+00,-1.872251083290125406e-01,-5.312495756740158448e-02,2.695539260766263018e-03,2.241768598556518555e+00
-1.579039096595735991e-01,-1.232908844451833019e+00,1.501205995015840955e+00,-2.501753676822714434e-01,-6.143553807484703616e-02,-4.668866152334122561e-03,2.427134990692138672e+00
-1.326745146984619275e-02,-7.311266117934315245e-01,7.768677748999104349e-01,-2.919784515552740350e-02,2.324471658234619417e-02,4.755215096699144488e-03,1.308085441589355469e+00
-6.467755365752306251e-02,-8.479876181744396835e-01,8.796504325525702495e-01,-7.098151611427111658e-03,8.180073200060890976e-03,-3.381155219570827937e-03,1.498471856117248535e+00
-5.322893702128926596e-03,-8.350066412189127707e-01,8.307965051829543368e-01,-1.632970191087266751e-03,1.855844930444343691e-03,-6.209327261104338616e-04,1.442638158798217773e+00
-1.032969426463067331e-01,-1.138678306588571276e+00,1.521368888977522982e+00,-3.035748558956955293e-02,-7.476353957522303972e-02,7.680613545715679613e-02,2.330436229705810547e+00
-1.032571108712088959e-01,-4.018814508158471410e-01,8.836671495252514941e-01,1.909760869044667964e-01,-1.339914656530018233e-01,1.609034097366693339e-02,1.233681082725524902e+00
-5.572372127483926109e-04,-8.006940894529939179e-01,7.908078049141563648e-01,1.672458129666218665e-03,9.711324105721555119e-03,3.450748562111711788e-03,1.378406643867492676e+00
-3.769214020575909624e-02,-7.025006503434380045e-01,7.837702089570041109e-01,3.873545659797832628e-03,2.154097597167907441e-02,-7.050641787626708498e-03,1.290144205093383789e+00
-1.257730586272491624e-01,-5.977279834529293234e-01,9.882684131944976524e-01,2.667404279500135700e-01,-1.812325586185103976e-01,-6.295712634017565368e-02,1.521014451980590820e+00
-4.314916377238347395e-02,-8.329223129024192485e-01,8.162464096052098883e-01,-5.482367638706815878e-03,8.708432431240234819e-03,-3.442838782500103056e-03,1.428769826889038086e+00
-4.536750641023425124e-02,-8.337656791743892626e-01,8.055988126431634644e-01,-3.595583572539632310e-03,1.804741610131835143e-03,2.723291674036692860e-03,1.420100808143615723e+00
-2.775521678615242710e-02,-8.211523119839045926e-01,8.089013088901458870e-01,-1.389490953175318575e-03,8.877822741569074000e-03,-2.257100283885269190e-03,1.411924719810485840e+00
-1.989348386132133717e-02,-8.411597878437127029e-01,8.593580766452838526e-01,1.858815858562799100e-02,1.061996742109804458e-02,6.065522426488738697e-03,1.473481178283691406e+00
-6.438973645063744700e-02,-8.195604483517326955e-01,7.951773591774162764e-01,-5.061415072658712912e-03,-4.369051207889946241e-03,-6.119960508936374624e-03,1.399465918540954590e+00
-3.630727296259212561e-02,-1.110698606047659132e+00,1.216544717908381923e+00,5.217506137323729004e-02,9.532919084707879021e-02,1.495829739191934134e-02,2.026353597640991211e+00
-1.598469355468687403e-02,-1.513930399826736828e+00,1.153141824306943564e+00,8.334760211482411529e-02,-2.999089193173296586e-01,2.420698105014874868e-02,2.377902507781982422e+00
-6.618820594805056856e-02,-9.744261750743281603e-01,9.893170098033048365e-01,1.733376165959355300e-02,-2.484120163494316427e-02,-2.564638452699587179e-03,1.703058958053588867e+00
-3.029217747743781150e-02,-8.372198266120465249e-01,8.432503744450848826e-01,1.550514483379456659e-02,-1.769839211388145534e-03,2.742057016607928575e-03,1.455969691276550293e+00
-4.402043988055950874e-02,-8.364205582518994264e-01,8.104453575611759719e-01,1.966697378703618701e-03,3.863210839805094991e-03,-1.564291638906425801e-03,1.426587581634521484e+00
-5.331142668331463608e-02,-8.349228601688931661e-01,8.124429602117767546e-01,6.076427685024307808e-03,6.947690617917140488e-03,-1.874370709091122827e-03,1.427374124526977539e+00
-1.141567368136905958e-02,-8.175402122253864201e-01,8.060761366521956850e-01,-2.584082516383927504e-03,1.437729791586917112e-02,2.301644171435527925e-03,1.406337738037109375e+00
-1.219341526233002071e-01,-5.735346546586695959e-01,1.006205519876946397e+00,3.317147800183401496e-01,-2.085171348877570274e-01,-1.080687610482763267e-01,1.575337886810302734e+00
-2.727638961852026783e-02,-7.231400961709973929e-01,8.067776367424623896e-01,5.329382969642960238e-02,1.672615521742116390e-02,4.735882574020383595e-02,1.332797408103942871e+00
1.439113638901298731e-04,-7.031785860471669869e-01,8.423016777861638271e-01,1.375666801900576053e-01,-6.016911954874990497e-03,-2.305617398645236436e-03,1.361285805702209473e+00
-4.733492473012666096e-02,-8.020704614229995366e-01,7.806434904086784199e-01,7.389125376292154414e-03,-2.988124747467560058e-02,1.284715180007768099e-03,1.372197508811950684e+00
-1.062994968216789821e-02,-7.255404074525170222e-01,7.784294498605981438e-01,2.889310870831113612e-02,1.594010333622717171e-02,4.036530228257469329e-03,1.304275274276733398e+00
-4.486877589073022532e-02,-7.873998418575693936e-01,8.054169562679447392e-01,-1.887839727933477915e-02,-1.973192580144665989e-02,2.078865725976050682e-02,1.381750941276550293e+00
-5.568441328006542429e-02,-8.250941502565305452e-01,7.586896042571233956e-01,1.727151907036708969e-02,2.136361927299595953e-02,-2.199759410794602937e-02,1.373134970664978027e+00
-1.851344592827215696e-03,-8.329115639259551118e-01,6.728933107298032956e-01,2.593838131252577169e-03,1.234797575420029658e-02,-7.434314208929743324e-03,1.306651592254638672e+00
-1.981023444597726502e-02,-6.396885806955540099e-01,3.428394148183122048e-01,-1.681090786387952896e-01,1.013703750136716319e-01,7.575213706966500704e-02,9.345520734786987305e-01
-1.588545532322350184e-01,-6.558650525920268759e-01,8.532846726961895722e-01,-2.498087011427834597e-02,-2.092577112686404631e-02,6.711727656374225082e-02,1.338353157043457031e+00
-9.253602406176736350e-02,-6.268632639281196406e-01,7.817469300587250869e-01,-1.709722477986333131e-03,-1.728345187802737132e-02,-1.173055090475556665e-02,1.232212305068969727e+00
-1.033840812249562646e-01,-4.515261464666860958e-01,7.413829438076623424e-01,9.519499505107258119e-02,2.469280872750134401e-02,-1.063033259621490832e-02,1.076237678527832031e+00
-6.012964321601059134e-03,-7.780862708990984311e-01,7.934627727291732047e-01,-3.869730351865103418e-02,-2.192541387179915841e-02,1.814963456815114895e-02,1.363611102104187012e+00
-5.412685160605684720e-02,-7.960394694170381813e-01,8.091151374623531956e-01,2.171159547429156022e-03,-1.783505177536685166e-02,-1.001172848597024941e-02,1.391883730888366699e+00
-3.029179423924767758e-02,-7.073261070618177548e-01,7.027068344313078807e-01,3.533229849826844543e-02,5.165107178222697742e-02,2.980898963395404305e-02,1.227331280708312988e+00
-5.257576300272302772e-02,-8.368151652445088295e-01,8.071440780679879357e-01,-1.080227206730425063e-02,-7.266285324387379519e-04,-7.720456954940431741e-04,1.424334645271301270e+00
-1.451786744379137545e-02,-7.366816983476417446e-01,7.767158944494433337e-01,4.071755713444141778e-02,-2.155216983998416158e-02,-2.674481877314917669e-02,1.314338207244873047e+00
-3.817947208640287693e-02,-8.022789568497743495e-01,8.033452221134609328e-01,-4.070909671602054511e-03,-2.599837240390227150e-02,5.205209054321563444e-04,1.391796946525573730e+00
-4.493425542210321977e-02,-8.368582851813299861e-01,7.997879324128653877e-01,-8.767426963671998141e-03,-5.064821506123409409e-03,-4.196836184086599926e-03,1.417750120162963867e+00
-2.419461877281583323e-02,-9.437608843093382438e-01,8.213761507723965627e-01,3.528308989889289427e-02,7.436713617439894008e-02,-1.805162074717980153e-02,1.536051511764526367e+00
2.907976784922386426e-02,-8.259570267665519161e-01,4.744737904743892010e-01,-6.369610719611887815e-03,-1.617421468597262657e-01,-3.415679101113051203e-02,1.179998040199279785e+00
-8.245322762272305761e-02,-8.019454891098289906e-01,7.581672013027157542e-01,6.961139769463459180e-04,7.035625403332845633e-03,-9.734646539141052126e-04,1.352510452270507812e+00
-1.521738419781004104e-01,-3.195139661666991371e-01,8.097576759372417943e-01,1.382380309396259166e-01,-1.958459801007233700e-02,-2.222929458319988436e-02,1.083626747131347656e+00
2.363532607870320185e-02,-7.603449445812852092e-01,7.708783465828481507e-01,1.454325590980173541e-02,-7.524545341343417612e-03,-5.326373499056205781e-03,1.326540827751159668e+00
-2.467475173295544111e-02,-7.923767622451204362e-01,8.009078216059364319e-01,2.623303900466293290e-02,-4.557378131240120284e-03,-7.298887535794685959e-03,1.380956530570983887e+00
-4.968992979697175322e-02,-9.922559226777232233e-01,1.054305891569670361e+00,1.054730608147445986e-01,-1.466320433859304995e-01,-5.631400304489229264e-02,1.804221868515014648e+00
-2.470474195360206071e-02,-6.794455838945214765e-01,6.448151479090488136e-01,-6.268239340050555525e-03,7.280998813433675783e-03,-3.115215915094422805e-02,1.148256421089172363e+00
3.101010429878209990e-02,-7.957374778186152575e-01,7.898783775496724946e-01,1.498558013942635596e-02,-5.461967210896718355e-03,-2.159320445119173888e-03,1.373885869979858398e+00
-1.503441726955854346e-03,-6.925855200330475192e-01,7.705428567396962469e-01,3.299890425163398006e-02,-8.383667762498004869e-03,-6.726851377734279457e-03,1.269177198410034180e+00
-4.476305020697443626e-02,-7.420860638331816528e-01,6.954001535407701162e-01,-9.847515516771923605e-02,4.501550372739211887e-03,1.504603742736836114e-01,1.283472537994384766e+00
-4.307144890975560941e-02,-8.397901210367227920e-01,7.924649569271473570e-01,-4.795652674606676151e-03,2.485727397583787582e-05,-1.166632112321940029e-02,1.413876414299011230e+00
-8.851536947585283976e-02,-5.077912576492550345e-01,7.454564368307642352e-01,7.318927988743729497e-03,2.187378563986356553e-03,4.924342132218607546e-03,1.105085253715515137e+00
-4.006128074326947841e-02,-8.275485381247176253e-01,7.624644981424441026e-01,-1.051458762488270866e-02,2.857929496444815316e-03,-7.214765825186576775e-03,1.377198219299316406e+00
-4.481739420645407951e-02,-8.260738727225633848e-01,7.586792167277888188e-01,-1.160491446543252501e-02,-1.518072106939520908e-03,6.532007650242878903e-03,1.372677803039550781e+00
-9.395050223642373993e-03,-8.917155011899174921e-01,8.472796174741014097e-01,2.762080212234353446e-02,-4.721236984998271498e-03,9.704205307899624669e-03,1.506944060325622559e+00
-4.722302823403829591e-02,-8.074993524732206884e-01,7.064377020874982316e-01,-1.263131638741717480e-02,-1.536402755570429046e-02,1.606563859753184316e-03,1.311567544937133789e+00
3.279175681994267455e-02,-8.060770916468184000e-01,4.928557740041153989e-01,-1.203306381253600559e-02,-2.974485058388997780e-02,-4.995160423950513462e-02,1.145367741584777832e+00
-6.126663032769212591e-02,-6.502497907386931564e-01,6.276748065372582674e-01,1.818143936355367529e-01,-1.787636425371814941e-01,1.361127043016239491e-01,1.215703606605529785e+00
-3.651957014343347463e-02,-8.230344123816555335e-01,8.078900642964178536e-01,-6.819780177420933960e-03,4.220561821379743145e-03,3.545350712921752512e-03,1.412800312042236328e+00
-2.409386036112668578e-02,-8.085512937857274318e-01,8.458400312537872612e-01,5.827883422001630537e-02,-1.090328726826907124e-02,3.321745266178418796e-03,1.437067747116088867e+00
-8.130377667618982063e-02,-4.296430192466754727e-01,7.200807816873135980e-01,1.043571693078551438e-01,-1.834019927009808426e-02,-6.383809622404262862e-02,1.043368339538574219e+00
-1.442805480074041968e-01,-4.116672063956445804e-01,8.903673975677454111e-01,3.121187202110750625e-01,3.313678623797977618e-02,4.624628700402457632e-02,1.311719298362731934e+00
-4.387939583380820463e-02,-8.369489437190128500e-01,7.901651931087455560e-01,-9.046152651436687592e-03,-4.037043077629196182e-03,-5.936899975841166376e-03,1.409413099288940430e+00
-3.661632881344703550e-02,-8.369875850991261856e-01,7.882244467371911645e-01,-5.739047781088396812e-03,-6.217015861093589009e-03,-5.769491164223197396e-03,1.407639861106872559e+00
3.208832109482622624e-02,-7.973670349165195015e-01,7.818278687875276356e-01,4.573619458162265367e-02,-3.086959564219659072e-03,-3.094613645441033050e-03,1.370515823364257812e+00
-2.903117248921693178e-02,-8.135220578361115340e-01,6.601380927152635802e-01,-1.988009965603197010e-02,5.911214162692808582e-03,-2.220069969899660014e-03,1.277627706527709961e+00
-8.652115695301785050e-04,-8.091500192050005147e-01,7.944943848059253799e-01,1.568427480760981214e-03,-8.418095761011833850e-03,-2.427367526652098820e-03,1.388897418975830078e+00
5.322016985980062079e-04,-7.849718562980833036e-01,7.849127742264166985e-01,-3.026560890249754311e-03,-1.043452282616282902e-02,2.578151589410100034e-03,1.359697699546813965e+00
-4.570834304186914554e-02,-8.310213006828724991e-01,7.949362800293754416e-01,-9.318274030093220972e-03,-1.154812214836452647e-02,2.296049946025729635e-03,1.408632397651672363e+00
-5.138372080341334358e-02,-8.266290429552026753e-01,7.912367085852120008e-01,2.079754589407667702e-03,4.624227851101245213e-04,1.040995849590177665e-02,1.401638627052307129e+00
-9.082944276493148950e-02,-9.114038548184706379e-01,9.628634772316450041e-01,3.365438941893257874e-01,1.797392705063177720e-01,6.264608570110168778e-03,1.756435632705688477e+00
-4.366493812596434348e-02,-7.979450485339211196e-01,7.720892034921645886e-01,-5.482857167538159396e-03,-6.077403171140794563e-03,-6.543972086733470779e-04,1.360111236572265625e+00
-1.321451757035182681e-02,-8.306348134518959370e-01,7.175157085838020921e-01,-9.827451651589273057e-03,-6.200539376532155852e-03,-9.414835444027368563e-03,1.341688275337219238e+00
-8.167623195170720107e-02,-8.114845072372849355e-01,7.858142267295596950e-01,-4.409537034256170648e-03,4.963300280255709268e-02,8.876855213359669677e-03,1.387784719467163086e+00
-6.795186310249640149e-02,-8.455803887873085678e-01,9.737956416882619370e-01,-1.830466300406128066e-01,-8.056374889706102022e-03,3.414137878778750884e-02,1.613767743110656738e+00
7.428865539172985200e-02,-1.592098098458095690e+00,1.080811213823898331e+00,-1.020099372973679863e-01,4.181596144289616568e-01,6.696842908381643589e-02,2.456915378570556641e+00
-8.245966180372901744e-02,-8.351184411052836598e-01,8.156155969783164261e-01,-3.237333172105637258e-03,2.235568543350395510e-02,7.566257580792851156e-03,1.432019948959350586e+00
-5.907414262075821876e-02,-8.566750133259593003e-01,7.381181019386342523e-01,7.301781810233753597e-03,9.398889123658792089e-02,1.291214092213259761e-03,1.390751838684082031e+00
-1.464006891317207737e-01,-1.371903005444486512e+00,1.440316297881427454e+00,-2.463831576945000601e-01,7.444441039804101934e-02,-5.338857012209367869e-03,2.482514381408691406e+00
-1.381396144779376001e-01,-1.350281023519801504e+00,1.463215046194223712e+00,1.952213335649441439e-01,1.331224463750283471e-01,2.502598245976217495e-02,2.478723287582397461e+00
-7.189297022409033011e-02,-8.531265421806322191e-01,8.997359740727172150e-01,5.500554651355549739e-03,-2.256128488713562985e-04,5.386969269395590169e-03,1.521064043045043945e+00
-4.323721347756034894e-03,-9.722391347150884933e-01,6.937719296293067828e-01,5.730335809237095679e-02,1.414403599522824628e-01,7.088058527060818459e-02,1.478118658065795898e+00
-2.705099956184659621e-02,-8.059687822458116990e-01,6.557878954150992978e-01,1.142035962813654944e-02,-5.461595119420872141e-03,7.752846403709519676e-03,1.267090439796447754e+00
-4.189329831783232538e-02,-7.532568671105154268e-01,7.936568067965019679e-01,-3.324040255889168472e-04,-2.829186223399903638e-02,-1.106025863137817880e-02,1.342136621475219727e+00
-1.637315541688156434e-02,-8.251613569017965943e-01,7.261815210543161037e-01,1.623954024022139031e-03,8.050910926072109286e-03,-2.450348285139201943e-02,1.344655632972717285e+00
-4.715616711138538586e-02,-8.367348817381892179e-01,8.108658461089468528e-01,2.125170911365900292e-03,-5.407262582246387742e-03,1.532787588541756644e-03,1.427312374114990234e+00
1.518248341952616598e-01,-8.598913882796769270e-01,1.319998662200955186e-01,-1.691667497278129262e-01,2.064389855447164857e-01,2.114729816885626279e-01,1.162657022476196289e+00
-3.659688404950052487e-02,-8.336451494492443937e-01,8.124079704385379630e-01,2.362652899695377089e-04,-8.035850406920737321e-03,1.984197117891857778e-03,1.425832629203796387e+00
-4.308464004946717385e-02,-8.215330968450150761e-01,8.149542974166620324e-01,2.291676397846888116e-03,-1.472916271836808254e-02,-3.721686318428226586e-03,1.418048024177551270e+00
-4.689860529121884364e-02,-8.320655430304311206e-01,8.112630677749663732e-01,4.754445978434115351e-03,-7.289728867194303873e-03,-8.513843192714904632e-05,1.423712015151977539e+00
-4.682330464625063249e-02,-8.330480260209177645e-01,8.136589441766152175e-01,3.439343749619997240e-03,-5.950222596716298572e-03,-2.176976320567426508e-03,1.426627993583679199e+00
-4.001519310195394974e-02,-8.297893144803968335e-01,8.109898034675261380e-01,8.904814480876327952e-04,7.132294549401828679e-04,-2.360818387974170790e-03,1.421293377876281738e+00
7.225221412557755740e-02,-8.113306859086124589e-01,4.597256287421841447e-01,1.551059311520739184e-02,3.200518345148829075e-02,6.209112508008072379e-03,1.130101561546325684e+00
2.446373366994815390e-02,-8.146871111173753510e-01,5.691499893918743336e-01,6.621903718384838759e-03,3.865279285721170272e-02,8.936190823135379407e-03,1.209456205368041992e+00
-8.054125132027051270e-02,-4.481091724827130918e-01,7.007554112248031153e-01,-1.316441833020709669e-02,-9.086263091407928774e-03,-1.063140655653074633e-02,1.016767859458923340e+00
-1.448499574990334826e-02,-8.317180328549249602e-01,6.826281801417021233e-01,6.902669751166054437e-04,-1.707275287087543043e-03,-1.289342304907273827e-02,1.313030600547790527e+00
2.605116775136098739e-02,-8.201741251723205783e-01,5.761540976922363555e-01,9.468425467244226748e-03,1.754204848201242062e-02,-3.759785927898628283e-02,1.220513939857482910e+00
-1.365149471548850468e-01,-5.500827910468393256e-01,7.879144113427972718e-01,-1.751017322664714590e-02,1.986751841128128748e-02,-4.447179987545816365e-02,1.189940929412841797e+00
-7.845350484935353919e-02,-7.295673520251565458e-01,8.081794369905478392e-01,1.126992042195971110e-04,2.909423627613003799e-02,1.023658600302775057e-02,1.337990999221801758e+00
-5.511911136813379963e-02,-7.985770420752210663e-01,8.146148482642940891e-01,7.718010517450685356e-04,1.087264630648064438e-02,9.705086336704311922e-03,1.398719549179077148e+00
-4.834181169930298894e-02,-8.164559195721858842e-01,8.044601608096858536e-01,4.514282821379083342e-04,1.048803200937147538e-02,-7.910542996208313332e-03,1.404577493667602539e+00
-1.906836242854407365e-02,-8.311640613376675146e-01,7.212795027482334920e-01,1.146010895712364260e-02,-1.195607528053670154e-02,1.831852351574728144e-02,1.345614075660705566e+00
-2.952877100880429637e-02,-7.867144434673852826e-01,7.998404022168211780e-01,8.636102619441119593e-03,1.288824015501732236e-02,5.293173056765174134e-03,1.374763965606689453e+00
-2.559389114095160858e-02,-7.722632817105103964e-01,7.846900564846730486e-01,4.419835348126390992e-03,2.217860320012296493e-02,-1.087811674896633184e-02,1.349436402320861816e+00
-1.597246796682633488e-02,-7.451043420744086765e-01,7.963108632313811164e-01,2.614983293350445215e-02,2.257306781291561551e-02,2.283170102925145481e-02,1.337476372718811035e+00
-3.292876965791713406e-02,-7.437233893259779238e-01,8.012146259226129441e-01,9.498453858251429405e-02,-3.563818166721153397e-02,5.134163424667255969e-03,1.350882768630981445e+00
-1.125292925990922233e-01,-1.398793068544031959e-01,1.160532539386452733e+00,5.690006057031714304e-02,8.724900960684242937e-03,3.432789947971611605e-02,1.292179942131042480e+00
-1.436666153089098952e-01,-2.112154292141576462e-01,1.134801738421994166e+00,-6.917808016536285132e-02,4.504634499849800161e-02,-1.803447008724328934e-02,1.321674466133117676e+00
-1.160566633786848101e-01,-4.754772677324973218e-01,7.449902686988686407e-01,9.258734103746620037e-02,6.326692843261740896e-03,7.385957955916678348e-04,1.098135709762573242e+00
-3.886650390909276997e-02,-5.626354816301513129e-01,7.490317735331888382e-01,6.339514061174053583e-02,2.111090419276787783e-02,1.835195671693104144e-02,1.149868965148925781e+00
-1.132431214081043580e-01,-3.753905213241280348e-01,7.096845426691474890e-01,6.517380899988571563e-02,-8.702624093541897268e-03,2.369596945263163171e-03,9.872418642044067383e-01
-8.025955779855162633e-03,-7.496366809525919495e-01,7.798392242718517053e-01,-3.083501704166653409e-02,2.203321705580632561e-02,-1.128542430987236091e-02,1.326536178588867188e+00
-1.299905419434823350e-01,-3.837473622689237529e-01,7.277498745360840848e-01,-7.656158239425134293e-02,7.745923357592452221e-03,-4.884586010679714541e-02,1.021122574806213379e+00
-7.860595816744767039e-02,-6.972739350882367626e-01,8.074615073066678805e-01,-1.369475424240976930e-02,1.250339104285220007e-02,1.465533255155730685e-02,1.310619354248046875e+00
-9.307073812356159159e-02,-6.865827186705416585e-01,8.102901075826812738e-01,-3.121774203002175384e-05,-3.380146436351132849e-03,2.000222648988132096e-02,1.306027293205261230e+00
-5.355768917655595596e-02,-7.287195181559519286e-01,7.863196296781566064e-01,-1.494753008524044892e-02,2.130494175321266670e-02,-3.169426069665451373e-02,1.316562175750732422e+00
-5.450100002596602877e-02,-7.986915323629901753e-01,7.724095234449972480e-01,-7.474028007556584880e-04,3.284457683151303497e-03,1.503707952597142404e-03,1.361256957054138184e+00
-1.307198534712978623e-02,-7.830129711711508733e-01,7.927025026485297055e-01,-1.570631463011683271e-02,4.547098012070782160e-03,1.761103349132910707e-03,1.365024447441101074e+00
-4.843756067923920411e-02,-8.339929541879865793e-01,8.071582719663332739e-01,1.608659853959994212e-03,2.095970011557072091e-03,-4.450356241969296960e-03,1.421738266944885254e+00
-5.631998855244194080e-02,-8.091190364930329615e-01,8.045746983263650787e-01,9.162835014730239902e-05,4.781358596407431563e-03,-9.160726522767951435e-03,1.398658990859985352e+00
-5.401521207235669003e-02,-8.252723078847229443e-01,8.119875151266956470e-01,-1.882100750458679732e-05,1.055403621377833849e-03,2.929900994000637915e-03,1.418709993362426758e+00
5.761895054313147246e-03,-7.732605183942210525e-01,8.397472761105246875e-01,4.986401953400396159e-02,-7.446504238921668531e-03,-1.755857895622070855e-02,1.400232553482055664e+00
-5.104864352303477293e-02,-6.533744158684238190e-01,7.739637006676843844e-01,3.515562140816101688e-02,3.143716427818007281e-02,-6.021134725928111060e-03,1.243844509124755859e+00
-1.408707588772794006e-01,-4.180474299707239716e-01,1.198374620254201606e+00,2.027317057636572328e-01,1.441337208117611790e-01,-6.804601899198867154e-02,1.562410831451416016e+00
-1.218640561139333611e-01,-4.068399716647742026e-01,7.386701631651598765e-01,4.549706668726110487e-02,-2.438508640309964594e-03,-4.364413686389363028e-03,1.035976290702819824e+00
-7.518851410358513843e-02,-6.214643190469330003e-01,7.719934127320975392e-01,1.872612792168865115e-02,-3.613383541582827763e-02,2.027850566816044239e-02,1.218659996986389160e+00
-1.797272399950163302e-01,6.198832604655868384e-03,8.178494428260446591e-01,2.308496996951408392e-02,1.859093740630002670e-02,1.111124066205169403e-01,9.401732683181762695e-01
-1.098847569053849373e-02,-7.661250416802766194e-01,7.851210650828522875e-01,4.431459868529534496e-02,-2.768199774000097355e-02,-2.087413950911838276e-02,1.347104430198669434e+00
-3.499613812750167197e-02,-7.529592000934963725e-01,7.909314650452881068e-01,9.325757852904133227e-03,-1.815730229451080133e-02,-4.865483206191057591e-03,1.338631391525268555e+00
-3.519971118947278627e-02,-6.935598228982343683e-01,7.786369503732748498e-01,-1.126151983171133283e-02,-2.730505295196092655e-02,-3.782716459862003281e-03,1.278368473052978516e+00
-7.198501085947234257e-02,-8.511841326191824653e-01,8.506490916815567793e-01,3.016480928449665443e-03,2.138943958950199897e-02,-1.007126663686426027e-03,1.476050019264221191e+00
-3.651602198907431818e-02,-7.816959778643629564e-01,8.020951092519011949e-01,2.004455789438725627e-02,-1.663143777208186264e-02,5.784174352955939215e-03,1.373176455497741699e+00
-4.227125384346722137e-02,-8.166452388539631180e-01,8.120119086022240529e-01,-4.681113504055961667e-03,-1.406046840259626493e-02,3.780602632742129186e-03,1.411272883415222168e+00
-5.582584883722136598e-02,-8.296956135855168002e-01,8.419364311338366491e-01,7.712394821436640083e-03,-1.829498251179023649e-02,-9.200347916720067257e-03,1.449496150016784668e+00
-1.183185385853499638e-01,-5.118038318129557451e-01,9.508692598935527540e-01,2.492029167415110713e-01,1.129007741513999713e-01,1.036058940805114903e-01,1.405507564544677734e+00
-6.719215310145199016e-02,-8.295583828293757733e-01,8.182820779541336575e-01,-4.767720493678671324e-03,-4.472405791964575127e-03,-5.451374462977691925e-03,1.428474664688110352e+00
-4.803429917679474109e-02,-9.183407814979621664e-01,8.785579046564945260e-01,1.694259110601523399e-01,-1.192718334730730051e-01,-4.253157323240458476e-02,1.598951339721679688e+00
-5.424254963544559993e-02,-8.187594494800818357e-01,7.705063191423623392e-01,-5.934031637446974747e-03,-3.993460025933436713e-03,1.328557052294028441e-03,1.376731634140014648e+00
-3.703015336672027535e-03,-7.936344097807389586e-01,4.695278093627558436e-01,7.542620092123210329e-02,-1.056513892210626943e-01,1.729208621996279338e-01,1.167055130004882812e+00
-3.926564187201306289e-02,-8.152211998467661092e-01,8.103004469592318681e-01,2.035065520059261418e-02,1.964172889499795141e-02,-2.588872223026787885e-03,1.409083008766174316e+00
-6.575387830622855811e-02,-7.516327793486428099e-01,7.643210545416415647e-01,3.087730995364871417e-02,4.103471537499190150e-03,8.006562309507640751e-02,1.323226094245910645e+00
-2.320453924893151054e-02,-8.121896491801923190e-01,7.134083406517079951e-01,-1.870135022219599841e-03,-1.350814351509795584e-02,-1.515933294618710368e-02,1.321937918663024902e+00
-5.102578305851186713e-02,-7.529938327165108802e-01,8.461826668252832029e-01,1.353026736916939921e-01,-1.176371748021416835e-01,-2.285954178238717646e-02,1.423220753669738770e+00
-5.919206176021500621e-02,-8.270878898863193163e-01,8.028914482383345819e-01,-2.271297340534195273e-03,2.336942556172310302e-03,-1.628031395173936552e-02,1.412681579589843750e+00
-4.673743801458669217e-02,-7.497011744091737206e-01,7.972892694108417722e-01,1.830829981966532877e-02,1.431542278432008410e-02,6.027804463312227447e-03,1.342232704162597656e+00
3.568585287634132297e-02,-8.160476426514952086e-01,5.580109931258400158e-01,3.465738244603795877e-03,-3.881660913801270648e-03,1.699558258694012017e-02,1.201708436012268066e+00
-5.312672632464863348e-02,-8.147860769251433766e-01,7.468825240459737724e-01,-1.079998103835142984e-02,1.132621007542525954e-03,-9.805174663642423835e-03,1.352818012237548828e+00
-4.938003294677305310e-02,-8.146183477472301870e-01,7.337505530058661130e-01,-1.212017452904537440e-02,-2.937133614285358449e-02,-1.307630744317929763e-02,1.342276573181152344e+00
-2.678126214885233683e-02,-8.212576685743224747e-01,6.927753773081791744e-01,-1.266677759342020072e-02,-1.569442681612275708e-02,-1.026118232504984532e-02,1.312311530113220215e+00
-3.925856286945794693e-02,-8.264539665004650981e-01,7.957751308636651366e-01,-2.798079073533630331e-03,-8.407051869326954193e-04,4.106231530127188033e-04,1.405104517936706543e+00
1.568564008236000840e-01,-1.268205363573736033e+00,2.481818454683737407e-01,3.945009687686045624e-02,-2.963638839640017272e-02,9.640207430501495159e-03,1.475421428680419922e+00
-4.434499111215058770e-02,-8.350609703635838432e-01,8.004144853223322809e-01,7.758691483145638799e-03,-1.352111686702194915e-03,2.880608717658343556e-03,1.416695475578308105e+00
-4.730405415640813460e-02,-8.274801533160149880e-01,8.120085028676936600e-01,7.044568308331629076e-04,-9.222024207569224502e-03,3.420361362224887472e-03,1.420492768287658691e+00
-5.932479824760439335e-02,-8.323878341983460549e-01,8.155049476997501268e-01,-2.873011384139812375e-03,-9.579407512613383885e-03,-4.850277148671702614e-03,1.428153634071350098e+00
-5.160565266482912417e-02,-8.280444502570855070e-01,7.980218224169786101e-01,-2.720844500557134411e-03,7.530439898125703194e-05,-3.404665235073753727e-03,1.408710360527038574e+00
-5.379197794391728238e-02,-8.228464519068927618e-01,7.901445971476952490e-01,-6.895781828593016381e-04,-1.153122218460752007e-03,1.680955081963827254e-03,1.397397875785827637e+00
-7.225402432761063309e-02,-8.187330993584183148e-01,7.750596885043483653e-01,-1.060518916273918769e-02,-1.937346370791892189e-02,-9.987994813768460642e-03,1.381823539733886719e+00
-5.550373597182987201e-02,-8.171435477410470272e-01,7.545916422829959114e-01,-1.365511550213992925e-02,-6.444783053590003247e-04,-1.287916813548755507e-02,1.361766815185546875e+00
-6.396404141570277702e-02,-8.183758223737378490e-01,7.777204895452856093e-01,-2.142299522663581972e-03,-1.088090056884800580e-03,-3.753252878726794778e-03,1.382970094680786133e+00
-2.596886123885007100e-02,-8.238343311690421444e-01,8.024414362029430592e-01,1.398334206809955437e-03,8.429211765641516155e-03,-2.056762862885558752e-03,1.408561229705810547e+00
-4.128797489422975087e-02,-8.220211825838126263e-01,7.980581652642951829e-01,3.701242832667067228e-03,4.669253078271146454e-03,-4.217168004491509900e-03,1.403392910957336426e+00
5.178511797704229980e-02,-8.097514858276697591e-01,5.174898539555077281e-01,6.014798612595742382e-03,-1.847229476295230571e-02,-5.605463334171596410e-03,1.166865229606628418e+00
-2.792964864646445278e-02,-8.185532132408818162e-01,7.464796668838289406e-01,2.452779641213847367e-02,7.858894454908713079e-03,1.022212514374239503e-02,1.356232047080993652e+00
2.011047004065540933e-01,-1.402347257444950257e+00,3.234217553723643945e-01,4.259083261684679100e-02,-1.237381468750762686e-01,2.395530516040216690e-02,1.683818936347961426e+00
1.043827670800583918e-01,-1.152284252445548773e+00,3.058082587605983615e-01,2.276608070007682741e-02,-6.465834844000820092e-02,1.661000483257653593e-01,1.403486251831054688e+00
8.365579069930603739e-02,-8.593109018822668865e-01,3.777731365369467742e-01,-3.304305870463295630e-02,2.419789080141190873e-02,-1.109800762093287978e-02,1.121800184249877930e+00
8.478377016885640938e-03,-8.189029147860403812e-01,5.920115205799405533e-01,1.086122179513925772e-03,1.601214579555784766e-03,-4.789819223739921750e-02,1.230759501457214355e+00
2.136759374163077485e-03,-7.359021287990293869e-01,4.426707885549227006e-01,2.823755920084766897e-03,4.974454303896212043e-02,2.215812334832955866e-01,1.103922605514526367e+00
1.527389616213806200e-02,-8.114841815476528941e-01,5.707315027079883363e-01,-1.322175112139344424e-02,1.974411361049791327e-03,3.496165218336887148e-02,1.206438660621643066e+00
8.238834200364150706e-02,-7.905208922706224994e-01,4.004379908884092565e-01,-5.753840650187570099e-03,-5.179003823994882258e-04,-3.500166509746978002e-03,1.068125247955322266e+00
-3.666998238578812741e-02,-9.351924790806795951e-01,6.726307251182079838e-01,4.299169859803459587e-02,8.941462361283118720e-03,1.955729993587617538e-02,1.398107647895812988e+00
-4.649213910483455947e-02,-8.273450811825445728e-01,7.768161645709487084e-01,-9.668155656355306368e-03,-9.864618681412381726e-03,-9.371851764098219212e-03,1.389707326889038086e+00
-5.284207164488417818e-02,-6.519099690537959457e-01,7.775212191794192984e-01,2.929003469699716089e-02,2.012295749244961962e-02,-7.973645579142261616e-03,1.244913220405578613e+00
-2.740744604582475569e-02,-8.020770529663204806e-01,8.015194839294250695e-01,4.178052451996768814e-03,9.448392943955389450e-03,-7.323761131468349908e-03,1.389193415641784668e+00
-4.796360961074903895e-02,-6.732517963418680473e-01,7.761003069995269232e-01,7.271445032396946229e-02,2.845544736547757012e-02,-8.574719400370290484e-03,1.266434311866760254e+00
-1.758661487679424318e-01,-1.793665863965428486e-01,7.179448769808963737e-01,1.426779237138958156e-01,-3.585374844536706740e-02,9.051420529747228327e-02,9.442166090011596680e-01
-8.679586810140121206e-03,-8.003109020826839615e-01,7.935794911873705892e-01,1.069668411616480665e-02,-7.740619542765829258e-04,3.762787373815834916e-04,1.380484938621520996e+00
-4.081214282851111652e-02,-8.333528241206997755e-01,8.077520115076056717e-01,-3.089086552207299420e-03,2.292339983680778334e-03,-2.951465660936244441e-03,1.421539306640625000e+00
-5.436926512379670895e-02,-8.280344826998153884e-01,8.105057985675481191e-01,-7.850336850475803790e-03,-1.031759049308899300e-02,-9.333382067149431291e-03,1.420019745826721191e+00
-3.362367883135149171e-02,-8.258636815732677272e-01,8.072087961723559690e-01,1.227217417851531869e-03,6.487102917937853999e-03,2.367446131908056573e-03,1.414543151855468750e+00
-5.667405406484074537e-02,-8.243697089874866268e-01,7.804213914836319876e-01,-7.711520805709496870e-03,-1.234988559221899271e-03,1.402946132831915356e-03,1.390290856361389160e+00
-5.013718708637394939e-02,-8.298255165047776494e-01,7.589681639879363173e-01,-1.336375921201599960e-02,-1.921489771733357263e-02,-1.327668611297297754e-02,1.376803398132324219e+00
-8.463503050492682256e-02,-8.786697081569450063e-01,8.266283996348853247e-01,-2.091220694727687762e-02,-1.811132248098778763e-01,-3.728613131288888854e-02,1.512731194496154785e+00
-7.445712954850178256e-02,-6.597696122487494153e-01,8.166390497820450456e-01,-1.935079633878331040e-01,2.019301250823334060e-02,-8.550067642171350901e-02,1.339292049407958984e+00
-7.668889951730607432e-03,-8.674140922141644339e-01,8.265645202817526460e-01,-2.933431816782311116e-02,8.234110523008420640e-03,-1.490941258455643140e-02,1.468259930610656738e+00
-2.039847570446184921e-02,-8.068367227764414729e-01,6.600322001108036574e-01,1.473897604366503425e-02,-3.501266872727960139e-02,6.178432524243539399e-03,1.273197412490844727e+00
-2.931221749267308441e-02,-8.121724930946514487e-01,5.690924322464273599e-01,-1.589910602730217060e-01,-1.912443444313869645e-01,-1.286438092816692413e-01,1.294075369834899902e+00
4.486327437628612191e-03,-8.121044990608472514e-01,6.308496103752615491e-01,1.647396041393269991e-02,-3.077794915893404103e-03,-7.616709029193776022e-03,1.253654956817626953e+00
-4.363528125206272978e-02,-8.314566095314659400e-01,7.910801961436059182e-01,8.761970562423023953e-03,-1.631158365376972992e-03,-3.842237163260023639e-03,1.405454277992248535e+00
-8.731020805978113863e-02,-7.697264983330298627e-01,8.155560878548648862e-01,-1.930516430983329496e-03,8.062150364631266719e-03,-4.545842747400320911e-03,1.377410054206848145e+00
-4.431604144021639852e-02,-8.248358006475924320e-01,7.598266694726781845e-01,1.248355039759135345e-02,-6.600143376389688669e-03,-4.593863514017567339e-03,1.372649788856506348e+00
-7.210885239878028763e-02,-4.836190273185455579e-01,9.066597538658860422e-01,-2.234871765685661760e-01,-2.609261758393020547e-01,1.202446916622731260e-01,1.388367772102355957e+00
-6.895086253427305800e-02,-8.082865669578718215e-01,7.493992534568677533e-01,-7.891885100992201973e-03,-1.800450645191054022e-02,-3.789808243747344444e-04,1.350003480911254883e+00
-6.129587874712787848e-02,-8.192571473419089090e-01,7.925921960102871866e-01,-5.745352013542308345e-03,-2.582423027248501556e-03,-8.696974176425396538e-03,1.396850109100341797e+00
-6.704550867320208107e-02,-8.195017526980483691e-01,7.934776215388564813e-01,-3.509923270103561775e-03,-2.045890998237034303e-05,-9.578010707124081161e-03,1.398037433624267578e+00
-6.856685242158870597e-02,-8.057061692548468379e-01,7.418004751891433823e-01,-3.670541736955523771e-03,-1.466648102768681496e-02,-8.789524839303715018e-03,1.341022253036499023e+00
-5.507903215243187267e-02,-8.187724382968125658e-01,7.895069007470589817e-01,-1.404218937240556749e-04,-1.754404281070103336e-02,-3.142824831697716564e-03,1.393739819526672363e+00
-7.287928619821376630e-02,-8.187796108938087958e-01,7.768114801803527314e-01,-1.080842067438866037e-02,-1.351174045242067683e-02,-9.627351807833457384e-03,1.383221745491027832e+00
-7.866392938853704331e-02,-8.099616717406724620e-01,7.743779309887669493e-01,-4.510265633806510160e-03,-5.887988405600366043e-03,-9.684634693831588662e-03,1.373590469360351562e+00
7.904703876734356371e-02,-7.023373989381265226e-01,2.733863097919118079e-01,-1.174501004691675538e-01,-1.542748947863321618e-01,-1.826156111706502272e-01,1.006486058235168457e+00
-1.166470777141834780e-01,-1.711292471401227866e-01,7.888992485752620576e-01,-9.558821116509756688e-02,-1.232769619761774488e-01,8.278351895035843122e-02,9.827923774719238281e-01
1.875440904912834550e-01,-8.893673165237487854e-01,1.573016578312665947e-01,-5.152066246881512046e-02,-1.320533280995934700e-01,-4.847014142513660778e-02,1.093348026275634766e+00
-4.050377763857000019e-02,-8.099904530210753073e-01,7.714282672513477213e-01,-1.199668956595093374e-03,6.716239507544791501e-03,-4.707179594232340013e-04,1.369764447212219238e+00
-1.066928995362598775e-01,-8.029591138393801786e-02,6.224371447742627073e-01,-9.213136835906195199e-02,-3.962667270404042485e-02,-4.155087984624360187e-02,7.405642271041870117e-01
-6.047621971954986880e-02,-7.890647503266952079e-01,7.741876237905425118e-01,-2.067575895787808395e-03,-1.979983950173308787e-03,-4.425987797695926824e-03,1.354885578155517578e+00
-1.706016792828545237e-01,-9.910896096547500145e-02,9.904051459577954963e-01,3.811979875182611860e-02,4.999415778196118071e-02,9.954925904148072269e-02,1.145265221595764160e+00
-8.619484190691947822e-02,-8.047407548392422338e-01,7.758698290151587740e-01,2.753875632403043157e-04,-2.059508566087140877e-02,3.679419632234295044e-03,1.371207475662231445e+00
2.439471707237265974e-02,-7.802535187362023006e-01,5.129228281379925036e-01,5.736396091112647318e-03,-9.646878771560262952e-03,-3.248563503911333986e-03,1.131203532218933105e+00
-6.286208260668071923e-02,-7.978530577969077386e-01,7.141609882447093050e-01,4.142025511079692156e-03,-5.647914313378652428e-03,1.050013906608865486e-03,1.309668660163879395e+00
-7.142083518282080212e-02,-8.546670445292430252e-01,7.609952850825415505e-01,1.126374559230353643e-02,-8.454713450452494561e-02,2.915982893026579023e-02,1.408102989196777344e+00
-3.290741208251578981e-02,-8.227892094860086436e-01,7.081055694818569890e-01,1.803328304741685234e-02,-1.222182159048542825e-03,2.179912510854214655e-02,1.326925754547119141e+00
-3.166575656468453848e-02,-8.168887966061766370e-01,8.084545770176401192e-01,-3.743729173050036867e-03,2.048978056386182439e-02,-3.707942269518797133e-03,1.408333063125610352e+00
-4.144911477143357892e-02,-8.585097587208857517e-01,8.402373513647530823e-01,-2.767970850669439556e-02,-4.730239129439112178e-02,8.036945971792890174e-05,1.474571585655212402e+00
-4.451528188756958410e-02,-8.246400440107571894e-01,7.565926753173118913e-01,8.651306389575183844e-03,-1.388081198772493467e-02,1.489401236850352271e-02,1.369963765144348145e+00
-5.582745386331662563e-02,-6.136624395552493505e-01,7.635202014904052259e-01,6.758412869625014807e-02,2.390889714704884893e-03,4.316259022181596211e-03,1.205548524856567383e+00
-5.393890605750389228e-02,-8.300625554524703187e-01,8.130697332743648253e-01,4.964235955325167066e-03,-5.808661194746002863e-03,-1.739837104270723503e-03,1.423784375190734863e+00
-4.983469641869673478e-02,-8.488980162113488603e-01,8.513897474915196328e-01,-3.549155697542762805e-02,-5.840731947222473075e-02,-7.535393470323906813e-04,1.478126525878906250e+00
-4.844493228532458645e-02,-8.472319170377948794e-01,8.907781093426656582e-01,-1.403946300439593009e-03,5.041325161631678674e-03,9.203427046398936912e-03,1.506909370422363281e+00
1.686556871516900480e-02,-8.473261821240491987e-01,6.321570974307507695e-01,6.623790797027013892e-03,-5.417418387383883017e-03,-4.847396549504030122e-02,1.290120005607604980e+00
-7.776518551442371252e-02,-8.996074016370283477e-01,1.008125652673624417e+00,-3.038908102294023139e-02,8.139901796049722402e-03,-2.697285820130966918e-02,1.658965468406677246e+00
-3.421793030883726883e-02,-1.490076400216256980e+00,1.395289321980816011e+00,-5.519369324997360632e-02,-2.687300984867538323e-01,-2.287620041918137989e-02,2.543920516967773438e+00
-7.308197191170881513e-02,-8.660064324975786931e-01,8.653307606135443031e-01,-2.635753964916324153e-03,-5.225587798508270210e-02,2.637312815209492522e-03,1.503885626792907715e+00
-8.315223082502021246e-02,-8.302977683411340015e-01,8.519569844323278129e-01,3.221149594867499526e-04,-2.294514278748842687e-02,-7.029475703520956208e-03,1.460495233535766602e+00
-1.285619480977207713e-02,-1.301761302211733806e+00,1.113423012608324880e+00,2.299662200988516342e-02,-2.982945875166067018e-01,5.298434662791514510e-02,2.158331632614135742e+00
-4.381701789770894861e-02,-8.358060323738361053e-01,7.693549256546726722e-01,1.623968750754596277e-02,-1.559905283335276047e-02,-2.368514725774924223e-02,1.391302466392517090e+00
3.104342521582897918e-02,-7.799391332917735564e-01,6.142326947251941505e-01,1.189061742326315563e-01,-3.132047902311073106e-01,1.121845948652700903e-01,1.358389735221862793e+00
-1.480072762786113424e-02,-7.584357312229246251e-01,7.939501422485594206e-01,2.718559315108317817e-02,2.362193868480705339e-02,1.403598710821388380e-02,1.346465229988098145e+00
-1.115760780418791620e-01,-3.330296420045772421e-01,6.898347807661502351e-01,1.633483545474390397e-01,-8.681612070120382774e-02,9.694969979738779498e-02,9.998165965080261230e-01
-6.321800442617379889e-02,-8.154821723407763567e-01,7.678261778653744374e-01,-6.443121377002506908e-03,-1.864363606330710424e-02,-1.200323707832644249e-02,1.372333765029907227e+00
-6.557972354499390366e-02,-7.520852827929648265e-01,7.919296122887162781e-01,-1.530332814187547290e-02,-4.600891650615798615e-04,7.211336324033939919e-03,1.340207576751708984e+00
2.030936358687998600e-02,-8.075681209637761704e-01,5.613876689768934058e-01,-1.699074309207367420e-02,-6.506337764823039160e-03,-2.634475003259860448e-02,1.195478439331054688e+00
-8.708303487749438632e-02,-4.818123023369581537e-01,7.049274872793127589e-01,3.129461870560404924e-01,-1.105332586444933846e-01,1.057454312770263471e-01,1.208191514015197754e+00
-5.059465433202803286e-02,-6.194801341979203624e-01,7.628372149755174858e-01,3.127525190522407322e-02,2.631059224157599602e-02,1.195648571696858800e-02,1.205608487129211426e+00
-6.995487030244561255e-02,-6.125679187117015756e-01,7.803417775059797723e-01,-3.470760256199236643e-02,-3.466262322630125209e-02,4.875174622558094834e-02,1.221950888633728027e+00
-1.576742134146520008e-02,-8.047629945717663658e-01,8.040150030838106865e-01,-2.568686377996444621e-03,-2.252359097594318002e-02,-1.656974273857876124e-03,1.393883705139160156e+00
-5.360706757775839798e-02,-7.905655696408644406e-01,8.078278155482564449e-01,8.378332631594180221e-03,-1.248924078657150626e-02,-7.969268497159152226e-03,1.385961294174194336e+00
-4.008542515783677929e-02,-6.503933644389358060e-01,8.022716227625741325e-01,-8.401330178489342659e-02,-3.663036263498092165e-02,5.259457038197717926e-02,1.276572346687316895e+00
-4.228389021605118148e-02,-8.227815947230733284e-01,7.992184574523130136e-01,5.986340365037872910e-03,-1.387206303546795368e-02,-1.772196637725579347e-03,1.405271410942077637e+00
-7.354297550458262223e-02,-6.740803653703200116e-01,7.738612554296648849e-01,-1.960439891192170825e-01,2.219080213093728993e-01,-1.092550593993815190e-02,1.360523581504821777e+00
-8.571630152447623496e-02,-7.823024057043272972e-01,7.985281615718726744e-01,4.719824918230683397e-02,1.055607175777822926e-02,-9.296545684997666037e-02,1.384202957153320312e+00
-4.853623421017333461e-02,-8.294112578933384716e-01,8.072622837182144018e-01,-5.363582594659125312e-04,-7.835577839990550894e-03,-5.399882912894296561e-03,1.417991876602172852e+00
4.276901954138356832e-02,-8.281700824054509802e-01,5.121816820761074807e-01,-3.344002652351813626e-03,2.287291105852618227e-03,6.369054683232598657e-02,1.183187127113342285e+00
-7.511602878315057352e-02,-6.367248065289694559e-01,8.048397989581875800e-01,1.012375697706233563e-01,-1.497372079651670615e-02,-9.600391278292173813e-02,1.281790733337402344e+00
-1.242458189860306261e-01,-6.254758732843932467e-01,7.992654308696379717e-01,1.673876135988960553e-02,-2.342782845812779041e-03,-2.626160414070521226e-02,1.252965331077575684e+00
-4.174090722894068656e-02,-8.370080772710962735e-01,7.884014641300474135e-01,-1.117835976723024691e-02,-9.711733043208877619e-03,-5.477181003766589708e-03,1.408019542694091797e+00
-3.884103568830132858e-02,-8.217711531134104241e-01,8.010010236224989200e-01,1.051905044454823704e-02,1.778558172953371638e-02,5.025609802961712204e-03,1.406132459640502930e+00
-7.490870228372553674e-04,-7.286012460627770970e-01,7.877273533170674469e-01,6.702198435564921120e-02,-2.838783093456259329e-03,3.263294090484682598e-03,1.318669795989990234e+00
-3.308276685948195045e-02,-9.548343805794140549e-01,9.304963710003958388e-01,2.240040381462620467e-01,3.291719385949556931e-01,-8.928366170481852673e-03,1.772604465484619141e+00
-1.461595532178533441e-02,-1.269266053486430623e+00,1.033886775004793313e+00,1.012881914284170931e-01,3.071123983459541629e-01,3.439688783660992122e-02,2.075160264968872070e+00
-2.809428527738821318e-02,-8.017553706404613179e-01,6.344756250057205227e-01,-1.357735928140143579e-02,1.979605013082296611e-02,1.020505714480859742e-02,1.245871543884277344e+00
2.049480067604984510e-02,-7.822923095952687422e-01,7.766815084041250872e-01,3.470781597653920317e-03,7.697909471024200504e-05,-2.147407394105403308e-03,1.350330471992492676e+00
-7.917670233845935934e-02,-6.136446208384173095e-01,8.412166166181922478e-01,-3.135022575400691625e-01,1.941485549405162492e-01,-1.573242637793164159e-02,1.425964593887329102e+00
-4.964698358613425788e-02,-8.274200431928444566e-01,7.882878072848086282e-01,9.246346346346101877e-03,-1.917453023368154369e-03,-5.231450975369746244e-03,1.399692296981811523e+00
-7.024327016585152350e-02,-8.299615492210971057e-01,8.111251235937190218e-01,-3.705376807452593312e-03,2.265926286103331008e-02,-1.243670063715223220e-02,1.423242568969726562e+00
-3.609470729910584097e-02,-8.073711081603025530e-01,7.866882547481860444e-01,1.297302255723183778e-02,-1.336071060095101945e-02,-5.080741990655739462e-03,1.381140828132629395e+00
-3.317840107716358428e-02,-8.291829752162138689e-01,8.099079927843518822e-01,-2.598143261434530948e-03,1.286941857834677204e-02,2.795398661481079158e-04,1.419871807098388672e+00
-2.677183575012417535e-03,-7.366432054397777929e-01,7.736582618128016176e-01,4.081380525470333642e-02,8.291445523660651018e-03,-1.005675225494163634e-03,1.310119509696960449e+00
-2.253718418151672703e-02,-8.113726734174202537e-01,8.458362610214607002e-01,6.140802512686237974e-02,4.500310037066301838e-03,2.209030415023540556e-02,1.440199732780456543e+00
-3.241602967492496212e-02,-8.295410898571617953e-01,8.046418499681990966e-01,-2.695154731484364786e-03,1.544067064762495202e-02,4.028312320319283289e-03,1.415662288665771484e+00
3.073438021250960925e-02,-7.944782565528332174e-01,7.816274987732895196e-01,1.199304299164305823e-02,-1.279019727132689726e-03,-2.711726053387982210e-03,1.365621209144592285e+00
-1.194009624486795096e-01,-4.322383819431416807e-01,7.436331724524204434e-01,4.677436313864970219e-02,-8.581819741253111922e-03,5.314978627204847671e-03,1.058089613914489746e+00
-1.150897029209633007e-02,-7.659166562652566235e-01,7.824957232853487765e-01,3.556321971496610029e-03,1.401761939708193704e-02,-3.489815903355145306e-03,1.341358065605163574e+00
-2.797122120813155810e-02,-8.267127672305217834e-01,8.079230580309463283e-01,3.195496048044550470e-03,1.348404195768039722e-02,9.310038605200912632e-05,1.415961503982543945e+00
9.771225381773770285e-03,-7.692090556112975985e-01,7.769842135738652678e-01,2.472946834095498137e-03,4.696380280963106946e-03,-3.067546049362305464e-03,1.339097619056701660e+00
2.226121673102210430e-02,-7.623300994367784300e-01,7.719257824099953202e-01,1.458692678070099349e-02,1.026026094447642263e-02,6.178308856818182787e-03,1.329221367835998535e+00
-9.350518327258989376e-03,-7.900075969989317493e-01,7.916275757222042131e-01,-6.442918481899265019e-03,1.029081755360074062e-02,-3.715541258397957267e-03,1.369950413703918457e+00
-4.182193580283034146e-02,-8.270667682795330711e-01,7.725768903908276641e-01,9.178279515942923059e-03,-4.480529514693443703e-03,1.177259463141692997e-02,1.385671734809875488e+00
-3.975043109253684204e-02,-8.153253721239521745e-01,7.937283121076935677e-01,-1.114108088293102369e-03,5.532975375418966620e-03,-4.723145316317292446e-04,1.393816590309143066e+00
-7.623543917375291690e-02,-7.972527880145255930e-01,8.255961385896515292e-01,-1.707327268837260936e-02,1.544213431547377877e-02,-7.034126272751862682e-03,1.408950209617614746e+00
9.074369535371301643e-02,-9.369248113351824614e-01,2.916272156263275961e-01,-8.714871919873373729e-02,-2.359033036530258642e-01,4.144838857370179014e-02,1.223841547966003418e+00
6.725852467905704679e-02,-7.976548740573911056e-01,3.977548585902025424e-01,-1.349795119136429876e-02,-9.982546579323425817e-02,7.382439129841264665e-03,1.083401679992675781e+00
-1.425186479191455913e-01,-2.465870789589355572e-01,8.177713277854188334e-01,-3.474167914538589530e-02,2.038523036895710516e-02,-8.624933090815535205e-03,1.018829584121704102e+00
3.921834709145408104e-03,-8.233182640363868598e-01,5.872338168581942019e-01,9.822213423379075065e-04,-1.974868794095882563e-02,9.386150862955990049e-02,1.238838553428649902e+00
1.450802908647678968e-02,-7.960094751496271659e-01,5.627365136825064340e-01,1.096701882093757685e-01,-2.951323288032921544e-01,4.163302516536182551e-02,1.305539608001708984e+00
4.013104078944740305e-02,-9.353708615856993758e-01,6.618027659880462155e-01,-2.677036478508105360e-02,-3.185968630634278265e-01,-4.514564470259250367e-03,1.500414848327636719e+00
-5.305718213834961089e-02,-8.219181556876096195e-01,7.429347420538292557e-01,1.978006045347525596e-02,-2.820960845164488529e-02,2.191223404851362633e-02,1.357114195823669434e+00
-4.837366532245630790e-02,-7.905347742230364183e-01,8.305164642661820862e-01,-1.024030818086658357e-01,-2.053599233665669849e-03,-5.356245057381989194e-02,1.419721007347106934e+00
-8.301166332262752134e-02,-8.127414136185902027e-01,8.120832895515847083e-01,-1.026646385136794617e-03,-2.457869960827841274e-02,-2.741440279171718231e-03,1.410218358039855957e+00
-7.473973671761935389e-02,-8.268504149003956805e-01,8.113897877935850600e-01,-7.534014234841576209e-03,-1.653594736637903698e-02,-1.204064401308540221e-02,1.420840978622436523e+00
-7.995955146045331807e-02,-8.294607595457893501e-01,8.028730130798784614e-01,-1.135402901151242802e-02,-5.173914452551860513e-03,-6.681026353590601742e-03,1.415425896644592285e+00
-5.355989354856081214e-02,-8.374687734677794815e-01,7.727569335852315646e-01,5.356723219399206135e-03,-3.738867669491694606e-02,1.784113456718831522e-02,1.396533012390136719e+00
-3.269335874262740971e-02,-8.418343269232738679e-01,8.172988458233492182e-01,6.706305976931883558e-03,-5.711603214769560635e-03,-1.173112816494965502e-02,1.437221288681030273e+00
-2.660047426085934696e-02,-8.279840353696213961e-01,7.213096903958852169e-01,-1.484531400576029336e-02,-4.082143016021329979e-03,1.656036616523031031e-03,1.342262029647827148e+00
-6.885456646298004912e-02,-8.470583531235333918e-01,8.339151009864447239e-01,-5.587070826614790910e-03,-2.986497710036537228e-03,-5.919151048619922424e-03,1.457174777984619141e+00
-1.809410184261291132e-02,-1.093533223930715614e+00,7.138610578523874040e-01,4.250823113284047383e-01,-3.362557307610102297e-01,-1.508174706392180356e-03,1.833247542381286621e+00
-7.645962602687844667e-02,-6.435794896946269716e-01,9.053840692225689768e-01,2.685066390043144846e-01,-2.592263118890123508e-01,-7.781472899723635870e-04,1.503445744514465332e+00
-5.597618579468802147e-02,-8.268431299585504712e-01,8.064487856182009917e-01,1.622326902054218797e-02,-5.646539196265876193e-02,-5.564377940189947289e-03,1.418899297714233398e+00
1.358052746484350037e-01,-9.232899393907396668e-01,2.365657863802582139e-01,6.852962128537715136e-02,-2.708334529219461606e-01,3.626006492157939076e-02,1.215169072151184082e+00
-4.238750625994344018e-02,-8.263254933111835454e-01,8.081007228528424013e-01,1.984903250861088622e-04,8.820297684967368795e-03,3.911523911165335973e-03,1.415944337844848633e+00
-4.407418423395439988e-02,-8.364801141897926229e-01,8.151874335073279187e-01,-3.160732448527453758e-03,6.090365219075737947e-03,-6.706215609174052310e-04,1.430826425552368164e+00
-4.611840813857857185e-02,-8.391146169692399459e-01,8.163061460098467448e-01,-2.403298370297175194e-03,3.096385033682022992e-03,-9.561907003246416685e-07,1.434072732925415039e+00
-4.694622017676192138e-02,-8.341730948735772699e-01,8.004246028206355446e-01,-8.675765934929699844e-03,-5.717096209783722365e-04,4.222960427704563167e-03,1.416021466255187988e+00
-4.509799067197916428e-02,-8.240931468706450547e-01,7.657562266080424340e-01,-1.039864258885215761e-02,-7.221711306400721217e-03,-2.763776340023875715e-03,1.377125024795532227e+00
-2.483242649020869774e-02,-8.228618622025194451e-01,7.947713308254349407e-01,7.541943269724416150e-03,1.374575923525327018e-04,-6.390042434826642866e-03,1.401057600975036621e+00
6.696269891487735548e-02,-8.016916826578303068e-01,4.392848634620548642e-01,-5.883786922756008980e-03,1.218390186286228728e-02,-4.690758798493376014e-02,1.106233954429626465e+00
-4.022191274427878993e-02,-8.361192700773776298e-01,8.157423454674711527e-01,-2.310097836345080102e-03,2.484080166723529135e-03,-1.075332838049217719e-03,1.430882573127746582e+00
4.181421535169422068e-03,-7.707673739133530377e-01,7.785873075513426445e-01,1.062681709938648016e-02,-1.281117666928316412e-02,1.856402376049727217e-03,1.342094063758850098e+00
-8.733127563685513448e-03,-7.828937297388143257e-01,7.893333284338313049e-01,2.218491135855624012e-03,1.865179954085816744e-02,6.401555317896874368e-03,1.362074732780456543e+00
-8.761462846207587751e-02,-5.173331964724674492e-01,7.394083107293373258e-01,1.188278698312820146e-02,1.010207728716735684e-02,-5.590964825599242100e-03,1.106722950935363770e+00
-1.730492615181111749e-01,-4.535566859065403023e-01,9.482779233680729281e-01,3.592540869017634697e-01,-4.525878258115082625e-02,-1.057884717006435382e-02,1.429780006408691406e+00
-5.204653319047695958e-02,-5.638957865080256315e-01,7.445642219832298014e-01,7.139365946081555059e-02,-2.604289894493336255e-03,-1.324985146877687668e-02,1.148982644081115723e+00
-1.156228418585746598e-01,-5.759074262893375540e-01,7.833550519793549549e-01,3.439252573789260310e-03,1.771647444982723391e-02,4.016020137655723632e-02,1.199843525886535645e+00
4.118760466397771922e-03,-7.348082172515015831e-01,7.655962033310438342e-01,5.367902199143993747e-03,-5.536576265122151314e-03,5.526738402297019489e-04,1.299506306648254395e+00
-7.441852635404633265e-02,-4.800789509158510660e-01,8.267732856705495292e-01,1.176135006172361469e-01,1.573459905658900013e-03,9.095898302696019122e-02,1.186849474906921387e+00
-1.821429858516915301e-02,-9.731179945523142916e-01,6.305097810248976309e-01,2.003860787073053207e-01,1.229239419888124157e-01,-2.308134227332708233e-01,1.509228944778442383e+00
7.001263828623882635e-02,-8.039599148969168718e-01,4.694790959853044621e-01,1.016150613497852212e-02,3.003071010576581230e-03,-3.364756868805680173e-02,1.129715681076049805e+00
-4.619374461907314877e-02,-8.020245635097494885e-01,6.886608960096770593e-01,-7.372263636612698748e-03,1.488456963228144449e-02,-9.844149514785858861e-04,1.291335701942443848e+00
2.287121839432630643e-02,-8.129802922051886371e-01,5.633271554724722519e-01,4.270217087758130386e-03,4.251290819903761481e-02,-6.695114928701249857e-02,1.208886027336120605e+00
-1.831550009259032968e-02,-8.002550793871665569e-01,6.162017514418700603e-01,-7.514431157761133385e-03,8.663828845771807952e-02,1.268580050645209262e-02,1.238291740417480469e+00
-9.022981020796724816e-02,-1.168660172476240211e+00,1.016613240427435949e+00,3.466247718436308856e-01,-1.941080279231753858e-01,8.347177466207411980e-03,2.013816118240356445e+00
-1.201724963002645530e-02,-8.016078905070005423e-01,5.792150688375716783e-01,-1.523580313938716936e-02,-6.253966943762918895e-02,-1.422131193568720343e-02,1.205353617668151855e+00
-1.097617868593882273e-02,-7.893113875221394737e-01,5.672934194405132580e-01,-6.203753272162255625e-03,-6.545840819545797884e-02,3.955523812595175895e-03,1.184612154960632324e+00
-7.693833632798997846e-02,-8.249810177286137636e-01,7.459070314928284429e-01,-2.934710248328784932e-04,-9.453897008269233904e-02,8.199547984996721078e-03,1.370832085609436035e+00
-2.012130640598140327e-02,-8.570795641933428577e-01,8.666128027455860527e-01,4.011773417669926844e-02,-2.217129269146065132e-02,-6.123555621993063969e-03,1.495115876197814941e+00
-6.458056099895463642e-02,-7.998047316044200050e-01,7.182149083982589666e-01,-6.487603230266324877e-03,-4.028050762009271688e-03,6.070524738301544352e-04,1.314925670623779297e+00
-4.914639136266447939e-02,-8.175002355393614639e-01,8.170417792936534029e-01,-2.608266125982612940e-03,2.373421440686632883e-02,-1.746993345679534329e-03,1.417006731033325195e+00
-6.153686776792074986e-02,-1.000894721089145456e+00,8.739163847206459224e-01,2.331604237475849890e-03,-1.041159496033614296e-01,-3.143186688746203044e-04,1.633624315261840820e+00
4.817206782805757981e-02,-8.804820548965245353e-01,4.937898199612780203e-01,-3.080432861424065027e-03,-4.046316501521102921e-02,2.589253790477247241e-02,1.217271566390991211e+00
-5.098075764292736567e-02,-8.283798678905954782e-01,8.353607569891090545e-01,9.074459178635351300e-03,1.940776155278881032e-02,8.077606495014518287e-03,1.442416191101074219e+00
-7.171466486439684318e-02,-9.476386878583236140e-01,8.716603722266397236e-01,2.147690124444286142e-01,1.770281285176416031e-01,2.448484882041757462e-04,1.648004412651062012e+00
-3.855821708132674969e-02,-9.559922289602464929e-01,1.062730945849418962e+00,1.464794622480387609e-01,1.809214462527527698e-02,2.519225571318897336e-02,1.769784688949584961e+00
-6.806863230718948610e-02,-8.278803062145502212e-01,8.035094637965783937e-01,-8.961727629294412648e-03,2.409687650764690686e-02,1.104746154204170466e-02,1.414760231971740723e+00
3.091239111104248597e-03,-8.202042876541699723e-01,8.170455360360497910e-01,1.819529113457395500e-02,-1.366219674720259292e-02,-1.335096899611791683e-02,1.418643712997436523e+00
-9.747093171150547630e-02,-1.588583797155190824e+00,1.548567209193589589e+00,-1.095353232817246059e-01,1.185937648531423805e-01,9.334107516209345576e-03,2.732350111007690430e+00
-1.384622592049802522e-02,-9.503498168163132531e-01,8.638147293569138352e-01,-6.881587202739450349e-02,-2.775720715295589003e-02,-3.647629872913926707e-02,1.577900528907775879e+00
-7.891276149689055441e-03,-6.388740518888853526e-01,8.212865043893544659e-01,1.379615278539996215e-01,1.618783620773392440e-02,2.701266825203616287e-02,1.291877388954162598e+00
-1.207919763164408966e-01,-5.579384827878617337e-01,7.768413465142185448e-01,-1.269648677468477541e-03,1.586636676128287682e-02,-6.383388543817083982e-02,1.184155464172363281e+00
-2.112838099679663351e-02,-7.974155587923706934e-01,8.108459415498909806e-01,2.710711420048644849e-02,9.772055817372386766e-03,5.517225186522166369e-03,1.394000053405761719e+00
-2.062154755066797698e-02,-7.455600461957623271e-01,7.881351725786842621e-01,2.821592527359303645e-02,3.264238315839097793e-02,1.892275168606837379e-02,1.331383228302001953e+00
-1.768332027350626445e-01,-4.861715394363910203e-01,8.507999957763900944e-01,1.617274592177748715e-01,-2.566686873953697920e-02,1.191226563274475486e-01,1.261990785598754883e+00
-8.053499275051542727e-02,-6.366429521693138804e-01,9.172277672912134694e-01,1.685845444588552344e-01,1.191460245164110282e-02,2.678382959576096692e-02,1.395525217056274414e+00
-4.142832662813633604e-02,-7.200801358580187772e-01,7.882162233361554859e-01,3.247972886053146664e-03,2.900962471386249464e-02,1.967485032595383751e-02,1.309822797775268555e+00
-1.486671347222023876e-01,-1.477995628174730847e-01,8.610839783209547349e-01,-1.326689790152492561e-02,1.185464595742467264e-01,-4.879482310467943285e-02,1.033708214759826660e+00
-3.552073051512982804e-02,-8.795898083004072276e-01,8.297539621787762831e-01,6.816209464743154534e-02,-5.252410338001268358e-02,2.725371773959731417e-02,1.488605856895446777e+00
-5.110273114863712884e-02,-6.803197329442529639e-01,7.808693093200282931e-01,2.778486213430026580e-02,2.543107400991208647e-02,4.589018941746804067e-03,1.271181225776672363e+00
-1.592575957028095068e-01,-1.900851901430601343e-01,8.673735513501495964e-01,1.080780264615776032e-01,9.667213341669696897e-03,-1.214521129269594130e-01,1.079882025718688965e+00
1.482466136425862439e-02,-7.977722820963520922e-01,7.883725942682554555e-01,9.489885241671909902e-03,1.091000981958947270e-02,4.734598926411780098e-04,1.374009013175964355e+00
6.842332023558155008e-04,-8.153857214533332121e-01,8.031180943487338242e-01,-1.860313340409059171e-02,1.178860388296370729e-02,4.732276170153724981e-03,1.402224898338317871e+00
8.626488095044848592e-04,-6.941412178634931429e-01,7.572520933939412835e-01,-4.277320258481431131e-02,-4.770211006382403182e-03,6.455393678600159814e-04,1.259526491165161133e+00
-2.139874554272511165e-01,-9.508912135542632038e-01,1.309733975562304531e+00,-3.917735499681238576e-01,7.712025578962795891e-02,7.730555210710232661e-02,2.117503404617309570e+00
2.814856896469448283e-03,-6.751293797039351618e-01,7.578412512587638927e-01,-3.325367807313137775e-02,1.038792923426211032e-02,-5.334600174494968060e-03,1.243087053298950195e+00
-6.233286460104153770e-02,-8.039948774901174433e-01,7.329383423910847961e-01,-7.271354485505358844e-03,4.590616079571100848e-04,4.228678289234098948e-03,1.331373095512390137e+00
-6.997060207947461419e-02,-8.189404418863635016e-01,7.861171355420297768e-01,-1.358730387275771832e-03,8.199602741933924299e-03,-6.364370484211961596e-03,1.391170263290405273e+00
-4.405640304581717737e-02,-8.053611749017333121e-01,7.075105612366094920e-01,7.233024322916380491e-03,2.642387475000633132e-02,-5.877848088426358870e-03,1.311092972755432129e+00
-1.607953275622633349e-01,-2.728577974025140351e-01,7.479162817321181045e-01,-5.665230676832937184e-02,5.863309040086484188e-03,2.367804449304003814e-02,9.754797816276550293e-01
7.468369352862730404e-02,-9.525207018082737509e-01,5.940933329644063621e-01,-1.661272225004112035e-01,3.192209072784500390e-01,5.216449402054071371e-02,1.501712083816528320e+00
-1.286091959234378357e-01,-6.424718523448585961e-01,8.044151911342741768e-01,2.556708636465265892e-03,8.019709129508310191e-03,-1.744979096118493347e-02,1.270890116691589355e+00
-1.058481539086557344e-02,-9.803788996260944799e-01,7.378284412389766178e-01,-7.849650687764194237e-03,1.256003464489320876e-01,-5.258792962487747469e-02,1.510707616806030273e+00
-4.591373332655949990e-02,-6.477089571444516469e-01,7.703859253351442726e-01,8.549380117238901400e-02,-1.315193104132870300e-02,-3.761777293869716324e-03,1.241868257522583008e+00
1.234341784276612140e-02,-7.318578109065573267e-01,7.651585107156823051e-01,1.145298019369042283e-03,4.326998992934347026e-03,4.442598169624784239e-04,1.296484708786010742e+00
-2.728041988865710643e-02,-6.722106719524026941e-01,7.674390814294379526e-01,4.425571598325248393e-03,2.671757511920741512e-02,1.086799229012642629e-02,1.250042915344238281e+00
2.058726842864830667e-02,-7.924195444285224710e-01,8.033555332011685923e-01,1.038355123982882301e-02,-9.051060205639338552e-03,-1.305322825465242800e-04,1.382270336151123047e+00
-1.899726426053226919e-02,-8.205883349022523587e-01,8.305474421319919420e-01,4.873216297834916111e-02,1.593520287291444806e-02,-1.190125023774547992e-02,1.433029294013977051e+00
9.302393563465162496e-03,-8.059094962409335539e-01,8.102294959103273353e-01,5.575852196659705079e-03,1.430145948664986177e-02,-2.370270341365113536e-03,1.399894118309020996e+00
-5.839881839135675767e-02,-5.757241389561135181e-01,7.604075807103193307e-01,1.455674019280740472e-01,-6.767726383164475792e-03,5.498059463253817530e-02,1.197678685188293457e+00
-1.058147577990385391e-01,-4.420376351464179177e-01,7.399218899614883327e-01,-2.359926107817311366e-02,2.050051666849370818e-02,-3.541030688355247674e-02,1.058000683784484863e+00
2.555019119828372612e-02,-8.038554498867764853e-01,8.067707936266906854e-01,4.131938864104019171e-02,-1.879081109646849653e-03,2.211413551625044001e-03,1.396894812583923340e+00
-6.427052876365492440e-02,-7.499905915434039727e-01,8.009052010785582265e-01,1.512983093985555529e-03,-1.755766218040516122e-02,-1.774446397056210836e-02,1.346805691719055176e+00
-1.384336918451927745e-01,-3.412139459601301050e-01,7.639433223148418550e-01,9.362703688377793654e-02,-2.713969569920860955e-02,-1.131773572769797231e-01,1.051343679428100586e+00
-5.308007977435023894e-02,-7.957439240322630170e-01,8.013992528875728549e-01,5.401486680203392010e-02,-4.413585851058144521e-02,4.361420391625357718e-02,1.391610145568847656e+00
-9.420109363097642352e-02,-5.106926616409902531e-01,7.528224062339903266e-01,7.929677810918533271e-03,-2.113809268511396972e-02,-2.399099400493964057e-02,1.116668224334716797e+00
-9.800355455543283134e-02,-5.905951163582214836e-01,7.694228556050585199e-01,-4.078750399803399151e-02,1.199912652115765060e-02,-5.873422765833729436e-02,1.199222207069396973e+00
-5.376227011503181830e-02,-7.364873422268055636e-01,8.030202400711122790e-01,1.466870973170922819e-02,-2.182756380382902539e-02,1.103264028968444291e-02,1.337002873420715332e+00
-3.578116853885835585e-02,-8.170462114976378976e-01,7.352862143809191231e-01,-1.680445934056273155e-02,-6.738910424976585906e-03,-3.811649911912752629e-03,1.344750881195068359e+00
-2.691524523420062848e-02,-8.078950052660353043e-01,6.560260007118146053e-01,1.743232450326766964e-02,-5.489594229266238357e-03,1.598982251794232867e-02,1.269437074661254883e+00
-8.824904405415057163e-02,-8.267572833270909749e-01,7.885586812971542292e-01,7.353417028239006732e-03,-2.283459012851589767e-02,1.215031105276507921e-02,1.401386976242065430e+00
-1.867104505185470525e-02,-8.077403318990989955e-01,6.512247169690702497e-01,-8.760111610996691722e-03,-2.847313480530348773e-02,8.080545848031809447e-03,1.266034364700317383e+00
-1.006462891135989635e-02,-7.946842345803230012e-01,5.591882237599512528e-01,-3.212536173387350695e-03,-6.118157470769087364e-02,-5.648739791388791148e-03,1.182235121726989746e+00
-4.245206604870271211e-02,-8.362183633838569108e-01,8.160428207369434528e-01,3.513700795026913470e-03,-1.921346874329096528e-03,-3.170527133040963578e-04,1.431282997131347656e+00
-1.489979746588390719e-01,-1.613147504402991927e-01,9.127370885529798583e-01,1.000318942771965258e-01,3.706602810268189857e-02,-5.528787703972819212e-02,1.088035464286804199e+00
-5.897491485895788033e-02,-8.709901386809104640e-01,8.883264553145644449e-01,1.800508477153108184e-03,-7.001926545840701094e-03,1.517579444137137678e-03,1.525167346000671387e+00
1.207751070029638302e-02,-7.648214470922999331e-01,7.735333868045620731e-01,9.616530679362049125e-03,8.566241419047184585e-03,3.944506252088357534e-03,1.332481026649475098e+00
1.077296708022857166e-02,-7.935425280772411272e-01,7.967199187775421132e-01,5.507213599144737681e-03,5.473391175579826046e-03,1.078080828061589967e-02,1.377430558204650879e+00
-1.513086780032930900e-03,-6.577405222233564386e-01,7.677240847831889869e-01,1.073135145475340724e-01,-1.734371048078965031e-03,2.012075230390632241e-03,1.249689817428588867e+00
1.247860436316111871e-03,-7.825722872665865637e-01,7.813593685418753765e-01,4.455733419036819916e-03,-6.095057762289981650e-04,1.964741261673807072e-03,1.354432463645935059e+00
-6.393502323988792257e-02,-8.533185227350552626e-01,8.274840531541657329e-01,4.639279539958366381e-04,5.017229544438250866e-02,-3.586828350139470174e-03,1.459115028381347656e+00
-5.907936817170853644e-02,-9.200983926604349161e-01,9.724673268678116766e-01,4.186602794675962219e-02,-1.743445107863271157e-02,-1.787791564286398543e-02,1.643396735191345215e+00
2.493470735373402511e-02,-8.030398389241918400e-01,7.821652130486193011e-01,4.233535128440291118e-02,-3.585079376138947376e-03,5.716253073934192885e-04,1.375254154205322266e+00
-4.508795492357414031e-02,-8.349457146196583857e-01,8.076910796858695063e-01,-4.719541057261200830e-03,-2.845498124312188706e-03,2.751849496104254687e-03,1.422953009605407715e+00
-4.757639451789185542e-02,-9.670779924760991575e-01,9.493755852166065878e-01,1.055709914153317996e-01,1.030368788930125651e-01,2.242700719650002762e-04,1.679696679115295410e+00
-9.851950206425467982e-02,-6.804515164785608361e-01,8.037204736322638432e-01,-7.011141557461478269e-03,6.780499965739662663e-04,-1.066307430087958322e-02,1.295459032058715820e+00
-5.050911958968285626e-02,-7.971104015322789671e-01,6.640866920917632976e-01,-3.375605815684129454e-03,-3.611585868212299072e-02,-8.708102439065951899e-04,1.267094492912292480e+00
-7.039917754785911252e-02,-7.737128093295588815e-01,7.865618308487460908e-01,-1.387016622615528001e-02,3.458723100404123302e-03,2.296886163927256558e-02,1.354230523109436035e+00
-1.094382315490848301e-01,-4.543544968335853085e-01,7.505176042427784688e-01,4.752232453260678974e-02,2.272661718953951360e-02,3.492759799836456236e-02,1.080318689346313477e+00
-1.127978258102389775e-01,-4.764336314677138917e-01,7.548035160013025768e-01,7.031801648230009971e-02,2.608289490344915459e-02,-9.854723620662626457e-03,1.103458285331726074e+00
-5.505644308839762607e-02,-8.000325888591292012e-01,7.856126808540704332e-01,-6.029627736532427789e-04,-1.392766481654075057e-03,-1.216859814410718547e-02,1.374206542968750000e+00
-2.819984614385488003e-02,-8.232383113873789071e-01,8.024457134862829077e-01,-2.831052841493742010e-03,8.936427625972359276e-03,1.564152301886817704e-03,1.408092498779296875e+00
-3.134586590175351961e-02,-8.165865179830587017e-01,8.074760612902860402e-01,-7.599243516335283223e-04,7.262768784042449195e-03,-2.406188178464683212e-03,1.406797647476196289e+00
-4.104377644582011403e-02,-8.348697054857546762e-01,8.152493962694091767e-01,3.127468330899817097e-03,5.073643592309231252e-03,2.502085085688924519e-03,1.429430246353149414e+00
-4.611556979809035284e-02,-8.341047088266742016e-01,8.164475347020533347e-01,2.634438857920319652e-03,4.362626083873420886e-03,2.753466284508696970e-03,1.429941654205322266e+00
-4.644302045910819743e-02,-8.288760401913582987e-01,8.009878320367521676e-01,5.802605041233688948e-03,3.456488584223454518e-03,7.031577291420624404e-03,1.411978602409362793e+00
-4.425641382840578286e-02,-8.358703400517664139e-01,8.036199781388049246e-01,6.365015455513760301e-03,-3.424050511494199957e-03,-2.928243703494141491e-03,1.420183181762695312e+00
-5.292880793744547674e-02,-6.274545595979333923e-01,7.740740889509555300e-01,-6.984865176155277688e-02,2.613400661967706096e-02,-3.410393894449024327e-02,1.228544950485229492e+00
-5.605054333472314632e-02,-6.852311518364997411e-01,7.878358659941058217e-01,-3.337904309806462994e-02,2.159753265979231021e-02,-4.569463465567062677e-02,1.284513592720031738e+00
-4.697656570899677586e-02,-8.182849982684943235e-01,7.741111503716470166e-01,4.170884976779577064e-03,-6.977490634531618476e-03,1.358041308838718641e-03,1.379354000091552734e+00
-3.558367723844930997e-02,-6.293868492650003255e-01,7.537777793922321168e-01,1.589552378425576618e-02,-6.077077806196937507e-03,-4.701883735359851588e-03,1.202228784561157227e+00
-3.848266805199789670e-02,-8.178811085381898494e-01,7.308255733439131818e-01,-1.014121806251678908e-02,8.036434658995882455e-03,8.863839790750817349e-03,1.341503858566284180e+00
-4.075448241623187001e-02,-8.219827093726445044e-01,7.788146515046980856e-01,2.654304053404317812e-02,1.362046540565568266e-02,-2.846265163626490735e-02,1.388301849365234375e+00
-6.995826908008800915e-02,-8.390769626556268124e-01,8.199915892013361907e-01,-9.185629551054801025e-04,3.934547103732948664e-02,1.078866774122594699e-02,1.439801096916198730e+00
-1.140435186897550135e-01,-3.537010896370512136e-01,7.321088654406591179e-01,1.057328884762027410e-01,1.639722769619479398e-03,-3.793308909623973463e-02,1.007005214691162109e+00
-1.563421059615192621e-01,-4.309961334083112217e-01,8.018268339045609983e-01,2.818482249697485953e-01,1.488490447002931427e-01,2.938352279779167693e-03,1.249598622322082520e+00
-1.055470067053294325e-01,-6.030388009758531620e-01,7.748991009968752008e-01,4.401547882494930702e-02,-3.139423535910096374e-02,-1.016140994791375936e-02,1.212343454360961914e+00
-4.492681778493904515e-02,-8.309632115132583596e-01,7.967100458155168541e-01,1.284070377872859525e-03,-2.855003541513481680e-03,5.203358499866928173e-03,1.409919738769531250e+00
-4.750197687424976417e-02,-8.331177788117486438e-01,8.119362034857986465e-01,1.280283744238420790e-03,-2.846601705588352755e-03,-1.958314878848753816e-03,1.425150871276855469e+00
-4.436067217704142696e-02,-8.318692566384390252e-01,8.064847655006603944e-01,5.011666375809599276e-03,4.137765579826661357e-03,-5.041798947220167432e-04,1.419254541397094727e+00
-3.585473070280778551e-02,-8.274108114088635224e-01,8.089935082774667441e-01,3.623270023138543214e-03,-5.482762350619348624e-04,-1.890342185856253281e-04,1.417432427406311035e+00
-5.300610964906807276e-02,-8.245915884526029416e-01,8.226306408472041642e-01,7.514604134258202894e-03,2.196104132551739835e-02,-7.544595385103984586e-03,1.428110480308532715e+00
-3.109267776085026039e-02,-8.208793703554982946e-01,8.063497290883905322e-01,-1.692474028860640241e-03,9.013174176470252572e-04,-1.488462754592591829e-03,1.409429430961608887e+00
-2.141239449237249473e-02,-7.954569283490446896e-01,7.992697093449369072e-01,-1.763392234362658531e-02,3.091608980440568172e-02,-1.442997944609177366e-02,1.382871508598327637e+00
-5.800222183112248298e-02,-8.252398099508461149e-01,7.934750908014077675e-01,8.069328758265575940e-03,-4.162574028145215807e-03,3.997562224065841913e-03,1.402586102485656738e+00
-7.336686820066937176e-02,-7.812278237123981839e-01,8.198690243093913477e-01,-1.876252413173903422e-03,-1.240522631440646971e-02,-1.525124823698392957e-04,1.389854907989501953e+00
8.270722705611960324e-02,-8.914472656164063036e-01,3.530514659284057499e-01,-1.752213345560311442e-01,2.551553890828771043e-01,2.293143917096816531e-01,1.315521121025085449e+00
-3.413203546241568020e-02,-8.827738742555905072e-01,7.988998107748405131e-01,-1.102607223328876535e-01,1.458051936535661175e-01,-3.021141136418891912e-02,1.491331219673156738e+00
1.645123206497991486e-01,-1.337327216048894929e+00,4.734972509287201925e-01,2.358607844295960154e-01,3.377277975451505321e-01,9.919430775936706468e-02,1.831291675567626953e+00
-2.977630361036003731e-02,-8.327013136873147037e-01,7.369867556478879589e-01,1.485029643848660014e-02,9.666318937772089281e-03,-1.332533958666631130e-02,1.360052227973937988e+00
-8.618505155303030074e-02,-4.858793492920959745e-01,7.648920104609701065e-01,-1.476636989162199987e-01,1.131723152379230518e-01,-6.000347303290784473e-03,1.152477264404296875e+00
-1.143759968788757991e-02,-8.502042123230948434e-01,6.776025247528362216e-01,7.247487448478409297e-03,-2.675783301805079780e-03,-5.041476191944125468e-02,1.328176736831665039e+00
2.065076787121825075e-02,-7.747073897650504914e-01,7.739142325565668834e-01,-3.761759862239453600e-04,7.054230266369834919e-03,-2.524050797284648796e-03,1.341373682022094727e+00
-1.715149856926721436e-03,-8.114065008550331859e-01,7.955162337929874150e-01,-4.405952948878700745e-03,1.028258162438206239e-02,-9.326558207398571608e-04,1.391785621643066406e+00
1.294994578392062549e-02,-8.002131390572522207e-01,7.835620954127355819e-01,-7.343285877711685193e-03,2.625485216198048498e-03,4.618110848857071363e-03,1.371844410896301270e+00
-9.579491850983518336e-04,-7.964272071268545528e-01,7.907663535264567445e-01,-9.696243783227465962e-04,1.009637586878216718e-02,-3.573097813820948470e-03,1.374677419662475586e+00
-2.998744283905551214e-02,-8.278639655952275689e-01,7.880977536938765793e-01,-8.454140341346628226e-04,2.365749625985013281e-03,-4.930413340539497452e-03,1.399533152580261230e+00
9.831841108133830900e-03,-7.946582247548384936e-01,7.859813640795054734e-01,-3.032157002870247285e-04,-1.072772450704905954e-03,6.898377895069723875e-04,1.368949294090270996e+00
-1.039749614168387210e-02,-7.100359827894625608e-01,7.713114774311724542e-01,-2.000464581237267059e-02,1.856715591693928330e-02,6.307001994429272014e-03,1.284457325935363770e+00
9.399473266325411580e-03,-8.261852056325001969e-01,6.616805333737777461e-01,7.021237389964005583e-04,6.375046550774489916e-04,1.429990627607102133e-02,1.292023420333862305e+00
-1.053488276750096098e-01,-4.749536579756162835e-01,8.668094638638186300e-01,1.939773456999045742e-01,-1.554572217721564842e-01,-5.470395003076078400e-02,1.278817415237426758e+00
-4.652662509139039726e-02,-5.024516740703528495e-01,4.552251490121203559e-01,2.180548792333352748e-01,-1.921076178764084819e-01,8.132897566046014270e-02,9.806052446365356445e-01
4.261211818901822213e-02,-8.035218641001899975e-01,4.748804466181852924e-01,6.069491754698168101e-04,-8.986655526980771164e-03,-2.759641055945942934e-03,1.126419901847839355e+00
1.733274654296634854e-02,-8.135985298803695143e-01,6.043999398422039704e-01,1.004314145894222646e-02,1.559357512640287789e-03,3.859219251098706255e-02,1.235995650291442871e+00
-3.526909443848903758e-02,-7.174866429688893099e-01,8.881128563157600908e-01,2.351894875643245064e-01,9.301422145763009464e-03,2.453921337641348788e-02,1.454651355743408203e+00
8.448449623547935050e-02,-7.765821640531367365e-01,3.116402916563287273e-01,9.426533802131181750e-02,2.221831854195567835e-01,6.102466721926549757e-03,1.078655362129211426e+00
1.892622449973465071e-01,-1.192190195573985534e+00,2.378554428822164390e-01,2.276281459040547517e-01,5.888718111980897202e-02,-5.289375513407164331e-02,1.467017889022827148e+00
4.495284716902353539e-02,-8.129116924794400623e-01,5.126848513660273721e-01,-1.797039752041878005e-02,-5.060488229862496147e-04,2.477589288562991304e-03,1.164879202842712402e+00
2.060909696817251335e-01,-9.052246288014541564e-01,4.222505364130241245e-02,9.620587270961381910e-04,9.168504915787104026e-02,1.193734590083129488e-01,1.071325778961181641e+00
-1.682252341163589793e-01,-7.740920587011745901e-02,8.179719274232408743e-01,-1.293045937137380363e-01,3.445284256131760786e-02,-1.095687018165494159e-01,9.904573559761047363e-01
-8.277769623823204304e-02,-8.219707254720234335e-01,7.905763946256341157e-01,-7.630919019209828069e-03,-4.618001036886220517e-02,-1.483958973261434097e-02,1.400701284408569336e+00
1.869374782674237956e-02,-8.302777855253896666e-01,6.061157296378879566e-01,6.770495602521043113e-03,9.916621899140256203e-04,3.171407058755856129e-02,1.252070069313049316e+00
2.539307480655141058e-02,-7.981718817189898951e-01,5.604489382491530947e-01,7.699161938115576913e-03,-4.510351871831057118e-03,-2.300749878483876291e-03,1.185517668724060059e+00
1.036173850319673795e-01,-8.119752700036351190e-01,2.584744108331070156e-01,1.431063324775453949e-01,-2.359747620961154813e-01,1.618801811556268011e-01,1.145068883895874023e+00
1.213112225760858420e-01,-1.440486768673863605e+00,6.796031526682536628e-01,1.888609475578002239e-01,-3.930242118675738583e-01,2.253560740930299583e-04,2.047743082046508789e+00
3.662416350751193650e-02,-9.335386153361895367e-01,5.866358192694084428e-01,1.179618281542166580e-01,-3.090975494222141795e-01,5.167185165069815983e-02,1.453859806060791016e+00
-2.124785567987640122e-02,-8.330858402967703524e-01,7.561661831319366200e-01,6.404232563066749630e-03,-2.969961426296098897e-02,-1.029517685710687469e-02,1.377561211585998535e+00
-2.564651912156977465e-02,-7.960151158624733103e-01,6.232287452327701649e-01,6.745762020538615712e-03,-6.491872851142563641e-03,1.344718003025338095e-02,1.230928659439086914e+00
5.960232501815002082e-02,-8.061571583889719506e-01,4.788758819533679434e-01,-1.468086283449969963e-02,-1.876648911514462292e-03,-4.294733172035172103e-02,1.137765526771545410e+00
1.845076999576931720e-01,-9.814352289435572807e-01,1.580556453538024542e-01,9.094181156347137807e-02,4.330172248661078721e-02,-1.030380969993640455e-01,1.179647326469421387e+00
5.118498422873282716e-02,-8.154808195428503437e-01,3.325799149814890887e-01,1.792100913843319432e-01,2.092639812015830436e-01,-4.547103285731118709e-03,1.141031622886657715e+00
3.720971442694900877e-02,-6.221140070161094160e-01,2.598680336280818071e-01,-6.783283004618448353e-02,-8.884099814564978825e-02,-1.939215149341411981e-01,8.839610219001770020e-01
3.813503601417447819e-02,-7.979260193261377143e-01,4.546933968922782787e-01,4.112644616164999600e-03,9.411544226066220764e-02,4.451979577660807735e-02,1.119534373283386230e+00
-1.712647964916228505e-01,-3.006134109379859920e-01,7.916211166330547888e-01,2.527645711520407935e-03,-8.548160156644155072e-03,-4.668502448930058474e-02,1.036921024322509766e+00
1.047946537703642322e-01,-7.926702491769984649e-01,2.938382531082681659e-01,-1.647394638840945797e-03,4.426198088444482925e-02,5.014172859971179758e-02,1.012061715126037598e+00
-1.640170423575041531e-02,-6.768887942494026255e-01,6.185709161938693912e-01,6.273982500678361440e-02,1.340562127701215578e-01,-2.033926560021432142e-02,1.151428580284118652e+00
-1.468989174944452247e-01,-2.651661878059153876e-01,1.295277960133983441e+00,1.544904936025728315e-01,-7.510180764991408742e-02,-1.014301914550193862e-01,1.543959379196166992e+00
1.715024466893551036e-01,-9.409708263741437539e-01,2.837119400430856975e-01,-5.456181241523470893e-02,-1.874854744208140911e-01,5.824401695174967475e-02,1.224572658538818359e+00
-4.490170829699421939e-02,-7.991830821654002381e-01,7.704644506349234145e-01,-6.126619953731300347e-03,-3.527824894388098542e-02,4.608258442599011406e-02,1.363449692726135254e+00
-7.812690602575746157e-02,-7.146347356671910456e-01,8.261098102885590100e-01,-3.632069679952106694e-02,8.813052619511737087e-03,-2.062189520330226858e-02,1.343058586120605469e+00
-4.687676793210061865e-02,-8.267649643130617898e-01,8.076008813750635840e-01,6.907794968532125247e-03,1.881679112640598922e-02,-7.459941977509483395e-03,1.416378140449523926e+00
-6.788654065681151706e-02,-8.157162872309656754e-01,7.857965164050816353e-01,-3.261385762278404786e-03,1.413920099509229610e-02,-6.134155917742304537e-03,1.388228416442871094e+00
-4.692787983382513267e-02,-8.558386137929685500e-01,8.657722976851824903e-01,1.859878371607466725e-03,1.084486653278943398e-02,-6.793012865094889136e-03,1.492029786109924316e+00
-5.307333942973738866e-02,-8.252750464871682068e-01,7.966144338437670669e-01,4.547874371182570284e-03,-4.587719884412327746e-03,-5.887999550303814333e-03,1.405213236808776855e+00
-5.397976635113005406e-02,-8.279314186903824480e-01,7.916320233988375366e-01,3.680029399801863083e-03,1.255759598937359950e-03,-1.329701691509991429e-02,1.403245806694030762e+00
-5.047183413332809176e-03,-8.065650269350652657e-01,5.955290569435892634e-01,1.686480289190542270e-02,5.282452694129480958e-02,-3.598810980281921812e-02,1.223766803741455078e+00
-6.927439269143435829e-02,-9.800460128539401072e-01,1.072670376112829338e+00,1.178452935784495836e-01,1.775438929010963451e-01,5.573464122661175857e-02,1.821850895881652832e+00
-7.425912266932528649e-02,-8.006387748462041598e-01,7.402895239941191807e-01,-2.650121465080858881e-03,2.208140519096494017e-02,-3.253086493611213187e-03,1.335778474807739258e+00
-7.316682948946495735e-03,-8.014863669829874748e-01,5.921123699668824347e-01,1.063905541775565788e-02,5.765577698068902884e-02,-1.784551248677961055e-02,1.215457320213317871e+00
-4.917880529577083049e-02,-8.454881254187590622e-01,7.943583857069105303e-01,2.784534272585630077e-02,9.030964712107528158e-02,2.470994565424179321e-02,1.430386424064636230e+00
-3.153193699623571544e-02,-7.888926412125765175e-01,7.999242265700577947e-01,-1.485621447737118031e-02,-1.328732811028988763e-02,1.062625671400779966e-02,1.377010345458984375e+00
-5.736645343562042643e-02,-5.914210314709230643e-01,7.584407724830130038e-01,-2.182196583924510269e-01,-2.081120142480908097e-01,-9.823608503832197136e-02,1.299301147460937500e+00
-2.713077685596364252e-02,-6.292039987984789917e-01,7.460497036009930971e-01,-1.010515693149362237e-02,1.075632880288683070e-02,2.194153118685759473e-03,1.194353103637695312e+00
1.003008752933232384e-01,-9.058885862482906060e-01,4.725653944742914669e-01,-6.798291799687913861e-02,-3.107174162728619793e-01,5.095758692096822445e-02,1.355307221412658691e+00
-1.262595661645684458e-02,-7.163979932110620119e-01,8.080094342371919591e-01,-8.973620399352659482e-02,3.039771026920238053e-02,-2.398675942425761501e-02,1.332266330718994141e+00
-6.633382208744371955e-02,-4.843146900567558699e-01,6.498929736931151613e-01,-2.165187816051460656e-01,-1.384879751945776449e-01,-1.764382581187736929e-02,1.089114189147949219e+00
-5.161750710219159544e-02,-6.727522390418132492e-01,7.775430603068504976e-01,-8.482134506077186609e-02,-2.050032796648637232e-02,2.653835876613139071e-03,1.269331336021423340e+00
-7.541252702723746926e-02,-4.412935441959645599e-01,7.467154022865407637e-01,-1.537284845091177743e-01,2.417190874752446136e-02,-1.294279364486475292e-01,1.110616564750671387e+00
-2.788595373127918109e-02,-7.570628042993137186e-01,8.990572853230153205e-01,-2.117982855373467810e-01,4.435431042435069443e-03,-1.061784072377492671e-01,1.495086669921875000e+00
-2.004138770773312289e-02,-7.970035642801606146e-01,7.994414140732390983e-01,-5.785247749208809014e-03,-1.442771104601300348e-02,-4.442480683213912915e-03,1.383008837699890137e+00
-3.262719594853415173e-02,-8.255135779207274371e-01,7.268145226977055229e-01,-9.994369691546895612e-03,-1.213118306204952722e-02,1.008548433799104707e-02,1.344848632812500000e+00
-3.867786908240811172e-02,-8.274023564997066149e-01,7.641973445182381752e-01,-1.895972322017566150e-03,-1.302413644231350913e-02,2.995393138818160453e-02,1.379548311233520508e+00
-1.143459461353129869e-01,-5.253064097651317654e-01,8.557331446515165085e-01,-6.340825521578409563e-02,-7.434721577675020704e-03,-5.545699929089214358e-02,1.236956000328063965e+00
-4.708372240289639826e-02,-6.058836580698581109e-01,5.901485593834691068e-01,2.431253159545539999e-01,-1.992758255435141124e-01,9.739116878379730849e-03,1.170963048934936523e+00
-5.394511627440055218e-02,-8.108981638634159550e-01,8.125440135312533840e-01,1.323552376879016251e-02,-1.423757388886226320e-02,-5.441705268794783112e-02,1.410563826560974121e+00
-1.897744419259435322e-02,-8.335297250017956738e-01,7.290542242702111597e-01,-7.580266950937164516e-03,-2.819924286618386271e-03,-2.469787008669921402e-02,1.354394316673278809e+00
3.243797339004267366e-02,-8.387419411828214155e-01,4.994434321499358065e-01,4.583426873472058044e-02,-2.234003024752351518e-01,-2.356858069623344459e-02,1.241606235504150391e+00
-2.844601472108201218e-02,-9.236073307788348341e-01,7.448891363449047232e-01,5.240577467439206522e-02,-1.020584051970090528e-01,-7.580325684244408613e-02,1.465723752975463867e+00
2.592484656243679297e-02,-9.068958458252679433e-01,4.970512392673165358e-01,2.044687920583649343e-01,-1.957304427643707656e-01,1.968329669969276219e-01,1.374108552932739258e+00
-3.234369497616193523e-02,-8.381671522869817981e-01,6.673549962859604001e-01,-1.040631378165508651e-02,1.339857258911544835e-01,4.214136062494707596e-02,1.327506065368652344e+00
4.246037098858837511e-02,-8.214239460765815348e-01,5.198076220585280405e-01,-2.231744761680688471e-01,3.061733521940415148e-01,6.928248498306920078e-02,1.353357434272766113e+00
-2.908414973828285163e-02,-8.081692973671896763e-01,6.651762537455705449e-01,-1.677421743598678239e-02,4.478821279168083633e-03,1.738869804477000472e-02,1.277368545532226562e+00
-8.410146957873390616e-02,-8.038533334878654735e-01,7.750429962423842634e-01,2.525844602834451808e-03,1.155152417398917428e-02,4.677128188895803527e-03,1.369316577911376953e+00
1.958705606352607598e-01,-1.230932756456241339e+00,2.839165671083156983e-01,1.632617800766630878e-01,2.458660410614771918e-01,3.283769316006374117e-02,1.560029745101928711e+00
1.533101080877762867e-01,-9.559377421226198379e-01,2.328434588013328366e-01,-2.643475806522829763e-02,2.349053432339149872e-01,1.008315772706475377e-01,1.234146475791931152e+00
-1.597027630825036959e-01,-3.669620793218465460e-01,7.367376726473831017e-01,-5.470722136912924138e-02,5.639130622692924144e-03,-3.605246922740007465e-02,1.022414207458496094e+00
-3.257313574109717280e-02,-9.837639159292173030e-01,6.001548486247120229e-01,-3.821380618847282640e-01,2.369882718954248180e-01,4.488226932757664878e-02,1.587317109107971191e+00
1.116450612617603810e-01,-1.213469809745654882e+00,6.333177415837465407e-01,-2.186732930561922361e-01,3.298388933855843641e-01,2.629169084768624987e-01,1.842975616455078125e+00
-5.033795627296040742e-02,-8.048666674903041107e-01,8.170239300047632547e-01,9.500561062754683643e-04,1.614671672729881685e-02,-7.820626200387479840e-03,1.406075358390808105e+00
-5.575587409190045640e-02,-8.293464184055852062e-01,8.103264619876350272e-01,-5.085275291319100131e-03,8.005436809326700598e-03,1.561188488612041698e-03,1.420848727226257324e+00
1.572570249361902872e-02,-8.309189370668401686e-01,5.861353977340799659e-01,-3.263910809100536211e-03,9.658244542159358931e-03,-5.496676702961376948e-02,1.238743066787719727e+00
-4.386891027819517230e-02,-7.784713950043323782e-01,7.520931194705564593e-01,3.238227319711581287e-02,-2.083820054275747902e-02,1.704260120440258004e-03,1.327542543411254883e+00
-6.108784310203920626e-02,-8.085364742523343251e-01,8.069705595551056598e-01,-1.049903924414155284e-03,3.385440213558051862e-03,-1.247327223348734283e-02,1.400549292564392090e+00
-4.349986465173048822e-02,-8.302574669279121355e-01,7.896487071295886784e-01,-1.551015566058953823e-03,5.772496347462046555e-04,8.966638184013152671e-03,1.403160572052001953e+00
-4.747448057543487282e-02,-8.321987055953679047e-01,8.043091687746211083e-01,1.115096486959646534e-05,-1.784493099151189923e-03,-4.298248567507865527e-03,1.417676925659179688e+00
-5.523318239460005968e-02,-8.080022687105107293e-01,8.068157086514236020e-01,2.822959876064995714e-04,-3.366907483803185594e-03,-1.415146223592607562e-02,1.399767279624938965e+00
-5.290188691705415697e-02,-8.264437701464619757e-01,8.119589470763818317e-01,-3.028904147054671189e-03,-2.830017192572256094e-03,3.573180935564415888e-03,1.419664502143859863e+00
2.263175431984740249e-02,-8.350939616494453821e-01,5.940033079464359655e-01,-3.949307368478487297e-03,-1.511579900840357739e-02,-1.919006313184986462e-02,1.246625781059265137e+00
-2.989962150242825994e-02,-8.358432353140419213e-01,7.733977078744955769e-01,6.120335530707792134e-03,-3.229745804882752907e-03,-9.617636398765542008e-03,1.393795251846313477e+00
-5.137158714418738753e-02,-8.336591329778929582e-01,8.056700195989644486e-01,-2.466706047088060814e-03,-2.333753502717158309e-03,-4.441752349306647175e-03,1.420225620269775391e+00
-8.938769105551822025e-02,-5.325427316737632033e-01,7.545880408537135597e-01,-5.217149129941041352e-03,1.927519992434129428e-02,-3.564929413752593312e-02,1.134769797325134277e+00
-8.082427275622468266e-02,-7.167018105392887195e-01,7.919613852916634889e-01,-1.090834447957173903e-03,-6.245227205873908963e-03,-2.315963396088245238e-02,1.312558412551879883e+00
-4.323875214951757029e-02,-8.948010766444799424e-01,8.211008934726082842e-01,-6.387018396344298909e-02,-5.746077550416239105e-02,1.801303381326197980e-02,1.493786215782165527e+00
-5.054676492026483059e-02,-7.772091799919518262e-01,8.654292615398303523e-01,-1.095391898939580833e-01,2.386618327061019312e-02,-8.096917352912842702e-02,1.445693254470825195e+00
-1.077270021819994317e-01,-6.506609545048156473e-01,8.004562023582622032e-01,-9.516227721034130338e-03,-3.408716845833145714e-03,-2.376370484891460882e-02,1.270691990852355957e+00
-5.645406767233052125e-02,-7.407292722773688443e-01,8.049018281214069814e-01,-1.574154789810179242e-02,2.684990793636388845e-02,9.555709319636633906e-03,1.342665672302246094e+00
3.341272298004613339e-03,-7.314820468554524835e-01,7.670214925605712830e-01,4.127297702069612773e-02,1.228026543635101289e-02,5.334020829087451551e-03,1.299996495246887207e+00
1.604429928275999742e-02,-8.131573661388211693e-01,8.107602576098847935e-01,1.811393548947989179e-02,2.527411556176026482e-03,3.062435971518568355e-03,1.406826376914978027e+00
-9.333781132791280077e-02,-6.301881714100413534e-01,8.438247791948878529e-01,2.491335233799628068e-01,1.670517619682923283e-01,-7.188364722606320478e-02,1.398220777511596680e+00
-5.155163432182752192e-02,-8.187656044282544121e-01,7.687918023110462684e-01,-1.330129080836358810e-04,-1.352419936229800647e-02,-2.811698815296691766e-03,1.375329852104187012e+00
-1.709353729187507165e-02,-9.700109899338298369e-01,6.310063171132285209e-01,3.159655349581172445e-01,-2.105655556558073127e-01,1.432802927472853483e-01,1.561977863311767578e+00
-4.802540623689455224e-02,-7.976878716445621187e-01,7.817852102493848543e-01,4.851315005372471706e-02,1.281393557072500397e-02,6.351117877855769200e-02,1.375613093376159668e+00
-3.651873084175725342e-02,-8.176067493515118967e-01,7.958631429766158671e-01,-2.892519618098565466e-03,4.344760049712622502e-03,-4.069814508284702245e-03,1.397588253021240234e+00
-3.893357438288836542e-02,-8.584403026796090241e-01,7.610685655756751489e-01,-2.635232240753076355e-02,-5.514996744742066935e-03,-1.381134350256374085e-02,1.403548598289489746e+00
-4.988834090297360191e-02,-8.435971360240843708e-01,8.112797129142229613e-01,-1.078110384457504380e-02,4.025283241250962075e-03,-9.862920002849243691e-04,1.433701872825622559e+00
-1.121344292344665650e-01,-5.045197429656228527e-01,7.733556804927040895e-01,8.583614876519854442e-02,-8.383477320352550333e-03,6.630218884535563073e-02,1.149353981018066406e+00
-3.294730838228437930e-02,-7.266290244330976256e-01,9.905017673962867031e-01,-1.883051949565193728e-01,2.833753790292634078e-01,-2.337841088891647878e-01,1.658263087272644043e+00
1.348372817816137492e-02,-8.479318621152328594e-01,5.886968101793836894e-01,-3.758244853101247451e-02,1.003257446268475961e-01,-7.168715620678617340e-02,1.272106409072875977e+00
-3.320005761459396409e-03,-1.099007188524102396e+00,1.000947296203194226e+00,-3.261183123443851025e-03,2.999144989914404036e-01,4.326207212119839024e-02,1.893393516540527344e+00
2.472840301340446800e-02,-7.924557734805496301e-01,5.655362687654347242e-01,1.509946622552904572e-02,1.294005091230338196e-02,-5.084309805325391146e-02,1.187915921211242676e+00
-1.554665731399316186e-01,-3.748021439076766881e-01,7.396274752108871198e-01,-3.439521730222368234e-02,7.229136793106918403e-03,-5.041260048694457679e-02,1.028084397315979004e+00
-9.178726971377323962e-02,-8.534786430920173750e-01,8.524934039569227462e-01,3.821929118299326016e-03,6.357647433883684140e-02,-9.820377798255472933e-04,1.484339237213134766e+00
-4.736503810203628040e-02,-8.325524682731637593e-01,8.131464605725877703e-01,4.171067758354957480e-03,-9.025718428970180840e-03,-3.944017831433256952e-04,1.425818800926208496e+00
-2.915914683402163685e-02,-7.977391054397829917e-01,8.228138638623594403e-01,-1.474056315607246148e-01,1.068368166940617120e-01,3.867792438428460655e-02,1.440589427947998047e+00
-5.619983810146424869e-02,-8.095697363517887490e-01,7.898706774120625163e-01,1.521054698570743335e-03,1.273616926723463794e-03,-6.697384210252172246e-03,1.385984063148498535e+00
2.874683511751296994e-03,-8.327541368635135166e-01,8.424488541117350904e-01,-1.213305943504972562e-01,-2.714820064175233437e-03,3.105384318273013422e-02,1.466905355453491211e+00
-8.311481566841041890e-02,-1.029509852932755765e+00,1.138222941182728487e+00,-2.527956898894340165e-02,-2.985271008553608274e-02,-1.149835763324537873e-02,1.883662581443786621e+00
-4.370681183142476056e-02,-8.234554097980677501e-01,8.109437136207444663e-01,4.862046869602465633e-03,3.768668306473187297e-03,-4.340596818379022920e-03,1.415986537933349609e+00
-2.406563091550892319e-02,-8.228006973199047946e-01,8.117929800824309483e-01,-1.112846114474967674e-02,-2.052291226271940952e-02,9.968575019752968711e-03,1.416403889656066895e+00
-1.438560965402407577e-01,-3.905061896235300645e-01,7.262431364453157956e-01,-4.964262812208001911e-03,1.734139909474349470e-02,9.840173010144252427e-03,1.016752481460571289e+00
-6.357370717528129656e-02,-8.103580871876335801e-01,7.653414096524850940e-01,-5.455385865945766577e-04,2.553801235122764648e-03,-6.575177254993509572e-04,1.365221500396728516e+00
-8.704922664826561518e-02,-8.078312538478394922e-01,7.804182668546059132e-01,1.595724526581755601e-03,6.261587125380922714e-02,6.336132218969137489e-03,1.381727814674377441e+00
-5.522926834110602340e-02,-8.231136158156050486e-01,7.813801480277544620e-01,-9.569416769156427862e-04,-3.586319065155893406e-03,-2.729090457739597516e-03,1.389980077743530273e+00
-7.925154812764659273e-02,-8.113701267058096578e-01,7.697473482612080531e-01,-8.296620663400358295e-03,1.795647550432660213e-03,-6.562149266015228485e-04,1.370613813400268555e+00
-4.758119452931137278e-02,-7.949567760695877006e-01,7.898340385780464601e-01,9.704904496170241313e-02,1.495324818858110097e-02,-7.509328207127652366e-02,1.389799118041992188e+00
-3.126822162180394049e-02,-8.278207246134866581e-01,7.304764346188058477e-01,9.717237612764729679e-03,-1.645897649734539506e-03,-1.628433735784460407e-02,1.350039720535278320e+00
-4.084143026390674169e-02,-8.293517699639326723e-01,7.653631690695570367e-01,1.319312026643907135e-02,-3.102325701072780086e-03,-1.074066754399039154e-02,1.381416797637939453e+00
-4.439161500974304203e-02,-8.107612260132780468e-01,7.202710535276943826e-01,1.344262831595689940e-02,2.345660295601205078e-02,3.066752756804710760e-03,1.326750397682189941e+00
-2.481185866977511645e-02,-8.274871232301851398e-01,7.269335123443352309e-01,8.778686465834439553e-03,-8.476010597188262568e-04,-1.566219838645323617e-02,1.346768498420715332e+00
-6.652218313423775842e-02,-7.458685249419461094e-01,8.053547781211640721e-01,-1.785893343670662270e-02,-1.320072287004800393e-02,-5.379405558324419981e-03,1.347424864768981934e+00
-4.918319494382994428e-02,-8.147651223293549405e-01,8.201138591985194237e-01,2.745380618429668542e-03,-1.700643335336944964e-02,-7.011393198067051788e-03,1.417162299156188965e+00
-4.110172529432128824e-03,-1.002446702699233194e+00,9.425447959027422051e-01,2.734864748863186784e-02,-3.511901358969721221e-01,-4.804898005050022708e-02,1.793623447418212891e+00
-4.671643425559217355e-02,-8.639634910729264705e-01,8.142598047236170311e-01,-6.943921949904939550e-02,-6.102201215118645966e-02,2.208996490715155886e-02,1.462840914726257324e+00
-5.564698613965305546e-02,-8.189794927467712871e-01,7.715088468123445509e-01,1.275227897352866104e-02,-1.665915846081640617e-02,-4.247475567107034198e-04,1.378252267837524414e+00
-4.685721158920527762e-02,-9.138778765181060360e-01,6.796773584304088844e-01,1.897102059256061679e-02,-2.402227296318397987e-01,2.389666787022369857e-02,1.444095373153686523e+00
-1.641651559647111513e-02,-8.557014383641721178e-01,6.969125772109207029e-01,9.833738965781761709e-03,-3.334440865815277433e-02,1.797610838493953964e-02,1.347782969474792480e+00
-2.048884484658230337e-02,-8.261976032530103931e-01,6.865470451929891471e-01,1.480900972645570433e-02,-3.665097597611689795e-02,3.923265646368030019e-02,1.314548134803771973e+00
-2.825447270542189027e-02,-8.310409326871989188e-01,7.260593185645137781e-01,1.098560338401699185e-02,-2.878306847209960440e-02,-9.661661753061089389e-03,1.349865078926086426e+00
-5.780089533605380775e-02,-8.033364348934773913e-01,6.855245950976219804e-01,-6.173638107187010525e-03,-4.007536164782515842e-02,-6.205648821663040798e-03,1.291347980499267578e+00
-6.446807083868255628e-02,-8.258036059371774984e-01,8.055795972312966846e-01,-8.240498886395867043e-04,-3.746738279455808646e-02,-1.179412558672293318e-02,1.415501236915588379e+00
-2.003605769406555798e-02,-8.457510686873929151e-01,7.861404200037702683e-01,5.809288530451783145e-02,-5.518485962853079269e-02,-1.616329652134207082e-02,1.420366883277893066e+00
-6.085909850427603102e-02,-8.430817101772374311e-01,8.411908292629578510e-01,-2.465683087899801351e-03,1.833534368468621445e-02,6.701495333381686861e-03,1.460250496864318848e+00
-6.342983706024551971e-02,-8.197452229925112910e-01,7.625869094495023592e-01,-9.503263508787818808e-03,-1.396628429580125223e-02,-5.589507460853924753e-04,1.371095538139343262e+00
-3.495873655226287846e-02,-8.190766872592959436e-01,7.114367061191437802e-01,-1.680358014385957208e-02,2.988930589299990093e-04,-1.762490622880678870e-02,1.326268672943115234e+00
-1.153345378120012449e-02,-8.075950398737977709e-01,6.350204990404659799e-01,-1.387259545000967681e-02,-2.288954278073999579e-02,5.681284961853521297e-03,1.252473115921020508e+00
-7.887822215652669222e-02,-8.470934415871690382e-01,8.536668968788775347e-01,8.430646539158855556e-04,2.321268695602596646e-02,3.041026787087075262e-03,1.475749492645263672e+00
-8.741338578414126204e-02,-8.244714728552468008e-01,8.161583642894770785e-01,-4.814908327951755718e-03,6.265093827712642227e-02,7.525924436886174615e-03,1.427479028701782227e+00
-7.404520925625222849e-02,-8.237688891185935836e-01,8.117080717833194958e-01,3.672995694303268169e-03,1.801835060882469100e-02,-5.103238787915780755e-03,1.418381929397583008e+00
-7.519195841702003280e-02,-8.576965297949610267e-01,8.291201708821582805e-01,6.262074811512506785e-03,1.027078061037115381e-01,-7.042526933819604450e-03,1.472968220710754395e+00
1.429056422768680557e-02,-1.085801288610623638e+00,8.663631770633664075e-01,6.128229505318791293e-02,3.243906605044150071e-01,-9.700371414154614069e-02,1.796878337860107422e+00
6.295016788841279257e-03,-8.179518960855862719e-01,8.040662631102624136e-01,-1.871039589628058220e-02,-1.072281288651644703e-02,1.767748826580392563e-02,1.405601263046264648e+00
-8.940847268933685421e-02,-8.246498286149290813e-01,8.211549269026274800e-01,-6.286748342267738446e-03,6.804634465355026418e-02,6.724909356488694735e-03,1.432946085929870605e+00
-3.741617661503759268e-02,-1.007221993589078712e+00,1.049324615287526408e+00,-1.012346507397676211e-02,-3.034677045809093879e-03,4.527555545844147607e-03,1.782092332839965820e+00
-5.909932364170347036e-02,-8.211595408635538051e-01,8.069671986851411072e-01,1.007419191998935697e-03,2.476385681363204086e-05,-1.139138354543716737e-02,1.411096811294555664e+00
2.621554952330297228e-01,-1.302214203476752763e+00,1.874708255761676212e-01,-1.588940471816848166e-01,2.403573236297604776e-01,2.447773516263692384e-01,1.662768959999084473e+00
-8.090459616207916482e-02,-8.399807340909595244e-01,8.663462748841661565e-01,2.042297348194472596e-03,3.441789507653238156e-02,-4.201327920925035375e-03,1.481936454772949219e+00
-3.249613364245854813e-02,-4.250058605968481396e-01,3.707326737647657078e-01,7.098682399551238531e-02,-6.193113266828310232e-02,1.049220495515027357e-01,7.311486005783081055e-01
-6.318950072483250913e-02,-8.537865255562606670e-01,8.319515335508284037e-01,8.116637543932531118e-02,-4.239952241050752579e-02,1.201971728982940101e-02,1.469560265541076660e+00
-9.876300123028515510e-03,-8.149866083023298291e-01,6.847739076811831804e-01,2.165680466310098079e-04,-3.920927915954868859e-04,2.784027669789687805e-03,1.300013661384582520e+00
7.139248907464507132e-02,-7.897481686849091576e-01,2.794214702015510587e-01,1.742913801683883546e-01,-2.314614566750000380e-01,8.244188270458888135e-02,1.111857533454895020e+00
-6.864806626988671778e-02,-8.622343443296270893e-01,9.280789942936976678e-01,1.843704742051710532e-02,2.071829822148046202e-02,-1.765515238321086616e-02,1.554823279380798340e+00
-2.727027450620784360e-02,-8.121574601573168239e-01,8.012695015160030687e-01,-1.008289190209394129e-03,-6.250472392143674276e-03,3.868721340710940242e-03,1.397498250007629395e+00
-3.214473057772816722e-02,-7.945762699048325439e-01,8.202994438707267300e-01,-5.521022585381150233e-02,-3.908098882303146643e-02,1.553771907911943168e-02,1.404401659965515137e+00
-8.211615781094973310e-02,-8.067040232503635000e-01,7.614751225286546799e-01,5.376871126610828456e-04,-2.228585438077697323e-02,2.818295354651723528e-03,1.359942793846130371e+00
-7.822484890164640992e-03,-8.158198089622932248e-01,8.240122519281197766e-01,-6.344293597947216201e-02,3.075897931157794713e-03,-8.897712153989755304e-03,1.424524426460266113e+00
-8.652249193581515452e-02,-8.247188071051489988e-01,7.789964493778789301e-01,1.814287806864955943e-02,1.162589876970354791e-01,-1.262138947231246193e-02,1.405344605445861816e+00
8.695701204607070300e-02,-9.414044426570858937e-01,4.581813117903466015e-01,2.595779313779599667e-02,1.170123612138018465e-01,4.238864589684384482e-02,1.274980425834655762e+00
-2.346609479811295057e-02,-8.489028595409835454e-01,7.052404938082043051e-01,-3.413552020910463891e-02,7.108255470650726160e-02,3.594784082193297481e-02,1.355135083198547363e+00
-4.580120378459510283e-02,-8.325621495353979773e-01,8.097388943828472962e-01,-2.808511108021952574e-03,2.191591104304513841e-05,-2.091394960740084602e-03,1.422703027725219727e+00
-6.498316275930640651e-02,-8.509526021565578802e-01,8.542437873894800360e-01,-4.995495750351556380e-02,-1.328866747968251438e-01,5.927087409854053628e-03,1.498592257499694824e+00
-2.662493255289167041e-02,-8.360806296659600845e-01,8.393484511152082828e-01,-1.218942624900964770e-02,6.167343341983186171e-03,-5.727943237393940540e-03,1.451466083526611328e+00
-8.797099904759297928e-04,-7.001229079530935095e-01,7.626905291227198402e-01,-3.842596279236386997e-02,5.706207102016485136e-03,-5.345335829920322239e-03,1.269060611724853516e+00
-1.027085212719586194e-01,-6.634182540940745110e-01,8.582589507640921989e-01,-3.389198985465816660e-01,1.534718453870177468e-01,-5.665219782949097727e-02,1.483767867088317871e+00
-3.457009088411276687e-02,-8.716860696101389472e-01,8.677371670981902652e-01,5.493387523351618562e-02,5.066421817890606749e-02,-1.790908923084695570e-02,1.512604832649230957e+00
-5.172129990276120443e-02,-8.491011141253912431e-01,8.655875145092692957e-01,3.518345460615863573e-03,-1.733938005716963507e-02,1.552958687091335332e-02,1.486733436584472656e+00
-1.764512838725283417e-01,-5.946280680770269500e-01,1.174412631256515960e+00,-3.213172693098139687e-01,1.258361572441454024e-01,1.081454558949099254e-01,1.719572663307189941e+00
-4.146207150365903427e-02,-1.019176619473826317e+00,9.230242331073075235e-01,-5.024464246534064704e-02,1.341379636806878384e-01,-2.163977756602596201e-03,1.700211286544799805e+00
-9.210828508095839084e-02,-9.450987537447227416e-01,9.069495779662289925e-01,-2.079498889434476874e-02,2.062569623864597135e-01,4.097466698188961115e-02,1.646771430969238281e+00
-7.520710822618829894e-02,-3.499520975226604325e-01,5.667446189673779333e-01,9.900785014656762750e-02,7.314869222722629460e-02,-3.471158522180390477e-02,8.444136381149291992e-01
-3.620048012654658587e-02,-8.225273835180861859e-01,7.892881611018639498e-01,2.088534471420302498e-03,-2.756216799547723736e-03,7.472510827352577640e-04,1.396023988723754883e+00
-6.102489808459109211e-02,-8.330163162897429308e-01,7.391906140264562497e-01,2.749345870105122103e-01,2.008542646890606465e-01,-6.478705990927136060e-02,1.488106727600097656e+00
-3.723488244398250047e-02,-6.024993117380584851e-01,5.652518630579658199e-01,1.021336962996923642e-01,1.939116419800788471e-01,-1.009509546239486799e-01,1.094418048858642578e+00
-7.236908845582833150e-02,-7.218298641080524991e-01,8.053131393133359239e-01,1.869319536815631025e-02,-2.669357995872425823e-02,-1.210514836727796112e-02,1.328823208808898926e+00
-4.154376660582395631e-02,-6.031840331575930580e-01,7.602916142055941018e-01,4.723049170073106290e-02,-1.485178524789219738e-02,-5.445736322864332124e-03,1.190027594566345215e+00
-7.028739745243885173e-02,-9.599101219712627975e-01,8.656547898793838236e-01,-3.486975003995487331e-03,1.273074184508853068e-01,7.223427512629946451e-03,1.596516966819763184e+00
-1.257112975189778395e-02,-7.676682938351120367e-01,7.951927878880638012e-01,4.410934264224754958e-02,-2.713672619404971023e-02,-2.238696369834691086e-02,1.357256054878234863e+00
-6.404018925252294436e-02,-1.015145616453535959e+00,9.051853362195984021e-01,3.799594307397514970e-02,1.446074608427448671e-01,-1.981871141578054468e-02,1.683472156524658203e+00
4.190562713194742606e-02,-9.981099247022993115e-01,6.623379674846459064e-01,7.291117791320055053e-02,2.493711026698523792e-01,4.130131726498298406e-02,1.522974491119384766e+00
8.533037159923012593e-02,-7.885207417430249999e-01,4.185944325478674344e-01,-1.197445809007619466e-03,4.039855445480363717e-03,-8.132053301925323482e-03,1.079886794090270996e+00
-5.868484518879610312e-02,-8.270465128454669301e-01,7.780843161427337673e-01,1.227525548153437368e-02,8.596145799135415308e-03,-8.309652755945284505e-03,1.390821576118469238e+00
-2.666124381867229082e-02,-8.288898593989013630e-01,7.228595006905955689e-01,3.812420478978389028e-03,1.783264102644776389e-02,1.527695043949064621e-02,1.344744205474853516e+00
-8.261062991193729443e-02,-8.385592518392964712e-01,8.345429774787964661e-01,-1.640228301102981609e-02,4.361732810260086218e-02,3.684319222474604499e-02,1.454832196235656738e+00
-8.196125715257211730e-02,-6.647584140108679929e-01,7.488300025544237792e-01,-2.647060340739682341e-02,2.814107118277162090e-03,9.341765279282035483e-02,1.241916179656982422e+00
-1.039005308130572514e-01,-8.559786547716304872e-01,8.645673313796342629e-01,2.325309529127221001e-03,6.543553769221577276e-02,6.437249247625846799e-06,1.498257875442504883e+00
7.198029300647165729e-02,-7.970757255455017676e-01,4.427053643689391471e-01,1.392231447287537241e-02,1.344322167139988707e-03,-6.885358331850903457e-02,1.108911871910095215e+00
-1.209704303711641171e-01,-1.490497090507557076e-01,6.197538555707605701e-01,-7.774978432972622089e-02,3.274435404637233982e-02,4.236424663539121310e-02,7.726550102233886719e-01
4.572714274099337617e-02,-7.986774913329834913e-01,4.784706185986415949e-01,1.886690347798254674e-02,4.898034399406180767e-02,-3.447546041330845547e-03,1.128714919090270996e+00
-1.299591771929724249e-03,-8.337334940912687342e-01,7.083222703684798338e-01,1.128871554299229300e-02,1.852027005147576649e-02,-2.160529918983180100e-02,1.337921619415283203e+00
-1.146603074302549735e-02,-6.611092318526456957e-01,7.847799029852713382e-01,1.079017735808255052e-01,-1.052384983980279853e-02,-5.482551456717369570e-02,1.271848201751708984e+00
-1.408698826787223649e-03,-8.354165297598399320e-01,8.566736972557915664e-01,6.541974969223147973e-02,-5.346733942058722044e-03,-3.989295984634785852e-02,1.471469044685363770e+00
-4.505606753667584785e-02,-5.499801171374577580e-01,7.434046847890350973e-01,6.114223774495908259e-02,-1.460404692660428362e-02,-1.472706788482823796e-03,1.134280800819396973e+00
-1.413742789790426932e-02,-8.269585894040683005e-01,8.100350090172189210e-01,-9.450434708737515685e-04,6.674343961840459825e-03,7.007751076464571217e-03,1.417789459228515625e+00
-3.082765571908660518e-04,-6.363675256503894540e-01,7.478469161085034012e-01,2.901978587212636004e-02,-1.052074557231158849e-02,-2.192438008552769976e-02,1.201864838600158691e+00
-5.698041389452693228e-03,-6.626184776931749454e-01,7.682194669686946975e-01,8.982457221104847567e-02,1.008413033257664175e-02,1.216872255574329154e-02,1.250539779663085938e+00
-6.573832155551601053e-02,-8.675943701186418222e-01,9.619383554030835892e-01,-3.594737647988988094e-02,-3.092905813096614304e-02,1.523137940447289937e-02,1.590780854225158691e+00
-9.314922101793041143e-02,-8.555206598154027064e-01,8.383323499368480203e-01,-4.414513208582224527e-03,-1.008542069078665893e-01,-1.023492570147077271e-02,1.479827880859375000e+00
-5.564397254501003004e-02,-8.212559733644319016e-01,7.363851408562331891e-01,-1.169288092188444823e-02,-2.194945078217489659e-02,-2.235132175603229271e-02,1.350264072418212891e+00
-8.148465898847137567e-02,-8.614717343804183525e-01,8.457102284152088201e-01,-6.168455842862421989e-03,-7.309446751343873228e-02,-3.641008501994238977e-02,1.487074255943298340e+00
-4.127898198355905990e-02,-8.377949639460562370e-01,6.650020523641398951e-01,-9.571577182450094479e-03,-7.959496779478485162e-02,-2.871769363588156515e-02,1.310568451881408691e+00
-6.511958439943200949e-02,-8.170703841393133215e-01,7.570568878880489239e-01,6.964913115605016539e-03,-1.474121246398838077e-02,2.546089969210317116e-03,1.363985776901245117e+00
-7.969899989444692578e-02,-8.100757283833031064e-01,7.823014472571175881e-01,-3.965341605713638799e-03,-8.897855032568877803e-03,-1.065429738046865145e-02,1.380834937095642090e+00
-1.337745459021896233e-01,-5.538919236918685707e-01,7.691751057992812779e-01,-7.128010358489660428e-03,2.680378302191597714e-02,1.934548712239221591e-01,1.218910813331604004e+00
-8.358551667743371882e-02,-8.000496974077486723e-01,7.604641919613674972e-01,9.458314587851320140e-04,-7.322493632131750821e-03,8.881628048117805449e-04,1.353010773658752441e+00
-6.335545898754202376e-02,-8.196224790657566928e-01,7.893150489213198728e-01,-3.136964926319714408e-03,-2.594921902729602908e-03,4.895925425932997829e-03,1.394257903099060059e+00
-6.526565117855590015e-02,-8.112117625277509569e-01,7.558531205364450445e-01,7.249884679397310822e-03,-9.417567847768572309e-03,-7.558082586788846934e-04,1.357795119285583496e+00
-7.257428424691687863e-02,-9.541147831198238949e-01,9.975305140389048031e-01,-1.787771155034861142e-02,-3.445944952202942280e-02,1.726845165451132078e-02,1.694400906562805176e+00
-2.041073544576355384e-02,-8.287612949574993948e-01,7.204217430173768255e-01,-4.408425072778450471e-03,6.675444510914787903e-04,2.061108019984570286e-02,1.342553496360778809e+00
-6.175231118598849267e-03,-8.124090525690366160e-01,6.555408728099617610e-01,-1.805634906848058510e-02,4.313712730248069754e-02,-1.257884747774974318e-02,1.276093363761901855e+00
-1.469904683217619634e-02,-7.991045479872396218e-01,5.836335098270905020e-01,-6.823943875681109071e-03,7.530543238436263054e-02,1.504169467762967762e-02,1.208495140075683594e+00
-9.780677069547150104e-02,-5.454341328294866065e-01,7.616754251865672787e-01,-2.897808313280609421e-02,1.181449034945514925e-02,1.663253632596426931e-02,1.152204632759094238e+00
-8.057989852800200026e-02,-6.064897635846692170e-01,7.823518968607011681e-01,4.399099132093644247e-03,-3.106922305299038289e-02,-7.516398617839090135e-02,1.222685456275939941e+00
-1.267557181214310491e-01,-4.977506331691665675e-01,7.463343752694527877e-01,-8.399730639992662728e-02,5.235135641522826967e-04,8.315445590705763945e-02,1.125054240226745605e+00
-2.353963963972899656e-02,-8.353047718175491410e-01,7.772512319934068437e-01,-2.431513732834126879e-03,-6.743161214336059438e-03,-7.411447591322310388e-03,1.396639466285705566e+00
1.101697018773650227e-01,-1.054943705021203826e+00,3.189476044664943943e-01,-2.447751722032069643e-02,-1.109162010292408795e-01,-1.221166812879322938e-01,1.314446449279785156e+00
1.561281509582464477e-01,-8.914688459272078758e-01,1.375511340187094422e-01,8.028497197775990787e-03,8.125084524131970243e-02,3.871859185556713462e-02,1.050161480903625488e+00
2.297717335506166414e-02,-9.440262409964692569e-01,5.581215817344311603e-01,-3.421397749957703904e-02,1.333106225095355424e-01,4.235764597594379038e-02,1.342077136039733887e+00
2.583269283169629948e-02,-8.022011561742089514e-01,5.161739306488565271e-01,-1.455003365713062637e-02,9.574932187016035878e-02,-1.066036280085796116e-02,1.166436314582824707e+00
2.088685047541407602e-01,-9.315392429939777230e-01,1.101009941549693782e-02,-5.772644230960809891e-02,-7.543266390348483952e-02,-7.277173971233405481e-02,1.075636029243469238e+00
7.174196577859098811e-02,-1.087419859232662933e+00,4.595496767806693805e-01,1.979388040359549572e-01,-2.684292289513331431e-01,-1.176425841204589984e-01,1.522762060165405273e+00
5.950880761962021315e-02,-7.877425892323799417e-01,4.604025667066298233e-01,6.037765609978346104e-03,-5.392609263959463606e-02,-9.295663116240234034e-05,1.107719302177429199e+00
-6.559549957156532440e-02,-7.985711098323029500e-01,7.106652534835564694e-01,-2.904994277006308669e-03,-3.903281179704062853e-02,-2.099230206396462853e-04,1.308972954750061035e+00
-6.105911583925802827e-02,-8.127986062657821531e-01,6.940368612458714948e-01,-3.717128193228142353e-03,-4.079383318627057692e-02,-1.869312620910138639e-02,1.307287216186523438e+00
1.801153065932246944e-02,-8.111063578563607601e-01,5.662351654765462872e-01,-1.662181801529364483e-02,-7.744318075853819788e-03,-3.203795939668425269e-02,1.202753424644470215e+00
9.386481988189016024e-02,-8.012676160886678112e-01,3.546042573297222833e-01,7.392677384987550795e-03,-2.284395088536797166e-02,8.616324611428204799e-03,1.050997495651245117e+00
6.279156008762459829e-02,-7.878057358488910200e-01,4.018201756122873336e-01,1.860125534035617090e-02,6.324446258473308269e-02,7.862274694863624581e-04,1.067648053169250488e+00
1.559755152356746832e-02,-5.797335280557860404e-01,3.019825273950353384e-01,1.355132881861109972e-01,1.495955511630233936e-01,-5.680218743970534556e-02,8.595561981201171875e-01
-3.762780035647374233e-02,-4.826381127584569164e-01,5.253037199840321358e-01,-2.064111531149911138e-01,-1.835209527190622136e-01,-9.397257050532683079e-03,9.972752332687377930e-01
1.296468757347044032e-02,-9.352358651699087533e-01,5.320783884557479526e-01,-1.784020189670552647e-01,-2.203177780362384208e-01,-8.336932602995873742e-02,1.386629104614257812e+00
-3.431460975617618703e-02,-8.283857982541058540e-01,7.459776732286476086e-01,-1.054854184163960332e-02,1.030941549278862994e-02,7.747896088189769499e-03,1.363761544227600098e+00
-4.324150866373323299e-02,-8.376116600574429194e-01,7.839240354695536928e-01,-5.348661064949081917e-03,2.576922564026795908e-03,-6.236999812157077716e-03,1.404466032981872559e+00
-3.337926487049824864e-02,-8.295613352969175569e-01,7.269133577015280956e-01,-4.435753226464518757e-03,1.389367602269122237e-03,2.094301038063692277e-02,1.348578095436096191e+00
2.820528181265213874e-02,-8.917498254496630805e-01,5.539147284398676652e-01,8.866974381944800476e-02,2.499794337639503761e-01,-1.556791092884376448e-01,1.374802112579345703e+00
-3.106407569678624331e-02,-8.147118994701603167e-01,8.040422147473266223e-01,2.126151795218121990e-03,-8.899932399057152929e-03,-1.990182407809180151e-03,1.402212023735046387e+00
-5.237341631927464047e-02,-8.307195381834221459e-01,8.107399008504545534e-01,-2.889076958626021416e-03,-9.586231546378515961e-03,1.194348153920989693e-03,1.422284483909606934e+00
-1.616065255063298678e-01,-1.244921938775269132e-01,6.994257002084171004e-01,-1.235425450762844962e-01,4.828043773136879435e-02,-3.455832580198862219e-02,8.758775591850280762e-01
-4.306976338304872864e-02,-8.260900946417227830e-01,8.083155255712959342e-01,4.563131798201321664e-04,-8.532571633779476028e-03,-3.565237338872719128e-03,1.415940284729003906e+00
-4.997672719248871104e-02,-8.225743929261474241e-01,8.096142529238025132e-01,-1.218837005222422930e-03,-9.563912560399789875e-03,-3.737363748311829659e-03,1.414299368858337402e+00
-4.850618279524017418e-02,-8.299314054763359261e-01,8.107344490673041859e-01,-5.605409566691654973e-03,-5.943235738531018296e-03,-2.250992328413430835e-03,1.421466708183288574e+00
-6.351791812725608721e-02,-7.996999634758328313e-01,7.151415104743376050e-01,-1.276545576631892866e-03,1.949121065215244069e-03,-8.580331952620425320e-03,1.312153458595275879e+00
-6.147733369101214540e-02,-8.129701789402419276e-01,7.454061790611619109e-01,9.713730538418159730e-04,2.709036107765710674e-02,5.290678856193609765e-04,1.350694298744201660e+00
-4.274741493087529792e-02,-8.080503539926211509e-01,6.917879362597428861e-01,-1.232536179094147546e-02,3.142716122520088085e-02,2.244174310070238751e-02,1.300885319709777832e+00
1.212386930385146548e-02,-7.961395596541923636e-01,7.861208647167424735e-01,-4.766290826440361741e-03,6.631053194375307984e-03,-3.524741291030883492e-03,1.370471477508544922e+00
-6.462350441660155709e-02,-8.202521668520627030e-01,7.748074184978595014e-01,-6.862700041749572773e-03,1.476963210674945778e-02,1.510675367578773361e-02,1.382532954216003418e+00
-5.742561830020152108e-02,-8.138751948318312390e-01,7.288296238565501461e-01,-1.173166720490166452e-02,2.049296619323641780e-02,1.564896196545230087e-02,1.337005257606506348e+00
-7.493077536345237044e-02,-8.053742163414508992e-01,7.594383970761537928e-01,-3.000105390508929319e-03,-3.575610900844855534e-04,2.645415884897114270e-03,1.356181144714355469e+00
-7.980020966155614015e-02,-8.111690051004715185e-01,7.844020642105344887e-01,-3.665056124110626593e-03,7.575473287357516357e-03,8.705155497556576680e-03,1.383559226989746094e+00
-5.453568241762800362e-02,-8.245474664547173260e-01,7.428065733407385185e-01,-1.753000599017603273e-02,2.015181133757237494e-02,1.543547346615459746e-02,1.358488440513610840e+00
-6.728383258689855928e-02,-8.047675691665446829e-01,7.463303519749688864e-01,-4.502032685523729358e-03,1.171938335295026785e-02,2.677089281598739236e-03,1.344013333320617676e+00
-7.364860128874346767e-02,-8.119041945418120632e-01,7.818513411956713455e-01,-2.163663998264345016e-03,9.541293299954506715e-03,-3.223131848779461385e-03,1.381592392921447754e+00
-6.388154455619354799e-02,-8.177770379425842728e-01,7.774389791462587018e-01,-5.346150544991196303e-03,-2.557694693151705851e-04,3.705719549469888106e-03,1.382234930992126465e+00
3.651853006075667096e-02,-8.028656081680626277e-01,5.006951857501584779e-01,-1.153062498319305622e-02,6.085923381658985692e-03,4.472813498750984745e-02,1.147240161895751953e+00
-6.962422554890425330e-02,-8.533080624493348809e-01,7.118501805532360116e-01,1.073137212740126779e-02,1.669121293319228427e-01,-1.784581875341879204e-02,1.386423945426940918e+00
4.782360684547748431e-02,-1.033969127419446465e+00,5.800232652933491329e-01,1.017020794878540357e-01,1.845236990056021709e-01,-8.963863061946358846e-02,1.478689908981323242e+00
-1.816056080569048575e-02,-8.133202009267106458e-01,6.499223384161364470e-01,1.190135108218326812e-02,-3.850598302317461558e-02,-6.538296862187224258e-03,1.270766496658325195e+00
4.860502529079820111e-02,-8.120714307388652298e-01,5.476617711865269245e-01,9.674585378628272267e-03,-6.057484235463840398e-03,-1.027835190449986023e-02,1.191660881042480469e+00
-1.126795660829277984e-02,-8.067451513865738777e-01,6.139505339903948977e-01,1.410634333684275890e-02,-3.449896893064181153e-02,1.548062972218559180e-02,1.235279560089111328e+00
-2.969308483149678268e-02,-8.258111921765028951e-01,7.175667077567062790e-01,1.170270971547632786e-02,-2.009800417261438377e-02,-6.556541478767798775e-03,1.337482690811157227e+00
5.168137156130403476e-02,-7.878102187095539222e-01,4.775935493643067575e-01,2.636713273308877864e-03,-5.454326403365655079e-02,9.158043414202808596e-03,1.119327664375305176e+00
-1.136341767373502676e-02,-8.314100083741329250e-01,6.928561868628272391e-01,-3.026209584116255880e-04,1.625897173972757053e-03,-1.085320358805033983e-02,1.321459889411926270e+00
-2.134961652759995859e-02,-8.159969314457835576e-01,6.587373051780549549e-01,1.946437180396774769e-02,-5.577377872012605209e-02,2.967750706366135624e-02,1.283558607101440430e+00
-2.886787388986862546e-02,-8.269710064589600451e-01,7.366637118829301167e-01,1.050147833475512799e-02,7.195265389279460614e-04,1.641972653959955855e-02,1.354666590690612793e+00
-5.176096342041228149e-02,-7.775112729741291417e-01,7.223233785558631492e-01,1.846897514879174357e-03,-4.177451796937138237e-03,5.562553803382040175e-03,1.299179553985595703e+00
-1.171214352849746509e-01,-2.116453962303703751e-01,7.165376803940241013e-01,6.327583604134022488e-02,-6.448349129354698228e-02,2.192819096239003243e-02,8.992505073547363281e-01
1.230317624880538155e-02,-7.711430425053233950e-01,7.747106712869772371e-01,1.148138755982722019e-02,8.562459506826415601e-03,3.366798284737058423e-03,1.339032411575317383e+00
-2.731016549008245808e-02,-8.122942966823237798e-01,8.035440932586587204e-01,1.783263188611904082e-03,1.653959385415931446e-02,5.995179537322855266e-03,1.399880170822143555e+00
8.608336663263344013e-02,-1.051363701427332487e+00,6.205416291602111611e-01,-9.644124351072998202e-02,3.340371651264352204e-01,1.625493341757771049e-01,1.621499776840209961e+00
-8.073917188424567515e-02,-8.149505410015672746e-01,7.860115528850002420e-01,-3.646358968578722586e-03,4.569153080716668175e-02,-3.361581974996103155e-03,1.390337467193603516e+00
-3.644813937680606297e-02,-7.937612414304406894e-01,8.073702903203779924e-01,-3.707729391071361291e-02,4.297475864392993894e-02,-2.509589219484811146e-02,1.391453027725219727e+00
8.901810856548436623e-02,-9.501397017585719862e-01,4.731665809937620759e-01,-5.145043661856024686e-02,4.064937929218301327e-01,5.490076379362278554e-03,1.459573030471801758e+00
-7.628543855901961934e-02,-8.056763523725981591e-01,7.587222564345165177e-01,-1.741545869837118508e-03,7.162283017910811914e-03,1.213249133976591985e-03,1.355899453163146973e+00
4.615667784950468200e-02,-8.109455889934373829e-01,5.532423291202495097e-01,-5.868475812807204088e-03,-2.365939211944943776e-02,1.621962683241367706e-02,1.195389628410339355e+00
-6.384268255277682214e-02,-8.208856752510855781e-01,7.952225569592077381e-01,5.049058103731003319e-03,-4.937032907860656496e-03,7.254463103053516299e-03,1.400629878044128418e+00
-6.268250716710940112e-03,-8.049642460342720796e-01,8.005688468631881882e-01,-1.534499900972125181e-03,-5.050855577259709579e-03,1.954797016804633511e-03,1.390472531318664551e+00
-5.762704967921523924e-02,-8.232068700644115111e-01,8.045654541547744287e-01,-6.509418654334994496e-03,3.729772475010855425e-03,-8.894129666235591619e-03,1.410663604736328125e+00
-5.886296267181446995e-02,-8.172782727496222810e-01,7.724430725771858075e-01,-1.536947097115887693e-02,-1.592634026690185195e-02,2.387936591321168471e-03,1.377761006355285645e+00
-5.078844710087700165e-02,-8.226252444337021075e-01,8.083024499378212990e-01,-6.180655119923726508e-03,-8.972211115792695646e-03,-8.509997610328955825e-03,1.413301348686218262e+00
-7.311593102388258547e-02,-8.175028598043716510e-01,7.842670548129112573e-01,6.518688637417601253e-03,-2.301187648703152677e-02,1.434882721848702077e-03,1.388943672180175781e+00
-7.634870872277088605e-02,-8.298479197790835649e-01,8.121800285399413122e-01,4.581869582049810825e-03,-2.122340591881666585e-02,2.684059679559011417e-03,1.424143910408020020e+00
-8.903721316369364591e-02,-8.227785021865560156e-01,8.137072700906292644e-01,-2.365808151305309488e-03,-3.363616588876820745e-02,-1.455647703873989493e-02,1.421179533004760742e+00
-8.552627661721876051e-02,-8.075715071250800792e-01,7.762925798337647620e-01,4.427921800238849171e-04,-1.619875435615399789e-02,-4.010049356888376396e-03,1.373750090599060059e+00
-7.065290983294759963e-02,-8.047739307359362826e-01,7.558461683410087062e-01,-4.569781911864984753e-03,-2.119432860249046563e-02,-3.909252067218477525e-03,1.352863907814025879e+00
1.374344878785340590e-02,-8.198411273953418732e-01,6.660919146290538162e-01,9.400535895674110021e-02,-2.859890092785652427e-01,-5.708242793749329635e-02,1.394942522048950195e+00
2.295017815318739496e-03,-8.005048155873282223e-01,5.850119898220862424e-01,2.715074175805127013e-03,-4.169068744005916677e-02,6.999115643111567236e-04,1.207099676132202148e+00
-4.404906616093325761e-02,-8.854854648645407167e-01,7.661731564137114203e-01,2.642495228981495484e-02,-9.594485985279847806e-02,2.592670836703804202e-02,1.441510796546936035e+00
-2.457507595534114131e-02,-8.812504892004712209e-01,7.242790447230978979e-01,-6.894757557903882783e-02,-1.206077864652905091e-01,8.652721348699791981e-02,1.420056700706481934e+00
-1.852964231023509004e-02,-1.008611225672751521e+00,9.113772881685827665e-01,9.651884683047015634e-02,-1.653793916586669410e-01,5.398388495197872089e-02,1.698356151580810547e+00
-4.912004607538354717e-02,-8.315061666333198875e-01,8.106720219871987876e-01,8.391105287051326550e-03,-9.746998522904870219e-03,9.515488910286900442e-03,1.422964453697204590e+00
-4.058454252977639759e-02,-7.748717143186835132e-01,7.922502184481399201e-01,-1.797307110873763237e-03,-2.451891455024099442e-02,1.765887268616615768e-02,1.359073162078857422e+00
-6.084151482156634899e-02,-8.262121619076989720e-01,8.726199740930703497e-01,-1.846758048288519305e-01,5.147874203100501894e-02,3.148257936955421027e-02,1.511564016342163086e+00
2.422476324659603164e-02,-7.651425986057198703e-01,7.829276694202854658e-01,-1.068237381494529514e-01,-2.874485933104498157e-03,1.690888691916278205e-02,1.353788256645202637e+00
-4.296877826877553569e-02,-7.792212292272095997e-01,7.926366959165382919e-01,-2.641270007073868997e-02,-1.440570048096981651e-02,2.041782029435076223e-02,1.363630056381225586e+00
-6.177437046977112683e-02,-8.024500912796035390e-01,8.274850026991549257e-01,-8.761378716402304367e-02,1.088792763277766050e-02,1.095390827393905031e-01,1.434369564056396484e+00
-1.141599673671746529e-01,-7.340312427361335157e-01,1.062910663266907640e+00,3.353149135374428602e-01,1.940982748828272986e-01,-5.524372019005865941e-03,1.717495322227478027e+00
-8.539384533456838289e-03,-8.041452938990045762e-01,8.004323607545861252e-01,2.135097549612662970e-03,6.480750225369759712e-03,5.809606813433932336e-03,1.389707803726196289e+00
1.422732415154186322e-03,-8.124337681977491510e-01,8.096651477837225608e-01,1.817705579993030354e-02,-8.473672548577114091e-03,-8.033674353893729622e-03,1.405279994010925293e+00
-1.497364046641853214e-02,-7.399049101589556532e-01,8.280947533030101892e-01,8.625996136089368604e-02,-3.269671655619629802e-02,-1.592319796558080980e-02,1.368848562240600586e+00
-4.889265419815659597e-02,-8.570018265699832494e-01,8.855002432145787639e-01,-8.317700341326240412e-04,9.047940733884837425e-03,1.458405351350137123e-02,1.510664701461791992e+00
-6.856543213077118115e-02,-8.662206800189916622e-01,8.248640402590670107e-01,-4.706824336173871803e-03,7.126709139720402431e-02,-8.307161042210763069e-03,1.470588088035583496e+00
-6.402585026596145645e-02,-6.646556154204262823e-01,7.882878048163222129e-01,1.492409300683595480e-02,3.171218494630300561e-02,3.148899804950467101e-03,1.266031026840209961e+00
-4.884093684524425105e-02,-5.790442062548818436e-01,7.577789005423115620e-01,5.206991913985530018e-02,-2.149188057589043049e-02,-3.442448897475931108e-02,1.171536684036254883e+00
-2.498237014414802365e-02,-7.864944716971138394e-01,7.971304132418006727e-01,-7.175915073921646306e-03,1.631082176520835814e-02,-1.245146297694362664e-02,1.372310757637023926e+00
-4.335922587891140323e-02,-5.500850248900636119e-01,7.497593697550157810e-01,7.483097529394712455e-02,-8.146884101995812907e-03,1.090689277329868513e-02,1.142390847206115723e+00
9.144819073028559453e-02,-9.909297370241327840e-01,4.871624054989558417e-01,-1.805339817623242277e-02,-1.870965090423607965e-02,3.775848759105305576e-03,1.326089978218078613e+00
-5.071785177414582513e-02,-4.460482252014780769e-01,4.599006364008670911e-01,1.992192654576345756e-01,1.385588066708121624e-01,-1.013889071192206059e-01,9.090544581413269043e-01
-3.243612501137980997e-02,-8.209384593738472402e-01,7.482561288069385919e-01,-3.761257986924827507e-03,1.361986241337822569e-02,1.972198228141267343e-02,1.359617471694946289e+00
-7.245069422384628477e-02,-5.448039177926431442e-01,7.935437768307367357e-01,2.637324625108954934e-01,3.238897486403092829e-01,-1.437799377207741799e-02,1.380622148513793945e+00
-4.922819043108460357e-02,-8.201127877448265435e-01,7.665587906083847214e-01,1.909219553798265686e-03,-1.209723327353805916e-02,4.797903674327453315e-03,1.374470114707946777e+00
-4.187623599102612004e-02,-8.384550439645607200e-01,7.894264078604670276e-01,-6.668806276088330362e-03,-2.416748018801640613e-03,-7.955699422744664032e-03,1.410014510154724121e+00
-1.144438030925774841e-02,-7.991329017175977656e-01,5.539787916037607340e-01,-6.771941386816814762e-04,6.446647313941904212e-02,4.259505177763585337e-03,1.182394862174987793e+00
2.714906570905232241e-01,-1.364140843938761893e+00,2.694316913157384086e-01,1.825612816094608626e-01,-1.005059192793827244e-01,-1.453309628853070024e-01,1.692802548408508301e+00
-4.336887470381491083e-02,-8.410063718818601153e-01,7.978028278976178056e-01,-4.159237167182196562e-03,5.788375962843917560e-03,7.252056770101428587e-04,1.419471502304077148e+00
-5.066566920221327736e-02,-8.222580385970245098e-01,7.858811719395408790e-01,-5.787159488734545075e-03,-3.239631754472477310e-02,1.930902005508759213e-03,1.394237756729125977e+00
-6.712777736120853142e-03,-7.963284554142676663e-01,7.906129055442743248e-01,-1.163618929905137038e-02,8.679175545294013847e-03,1.661095452730199486e-03,1.374569892883300781e+00
-4.941516303133193511e-02,-8.068447358818261472e-01,8.135379810488543306e-01,-1.353646699175393379e-03,1.426507963276249340e-02,5.280628289866154401e-03,1.404533267021179199e+00
-3.892599811404454102e-02,-8.351713756444679726e-01,8.249601396351466942e-01,5.748958845487163113e-03,4.381893110174821943e-03,-3.759626764079048583e-03,1.438183069229125977e+00
-2.133292864249896476e-02,-8.217841564058737669e-01,8.173918339062684613e-01,-9.896489755259349486e-03,3.120854226372795238e-03,-3.412458471865214161e-03,1.419823050498962402e+00
-1.604156962775489248e-01,-1.567098730441912058e-01,7.679224524563650345e-01,-1.459053572766825235e-01,-5.293259612042919976e-02,-6.270016201297479164e-02,9.707985520362854004e-01
-6.361007371702704326e-03,-7.845427925558687843e-01,7.876552387545184830e-01,-8.219780499715929542e-03,8.357717197966341854e-03,-3.020471087690064244e-03,1.361747860908508301e+00
-1.530915727214807870e-02,-7.103636122251891782e-01,7.727645554497764024e-01,-2.294470086701597827e-02,-2.316654172619307672e-02,-3.694660040652931327e-03,1.286524534225463867e+00
-4.113332724625683168e-02,-7.116444308917559969e-01,7.935947064499013770e-01,-3.228147585164329540e-03,-2.909121975677302074e-02,1.956084658757054062e-02,1.307581186294555664e+00
1.692724135171103789e-02,-8.131955915287468750e-01,8.073378260730229572e-01,1.821400304131271311e-02,-3.633253220741731234e-03,-3.510529494302917363e-04,1.403932332992553711e+00
4.491011544159661389e-03,-8.305185545333813035e-01,8.375420185628257297e-01,6.177840887679438703e-02,-1.827147811341020209e-02,-1.702012711191114649e-02,1.449186205863952637e+00
1.896350222421345696e-02,-7.958461577853920277e-01,7.842048033249520156e-01,8.597217040599279894e-03,-7.419732237698151156e-03,9.979256177330339799e-04,1.368731141090393066e+00
-6.289517963758092800e-02,-1.040756207314707416e+00,1.084031533108026357e+00,4.594056724594846458e-02,5.322082204708526720e-03,2.069434731156644114e-02,1.844150066375732422e+00
1.047450517256688640e-02,-7.664861876844871746e-01,7.847314969824830122e-01,4.730087953805319628e-02,7.297745811452316378e-03,1.393433113984408195e-02,1.346166253089904785e+00
-8.464680883549713375e-02,-5.635641143782856854e-01,7.953771048713392799e-01,1.764624698033341599e-01,1.579540870411998144e-01,-4.312316660677101288e-02,1.264557957649230957e+00
-4.823169199292082210e-02,-8.282098661759479397e-01,8.021405602201913121e-01,-2.001634334541571060e-03,-2.804404073945056600e-03,1.490566346289447447e-03,1.412378430366516113e+00
-4.283345349865284868e-02,-8.239437790677732742e-01,8.017085987647499801e-01,-3.928495538379171703e-03,-1.099007335407337717e-04,8.932462366452696700e-03,1.408314943313598633e+00
-6.405198324427144319e-02,-8.178322241209354804e-01,7.805685629813908788e-01,-4.586552721149617269e-03,1.976969436428856024e-03,4.468241834448675488e-03,1.385049343109130859e+00
-5.177687351989961745e-02,-8.283568043121597446e-01,7.998439903807519347e-01,-3.066214038535718719e-03,1.916459820691419251e-03,2.865863383674581433e-03,1.410585045814514160e+00
-5.070130237448452343e-02,-8.253260162934080713e-01,7.956632413319832953e-01,-8.038165112720695518e-04,1.628208171102496840e-02,4.785859238326317829e-03,1.404584407806396484e+00
-4.806040289319793435e-02,-8.095162725820926886e-01,7.887787330163381627e-01,-4.513322784322818231e-04,-1.023133786045248017e-02,-1.382875573475123281e-03,1.384792804718017578e+00
-5.064696443742391224e-02,-7.642721043106366352e-01,7.884041422540096766e-01,1.051952513605795662e-02,-2.704015449872476315e-02,-2.860752139668275296e-02,1.347967386245727539e+00
-7.628232354591781006e-02,-7.722862295403061239e-01,8.162279265102928560e-01,2.829008340098781993e-02,-2.552463234706871947e-02,-8.167560587141288464e-02,1.388003945350646973e+00
-4.333946706362271084e-02,-8.345862387887874601e-01,7.834434310710849392e-01,-4.895595655260872453e-03,-5.815037772912395875e-03,-4.579448951252252167e-03,1.401451706886291504e+00
-5.877898043247273274e-02,-8.253122128058074658e-01,7.980604717861519148e-01,8.113362780970249238e-03,-3.010267572625267580e-03,7.476188004565401807e-03,1.406746387481689453e+00
-4.527381693417031200e-02,-8.305067120013588378e-01,7.926509264946830502e-01,-5.834726034418293017e-03,2.236267473384101565e-03,7.049272030634006272e-03,1.406037330627441406e+00
-3.885749944601161326e-02,-8.283230155049150500e-01,8.118694196543709829e-01,3.554919325166070419e-03,1.522863929579671002e-03,5.188046733055447918e-03,1.420822739601135254e+00
-1.501453191327200426e-03,-7.341741203803836546e-01,7.719523373505781105e-01,-3.765484266947846659e-02,-1.742238024196302720e-02,4.493796301162080072e-03,1.306504249572753906e+00
1.088696718515552719e-02,-7.680975022945742969e-01,7.778434070741444550e-01,-1.942970270483303924e-02,1.447701471357010217e-02,2.063418465538989326e-03,1.339499950408935547e+00
-1.162780050125689600e-04,-7.957592799318072840e-01,7.904950145817940532e-01,-2.318533396187563884e-03,7.935036039216723097e-03,1.326162527360348837e-03,1.373815417289733887e+00
-3.140943096698248227e-02,-8.325265237328366430e-01,8.120361556688231452e-01,-1.695449428143729802e-03,9.029043405240251563e-04,2.731604026171886163e-03,1.424401998519897461e+00
7.736905694919361288e-03,-7.924832289458791923e-01,7.882167656136352951e-01,-1.364358547943712516e-02,1.872401973194305277e-02,-4.155667043665733397e-03,1.369568824768066406e+00
-9.883195690264249406e-03,-8.191228137693518097e-01,8.001964624487060140e-01,-5.311861424249168101e-03,1.666498639794951591e-03,4.557244485114736801e-03,1.402427077293395996e+00
-2.281640985429679580e-02,-8.173482360626324050e-01,8.040181412578952802e-01,-1.752261108106070286e-03,7.181015425946716060e-03,-2.270243891653817101e-03,1.404301285743713379e+00
7.523772606893563801e-03,-7.897077848324463023e-01,7.877034402415824532e-01,-1.171492288672420015e-02,1.892085566632609878e-02,-9.040568925420440494e-03,1.366738200187683105e+00
-1.213434033365364505e-02,-8.172099958097365224e-01,8.025899545057054718e-01,-4.551266834508034716e-03,1.706557121803640997e-02,-6.390943744361593688e-03,1.403173446655273438e+00
-4.020322896648756417e-02,-8.304081290392939518e-01,8.041679752989184804e-01,-6.519886220525349086e-05,6.781735672725511255e-03,3.707067729125424187e-03,1.415906786918640137e+00
-9.243959545321176613e-03,-7.963253153190567035e-01,7.929973066449316210e-01,-6.029712950796651920e-03,1.018492160512058688e-02,1.229665340607962202e-03,1.376568913459777832e+00
-1.622655320100864149e-02,-8.054345002375894458e-01,8.032892766329590151e-01,-3.995513549050156918e-04,8.077656494258882852e-03,-2.040265134100040408e-03,1.393352985382080078e+00
-2.882210612978878660e-03,-8.300060430013801449e-01,8.232729504658536923e-01,-3.299989746724226857e-03,-4.113498857864742939e-03,6.003960471047825771e-03,1.431848645210266113e+00
-4.199730605780806897e-02,-1.162142884333518866e+00,1.176146029867785714e+00,-3.488424129822220721e-02,-1.582260424446191305e-01,9.303712339746433857e-02,2.051297664642333984e+00
-7.098273296098225882e-02,-7.420210588505407046e-01,7.953833602903059852e-01,-2.910466866874517056e-01,1.322518125132519651e-01,1.335954374635518194e-01,1.463689446449279785e+00
-5.096260285219975789e-02,-1.242427177692577933e+00,1.218121054696298833e+00,-2.432697615409879222e-01,-3.058412589445704682e-02,-6.208861126864131247e-02,2.175808191299438477e+00
-6.681432394744879488e-02,-8.497594864496249567e-01,8.543992749715314527e-01,3.212415472729500225e-03,-2.208256351668220346e-02,-5.717153759642268568e-04,1.477968931198120117e+00
-8.780512685035180009e-02,-4.507388474164075731e-01,8.985872785443226318e-01,-2.176493801159504471e-01,-5.784170023008798622e-02,7.487046517429603310e-02,1.277361869812011719e+00
-8.520517732918217457e-03,-8.583221563546821198e-01,9.196211876248485684e-01,-3.566150995483640535e-02,2.569242624343852366e-02,-3.802476267074251116e-03,1.542136549949645996e+00
-1.347388898212848254e-02,-7.571615944381665519e-01,7.795660152435168744e-01,-3.192965726474779331e-02,-2.940533819386577721e-02,2.030987656232644684e-02,1.333659529685974121e+00
5.423236783310379783e-04,-7.632395310383904841e-01,8.292687641474681959e-01,-5.358451927878636611e-02,1.463539442941683795e-03,-6.430200574587481392e-03,1.382700562477111816e+00
5.000442224288400477e-04,-8.037097668839319198e-01,8.072775791123125710e-01,-2.137355358774544953e-02,-7.952821498027878161e-03,5.605009598265261322e-03,1.395749330520629883e+00
-6.322709136545442976e-02,-7.031427642625892593e-01,9.345692739359705570e-01,-2.393576198884093675e-01,-9.817939163902734620e-03,-7.676205513928227586e-02,1.494469046592712402e+00
-4.693291522184570019e-02,-8.338642449991601202e-01,8.182335162476013224e-01,4.845186990603801702e-03,8.683415530846456953e-03,-2.538216189348776932e-03,1.431403636932373047e+00
-1.200906067841846225e-02,-8.287785657717424703e-01,9.360353308258956284e-01,-1.258216220775862926e-01,-3.396925589520885524e-02,-1.375783824940111574e-02,1.546530723571777344e+00
2.135410048040771447e-02,-8.299135865569990944e-01,5.847969627111822000e-01,-1.440015604367740898e-01,1.707948066165387024e-01,5.236157284816598395e-02,1.296037197113037109e+00
1.924223344542355663e-02,-8.289016455843719600e-01,6.021083428016107408e-01,8.940608299303907242e-03,3.785580114912882183e-02,-3.080678666911260133e-02,1.249328374862670898e+00
7.550659021152358874e-03,-8.520328263577509054e-01,6.024679872728336827e-01,-2.476846998240692099e-01,2.870161665712789301e-01,5.012446340405017631e-02,1.429302930831909180e+00
8.461286896069603047e-02,-9.810314094529419826e-01,5.876201152269927563e-01,1.094556323527369757e-01,3.855574518551723173e-01,1.545970111304885153e-01,1.574244856834411621e+00
-4.029754192577703759e-02,-8.340318804229345240e-01,8.080005237471903357e-01,-6.994463358372067291e-04,2.376949488211656594e-03,8.162138759924053360e-04,1.422310590744018555e+00
-5.342912326389373523e-02,-8.413683236839004653e-01,7.855144229708390657e-01,-4.878114773185845965e-02,2.297900304887970091e-01,-3.949737102248878501e-02,1.468312025070190430e+00
-3.937067128436289032e-02,-8.116712585566105975e-01,7.212023071089900261e-01,4.505767312395977074e-03,2.899225015109523768e-02,-6.095656394294477138e-04,1.328493118286132812e+00
-2.932045556960130930e-02,-8.291457885298353370e-01,7.182812588776117391e-01,1.950519201016071014e-02,1.682368562178269489e-03,1.911900607934146484e-02,1.341203212738037109e+00
-4.341118217860339551e-02,-4.976120638513230610e-01,4.314210040058659157e-01,-1.557892487894041722e-01,1.023547802394382672e-01,8.952286444108104035e-02,8.807477951049804688e-01
-7.825630120446187832e-03,-8.297027329639933280e-01,6.828130708838918705e-01,1.532346198372012145e-03,1.369471465443835960e-02,2.459043591778749260e-02,1.312428116798400879e+00
-7.979405876581767421e-02,-6.340505842523004310e-01,7.791543100769978691e-01,-1.284025016979816912e-03,-2.660641031678466495e-02,-3.197029718897805971e-03,1.234191894531250000e+00
1.533244891710196234e-02,-8.408742907787585263e-01,6.226178612761835707e-01,-1.156949478083669700e-02,-2.999496711970811927e-02,-4.516303668635256868e-02,1.277132391929626465e+00
1.935638738441168571e-02,-8.247627854279524495e-01,6.046413251881537221e-01,1.393068784151975555e-02,-2.417711930945544950e-03,-4.635063305966129199e-02,1.247473716735839844e+00
-7.502340981714203383e-02,-7.539890426822561942e-01,8.304811911154625914e-01,-1.153828681115641117e-02,-2.753750986272934798e-02,1.837927306133715910e-02,1.378197073936462402e+00
-3.858647840322212974e-02,-8.144696245382901933e-01,7.942885934250883961e-01,-1.428793606204786099e-02,-4.745378850295527313e-03,-1.066148829714462336e-02,1.393883109092712402e+00
1.720660990652365940e-02,-9.121553460239216760e-01,6.567830309669304700e-01,5.693262733143886201e-02,-1.591769094687449093e-01,-6.197360275394429852e-02,1.401580452919006348e+00
-2.887849482646725335e-02,-8.206359135816102546e-01,6.805568514002234837e-01,-1.259948282255921558e-02,6.724801036467929760e-02,-9.844391244536603719e-03,1.306220889091491699e+00
6.554209762162081787e-03,-7.598045250405872642e-01,7.841711687505088513e-01,2.962273573908728516e-02,-8.440319492367216389e-03,-6.229657335293722897e-03,1.338241457939147949e+00
-1.132500411380556876e-02,-8.322625952818540895e-01,6.858674922310072919e-01,9.823065197451921748e-03,-4.494899278640674019e-03,-1.290777044509421913e-02,1.316517114639282227e+00
-6.195304645091064683e-02,-7.926196024189892109e-01,8.154941858421533851e-01,1.879263074557089663e-04,-1.639274799508266822e-02,1.086321173101857662e-02,1.395015716552734375e+00
-3.984411538807910991e-02,-8.052140820830433476e-01,7.975286424321874623e-01,6.990592929505143327e-03,1.778770573967536957e-03,1.749679373448914665e-02,1.388869643211364746e+00
5.095407923982009368e-02,-6.471917953819124047e-01,2.364834610951935256e-01,7.667751257840310641e-02,1.034661872381530540e-01,-3.596401410132285385e-04,8.373230099678039551e-01
2.433349004836952989e-02,-8.275507575210447886e-01,5.863255723481562987e-01,-2.639323759432945626e-03,1.529306568617497947e-03,5.000637974950693926e-02,1.236051797866821289e+00
-3.010212398683303342e-02,-8.840711491600949934e-01,7.268563316502354432e-01,3.137810672437935100e-02,1.111433207861085709e-01,3.454329815518343560e-02,1.411474466323852539e+00
5.861067003473632853e-02,-7.207225474275172905e-01,2.920934811618398075e-01,-1.186067978944624762e-01,2.058954566113723739e-01,6.556890083868084640e-02,1.012973189353942871e+00
-1.669046026862268384e-02,-8.076958480667505436e-01,6.507582347544965673e-01,1.052659341586954789e-02,3.604887368053959207e-02,9.703268728524056322e-03,1.266351580619812012e+00
-8.599914810639697205e-02,-8.050204540882860416e-01,7.847012464280860300e-01,7.153619391910677689e-04,1.318124011831602743e-02,-1.427019879174152824e-03,1.379018425941467285e+00
-7.410741920489707923e-02,-8.339584622480057385e-01,7.980867512725711155e-01,1.125537370733762157e-02,3.121673494369372678e-02,-1.836256360443768582e-02,1.416032791137695312e+00
-7.437773058495585066e-02,-8.075604734044030675e-01,7.574163961911077880e-01,5.421397338275693589e-03,5.814150466567998997e-04,-3.915303770286133675e-03,1.356256127357482910e+00
-7.965342743921648150e-02,-8.017718738326685690e-01,7.517092681404016208e-01,8.568546599330848423e-04,-1.643734878600396044e-04,-8.162972178904200158e-04,1.346464157104492188e+00
-8.003414266924016585e-02,-8.008506021850676504e-01,7.580505811202626898e-01,-2.026817050170016401e-05,3.897828852378035225e-03,-7.016365225916798391e-04,1.351338148117065430e+00
-4.896450345835553358e-02,-7.903347019266485640e-01,6.501882293904837073e-01,6.952626539903692011e-03,4.526590344430556773e-02,3.597074139760304476e-04,1.250227093696594238e+00
-7.304260503460310860e-02,-7.993337924446399789e-01,7.370050948186519513e-01,3.454175835217552972e-03,2.012614322266914960e-02,6.186032355651320839e-04,1.331637620925903320e+00
-4.373872460189284078e-02,-8.189513323961459257e-01,7.401730174297603826e-01,-9.817298595609315684e-03,5.439787730481584691e-03,3.299673223058244547e-03,1.350400328636169434e+00
-9.605984285615744300e-03,-8.110546753256665520e-01,6.055309730378116706e-01,1.588615300253624560e-02,4.857612099366451219e-02,-2.437683797733852450e-02,1.234233736991882324e+00
-3.097029925622208149e-02,-8.263040234130015760e-01,8.110606891012828168e-01,2.128790152792634643e-03,-8.355927029838484954e-03,-3.948412957408157196e-03,1.418286800384521484e+00
-4.561787893895066781e-02,-8.288859109538893044e-01,8.133089647331580574e-01,1.072065299615823121e-02,1.354989167672644886e-02,1.203168163751256597e-02,1.423152804374694824e+00
-4.554769097217342688e-02,-8.272734124230959329e-01,7.764465904566218990e-01,8.311162077747452333e-04,-5.678493056686105198e-03,-8.308156220502771125e-04,1.389044523239135742e+00
-5.439016379133619628e-02,-6.022803204237041630e-01,7.576712073417440907e-01,-3.986033368003635141e-02,2.281537548289097952e-02,-2.877920930449248335e-02,1.188848495483398438e+00
-4.142376627292022884e-02,-8.309504002629851671e-01,8.135886368945058900e-01,1.245614939800114172e-03,2.051768985494911192e-03,5.271030078943644490e-03,1.424624204635620117e+00
-4.838528937751067349e-02,-8.315101961196317282e-01,8.118846392405599799e-01,6.341330509121883598e-03,1.172601171992042508e-02,-4.717335675471705063e-03,1.423954963684082031e+00
-5.308216467780486891e-02,-6.202184816230165154e-01,7.593122395839297933e-01,-4.867175449134603787e-02,1.630696536994500137e-02,-1.151291654386963660e-02,1.204437136650085449e+00
-4.090135414161831517e-02,-8.315522360562310755e-01,8.133819257175087802e-01,2.032643827687469554e-03,1.009827167227293591e-02,-3.900074646166363807e-03,1.425037741661071777e+00
-5.744008330120936590e-02,-8.303251776140644358e-01,8.091173640802470368e-01,1.080863594277414654e-03,-1.063871839398624697e-03,-7.410724946479343295e-03,1.420631647109985352e+00
-5.565544050525442210e-02,-7.836680090777982111e-01,8.032814696619873240e-01,-5.574738390062491944e-03,8.101317793259735917e-03,-1.344249329624789538e-03,1.376004099845886230e+00
-9.433877853323113793e-03,-9.698113486885527879e-01,6.145194576773646000e-01,2.799380191087715297e-01,2.789134104958329030e-01,-1.690820016266215420e-01,1.570068001747131348e+00
-2.648913221523857553e-03,-9.227474894177020159e-01,6.603296879612650105e-01,5.047794575676889384e-02,7.437906360063102629e-02,9.612001536052687534e-02,1.395738363265991211e+00
-6.454615666561820675e-02,-4.475075519378163280e-01,6.076090053305489569e-01,2.734888629119172632e-01,2.445234148083466619e-01,8.281344600421620961e-02,1.131458878517150879e+00
-4.370116055380167397e-02,-8.372088018990891944e-01,7.985420378727146051e-01,-9.870030049023475940e-04,-2.908496406515722449e-04,1.830556029231873109e-03,1.416815996170043945e+00
4.447932842181473445e-02,-7.788848865905730889e-01,4.606365781035069995e-01,1.035954401950910375e-01,2.903064712727969066e-01,3.243453702420379808e-02,1.217353701591491699e+00
4.376944671382276830e-02,-8.787591090645191505e-01,5.568692187309923769e-01,1.475453942954623177e-01,3.761791063881265162e-01,-2.508428750880548758e-03,1.441367268562316895e+00
-1.131528695627126713e-01,-4.411329113992300544e-01,7.636451641505169752e-01,8.930496597125028857e-02,-2.371517401369890865e-02,-8.880078123919157851e-02,1.101448178291320801e+00
-3.269416580992129395e-02,-7.457769431573573193e-01,7.843470303501508534e-01,3.463000069982122286e-02,-1.126068533081977380e-02,-2.075755205957010435e-03,1.327649235725402832e+00
-3.410540590834932467e-02,-7.275578460532392544e-01,7.944772802057707972e-01,8.492935201905797704e-03,-2.603689989051014356e-02,-2.562807768531371114e-02,1.321449518203735352e+00
3.359677344003742308e-03,-7.425461264286077334e-01,7.727941374769243810e-01,1.172554093630330183e-03,-1.574248066297356460e-02,-5.947341878791887436e-03,1.312701106071472168e+00
-1.326880607171147808e-02,-7.996099011637763931e-01,7.958302828253297490e-01,1.278270093068499709e-03,-2.814860771964264406e-03,6.067627212153589751e-03,1.381788969039916992e+00
-7.217266765761815028e-02,-8.472431169474113899e-01,8.641114232565868525e-01,-5.851382096638896128e-03,4.018458830579655500e-02,2.726987863451473676e-02,1.486683011054992676e+00
1.372217105940710426e-03,-7.888188563528657493e-01,7.868137519323143980e-01,3.243197771240474009e-02,-5.548282331831935928e-03,2.655740297202477656e-03,1.365737199783325195e+00
1.875967055235207639e-02,-7.635722295283872141e-01,8.013650742679078176e-01,5.919359689388054707e-02,-4.308102459345577485e-03,-4.483484751103802672e-03,1.359190702438354492e+00
1.044876645019176403e-02,-6.121815150864923227e-01,7.584536269188494328e-01,1.071572753703471798e-01,-1.835742004580041440e-03,-8.296818294744586018e-04,1.203067064285278320e+00
-7.464703890637972017e-02,-8.244801773888005281e-01,8.111244639485932773e-01,-5.762933855016171177e-03,1.503023249216441440e-02,1.211354351473309214e-02,1.418534159660339355e+00
1.473364212992317457e-02,-7.933480590584442993e-01,7.922864293327092078e-01,1.039886606019709524e-02,3.862042818630802028e-03,-3.508199814555643380e-05,1.373418927192687988e+00
-9.417438956629605590e-03,-8.253618541954543808e-01,8.232037080213890912e-01,7.190048090503436441e-03,3.637662846005254406e-03,6.243883941010669111e-03,1.427833199501037598e+00
-9.611455955628067649e-02,-5.485958494611596903e-01,8.552585382576475270e-01,9.413302445593213497e-02,-1.543809701916312206e-02,-1.085074137993538856e-01,1.266075968742370605e+00
-6.426243052431901415e-02,-4.530046340866111798e-01,7.770278661108849239e-01,1.590214032331819793e-01,-6.309815009537167799e-03,-7.573556999524794046e-03,1.123427748680114746e+00
-1.229569518364930225e-01,-4.594172675991551325e-01,7.510638167046015390e-01,4.994175823171941725e-02,-1.511306902068333159e-02,-5.229389566299510322e-02,1.089753627777099609e+00
-1.543343465647676882e-01,-1.540343691624118105e-01,9.151768987424716562e-01,1.763505027893823643e-02,-9.477977890339867040e-02,6.205851905560313270e-02,1.087644219398498535e+00
-1.550685212283546832e-01,-3.156013928903710353e-01,1.191982389725722680e+00,1.922726186620909994e-01,-7.329583911226969506e-02,2.590000543386007312e-02,1.478376984596252441e+00
-6.248620024085711766e-02,-6.537811850158492533e-01,7.773821869631089010e-01,-1.957573516764894023e-02,-2.799573814013181158e-02,-3.542664005955668306e-03,1.247059464454650879e+00
-1.400565144406656359e-01,-2.217004356976597923e-01,7.179713850579256817e-01,-2.558060396826569161e-01,1.178743954627822083e-01,-2.810496190788974724e-02,1.026300787925720215e+00
-1.237895189850415356e-01,-4.493706998146684839e-01,7.540848086056062272e-01,-4.638425050819183076e-02,2.450179181336125181e-02,-2.018193479172662730e-02,1.082572460174560547e+00
-3.384689177243758312e-02,-6.501080089679099894e-01,7.619630935297667662e-01,-5.710153415404949084e-03,-2.728487056001022842e-02,1.764180700892619552e-02,1.227510929107666016e+00
8.815222769388654511e-03,-7.834151354278715562e-01,7.810882151217032332e-01,-1.086043379126140976e-02,-1.580634775601251832e-02,9.865320562560770876e-03,1.355451226234436035e+00
-1.203987842209763293e-01,-5.765549715022909583e-01,7.851428012360011088e-01,4.034666243886666365e-02,2.168324100691509937e-03,2.697061727584640703e-02,1.203425288200378418e+00
-1.335217917206304172e-01,-3.079753377723248309e-01,7.265657171289735539e-01,-1.472915141813233714e-02,1.044532013534383783e-02,3.460958104226528886e-02,9.616659879684448242e-01
-1.960668810698554809e-01,-2.485607202127095849e-01,8.123140710148322174e-01,-2.903843817133621233e-02,2.084041416343618974e-02,-8.759371724370861034e-02,1.048509478569030762e+00
-1.060863828767359685e-01,-3.254122550777942546e-01,7.738844323638965905e-01,-1.384993149383821898e-01,7.708859675734752205e-03,1.166643293414931608e-02,1.036139726638793945e+00
-3.318193395973599580e-02,-8.392293681051131715e-01,8.281393262082198392e-01,-1.608133970161846780e-03,-1.107604139237259970e-02,-8.824220294443929982e-03,1.444459080696105957e+00
-1.047019904933528811e-01,-5.289376419564272291e-01,7.627467170432135068e-01,4.018910993851087382e-02,-2.205444289714194109e-02,-6.890840466301059036e-03,1.143194198608398438e+00
-1.635049371568731424e-01,-1.280308452779856943e-01,1.083955322759691642e+00,9.791841653731012118e-02,5.775050157934279692e-03,1.332823525417219657e-01,1.263059616088867188e+00
-1.540672738095889005e-01,-1.440223068942291240e-01,7.063742922491904608e-01,1.116506445128629121e-01,8.064240812015714688e-02,1.859991485801956376e-02,8.886858820915222168e-01
-1.391323935812957546e-01,-4.190827505758132898e-01,7.544997509551500947e-01,4.480490781635779185e-02,-2.401727270252396532e-02,-1.090439949768880722e-02,1.065473079681396484e+00
-1.062419403646485405e-01,-5.364826780347514701e-01,7.909530147594319160e-01,6.331195847966901435e-02,-1.511556528404064265e-02,-1.219585520238112425e-01,1.197250247001647949e+00
-1.783717059152052364e-01,-1.552555352763373420e-01,6.961293713226414104e-01,2.766674071362857680e-03,-2.538206429171057862e-02,2.928577760027992888e-02,8.657944798469543457e-01
-1.489114532665544721e-01,-4.515618723011148861e-01,7.474182411089952405e-01,2.437148971891744606e-02,-3.935020558056936610e-03,6.962426729339251177e-03,1.080857276916503906e+00
-1.711145267768452438e-01,-2.531457425467544819e-01,1.189996695493507062e+00,1.549640311939232407e-01,1.370613332681692165e-01,4.430147421320811824e-02,1.450962901115417480e+00
-1.550128358309267040e-01,-4.391993370532570329e-01,7.591338289144032858e-01,3.721445553193000050e-02,-1.564046925920346137e-02,-1.865083772878596557e-02,1.087265610694885254e+00
-1.368344592667009307e-01,-4.509342299554964795e-01,7.419426708623066968e-01,6.407149548590436450e-02,8.540518600592100773e-03,-1.045747668351793523e-02,1.076937317848205566e+00
-1.226877431389612888e-01,-1.143143952821991549e+00,1.262435498018522395e+00,2.507399566710555305e-01,2.137378078746635934e-01,6.676196934898815175e-03,2.167752742767333984e+00
-6.561078330292885452e-02,-8.227429848805316581e-01,7.853580174601449970e-01,5.892637794214356222e-04,3.507195464331704007e-03,-1.586225104788996625e-03,1.393462777137756348e+00
-5.124365226139079854e-02,-8.234904082558989202e-01,7.816652041248211003e-01,6.786339620928598208e-03,3.497364061144688473e-03,-1.581783216997489873e-03,1.390501976013183594e+00
-4.208698636278766086e-02,-8.236934349397831978e-01,7.964859421943637496e-01,-3.861290452876765464e-03,5.386974411191448181e-03,3.514413093246616677e-03,1.403465747833251953e+00
-4.318790660109265295e-02,-8.341812176899937592e-01,8.054319618347537402e-01,5.359873773085933185e-03,3.458489689565046044e-03,-1.434944468797699291e-03,1.420284152030944824e+00
-5.539310852201996538e-02,-8.344188634737866872e-01,8.087667704351222397e-01,-2.746776433703073598e-04,5.703154604521584042e-03,-1.556857006695919242e-03,1.423713922500610352e+00
-5.121729586186875294e-02,-8.269839409848777079e-01,7.996239323247336106e-01,5.696170287827095891e-03,-1.013964750137946909e-02,1.174778584161843137e-02,1.409474611282348633e+00
-3.287676322310528060e-02,-7.067963269457020470e-01,7.654914549883100605e-01,-8.711927520528192637e-02,2.694691468743158971e-02,-7.980282981420681876e-02,1.293695688247680664e+00
-3.326616336126390905e-02,-8.906418901587327408e-01,6.607551155322917147e-01,2.630083496727133457e-02,-1.808563929509824642e-01,3.751196694300293344e-02,1.384275794029235840e+00
-9.245394171863863253e-02,-8.634572293537697840e-01,8.171075108210108517e-01,2.178803198979236203e-02,1.670991409158711638e-01,2.872732234487736930e-02,1.486838698387145996e+00
-1.086438122710110254e-01,-9.345232093880591062e-01,1.341796491625078414e+00,1.281440541644047471e-01,6.643018168721877281e-02,-4.755055124674013867e-02,2.013213157653808594e+00
-4.633650661971421003e-02,-8.372454225920357151e-01,8.155693669185944961e-01,-1.812399191370947429e-03,-7.826179948490609786e-03,-3.970287644570087704e-04,1.431887507438659668e+00
-5.470860026387524416e-02,-8.289563828494279640e-01,8.209084599736009569e-01,7.545842142588854440e-03,2.947824773835322249e-04,6.558107674061148347e-04,1.429783821105957031e+00
-5.942274986503755241e-02,-8.275533141739466192e-01,8.111035206415811993e-01,-1.172560463195562383e-02,8.676267217460634229e-03,6.443175941039188184e-03,1.420310258865356445e+00
-6.670062587346053951e-02,-8.136916803692874067e-01,7.733908280811021552e-01,3.339875307673591536e-04,4.309882857103477724e-03,3.166429667335447003e-03,1.375273108482360840e+00
-6.715896088762335348e-02,-8.183340543245601895e-01,7.875891542447465143e-01,-7.987320521915751079e-03,1.567278984922044691e-02,6.691252174368089375e-03,1.392115831375122070e+00
-4.116697127855752092e-02,-9.318115219656437631e-01,8.045506843660854557e-01,3.714637135871341755e-02,2.425004418890318869e-01,7.636188035260768614e-02,1.568366050720214844e+00
-1.043681360776903266e-01,-9.350152383918673982e-01,9.911146981057812333e-01,1.357095363647306280e-03,7.766528536961715690e-02,-3.497187522096016285e-03,1.678736090660095215e+00
-5.396444217000089666e-02,-8.140268987907839371e-01,7.056168468847335840e-01,-1.447857656490596917e-02,4.131175843666249660e-03,1.221736536373407497e-02,1.316478490829467773e+00
-3.573355790484383787e-02,-8.221164194690883109e-01,7.155491958968227539e-01,-1.789953028474066191e-02,-1.973795916346111163e-04,1.355491169124889081e-02,1.332340836524963379e+00
-4.256854805841206457e-02,-8.229327865595262859e-01,7.540084868999985535e-01,-9.036147835714943011e-03,1.150766892119067276e-02,-5.144783420248292757e-03,1.365959405899047852e+00
-3.220207672724911124e-02,-8.246092627999275226e-01,7.515485742367744582e-01,2.916753135092410576e-02,4.241990773916472224e-02,2.900084606276617273e-03,1.367918014526367188e+00
2.072968705055650007e-01,-1.459311350488423198e+00,2.882241190168673972e-01,-2.120505122495153563e-02,-2.196931839963821298e-02,5.766290383417972155e-03,1.709357500076293945e+00
7.350247394324388450e-02,-7.781966095368637593e-01,4.189038205896117306e-01,7.779488303140259624e-03,-3.324881521962379585e-03,-3.286334349656770681e-03,1.067294955253601074e+00
1.481605125064405781e-02,-8.133928766438552893e-01,6.004737280588102744e-01,4.397252360312993782e-03,-1.867869181363369241e-02,-1.478688737398142598e-02,1.231150865554809570e+00
6.168447669514892651e-02,-8.091845881865866730e-01,4.824869477161989328e-01,3.154497029236096213e-03,-1.820280776491910342e-03,1.906202768197156477e-02,1.141525864601135254e+00
-3.447734911083363829e-02,-9.202719765912135141e-01,9.364772482956460475e-01,6.160898031583704471e-02,7.291024295751113993e-02,-1.032727093924618901e-02,1.617128968238830566e+00
1.205461866402716790e-02,-8.161433770426951284e-01,8.113668123357027362e-01,2.072963965242189885e-02,1.287785476356227959e-03,7.594904532190248879e-03,1.410059571266174316e+00
2.097414702983398382e-01,-1.426807330582380962e+00,3.940511790983532991e-01,-2.038508759335512163e-02,2.352721808967289385e-01,-2.820861314971575551e-01,1.849301815032958984e+00
-1.776018303706797252e-02,-8.034881318241494652e-01,6.120484300936839261e-01,1.660917887250867170e-02,2.217216584420960129e-03,-6.685884913752557224e-02,1.234154820442199707e+00
-4.527231498445935531e-02,-8.218568589654826617e-01,7.999107321531191417e-01,-6.875480873411738553e-03,-5.646928276910316569e-03,9.485765894019240752e-03,1.405091285705566406e+00
-2.749049287942599562e-02,-6.578812288284202614e-01,6.457299201058994687e-01,1.383447484070306210e-01,2.013568237097508318e-01,8.457287383436327965e-02,1.214709520339965820e+00
-3.702980241032782088e-02,-8.889326279681182275e-01,8.764604181433787167e-01,1.069190360374249887e-01,1.092962747024051190e-01,1.398154469634455346e-02,1.552136063575744629e+00
-1.543255112892363001e-01,-4.351372985504847746e-01,7.863537021317353881e-01,1.860867119144992560e-02,1.447115979430757884e-02,1.720457558058355058e-03,1.108856320381164551e+00
-5.336927142720158945e-02,-7.391626220155247395e-01,7.910212160593463881e-01,1.487028823015362940e-02,-2.680352903254100416e-02,-9.244127566797438397e-03,1.328706264495849609e+00
-5.717802257335384553e-02,-8.367239453288732864e-01,7.862371867518828106e-01,-2.223276597603272148e-03,-1.261180683232607843e-03,-6.947452382060575679e-03,1.405946731567382812e+00
-9.312456042072705942e-02,-5.351413699230160859e-01,7.598414437132244847e-01,5.154150404599393623e-03,-2.508242746760720385e-02,-3.107595875172039848e-02,1.142286896705627441e+00
-6.231376148321642050e-02,-7.155675969852596241e-01,7.793336295373922695e-01,-1.495713078732385966e-02,-1.834602653335480615e-02,6.981186296489831286e-03,1.298748373985290527e+00
-6.733013766336470862e-02,-7.906252761331392653e-01,8.219675418760679086e-01,9.442859339897635707e-03,9.401516833935291001e-03,3.801665396250329503e-04,1.399201154708862305e+00
-1.237446412777945259e-01,-6.124650086805661919e-01,8.034748689563394608e-01,2.476175110856537048e-02,-7.890673079796371725e-03,-6.455651999798465990e-02,1.251504540443420410e+00
-1.677410504912536793e-02,-8.086638510149385395e-01,8.004120070071349957e-01,1.684883403871639991e-03,-6.235952918910942465e-03,-6.339112029569979106e-04,1.393603324890136719e+00
-4.144442395730899009e-02,-8.312731404782693900e-01,7.811854202321338869e-01,-7.844452639601632096e-03,-1.755878742640009380e-03,4.152425586530257041e-03,1.396614313125610352e+00
-7.857510512063778374e-03,-9.012932111715479255e-01,7.177213758069344030e-01,-3.180408756137924342e-02,7.675712291390754394e-02,2.079789320502754835e-02,1.412429571151733398e+00
-7.221890682644273307e-02,-7.330548172357795877e-01,7.958866836241493825e-01,-1.083767291534608497e-02,-2.258408279165129498e-02,2.075997144735917954e-02,1.329346537590026855e+00
-4.405570707143673104e-02,-7.804426191152167291e-01,7.583014927316694687e-01,3.148484450003423418e-02,-2.348553432214460154e-02,4.187071590153927138e-03,1.334754347801208496e+00
-3.407979457790567823e-02,-8.120169591192835101e-01,7.674269168614141767e-01,-3.964678091232118340e-02,5.961579173448974117e-02,1.346299057175814710e-02,1.373696684837341309e+00
-4.269548223086577776e-02,-8.371121413611590789e-01,7.855633448283145803e-01,4.394819269542983749e-03,-5.593769761991241110e-03,8.474430219250119606e-03,1.405510663986206055e+00
-4.638356438478724586e-02,-8.334697198426209708e-01,8.098570975614527434e-01,2.802401213218278474e-03,8.270478562849885784e-04,-3.384464180908876643e-03,1.423603773117065430e+00
-3.540603405440208122e-03,-8.229669171753761781e-01,8.164699017206361598e-01,6.792895566612895675e-03,5.043248968049556490e-03,9.301974565344397344e-03,1.419960975646972656e+00
-4.699190979099978488e-02,-7.360218739965116441e-01,7.970609054961849127e-01,1.589656356932878448e-02,1.904910541413109074e-02,-1.182835633103084851e-02,1.330801129341125488e+00
-7.924153540536647833e-02,-6.711188149378275458e-01,8.022740954524806289e-01,4.190592714665320774e-03,3.056445547230838070e-02,4.763352138479101661e-02,1.287943959236145020e+00
-6.009918357310600062e-02,-8.122311096776355654e-01,8.097614604853704545e-01,1.683291771999613929e-03,6.548539413182985144e-03,1.176657675014707548e-02,1.406116127967834473e+00
-1.270379970541948567e-01,-3.230706594976812118e-01,7.258605983145205442e-01,-6.308778552561561392e-02,-8.875653672015221957e-03,3.899391010934288165e-02,9.745762944221496582e-01
-2.753940151457065499e-03,-6.637059414636061749e-01,7.501382515608682189e-01,3.521155828944283472e-02,1.336210333694900707e-02,-1.538503462886200599e-03,1.227025747299194336e+00
-1.397893547364019440e-01,-4.525454235410864001e-01,7.882386794410732866e-01,4.885938631407352878e-02,-5.141525738294606095e-03,1.198190372576845297e-01,1.140004277229309082e+00
-2.835182506273065811e-02,-7.686591810922596135e-01,8.024050179095866264e-01,1.620599460246863188e-02,1.925012632350998898e-02,-2.485692996620820876e-03,1.362037301063537598e+00
-5.318061099039701756e-02,-6.873982922277207530e-01,7.979735587404749309e-01,2.926725816104211106e-02,2.921379559896169695e-02,3.811658094020382165e-02,1.294604659080505371e+00
-3.903849331937473549e-02,-8.286007413519087539e-01,8.131224596645246772e-01,1.410285531339392981e-02,-1.266009358329083477e-02,2.078208159982639774e-03,1.422501802444458008e+00
-1.266723129920016566e-02,-7.520152485188728031e-01,5.951684304141771076e-01,2.049434854417862828e-02,-9.378891446895600004e-02,-6.441638776008125344e-02,1.185579776763916016e+00
4.221640074892216155e-03,-7.873392714656409774e-01,5.338712330530520633e-01,1.609675193414572547e-02,-5.846236808423493914e-02,3.373203849892080636e-02,1.157925605773925781e+00
3.665636809586454714e-02,-8.052570516958525992e-01,5.552246831368238267e-01,-2.042106018498722649e-03,3.851017017387299481e-03,-5.259923962102461617e-03,1.189311146736145020e+00
1.646776998630014588e-02,-8.131603417465567141e-01,5.701171393588408964e-01,1.936890550621861440e-02,-5.222985380978065369e-03,3.914050538445264238e-02,1.208278417587280273e+00
3.460603247313004394e-02,-9.161685680597836390e-01,5.658583916304005257e-01,-2.511789253835931476e-02,-1.442971473766723189e-01,-6.238613516401884246e-02,1.329412102699279785e+00
-1.803495824019185623e-01,-1.574608789608832327e-01,7.350007732939992655e-01,4.207146639921943276e-04,-6.949441308835917555e-03,2.790138907537433738e-02,9.054942727088928223e-01
-1.591936165668392800e-01,-3.474485639240892931e-01,7.403405219494934020e-01,3.555430886802950566e-03,-3.002839085789141185e-03,-1.526787425902893618e-03,1.006983280181884766e+00
-7.543175445574570870e-02,-8.473013727368305936e-01,8.724460887145738530e-01,-2.062050012828174888e-03,-4.244865383018238229e-03,-4.444364430373979637e-03,1.491984963417053223e+00
-5.141427690990538202e-02,-8.266610730134125173e-01,7.631271560789335551e-01,-1.310940089572428316e-02,-1.876823037300538038e-02,-9.034137330827867948e-03,1.377596855163574219e+00
-5.858556448981893511e-02,-8.474785097848841486e-01,8.281118667394421484e-01,1.469448652361912688e-02,-5.466333425595629181e-02,-4.023039701131351717e-03,1.455250620841979980e+00
-5.337985567789405028e-02,-8.662727406964539911e-01,8.706500478587251290e-01,2.323585350999787856e-04,1.320703443928519707e-03,-9.600131457042477244e-04,1.505248069763183594e+00
-6.568574472569987943e-02,-8.464765714613418091e-01,8.482110321943693299e-01,-5.937193064961401173e-03,-1.597460218261252327e-02,-4.982546596055516600e-03,1.469472527503967285e+00
6.893583547159476410e-02,-1.078695868570702654e+00,6.057628064892393027e-01,3.219763368559002553e-02,-3.476726925187852424e-01,-8.434859097747795381e-03,1.608500480651855469e+00
-1.605078973383809379e-02,-8.220259721693813360e-01,8.041074274203954264e-01,-2.206233626089871506e-03,7.313976764832193049e-03,-2.557338014700423750e-03,1.408359766006469727e+00
-3.487817220657689343e-02,-7.720237039007623592e-01,8.156638493080076158e-01,5.979965473710882606e-02,3.396966165502012663e-02,2.373226927058745897e-02,1.381903767585754395e+00
-5.354338648737035078e-02,-6.567041035861868048e-01,7.946520704646702349e-01,7.913625984944594460e-02,-1.815336863016142957e-02,-1.072433552199554205e-02,1.270809888839721680e+00
-2.381255177122911654e-02,-7.996615622871221518e-01,7.985539280086013658e-01,5.066692595260901578e-03,-1.266118113598630086e-02,5.269580758634287605e-03,1.384522199630737305e+00
2.427154633783769055e-01,-1.320927609566129979e+00,1.938381320868211022e-01,-3.229931812735191698e-01,2.024200057156584076e-01,1.329142860931909753e-01,1.691104888916015625e+00
1.377161837363951591e-01,-9.880547938388546392e-01,1.766971118574170996e-01,-8.773686984348087747e-02,2.310678979759699936e-01,-6.812758348873877712e-02,1.228803396224975586e+00
-6.602175721199744773e-02,-1.043801364912160468e+00,9.110839460412333279e-01,-8.535767528606706678e-02,2.656911548021935188e-01,-1.697894048962042546e-02,1.760874986648559570e+00
8.301290804456795680e-02,-8.009739483916143987e-01,4.231835918521081874e-01,-1.107683002721921578e-02,3.532521701225696531e-02,2.810731001902153775e-02,1.097422957420349121e+00
-5.439559272145794155e-02,-8.024275443212193215e-01,6.818429206730721726e-01,1.135505010334876726e-02,3.350626255801159720e-02,-3.512686711125041338e-03,1.286903500556945801e+00
-3.927948070867909314e-03,-9.202758781725607351e-01,5.000472990248137073e-01,-2.204255945181433085e-01,1.431287927759491430e-01,1.339421648270434362e-01,1.347791790962219238e+00
-1.986349995554652012e-02,-8.226734490533130773e-01,8.400273231049452116e-01,-3.816190657044800372e-02,-1.096559822580461113e-02,-9.019725079920980562e-03,1.441949605941772461e+00
1.579726736528064279e-02,-9.388502750455224310e-01,5.811021905846827096e-01,-1.934977694520420913e-02,1.677374128015708121e-01,3.503875346465556984e-02,1.363745689392089844e+00
-1.774727030207539150e-02,-8.217016397764913549e-01,8.042775472506279444e-01,-8.678726499687766313e-03,-1.002763502024295143e-02,8.497603376967860847e-03,1.408432483673095703e+00
-3.151468058333044275e-02,-8.747823352626200588e-01,9.414528576277760852e-01,-1.101840079457062083e-01,2.686401974274699872e-02,6.525430134659833403e-02,1.590471386909484863e+00
2.849081144318274528e-02,-7.958449238571493334e-01,7.920773390224588040e-01,-1.254802217841057867e-02,5.643704618671457202e-03,-2.439072957997169035e-03,1.375729322433471680e+00
-3.825818441841400547e-02,-8.616903822097921051e-01,9.058420079271762848e-01,-9.899648312798457750e-02,-1.190753537396440770e-01,3.945860229246375694e-02,1.556719899177551270e+00
-1.100411842286707319e-02,-8.426269773996696300e-01,8.481267593738622823e-01,-1.881034510274390975e-02,4.962890930525431198e-03,-9.287879174780952485e-03,1.464776277542114258e+00
-8.777159021512768652e-03,-8.244731982369659651e-01,8.266416514011168948e-01,-3.553775208222985198e-03,-5.458566369418392343e-03,5.719486297206321374e-03,1.430020213127136230e+00
-9.673995027408706718e-03,-7.706423777714878076e-01,7.958293806729892506e-01,-4.038080638691528279e-02,7.445514398852276158e-03,-4.412360906345020456e-03,1.358671307563781738e+00
-2.876719049204184281e-02,-8.288632701895921606e-01,7.420911114719980217e-01,-1.018739714966832889e-02,-9.905391709346706309e-04,1.505822559419498462e-02,1.360930323600769043e+00
-1.780945939248860382e-02,-8.245380616171197330e-01,6.731896373770320796e-01,-1.443384482487619809e-02,3.735088270273072275e-02,1.417151556932661968e-02,1.300443172454833984e+00
1.269546496561274607e-03,-8.222520504025122579e-01,6.375372563639933876e-01,-1.649247447607082515e-02,3.253846980675142346e-04,3.755507782920085996e-02,1.269666075706481934e+00
-4.553968588041387711e-02,-8.072878304990668274e-01,7.855129024787914638e-01,-3.660793429172548921e-03,-8.926434297704276613e-03,-3.941392284745064872e-05,1.379942297935485840e+00
-3.850302695484970894e-02,-8.114292069308545186e-01,8.118513111382921199e-01,-1.809737345129225827e-03,-2.206927092534559029e-02,-7.087605397151344657e-04,1.406858563423156738e+00
-1.787984494527071477e-02,-8.311381186047519520e-01,7.025705046972756662e-01,-8.190986021634712178e-03,9.916066911537395334e-03,-1.112916295424408626e-02,1.329367399215698242e+00
-7.446145555205757605e-02,-6.002174008043434927e-01,7.843519577463231585e-01,2.410166882055860341e-02,-2.438450287238738690e-02,-5.304418333638658695e-02,1.215513706207275391e+00
2.311641282463859637e-02,-6.774504832411133437e-01,4.108532011188371080e-01,2.281723286550085550e-01,3.860607158070635259e-01,3.379704335548368299e-02,1.232685089111328125e+00
-1.422985604833716666e-02,-8.078147128311113923e-01,6.583093013147935935e-01,6.624257288914374431e-02,1.342299876470324227e-01,6.861203491175009439e-02,1.302744388580322266e+00
1.487278298771405605e-01,-1.097435500780804318e+00,3.053439194123712674e-01,6.745605280002449355e-02,-1.389752065360913905e-02,-1.428200243325666863e-01,1.359427809715270996e+00
-2.064127259619962657e-02,-8.155087084826058152e-01,7.090503825843104124e-01,-1.295164329409122933e-02,2.574191808404074997e-03,2.878108657165787121e-02,1.321847319602966309e+00
-1.799720715482054645e-02,-8.221649483482929011e-01,6.980788994486369914e-01,-1.377696139093930947e-02,2.591869507101176272e-03,-1.316949091122663652e-03,1.317532062530517578e+00
-1.828465162393610455e-01,-1.936051674915015286e-02,8.172378428475889356e-01,-4.657079890368404085e-02,1.523817501415842927e-02,-3.855319871839688831e-03,9.330832362174987793e-01
2.545901526808079518e-02,-8.207446677311444061e-01,5.373836117091541631e-01,2.602901939590316054e-03,1.255797886477533487e-01,-3.809928963563627424e-02,1.209547758102416992e+00
-3.599575915464051784e-02,-8.269756224813071821e-01,7.153995102664477690e-01,2.064520627637680961e-02,2.167549630984862618e-04,-2.147387254478055549e-02,1.336878776550292969e+00
-4.789544188652626600e-02,-8.467254174971513558e-01,8.420528586840553276e-01,-5.121068390539199738e-02,1.097638719788727180e-01,-1.055311644828111663e-02,1.478310108184814453e+00
4.478606473997395754e-02,-8.066445164998602424e-01,4.893017067693221644e-01,1.409759465930357503e-02,5.176799960634729386e-02,-3.813291035056284167e-02,1.146298766136169434e+00
-8.738972727041778576e-02,-7.698957520970213242e-01,8.137573941137002942e-01,-1.042353450384967371e-02,-1.553862244135155099e-02,-2.283628213644318169e-03,1.376221179962158203e+00
-1.041212075659844402e-02,-8.005990297205612949e-01,7.987960679407088982e-01,1.093258468623685975e-01,2.029951863519504837e-02,3.354106732756784864e-02,1.399680852890014648e+00
-2.838364857243008688e-02,-8.374563790509031991e-01,8.405458034058134187e-01,1.431596939355279582e-02,-4.633587280611933638e-03,-9.638589890610308950e-03,1.453830122947692871e+00
-2.964674266399435279e-02,-9.654251449716969580e-01,9.928587288101519137e-01,1.439847634128454956e-01,3.936133723914100879e-02,3.121095684994447395e-02,1.716916561126708984e+00
-2.218872167476322252e-02,-8.159208668441657597e-01,8.451799290149440980e-01,4.839990287137332925e-02,2.347289610051822573e-02,1.336630474176758905e-02,1.442225337028503418e+00
-3.278081172788546022e-02,-8.252249773215089013e-01,8.216055210889998683e-01,-1.031491522246913515e-03,1.130221676004666831e-02,7.627803200593510392e-03,1.426729917526245117e+00
-4.431970815753606685e-02,-8.290563435700426531e-01,8.134129705522686882e-01,7.167848381584060458e-03,-2.591511082734270291e-03,1.535769974607534630e-03,1.422952055931091309e+00
-6.634383402002795582e-02,-8.383703709209805455e-01,8.451345087409299905e-01,6.148145237044685789e-03,4.082487043267677557e-02,9.234740637332193060e-04,1.461375832557678223e+00
-5.071808949838609720e-02,-9.529310077717655370e-01,9.563778729912941756e-01,8.624823583699892104e-02,8.029776491097008473e-02,-7.553756928292708339e-03,1.666936159133911133e+00
-3.746004639191307523e-02,-8.305307784219299050e-01,8.163848293703761527e-01,1.460911809417408599e-02,2.807034366102139147e-02,2.569114803907400664e-03,1.427653908729553223e+00
-5.612158321939217376e-02,-6.256547243155360372e-01,7.653148419208574138e-01,-4.610928921217478937e-02,2.973525549933809034e-02,7.851565092070347460e-03,1.214980125427246094e+00
-1.124562080594075364e-01,-4.708293450545513181e-01,7.432103733506744137e-01,-4.767400596050439671e-02,2.308530698310142654e-02,2.785953089127926260e-03,1.084290146827697754e+00
-7.686843408369309349e-02,-5.547630565814465342e-01,8.508583049634669271e-01,-1.632395501862524412e-01,1.704225327711581320e-02,-5.011762671558617904e-02,1.273092269897460938e+00
-2.808589923102808306e-02,-7.281314479880742763e-01,7.896981376728443580e-01,-1.399214600656642667e-02,2.819056460146782475e-02,-2.865223486129584579e-02,1.317860007286071777e+00
-5.363439540896735441e-02,-8.089440958256659542e-01,7.391574175109435485e-01,1.872159551893479157e-02,-2.678486384712515031e-02,1.890654171780441206e-02,1.342419862747192383e+00
-1.609037827385506950e-02,-8.111340288275166177e-01,7.992528143787349659e-01,1.958029036614109333e-03,4.647567760927794750e-03,4.190814078487841397e-03,1.394719123840332031e+00
-5.259550080982687559e-02,-5.966718888205142513e-01,7.502679860125699429e-01,-7.803348698113840576e-02,1.536498538167033884e-02,-5.771622350356421516e-03,1.181737661361694336e+00
-4.075755279997236857e-02,-7.189735494859544884e-01,7.910215860785845265e-01,-3.352296937275117163e-03,3.414310926317638134e-02,-2.665271673390413876e-02,1.312105774879455566e+00
-3.696490749155770250e-02,-8.755307032701046266e-01,8.894753831257736776e-01,-5.146593406124530534e-02,-3.118882814637494519e-02,-4.542143937413765757e-03,1.532739877700805664e+00
-1.518985778627265394e-02,-8.363163140567662079e-01,8.305122388905347153e-01,8.255234023310898533e-03,6.501028831373627768e-03,2.815593080588494560e-03,1.443691134452819824e+00
-1.296062653584270641e-03,-8.497883269877599677e-01,6.596222738883961156e-01,-1.451324466627705936e-02,9.604022257621561056e-04,1.714871450518423018e-02,1.311126708984375000e+00
6.459214068274857223e-02,-5.594003075671546421e-01,1.878715052785236983e-01,3.371243561114842247e-02,9.652506006319562515e-02,2.211463236307562377e-02,7.171595096588134766e-01
-1.202043183381097946e-01,-5.664727849164140627e-01,7.940616780361191562e-01,2.041295407306313939e-03,-3.987571009467660681e-03,-6.926703317874725874e-02,1.207269668579101562e+00
-9.145571122960206856e-02,-7.192940579511200028e-01,7.997719407387936519e-01,6.415553690904918401e-03,4.519400956825883088e-03,-2.614144709292396188e-02,1.322969913482666016e+00
-1.216587463930027813e-01,-4.514340371021886567e-01,7.390269432927687454e-01,-3.464136495659883574e-02,8.968650068955631022e-03,1.750252246513788216e-03,1.066402912139892578e+00
-3.070150023963998803e-02,-6.608837516532878320e-01,7.687197359600005386e-01,-5.545074984412992625e-03,2.588678658133707414e-02,-1.642249076377196026e-02,1.242133975028991699e+00
-1.270863521738140739e-02,-6.366551391280208527e-01,7.863920763190371810e-01,-8.523493077049791589e-02,3.199272305681207657e-02,-4.725721209717169413e-02,1.248211741447448730e+00
-1.051499746040322758e-01,-4.497541894698586784e-01,7.498140990734943889e-01,-1.935926591170715194e-01,-8.607427935828280280e-03,-7.920720334735842361e-03,1.121242523193359375e+00
-1.465503039383470596e-01,-3.862607485844549715e-01,7.744175575108755982e-01,-6.206517596702426642e-02,-3.572885730750344213e-02,-2.236239846979100332e-02,1.069249629974365234e+00
-1.797341964776390522e-01,-2.300984657168984038e-01,8.037041080873204013e-01,1.128907222479035152e-03,-3.119544978647304304e-02,-4.616021779355669943e-03,1.011041402816772461e+00
-8.635994186830445174e-02,-5.887867622443773152e-01,8.799146573622702583e-01,-1.993428567438845223e-01,2.339771241049491343e-02,-9.985269119171984176e-02,1.349951267242431641e+00
3.156680070965844909e-02,-5.952627108113961452e-01,3.016050937991813785e-01,1.172791407066855196e-01,-1.325032226009263125e-01,3.168907984301366082e-02,8.555997610092163086e-01
-6.973158849838678730e-03,-8.114371659505168477e-01,6.511612415087830730e-01,-1.397239332426638073e-02,-2.350987645674064690e-03,-3.195912930645797290e-02,1.270202755928039551e+00
-3.698985782420633611e-02,-8.089881385437237560e-01,7.807715981014116124e-01,1.373031302939045281e-02,1.093645874324850921e-02,3.133021690394105496e-02,1.378366708755493164e+00
-4.048737869898361152e-02,-8.282508471572976871e-01,7.279154566118188896e-01,-1.782917074169258417e-02,-1.002676894300397539e-02,-2.273284249532780271e-02,1.348754763603210449e+00
1.682735477065901153e-02,-8.211368022483118700e-01,6.184650351030509530e-01,8.457363522118763882e-03,2.059225285884797030e-02,-3.971347083194824018e-02,1.254799127578735352e+00
1.815339275373301087e-01,-1.148706914130569245e+00,2.143128373939195974e-01,-1.830643995862312190e-01,1.333420557638696768e-01,3.523377096036345388e-03,1.402902126312255859e+00
7.457993799232129351e-02,-7.173534413980602320e-01,1.925659810669802519e-01,1.307171668205844295e-01,1.235620353090220863e-01,1.781414542924950883e-01,9.626957178115844727e-01
3.479081461439874345e-03,-7.471288923391881109e-01,7.729821069386463295e-01,1.468836267565248009e-03,1.483062807305171593e-02,7.720051828752455894e-03,1.316809535026550293e+00
8.231213688345867530e-03,-8.307315078639119221e-01,5.879474324354673209e-01,6.232791192838609343e-03,-4.753476717226838219e-03,-5.532942465512025870e-02,1.239216685295104980e+00
1.315458569717754822e-02,-8.371613311904051447e-01,6.051493417935136510e-01,-1.286176440175863279e-02,-2.456032490831660739e-02,4.743990423731715526e-03,1.256682515144348145e+00
8.003790877525340797e-03,-9.027498133660125657e-01,4.797737972484996671e-01,-2.169329747605065195e-01,1.103114863590901745e-01,-1.093593122211369319e-02,1.288312792778015137e+00
-1.979697091801876571e-02,-4.302612049140407957e-01,4.028574547800464201e-01,-1.201533250114757423e-01,1.121518229961656482e-01,4.995850174346364719e-02,7.804705500602722168e-01
-1.182720603726203357e-01,-2.357625629877471707e-01,7.667157283849604932e-01,-1.791943516422838112e-01,5.756377081665544487e-02,-4.810891458173056912e-02,1.007075548171997070e+00
-1.028506939288896249e-01,-5.823552068360717815e-01,7.739015137035910596e-01,-1.036270781585413303e-01,-3.229300153807448948e-02,-2.276681083107828102e-02,1.206617116928100586e+00
-1.313064740549047538e-01,-1.377297455877199983e-01,5.741482003717861549e-01,-4.961524544504365003e-02,-5.154651954253804125e-03,-8.981078840840611699e-02,7.306856513023376465e-01
-1.010681093761298388e-01,-2.721516505440564893e-01,6.351525656720468094e-01,-8.386547211558849357e-02,-5.121223717463382896e-02,-9.219371342281593162e-02,8.670138716697692871e-01
-1.699075435938563194e-01,-4.993581520356894510e-01,9.023077139240189837e-01,-2.970839248952426570e-01,-6.539029518989038399e-03,1.087728609224135334e-01,1.382687449455261230e+00
-5.280423840876476149e-02,-5.601509958730265248e-01,7.488116752865434655e-01,-5.942405302475443213e-02,-2.234840466847999238e-02,2.141208792689424170e-02,1.148979306221008301e+00
4.807920391077169162e-03,-7.745508360254300673e-01,7.854624477094291901e-01,-1.443938740441642714e-02,-4.057251964294232571e-03,-8.551985636374950144e-04,1.351261854171752930e+00
-3.669583991763220032e-02,-7.043697950582503697e-01,9.026633552443017461e-01,-1.078238013142144569e-01,3.880154970417257210e-02,1.354713394877399626e-02,1.412556171417236328e+00
-1.031646448479689726e-01,-4.596612132034617604e-01,7.405945555673917324e-01,-4.984855384729664635e-02,-2.333035532982629875e-02,4.345364350994524588e-02,1.074508666992187500e+00
-7.780633464926235698e-02,-6.542713518578163745e-01,7.467397829383376484e-01,2.033032110880522020e-02,6.607068492725167049e-05,8.004012598659447641e-02,1.227994084358215332e+00
5.097382007868550557e-02,-7.095779625593304774e-01,4.191882485287898308e-01,-8.980161819075152541e-02,1.702781717335888068e-01,6.403871019693392619e-02,1.057140827178955078e+00
-1.367369808630627959e-04,-8.305894105854501053e-01,6.501696842662438858e-01,1.226538210523935718e-02,2.315706526543772400e-03,-2.135247380526751268e-02,1.286247968673706055e+00
-1.833632123246095938e-02,-8.248257860072695236e-01,7.128035932307917877e-01,1.949990074524602171e-03,-2.621269673589523858e-03,-2.511889249906010257e-02,1.332881212234497070e+00
1.318187833247958518e-01,-8.704388560207170222e-01,2.999783100229939659e-01,-4.611617122474994529e-02,-3.601993394394895076e-02,7.406860851277732860e-02,1.108182311058044434e+00
-8.067579204444834395e-02,-8.043050287879540683e-01,7.589949697882037993e-01,9.195653330232961232e-04,-7.755688445647859926e-03,3.588382113684803528e-03,1.355181932449340820e+00
-6.960104699040972620e-02,-8.200015801016377059e-01,7.765104406763312372e-01,1.076721150825062263e-02,-1.064606386319388517e-02,8.662176672860592494e-03,1.383777856826782227e+00
-7.084693609393966085e-02,-8.346031219808512924e-01,8.469106751110312414e-01,6.162896994920409252e-03,-2.326038793362621496e-02,1.699719813491859174e-02,1.459160566329956055e+00
-8.044945800496380861e-02,-8.017552881109843987e-01,7.528954062601315167e-01,-4.071869335579647933e-04,-7.210082175203471125e-03,-9.078065036331658131e-04,1.347590923309326172e+00
-7.974574099836445606e-02,-8.016503729629333996e-01,7.581607804441425902e-01,-6.893238918035624616e-04,-3.351309519907544766e-03,-1.495421714054676315e-03,1.352096199989318848e+00
-7.852513313277403872e-02,-8.017230651262521324e-01,7.578498670220574773e-01,-1.277143850258713378e-04,-1.654122781883688061e-03,1.187956005262814295e-04,1.351817846298217773e+00
-6.581763990223461758e-02,-8.210250682989094217e-01,7.617531162502864106e-01,-2.616371443810256922e-03,-5.097567932951591052e-02,4.241250541002741965e-03,1.374070286750793457e+00
-8.185417454472281029e-02,-8.007074570397362256e-01,7.643511131234257405e-01,1.323074305839813149e-03,-8.621816349581831393e-03,-1.809641444880488205e-03,1.356963157653808594e+00
-7.617102646138544653e-02,-8.042646852560989545e-01,7.588987568072894652e-01,6.895022762750528320e-03,-1.989704985056303665e-02,6.364532539941944456e-03,1.355331182479858398e+00
-5.803468167812143863e-02,-9.914417360734369966e-01,9.884325314572433019e-01,-1.582085922390625427e-02,-1.439382195183864718e-02,5.798186915824591172e-04,1.715953230857849121e+00
-5.629976434400572188e-02,-8.178594170516513273e-01,7.711522933282124459e-01,5.174035543466126708e-03,-5.035440080636354766e-03,4.298278064223026197e-03,1.376595735549926758e+00
-4.744129098701259373e-02,-9.505968998699549921e-01,7.901488894595012358e-01,3.814168915929125239e-03,-1.685974759436578707e-01,-2.431320937311920102e-02,1.536494016647338867e+00
-5.513445895118736229e-02,-8.449102557155383497e-01,9.609127748618928599e-01,-4.349218298611162020e-02,-6.681134632966601039e-03,-3.272789422003349186e-02,1.570849895477294922e+00
-4.534101067941685714e-03,-8.273723519855650244e-01,8.714409138378322872e-01,-1.209959331020926121e-01,-4.045223931221784606e-04,-7.952269760335289872e-02,1.492673039436340332e+00
-2.117950762447046859e-02,-8.214639538285803955e-01,8.082152785350749102e-01,-9.352830442970756775e-03,9.033072498102191067e-03,3.171026753402440688e-05,1.411598324775695801e+00
-4.819107742924375049e-02,-8.266521694050642521e-01,8.139996270114800980e-01,-6.474745198926416638e-03,3.522325893560690181e-05,2.134787229134473951e-03,1.421511769294738770e+00
-7.239213341777324395e-02,-8.248432741966342796e-01,8.105060061924735937e-01,1.100694664001226116e-03,1.997736886473810980e-02,-7.074121435274613012e-05,1.418178558349609375e+00
-7.006464455184843731e-02,-8.486764596234058766e-01,8.213040290013297051e-01,4.519870116393880262e-03,4.229326916139916626e-02,-9.894925179162624568e-03,1.449319124221801758e+00
-4.061566522939846768e-02,-8.259884674474724520e-01,8.033192838066660624e-01,-1.379511737137834645e-03,1.743242250668544831e-04,9.942710812949647273e-03,1.411432862281799316e+00
-7.330380415032111685e-02,-8.266721453556239441e-01,8.156993440366154813e-01,-2.786078379448784018e-03,2.147626515102276507e-02,8.464538134476546618e-04,1.424445986747741699e+00
-7.906465127532627535e-02,-8.175201439492373323e-01,7.840255416839528868e-01,-8.199776545917523626e-03,1.233786251433317133e-02,6.589496566265374243e-03,1.388662457466125488e+00
-8.346805513450289427e-02,-8.151754417395353780e-01,7.852994806651895088e-01,4.507631964811916782e-03,4.958080022585621693e-02,-7.607368446492699353e-03,1.390483975410461426e+00
-7.910820535685184063e-02,-8.123372231078487271e-01,7.825358683353347278e-01,5.340076154045100484e-03,1.544370390311443353e-02,-2.228495410237236150e-03,1.382987260818481445e+00
-5.639507293363234079e-03,-8.007688708063301908e-01,8.064813340544197962e-01,2.900351611521509443e-02,-1.565505631818396234e-02,-1.200263013743889384e-02,1.393270611763000488e+00
1.402639216878507483e-02,-8.159936670143966841e-01,8.093427086503918177e-01,2.274680239285706632e-02,-5.055077606970373102e-03,-6.330978048868071174e-03,1.408310651779174805e+00
-9.950172927049064087e-02,-6.036513679403530119e-01,7.685289120457173828e-01,-5.146259103021535303e-02,3.721269675615494071e-02,-1.571373628312314752e-01,1.237512588500976562e+00
-3.906393252401757499e-02,-8.166808968640176802e-01,7.385148391392400979e-01,-8.769027249225580046e-04,1.488807455568730287e-02,2.085685440037688895e-02,1.347571015357971191e+00
-4.280892204777231314e-02,-8.390126467007883448e-01,7.901276449324250439e-01,9.416961126632291193e-03,-5.478046013723836608e-03,9.187576526069586580e-03,1.411212325096130371e+00
-4.075822159860979094e-02,-8.174485583602805194e-01,7.763792273773783004e-01,4.732563975184254056e-03,-6.956028285082186541e-03,1.206320949808703871e-02,1.380678534507751465e+00
-4.098858362186000304e-02,-7.672942623912641924e-01,7.775720144884368246e-01,-1.442218120389101958e-02,-2.528917810761022872e-02,1.938580516714453680e-02,1.340058445930480957e+00
-1.905061898231117518e-02,-8.237558978464182280e-01,6.680444423192775094e-01,1.541451499730304465e-02,3.541253041509406785e-02,-8.142134673427467093e-03,1.295080304145812988e+00
-3.843191165714596874e-02,-8.220924298120718676e-01,7.224894238730331653e-01,1.995499338687934873e-02,1.986869799778503347e-04,-2.050002159885926795e-02,1.338612914085388184e+00
-2.117035020923686492e-02,-9.301411785492134099e-01,8.226886233677012106e-01,-6.012926911915891098e-02,3.055836259374803895e-02,5.908028478933985417e-02,1.526266217231750488e+00
-1.577668273714849176e-02,-7.718301515634363730e-01,7.935057307084028011e-01,-1.297546543273467128e-03,-2.124579132460966899e-02,7.176721953767267043e-03,1.356439948081970215e+00
-4.227397056762621785e-02,-8.389702312639353288e-01,8.147716522151058349e-01,2.605431247594571510e-08,-7.111201541983864626e-04,-1.809142770557965274e-04,1.432500839233398438e+00
-4.635025467704205482e-02,-8.385347295342266971e-01,8.157752927771048101e-01,-1.628625176019778261e-03,-7.004682155165834097e-04,-1.828908416850155813e-04,1.433104515075683594e+00
-4.257478429907669837e-02,-8.385520420643294282e-01,8.163190938651295747e-01,6.812653954870943711e-04,2.235950524998841318e-07,1.077465997075214600e-03,1.433507323265075684e+00
-3.700863992834059479e-02,-8.353342509828738383e-01,8.121680130852031443e-01,3.974692015356821439e-04,-3.215064823858275554e-03,5.518193016461405169e-04,1.427016735076904297e+00
-4.081483121486760568e-02,-8.346401582736567848e-01,8.063829632561867466e-01,-3.678259411619367193e-03,-9.855252603503835123e-04,2.678779057811810083e-03,1.421441078186035156e+00
-4.500768544851695141e-02,-8.367518861943634700e-01,8.080810213133468034e-01,-8.605102887257006688e-04,8.720721851309303288e-04,1.106255730443471115e-03,1.424800157546997070e+00
-1.494153602965352101e-02,-9.157021555757973719e-01,6.735988750065454722e-01,-1.970713199909807437e-02,-1.408854141237991242e-01,-6.648362659175914569e-02,1.406996488571166992e+00
1.396926575975757090e-01,-1.042389059295077747e+00,4.072302592887845352e-01,5.632673497645020871e-02,-3.286067485168921443e-01,7.972971050751960498e-02,1.462080955505371094e+00
9.613946168050538366e-02,-1.011816420211759660e+00,6.361868047460274012e-01,-2.766329860277544610e-03,-3.571223569680922472e-01,1.348479596128783486e-01,1.598358511924743652e+00
1.237234240749056080e-01,-9.305974085749139091e-01,4.222852245804959992e-01,2.858445210613911464e-02,-2.911599996827236025e-01,-4.226058723354904345e-02,1.333282828330993652e+00
-2.417409432723482965e-02,-7.957017022752136404e-01,6.305252044194068484e-01,-4.016856387151819356e-03,-6.942830496327523880e-03,6.979806375441367956e-04,1.236607909202575684e+00
1.923269065756051388e-01,-1.409601891869171952e+00,3.483661547731277119e-01,2.108930601760952359e-02,-1.674796449972311696e-01,-5.210869096850604537e-02,1.712926268577575684e+00
2.954836029295594690e-02,-8.292223621735981265e-01,5.775710474332349520e-01,-7.366240371934366579e-03,-1.473719064381186737e-02,-4.035739530148502868e-02,1.230504870414733887e+00
7.725873555132115045e-02,-8.693127384072257824e-01,2.959970980078168168e-01,3.859080930093489181e-02,-1.732422108199317967e-01,-6.067315234099594085e-02,1.120912790298461914e+00
-7.152804882452463986e-03,-7.582717955034861124e-01,5.754604598536489091e-01,8.197876760591790712e-03,9.044674183900812403e-02,-1.022260141647260284e-01,1.182084560394287109e+00
-2.345845657613183921e-02,-7.916786751990645410e-01,6.835505016878590245e-01,-3.231101014288757789e-02,5.837826991177025998e-02,4.585900250267907485e-02,1.285623550415039062e+00
3.157459545752601404e-02,-8.149084399580074356e-01,5.502753150333132837e-01,1.506590611639639123e-02,1.747034383834820612e-02,-8.097536879036533464e-03,1.194340229034423828e+00
-1.291427503630207529e-01,-5.772729708042400043e-01,7.942334715088991137e-01,8.318108755705945143e-03,7.671010569262188411e-03,-6.667755201443380242e-02,1.216946601867675781e+00
-1.585168089178105172e-02,-4.763859047777155298e-01,2.706684499110698083e-01,4.921636917279053475e-02,-8.235373798477521601e-02,1.538333416259660968e-01,7.243929505348205566e-01
3.212141584893318802e-02,-8.590511513748445571e-01,4.513394819720534246e-01,-9.332416561945680589e-03,8.950678957624989829e-03,3.100906204386166473e-03,1.159335374832153320e+00
-5.115663769931265425e-02,-4.214852536693441953e-01,2.995956889232267994e-01,-1.147159076873544153e-01,1.329213187684815112e-01,1.511689997084396109e-01,7.423636317253112793e-01
8.101630795821163078e-02,-1.019587982881677402e+00,3.494783869934071641e-01,1.944016433800108690e-01,-1.711478225591704094e-01,1.595712908849303002e-01,1.362538814544677734e+00
1.840346025996579538e-02,-7.892233660600825873e-01,5.203486568423005831e-01,-4.835441780126723682e-02,6.342279936497337289e-02,-1.673641197395203326e-02,1.153046607971191406e+00
-1.344182716844410375e-01,-4.514214480234960969e-01,7.215061916056979552e-01,-2.041684890682517531e-02,-2.036808508833013939e-02,-1.122831466479129736e-01,1.069928050041198730e+00
-7.566300150078464348e-02,-8.113490410952710619e-01,7.675422211462901156e-01,2.045180364305583542e-04,3.053991758160245346e-03,-9.461442401717414354e-04,1.368427634239196777e+00
-7.014211577139237153e-02,-8.133053498448686858e-01,7.639765394708867285e-01,1.725827066075725060e-03,-5.911921495196778217e-03,8.319786224201873234e-03,1.366840600967407227e+00
-6.105083564804525409e-02,-8.104306350170417117e-01,7.634384351394526425e-01,7.390557218311850224e-03,1.016203174478433249e-03,-9.321519072985910617e-04,1.363590002059936523e+00
-7.184244272034440160e-02,-8.114322324747351711e-01,7.743492636157164322e-01,6.514276214973125506e-03,-1.150084483382657514e-02,7.070318950817324963e-03,1.374606251716613770e+00
-6.308040107945839248e-02,-8.033483977730678793e-01,7.308719931291897121e-01,8.440757947316841411e-03,-1.312942923925873627e-03,6.677808472739721855e-03,1.329077601432800293e+00
-4.515383224664283601e-02,-8.083271908148075280e-01,7.066519200515845034e-01,1.285662836403127923e-02,-1.527423500537320941e-02,-2.684992632655925672e-03,1.312486529350280762e+00
-3.403611760084108984e-02,-8.132189927534614338e-01,7.948564601420985420e-01,6.360657527662857231e-04,5.426059065141922676e-03,1.551532836363422960e-03,1.392890691757202148e+00
-4.659705998709307018e-02,-6.152340426746517599e-01,7.639244975154433348e-01,7.217410851066795308e-02,-1.734227847719478979e-02,2.086805129653849719e-02,1.207899689674377441e+00
-1.284637267729737964e-01,-2.177527524044401974e-01,8.465220290193250507e-01,-9.697819745486753462e-02,-1.240307058509984434e-01,-7.986621922640115001e-02,1.067298531532287598e+00
-1.533643095665027656e-01,-1.150227938671880556e-01,7.518735673695539079e-01,1.366456237879936919e-01,1.553355282292300660e-02,9.012187249908303055e-02,9.313019514083862305e-01
-5.668718727327594353e-02,-6.649686282346509714e-01,8.723590495379551779e-01,1.863820729163318535e-01,-1.334904731956591643e-02,-6.539079331320382660e-02,1.384135842323303223e+00
-5.865663143635738153e-02,-6.762192903355705997e-01,8.831884702285354161e-01,1.655043571677055347e-01,1.538086659213359908e-02,-8.778791804751986949e-02,1.398609757423400879e+00
-1.197205520381184607e-01,-4.365833644014018855e-01,7.810385394993673014e-01,2.773243151103911841e-01,2.018000367052866922e-02,-7.506671749217874723e-02,1.202513694763183594e+00
-3.354636344355876182e-02,-8.782296588344765675e-01,8.274167092880515550e-01,7.976770725825541031e-02,2.875172007087607381e-02,-4.151450618912447266e-02,1.486178755760192871e+00
1.348983583535394090e-02,-8.016832996290398361e-01,7.858129481039014541e-01,-7.725880892326471468e-04,9.536870754148341458e-04,-5.439067614583801939e-03,1.375012874603271484e+00
-1.195528894170503342e-01,-3.645251370058360529e-01,7.292913375928029573e-01,-5.866958956938778807e-02,1.736457488129809421e-02,-3.722744700923109884e-02,1.001937985420227051e+00
2.194080428216043516e-03,-7.817659981399435187e-01,7.808057413823015214e-01,-5.556987863109028036e-03,1.542750321892841388e-04,1.952121812312959106e-03,1.353267908096313477e+00
2.482443738200940109e-02,-7.578597848138731718e-01,7.686307728790787719e-01,-1.487036937145383431e-02,5.291366778954320789e-03,-2.103348746387093734e-03,1.322410106658935547e+00
-3.574570451842716545e-02,-8.325856153434628704e-01,8.107661330506459318e-01,1.180135468991196047e-03,5.159618950031539045e-03,-1.659383267921872357e-03,1.423433423042297363e+00
2.172024848784555665e-02,-7.739112078890366675e-01,7.724931739441625034e-01,1.273520895623761560e-03,7.316521686068531288e-03,-3.121392696059883086e-03,1.339486002922058105e+00
1.495549662527807279e-02,-7.945793768794812140e-01,7.885667428719299599e-01,-1.112612475091094566e-02,1.137533643406715179e-02,-7.920136983521196272e-03,1.371508002281188965e+00
4.439735119907564642e-02,-7.581591231754676308e-01,3.820405147388475919e-01,7.017083031222740019e-02,-1.217560486169810136e-01,-1.345655855000363610e-01,1.068946480751037598e+00
1.039833570149060193e-01,-9.781772495480719476e-01,3.240364562097213241e-01,-1.175820300332688050e-02,-4.266599864782732315e-02,1.264022728052987543e-01,1.229404807090759277e+00
2.323602612353263819e-01,-1.456010196118332045e+00,3.945577745577042439e-01,6.616296889671643977e-02,-2.865984493644481712e-01,-3.611728914030568061e-02,1.847759246826171875e+00
9.190011061044423002e-02,-8.754005844650907253e-01,3.072196402621146238e-01,3.407714635912706402e-02,-5.195215224238538404e-02,-1.493906727906541831e-01,1.126430392265319824e+00
-1.033420661565459531e-02,-8.335150976457934568e-01,6.822046677260397152e-01,2.193186679472077742e-03,-5.310823197895413704e-03,-2.580824919159948466e-03,1.314321398735046387e+00
-8.355224590268180151e-02,-6.949890206001553272e-01,7.816066224402090645e-01,1.751978608484350622e-02,8.099038549035052909e-03,3.298052835756201673e-02,1.286749958992004395e+00
-5.405844622207965633e-02,-7.918242618914168585e-01,7.773604956298221236e-01,-1.534637379986647770e-03,-4.460954177141736657e-03,-2.956702568555142491e-02,1.360749006271362305e+00
-2.597705111509283210e-02,-7.999709538695098932e-01,6.367493560376816797e-01,-1.456856520364975364e-03,5.160956921300167630e-03,5.955174851441601830e-03,1.245556831359863281e+00
-2.218150664603078109e-02,-9.867787926554566491e-01,7.600498809324831573e-01,2.884026915393369736e-02,2.143243551835958272e-01,-2.797495517422315166e-03,1.561151981353759766e+00
1.835153623047855453e-02,-8.357925843655317211e-01,4.699931688486547188e-01,1.238364723088079301e-02,2.336357206274218834e-01,1.873353531367344046e-02,1.218433141708374023e+00
2.906429715757463672e-02,-7.976437301100099964e-01,5.176518102500665686e-01,-1.260404183989557655e-02,1.268906934531115541e-02,9.570812694188362765e-03,1.152092695236206055e+00
-6.063680446537225710e-03,-8.898612685375337783e-01,6.406397751336851965e-01,7.202110997706759506e-03,9.211552131209956029e-02,4.698196014258792380e-02,1.342800021171569824e+00
-4.996643534224187722e-03,-8.844807877549508701e-01,6.260632618686982065e-01,4.078973234245573953e-02,8.617009318297894072e-02,1.033565711966095840e-01,1.336432218551635742e+00
-8.784326977421505478e-02,-8.279571526219650091e-01,7.768358867442640703e-01,-1.270380418659943075e-03,6.779850602852975638e-02,8.864119784427955699e-04,1.396136403083801270e+00
1.758696299527255646e-02,-8.418810538794445630e-01,5.771718134076084805e-01,8.402391939254797359e-04,-1.023360905944862564e-01,5.082937739794482490e-02,1.253769040107727051e+00
-3.952754840322830754e-02,-4.151669083175761887e-01,4.837601885650564815e-01,4.885628291609365320e-02,-1.953224435311858020e-02,2.176081364418321409e-02,7.881804108619689941e-01
4.133336776695806236e-03,-7.502599007257485519e-01,4.535709582015368113e-01,-1.054024164964327409e-01,-1.451727569833446418e-01,-1.553292084442832455e-01,1.130969405174255371e+00
3.993716684080256263e-02,-8.131414257047920868e-01,4.974047592294441600e-01,1.097121223265445575e-02,-5.463068154895204392e-02,2.921646312745223434e-02,1.157216906547546387e+00
-5.985514099170881341e-02,-8.033223438864033339e-01,8.148527351833487753e-01,1.084636027187418049e-03,-6.001232338293127459e-03,-1.592892991840909669e-02,1.403227210044860840e+00
1.505477583131245578e-01,-9.458532467420024403e-01,6.687024985388723142e-02,-1.070240960694253812e-01,-6.278293514821166321e-02,-2.858695207021192536e-02,1.079811215400695801e+00
1.026712121282417622e-01,-9.217642527872121905e-01,3.975468241639423805e-01,-3.763046449814022587e-02,3.271781554522114333e-02,9.112026228553282703e-02,1.212793827056884766e+00
-3.130999500089177989e-02,-3.287126655927631869e-01,4.555010212308407969e-01,-1.557163847778752497e-01,-1.568148636116891703e-01,4.133805938305874089e-02,7.885773181915283203e-01
-3.320831968597986322e-02,-8.169169552297633752e-01,7.208028748285630893e-01,2.962327053264198016e-03,2.516336985597957508e-04,1.652580186823434522e-02,1.332104682922363281e+00
-1.912063455973672110e-01,-5.827242482468686369e-01,1.154545279293160975e+00,3.406647601716112361e-01,-9.790085498018619159e-02,-1.577522218783892205e-01,1.715455651283264160e+00
-1.222610522754185858e-01,-3.486076097777823235e-01,7.795318125368763118e-01,2.426764848172506261e-01,-9.107245933331074850e-02,4.668211834650468767e-02,1.129901170730590820e+00
-6.342290582066259508e-02,-5.546390757877229793e-01,8.716474609856810218e-01,2.213369519445086420e-01,-2.298239264386891800e-01,-6.181326532407510621e-02,1.375449538230895996e+00
-1.061790239953315784e-01,-6.216855141418956565e-01,8.771121198230039662e-01,3.241222082155738593e-01,-1.948929845151050610e-01,1.169327458746008234e-02,1.472761750221252441e+00
-1.982802122906961867e-02,-8.202901783631318944e-01,8.090126484989891287e-01,7.303572959118890574e-03,1.439775744653994799e-02,8.922845062793738086e-04,1.411366820335388184e+00
-4.200097300063813932e-02,-8.726722561957456215e-01,1.021750009223424627e+00,1.206801198302438483e-01,-1.865530679734502331e-02,3.411981279365006864e-02,1.659348011016845703e+00
-5.534028484224413902e-02,-8.211238038338253276e-01,8.016308972091146234e-01,-4.789649112366040073e-03,-2.757874906396043293e-03,3.929064560003894292e-03,1.406135201454162598e+00
-4.195675887299137041e-02,-8.064512856931524976e-01,8.154040780020248569e-01,4.896763859052836836e-03,1.188688426211637061e-02,1.962191689326659577e-02,1.405922532081604004e+00
-6.856439898730661009e-02,-8.243268901254660053e-01,8.129314864742694935e-01,1.302167813545259930e-03,6.203058336316462536e-03,1.358481876015216541e-02,1.419537782669067383e+00
-2.216128097929248586e-02,-8.212798069253478550e-01,8.046263491028475823e-01,9.765169995309994772e-03,-5.067411349549427561e-03,-1.864143255448290088e-03,1.408276677131652832e+00
-6.830597397343071524e-03,-8.110741705648651934e-01,7.978810161803256973e-01,5.339031099753168558e-03,-1.200795916273214407e-02,-6.744478517778594237e-03,1.393630981445312500e+00
-6.094637775586995987e-02,-8.198345667179406382e-01,7.912955815143105642e-01,-7.760507580637225622e-03,1.228014292642736101e-02,1.449543416965633040e-02,1.396512627601623535e+00
-6.349619953069388090e-02,-8.210419622761576663e-01,7.954271447350819146e-01,-4.103673698235623356e-03,-3.612242025714751826e-03,2.894853704744069708e-03,1.400861620903015137e+00
2.653833496091027172e-03,-7.831987372109665557e-01,7.884680655832692064e-01,1.342362146538514725e-02,-1.203757076934880606e-02,-6.579801401397196436e-03,1.361509323120117188e+00
-8.500241159117916112e-02,-8.239388346064453472e-01,8.138130222043784556e-01,4.849084210180002884e-04,1.840942784106119542e-02,3.752220910575978889e-03,1.420958638191223145e+00
-5.193413147977205685e-02,-8.054802586166380785e-01,7.100872235728845627e-01,1.101229225497586325e-02,4.131970058551646952e-02,-1.990072330402440845e-02,1.315066695213317871e+00
-6.421663727876603112e-02,-1.025003123088862989e+00,9.507880527732973652e-01,-4.140269805627574268e-02,1.449733224337932114e-01,-2.781971490159801472e-03,1.731116890907287598e+00
-2.789751786058797256e-02,-8.119371355527260636e-01,7.478162405677162283e-01,-1.678381303514786191e-02,1.171798695809860361e-02,-1.726681039265542950e-02,1.351588606834411621e+00
-9.613995631317866220e-03,-6.810925617215802808e-01,7.671450492494749085e-01,7.001199844645029924e-02,-1.258354258846880458e-02,3.623828006394359813e-03,1.261362195014953613e+00
-1.407969018436516090e-02,-6.871798387978718115e-01,7.685606246073466430e-01,2.320875206674922683e-02,-2.293897338789786453e-02,-1.037313172505333406e-02,1.263290286064147949e+00
-3.045105860494584649e-02,-6.726850373238668634e-01,7.702387281455888024e-01,3.978337116452157138e-03,-2.452581743736425429e-02,-6.699707119889953925e-03,1.252910852432250977e+00
-4.865246573164018484e-02,-6.285103583226017143e-01,7.623694226072693647e-01,3.206866684589479433e-02,-2.420707475039378734e-02,8.721115897338543518e-03,1.212163567543029785e+00
2.092104902446283166e-02,-8.274046982405647288e-01,6.031539505905729737e-01,-2.897367719768877831e-03,-2.057915359435086300e-03,-3.820770980552254392e-02,1.247794985771179199e+00
2.439110285510590059e-02,-8.305990920861217042e-01,5.861562474019058611e-01,9.292035536408600402e-03,6.706983944216206653e-03,-3.469763236192851402e-02,1.237294554710388184e+00
3.097093004664010218e-02,-8.193911810425060782e-01,5.841907000176562725e-01,4.804923488866364931e-03,-1.242672194071085812e-02,-4.533149184257635050e-02,1.227315068244934082e+00
-3.510730409713939959e-03,-8.281976319344587223e-01,6.517162928358711804e-01,-1.919489629117849747e-02,-1.662981321131297343e-03,-2.854487861995342116e-02,1.285825133323669434e+00
1.322031877081737694e-02,-8.097607535064932360e-01,5.981503865635184880e-01,7.045024294712186504e-03,-4.728242182529816817e-02,3.492603877685111768e-02,1.229366779327392578e+00
3.999060233617643401e-02,-7.239494581372281079e-01,2.291839002135502845e-01,9.645934397047388476e-02,-9.117761684152858592e-02,7.444288044270003235e-02,9.129126071929931641e-01
1.170918730094985261e-01,-8.539803206803698865e-01,3.476889486597845580e-01,-1.032189422621235253e-02,-4.121050733455143555e-02,-7.802133038361183659e-02,1.115239500999450684e+00
-8.393941382941205731e-02,-6.299747274416592768e-01,7.808865055291046575e-01,-3.847602962358454091e-03,2.461020974812279730e-02,-1.781563679571351866e-02,1.233335971832275391e+00
-8.718694275600050170e-02,-5.280074315595255641e-01,7.476983404651538212e-01,-1.081923763850651393e-02,-7.670513881659389056e-03,-3.304332918278794079e-02,1.123919010162353516e+00
-5.394367565689194011e-02,-4.711969461798147796e-01,7.291939404911131906e-01,-6.989437687473241956e-02,-1.826811958489263019e-02,-1.335011986984198894e-03,1.062936425209045410e+00
-1.696871815357799407e-01,-2.203645920388163648e-01,7.323584519793705505e-01,7.388933653634195686e-03,6.796465126614005320e-04,4.161799489757958027e-03,9.285391569137573242e-01
-1.135353278722178172e-01,-2.184733617429246433e-01,9.067845265573836189e-01,-8.058508260951392776e-02,-5.491690294419922930e-02,5.112219988193255488e-02,1.093391418457031250e+00
-2.041666803436293157e-02,-8.131811089602081211e-01,8.421199167980688571e-01,-3.485678793643027899e-03,9.944813933390026991e-03,-1.910320817639072494e-02,1.434455037117004395e+00
-1.239845004241428017e-01,-1.101047722812214191e+00,1.441537911917487147e+00,2.228142298951102662e-01,-1.235906133238073579e-01,7.089374594848681099e-02,2.268252134323120117e+00
-1.446637416254021868e-01,-8.090249433798449852e-01,1.361322115488156070e+00,2.863768792478096348e-01,9.431636379131438930e-02,6.872017261667046073e-02,1.999194145202636719e+00
-1.590392785490615524e-01,-1.248800083857087184e+00,1.422824628582500139e+00,2.957698294354385582e-01,1.092553791973667199e-01,-4.240123008674832189e-02,2.391101837158203125e+00
-3.709505871628177021e-02,-8.710048000451522388e-01,9.194033183551854060e-01,1.458616183032231950e-01,-2.710944311740269286e-01,4.311405852911171649e-02,1.642500519752502441e+00
9.792906015285332555e-02,-9.278143702129164616e-01,3.962662299716825931e-01,-3.240275343778446088e-02,1.219452863908609686e-01,7.300889874974462318e-03,1.222740292549133301e+00
-5.356728435518967602e-02,-8.288644054455527321e-01,7.907067829933522862e-01,-3.428259408157968702e-03,3.594774949381415296e-03,1.511236410343563819e-03,1.403042554855346680e+00
-4.180982616295320087e-02,-8.285568933117177792e-01,7.828821182710509197e-01,-3.172891896892997537e-03,-4.316079887373985499e-03,-2.291245443413162004e-03,1.395712614059448242e+00
-6.846908223579475927e-02,-8.044958172131099206e-01,7.249501768269939195e-01,-4.731815041006011413e-03,3.835243550468036416e-02,-4.436939058499244715e-04,1.326539754867553711e+00
-3.787122875255501120e-02,-8.000372193000646615e-01,6.229269653556914754e-01,-6.137061663585649182e-03,9.713615689858540181e-02,1.501044358318873694e-02,1.245104193687438965e+00
-5.645750115355396836e-02,-8.590566319577933596e-01,8.984083845822162795e-01,2.524896058921517056e-02,3.233203792058746140e-02,4.718243320623810057e-03,1.525589823722839355e+00
-4.112699190380542102e-03,-8.121401715855621761e-01,6.480043843919880420e-01,-3.437667282918900700e-03,6.238614321736284281e-03,-1.064674233998832292e-02,1.267117142677307129e+00
-1.041662936935732614e-01,-1.005975335230472334e+00,1.097514915373994926e+00,3.901941288449628682e-03,-2.042671865948429699e-02,1.608778241756708000e-02,1.828403115272521973e+00
2.946733563524009392e-02,-1.258200421473000041e+00,7.328027980090746629e-01,3.204885771859961041e-01,2.872066589018485994e-01,9.695630962856695290e-02,1.908463954925537109e+00
-6.969424695249805402e-02,-8.364845348587928164e-01,8.215750769639581508e-01,-8.734069195133340596e-03,8.742825454352204373e-03,1.240360933066174572e-02,1.437589883804321289e+00
-6.916818231850924148e-02,-8.339230516446226593e-01,8.174524988429745509e-01,5.832241520874009016e-03,9.387909881912615689e-03,-3.466507135093911500e-03,1.431571245193481445e+00
-3.755016153772390564e-02,-8.576456078133281036e-01,8.612457449807341403e-01,1.883736608810359118e-03,4.674723746530888742e-03,5.858600607383439816e-03,1.489183783531188965e+00
-5.233066783232636493e-02,-8.016630129859358966e-01,7.066361966399957728e-01,-9.832159388763962032e-03,4.163725401137519100e-02,1.133745518514908332e-02,1.308481812477111816e+00
-1.725746852650665575e-03,-8.308981228466731928e-01,6.688421204636493256e-01,3.930127055269774274e-03,5.923379756851519275e-03,3.001928616990631390e-02,1.302328467369079590e+00
-4.261387216049833393e-02,-8.303303051491310871e-01,7.923962482959386877e-01,-3.678471462675865934e-03,4.117812069990544818e-03,-1.053492772775390003e-02,1.405672311782836914e+00
-1.166462350096574008e-01,-4.869071162118934204e-01,7.783633029027666739e-01,-2.779097947584236589e-02,-1.273777495714285661e-02,1.269771809285997477e-01,1.149215221405029297e+00
-7.871724730056434138e-02,-6.272920380686576314e-01,6.940594213217716746e-01,3.045254656150666629e-03,-1.483382715939389647e-02,1.056413139322365663e-01,1.164565205574035645e+00
-7.571853631025714237e-03,-8.263433721304366264e-01,6.671163288143617809e-01,4.159251208105474787e-03,-7.177798401879952918e-03,1.933538494292131801e-02,1.295891404151916504e+00
-3.017134566418324185e-02,-8.059523139867070807e-01,7.952240068374374360e-01,-1.097444974250246646e-02,-1.164009467471191148e-02,5.755560558550504302e-03,1.387193799018859863e+00
-2.127087885757711003e-02,-8.256038830100116410e-01,7.224966895579328918e-01,5.720682583809295549e-03,2.499873455605661383e-03,-2.097507942929017002e-02,1.341571927070617676e+00
-5.936295457139958293e-02,-8.194588889068499249e-01,7.930588568249902215e-01,3.703040864676601911e-03,-8.831399510345290527e-03,-2.855314235245669588e-02,1.398217439651489258e+00
-3.269599742117382246e-02,-8.245033001318178290e-01,8.108192851781766963e-01,-2.134133775711518320e-03,1.769144647115461749e-03,-5.015978151001973875e-03,1.416501641273498535e+00
-4.371525159875119804e-02,-8.383191261588636145e-01,8.141849986375947479e-01,-1.970619966488837155e-03,4.333177431926037160e-03,1.672742098352238528e-03,1.431487083435058594e+00
-5.865659848310854352e-02,-8.322525658189867670e-01,8.161766320922870799e-01,-4.800184448755064233e-03,1.024560972195416282e-03,-3.804945091071476674e-05,1.428503990173339844e+00
-4.806883469040691692e-02,-8.417385481631564081e-01,8.160918343446434964e-01,-5.596498316763676151e-03,5.515229586535085222e-03,2.377219426783246190e-03,1.436226129531860352e+00
-2.945211191724147679e-02,-8.114091656380281181e-01,8.056006394662075243e-01,-7.570095425107151730e-04,1.452981945138407185e-02,4.463826979365991682e-03,1.400871157646179199e+00
-4.078179667270103587e-02,-8.238494659828801137e-01,8.142246452422764458e-01,-1.696811718592172421e-03,1.524133756580874598e-02,-4.151985201599695668e-03,1.419336557388305664e+00
-4.149362141231979773e-02,-8.334950012756968674e-01,8.122143536919086415e-01,-2.834784083846353820e-03,2.891201797501585530e-03,-2.434731312326527796e-03,1.425583481788635254e+00
-2.171077124369467579e-02,-8.281426542028230697e-01,8.089172882009018073e-01,9.736494312739066032e-04,8.791806521398342136e-03,-2.830092307497382789e-03,1.417878389358520508e+00
-4.918645653117384442e-02,-8.252963202066985193e-01,8.011957359452297478e-01,-3.947105720492275448e-03,-1.571798411962350636e-03,-9.071102735836384170e-03,1.409179687500000000e+00
-5.258951249387849858e-02,-5.442618986809143466e-01,7.343303519718333838e-01,-6.138405282968061732e-02,-7.577066501660588427e-03,-6.880911631069218555e-03,1.122278809547424316e+00
-8.400406208031346855e-02,-8.540409193149997025e-01,8.620572807397085535e-01,-1.940325238851871347e-03,-2.361463611141552399e-02,5.036986376552226273e-03,1.489379525184631348e+00
-1.032025352432893173e-01,-3.750839734889456212e-01,7.290398365606545195e-01,-7.163891967081517653e-02,-6.250140934687965430e-03,2.305895874933280507e-02,1.004951238632202148e+00
-8.903013628916789379e-02,-5.291829355648203226e-01,7.641837734796613768e-01,-1.094461121956632858e-02,1.029585750613033930e-02,1.297168206953941069e-02,1.139488935470581055e+00
-5.310661267261200524e-02,-5.320636933661168078e-01,7.562835535034215795e-01,-5.710285556134427065e-02,1.758710138122925384e-02,-7.478768421094190121e-03,1.132719516754150391e+00
-5.014963526476629019e-02,-4.508803077474563548e-01,7.722478467573786753e-01,-1.529843693634386492e-01,7.950335584880572140e-03,-3.970345643855257428e-03,1.112174510955810547e+00
-4.911395088639462780e-02,-5.381623670127368975e-01,7.370299576264199848e-01,-5.136937395905073062e-02,9.657764458733114968e-03,5.826952964527115988e-03,1.118012189865112305e+00
-1.846994537951901494e-02,-6.890653513778000061e-01,7.686034763509995704e-01,-6.703398317121950223e-02,6.819078542183140516e-03,-1.449707484234082251e-03,1.269100904464721680e+00
-5.747184560881830884e-02,-8.045340365656353798e-01,8.869079181239006848e-01,-2.705142963300292691e-01,-1.695562561295888560e-01,-6.883118050562020418e-03,1.568881630897521973e+00
5.503126384053297349e-02,-8.957620780080157719e-01,5.338903789150694079e-01,-1.433418102032271366e-02,-2.536327156257459081e-01,2.577461407841039748e-02,1.335742592811584473e+00
-3.130334067539313619e-02,-8.830984176887297643e-01,8.526822587183857660e-01,-9.167396481942657882e-02,-1.005452101020907069e-01,1.385998093346266311e-03,1.521678686141967773e+00
-5.543626852913469127e-02,-8.986585087680382111e-01,8.716412456065534275e-01,-2.132977985938339094e-02,-6.339230867146121440e-02,1.639290418060517299e-02,1.538328886032104492e+00
-8.181556878105834818e-02,-8.637507910966109037e-01,8.281726760904831730e-01,1.557658655347898477e-02,-9.058203026639197186e-02,4.055049759941004028e-02,1.476932406425476074e+00
-7.219960692645777112e-02,-8.214521476517064880e-01,7.244600886221800318e-01,-9.227896117321998659e-03,-9.465738805170634262e-02,-8.922171373975386691e-03,1.349192261695861816e+00
-8.242171984729701473e-02,-8.317319624708493508e-01,8.328451233923005459e-01,-1.761686338440936238e-03,-1.631335052916224604e-02,1.537583253415600922e-03,1.444234371185302734e+00
4.883553686087510615e-02,-8.719673243931518325e-01,4.907222191768170205e-01,-2.076322749314378838e-02,-1.127531043382195425e-01,-4.427540927200278309e-02,1.222843527793884277e+00
-6.783145448733110539e-02,-8.657164160979159417e-01,8.822176211292441783e-01,-1.967935024813776551e-03,-1.980944946316200508e-02,-8.042876510420323213e-03,1.516122221946716309e+00
-4.774172022623549699e-02,-9.604268275715666103e-01,8.812329762464286009e-01,1.346495976642150989e-02,-4.960328763415645242e-02,5.663046248308820259e-03,1.597457647323608398e+00
-6.370797688968707351e-02,-1.048054986666403288e+00,9.205262148610595663e-01,-2.961334007370142185e-02,-7.500993560421720385e-02,-3.820844040138508813e-02,1.711833477020263672e+00
-4.541125668042643448e-02,-8.515275766146167546e-01,8.500207234158241310e-01,3.441573256061213754e-02,-5.327440303019374129e-02,-4.139190491723681686e-04,1.478347897529602051e+00
-1.008020300043588613e-01,-1.072670948613439812e+00,1.067176761342586655e+00,-6.836190582000977595e-03,1.198650386976114202e-01,2.449382719511217915e-03,1.867374420166015625e+00
-1.406292061122231540e-02,-8.503794192305171862e-01,8.538223196274660198e-01,-3.391543778694167122e-02,-6.381934693212265065e-03,7.457865702312068031e-03,1.477232813835144043e+00
-6.857543999769116772e-02,-8.914910455737095063e-01,9.255708640505597717e-01,9.115331530373620844e-03,1.655297636204339446e-03,5.150690287574951080e-05,1.576030731201171875e+00
-1.399343606248747499e-02,-7.370616111641606905e-01,6.416988262657011832e-01,-5.798950129101522466e-02,5.709152621396067218e-02,2.344429967704952239e-02,1.203488945960998535e+00
3.231466545828992620e-02,-8.383024543605527290e-01,5.702995935454346910e-01,2.100903970146028865e-01,2.868334786137546888e-01,-7.168961634217936585e-02,1.382184267044067383e+00
7.808825126975652009e-02,-9.304222066822667170e-01,5.198275344326026559e-01,6.896703272758634810e-03,-5.750974774994935040e-04,-3.594967101430153467e-02,1.289087414741516113e+00
9.680293801597045222e-03,-8.286428186433968390e-01,6.179273591258522824e-01,-1.127805302237410920e-02,-2.728085250385043486e-02,-4.869096326715001422e-02,1.261897206306457520e+00
2.287830259781867270e-02,-8.211983721541159520e-01,5.843318585257457620e-01,7.064977264165626936e-03,2.926100471040911713e-02,-1.953063689696978369e-02,1.226975202560424805e+00
-5.141091418114716177e-02,-8.341420258357447048e-01,7.632538987904690098e-01,2.861323205728484587e-02,-1.089316025533470372e-01,-1.585390322880194519e-02,1.397432923316955566e+00
1.392533765154128911e-03,-8.221986233933145094e-01,6.381842654720515373e-01,1.354429372869801924e-02,1.386141635631086633e-03,-2.441069459520679372e-02,1.269096493721008301e+00
2.902981746423827225e-02,-8.124633049718419375e-01,5.545078022645779647e-01,1.081168052599823688e-02,4.710437247312599524e-02,1.011135292933030075e-02,1.197387933731079102e+00
-4.804039271167755143e-02,-4.726291034888067122e-01,7.314789887407427971e-01,8.448735638497924250e-02,-2.778625217215727021e-03,1.407597855744633373e-03,1.067869186401367188e+00
-1.184962952975512351e-01,-3.605377548846734892e-01,7.986725042739767355e-01,9.917379859780577067e-02,-1.059571836425901234e-02,-2.249174215348247532e-02,1.073841810226440430e+00
-7.304920896475011749e-02,-4.493345074720569432e-01,7.379971443842230361e-01,1.572914087608804634e-01,2.604633679016287937e-03,-2.062798964119517964e-02,1.086319565773010254e+00
-5.339430741698908411e-02,-6.991074155768157716e-01,9.375560016285432452e-01,2.038962803325255202e-01,1.126637897303386579e-02,1.029494315511108871e-01,1.481787800788879395e+00
-3.752032891212082194e-02,-7.273439674018792322e-01,8.226900193225794578e-01,7.501061112423614008e-02,1.013917245400335933e-02,-3.135036220660994410e-02,1.352534174919128418e+00
-1.571200508540733787e-01,-5.953143065669046496e-01,9.431743020961745883e-01,2.949447689625952496e-01,-1.256238495432763027e-04,-1.374314348415461157e-02,1.465042114257812500e+00
-3.955152398673085490e-02,-6.230746737208487929e-01,7.567100297396983644e-01,7.342557641831566617e-02,2.430953746824977488e-02,1.998252891312747408e-04,1.207110524177551270e+00
-1.306798050869735772e-01,-3.887361004173934820e-01,1.004132480338232991e+00,2.023607839822692545e-01,-1.170579515779757440e-01,1.098000137690600814e-01,1.359177350997924805e+00
-1.492965031213361327e-01,-2.434937443001528590e-01,8.089292934118673672e-01,2.027342753767641947e-01,-9.750665720897278010e-02,-6.937077460243053217e-02,1.087931632995605469e+00
-1.253584397782043780e-01,-2.027017910138602663e-01,8.815019236810194281e-01,1.879532414433939536e-01,-1.254767086717398228e-02,6.133428526683773474e-02,1.102434158325195312e+00
-7.462226511664678263e-02,-7.727400549473356639e-01,8.153263534679843216e-01,8.485157430297910267e-03,-1.150069404414817698e-03,5.041995042215845040e-03,1.378753900527954102e+00
-8.231803032622696248e-02,-7.272561465969321626e-01,8.045510794208999839e-01,-3.706517764380079516e-03,-5.465289157669036592e-03,2.841567314012517428e-02,1.333045721054077148e+00
-5.128420800566333565e-02,-8.027399668071329986e-01,8.120706771828638537e-01,-6.167890199904582128e-03,-5.029256038474240464e-03,1.270333083600619882e-02,1.399826645851135254e+00
-7.371440323687822316e-02,-5.489418950229305594e-01,8.790371858245416004e-01,-1.867679367084779107e-01,-4.569250587416424925e-03,6.026466310143639704e-02,1.304590106010437012e+00
-4.916072547026255346e-02,-9.462091943547520367e-01,1.074645163648403567e+00,1.263087623766215306e-01,-1.310610509317742048e-02,2.778234987483532356e-02,1.768173217773437500e+00
-4.013473971322282369e-02,-7.836200670800856916e-01,7.617692411375016626e-01,5.070159092052493530e-03,6.316727568011114118e-03,-2.141212857113430987e-03,1.338743805885314941e+00
-6.420893988391786211e-02,-7.840253135261648909e-01,8.094486722059814898e-01,-3.226500415612378048e-03,-1.101128564669777085e-02,-1.137455631051976015e-02,1.382414340972900391e+00
-6.494699366230524684e-02,-8.261132498661224455e-01,8.149780760485737519e-01,-4.018604341505532460e-03,3.333541690017624614e-04,8.467401623666810304e-03,1.422559380531311035e+00
-8.527445959847332335e-02,-7.311404649398435263e-01,8.102045204889786190e-01,7.785847910371637703e-03,7.076875992174337313e-03,3.295019705614482541e-02,1.342003822326660156e+00
-6.947398673778856781e-02,-7.868193574773703070e-01,8.135079474800979149e-01,1.767843006998572140e-03,7.886363398448304265e-03,-8.845830513407508186e-03,1.388551473617553711e+00
-3.522669776252877749e-02,-8.279407010553153645e-01,7.270210256048108555e-01,1.096581374590445412e-02,-5.657828927794494606e-04,-2.076673223737294030e-02,1.347337007522583008e+00
-1.082862905043503222e-02,-8.203449136089571159e-01,8.003216296415264219e-01,2.867852160890060117e-03,3.110018406437386335e-03,-3.922078699727419085e-03,1.403574228286743164e+00
-2.204249655580196865e-02,-8.109626989762485083e-01,8.045011715291454646e-01,-1.847671172151805694e-02,5.073214362377309952e-03,-3.804338699940360870e-03,1.399568319320678711e+00
-1.125890176945016329e-02,-8.036437018356424877e-01,7.972063936723438049e-01,3.874058972246002125e-03,3.115379297784750135e-03,4.884111949197619817e-03,1.386452674865722656e+00
-3.767184286911109958e-02,-8.347106815258259482e-01,8.121170147700645936e-01,-7.406595312342194402e-04,5.422213443249667385e-03,-1.184387884054528654e-03,1.426471471786499023e+00
1.849645652790649249e-03,-7.979160138413398107e-01,7.881931183552309816e-01,8.894594675025503400e-04,8.248376622333459043e-03,-4.391391476652023104e-03,1.373723387718200684e+00
-2.109550964479727994e-02,-8.236130783634769692e-01,8.022509097668097944e-01,-9.502535539685349683e-03,1.830516736321295690e-02,-1.053131255955332135e-02,1.408649206161499023e+00
-1.351929361598662449e-02,-8.095711059910161156e-01,7.998040534064971840e-01,1.199601923788339968e-04,1.012451584489158264e-02,1.725384013871026452e-03,1.393900036811828613e+00
-2.769340361493466407e-02,-7.729193940095828719e-01,7.955163231883216612e-01,7.697505001306206331e-03,2.200037053241888849e-02,6.062330581276720656e-03,1.359504818916320801e+00
-7.599848396750964741e-02,-8.783934510794753070e-01,8.818128576694890253e-01,1.176594948473656810e-02,-4.547266579321643937e-03,1.327571948537118254e-02,1.526692271232604980e+00
-6.842835860170318196e-02,-8.775893071755975772e-01,8.850475049469421762e-01,1.096429721541231431e-02,-2.050220242271878768e-02,1.330008575280937876e-02,1.528896808624267578e+00
-1.383181345672720303e-02,-8.346743545754888860e-01,8.185589821484662298e-01,2.765045230766940108e-03,-7.531107410159025226e-03,3.637583744689597970e-04,1.431821227073669434e+00
-4.515570761466947830e-02,-8.566563496476429229e-01,8.621189644824794884e-01,1.555717478956534019e-03,-9.215114951651358355e-03,1.685164049479490880e-03,1.489364027976989746e+00
-4.181893298093732059e-02,-8.666925106827099157e-01,9.007966340268362959e-01,-3.886970942402324242e-02,-3.878155220812937176e-02,1.674233012140196458e-02,1.535045504570007324e+00
-6.429497977479134430e-02,-8.234773155555609181e-01,8.143621691256989203e-01,1.337380622567102247e-03,-7.980216925688295160e-03,4.286180570343813521e-03,1.419756531715393066e+00
-5.143589020318718036e-02,-8.531140736082136744e-01,8.794790839574252450e-01,-1.153550728721972063e-02,1.277918419505696523e-03,-8.042882589802371335e-03,1.502059578895568848e+00
-2.077600482039546059e-02,-8.429096451510401655e-01,8.550097047752422963e-01,-1.421181852123372391e-02,2.571163371892416175e-03,-5.558997494248676258e-03,1.470930218696594238e+00
-9.964171595398928910e-03,-8.388417097082484508e-01,8.510647884985095279e-01,1.944743888364373246e-03,1.093604174312259912e-03,-1.069764344129738032e-02,1.463712573051452637e+00
-3.056677682505549998e-02,-1.018170703973628743e+00,1.098394038735053924e+00,-4.972313498010602628e-02,-1.415230034429344197e-01,5.332870330063314845e-02,1.854970455169677734e+00
-4.541930193306486369e-02,-8.310075021912809445e-01,7.923555947218922091e-01,-3.057792993224690576e-03,-1.002627111835661358e-04,9.957089949449578550e-03,1.406231522560119629e+00
-9.475409485406580123e-02,-6.908354898782436138e-01,8.088187111462838974e-01,1.198448100617521058e-04,1.988094397530017297e-03,1.979596449621366314e-02,1.308261156082153320e+00
-1.059981349257242689e-01,-6.009915900798702415e-01,7.932795818381814801e-01,5.235084753229665364e-03,-2.423193711182506163e-02,-4.825573719861755290e-02,1.227878332138061523e+00
-5.630740819411098053e-02,-8.002634831056880671e-01,7.793847549352931336e-01,-1.021478765963589790e-03,-3.386467284688969657e-03,-2.812453309413378948e-03,1.368806600570678711e+00
-1.285402110381185237e-01,-4.846611494571577694e-01,7.581086558658552965e-01,3.396745721428442305e-02,-4.386783938203039131e-04,1.368046471808173625e-02,1.110290884971618652e+00
-1.001644745440747192e-01,-6.653669417532126484e-01,7.686905677775225376e-01,2.432721126042261799e-03,2.154037153945674923e-03,-5.373513835561111174e-02,1.254645824432373047e+00
-8.476353290059752965e-02,-8.156771433441980523e-01,7.895451726631421696e-01,-2.170604723392945395e-03,1.096541832993659475e-02,6.922950357137485147e-03,1.392197251319885254e+00
-6.179395088137765168e-02,-8.102408176403669282e-01,7.556027565096764542e-01,-6.081863276816254667e-03,1.249190035085158933e-02,-1.652290809200077874e-03,1.356714963912963867e+00
-5.571926163719124331e-02,-8.241084192861752866e-01,7.843127742238897859e-01,-8.341989192456416430e-03,1.903436906689547330e-03,-1.489805132380211472e-03,1.393475294113159180e+00
-5.198257691517080281e-02,-8.314583699265427619e-01,7.959658777603634272e-01,-1.172634283752598851e-02,7.327692788475773621e-03,6.365719956471952573e-03,1.410053014755249023e+00
-5.277784951548399051e-02,-8.292532409166661900e-01,8.140413200563663132e-01,-6.195721824267636738e-04,4.823189527916383647e-03,-3.166065999916852034e-03,1.423887014389038086e+00
-6.420737353514524570e-02,-7.523021427333044242e-01,7.981001958100830684e-01,2.102731046947668887e-03,2.007604286112315076e-02,1.471507496051875120e-02,1.346205830574035645e+00
-6.209602965461125806e-02,-7.972916627393474842e-01,8.177878275530826579e-01,-1.522959610738330127e-05,8.772643093898092534e-03,-8.886664011450108938e-03,1.400736570358276367e+00
-2.826475850912189836e-02,-7.086663572160782909e-01,6.646050474794146234e-01,-1.785678375049525035e-02,1.493099931336776959e-02,3.639723174395463872e-03,1.190004110336303711e+00
-4.604037392485406388e-02,-8.314415496896437885e-01,8.006083706339356398e-01,-4.958336801977866748e-03,3.053872055989560221e-03,-4.126761099906233951e-03,1.413782477378845215e+00
-4.956468223523372713e-02,-8.373488529243908740e-01,8.085042346126514179e-01,-3.952392576004955423e-03,6.027791073228278701e-03,3.360680339584603497e-03,1.425850272178649902e+00
-4.539103314267955991e-02,-7.853677383165856840e-01,8.036896142203646676e-01,5.357433635501708535e-04,2.005929325799406249e-02,1.225779140417753051e-02,1.377846956253051758e+00
-4.570627890984850505e-02,-8.269113249909261221e-01,8.099473378446836458e-01,7.078414196974939772e-05,8.078264977397921209e-03,3.274587188851487210e-03,1.418130159378051758e+00
-4.321449654768596410e-02,-8.279223242216713352e-01,7.882821321486334076e-01,-7.396079062658475478e-03,-2.258254013523268780e-03,1.340834311771452680e-04,1.399933695793151855e+00
8.207924381617548448e-02,-1.528334829379809134e+00,8.332471488072845656e-01,9.074966271627521452e-02,-3.239363996310742899e-01,4.296613380267473581e-02,2.170812606811523438e+00
-6.177056724359043793e-02,-8.021678731202629420e-01,8.178328797470064693e-01,-5.398476525141640385e-03,1.001715902554705523e-02,-2.289346100688000041e-02,1.405385017395019531e+00
-8.277281933828872784e-02,-6.825582998487773612e-01,7.899122053144330691e-01,-6.489189602852173111e-02,-7.802562764763677598e-03,-6.688257658747008561e-02,1.292664289474487305e+00
-8.331166165594483530e-02,-7.140624895889738921e-01,7.959950798146823159e-01,3.860259842736364633e-04,7.684586438130620520e-03,-2.880222500850484688e-02,1.314654588699340820e+00
-6.121710087404490241e-02,-7.211174227487677779e-01,7.917088346017430167e-01,-1.043483053377439879e-02,9.698158355069409764e-03,-3.199422188560786112e-02,1.315095782279968262e+00
-1.315329223028312289e-01,-6.694442154277148171e-01,8.329928313260354100e-01,3.150298072913929742e-02,1.293622522958661793e-02,-1.372986446449816211e-01,1.341089010238647461e+00
-1.670848900335362153e-01,-3.910743918206116554e-01,7.825091655279571290e-01,-2.212262995044316297e-02,9.012221034838851369e-03,1.221322703335084824e-02,1.080165982246398926e+00
-3.686600902546573189e-02,-8.305913122845951513e-01,8.123872867570337553e-01,2.092538746283506036e-03,8.740032137198496930e-04,2.205769588115995793e-03,1.423142552375793457e+00
-2.190006603744305835e-02,-8.235115438298116208e-01,8.051718464204680181e-01,1.362422626912490305e-03,-7.007678044468816474e-03,9.568598177764110768e-05,1.410592794418334961e+00
-3.651742714125362499e-02,-8.343996096849199962e-01,8.117039889289505705e-01,-2.548417225501824006e-04,-2.006227030055097484e-03,-5.974090086744833581e-04,1.425794363021850586e+00
-4.543208424403003681e-02,-8.364747057398369545e-01,8.099205149331382136e-01,-1.405334170190133307e-03,-9.706657237562703062e-04,1.882825857199743125e-03,1.426189422607421875e+00
-4.215853136190885614e-02,-7.191243103770553757e-01,7.954260973534029722e-01,1.425249270571421782e-03,-3.074638702391245884e-02,-2.261324274477291563e-02,1.315759420394897461e+00
-2.840379200932986042e-02,-8.221102904652827226e-01,8.045053075567755174e-01,1.587513555598073873e-03,-7.637021537392167138e-03,2.776063682409183036e-03,1.408899784088134766e+00
-4.160272217352330160e-02,-8.303648843509375821e-01,8.062590355499865691e-01,5.824884647543099444e-04,-4.703791059564756474e-03,1.881742257942183288e-03,1.417693376541137695e+00
-5.188442296275763699e-02,-8.275020576700392594e-01,8.022752069912018058e-01,-3.435265288046216933e-03,-7.008882005043891219e-04,2.255514484233147633e-03,1.411993145942687988e+00
-3.782457032550269604e-02,-8.541968947160661907e-01,1.019439629340650466e+00,1.309951033736271586e-01,4.249471398246955703e-03,-1.147415348304680997e-02,1.642961025238037109e+00
-6.275343978515088295e-02,-8.222925514158332394e-01,7.981895267265782801e-01,-3.464927383028616227e-03,1.583636861085269132e-02,5.461135745099221679e-03,1.404606819152832031e+00
-9.874820693892089052e-02,-8.505299344429486652e-01,8.553968693649152133e-01,9.604805152686086978e-03,6.416282781390635070e-02,-5.801539671355125660e-03,1.485128164291381836e+00
-7.544843120320895991e-02,-8.533487613809153105e-01,8.767839870831597437e-01,4.248602253218479799e-03,1.655756979725293496e-02,-1.684580894438615379e-03,1.501167058944702148e+00
-2.558934225126252571e-02,-1.020809053699126334e+00,9.260871103275818417e-01,6.256918737475537784e-02,2.607116971818190451e-02,1.131587429409390208e-02,1.690397977828979492e+00
-4.526634624676806329e-02,-8.303693113051855423e-01,7.901270641222520874e-01,6.190682980064152532e-03,2.123190472695030834e-02,-3.956756642064854917e-03,1.404155611991882324e+00
-4.510638774060248685e-02,-8.113832789721932004e-01,7.888440834415240133e-01,1.862789753016952723e-03,-5.529215390174141778e-03,-4.568706474157422162e-03,1.386309981346130371e+00
5.375178384614801366e-03,-7.617517141832034211e-01,7.777078696525260293e-01,1.347609843967953296e-02,-1.233023478413379503e-02,-5.021457158878723549e-03,1.333617329597473145e+00
3.766322813586858373e-03,-7.415780519286372385e-01,7.747471279944764255e-01,-3.662706046073570471e-04,-1.412042298994212533e-02,-1.007071476767752889e-03,1.313467741012573242e+00
-1.301913334166981268e-02,-7.038903892721700695e-01,7.688246888231263787e-01,4.944961232872140122e-02,-1.942459314476920398e-02,7.559215204774189130e-03,1.279599666595458984e+00
-4.624277873023470431e-02,-5.284586510082206479e-01,7.288513562728480277e-01,6.148485197722815265e-02,-6.746219068341667091e-04,6.792468876530090988e-03,1.103878021240234375e+00
-3.110157886337745065e-03,-7.592904543910193871e-01,7.927446520610169634e-01,2.311551234144715306e-02,-2.226984609147936167e-02,-3.147152582274542060e-02,1.346501231193542480e+00
-5.422628585136969603e-02,-5.345228232792681444e-01,7.463534574770172014e-01,5.561037424002927138e-02,2.672064141357837364e-03,7.820309640149316482e-03,1.124993681907653809e+00
-6.372103294512323005e-03,-8.523569271148740967e-01,8.460670990623679888e-01,1.072046309352747417e-01,-1.509753246673708332e-02,1.799581425292290718e-02,1.483114123344421387e+00
-5.122651192574018131e-02,-5.792016753506119553e-01,7.806138011357395268e-01,6.213826501736464253e-02,-1.287596282084230333e-02,-5.250853810357784118e-02,1.195934534072875977e+00
-3.808072073017113035e-02,-7.092164466518537935e-01,7.772248348842617505e-01,4.787346073331709244e-03,-3.248729972717952913e-02,-2.322495966099322878e-02,1.291193366050720215e+00
-4.669011776000241143e-02,-8.373716587181589954e-01,8.118185756518248031e-01,2.043961197199733060e-03,5.315594009418666242e-03,-2.960040686011602279e-04,1.428677320480346680e+00
-4.577704008532086644e-02,-8.353866559142482107e-01,8.111459648650042320e-01,3.419619895451078348e-03,5.469369357301832185e-03,-2.419164407661467654e-05,1.426380038261413574e+00
-4.821857272446421205e-02,-8.304188176583158221e-01,8.128601322974637888e-01,2.350026159736274406e-03,4.290792075246092213e-03,2.773753904952281843e-03,1.423701047897338867e+00
-4.265125029406579421e-02,-8.491038664210752707e-01,8.580447313602174164e-01,-8.684780163452866710e-04,5.528005216263408121e-03,-1.019863123295560933e-02,1.479322075843811035e+00
-5.476817646323304395e-02,-7.697214824442529801e-01,8.107273681836326684e-01,-1.219490949162328926e-02,2.196399479902879856e-02,-2.722666202083962386e-02,1.372277975082397461e+00
-4.032067070392379021e-02,-8.282133912966846978e-01,7.648444013123871787e-01,1.076541447808683147e-02,3.114308501152123366e-03,8.286804564736040962e-03,1.379866719245910645e+00
-4.118940374510476204e-02,-8.389809353352325472e-01,7.769933469473361276e-01,2.485549726440379080e-04,1.612140309594331479e-03,-9.481628414393504511e-03,1.399611115455627441e+00
-5.774034073129825917e-02,-8.315147986585994522e-01,8.067989962369851442e-01,8.079875609150587862e-03,3.640173375546034394e-03,7.655364395758168863e-03,1.419691920280456543e+00
-7.977859527027951481e-02,-8.102080509312434842e-01,7.843730547630595185e-01,-4.092096059209390790e-03,-4.461773948024867764e-02,-1.021846078115799632e-02,1.384854793548583984e+00
-4.343456656171510583e-02,-8.031151525045189254e-01,6.750640989128684488e-01,-1.312328197029111361e-02,-3.267414970500571308e-02,-2.376118132168251323e-02,1.282418727874755859e+00
-4.587264337375912548e-02,-8.359738132773710806e-01,8.084638959352483667e-01,-8.493031075838080451e-03,-7.560875813784888322e-03,-1.623322426444103600e-02,1.424900531768798828e+00
-2.835656399240687672e-02,-7.470057840012229722e-01,7.244721203318478242e-01,1.461003067973498937e-01,-9.288376109566534589e-02,5.084003102765622534e-02,1.312211751937866211e+00
-3.721611253135279768e-02,-8.294704794200941089e-01,7.481013623349369590e-01,-1.989672033965990752e-02,1.816280534264797691e-04,3.370998367097981837e-03,1.366668820381164551e+00
-5.442797374162491875e-03,-8.113128744179343155e-01,5.821642246299035817e-01,-1.286807840499456547e-02,-3.606160440065315359e-02,-3.564213102401713601e-02,1.215093731880187988e+00
2.180036793674759721e-02,-8.896412945718672471e-01,5.954340566152805936e-01,1.728735565571736243e-01,-2.867147226222703793e-01,3.726877326046929007e-02,1.422340989112854004e+00
-6.366417163944979030e-02,-8.637427308076784938e-01,7.533498334801358443e-01,-6.796883633201412402e-03,-6.598205302279611106e-02,-1.793173559846616624e-02,1.405516624450683594e+00
-6.185697419584505752e-02,-8.131037950154922367e-01,7.054015039048022739e-01,-1.375386150635834331e-02,-5.931099778364574276e-02,-1.432099538275870797e-02,1.319543123245239258e+00
-4.343916375542625913e-02,-8.073234995186443497e-01,6.639992436067182480e-01,-6.253274001537419136e-03,-7.695521721715550822e-02,-5.069003603067160323e-03,1.281542062759399414e+00
-6.316201801931456417e-02,-8.282215002269519566e-01,7.479146493437098808e-01,2.086622555850673431e-03,-6.122221988937146669e-02,-5.600449360996513463e-04,1.369285106658935547e+00
-3.319981757186947491e-02,-8.472491028915501987e-01,7.124437776586762805e-01,-2.854616348793407449e-02,-3.474204281140175904e-02,-3.158772956489785261e-02,1.354514718055725098e+00
6.861748157090533096e-02,-8.123623864755904478e-01,4.008275818590439910e-01,1.023486867664959443e-01,-2.747378358793510222e-01,-5.041215278589253335e-02,1.201936841011047363e+00
-3.856626052109597691e-02,-8.123789818914288752e-01,8.080465166609681615e-01,-3.614287968997455074e-03,-8.194579886532315019e-03,6.668017891822945395e-03,1.403934836387634277e+00
-6.398780239960613625e-02,-8.182352047227856584e-01,7.694454919474403853e-01,-7.993737877126563113e-03,1.286970499816213719e-02,1.113350623306954244e-02,1.375927209854125977e+00
-4.461629777578031419e-02,-8.311614485857999890e-01,7.989230946276795198e-01,-7.775277051459683446e-03,-9.030024307904548422e-03,-7.387930377832559528e-03,1.412191033363342285e+00
-5.362420857373402516e-02,-8.232630946453201037e-01,7.932187863777067083e-01,4.545214719619941656e-04,-2.967471188226104145e-03,3.841140940207207928e-03,1.400471925735473633e+00
-5.922290312372995025e-02,-8.199280755415440103e-01,7.706155643208120187e-01,-6.633984593184458906e-03,-3.947244417158286248e-04,1.602675979907281986e-02,1.378212451934814453e+00
-5.217201410460541033e-02,-8.163961869088873780e-01,7.451511043216584307e-01,-1.106212690148215480e-02,9.568137945395917146e-04,1.472453797202003326e-02,1.352818012237548828e+00
-4.663948049217309100e-02,-8.227365010447931226e-01,7.331746951959446923e-01,-1.648634221810103828e-02,1.414397125786442250e-02,1.420946957115230835e-02,1.348209738731384277e+00
-3.915337313980263301e-02,-8.267325349035197224e-01,7.568125754669483563e-01,-1.364596820481694429e-02,-2.423913394483992109e-03,1.208722023279257783e-02,1.371766567230224609e+00
-2.343399455118783808e-02,-8.095822691147347427e-01,8.012780120503435466e-01,-1.999258576321283516e-03,1.262913101407088685e-02,-3.111425762622800541e-03,1.395365357398986816e+00
-5.088739065805266554e-02,-9.102646735233050901e-01,9.480959142601931289e-01,-7.407196297263214657e-02,-6.428134423934148134e-02,-8.429685781362671743e-03,1.619898080825805664e+00
-4.240267296432768257e-02,-8.096398065814860434e-01,7.825207246159430197e-01,1.220563335926186030e-02,1.050548415849619256e-02,3.148957173259760850e-02,1.380512952804565430e+00
-1.045978920219547449e-02,-8.225352141347692658e-01,8.064355527967049797e-01,6.647694494916420345e-03,1.315339322009847350e-02,4.699119291188696285e-03,1.410986542701721191e+00
-4.017134863057976457e-02,-8.309604164069722687e-01,8.137872299897014328e-01,7.311436612736253379e-04,8.784974546341505972e-03,3.204395246857625126e-03,1.424836039543151855e+00
-2.402385408289183649e-02,-8.172400468974887477e-01,8.050953248639596271e-01,-7.975170124180459494e-04,5.490527521326789284e-03,-4.269068788900014753e-03,1.405150651931762695e+00
-2.682355804612760949e-03,-8.078399430848526297e-01,7.956398561178296136e-01,-4.347395981819616485e-03,4.888874896863679490e-05,-3.080398193769927438e-03,1.388689160346984863e+00
-6.744050678465846049e-02,-8.092894604137373937e-01,7.227227741245221271e-01,-5.168408118028104854e-03,-4.144330406461071981e-02,-6.912799604292883815e-03,1.329005599021911621e+00
-6.518158125307625672e-02,-8.103100075630543797e-01,8.347453343193992348e-01,1.543503203034078501e-02,-5.405785802345576541e-02,-8.241748442112135919e-02,1.437186598777770996e+00
-7.113785614764189802e-02,-8.130307392552027501e-01,7.776299387231537796e-01,1.094246221425959327e-04,2.117986782859401958e-03,-3.997841348368260696e-03,1.378610968589782715e+00
-7.720654569363452624e-02,-8.099868220455057610e-01,7.890659214854336412e-01,3.396498863848726023e-03,3.671567639349374718e-02,2.018842667143714697e-03,1.387902498245239258e+00
-6.635616230560036077e-02,-8.584188967773920265e-01,7.770267199224910604e-01,6.771752763557433233e-03,1.055145014057648628e-01,1.445602578818646310e-02,1.428577780723571777e+00
-3.693552172390031363e-02,-9.659968041088737856e-01,7.321348563788031560e-01,-2.892721178837058538e-02,1.921433926612450827e-01,5.171114256071879939e-02,1.513415813446044922e+00
7.599700265909337116e-02,-1.229006603238174566e+00,7.228572744065453470e-01,-2.820861782949714638e-02,3.603456499722894057e-01,-1.203240626940085822e-01,1.844176054000854492e+00
-4.321350574994794330e-02,-8.278801983453973889e-01,7.927403091155561521e-01,-4.773911709338065322e-03,3.466964995553076939e-03,-2.561003698692053496e-03,1.403777003288269043e+00
-5.013530378717082070e-02,-8.278434913789349814e-01,7.924963144584421526e-01,-1.263687030878249276e-03,-2.433831584591335858e-03,-1.708295034869568253e-03,1.403642058372497559e+00
-6.588198623261946885e-02,-8.173450507452224567e-01,7.782023867292261476e-01,-4.671556740531017035e-03,1.683351446389851492e-04,-4.089491397989712153e-03,1.382602334022521973e+00
-5.364844499380667930e-02,-8.225839206092108169e-01,7.890979551817864923e-01,7.786527539123259175e-05,2.525454536920973287e-03,-5.560368918193414091e-03,1.396285295486450195e+00
-5.772712156239587222e-02,-8.228113642249285098e-01,7.787088980924861126e-01,-6.636056617354259279e-03,-7.387320146622002905e-03,2.769355905768027242e-03,1.387530922889709473e+00
-4.238803042205331606e-02,-8.151875792379701391e-01,7.898047665494178915e-01,-2.430614903793103503e-03,5.728395898318910419e-03,1.008281687342717659e-03,1.390324234962463379e+00
1.030209973318341188e-02,-8.000264574650156613e-01,5.234869983445681330e-01,9.377696226983492367e-03,-6.400456070972226907e-02,1.963304653201666458e-02,1.161701083183288574e+00
3.148169581391013772e-02,-8.165487240615573183e-01,5.410134327645018670e-01,1.226382745082144933e-02,-5.723753804486968189e-02,-6.936921351757703233e-03,1.192183136940002441e+00
9.641505478022710518e-02,-7.803694930112116124e-01,3.504917084837501640e-01,7.850802944416514217e-03,-2.821762120772844384e-02,5.542726805235477679e-03,1.028952121734619141e+00
3.489344070168216849e-02,-8.041563566004473751e-01,5.197964801956521663e-01,4.837937519992569456e-03,-6.544139535243802264e-02,5.146529014435966692e-03,1.165757536888122559e+00
-4.978218811511560260e-02,-8.509172646889243685e-01,8.527960724735834663e-01,-3.757386688874456843e-02,-5.778163243435952001e-02,-8.663828133191461486e-03,1.481225371360778809e+00
-9.384831271031171540e-02,-5.733174827631385417e-01,7.850548143356166353e-01,3.610454027932397114e-02,3.132572494468906926e-02,4.352096247277278257e-02,1.198459506034851074e+00
-4.548764165717009145e-02,-5.582830874790796205e-01,7.535512047217298726e-01,7.552330194672789154e-02,-1.169010758652963208e-02,-1.156867629141926195e-02,1.152860999107360840e+00
-9.216498016386395764e-02,-4.898653114435730371e-01,7.464927748727970824e-01,7.180288586583045973e-03,-8.712394439598649624e-04,7.195548506660476122e-03,1.093324780464172363e+00
-9.334617136131598270e-02,-4.377306169924585211e-01,7.419313447423797614e-01,2.092599148881213802e-02,1.495703472764567041e-02,7.478500442541401172e-02,1.059579610824584961e+00
-1.238882907775349373e-01,-2.040153418649234829e-01,7.216290269448680794e-01,1.607402958897205525e-01,-5.854908915943105030e-02,-5.427661184572605407e-02,9.411178827285766602e-01
-9.634737762983432152e-02,-6.191473561213980403e-01,7.858886432038834080e-01,3.420222977296152531e-03,1.117816603890662772e-02,-1.303496320400846127e-02,1.230370998382568359e+00
-3.897342436901705953e-02,-5.685816396030913822e-01,7.485286195580920232e-01,6.739292575637582938e-02,1.232523755396754822e-02,9.969488625174206115e-03,1.154162526130676270e+00
1.286853051514200673e-02,-7.945674581418058491e-01,7.880735906465926588e-01,-3.116550825399709915e-02,7.496929484955208202e-03,-1.251003612598402745e-02,1.371997117996215820e+00
-4.794491508150403036e-02,-5.674740966069711234e-01,7.580382419794310378e-01,-5.240722107185894624e-02,2.628505764601879111e-02,-3.747261716229080553e-02,1.163089036941528320e+00
8.576653429522854838e-03,-7.444745342060048454e-01,7.685013698334971499e-01,-1.965423781853960564e-02,1.633420164524063828e-02,-1.245998852407977260e-02,1.311205148696899414e+00
-1.622166098541341084e-01,-8.514422368319031209e-01,1.281564168527085545e+00,-3.153338027581673031e-01,-9.572910099627146563e-02,3.420950657741380491e-02,1.970770120620727539e+00
-2.222619852221536380e-02,-6.347409706566412568e-01,7.585583576652989990e-01,-7.557885162234363741e-02,4.543519140262002737e-03,-9.575272182571595335e-04,1.216652035713195801e+00
1.165861075595520970e-02,-7.613191104118133268e-01,7.876561680285424361e-01,-5.102478626231069653e-02,-1.872460983343563617e-02,1.233323166926647563e-02,1.344921708106994629e+00
2.617876255027427011e-03,-7.583931508913476227e-01,7.782176301753627179e-01,-1.814864610467290668e-02,-1.085897133155676320e-02,3.827288646150262506e-03,1.331284523010253906e+00
2.834353433301125408e-03,-6.627105090646024932e-01,7.514236682524813027e-01,-4.178289804863665607e-02,-1.041609914797984350e-02,-4.489743643023684679e-03,1.227672219276428223e+00
-1.603636387469194874e-02,-8.053414119991366693e-01,6.606657252682167636e-01,2.935676400134275125e-04,8.717750325704379938e-03,-5.010095942447533729e-02,1.273896098136901855e+00
1.093503575554558016e-02,-8.716338200947458814e-01,6.545944026286506512e-01,2.102832761713824966e-02,2.759113300865412982e-03,3.230412667698745466e-03,1.327659487724304199e+00
-5.504458597725207097e-02,-8.637539540776476565e-01,8.744006266806620964e-01,-3.328723904755460233e-03,-2.123594624487789521e-03,-2.242461520967866024e-04,1.506511569023132324e+00
4.668983639891105542e-02,-7.574192307926653767e-01,5.325304986962274834e-01,-2.147501398118101257e-01,-2.645476195472243330e-01,-7.784037338901762804e-02,1.280542016029357910e+00
-3.004183035825816125e-02,-9.298921086308511441e-01,7.907441079612188561e-01,-1.453031294296051011e-02,-1.332930331833576398e-01,2.367541860371060250e-02,1.509178757667541504e+00
-4.074858244187646444e-02,-8.327567761195900919e-01,7.761643649463036976e-01,1.332517588845727810e-02,-3.255405718142819621e-02,2.887078530732638260e-02,1.395649671554565430e+00
-5.549750339144106370e-02,-4.589547826576758083e-01,6.174421535379114312e-01,-7.791089511799255407e-02,-1.176376059324343443e-01,3.273543088133636092e-03,9.730808138847351074e-01
5.082690341954812507e-02,-8.005323289502037643e-01,3.671543200247678329e-01,-3.421569277591731545e-02,-9.618103366780808572e-02,2.341551292583514687e-01,1.135752677917480469e+00
1.293750610254481570e-01,-1.127628480254655452e+00,3.322597763131146520e-01,-2.244847211361974126e-01,-1.986839838024917204e-01,-2.939719235525118379e-01,1.550842165946960449e+00
-7.352852818280508629e-02,-8.541034248656781402e-01,7.715677718601315904e-01,1.398482704832530212e-02,1.194528962522595078e-01,-1.490953775650658529e-02,1.423799991607666016e+00
-3.263176658165845706e-02,-5.129682676990013901e-01,5.340118396332661499e-01,-1.874631463397772868e-01,-1.354053646357615548e-01,-1.277403378644980658e-01,1.016548871994018555e+00
-7.014285242541871968e-02,-6.940306782918465034e-01,7.600175884188089537e-01,-2.601362800384484503e-02,2.150769829111468315e-02,-3.846242160726976583e-02,1.266564369201660156e+00
-1.444305800809064788e-03,-6.976319651468527727e-01,3.022618142669200592e-01,-1.324904167148096557e-01,-6.459613558400405242e-02,-1.532485184442278214e-01,9.612416625022888184e-01
-3.630237784867438450e-02,-8.285355522361037561e-01,7.718990400391482209e-01,3.780095846428676090e-03,-2.312181274652952846e-04,-2.448237152861409971e-03,1.386062026023864746e+00
-1.047403961402721961e-01,-6.715529005497250514e-01,8.057801007350903211e-01,-6.743981765034721965e-02,-3.633408393316835822e-02,-4.515763415494266492e-02,1.300054192543029785e+00
1.233413215025097043e-01,-1.043331950059157576e+00,4.601204996569665528e-01,-6.193074213707213532e-02,3.742896052219135683e-01,-7.210036623412025003e-02,1.521459102630615234e+00
-3.244236817362713965e-02,-9.012841328004514985e-01,8.792960695104049540e-01,1.415418707120077169e-01,1.513685856188894674e-01,2.103846743247457518e-02,1.583817243576049805e+00
-3.718247609982864438e-02,-8.223273251997499367e-01,8.002989167290379680e-01,1.001329206282263427e-02,1.924511278436799241e-02,5.734296778601154741e-03,1.406016469001770020e+00
-5.714346119330409451e-02,-8.378341357210727924e-01,7.842260467647435007e-01,-1.492662986166704703e-02,2.258486365753551925e-02,2.600207251609808201e-02,1.406576275825500488e+00
-1.847445410674056904e-02,-8.660035402725680953e-01,7.093243802330140291e-01,2.898323473976735162e-02,1.532733970831912929e-01,2.063585775248926238e-02,1.392516851425170898e+00
-7.900419049095948332e-02,-8.004303272192243579e-01,7.429169057280337052e-01,1.543691776431842732e-04,-1.521420934157501938e-02,-2.146297944188572081e-03,1.337786793708801270e+00
-4.680020670526929133e-02,-1.180781913992286158e+00,9.472387205147581035e-01,2.366941962533632149e-01,1.884505376394306209e-01,-1.647358498797202309e-01,1.938369631767272949e+00
5.887127010040849040e-03,-9.156972553090727551e-01,6.036277448847161553e-01,6.640033346404049241e-02,2.198631885587004897e-01,-1.691779476627156831e-01,1.414775609970092773e+00
1.073487474671780406e-01,-1.443292363656313970e+00,6.978434432925025854e-01,-3.313524792203179081e-02,2.484329085919778080e-01,-1.134824817293343946e-01,1.973804116249084473e+00
-1.067713724708810874e-01,-8.294593273311819948e-01,8.642034573250845231e-01,3.966822724045309008e-03,7.155165263134499742e-02,2.179944526319190293e-02,1.477705478668212891e+00
-5.437593993700400030e-02,-8.331105967473393381e-01,8.071198867951562272e-01,-1.496129893073788600e-04,-8.025404846555490076e-04,-4.490920156580245105e-03,1.421105861663818359e+00
-4.462853463260246789e-02,-8.287180700525116350e-01,7.888963316270355408e-01,2.334987063088736232e-03,1.605232724131733582e-03,7.402798269739480248e-03,1.401180505752563477e+00
-1.656358388790645300e-02,-8.293755292025447590e-01,7.080147345623177824e-01,-3.018592672234446123e-03,-6.771467061545563765e-04,2.294377524519888856e-02,1.332753062248229980e+00
-4.515930804453938130e-02,-8.154769201952039026e-01,7.964842171469865839e-01,-5.581012602803989879e-04,-7.414106891013402985e-03,-3.436485614112840415e-03,1.396526813507080078e+00
-4.467204670994213977e-02,-8.363541643416426696e-01,7.817714367602334180e-01,-4.969406247328667092e-03,-1.955500570163771438e-03,-7.346950682563273792e-03,1.401533961296081543e+00
-6.740226361787210463e-02,-7.917473992408153860e-01,8.158083176864923125e-01,-4.552963630559177396e-04,-7.120524616676005437e-04,7.749285424651006920e-03,1.394513726234436035e+00
-5.196147495922966847e-02,-8.314780963327242924e-01,8.094895697871462570e-01,2.004882282191651054e-03,5.518571749515490364e-03,-5.239572745074243037e-04,1.421746730804443359e+00
-1.966681731259392607e-02,-6.324227800865335203e-01,6.389872830412087756e-01,5.161648610726941692e-03,-1.557616376580707104e-02,-6.414536201604081889e-02,1.107267379760742188e+00
-5.334856145356899060e-02,-8.299042254661730400e-01,8.145852577148825491e-01,2.593764932446382399e-04,-1.527930520905117478e-03,4.348589959794331612e-03,1.424924850463867188e+00
-5.486101351054551573e-02,-8.240440875072739813e-01,8.137317823884322454e-01,-2.014490295012479580e-03,-2.820990782934036396e-03,5.475768329778487285e-03,1.419270515441894531e+00
-2.112011507739516153e-02,-8.767894060393024436e-01,7.033826683859680795e-01,-1.127501762496022908e-01,2.186368049609807573e-01,2.030274789652788264e-02,1.435196757316589355e+00
-6.374064441043936213e-02,-8.294125882440837039e-01,8.063782151017728772e-01,-7.743532494740580120e-03,1.760719533561851818e-02,-4.833337010119117400e-03,1.418014764785766602e+00
-2.247041443618400663e-02,-8.227883164079559108e-01,8.057038477849953750e-01,-1.117939121227133799e-02,-7.018692417204473212e-03,7.324594181083185149e-03,1.410626649856567383e+00
-5.161024103471115870e-02,-8.531512941442083164e-01,8.643980934385162573e-01,1.934450861838414755e-03,3.523690630139332536e-03,-3.083586661903756770e-03,1.488567948341369629e+00
-6.299648483786404740e-02,-8.481781149018274846e-01,8.134135148444309182e-01,4.273548421479609304e-03,3.768788445209082794e-02,-1.004259874925856298e-02,1.441306471824645996e+00
-8.877349586146468519e-02,-8.332749699068633387e-01,8.618045640143329189e-01,-3.553194229239335818e-03,1.936374073529504442e-02,-5.039816873814811221e-03,1.472014546394348145e+00
-3.566905915747803357e-02,-8.570860374133167925e-01,8.593614343513631404e-01,3.153650860907141612e-03,8.777305978674251885e-03,1.591282786815824207e-04,1.487030506134033203e+00
-9.467708275454175121e-03,-8.363643576796117030e-01,8.317097959211573466e-01,3.673828868571297427e-03,5.519189988371971806e-03,8.245494268073525965e-03,1.444728493690490723e+00
-9.164383248515546587e-03,-8.260439360712434897e-01,8.240590031668069138e-01,4.076743896358482090e-03,-8.428797795670460100e-03,-5.401180520784588414e-03,1.429177045822143555e+00
-9.122607887785986677e-03,-8.698285187785365080e-01,8.540427283428376759e-01,7.373699825386823004e-02,-5.344493875505200095e-03,3.031433611727983850e-03,1.498407602310180664e+00
-9.318406712536203562e-02,-7.321466465767054732e-01,9.711227615198391172e-01,2.676416570170321862e-01,5.571172986220486456e-02,-5.648436482488332008e-03,1.563770294189453125e+00
-4.909153322885353998e-02,-8.270369984740975067e-01,7.926089998484417976e-01,-1.007427720786326650e-03,-2.734325835675326371e-03,5.471892835527168188e-03,1.403057813644409180e+00
-4.641369953434250351e-02,-8.264643304100531829e-01,7.899515659139144663e-01,-1.160236290596173897e-03,-5.453305229665973393e-04,8.857027744631233365e-03,1.400226235389709473e+00
-6.644603979358934542e-02,-7.162392900779854799e-01,7.871753501123568419e-01,1.034988011297584103e-03,-2.449466537134865202e-03,-2.398163275194035299e-02,1.306646347045898438e+00
-5.447552119814266097e-02,-8.048923008031125814e-01,8.061282344997049432e-01,-2.196740420394952334e-03,-4.887615770955015641e-03,-1.183155503746595102e-02,1.396453261375427246e+00
-5.622645565353444341e-02,-8.267306575253455803e-01,8.097012039051167953e-01,-7.685895082892420455e-04,5.316343540360092025e-03,-7.837441520674979264e-05,1.418025016784667969e+00
-6.511443411545975168e-02,-8.272313867709667479e-01,8.139158838237161575e-01,-2.127327565629579236e-03,-1.919410806963131166e-03,-2.816526314075709202e-03,1.422493934631347656e+00
-5.224225042033560362e-02,-8.269037915937869077e-01,7.908443809201332053e-01,-1.529196118514612214e-03,2.273675536239887739e-03,9.096701459164444753e-03,1.401525259017944336e+00
-1.293502170784880528e-02,-8.077466244768773951e-01,6.810647211746182483e-01,-4.392077971271710068e-03,-4.475126355385972664e-03,-1.743219123010170124e-02,1.290732264518737793e+00
-4.521709605859221270e-02,-8.410477643179291585e-01,8.103835708400907167e-01,-4.514828938995639300e-03,1.071744206648582269e-02,6.210713713559802042e-04,1.430635929107666016e+00
-8.524689942681572263e-02,-8.172551165703941800e-01,8.282041874664689551e-01,2.075890348370381527e-02,7.990535460046053334e-03,2.714546995033128782e-02,1.429187774658203125e+00
-6.349018000294517905e-02,-8.286538257242024308e-01,8.180616812154055673e-01,-2.880177163619207416e-04,3.044828356178622478e-03,-6.229105527856352784e-03,1.427334904670715332e+00
-5.384731358831693071e-02,-8.278953263821989816e-01,8.139550005000133481e-01,-8.061515870340501817e-05,-1.718957462088439902e-03,-6.182281755533146871e-03,1.422700047492980957e+00
-3.999397704684650584e-02,-8.377385547258885401e-01,7.805771479662434453e-01,-2.126939446470727576e-03,3.170936596558795919e-03,6.332959768602553115e-03,1.401607513427734375e+00
-1.855591120143509215e-02,-8.268267285786728982e-01,7.124888108014736376e-01,-5.505416223523467052e-03,9.764918450508354724e-05,-1.933138819910627804e-02,1.334099769592285156e+00
-5.219394226168300177e-02,-7.710212440786350374e-01,8.880276220105107754e-01,-1.099707477346406614e-01,2.275581756253629642e-02,7.981248064638168938e-02,1.460660934448242188e+00
-1.030292242689713200e-01,-3.927854870906367091e-01,7.509377479634170571e-01,-6.918287116461743769e-02,2.962402943189495694e-02,-1.904275968818270465e-02,1.038624048233032227e+00
-4.634078787584137993e-02,-8.219317169364808162e-01,7.681067199729590955e-01,-3.784090045896781971e-03,-1.148650071459004531e-02,-6.075124285058092037e-03,1.377350211143493652e+00
-3.857061566012733034e-02,-8.301379597158260459e-01,7.868272780585481296e-01,-8.092995767612437552e-03,1.158654058311870370e-02,8.628241220651247092e-04,1.400649905204772949e+00
-4.250891353269949102e-02,-8.354175261478531400e-01,7.944928944756908251e-01,-1.783405718876156926e-02,8.312828468412063881e-03,1.543830852788036310e-03,1.412129878997802734e+00
-2.810705054288503008e-02,-7.754122617860265132e-01,7.974127247522052597e-01,4.819015465356010948e-03,2.039999320431857069e-02,-7.038447517149258939e-03,1.363205790519714355e+00
-2.926868986269862832e-02,-8.312522354193498941e-01,8.097124980430274732e-01,-3.426565907748638099e-04,4.853088349843185864e-03,-3.766526807468785053e-03,1.421277523040771484e+00
-4.062302481948150412e-02,-8.345594489102414748e-01,8.100902204391307038e-01,-6.961092570904273830e-04,2.852705587624993454e-03,-1.326900314423637515e-03,1.424602150917053223e+00
-1.108895462992322799e-02,-8.012501953934645371e-01,7.963449763519289126e-01,8.394512317265592077e-03,1.296701615544907857e-02,-2.938468588344764036e-03,1.383852958679199219e+00
-5.071528315606571580e-02,-8.282477799228562532e-01,7.905999207719949240e-01,-1.095782244009469060e-02,3.148681795033676876e-03,-5.023040188054260849e-03,1.402491927146911621e+00
-8.365093988812570547e-02,-6.675572395236516465e-01,7.468984865309348242e-01,-4.003096808754897837e-04,2.260164656946441961e-02,-7.241267402274796650e-02,1.238137960433959961e+00
-8.503489217890224106e-02,-5.828016396576989333e-01,7.695430593203778091e-01,-2.347697740978301612e-02,2.254605132549583613e-02,-5.081510404695815247e-02,1.189277410507202148e+00
-5.513960515629573456e-02,-9.160073115507776365e-01,8.575005930323820191e-01,-1.074356245102997820e-01,-7.480963922399640198e-02,-3.633070957417186553e-02,1.554041266441345215e+00
-1.515831194951701433e-01,-3.494764665867705067e-01,7.380185108581620579e-01,3.898441083390005724e-03,-2.638424650953259394e-04,-2.049552470047000599e-02,1.003944754600524902e+00
-4.303560742287945717e-02,-7.864238038309395717e-01,8.013350499903978408e-01,-7.992423455545792296e-04,1.891141011906500094e-02,-9.459689365848723136e-03,1.376454234123229980e+00
2.054956189824212742e-02,-8.048969722432867124e-01,8.114391772123147328e-01,-4.038923008014179417e-02,-2.404927998075802407e-03,2.628671627990204502e-03,1.401655197143554688e+00
-8.123838595012536357e-02,-8.464509382305075436e-01,8.549846977152688599e-01,-1.666288376482642731e-03,-2.097824893450074210e-02,-3.160764168758053907e-03,1.476425409317016602e+00
-1.201107922889330104e-01,-4.126910065420416052e-01,7.224920784293289433e-01,5.212290625918457321e-02,-1.195183702167663085e-02,7.644962564899218486e-03,1.025117516517639160e+00
-1.457381490180379713e-01,-4.181766368487015995e-01,7.464926642480003149e-01,-6.738911583293252447e-03,1.183536556435769126e-02,-2.842727904095811511e-02,1.056578159332275391e+00
-1.337182919038027440e-01,-4.184701727399332549e-01,7.279875042754393455e-01,-6.029418921651379798e-02,-1.463448580920057550e-02,-4.341992307788718371e-03,1.039518237113952637e+00
-1.206719272752004579e-01,-4.306996298263419676e-01,7.589719631043215786e-01,-5.962823509404097805e-02,9.988433188526249853e-03,-8.297951974393707672e-03,1.074140071868896484e+00
-1.023808501099855162e-01,-3.668649199035575736e-01,7.348803041365984390e-01,-7.555770367461765724e-02,2.058012466402383417e-03,-1.698421574303873513e-02,1.005189180374145508e+00
-1.439213627483733049e-01,-1.755013735935659347e-01,8.035537217585075886e-01,-1.389574335489633383e-01,4.474208310908434766e-02,6.797153770627992198e-02,1.003205418586730957e+00
-1.699959953693168657e-01,-9.053396453917456066e-02,7.929496278633521023e-01,-5.385258560897094454e-02,5.275010617528957772e-03,1.013344395602029137e-02,9.306732416152954102e-01
-1.419267055981627834e-01,-4.599611197908014537e-01,7.793968452216939458e-01,-2.248934400137929945e-01,1.145207768462141590e-01,-4.791945496341661753e-02,1.200400233268737793e+00
-4.589160410691754677e-02,-8.304187747568069211e-01,7.842298896699896327e-01,-5.524290521714381175e-03,4.165076040513417469e-03,1.503677380250372615e-04,1.398563981056213379e+00
-1.485969406339839871e-01,-1.902664677506478719e-01,8.043455900888347720e-01,-2.306423670749960242e-01,-6.283174751235030830e-02,2.571644952506497300e-02,1.059697866439819336e+00
-6.182799293614833769e-02,-7.742347371051616634e-01,8.110223707738511978e-01,-3.396264113951961289e-02,-3.542750971224212231e-02,-1.280747925795749226e-02,1.378017902374267578e+00
-3.732738880493793876e-02,-4.637523630861800084e-01,4.869436701099095766e-01,-1.920530646907084027e-01,1.734986706775572818e-01,8.012331884406549004e-03,9.388353228569030762e-01
1.437791359312690087e-02,-8.290158716575448672e-01,5.822912996722197088e-01,-1.145687223893735937e-02,-6.404514670026778544e-02,-8.558566232485981251e-02,1.243980407714843750e+00
-1.216240651106578752e-02,-8.162656387768187916e-01,5.985418545782336119e-01,-7.314369894424428697e-02,1.271953282497425841e-01,-6.328466112446333447e-02,1.259845972061157227e+00
-8.778107830327550043e-02,-5.142878108579196361e-01,7.456910591747167860e-01,-7.262458476263141186e-03,-2.929031399647274644e-02,5.498448983523480244e-02,1.115287899971008301e+00
6.921062647910508625e-03,-8.342901510771512097e-01,6.020186381036006784e-01,6.468762552276243263e-03,5.598437114538213494e-03,-1.650260873843663670e-02,1.250366687774658203e+00
-8.638677627067221920e-03,-8.221289951422615649e-01,6.732944215299062618e-01,-1.605535957060717778e-02,2.426183042035541179e-02,2.611904998676440465e-02,1.298511147499084473e+00
9.965683220971041645e-02,-8.928974374230926880e-01,3.891502339940184907e-01,5.446855528531120792e-04,3.810559043043568878e-02,7.545604212557718848e-02,1.173774361610412598e+00
-5.223088099302874293e-02,-8.422987000192605489e-01,8.476242547297457852e-01,3.077888465663449185e-03,-2.324973497278252140e-03,2.576489984158561019e-03,1.464567303657531738e+00
6.324533495091844149e-02,-1.097139080131468880e+00,6.535541750016521378e-01,-1.498020065319072558e-01,-3.896098587667398139e-01,-3.068870585166629580e-03,1.703725099563598633e+00
9.764285926420826489e-02,-8.098216148446971685e-01,3.561858191775758020e-01,-2.845396577664568018e-04,-2.833543707797851752e-02,5.057450296513704008e-03,1.061810016632080078e+00
-7.503786152881646021e-02,-7.601151872954612365e-01,7.991526949779760303e-01,6.710764906851938993e-02,7.801903936096703240e-02,1.202360519892010510e-01,1.381147861480712891e+00
7.139857243989439217e-02,-5.598689604061033442e-01,1.944618682351949013e-01,-7.249434170234650508e-04,-4.271634468208579394e-02,-1.004362953579758660e-01,7.259938716888427734e-01
1.758560079565165135e-01,-1.089465749355902346e+00,2.914585870493220376e-01,4.889590582507119532e-02,1.538837162261458280e-01,-1.443388121069799079e-01,1.378909587860107422e+00
2.791677520840937787e-02,-6.916925932262003585e-01,3.130493886120573332e-01,1.602069240249186233e-01,1.456807284697832217e-01,-2.591794146006597133e-02,9.731417894363403320e-01
-2.827456810446791688e-02,-7.795281465951130473e-01,7.161165269130715938e-01,-3.818159090961966567e-02,-6.936031944377918368e-02,1.199011214644104574e-02,1.302675604820251465e+00
-4.100209640662423605e-02,-7.289374015373625282e-01,6.637074165683422011e-01,-6.323887355364335439e-02,-5.228880589272661555e-02,5.406717826655520892e-02,1.218045473098754883e+00
-1.295159066119680180e-01,-8.878990463885528817e-01,1.265776796170048790e+00,-2.703983618111955312e-01,-1.274170542330447242e-01,-2.077959439785921347e-01,1.994427680969238281e+00
-4.212664425021174497e-02,-8.321692453944605772e-01,7.930162020284019508e-01,9.549124360321898167e-03,1.027082242773893345e-02,1.963574650915331666e-03,1.407846212387084961e+00
-1.813461268104381297e-02,-7.104574221195572026e-01,8.027470740471542854e-01,-8.446083471483070704e-02,-2.261910215749836361e-02,-3.290935314198947803e-02,1.321990013122558594e+00
-7.613128837325643106e-03,-7.147171138595268536e-01,7.731573786128194126e-01,2.281167885752106647e-02,1.864376212209547731e-02,-5.649314712668983621e-03,1.290110111236572266e+00
-1.167206726454184107e-01,-4.941537299830015550e-01,1.218628513380572764e+00,-1.920956144423690837e-01,-2.544727150494131493e-02,-1.654623128131225973e-02,1.594705104827880859e+00
-1.607507102598845772e-02,-8.116909524928236364e-01,8.130758841073304488e-01,-2.617212003384912847e-02,1.531864747325033943e-02,-1.927089485621454393e-02,1.408564686775207520e+00
-9.800127313817578317e-03,-7.919770014008420400e-01,7.914229840305840868e-01,5.447109951466822322e-03,1.016417473777290505e-02,4.111601228507170101e-03,1.371461629867553711e+00
-4.513296684898858956e-03,-8.246907175625207698e-01,8.387582581870179910e-01,9.573580781811722937e-03,6.245384057653344430e-03,1.396108317713719120e-03,1.440773367881774902e+00
-9.844527801030725223e-02,-6.546835884639171654e-01,8.860556816771200106e-01,-3.003667423122144964e-01,-1.703622899758436560e-01,9.247382143618483596e-03,1.477919936180114746e+00
2.222171337002801228e-02,-8.977080103410589595e-01,5.446196072351773276e-01,2.220018230477696294e-02,-1.565697114536860612e-01,6.557234622174845651e-02,1.299099564552307129e+00
-4.770449904766251026e-03,-8.399403518957108128e-01,6.919160029819206859e-01,1.752042022906465449e-02,-2.676837221320936891e-02,6.753705077323400650e-05,1.329587459564208984e+00
2.534945357032086788e-02,-7.520807550462427216e-01,5.089147471997017558e-01,-9.258598048766637778e-02,-2.415032714938183389e-01,-1.444330991696878841e-01,1.215500831604003906e+00
-1.109137300730334563e-01,-1.985399110935666123e-01,6.716530210397727574e-01,-2.251500173377672942e-01,-1.187043280244694937e-01,-1.549586210506673873e-03,9.396910667419433594e-01
-1.160702371955527890e-01,-4.784548736794276280e-01,7.089543178130922607e-01,-2.812451597651712820e-01,-1.666807770215419371e-01,-1.268282010082137645e-01,1.216496825218200684e+00
-8.219503812796595532e-02,-8.005763898882019003e-01,7.602055277837517222e-01,5.641346828983646909e-04,-4.647339607552264037e-03,-1.540312775238735681e-03,1.353125333786010742e+00
-7.303906679535568380e-02,-8.095356695572663019e-01,7.722322870996792821e-01,-7.179068332212493880e-03,-1.735608183808073912e-02,-9.648759316454355583e-03,1.371418237686157227e+00
-7.558775169697151686e-02,-8.098663803673016304e-01,7.710111457975142857e-01,-3.977196994577387144e-03,-1.416491853900436054e-02,-1.084077829723036589e-02,1.370597004890441895e+00
-7.996434464625931660e-02,-8.132224570126567187e-01,7.754788889753901904e-01,2.354800819714722090e-03,-1.659435257138587930e-02,-1.615027436680092909e-03,1.377520203590393066e+00
-7.512549978212282320e-02,-8.036578232832910507e-01,7.524872745666167928e-01,-2.404802783672149464e-03,-8.271861250872010810e-03,-1.966653515072652562e-03,1.348658323287963867e+00
-8.535184856077843163e-02,-8.246181384595708819e-01,7.805939692988541623e-01,-5.323813497648957789e-03,-2.057083766106649475e-02,-5.494312403555702204e-03,1.392115831375122070e+00
2.776116263399477924e-03,-6.761972189776043196e-01,7.567372329591383062e-01,3.602454203658606718e-02,1.199954570689576103e-02,7.138466685568129605e-03,1.243326067924499512e+00
-4.207737180290621604e-02,-8.562946410705605249e-01,8.635616030842874213e-01,2.043915718660516828e-03,-5.519027076967119444e-03,2.241814986086297212e-03,1.490180373191833496e+00
-5.579851283018501251e-03,-8.043779868558680324e-01,8.479639333308033322e-01,-1.224330721945344203e-01,4.480652571833188685e-02,-1.766739503439024653e-02,1.449259638786315918e+00
-5.752870965100338740e-02,-9.466622933165361742e-01,8.831268552352781187e-01,-1.785115402868243592e-02,-7.118474927097984128e-02,3.540827998554271078e-02,1.591125011444091797e+00
-7.662977167909568177e-02,-8.370313710027579290e-01,8.366536484052435885e-01,-2.247975795243176578e-03,-6.111901602050920368e-02,-1.208761779026356481e-03,1.455330014228820801e+00
-4.392695899445468732e-02,-8.495989622006040465e-01,8.765839874759817629e-01,-4.176370450776624140e-04,1.112363981099844055e-03,-9.674943420816164985e-03,1.496115922927856445e+00
-4.912944881850674766e-02,-8.580617635936768073e-01,8.527148142058570413e-01,5.507828428201803211e-03,5.647735695217419305e-03,-1.297457311343526432e-02,1.482537388801574707e+00
-1.876942935333889007e-02,-7.730262550776646480e-01,7.109194688704477683e-01,-1.029883564073303809e-01,-8.124558578150756216e-02,-2.394335456556549377e-02,1.305781126022338867e+00
-3.622792353845410290e-02,-8.280273458416272936e-01,8.098199150307339167e-01,-9.613374341084229488e-03,-1.640809432352824740e-02,4.835622065521830507e-03,1.419083714485168457e+00
-2.409174898222528512e-03,-7.972906842390649063e-01,7.905978622739525674e-01,8.988917207771051797e-04,9.342523423117149103e-03,3.779005898049216799e-03,1.375263810157775879e+00
-6.389636182396404851e-02,-8.474227808583444377e-01,8.651116116689540059e-01,2.537096972974310790e-04,1.975264693690457520e-03,-1.949306057239955439e-03,1.484888911247253418e+00
-5.578142660100861294e-02,-8.529922813677628390e-01,8.983773441479809829e-01,-1.043203538424977185e-02,-2.523115787651019747e-03,1.120676360647811232e-03,1.518874287605285645e+00
-5.762606698797700239e-02,-8.701721008814039537e-01,9.026018146345493598e-01,-3.513465259878503603e-03,-2.943201272236841901e-03,2.915767102740562684e-03,1.537070751190185547e+00
-7.566191726468630974e-02,-8.777392990946546458e-01,9.112241640995106806e-01,1.190242241587684789e-02,1.767248306060070079e-02,1.097927197300355341e-04,1.552479743957519531e+00
-4.805500941000487997e-02,-8.760808527709884608e-01,9.099296696505111415e-01,8.284370348803554718e-03,-4.633459086887520978e-03,-5.694446097408393560e-03,1.548213481903076172e+00
-4.317273382717651264e-02,-1.003968656481194044e+00,1.110145757539643174e+00,-1.212947308299107269e-01,2.129824728670593748e-01,-4.338384093138645398e-02,1.883412957191467285e+00
-6.460657684669915413e-02,-8.734327192213046098e-01,8.761800288463621467e-01,2.751349908624917649e-03,-4.808181675578195513e-04,7.960842272461901223e-03,1.516715407371520996e+00
-6.159628403005670827e-02,-9.314414483864674743e-01,9.476918319687565040e-01,3.046237621765789452e-02,3.743709043197403913e-02,1.917638378128608961e-02,1.631351947784423828e+00
-3.956152582066951168e-02,-8.254891098340404465e-01,8.193775434899254195e-01,1.266946021949888924e-04,1.714355537126250467e-02,-7.850326237197660303e-03,1.425338268280029297e+00
-4.126934314383799707e-02,-8.322598201646451699e-01,8.093613518395971207e-01,1.817016436513849446e-03,4.034416135297552546e-03,4.412552926731822282e-04,1.422019243240356445e+00
-3.700151455258980648e-02,-8.137690979618381615e-01,8.031765377372485082e-01,-1.467230631063505845e-03,-2.660712291123936563e-04,4.018321922557415923e-03,1.400694608688354492e+00
-3.703198225622230527e-02,-8.294441306079539666e-01,8.119411886661948019e-01,4.157370250412698032e-03,9.141459696916475267e-03,1.911807857090773530e-03,1.421872973442077637e+00
-4.761165742555888147e-02,-8.322121349390473322e-01,8.032010953089485650e-01,4.078798676269063984e-03,-1.070695140747596067e-03,-1.540221925207780652e-03,1.416717648506164551e+00
-5.709530971590736498e-02,-8.241759962372067205e-01,7.818568724171410800e-01,6.068469266385284437e-03,-8.459888771788250106e-03,-2.486005219272458162e-03,1.391452908515930176e+00
-5.406500653926596400e-02,-7.402970155611116043e-01,7.994964830382707000e-01,1.046543451010273872e-02,-2.951369944297860259e-02,-1.422127524406133344e-03,1.337224960327148438e+00
-7.568794510238664730e-02,-5.939920633663100524e-01,7.819028107421954754e-01,4.874736121830113705e-02,-9.542851953975351603e-03,-8.351617664219435078e-02,1.215286374092102051e+00
-4.350788039584297523e-02,-8.249227482625602903e-01,7.947674314774099136e-01,-4.128355966453171183e-03,3.661281161424243934e-03,1.327775719588294816e-02,1.403201937675476074e+00
-1.728754225729503546e-02,-9.020522536872406238e-01,6.571671350998161687e-01,-3.299141047321585418e-02,5.583815418951452308e-03,3.556565566317283072e-02,1.357050061225891113e+00
-1.228061800371820500e-01,-1.722815035586877097e-01,6.220135667591945028e-01,-7.846488572362264602e-02,-5.728038889665991451e-02,-9.471534075556967136e-02,8.057796359062194824e-01
-8.697161788689779238e-02,-6.799783116355865298e-01,7.602027665937635126e-01,-3.791809326061546404e-03,5.047257642758957476e-03,-4.087558587360257817e-02,1.255736231803894043e+00
-4.094119142629439045e-02,-8.243492825025655613e-01,7.943178172828847527e-01,2.004831487513394125e-03,1.643201759345471608e-02,-3.986909724835779878e-02,1.404038906097412109e+00
2.426404238713290862e-02,-8.565546889718813617e-01,5.934795243828953071e-01,1.191387389884161069e-02,-6.110347274767630003e-03,9.203215563780331497e-04,1.265608072280883789e+00
-9.754913385541710835e-02,-6.053503184545254712e-01,7.885805423293648087e-01,7.386367719185442555e-03,-1.783902738765555385e-02,-3.949110106917419483e-02,1.224280476570129395e+00
-9.206236741977430471e-02,-7.190419517131362293e-01,7.977506287337483570e-01,-3.925241088339199991e-03,4.714731573457943024e-04,-2.289137900118877467e-02,1.320751309394836426e+00
-1.003771659265237370e-01,-3.197530792138047473e-01,6.275157307675868212e-01,1.484025011864912313e-01,-5.468696603281431208e-03,-7.586731196067394989e-02,9.061253666877746582e-01
-9.703863273253875155e-02,-6.596836895412090396e-01,7.951436634248045809e-01,-4.281968945162742055e-03,-1.673049674439149731e-02,9.866629553021815865e-03,1.271112680435180664e+00
9.824794785567025901e-04,-8.056298853430653439e-01,5.414168099019450731e-01,-1.307466193650437015e-02,-6.083831271547994468e-02,-2.205584405558387237e-02,1.179699063301086426e+00
3.615321188773383543e-02,-8.105614800283627019e-01,5.138325670771543008e-01,-1.172955220206806093e-02,-3.367205827779350819e-02,-1.622843984487560773e-02,1.163686275482177734e+00
6.808330324839018122e-02,-7.986063595645299662e-01,4.674138600613388927e-01,1.455337581780641581e-03,-6.152239156229645858e-03,2.591949973490885635e-03,1.121093869209289551e+00
1.884448524424360838e-01,-1.150235257517744802e+00,2.171879952048373918e-01,1.630716374162893278e-01,1.159272628476506854e-02,1.008906764919032806e-01,1.393587231636047363e+00
1.131104045100929378e-02,-8.438826613803425136e-01,6.694002468227786551e-01,-8.709040021765456982e-03,-1.765159257791212508e-02,-2.691841801559907710e-02,1.315510392189025879e+00
-2.352306044531333323e-02,-8.294353547485254774e-01,6.823140312727909995e-01,-1.652247345203010018e-02,-3.442275562801367511e-02,-2.823371684784075838e-02,1.312748432159423828e+00
1.238016025421035948e-01,-8.571433190199682084e-01,2.226047867425524629e-01,1.042000193873013347e-01,-2.253731140158175134e-02,2.382889024268107225e-01,1.128440022468566895e+00
-2.771330950644343427e-03,-9.518308170834517412e-01,6.984348926781482891e-01,7.199629866703759901e-03,-5.792320479770799585e-02,-3.072112944905032103e-02,1.439077019691467285e+00
1.899124408044162160e-01,-8.400606111711961255e-01,1.197044246294382552e-01,-1.097003134091077831e-01,-1.914560215226544793e-01,-4.507440198289161537e-02,1.070338726043701172e+00
7.354355766995508692e-03,-7.330373838827123345e-01,8.359631453527879286e-01,1.036945895592877170e-01,-3.680016970039475324e-03,-4.449583459996341028e-02,1.373501181602478027e+00
-9.897525935417100795e-02,-8.545456642682369708e-01,8.759332078180495085e-01,5.015671706279426628e-03,5.149495278505085427e-02,-3.394437012991937536e-03,1.505327343940734863e+00
-1.823570532252831097e-02,-8.252737854534675233e-01,6.997236930133999833e-01,1.231760730810435717e-01,2.129419385897181605e-01,8.688740413789670936e-02,1.396565318107604980e+00
-6.829837012538972352e-02,-8.377982455142546359e-01,7.310163819549586606e-01,-1.840773565210073945e-02,4.859835262582663795e-02,3.738792468106769823e-02,1.363232254981994629e+00
-1.639364490455873236e-02,-8.378241399590110605e-01,8.407329735111376268e-01,-2.658852635311840097e-04,-5.533134572756143177e-03,-5.661238068217964124e-03,1.453847408294677734e+00
-7.818704760327521708e-02,-8.332416782869810357e-01,8.075352974586840205e-01,-1.686697963354556523e-03,2.123696680468342701e-02,1.213548193436910123e-02,1.423089504241943359e+00
1.822808830819473702e-02,-7.741253858879993954e-01,7.738147609819627792e-01,7.316567227955638689e-04,7.025690843331538517e-03,3.316669121450200979e-03,1.340749621391296387e+00
-4.542404598329166654e-02,-7.476139116502498183e-01,7.530709342290830000e-01,-2.176565787462691678e-02,-2.174820202047647241e-02,-1.456769604531204902e-02,1.301859021186828613e+00
-4.978877517361067484e-02,-9.914668790065255255e-01,9.785096723550142928e-01,9.816707824491310852e-02,9.270537529594485848e-02,8.809222601356168220e-03,1.722616434097290039e+00
-6.759426521671806076e-02,-8.184699082663794423e-01,7.924854016763632769e-01,1.054722738764047240e-03,1.659542677669330335e-02,6.078308319531274852e-03,1.396533012390136719e+00
-7.535205052102364465e-02,-8.271151832120746672e-01,7.901246633528656860e-01,-2.589278157928653640e-03,4.478605889943449749e-03,1.289536518442357385e-03,1.401754856109619141e+00
-3.879991578053089418e-02,-8.319470696279595012e-01,8.150988039845469268e-01,-6.405468541149038006e-03,-3.910302214921564969e-03,5.383057063465378038e-03,1.426796674728393555e+00
-2.140939777879583700e-02,-8.479948637114786969e-01,6.490318845683245019e-01,3.808974042615436914e-03,1.130596977872514453e-01,-5.642992763034575948e-02,1.317139387130737305e+00
-4.479090313878583696e-02,-8.326469828248581617e-01,8.144756002702679965e-01,-4.552630336765338057e-03,-7.967390232048520565e-03,-1.386102848509206857e-03,1.426987290382385254e+00
-4.313211602082656082e-02,-8.314762148021059840e-01,8.133642455631934221e-01,-3.919225835021169645e-04,-4.481298679549407075e-03,-1.187317608570091472e-03,1.424903988838195801e+00
-4.323583176512887927e-02,-8.367094991049274233e-01,8.133899518552495378e-01,-1.316749762440200906e-03,-3.505268492396828792e-03,-1.114939009376249247e-03,1.429392814636230469e+00
-4.464100430349580290e-02,-8.362396593034221448e-01,8.013488647568443035e-01,-7.798511052147982271e-03,-2.772109316631359184e-03,-4.057834644589405036e-03,1.418543815612792969e+00
-4.733514648638693922e-02,-8.328457192944886955e-01,8.153225747293554315e-01,-2.955960240326737341e-03,-8.258526509355825287e-03,-7.832435868429007530e-04,1.427958250045776367e+00
-4.343759847222172787e-02,-8.289292379542383404e-01,8.014322043130972517e-01,6.511370923212890245e-05,6.226963867457758692e-04,1.725071661435881006e-03,1.412250161170959473e+00
-4.752979998429477521e-02,-8.332291406421140634e-01,8.124523607693177052e-01,-1.278240735346307215e-03,1.381396273446340020e-03,-1.545796575675545534e-03,1.425692081451416016e+00
-4.095182515809139140e-02,-8.293336682062988352e-01,8.073637871173002800e-01,-3.368681590502803011e-03,-5.941084314620610068e-03,5.159182052739069192e-03,1.417815804481506348e+00
-3.313874881334112621e-02,-6.660122933387656596e-01,7.714888810732483115e-01,-4.577349223504736074e-03,-2.429722294221299886e-02,1.505792029065624281e-02,1.248878002166748047e+00
-1.804644337949440694e-02,-8.223691074804951873e-01,6.933408599391303051e-01,-2.166581341762664932e-03,1.942217161249856425e-02,-2.179501643954212184e-02,1.314443826675415039e+00
-1.816876424887794994e-02,-6.144257036438157682e-01,7.895502395492993708e-01,-1.635765739240656325e-01,3.264948933829531913e-02,-2.614425872798254585e-02,1.255014300346374512e+00
-5.478320122208976684e-02,-6.161427825524485868e-01,7.669109396613826846e-01,-3.148457312434228134e-02,-2.825701957939777409e-02,1.523439486813472910e-02,1.207326412200927734e+00
-1.507097844760849070e-01,-3.130752258689618595e-01,8.906521367260428201e-01,-2.247600609461950227e-01,-3.536142442830170901e-03,-5.184940854595187359e-02,1.199805021286010742e+00
-4.989168129660769002e-02,-6.683035779258835740e-01,8.205264540483191427e-01,-2.646743077619415074e-01,1.609615137465233436e-01,-8.499878077224711642e-03,1.402297377586364746e+00
-4.749618314990594614e-02,-8.358754093444766831e-01,8.069234962697359181e-01,2.208292226863335997e-03,5.033354032157369949e-03,-2.188514902116060149e-03,1.423125624656677246e+00
-5.016527706545530207e-02,-8.342896390261912432e-01,8.073006395538778746e-01,1.772971700651012174e-03,4.668693719247846846e-03,-1.971534674186497908e-03,1.422162175178527832e+00
-5.323966450042764281e-02,-8.276521601432447195e-01,8.125523834537190515e-01,-2.150097181722802453e-04,2.741224698937791762e-03,4.226771142660156952e-03,1.421220302581787109e+00
-4.916832240725912267e-02,-7.801035221582854895e-01,8.026544852101941130e-01,-2.767114464612161016e-03,1.681160718583805946e-02,-6.370864050992008747e-03,1.372402310371398926e+00
-6.435548500914142767e-02,-7.552342275253733916e-01,7.976537399377526816e-01,-1.238085280015521717e-03,1.901193305515894161e-02,-1.522936892944550674e-02,1.348221778869628906e+00
1.790738040459208258e-02,-7.836265068307164405e-01,7.788356694917325518e-01,-3.089527870530903338e-03,2.796471101515723805e-04,-2.650218377269466293e-03,1.353302717208862305e+00
-6.155276811251227803e-02,-8.107519538754005550e-01,8.100795547586445711e-01,-1.928301696113583546e-03,7.709358309150880599e-03,-1.122702110155122772e-02,1.405217528343200684e+00
-6.733659656363760737e-02,-7.906696767092771250e-01,8.171002064524692798e-01,-2.552275509450544042e-04,1.668432247286022029e-03,8.249687406567025177e-03,1.394773960113525391e+00
-2.861827558738211374e-02,-7.696189416683909545e-01,7.987015078524819511e-01,-7.127619484479669892e-03,2.004336328923341654e-02,8.008151256286892561e-03,1.359461069107055664e+00
-2.414325568626674717e-02,-7.263857826706029419e-01,8.161942668871844386e-01,-7.696880376043943595e-02,1.733028079230740023e-02,-2.054040989718087726e-02,1.345128893852233887e+00
-1.079556143409471543e-02,-7.993574839468924331e-01,7.970783729016823749e-01,-9.507905097785047943e-03,1.324953239950245332e-02,3.233136246419475272e-03,1.382887601852416992e+00
-2.231289489009392196e-02,-8.263556665418684277e-01,8.018882081810866369e-01,1.186848099855915289e-04,5.062824991465090206e-03,-4.003194951130232583e-03,1.410180926322937012e+00
-3.048351518015003994e-02,-8.178854151588146326e-01,8.079709188456908331e-01,2.062774934400251909e-03,9.232954877203693178e-03,4.198426154633312125e-03,1.408378362655639648e+00
-3.923355837771708848e-02,-8.518414517279019327e-01,6.494336911668213697e-01,-5.726693028725977040e-03,-2.396795174615646840e-01,5.064717441287029345e-05,1.366253256797790527e+00
-3.946616260393315950e-02,-8.331712635518651044e-01,8.111023472116138944e-01,5.587692724267648466e-03,9.732111260411187292e-03,1.095333808043867695e-03,1.424400448799133301e+00
-4.485406042192123521e-02,-8.264300899349646956e-01,7.922636584079354449e-01,4.695499155261948811e-03,3.066923577587672180e-03,6.977378709859639178e-03,1.402190685272216797e+00
-3.847100997137146983e-02,-8.341771579980873375e-01,8.077834304067448290e-01,3.325457921466007101e-04,1.793264547788569422e-03,-1.414262158453220061e-03,1.422209739685058594e+00
-2.924342125757469629e-02,-8.262478552700698309e-01,8.037016585443310657e-01,1.062601171260294181e-03,8.028829807241110242e-03,-3.479323774811271010e-03,1.411774635314941406e+00
-1.225099875101638147e-01,-6.502532440610574449e-01,8.271310874757548115e-01,-8.104852852217035719e-03,6.045423735649618768e-03,6.403698952663165744e-02,1.301578521728515625e+00
-9.424828976631222099e-02,-5.963963955621292001e-01,7.786314843247477135e-01,3.184328605872537021e-02,1.027361574836233027e-02,5.362569599536777532e-02,1.210112571716308594e+00
-8.442918089600237597e-02,-7.025871917321543370e-01,7.708465621830185022e-01,-4.794588604736279430e-02,-8.690350883254864545e-03,1.059268451749993678e-01,1.297341823577880859e+00
-9.768562201011052326e-02,-7.181080663129861819e-01,8.071453839162633370e-01,-7.563734027259255525e-03,4.897962570219560434e-04,3.542714385978710384e-02,1.330021858215332031e+00
-8.938228838460292314e-02,-7.029609276241238769e-01,8.068710455178585983e-01,1.014647890652196731e-02,2.266878053643523599e-02,-1.827332330617566919e-02,1.316253304481506348e+00
-1.395008147863672499e-01,-4.205332901672832469e-01,7.495915227841182249e-01,-4.321063690852560042e-03,-4.907634033654252256e-03,4.806016739462774801e-02,1.061313271522521973e+00
1.934177496861018419e-02,-8.189236845682391630e-01,5.846358371129742881e-01,1.104876154624825565e-02,7.638859622695309826e-02,-8.451686546323290347e-03,1.230527997016906738e+00
-6.400176908215557403e-02,-8.104685835446955311e-01,7.989577401240584020e-01,1.001115390459330300e-04,3.054902131484151656e-02,-7.758776820723235464e-04,1.396024346351623535e+00
-8.702221509041238590e-02,-8.243575258958358853e-01,7.895914247539514985e-01,3.830976116299548810e-03,4.405819597230344747e-02,-1.597212902576116474e-03,1.401552081108093262e+00
-1.334253867314226516e-02,-8.015226900530412202e-01,5.897023033269590542e-01,1.278858674269674721e-02,3.206081289517527088e-03,2.090612059455542251e-02,1.209145069122314453e+00
-3.860693736049269909e-02,-8.036492688911484050e-01,7.010136571889155066e-01,1.444636829988230411e-02,5.509002310479431397e-02,-1.538774505733732714e-02,1.307138323783874512e+00
-6.656748105568677243e-02,-8.387441754434435959e-01,8.323353497612442364e-01,-3.131112316109914417e-03,2.358748861092786753e-02,6.448185184647038486e-03,1.449212908744812012e+00
5.587686521262077988e-02,-9.468474739822980712e-01,5.167521231858149822e-01,3.524479536660702489e-02,2.402356306110834394e-01,-1.670717924762422230e-02,1.362973332405090332e+00
-5.450572963045186708e-02,-8.267404141321532673e-01,8.112343544458648914e-01,6.970918506149175950e-03,-1.368212135141235256e-02,1.340434439075401454e-02,1.419736981391906738e+00
-9.126526273393699429e-02,-8.308592547444715315e-01,8.463124624994748935e-01,3.382896703858240175e-03,-2.107873005642535089e-02,1.467680958531745149e-02,1.456534147262573242e+00
-8.958684160584758083e-02,-8.280304288918995947e-01,8.150371740346513683e-01,4.973499099843984791e-03,-3.517845596134300951e-02,1.660783253595722944e-02,1.426979899406433105e+00
-6.101416994071336142e-02,-8.214136219858679810e-01,7.914269847501881339e-01,6.686166841051579407e-03,-7.561534429379600415e-03,9.285512847144196044e-03,1.397720813751220703e+00
9.901036236139271543e-03,-8.287363549883693947e-01,8.594892258161517251e-01,-1.416521412271785907e-01,2.558006090712462016e-02,-5.586586551266111908e-03,1.483193159103393555e+00
-2.860178205763356032e-02,-8.318805916677034507e-01,7.143565995778563549e-01,1.947807224391864128e-02,-2.479902335870493024e-02,2.325424520358541566e-02,1.341138362884521484e+00
-2.044700281463056601e-01,-5.665909346895594556e-01,1.186352601791778039e+00,3.555329082410755848e-01,3.459296879435839848e-03,3.975592491820257451e-02,1.718474149703979492e+00
-8.249465454763826866e-02,-7.156877194631875438e-01,9.465755752406888046e-01,2.275276586577959226e-01,4.441795123972148984e-02,6.690031034093253670e-02,1.512009024620056152e+00
-1.671623644545747189e-01,-5.456723623716713822e-01,9.755115368417015542e-01,2.767003693800346720e-01,1.903669389330680806e-01,-3.766869289657596293e-02,1.491358995437622070e+00
-1.871749988696118638e-01,-3.261335732536069232e-01,1.180546629534623859e+00,2.624043141695576176e-01,6.280704572788074758e-02,-1.980765738341020155e-01,1.554391741752624512e+00
-1.791783655357676031e-01,-3.934202326006560613e-01,9.468234681395782948e-01,3.552135029571585334e-01,-2.353702698431761609e-02,-7.219376894156176450e-02,1.396726250648498535e+00
-9.448665270227982194e-02,-6.745572751838851966e-01,1.017053037399519244e+00,2.775665325060189259e-01,7.724717797196906099e-02,5.792596848165213613e-02,1.573490142822265625e+00
-5.205905529408055843e-02,-5.182932684865785289e-01,8.949930323162220702e-01,1.965873771841789852e-01,-1.087242481442940965e-02,-8.432844098031209989e-03,1.293189048767089844e+00
-9.466872886761719397e-02,-8.270033180207225776e-01,8.311063401806779716e-01,4.477967432970905888e-03,6.412536730961775067e-02,-2.510516915672996157e-03,1.443525433540344238e+00
-5.433901290506591708e-02,-8.249053832140406106e-01,8.260943078028768483e-01,-2.502577577932680458e-02,4.410708096514769777e-02,1.441602873255673663e-02,1.433773398399353027e+00
-4.461188391205157117e-02,-8.061461702575157817e-01,6.976083199705369609e-01,-1.200234709281720359e-02,-2.712095453779742385e-02,3.212991701340197400e-03,1.303349971771240234e+00
-6.501577223779035630e-02,-8.036339822552894807e-01,7.206754215623184523e-01,-6.152514351260083073e-03,-3.629923954769567404e-03,-7.126405938334565366e-04,1.320358991622924805e+00
-5.279507308655511516e-02,-8.162170766577174774e-01,7.457209939957073486e-01,-1.472941829864145291e-02,1.941977649582741008e-03,-4.976684070232605638e-03,1.353064060211181641e+00
-7.838708912222824843e-02,-4.481963173648942922e-01,8.281541260896337908e-01,1.653381853469755858e-01,9.412757013209979012e-03,-2.339143964935378947e-02,1.173771977424621582e+00
-1.653239752777748151e-01,-1.930139318866149756e-01,7.111836394931408956e-01,2.253879493018348668e-02,-2.186640652777697893e-03,-9.867951780288817740e-03,8.917024731636047363e-01
-1.830715735434574332e-01,-2.581778935579094880e-01,8.473377382435106631e-01,-1.375906087003691755e-02,-3.628823685678329164e-02,1.397507499159041620e-02,1.072324037551879883e+00
-1.679917685808671179e-01,-2.146754245144841811e-01,8.041767446909985351e-01,2.237875061188230597e-01,1.001720301480542030e-01,6.987286620138245807e-02,1.089801788330078125e+00
-1.237842119406988295e-01,-4.975366668094247657e-01,7.609820959895964299e-01,4.527716397845204382e-02,-1.360081220925728543e-02,-1.621540631201853072e-02,1.122799992561340332e+00
-1.267191840649601609e-01,-5.111021420668790949e-01,8.711227377027307428e-01,6.746826345540921088e-02,-3.946205584293750881e-05,6.911486774430596579e-03,1.241286158561706543e+00
-4.234918767508899506e-02,-8.016424755761494270e-01,6.297868387584161232e-01,1.155872263413689101e-02,1.040069038675193736e-01,-2.729659165903714976e-02,1.254483938217163086e+00
-1.065449304103924799e-01,-1.040823532550962938e-01,8.060863953001026205e-01,9.896611608760524925e-02,2.020963407558265881e-02,5.021691044612038718e-02,9.321094155311584473e-01
-1.556659051632344193e-01,-2.170243670533467673e-01,7.349501458071227011e-01,1.152539260924537595e-01,4.776315841898223086e-02,-1.105431841943398524e-01,9.669345617294311523e-01
4.600406123986328089e-02,-6.782530588826640727e-01,4.478992694043198997e-01,-2.631928709133315447e-01,2.640069599103754272e-01,6.080518581307359227e-02,1.185388445854187012e+00
1.372637947503091427e-02,-1.096178765804325161e+00,9.718401835259742327e-01,-1.692982204075778041e-01,3.844046343511001718e-01,3.102069783528446298e-02,1.935319185256958008e+00
-1.295986696598922829e-02,-8.488693612033649805e-01,7.998809465998862889e-01,-3.627876320059456039e-02,-3.375903319172611494e-03,-5.097295266161533736e-03,1.429327368736267090e+00
-2.914266945961471039e-03,-7.808871862068622605e-01,8.035197973257030002e-01,-3.755969955086421036e-02,6.649139446656708238e-03,-1.407048365399198898e-03,1.373802185058593750e+00
-2.570635740507042771e-02,-8.537189925283329428e-01,9.207931293358381231e-01,-1.172202926657220645e-01,2.563938462737840041e-02,6.780237476907259066e-03,1.551938056945800781e+00
-3.800229899066624728e-02,-8.265582006111586999e-01,8.166696865900295865e-01,7.846022051188304702e-04,-2.576998387205202412e-03,-1.195069442895971279e-02,1.423619151115417480e+00
-7.152646036004908781e-02,-1.012429497723972727e+00,1.025663202449513589e+00,-3.831321019559446456e-02,6.296197233427094919e-02,-4.875833576852943441e-03,1.771395087242126465e+00
-4.261055634661302383e-02,-8.350759364111828287e-01,8.119672984069781219e-01,-4.270481272217735783e-03,-7.892763559811159790e-03,-1.301062341687281136e-04,1.426804065704345703e+00
-4.787410752475560610e-02,-8.391535223466197735e-01,8.140524433880310662e-01,-4.015893463270535195e-03,-6.193218768444468114e-03,-1.802536004215815829e-03,1.432214498519897461e+00
-4.732372488898987928e-02,-8.342364126818387904e-01,8.153200308791164197e-01,-2.519280352273507283e-03,-5.589600571620293758e-03,1.766592903311411554e-03,1.429102301597595215e+00
-4.415474002820385380e-02,-8.359410190404773511e-01,8.148339715495559465e-01,-3.120085858567786617e-03,-5.768667394203966237e-03,1.926821458862307962e-03,1.430056929588317871e+00
-4.591089504396064780e-02,-8.355489844293662038e-01,8.018240121564497169e-01,-6.354583268589889498e-03,-3.429179982884723345e-03,2.961395994452687211e-03,1.418368577957153320e+00
-4.427840741643525313e-02,-8.354041443546479373e-01,7.984362831063657184e-01,-8.077435132849950655e-03,-1.422503387950875510e-03,-2.897436283755409556e-03,1.415262579917907715e+00
-5.188532649778508643e-02,-8.339952979528164612e-01,8.077393713081081339e-01,9.152933840172779037e-04,-7.438263478543526933e-04,-2.115008805720620250e-03,1.422318220138549805e+00
-5.070764754139235608e-02,-8.279302886938699757e-01,8.101300253336052304e-01,-1.984182851122688520e-03,-8.393991984513963361e-03,-1.736848098914625877e-03,1.419299602508544922e+00
-5.146880081427099296e-02,-7.553826174415698702e-01,7.984841449964787952e-01,1.464584486344100780e-02,-1.757945164264832980e-02,-1.388987590837507599e-02,1.348464965820312500e+00
-4.517966446356980886e-02,-7.798591812227918529e-01,8.029828870234231308e-01,6.633138419693741144e-04,-2.145156344530858156e-02,-1.184740687216738128e-02,1.372612237930297852e+00
-4.485158348537056361e-02,-8.335501111821458364e-01,8.148920227084018864e-01,-2.556949474199226961e-03,-4.569551357218932207e-03,1.554270442134070632e-03,1.428066015243530273e+00
-4.565267357604697873e-02,-8.301605354286772931e-01,7.983722072767280853e-01,-5.204295354050621561e-03,-1.641461784711053390e-03,6.616140510878804060e-03,1.410742878913879395e+00
-5.540647553591773744e-02,-8.296068490205030788e-01,7.833816182841862874e-01,-1.437397194079026962e-02,1.636065655646667949e-02,1.044851962954844622e-02,1.397888422012329102e+00
-3.032412490223425003e-02,-8.340334080561682129e-01,7.087418973081460738e-01,3.780586597966615475e-02,1.040414052498871145e-01,-1.125257031812735772e-02,1.350297331809997559e+00
-3.779823060259208251e-02,-7.877419514386488908e-01,8.002031414235368789e-01,6.622496646982404568e-03,-2.000314523937882574e-02,-1.747176546669851685e-02,1.376721978187561035e+00
-4.564628257894676189e-02,-8.366780232536570328e-01,8.121478445987111439e-01,-2.626142256141166149e-03,-5.196510319912985530e-03,-2.194291873057049522e-03,1.428355932235717773e+00
9.139925964284797977e-02,-7.975944844023670210e-01,4.165917378560447526e-01,-3.927467882290107751e-03,2.582143668614782228e-02,1.424196982167814408e-02,1.089866518974304199e+00
1.618956580412307666e-02,-8.115780580951150736e-01,5.671642568492186731e-01,-2.303491146467297884e-03,1.310148251377335482e-01,5.625946038384856650e-03,1.223297595977783203e+00
4.174717370295905061e-02,-8.096746467548874282e-01,4.822377385201460642e-01,1.122337960756016051e-02,4.032686065592758912e-02,-1.255980474880910407e-02,1.140054464340209961e+00
8.982662532269419797e-02,-7.779246562214435778e-01,4.074774652643030626e-01,-1.287039786931915269e-03,2.936851168510583657e-02,-4.223626158900749619e-03,1.064040541648864746e+00
6.197222511538053036e-02,-7.926726397230960952e-01,4.157359855173689001e-01,1.265746804642904795e-02,1.004807831216995295e-01,-8.124986300044189855e-03,1.090356349945068359e+00
5.311504211377018891e-02,-8.105947113359781575e-01,4.534100748957637927e-01,3.869849896297885596e-03,-1.036457598727664412e-03,-2.251653138251577535e-02,1.119615316390991211e+00
-5.960073046608659747e-02,-8.690906783930336665e-01,9.300792455101889455e-01,-3.266099155615680150e-02,4.516020064357887526e-02,-1.295156843755387172e-02,1.563872814178466797e+00
-8.153169992278397338e-02,-8.034458660419444564e-01,7.564919725132576156e-01,1.248588249080536923e-03,-1.328533981999915556e-02,-3.409390391097073987e-03,1.352403044700622559e+00
-4.645247057745463537e-02,-8.385738314763144796e-01,8.157226892376754357e-01,1.158373749580958153e-03,4.501429827852282753e-03,-1.090374812392757740e-03,1.433114767074584961e+00
-4.431330293766910788e-02,-8.357695044960138375e-01,8.155592964882943940e-01,3.266738631800227954e-03,5.678212943031825562e-03,5.561935440337709060e-04,1.430547118186950684e+00
-4.574133774390216900e-02,-8.355178385463521984e-01,8.158904757781738626e-01,3.728436430352970177e-03,4.081686592067855848e-03,1.891646039652912980e-03,1.430648565292358398e+00
-3.952958644846403524e-02,-8.303534083068616622e-01,8.124535558410146407e-01,2.588521470217353430e-04,1.701328372604164535e-03,3.619616407555608165e-03,1.423058152198791504e+00
-7.506491286329711188e-02,-8.103663139911603253e-01,7.515855391659773677e-01,5.809449508445151816e-03,-1.390683040081426569e-02,1.363044659202388743e-02,1.353918433189392090e+00
-4.126037320185911572e-02,-8.321329069600185147e-01,8.094870357511251280e-01,2.154518830832050525e-03,4.445290354781952259e-03,5.972514819220674969e-04,1.422025918960571289e+00
2.944439541033308516e-02,-8.094154473897060553e-01,4.625490648540949712e-01,-2.135509094582454734e-02,-1.980804923350170180e-02,1.357578765536848579e-02,1.121462345123291016e+00
6.963896644446185280e-02,-8.629354982112376060e-01,4.681923931086068302e-01,4.966409914643830220e-02,6.083683697150240460e-02,-1.296561541555349938e-02,1.191313505172729492e+00
2.553254783847462572e-02,-8.268034236821093508e-01,5.910675898099297942e-01,2.443743261913362916e-03,-1.440759350313004263e-02,4.781268847644185027e-02,1.239286541938781738e+00
-2.943582381277017393e-02,-8.609395121386492766e-01,7.319041983958547437e-01,2.030191294721487086e-02,2.812605796112465500e-02,3.968786557496590400e-02,1.382906079292297363e+00
1.621329898858032970e-02,-8.028827993688718578e-01,5.876154399774233816e-01,-1.883746573340837685e-02,6.637330174354238999e-02,3.424035777410778299e-03,1.216457128524780273e+00
-5.172040203460902263e-02,-4.498009670272495319e-01,4.966676918430151244e-01,4.239286120383408199e-03,4.171221277648530512e-02,-6.489359400122170218e-02,8.339109420776367188e-01
1.288671719909651459e-01,-7.337784142059898818e-01,1.387150828691801618e-01,7.757577931743185086e-03,3.180891431865879443e-02,-1.326391549117942881e-01,8.993025422096252441e-01
-5.801268844590337648e-02,-8.187599194182010320e-01,7.818084330789897285e-01,-4.692908024482340826e-04,2.716056275518198213e-02,1.038506159637619768e-03,1.387495756149291992e+00
-6.499000324676634799e-02,-8.002713304807685946e-01,7.235969060307304579e-01,3.443659653719135638e-03,4.785410213526714029e-03,7.661927504090346739e-04,1.320017933845520020e+00
-6.898703281514248498e-02,-8.108047814529111275e-01,7.332384579495253574e-01,-5.634861782028284700e-03,4.296467559064172381e-02,5.731447510737529283e-03,1.339662671089172363e+00
-6.342839506618661027e-02,-8.429166581427639526e-01,8.279762463123037097e-01,6.742927732651470864e-03,1.786441690738294532e-05,-4.515585581443283189e-03,1.448185443878173828e+00
1.683172519284850330e-02,-7.748773079996518209e-01,7.860939943740148372e-01,-1.005646821882425108e-02,3.601592569375000955e-03,-6.831653555394089257e-03,1.352065801620483398e+00
1.183260163170496426e-02,-8.183986661745663582e-01,8.158068862981675551e-01,-2.246547298467745091e-02,-5.365944042089515129e-03,1.344801815122683613e-03,1.415891647338867188e+00
1.734516902052183479e-02,-7.866665525225319255e-01,7.846531827334486398e-01,-1.688645026242356628e-02,-6.775410796142609243e-03,2.223564445147090118e-03,1.361296892166137695e+00
2.710787722902705671e-02,-7.743460794273567815e-01,7.725105303275665580e-01,-5.473196446448886157e-03,-7.495463103332389472e-04,2.096923779880415124e-03,1.339949369430541992e+00
-3.050067532206865439e-03,-7.322811247143322655e-01,7.737583432427639352e-01,-4.201262353366876784e-02,6.095618350470516887e-04,-2.074227209283838625e-03,1.306518793106079102e+00
3.834672375998045973e-03,-6.589051875757290233e-01,7.459529500569617166e-01,-3.485117479187960915e-02,7.955224028401368386e-03,3.600869101120697351e-03,1.218879699707031250e+00
-8.230878137208366696e-02,-7.165650263034206713e-01,8.011749016497154985e-01,8.682278695775711439e-04,3.439475960673962253e-04,3.842276185500505953e-02,1.321972370147705078e+00
-9.096228962959183872e-02,-6.828890199627835056e-01,8.115522508454908746e-01,4.012735673454520362e-03,1.390603978130882171e-02,3.100144384708901357e-02,1.304854035377502441e+00
-9.813132219390491295e-02,-5.629042777129319441e-01,7.686429763529505355e-01,-4.974852709928532504e-04,-3.734999442541723016e-03,5.986346712831873418e-02,1.175141811370849609e+00
-8.792511385617121644e-02,-5.863659488674851650e-01,7.684351087609667674e-01,1.340029168159959615e-02,2.242824582689543350e-02,5.669916757456345408e-02,1.191777348518371582e+00
-2.855871222100417675e-02,-8.563077745354076287e-01,8.909697049975124905e-01,6.378241174743649877e-02,2.480932011586057390e-02,-6.760535320838150777e-04,1.518516421318054199e+00
-4.104761199060909423e-03,-8.356743997298841098e-01,8.457368708604449115e-01,8.669115177942757558e-03,-8.835327909350675080e-03,1.448685650557966125e-03,1.456333518028259277e+00
-3.791248882783847945e-02,-7.860319736893689457e-01,8.971584184219898450e-01,7.545564715963241909e-02,-2.546544371411611080e-02,9.032652234588831389e-03,1.467261433601379395e+00
-1.121133213930571304e-01,-5.084408978422131353e-01,9.717121921783461458e-01,3.072642018164452038e-01,2.560875068356570014e-02,5.781270238207633638e-02,1.434061169624328613e+00
-1.797317443195531883e-01,-4.878271896071539881e-01,1.038282573589011104e+00,3.118367784049351776e-01,5.276330348815283511e-02,6.992884623940708033e-02,1.506152391433715820e+00
-1.906177717076031897e-01,-2.123326943259236654e-01,8.921942895497315673e-01,2.140336458710582757e-01,-2.074946289645431680e-02,6.430403943291035374e-02,1.160859346389770508e+00
-7.014917989787301453e-03,-7.843887886229010675e-01,7.983200052926778811e-01,6.828409439762804511e-02,-1.724397673523508229e-02,-3.102276218178020087e-03,1.376164913177490234e+00
-1.067832526618196221e-01,-4.950042328777204403e-01,9.854901046689198418e-01,2.084918591649433106e-01,9.747307509144030602e-02,1.248964549754076059e-01,1.404822707176208496e+00
-1.792960249330538547e-03,-7.756912183227366864e-01,8.258575549937892113e-01,-9.818654687402784964e-02,-1.003069779818379151e-02,3.054406826024490262e-02,1.398736476898193359e+00
-8.968116154503759374e-02,-7.454101789708841297e-01,9.030415994797558188e-01,-3.530813823998565359e-01,1.922602552256357511e-01,4.682122255640042835e-02,1.599344968795776367e+00
-6.953148434364062047e-02,-9.780649921344666264e-01,9.681660606713961004e-01,1.369615158309980471e-02,2.726126082340029483e-02,-4.383295462116809822e-03,1.687566995620727539e+00
-5.758330672352872381e-02,-8.717475368587236373e-01,8.797152303931113915e-01,-1.429555272921766672e-03,1.271461021198767513e-02,-2.016767935244669074e-03,1.518226027488708496e+00
-8.029596509752648381e-02,-8.505495996713475781e-01,8.357527951191926485e-01,-4.331015427107920771e-03,4.478212732468270230e-02,4.274654669285454442e-03,1.464292764663696289e+00
-6.098360693098871937e-02,-8.108076870153999582e-01,8.714973166436735807e-01,-4.307905026233498080e-02,-6.358753337868659761e-02,2.191860727124527244e-02,1.466319322586059570e+00
-5.122081719435491592e-02,-8.525916484130288131e-01,8.637114153904498215e-01,1.459314310982139963e-03,4.187949605916121802e-03,-3.365846568717642887e-03,1.487477421760559082e+00
-3.148914847392730171e-02,-8.384270413084823348e-01,8.552729854524755426e-01,-1.538508110000733065e-02,2.235235992625067558e-03,-2.706925324507566434e-03,1.467584729194641113e+00
-4.104808011414921853e-02,-8.707450480790261960e-01,8.570324457576570243e-01,1.120675805841347093e-02,3.012926408812705015e-02,1.044832583277555300e-02,1.497834444046020508e+00
-7.366319635511818509e-02,-8.434836136909851234e-01,9.282368319636637999e-01,2.623148498442040913e-02,8.184246115442993241e-02,5.006304860304495660e-03,1.545944452285766602e+00
-3.494119394405847956e-02,-8.318837823245668339e-01,8.264658746747290952e-01,-5.735519862025818469e-03,1.226210285535011754e-02,1.023633462100981099e-02,1.436835289001464844e+00
-5.219616263177886961e-02,-8.782873146319410962e-01,8.752538453453529987e-01,5.668817267675609582e-03,-1.101920889812812131e-03,-1.061340706186546983e-03,1.519490599632263184e+00
-4.845408895451210757e-02,-8.570735142160844644e-01,8.644383713269916392e-01,-2.687298498511815452e-03,7.746913499686367390e-04,-5.931552977391036036e-04,1.491792559623718262e+00
-1.008833318545136887e-01,-8.947317125283216210e-01,8.826109468962926030e-01,-2.111141534090688054e-02,6.685147896343128504e-02,1.013915907582531306e-02,1.547014713287353516e+00
-1.130222152553261340e-02,-8.644137718467767018e-01,8.420990281834539459e-01,4.401252904305529706e-02,2.135588484093688469e-02,3.616943805292536281e-03,1.480323672294616699e+00
-6.940630894792169936e-02,-7.121233620664498831e-01,8.596072697484685721e-01,1.089962736246919556e-01,-1.893752159839204438e-03,5.859007694207251510e-02,1.385349750518798828e+00
-9.782950262458450785e-02,-2.703006423207439113e-01,7.321033321819901962e-01,-8.643166167019462887e-02,1.179126860616676459e-01,7.995865608125122745e-03,9.622824788093566895e-01
-1.669811892249125629e-01,-1.655618323268440162e-01,7.577218643791785446e-01,6.647640969209832849e-03,1.519601571413580930e-03,9.400761815555450096e-02,9.383054375648498535e-01
-1.196706140562236453e-01,-5.447252549656472764e-01,7.748356080739872143e-01,3.652519993610877508e-02,-2.205691630300635111e-03,7.236998775349830215e-02,1.175055742263793945e+00
-1.306118566637345935e-01,-4.329445716784970921e-01,7.096807240015778895e-01,-4.012144314813346352e-02,1.085932049703194381e-02,1.225993774835175271e-01,1.049675822257995605e+00
-1.158362461128604748e-01,-2.086446373528956788e-01,8.018697832913910251e-01,-2.799045035230621897e-02,-1.044488506093098346e-01,6.283105657253096332e-02,9.914085268974304199e-01
-1.108851475666870479e-01,-6.198626355234373442e-01,7.918845170021944213e-01,2.681956965594672546e-02,-3.856226083405336815e-03,2.184477764996972313e-02,1.239828467369079590e+00
1.774808735374225344e-01,-1.335815037330588151e+00,4.432391646288550424e-01,-1.225297216692068369e-01,2.860018852629627739e-01,-1.196210703426913574e-01,1.759608626365661621e+00
-7.050054905602529121e-02,-8.202050289799687199e-01,7.284684386723334626e-01,2.519131754493630308e-03,5.137325244576704253e-02,-8.125927280143852363e-03,1.344445466995239258e+00
-1.386967229578808802e-02,-8.082420961900556033e-01,5.756567033257898869e-01,3.399957485530634253e-03,1.589268397459435156e-01,1.090491121532673191e-01,1.248341083526611328e+00
9.710649311595320743e-02,-9.315430750910550506e-01,4.157920679596348590e-01,1.854735779214725377e-01,3.408233480873005816e-01,-4.087859926172306840e-02,1.394343018531799316e+00
5.344626170959634881e-02,-9.898713746097413946e-01,5.874569559991035250e-01,1.546881980509360044e-01,3.773830991713414407e-01,4.960188873125631615e-03,1.558824896812438965e+00
2.869190282807425676e-02,-7.666599564092178021e-01,7.656559143215675434e-01,2.418574534689826427e-03,-5.127674671915199295e-03,6.951739148438154962e-04,1.327382445335388184e+00
2.278010602457032283e-02,-7.778707324139464419e-01,7.740546455692279837e-01,1.764044025755226106e-02,-8.691534531665061694e-03,2.693937516878209051e-03,1.344673156738281250e+00
-1.270647935538520706e-02,-7.557384600634262650e-01,7.830992752725431938e-01,2.325590295197756119e-02,-2.446812569411478330e-02,-3.256229081362185460e-03,1.334227442741394043e+00
7.935466817685705998e-03,-8.131257231257762452e-01,8.142626604423025549e-01,3.158194016222242578e-02,-1.014715005055954328e-02,-1.066132195131801880e-02,1.410670399665832520e+00
1.755204923267057043e-02,-7.843108467084625168e-01,7.900296788685556848e-01,9.622808576149461529e-03,3.573466031238726852e-03,1.558306722273305371e-03,1.363616585731506348e+00
1.908584963299898504e-02,-7.940595403699608479e-01,7.914774228747875062e-01,1.130991720916401690e-02,-3.586249255453868249e-03,-3.848031497285396042e-03,1.373436450958251953e+00
2.138361217162167149e-02,-7.672510396344496275e-01,7.676584775404614591e-01,3.253999867357961536e-03,-8.193216515284438509e-04,7.050809351558317509e-04,1.329452633857727051e+00
-1.778927954617567572e-02,-8.121450942293718667e-01,8.030896272674555858e-01,-1.904691529870665380e-03,-1.220446585023366240e-02,4.070648739901591012e-03,1.399078488349914551e+00
2.928551585133691917e-02,-7.747064596503024925e-01,7.719176564630952919e-01,8.009815626982634204e-03,-1.399460495806248428e-03,-9.045007985970964686e-04,1.339842081069946289e+00
-9.431226169390435898e-02,-5.284936179603263451e-01,7.613547034197531982e-01,-8.125157858752372203e-03,2.536692646377792723e-02,-3.312785707214242759e-02,1.139129042625427246e+00
-3.221018235130544694e-02,-7.924824726448850276e-01,7.996987209481368764e-01,-5.894430383108365326e-03,1.834550829176487610e-02,-1.027422369235360920e-02,1.379853010177612305e+00
-6.098727733318740074e-02,-6.011364691503205959e-01,8.060496994169465967e-01,-4.121652676047216773e-02,2.451817613283783365e-02,2.398791079777891008e-02,1.233073234558105469e+00
-3.534703477120689635e-02,-6.538407476833595355e-01,7.622125516526825351e-01,-5.456719345461456816e-03,2.196447736402796017e-02,-2.149861546721685071e-02,1.230790257453918457e+00
-1.452607789767137725e-01,-4.271631029193492246e-01,7.716076922779939729e-01,-1.970409484120564606e-03,-8.110508337420451602e-03,-1.233352558937814841e-01,1.106538653373718262e+00
-8.755516462405119049e-02,-6.596447309134976233e-01,9.309108158119331344e-01,-1.871488151212101492e-01,5.680311350827034695e-05,-9.413576324535539996e-02,1.441829323768615723e+00
-3.703839658947905011e-02,-7.279525945004413634e-01,7.897732501391279136e-01,-3.277452340403204899e-03,3.218298884424689726e-02,-2.317520779845979456e-02,1.317947864532470703e+00
-1.694460940922360992e-01,-1.209210411415445052e-01,1.096079999905299474e+00,-1.242016414812921882e-01,8.584782728323399337e-02,2.831353307283330026e-02,1.270155072212219238e+00
-1.385579526454930044e-01,-5.059336348188422372e-01,8.238095033473941120e-01,-7.827429260141741119e-02,-4.236324504376780958e-02,-1.369919321223346184e-02,1.199580788612365723e+00
-4.261973315664795148e-02,-8.361009150566021120e-01,8.158966799049051088e-01,3.803442723369026657e-04,-1.960707261136841246e-07,-1.692494651508703873e-03,1.431044578552246094e+00
-4.202123721312063520e-02,-8.385565494098473627e-01,8.133605950336459944e-01,1.224826901253033965e-07,4.710923726835459114e-04,1.283619308212078638e-03,1.430906772613525391e+00
-3.680479415847084240e-02,-8.356403515179008368e-01,8.132304319940449888e-01,-9.937725931422687793e-04,2.723373389537921303e-03,-1.395662365546344050e-03,1.428204298019409180e+00
-4.537096530930458116e-02,-8.335675575131373805e-01,8.089785162664265838e-01,-2.637091694178059914e-03,1.240362001133150927e-03,-3.026712625640880661e-03,1.422889709472656250e+00
-4.402506692990518222e-02,-8.335796317605287387e-01,8.113232866874455773e-01,-2.631577206984953444e-03,-1.591448590661341967e-03,-2.928254769750847624e-03,1.424926519393920898e+00
-3.607132546067207818e-02,-8.330756139886074108e-01,8.106876730986286583e-01,-3.609083887837237232e-03,3.453386456493738772e-03,-2.570351259699613176e-03,1.423791408538818359e+00
-5.035716525240821473e-02,-8.221789507281674902e-01,7.726403997152866410e-01,6.263747375486837000e-03,-3.530687606098675824e-03,1.493989031450284688e-03,1.381449699401855469e+00
-7.413989686277371038e-02,-8.491078007005484762e-01,7.606691321858385368e-01,-2.698784554082437129e-03,1.191147456733833987e-01,4.993448431559205196e-03,1.409642934799194336e+00
-6.134635078414493736e-02,-8.188399405121593588e-01,7.673683936632254010e-01,9.845038763438786547e-03,1.354820707020620678e-02,-1.649039242584781489e-02,1.374761104583740234e+00
-4.141826204685878504e-02,-8.277377546017615773e-01,7.275627932560989608e-01,1.645852938268071650e-02,1.083366152105275614e-02,-2.338924594518151240e-02,1.347998857498168945e+00
-4.582045021492451436e-02,-8.248097245715337866e-01,7.569231689736569679e-01,1.085454569895897420e-02,3.349921482181801927e-03,5.472922104190517181e-03,1.370046496391296387e+00
-3.850423099959340845e-02,-8.281033706432334718e-01,7.671280390124702864e-01,1.084557554746368689e-02,6.576718266776848286e-04,-1.275917553913020509e-02,1.381839036941528320e+00
-3.636122808766699410e-02,-7.901252896107630042e-01,7.161354914079711698e-01,-9.629533873980413231e-03,-3.888635845179202761e-03,2.178032559631462237e-02,1.305129647254943848e+00
-5.826109415529860669e-02,-8.223346961014587064e-01,7.769977704844985844e-01,7.191551342827266595e-03,1.431013309809618834e-02,-1.093800889312295486e-02,1.385926961898803711e+00
1.468216588095779332e-02,-8.136890633402501516e-01,8.107391874995750758e-01,-2.463794478883808356e-02,4.984813783546225563e-03,-1.680842279725250007e-02,1.407863497734069824e+00
-2.182928106699871806e-02,-9.180000689290461757e-01,9.662292992108307832e-01,-1.499201476722656357e-01,-2.531194717426519386e-02,-2.140535153124908593e-02,1.653957605361938477e+00
-1.967297605800803414e-03,-8.321035945101461495e-01,8.734613895628529079e-01,-6.037782123195361422e-02,-7.009868058388911589e-03,1.773139699302311986e-04,1.480983018875122070e+00
-4.574540724205700126e-02,-6.214088419493356552e-01,7.537113182334256312e-01,-8.181364601154156313e-02,-8.505596466308740569e-03,-6.045389289593335394e-03,1.204634666442871094e+00
-2.906016160133399751e-02,-8.296039598484858946e-01,7.744017349145838613e-01,-2.167487758385582691e-02,-3.906819468626164527e-02,1.630214106110846944e-03,1.391267061233520508e+00
-2.780512110678187016e-02,-8.186046735789272999e-01,8.067063618239722622e-01,-2.587923699016226112e-02,-2.270004034269971355e-02,8.278689886118340696e-03,1.409065365791320801e+00
-5.309953624829833602e-02,-8.201669230396942956e-01,7.394051172258592208e-01,1.259409439741467941e-02,-2.108651417037499254e-02,2.355395751912863975e-02,1.351974368095397949e+00
-6.550640465687468383e-02,-4.768802819524008973e-01,5.327200837269986389e-01,-1.859773263440263613e-01,-1.731808781533398234e-01,-5.779040351915053567e-03,9.833798408508300781e-01
-9.802532340114580856e-02,-2.184642286712684123e-01,5.929469289492063089e-01,-3.088741494098403220e-02,-3.567478401791636389e-02,-1.368402093543575615e-01,7.987640500068664551e-01
-5.150928339251992227e-02,-9.138951284665386421e-01,7.605268910315389208e-01,2.866137950240879931e-02,-1.745257308294859422e-01,3.157932185504928185e-02,1.483318686485290527e+00
3.556624789564638567e-02,-9.731393177443706799e-01,6.306858601852408652e-01,-5.985252087284716888e-02,-2.704191494380794314e-01,-3.933124022627395439e-02,1.485504031181335449e+00
8.506343400348687078e-02,-8.856995483028414773e-01,4.544412063154850134e-01,1.057835249033388901e-02,-1.247768858587370577e-01,1.062205232718778231e-01,1.232189416885375977e+00
-1.843796365368174928e-03,-9.087048534353813212e-01,6.630110723283654250e-01,-1.739941563523267898e-01,-2.606295885034483062e-01,-7.754377580174783013e-02,1.476483821868896484e+00
-9.659488052107459422e-02,-9.731028245499351303e-01,9.752103032626195933e-01,-4.937294354000211147e-03,-9.118426427972381454e-02,-2.460687495983999561e-03,1.697502017021179199e+00
-1.003543587780777319e-02,-9.270634272392483943e-01,9.581570176015911100e-01,-1.385684447899251104e-01,2.405933973251412131e-02,-1.024954750180378724e-02,1.651015400886535645e+00
-7.753584378790323584e-02,-8.528467116703863926e-01,8.843610562920392049e-01,2.154311805205789965e-03,4.780909600212141126e-03,-4.393352704223003370e-03,1.507402420043945312e+00
-6.097935841397839063e-02,-8.548455571807690445e-01,8.353559570329889272e-01,-1.512685139085775433e-02,8.826108166492713236e-02,-2.301080403676324104e-02,1.473382472991943359e+00
-4.280426739766447775e-02,-8.052256931930773520e-01,8.659982135367386702e-01,-4.011324297906353892e-02,5.903373295270021581e-02,-3.990917131786084898e-02,1.456076622009277344e+00
-4.834616636302607739e-02,-7.223750760627443146e-01,8.758577897424946190e-01,-2.668582380156666600e-01,1.868398758387169456e-01,2.040933850118030642e-03,1.499929308891296387e+00
-8.638480737308039392e-02,-1.081102928835219190e+00,1.254906146299615610e+00,-7.576861704617897375e-02,1.937663293503324446e-01,6.166024045642521647e-04,2.062181472778320312e+00
-2.531254732110486960e-02,-1.250839208611590037e+00,9.862255089980769274e-01,-2.955508399725583213e-01,2.083113615041595479e-01,5.769951682771119056e-02,2.041325807571411133e+00
7.126713046547991648e-02,-8.296165948866216500e-01,4.316933822055004644e-01,2.507631883110242668e-03,3.482551298890515512e-02,-6.543736105186176433e-02,1.132565259933471680e+00
5.652484159309992262e-02,-9.420503213894444450e-01,5.493938603208347038e-01,-2.542094992858193875e-02,1.172806959610126487e-01,-2.323203086535356385e-02,1.333064556121826172e+00
3.436061872438142539e-02,-8.113660206775175077e-01,5.565184657401548440e-01,5.013494119910751751e-03,-9.612369394941746789e-03,1.633503271250194219e-02,1.196101307868957520e+00
1.909339013620336978e-02,-8.186244110662620477e-01,6.129013430867927825e-01,1.218586302317299121e-02,-1.969540687660639028e-03,-4.631838593436540807e-02,1.248485445976257324e+00
1.950901389707321298e-02,-8.281187836507576394e-01,6.062374249385932279e-01,-1.336919810138207862e-02,8.188165033776650600e-04,-4.850602970815677539e-02,1.252057194709777832e+00
-6.476675685495447699e-02,-8.185373506101651930e-01,7.774949939857925818e-01,-6.692505065221047815e-03,8.846721438522715418e-04,-3.951190035653940127e-03,1.382978916168212891e+00
-5.037707815437837688e-02,-8.223888361603820529e-01,7.824195446506342355e-01,-2.294166667046560555e-04,-3.385636148649234442e-03,4.521151211564539596e-04,1.390149712562561035e+00
-5.900905654284165081e-02,-8.236261326953294715e-01,7.997535674858989863e-01,-2.259414223366223041e-03,2.210636574913142464e-03,-8.130355840224930131e-03,1.406756997108459473e+00
-7.400438210698491448e-02,-8.139587304661531908e-01,7.841701569432951713e-01,-3.586748396242441482e-03,-8.141677060752621625e-03,-6.540296014764981902e-03,1.385413885116577148e+00
-5.765681697389772598e-02,-8.293362915328267304e-01,7.932529133662783449e-01,-7.228206003287909916e-03,-6.453685559647193842e-03,-6.485386809847564112e-03,1.405906796455383301e+00
-6.056413714993109931e-02,-8.195419526868762405e-01,7.723611036739570501e-01,-4.101210639382298941e-03,-3.600557947165065019e-03,1.169245194446814733e-03,1.379158139228820801e+00
-4.335253843078726993e-02,-8.238306596908930857e-01,8.012808670555385815e-01,3.289956365722888736e-03,5.300854356094104533e-03,-1.922147778728754359e-03,1.407798767089843750e+00
2.253454433735105344e-02,-7.722298947117861578e-01,7.723795145905072435e-01,-5.366043108916410641e-03,-5.049734830576344848e-03,1.312338847717207328e-03,1.337922334671020508e+00
1.967493986876527046e-02,-7.953934268213287417e-01,7.857931874270969175e-01,-7.829808811285168119e-03,-7.686767634542603089e-03,2.854830882828471826e-03,1.369707226753234863e+00
-1.358825212895794499e-01,-3.473274572245099723e-01,8.650847401738969156e-01,-2.626034535785701229e-01,-8.262798176962576902e-02,3.410611000126622522e-02,1.220306277275085449e+00
-1.387639282597853511e-03,-8.014558933872459878e-01,7.919382814302081686e-01,-1.319059448840221530e-03,-9.172763195998049832e-03,5.189097894628996906e-03,1.380046606063842773e+00
-2.893552924564636586e-02,-8.302622638365462215e-01,8.099224785721883535e-01,-4.787977905243713007e-03,-1.601187212745890792e-02,-4.166398337583226974e-03,1.420878767967224121e+00
2.240969615999485742e-02,-7.799018616881894239e-01,7.737904083598172722e-01,-2.904771079480293876e-03,-5.639142609447448003e-03,2.453421574329558638e-03,1.345829486846923828e+00
3.706988097988565649e-03,-7.703622730111234773e-01,7.813253050029017599e-01,-3.839621750527269506e-02,-1.532489474519130486e-02,6.442371101049974499e-03,1.345754742622375488e+00
-2.178412525956702900e-02,-8.351175379196349446e-01,8.519105455492452794e-01,-1.017417504974323051e-03,4.433938382916436521e-03,3.513458703272951712e-03,1.461354732513427734e+00
-2.652437820562365822e-02,-6.920238043520289262e-01,7.998603557451888779e-01,-5.108477873765863986e-02,-2.298784856864717965e-02,5.952348312016912668e-02,1.302230119705200195e+00
-2.145730583924095047e-03,-6.749693289934133311e-01,7.530350025718672846e-01,-2.912963882493056766e-02,-8.907563002658705140e-03,-2.643257307422685817e-03,1.238506197929382324e+00
-1.279727008534816551e-03,-6.854355153390827571e-01,7.629858308191838079e-01,-3.006115144712624698e-02,-1.618359006720960017e-02,1.170923637816626180e-02,1.256565093994140625e+00
2.128520587135572517e-02,-7.958120445900095374e-01,8.060360033154746473e-01,-1.393094185291802664e-02,1.088021594521573245e-02,-7.820589898974718637e-03,1.387739300727844238e+00
-1.047343808742292465e-02,-6.781719089570809045e-01,7.672220581473515599e-01,-2.554642415172950556e-02,2.088678351624967747e-02,-1.795762490509896295e-02,1.254644036293029785e+00
-4.782627043725840021e-03,-8.194528728549433927e-01,8.488346387156843198e-01,-5.215318257568322957e-02,3.817430556297323006e-03,-1.615901585277311828e-02,1.448017120361328125e+00
-5.512190689841629798e-02,-5.927007946097756497e-01,7.614898091488673249e-01,-3.851235692567616525e-02,2.484301773363210841e-02,-2.033285532253294864e-02,1.184221386909484863e+00
-1.623076819670667414e-01,-2.933082784391147224e-01,8.186553414072450519e-01,-1.222686716341310764e-01,1.939197511503756508e-02,-1.669933906516901656e-02,1.074602246284484863e+00
-5.768378274152125007e-02,-8.168844855477612743e-01,7.692159057029689384e-01,-5.403194409092030269e-03,-3.155803241375056654e-03,-2.616859237612088017e-03,1.374070405960083008e+00
-1.729759385319841747e-01,-1.726364588145846146e-01,1.110864901281137129e+00,-7.931501671768775852e-02,1.471341987891918932e-02,-2.253261065051647555e-02,1.291842460632324219e+00
-5.044423244186545946e-02,-8.261029483165653886e-01,7.713602463838582501e-01,-1.824554239628682975e-02,-7.036491969734481704e-03,-1.004834464120399340e-02,1.384160041809082031e+00
-5.880512481415460513e-02,-8.168811277693734940e-01,7.762789503189853058e-01,-5.317996734526977617e-03,-5.163938174836049146e-03,-2.903591281125091159e-03,1.380323171615600586e+00
-1.274392284883268944e-01,-3.301219287398428626e-01,8.905071070048933279e-01,-2.507475158342853394e-01,-1.983240241601657086e-02,-5.279171598287581840e-02,1.217283487319946289e+00
-3.966361326096000395e-02,-7.244074379334937142e-01,7.889607577604051958e-01,-4.100321332728365346e-03,-3.028944685071799717e-02,2.089052465251441462e-02,1.314153671264648438e+00
-5.415854110146932354e-02,-8.304100718792258862e-01,8.145785807023747660e-01,-2.479028560196491066e-03,6.420100725862240738e-04,-5.097198078503730259e-03,1.425386548042297363e+00
-9.231108613588620559e-02,-4.632927898220456919e-01,7.355443812545411353e-01,-9.849035017614261520e-03,1.039892455590261597e-02,-2.849660201534062395e-02,1.064491868019104004e+00
-1.319523828117891706e-01,-4.037483462434783843e-01,7.144520033668726455e-01,-3.988463538200257702e-02,9.399323395147310932e-04,-5.401298565489751069e-03,1.012514352798461914e+00
-8.698452626449829084e-02,-7.251695557507350509e-01,8.098834268449129903e-01,-1.500915210325780014e-01,4.514337017528676638e-02,6.505186943227907193e-02,1.367629885673522949e+00
-3.321767515580608537e-02,-6.451503432241963987e-01,7.570735070613230366e-01,-1.574095531858790351e-02,-1.211699179834514577e-02,6.641602189125812156e-03,1.218171954154968262e+00
8.781486296081258709e-05,-8.334611756235645874e-01,8.353202362963594307e-01,-5.797774334419615594e-02,1.579618168111139934e-02,-4.412832609432205434e-03,1.448970437049865723e+00
-3.962096705089573900e-02,-9.110339254347488147e-01,1.026242146604097849e+00,-1.424603556006708571e-01,-2.005480295776422561e-02,2.238740085099371474e-03,1.698922634124755859e+00
-2.656430943473827438e-02,-9.363328175724034974e-01,1.015387138259749689e+00,-1.232688931479467426e-01,2.017238911266288834e-02,3.260049284039406858e-02,1.706244707107543945e+00
-7.291563872555635595e-02,-8.940476654647212529e-01,1.000512962266813410e+00,-3.337844917810355028e-02,6.098806119711036589e-02,-2.035487306640837088e-02,1.650356769561767578e+00
-1.689715905778038096e-01,-1.175946264288133314e+00,1.384893563468750477e+00,-4.103234202805805531e-01,-1.564636866692571404e-01,-2.188532206592288393e-02,2.360756874084472656e+00
-1.108652081192022243e-01,-8.279907501667354008e-01,1.259114214685671307e+00,-1.797638304733683301e-01,5.469885169214058068e-02,-2.204659158764319879e-02,1.865727543830871582e+00
-7.112174704691340277e-02,-4.410752763032625978e-01,8.048626576596905613e-01,-1.852724999884280688e-01,-2.519697290981905494e-02,5.693358163804707744e-02,1.158833265304565430e+00
-1.066105990849040286e-01,-9.029103487781434678e-01,1.134944074239737200e+00,-3.326686043977754581e-01,-1.820853950095967788e-01,1.411530973509392967e-02,1.896383166313171387e+00
-4.268434870382339930e-02,-8.382665489828915462e-01,8.131362473646998046e-01,-1.527996903132936924e-03,-1.208897624150555902e-03,-2.765067089312585173e-04,1.430477976799011230e+00
-3.333319185447687627e-02,-8.278713532118987528e-01,8.112000196352591175e-01,-2.608502772062655517e-03,-7.942603239254377931e-03,2.876344569023504827e-03,1.419780135154724121e+00
-4.804953407318234698e-02,-8.055092513416493016e-01,7.384532753856000165e-01,6.822420828840638531e-03,-1.531545536636116575e-02,6.850452107962894631e-03,1.337557554244995117e+00
-2.573856099771906422e-02,-8.138344694035148930e-01,8.020613188284188011e-01,-3.115195169427729515e-03,-6.166224342752142304e-03,1.583935790288005466e-04,1.399598836898803711e+00
-1.022129005401433421e-01,-5.843189876880755529e-01,7.768043255921494028e-01,3.221968730281713628e-02,-2.253631039286999732e-02,-4.355166402056690617e-02,1.199668884277343750e+00
-4.421499684235992433e-02,-8.314304143187408735e-01,8.114149829674863756e-01,-8.290797494258707887e-04,-7.124278897009559026e-03,-2.378186420494932726e-03,1.423217177391052246e+00
-3.672427897152900911e-02,-8.321606349979413508e-01,8.114257718585151657e-01,2.066998299056565548e-03,-1.510845755918845124e-03,2.079466900886160242e-03,1.423642992973327637e+00
-7.588029857478267859e-02,-6.791886279625070078e-01,7.895300013927286642e-01,-2.650431417328352399e-02,3.018721324771173053e-02,-4.615188168677183955e-02,1.283065199851989746e+00
-8.485258655808119999e-02,-7.237296042414826935e-01,8.044518572346556207e-01,-1.161188265468569934e-03,1.191908305961619785e-02,-2.757213071934126042e-02,1.330373406410217285e+00
-3.036961865567523039e-02,-6.701035194897351221e-01,7.718128624851985364e-01,6.314272305071248759e-03,-1.752988402213956354e-02,-8.779387405692385543e-03,1.251883506774902344e+00
-4.730170139327471990e-02,-8.189982778841186084e-01,7.941540920037006845e-01,6.679215358119010640e-03,-1.582848067579597715e-02,-1.623572690263410528e-02,1.398065924644470215e+00
-1.359477427905806668e-01,-3.995419315849464414e-01,7.446308647023472949e-01,1.848271533558756494e-02,-1.398937360337815412e-02,-5.957811177025828381e-02,1.043684124946594238e+00
-9.830176064194694197e-02,-6.914498077385370367e-01,8.098353677050407207e-01,1.345697348850216158e-03,-1.226130438166401354e-02,2.200775956477629344e-02,1.310384273529052734e+00
-7.913456279450513386e-02,-7.197552166864084056e-01,8.059147166050606437e-01,-1.630115099516865271e-02,2.223208351768220237e-02,-9.236809446166324711e-03,1.327864408493041992e+00
-6.600191990129145037e-02,-7.331514853214262661e-01,8.018346595359845397e-01,1.889033750284653231e-03,2.727447658085203550e-02,1.369664624409868900e-02,1.334170460700988770e+00
-3.537543393133159991e-02,-7.776749100754057897e-01,7.187974785162913882e-01,-6.178405339765477566e-03,-1.037119036242425962e-02,1.058801821934695145e-02,1.296295046806335449e+00
-1.004662718954450473e-01,-5.756515627129066281e-01,7.851259653865378940e-01,5.476985034780284742e-03,-2.309708036227674233e-03,-6.338339424832052649e-02,1.201271533966064453e+00
-6.404115480707914254e-02,-8.676327402403919420e-01,9.255699694996392113e-01,-1.458111011612610308e-01,-5.944564669584705141e-02,1.972885346002369034e-02,1.579836845397949219e+00
-9.944120074187376424e-02,-6.175088807955914083e-01,8.815774246631115085e-01,-1.113217649448455665e-01,1.337919588738195956e-02,-3.443138706892312495e-02,1.334277629852294922e+00
-9.732932934664315083e-02,-6.046272373996517402e-01,7.662709860626010228e-01,-4.530355153964731041e-02,3.707964128802804238e-02,-2.904869184070083682e-02,1.205849409103393555e+00
-4.296679058680345775e-02,-8.013687220931463573e-01,8.075628059458709318e-01,-4.636479051389413115e-04,1.273978367901518020e-02,-1.274120859494353407e-03,1.394313335418701172e+00
-7.383583364746702793e-02,-5.991597106861665800e-01,7.830669127593107293e-01,-7.944364351109869937e-02,-3.055014202586823178e-03,-6.977100386398332570e-03,1.216349840164184570e+00
-4.838327074225202973e-02,-8.246654333609551024e-01,7.714749380410028667e-01,1.816852418723483020e-02,-1.024926740942650946e-02,1.661615856893818022e-02,1.383241295814514160e+00
2.193456556407770430e-04,-7.884836951889470091e-01,8.374227518069000675e-01,3.958828632482323806e-02,1.038106097722113833e-02,9.205985967761098551e-03,1.410158157348632812e+00
-7.673682514525900777e-02,-4.288946775770210440e-01,7.512099413890918065e-01,-1.949667005731146596e-01,-1.000295591710073234e-01,-5.479724866922984494e-02,1.119884371757507324e+00
-7.212191939873875690e-02,-3.241494364757555591e-01,4.351008905321162579e-01,-1.552915227127756870e-01,-1.154275098893925988e-01,4.304635577991502288e-02,7.526637911796569824e-01
-5.290498249788042756e-02,-8.560841502195865038e-01,8.613112985328080784e-01,-1.141079691903306489e-03,-1.624670950026289125e-03,8.102475033350971766e-04,1.488348603248596191e+00
-4.922903514953384796e-03,-8.246269442326153998e-01,8.335054858695333246e-01,1.077218894347886473e-02,-7.716960220099444018e-03,2.004617848339241941e-03,1.436202883720397949e+00
-1.454521423761053270e-02,-8.265164945002297925e-01,8.340673300086037800e-01,5.476897211154010611e-03,-8.474199527906244728e-03,-8.413802105293041386e-03,1.438404440879821777e+00
-1.009082678708497077e-02,-8.548103841567018524e-01,8.570674234567904337e-01,1.194122872079516999e-02,6.495806299859041046e-03,-1.940005475950461406e-03,1.482762932777404785e+00
-2.738984724681911218e-02,-8.660418648368282124e-01,8.874346736050336970e-01,5.947739901249354116e-02,-1.833176504611261706e-02,5.617128792555041439e-03,1.522884130477905273e+00
-1.949726705428634146e-02,-8.298830615181852499e-01,8.369350889049645970e-01,7.557771024046247219e-04,-7.820466156767624799e-03,-7.922321351279983798e-03,1.443819761276245117e+00
-3.890764242728041861e-02,-8.412523186525904251e-01,8.578066372072988832e-01,1.414142711131229774e-02,1.275210079656282150e-02,1.544590029588544661e-02,1.472796916961669922e+00
-4.542291477555651658e-02,-8.347890364654375617e-01,8.362500276881384975e-01,3.117528091858553368e-02,5.084847949323533650e-02,-3.114651130255428370e-03,1.451588869094848633e+00
-7.599026329889795039e-02,-8.945167954295203394e-01,1.006954949848533509e+00,1.923301583415923388e-01,-3.821725732128228997e-02,-2.045690376067671803e-02,1.686945557594299316e+00
-1.190287640393714458e-01,-1.052028649565967644e+00,1.043273918754274776e+00,3.656681703820544027e-01,-4.283583066021901149e-03,1.053475438714074515e-02,1.925458908081054688e+00
-8.307968114383443292e-02,-9.584617586566739345e-01,9.628361885868274017e-01,-1.385757322080428781e-02,5.437982248866965462e-02,1.321373873519931207e-02,1.669065952301025391e+00
-6.225475751339359237e-02,-1.234959201855230670e+00,1.060897918377363691e+00,2.275244668452959251e-01,-1.547206589926724551e-01,-1.181574997042039860e-01,2.054953813552856445e+00
-2.892784521866069436e-02,-8.570655944256462266e-01,8.449771482898319475e-01,-1.874047344924209893e-02,-3.326006855608790169e-02,3.656792746852865345e-02,1.477030754089355469e+00
-1.588513026194000866e-02,-8.569984097272941304e-01,8.573073104772900299e-01,-5.309164207666517560e-02,-1.578079099016340553e-02,-1.026162663881649909e-03,1.487816095352172852e+00
-5.427849172464808275e-03,-8.346816762202732276e-01,8.438033393421425776e-01,-5.297485962275501684e-03,2.565075489511223650e-03,-6.546514741237724651e-03,1.453724980354309082e+00
-1.681188863952485374e-02,-8.277292954889300391e-01,8.349754780039284618e-01,1.086584241833859392e-03,6.235281849561862336e-03,-4.909540053311938629e-03,1.440156340599060059e+00
-2.865980568536661416e-02,-8.234488124659919972e-01,8.085456553539387414e-01,-2.272900995990631209e-02,-1.872642576669530587e-02,5.647387923638363082e-03,1.414461612701416016e+00
2.681027393868586073e-03,-8.170555446126285259e-01,8.092243250618189609e-01,-1.370733939908563154e-02,9.657199116272243561e-03,-6.264984981652017837e-03,1.408756375312805176e+00
-4.298952806836197661e-03,-8.180437682004824129e-01,8.298505276326415547e-01,-4.885787428824257123e-02,-5.551023341861719904e-03,-3.032062079246138596e-03,1.429703474044799805e+00
-8.635611187271913236e-02,-8.231395742508068603e-01,7.843549676063832354e-01,-5.495773979109779168e-03,-2.388590965182287376e-02,-2.257159363114581013e-02,1.394935011863708496e+00
-7.550837882159897041e-02,-8.213487390379488051e-01,8.119937419199844131e-01,5.304302031477953379e-03,-1.669434977453276500e-02,1.356158788322432175e-02,1.416808009147644043e+00
-6.795955019549457243e-02,-8.067138671010465334e-01,7.448742008563342676e-01,-3.315091601708509018e-03,-1.408508548551817320e-02,-5.798599922520986452e-03,1.344496250152587891e+00
4.201506534370926665e-03,-6.916750385386438715e-01,7.634009084263206901e-01,3.137439898733291460e-02,-9.872215151469009367e-03,-6.594538249026223736e-03,1.261868834495544434e+00
-5.122064911382992469e-02,-7.986603400702693145e-01,6.702204475164958986e-01,4.603790156263570625e-03,-3.316699810957284000e-02,-2.663071062102994550e-03,1.273484230041503906e+00
-8.110369636936556881e-02,-8.382376437717573570e-01,8.441814403612871720e-01,-3.426747293707948540e-03,-5.932556098392914590e-02,-2.780118729265067322e-04,1.463066339492797852e+00
-8.126957076783081213e-02,-8.043272288070976161e-01,7.627709716178873167e-01,-5.410411022029017669e-04,-6.576503028645980589e-03,5.915281076573530221e-05,1.358542442321777344e+00
-7.878090701161280518e-02,-8.119073842594972668e-01,7.767281385453473908e-01,4.583328771179500695e-03,-4.054007950172494601e-03,7.004456409166607764e-03,1.377253055572509766e+00
-5.422398725037449324e-02,-8.030705637692280296e-01,6.772164687606569977e-01,7.634915361922280271e-03,-3.710570916469394659e-02,3.535212921511551344e-03,1.283688426017761230e+00
-4.898954469441189896e-02,-5.570846878013774317e-01,7.430472270069214957e-01,-6.110993713111796677e-02,1.082728012342365834e-02,-1.241844530184632416e-02,1.140144944190979004e+00
-2.924561815689896010e-02,-6.544239325409563213e-01,7.568285992688247310e-01,-9.024134413601852048e-03,1.214118863573897950e-02,-7.251520028687953937e-03,1.225170016288757324e+00
-3.605201188286802361e-02,-6.591151689305748684e-01,9.086002974124472997e-01,-2.050312091490631983e-01,-3.298199076167802196e-02,4.424211670747683206e-02,1.415769338607788086e+00
-7.666959706748341374e-02,-6.408312817871343325e-01,8.162634739804155437e-01,-2.017639886554695450e-01,1.872125787430635804e-02,-3.362307238817788951e-02,1.321338534355163574e+00
7.614290027642196812e-03,-6.646034462729966119e-01,8.331003634019086279e-01,-1.616011471634733465e-01,1.802937940824548071e-02,2.467361084904044245e-03,1.329491853713989258e+00
4.902821222071140905e-04,-6.586666192628991556e-01,7.450526054546744437e-01,-3.224889372354572403e-02,6.606541744525202403e-03,2.183576214546063051e-04,1.217741847038269043e+00
-2.896334448691466334e-03,-6.616495028930122757e-01,7.537056379475759460e-01,-2.714257835578307021e-02,-6.322300479348972289e-03,6.329464580601181639e-03,1.227707862854003906e+00
1.894845879587823967e-02,-7.908972716457361996e-01,8.040555177696584455e-01,-8.949742537051648059e-03,-8.317286647892531415e-03,1.759463957817138926e-03,1.381490468978881836e+00
-5.818869170166537236e-02,-7.551767832210067866e-01,8.107498152855515672e-01,-4.591184513875425782e-02,-4.056293300083446685e-03,4.085493804608621160e-02,1.363035917282104492e+00
-5.100004181853910745e-02,-6.287165874899023343e-01,7.764672717789374845e-01,-7.435778962391879909e-02,-6.532891880755456286e-03,8.269186820373100599e-03,1.230211615562438965e+00
-1.184247750221396056e-01,-4.621771607161176965e-01,7.640920644246497195e-01,1.349841209786033225e-01,4.640503804914939204e-03,9.496818467369946837e-02,1.132321715354919434e+00
-3.426336529585284618e-02,-6.090073991809201726e-01,7.551772477048979137e-01,7.580208944683290706e-02,1.532985759071690823e-02,7.341220242219758003e-03,1.193892002105712891e+00
-5.604659206581770470e-02,-7.535750064985708985e-01,8.761741517958641090e-01,1.309943808836275814e-01,-5.661555661487642499e-02,-4.924037702578795000e-02,1.440208435058593750e+00
-4.739608180330664999e-02,-6.027290454055346247e-01,7.645012977240884799e-01,4.793049437359024612e-02,2.029454600350346152e-02,-1.325214494921749496e-02,1.194612860679626465e+00
-6.624197609245421892e-02,-4.648595532766771621e-01,7.802883836281991892e-01,1.804209175915265639e-01,-5.649848006908389508e-03,9.728072004885226706e-03,1.144983053207397461e+00
-4.763878472001904785e-02,-5.867274056579876440e-01,7.529989250854809413e-01,5.403050351657585904e-02,2.698933844779054930e-02,4.174060456849635475e-02,1.174487948417663574e+00
-1.496725753453810870e-01,-6.341277104890968852e-01,1.200461930393513343e+00,2.341059767330805341e-01,-7.005999635695248084e-02,1.261884054231344199e-01,1.714220523834228516e+00
-9.070450507401585372e-02,-6.290576421009279606e-01,7.962174438893170336e-01,2.283082449559060284e-02,2.430065750154869475e-02,4.407152170539426622e-02,1.250237584114074707e+00
1.080966635167592699e-02,-8.380953857058031087e-01,6.765412540643280792e-01,-8.735767224440790790e-03,-1.429660146371186658e-02,8.715531436585892758e-03,1.315314173698425293e+00
-3.683176876957976187e-02,-8.446895829301384051e-01,6.298859555937859067e-01,-1.106945284238992390e-02,-2.133991766152081304e-01,-1.769807190777094794e-02,1.331797599792480469e+00
-3.788541375792851135e-02,-8.402780872551367519e-01,6.597888077388394112e-01,3.800919572219564960e-03,-1.372282625724648986e-01,1.472762371725671151e-03,1.321717262268066406e+00
1.745393083801529688e-01,-1.004452501908382089e+00,2.481422564973821965e-01,-1.148802164940312433e-02,-3.180724814086399177e-01,5.128421362325860655e-02,1.339407682418823242e+00
1.376946854691581124e-02,-8.819114004881420943e-01,6.077566216479302064e-01,5.085348056108014714e-02,-1.370382154881644166e-01,-3.749390752679397122e-03,1.323339223861694336e+00
8.175269918920577417e-02,-8.015291885897518620e-01,3.373973288651189173e-01,-2.334837983870319560e-04,-8.721939165500992852e-02,-2.352996942033887956e-02,1.046819090843200684e+00
-4.137271969886491263e-02,-5.395635767792826831e-01,7.292572425522346746e-01,5.479394759844369300e-02,1.780681775570498336e-03,-2.569982607025566267e-03,1.111315369606018066e+00
5.630852949160597420e-02,-8.072126634886220842e-01,4.502779772376716005e-01,8.314767968386231264e-03,-1.310178908852630865e-02,-4.469835625048976246e-02,1.117048740386962891e+00
-1.535024780101059139e-01,-3.870363785592402239e-01,8.413693638843755540e-01,1.729003095555729785e-01,2.528181939189099586e-02,-1.070392818158514975e-01,1.184321641921997070e+00
-1.350702196330577365e-01,-4.490453422781058856e-01,7.473036835378380482e-01,3.534310582787376920e-02,-1.405760036993540692e-02,-5.962267546484531500e-02,1.081301212310791016e+00
-1.527635532943596441e-01,-2.762033148099981572e-01,8.398211758688236550e-01,3.030805390001499733e-01,5.786837413272832159e-02,-1.253681185997519883e-02,1.187045693397521973e+00
-1.681372677179503450e-01,-3.291084368699137563e-01,7.336451272344245433e-01,6.078680916221373444e-03,-7.448110385088311690e-04,-1.922485916764080094e-02,9.927262663841247559e-01
-1.622478578999292931e-01,-2.264230279961461645e-01,7.263889652799995211e-01,-2.306232230037137416e-03,-1.191773802651193391e-02,-1.919193002327505490e-02,9.232385158538818359e-01
-1.197492717021695352e-01,-2.582620944391830764e-01,7.926419690892941849e-01,2.137653779954650224e-01,-2.900429273842945873e-04,4.295056341865852167e-02,1.058604240417480469e+00
-1.496209296258986521e-01,-3.684113722184155781e-01,7.292220380592747686e-01,5.682053408472769775e-03,-6.259909953136337350e-03,-6.408748706483811258e-03,1.006406664848327637e+00
-1.559598250005947151e-01,-3.686558910156482183e-01,7.278626222685632419e-01,-7.530381432072615587e-03,-1.065830790745413408e-03,8.180407967054787594e-03,1.007343769073486328e+00
-5.133404302748915959e-02,-6.141025451532008406e-01,7.864746934429817093e-01,-8.219902548015017851e-02,-1.444418323861510096e-02,1.243658556548693332e-02,1.229424357414245605e+00
-1.883506176197130566e-01,-2.091497354876938886e-01,7.995820914021413151e-01,-1.291330696253246112e-02,-2.204668782267674848e-02,-6.778078574606180226e-03,9.995439052581787109e-01
-5.599611927522292476e-02,-6.413381923475818258e-01,8.104456104736061928e-01,8.592815939671559489e-02,-1.960684379641741346e-02,-2.177454026029215783e-02,1.274848222732543945e+00
1.280677419824242658e-01,-8.008938674685373016e-01,2.863066851336129037e-01,8.892684189698324415e-03,-3.199472295763441942e-02,-1.684096146926153045e-02,1.019394993782043457e+00
6.476082860039573605e-03,-7.506568269080221567e-01,7.741675258147282523e-01,3.663433899288315310e-02,-1.211001555266183125e-02,4.987505398976313292e-04,1.322237372398376465e+00
1.962339376495225718e-02,-8.005268044382227721e-01,5.624141473337794794e-01,3.605340434792037724e-03,-1.834700058185548916e-03,-1.464657429770951967e-03,1.188483715057373047e+00
8.936623709354868383e-02,-7.732535560556800247e-01,3.840371215149779305e-01,-5.834697072719266173e-03,-2.198604805946690124e-02,3.303459649680675920e-03,1.042457580566406250e+00
-1.565723942711151617e-01,-3.501193116739975131e-01,7.164350749157352150e-01,-8.999150623628205531e-03,-1.484926787276525132e-03,-7.030881083016352583e-03,9.843618273735046387e-01
-1.361251342203167458e-01,-3.671800342516219895e-01,7.285763577413021386e-01,-5.475610062982016329e-02,-3.728068427084083123e-03,3.280706185299945427e-02,1.006555438041687012e+00
-1.109412190407206289e-01,-4.031277041072755529e-01,7.254489486744096771e-01,-6.206676256018008042e-02,8.091990407698984242e-03,3.082440688011954793e-03,1.020335793495178223e+00
-2.702369892662898759e-02,-6.720140597734752808e-01,7.653651246047372680e-01,4.689723041909422789e-03,1.428305872899292284e-02,7.748542957429120116e-03,1.247330665588378906e+00
-1.700890160844230337e-01,-3.350620242142285377e-01,7.427610353906953788e-01,1.013129542672749211e-02,-4.605673788225286489e-03,7.063964654405903432e-03,1.005797266960144043e+00
-1.667321197991873949e-01,-2.174561094768455716e-01,7.226298896385313641e-01,9.886787263490900285e-03,-4.185655354800486665e-03,1.691841889097987772e-02,9.164355993270874023e-01
-7.922417578338591948e-02,-4.578946939672980943e-01,7.591745299741625708e-01,-1.367290363300875944e-01,-1.086471074403782058e-02,-2.246762493994044693e-02,1.105320572853088379e+00
-5.139276408396521723e-02,-5.198876362203684875e-01,7.369176642254366971e-01,-5.310725508966383096e-02,4.418887392159666534e-03,-1.395446734315262255e-02,1.104239106178283691e+00
-1.685891220774390908e-01,-2.919922837873287769e-01,8.045227526302810572e-01,-7.841974757989626788e-02,3.373673132056446283e-03,1.891456291885363142e-02,1.049674510955810547e+00
-1.700460102619403835e-01,-5.639142867756463673e-03,8.367758503032481920e-01,6.638514128567070405e-02,4.032542544540264340e-02,5.796401192997127638e-02,9.504579305648803711e-01
-5.503184348530280878e-02,-8.285017657545173941e-01,7.991202719049901315e-01,-3.895742633649036234e-03,1.578708029452651753e-03,-2.551652315957666020e-03,1.410164952278137207e+00
-6.040003198712927401e-02,-8.277712373846900507e-01,7.961565247722792726e-01,-6.394744813233500455e-03,-4.595284707820405413e-03,-5.248187145021488385e-03,1.407164931297302246e+00
-4.394951671498907586e-02,-8.351399883925934020e-01,8.118937516543577315e-01,-2.830008059506201358e-03,1.720153391976272060e-04,-1.671413029180285207e-03,1.426750659942626953e+00
-4.586657652619810510e-02,-8.335512139009659816e-01,8.087393665465407722e-01,-5.956264673257540823e-04,-9.320765553854147665e-05,4.286221223857345527e-04,1.422659516334533691e+00
-1.315414444759091250e-01,-6.346981150379916725e-01,8.089085316990184404e-01,-6.766842207091820771e-02,-2.413538340588893254e-03,1.787545312101174524e-02,1.274958610534667969e+00
-3.942597819349126509e-02,-2.583390960920100565e-01,3.847225872652115242e-01,-1.254390530997544911e-02,3.066777786893854288e-02,3.950274011087225728e-02,5.732814669609069824e-01
-7.274521679704649968e-02,-6.832156936097695255e-01,8.020620657989984137e-01,2.533412418564689496e-03,4.885741603150583166e-03,1.015224536525129312e-01,1.304997086524963379e+00
5.289572172226664204e-02,-6.265965318117978633e-01,1.879637361009409147e-01,3.857736390378783964e-02,-7.774202546214900589e-02,8.126471551314427832e-02,7.836700677871704102e-01
3.141434119336260211e-02,-8.740067101636352920e-01,5.712398558030282736e-01,1.834093287068893491e-02,2.166016550806029381e-02,-1.426689013459440103e-01,1.289747357368469238e+00
-7.127330047705050797e-02,-1.407669826870269869e+00,1.165891745818377956e+00,-2.105058028068688691e-01,1.932544547865174683e-02,1.739967765489500162e-01,2.279201507568359375e+00
5.975483825433530738e-03,-9.742454167469518644e-01,5.922447297543121936e-01,3.454276230064755489e-03,2.682117828796428682e-01,-2.858024561975265262e-02,1.448280692100524902e+00
-1.077045820698281225e-01,-1.000198258759384728e+00,1.063772622301831117e+00,3.271761294886058741e-02,3.156969799957033695e-02,-1.947939513800727232e-02,1.794931530952453613e+00
-7.107848793511700736e-02,-8.764635844913547524e-01,7.969321047131912028e-01,-5.544234390502554219e-03,-9.295651718361463978e-02,-2.293222399660769378e-02,1.459028124809265137e+00
1.966904643440303690e-02,-9.675809465164767476e-01,5.912743333699861381e-01,-4.351594328192351195e-03,1.736701921224382827e-01,4.403519329684728312e-02,1.400739312171936035e+00
-7.365827344091943618e-02,-9.553326504912912354e-01,9.323443918187496182e-01,-2.428194153779529227e-02,9.461877811833653562e-02,-2.498607255727591445e-02,1.645253062248229980e+00
-2.062054163306364929e-02,-1.271234672212980144e+00,9.225594539774442104e-01,3.291609855510591043e-02,-1.106012874367217069e-01,1.259334349290729960e-01,1.928912758827209473e+00
-5.020432643398267669e-02,-8.767450319569254358e-01,8.991766290061184996e-01,3.565530278360235818e-03,6.871846556366363601e-03,3.232713409441777264e-03,1.539287805557250977e+00
-1.686176874024002958e-01,-2.223313164851190016e-01,1.181150296346696216e+00,8.001295158510504657e-02,-1.071015186628252770e-02,3.771225602147050115e-03,1.384504556655883789e+00
-1.530084039521374950e-01,-1.350520904931089006e-01,8.239890346715559311e-01,6.622947741962384449e-02,-4.375439630598942226e-02,6.501745566021825511e-03,9.779224395751953125e-01
-4.059544532435013786e-02,-6.182808102547608931e-01,7.560520224480615781e-01,6.438242248938602641e-02,2.205463287152429480e-02,1.970291824333925135e-02,1.201514959335327148e+00
-1.287547409215529237e-01,-3.095667083431626887e-01,8.022023027690232677e-01,2.241249699122672689e-01,-1.056638216243189626e-01,-9.239841009704202746e-02,1.130267739295959473e+00
-5.256917445212991313e-03,-8.059100957351668093e-01,6.003114123896121646e-01,-1.290902109091868373e-02,4.643115530846099459e-02,2.590095842138801299e-02,1.225393295288085938e+00
-5.132069198513425357e-02,-5.713109065830984656e-01,7.592299085412095305e-01,4.313216109910764096e-02,2.277835061052521301e-02,3.568299273098513719e-02,1.166112303733825684e+00
-1.336994487153477518e-01,-5.243730194829516744e-01,7.676256353008588107e-01,-2.180166981483366503e-02,-9.709796777892947678e-03,-1.410618764916443321e-02,1.148669838905334473e+00
-8.692662245991389369e-02,-5.552822290448840015e-01,7.643987788760613356e-01,4.990061532244531931e-03,2.477099668752637956e-02,3.397579678984485874e-02,1.161126017570495605e+00
-1.206468362686143603e-01,-4.475152510305948628e-01,7.382238715932384343e-01,3.245992777217372727e-02,1.241497776747994310e-03,-1.017122386396988876e-02,1.062410235404968262e+00
-2.457514723021590047e-02,-7.378363366547820990e-01,7.862177712479976321e-01,-8.116242441570270527e-02,3.397300295112116314e-02,2.900557539974676219e-02,1.330482006072998047e+00
-4.114313783947422254e-02,-8.111390575464429986e-01,8.142287168369460870e-01,-5.245721778020628022e-03,-1.221191095931631722e-03,-5.538990546341306109e-03,1.408320546150207520e+00
-1.875833303456292747e-02,-7.273644051791673393e-01,6.582645699767324388e-01,-6.309741755627117088e-02,5.735719322076485160e-02,-1.912957071411334163e-03,1.209152340888977051e+00
-7.503518265621531014e-02,-6.852021653448540084e-01,7.477710173779125169e-01,-2.745403296120517145e-01,1.196213839759415476e-01,-3.123637245931069548e-02,1.350309252738952637e+00
-4.453704826473671441e-02,-6.419363340744657087e-01,8.298520642208937481e-01,-2.322699960193261581e-01,1.212918164426363549e-01,-2.876059965090812034e-02,1.360979914665222168e+00
-4.166629303811840435e-02,-1.064835099758394410e+00,8.894991667001868052e-01,-2.512062937993123080e-01,1.712538317526678677e-01,-4.111878315758176611e-02,1.774556994438171387e+00
7.873819375730739534e-02,-9.569961114508297451e-01,4.549644710530666991e-01,1.378387182949420602e-03,2.867413004297909018e-01,-1.244521241821140434e-01,1.377350568771362305e+00
7.247863866805592803e-03,-8.429218187476187341e-01,5.932936937026580537e-01,-1.085139467292291172e-03,3.002513035650496848e-02,2.984055921277010970e-02,1.252938985824584961e+00
1.070319100970232584e-01,-6.964837064473187178e-01,2.304572256334874170e-01,1.556314810722781439e-01,1.953900073279341565e-01,-5.320090433641210675e-02,9.776152372360229492e-01
2.092506623689414924e-02,-8.135565697610054325e-01,5.477528940565929982e-01,-1.959466356962033182e-02,5.038915571163071760e-02,2.725295442021182304e-02,1.193537831306457520e+00
-1.431396120500738611e-02,-8.709394557979367457e-01,6.329026304194039776e-01,-8.801503978842032186e-03,1.989111936440243200e-01,7.211171766958494878e-02,1.357073545455932617e+00
-1.827453025055070929e-02,-8.379766257467486934e-01,8.366367729615074023e-01,5.317663965317540780e-04,2.958119183264371066e-03,-1.077418287657961639e-02,1.450493931770324707e+00
-4.731027457598392834e-03,-8.757717894719182494e-01,8.579293961379887978e-01,-3.771557576042925547e-02,-5.542277579803588788e-03,1.404752619640681037e-02,1.503083109855651855e+00
-2.312318851434436162e-02,-8.729015314610509835e-01,8.825718921356705549e-01,-4.042351757716336480e-02,-1.948270137498164106e-02,-1.580156142829129045e-03,1.522529244422912598e+00
7.176510088301907286e-02,-8.305339959611918177e-01,4.100517569476093138e-01,-1.688347561555429005e-02,-1.077459269802695102e-01,2.932489631122514595e-02,1.127865195274353027e+00
9.087779309593724264e-02,-9.210185230351182195e-01,3.969797666133538794e-01,1.664035968858771850e-02,-1.321997872680117092e-01,8.528448640324499952e-02,1.225747704505920410e+00
-5.393677843475253725e-02,-7.960293394239387199e-01,6.630345457119922736e-01,-4.268054161954259323e-03,-3.623626274465982511e-02,-2.664960858804213580e-03,1.265236496925354004e+00
-4.299428246390242514e-02,-9.789518158864870534e-01,7.924010988432829139e-01,-4.552384612933215585e-02,-1.751260231868133621e-01,-1.485240907796170524e-02,1.566742777824401855e+00
-1.965592518283901247e-02,-8.266819659184434510e-01,6.872490093095113828e-01,1.469340280478272781e-02,-1.999159086731913323e-02,2.374111588780810841e-02,1.313405513763427734e+00
8.148926560528638174e-02,-1.149512183267151322e+00,5.957129505369581635e-01,7.672017018165616653e-02,-2.936934357940350626e-01,2.085410795044495905e-02,1.640283703804016113e+00
2.189776274592726280e-01,-1.355182094209165022e+00,3.601676644169350405e-01,-2.626767361657842970e-01,-2.729129504348576374e-01,-6.223280026835608519e-02,1.778265833854675293e+00
5.051694741129639232e-02,-1.034344850876290689e+00,6.288327214119905362e-01,-3.014478334398799919e-02,-2.373011788294346336e-01,8.967739199768903768e-02,1.527925014495849609e+00
1.236329941859129478e-01,-8.909984146520114612e-01,2.838064706203118348e-01,-6.363865375060798191e-02,-1.566347861795410190e-01,8.966342170524915778e-02,1.152181029319763184e+00
-4.593535010079913966e-02,-8.168196654358925723e-01,7.685591544160851329e-01,-1.038219263252135489e-02,-2.874974311795161930e-03,-1.252377835955766419e-02,1.373449563980102539e+00
-3.439394071782800322e-02,-7.918858329714212330e-01,7.981585636659653815e-01,8.722469911360492337e-03,1.664013745258983296e-02,1.100691226182465982e-02,1.378046393394470215e+00
-3.512234475788147958e-02,-8.291261384189264616e-01,8.126880784870925689e-01,-2.910500550059445801e-03,8.897032061324611218e-03,-2.797925594728177447e-03,1.422207951545715332e+00
-1.758257898359154997e-02,-8.236719685330292640e-01,8.048304350288506548e-01,5.896503111042966476e-03,3.528066303526830247e-03,-2.222058120043767741e-03,1.410403490066528320e+00
-3.777909001768044173e-02,-8.342791735797373542e-01,8.118464981376903866e-01,4.157894609331101070e-04,4.816159178535284191e-03,-1.061681698711774143e-05,1.425858736038208008e+00
-3.657210072236348475e-02,-8.325089238864449293e-01,8.111782702886064511e-01,1.596204908641460081e-04,3.641211740849558016e-03,8.357585209952095697e-04,1.423725366592407227e+00
-2.316925583559490548e-02,-8.283064642571611458e-01,8.079627763883727720e-01,-1.177327330233189466e-03,8.949130011814394534e-03,-3.267002996392408005e-04,1.417196631431579590e+00
-2.112066631322374877e-02,-8.239529693618593553e-01,8.017631604834286607e-01,1.192159197061127933e-02,5.807431560736380123e-03,6.234568618641967742e-03,1.408175945281982422e+00
-1.503496475772467603e-02,-8.650946157212133780e-01,8.489901105657552405e-01,8.477687537418466743e-03,2.978402689650835032e-04,5.479880359580381437e-03,1.484560370445251465e+00
-1.095744525363200918e-02,-7.651442995009828385e-01,7.796971375109004176e-01,2.552720821987473562e-02,2.498268374763905342e-02,2.571026507895014801e-02,1.340165734291076660e+00
-1.396606614987661588e-01,-3.763336197763308411e-01,8.969005079364181787e-01,2.676109783329077563e-01,4.446388221659678362e-03,-4.095286023446529505e-02,1.263224720954895020e+00
-1.839589869698294022e-01,-7.570715111325030389e-01,1.071665098830609342e+00,3.810876673413498561e-01,4.935914256853366280e-03,1.535971254180411825e-02,1.749607920646667480e+00
-4.741428090015146340e-02,-8.020233443313815602e-01,8.104021315840814754e-01,-1.159015294041980219e-02,1.777051888359842610e-02,-6.436877716276484009e-03,1.397882223129272461e+00
-4.792636222226565046e-02,-8.327340042488808880e-01,8.153354093153459825e-01,1.947245764414576785e-03,9.214615194297563067e-03,1.280953193808146004e-03,1.427903890609741211e+00
-4.876132986802695496e-02,-8.158736899441291213e-01,8.119825964555041908e-01,-3.623434918967455547e-03,8.915118068825290606e-03,-5.320213952374070084e-03,1.410670638084411621e+00
-4.674150530439570572e-02,-8.296083692829776535e-01,8.071706074272341214e-01,3.802765190579938167e-03,-1.771993799073486552e-03,8.023655847358845614e-03,1.418023943901062012e+00
-4.040200151265560535e-02,-8.338301592344898872e-01,7.662012802537785383e-01,1.207611675720884729e-02,2.758059851475632394e-03,1.112825365398968647e-02,1.385983705520629883e+00
-3.653151096313117518e-02,-8.321941307236704333e-01,7.663859571895907941e-01,9.164190022987199827e-03,-4.866466138027724731e-04,1.316835794316399341e-02,1.384694814682006836e+00
-4.602337263783959354e-02,-8.331538718402889954e-01,8.108856252196038339e-01,5.663781752748062344e-03,1.053666784533003817e-02,-2.689946639764055451e-03,1.424365758895874023e+00
-1.856037351203475988e-02,-8.215940421723344489e-01,7.162008909044408345e-01,-8.147589951343665740e-04,-1.137044273176577268e-02,1.130699822365919573e-02,1.332497119903564453e+00
-3.578493190364260418e-02,-7.894442812502953100e-01,8.060639754497672671e-01,-8.501510583071494181e-03,-1.959444507309088604e-02,-3.405163061853811683e-03,1.382961630821228027e+00
-5.699485768178962075e-02,-8.223674837900160073e-01,7.806733905540363949e-01,1.356934855405887794e-03,-3.853561224133873492e-03,2.576610018506622461e-03,1.388769865036010742e+00
-1.548112228835656773e-02,-6.845796543114733845e-01,7.703529701090198190e-01,-2.466924770880729242e-02,-2.035119795640229559e-02,1.829863553257978989e-02,1.262973189353942871e+00
-1.155660282607659795e-01,-5.954336388703388439e-01,7.973841271456270086e-01,-3.126561019146158887e-02,-5.827633455866572387e-03,-7.069568981930061599e-03,1.226796865463256836e+00
-2.670675012707352663e-02,-8.501531631039849213e-01,8.776255807463685388e-01,-2.727356730102562660e-02,-1.118176470488670658e-02,1.501179916087234945e-02,1.497942924499511719e+00
-1.232204370146777403e-02,-7.909991839375795086e-01,7.964690422685848370e-01,-1.488435030414009957e-02,-2.136341936004007916e-02,8.088920386365976850e-03,1.375681042671203613e+00
-2.240847824415619777e-03,-8.099046649430166056e-01,7.958266873737733782e-01,-2.776248056763481326e-03,-6.263939196605236050e-03,-2.366054486099781768e-03,1.390669107437133789e+00
1.914464396857324530e-02,-7.855550929243766412e-01,7.769822115097247961e-01,-2.609574792029555144e-03,-6.175461079764511113e-03,-6.540523850898137884e-05,1.353449702262878418e+00
-1.455311095691062470e-02,-7.253221525143862536e-01,7.763329421695530641e-01,-2.566087703468855619e-02,-2.048709767763579048e-02,-4.844839937657927087e-03,1.302357792854309082e+00
6.221925584948209687e-02,-8.063005458093942535e-01,4.870883366940392811e-01,-6.546732831125034666e-03,-1.460594101583975041e-02,-1.875062237674069571e-02,1.142659544944763184e+00
9.729040226209070830e-02,-8.814974379190864129e-01,3.855439971416554368e-01,1.045700433174763869e-02,2.510654488737874140e-02,-1.429980029134808317e-01,1.177632927894592285e+00
5.461010169678653936e-02,-8.135310114191439679e-01,4.509392819772726213e-01,-4.465311318022745744e-03,1.702713056211080508e-03,-6.985717470526242590e-02,1.126731634140014648e+00
3.250397668105259319e-02,-8.161765730760519588e-01,5.593862219447840456e-01,-6.797717705501553007e-03,2.183382452336357811e-03,1.639599269386488381e-02,1.202488183975219727e+00
6.636473854394614458e-02,-8.069920170002392590e-01,4.830847292656815783e-01,9.603146400103458949e-03,3.205954618245555193e-02,-4.673813004620359923e-02,1.144668579101562500e+00
4.247902428950064979e-02,-8.007939816763816054e-01,4.876334762354123109e-01,-7.395271673818282557e-03,3.803087747980576222e-02,-1.998606400801358676e-03,1.135417819023132324e+00
-4.736984432029772707e-02,-8.059139432375014289e-01,6.786936746259328856e-01,-1.537017623855332742e-02,1.358076622677111822e-01,1.754181189112155592e-02,1.307773590087890625e+00
8.782819750087020316e-02,-9.211650446655901270e-01,4.574211039880400342e-01,-7.428939726729500218e-03,1.377525266857155262e-01,5.813867352367198260e-02,1.262860298156738281e+00
-7.279936820295401789e-04,-7.896384109593753697e-01,5.715951769671669958e-01,-5.398246538913921075e-03,4.873664268428494484e-02,-4.335831972327511968e-03,1.186892867088317871e+00
