sxx,syy,szz,sxy,sxz,syz,smises
-4.601339090763630346e-01,-3.803044030593656366e-01,-3.735211953068268698e-01,3.690578426998613031e-03,2.517287464647905652e-03,5.871186496807858507e-02,1.317625939846038818e-01
-4.678498423521966765e-01,-3.569479452858095869e-01,-3.976851924126483251e-01,9.564603076593203648e-03,8.583530772913024187e-03,5.598486559098502652e-02,1.390658318996429443e-01
-5.034858953154328631e-01,-3.386983681265025581e-01,-3.634757501482322462e-01,3.335937993159814041e-02,1.282401409700588066e-02,9.018540884173727179e-02,2.278551757335662842e-01
-4.871239205578122289e-01,-3.518629994223536062e-01,-3.849009219987966635e-01,-2.723434000910042712e-03,-1.609462747095336335e-02,7.269779646157159547e-02,1.776866763830184937e-01
-4.770165453063959227e-01,-3.802704339134075906e-01,-3.725331241785222458e-01,-1.155354150791187452e-02,-7.600172247475191038e-03,5.546369177877921719e-02,1.413175016641616821e-01
-3.860960177012177086e-01,-3.912031805276639518e-01,-4.480983570062174182e-01,3.118583161362865896e-02,1.345548703270438295e-02,1.748762995704415332e-02,8.906170725822448730e-02
-3.859120235733540238e-01,-3.381096177256884827e-01,-4.728709856093027408e-01,6.811541509975588271e-02,2.226542579685671444e-02,3.208561365164461915e-02,1.802737265825271606e-01
-3.820270352598914010e-01,-3.737937871662976863e-01,-4.488747926109895592e-01,7.107701167922325647e-02,2.684138253930170789e-02,4.815850875872640380e-02,1.713525950908660889e-01
-3.890903037281693289e-01,-3.855229952971218066e-01,-4.430593033041919093e-01,2.876617673320936222e-02,1.460589032981185996e-02,8.160341149113441855e-03,8.025055378675460815e-02
-3.942693727675065651e-01,-3.722726809874618570e-01,-4.467132366618862260e-01,4.051290993982753497e-02,2.112044293851770074e-02,1.298217785328274233e-02,1.056197062134742737e-01
-3.585344761419302362e-01,-3.892185610062139367e-01,-4.528553487382829257e-01,5.570468480408203443e-02,3.108485305826797634e-02,2.446497051264444680e-02,1.447315961122512817e-01
-3.718437366018843560e-01,-3.953815403248022720e-01,-4.520487985006943488e-01,6.845505801953474800e-02,5.389476052476228213e-02,3.478425628976072881e-02,1.774854511022567749e-01
-3.732648186866526219e-01,-3.890368507846569401e-01,-4.647413798840879795e-01,7.099199173972757515e-02,2.505120800966877462e-02,2.213588889841212881e-02,1.601443588733673096e-01
-3.781413412390632889e-01,-3.887452652295294575e-01,-4.553175726112812516e-01,4.237969990728931990e-02,7.268536297619339684e-03,7.367183109531443182e-03,1.046884953975677490e-01
-3.936623194100865586e-01,-3.840177409803771647e-01,-4.429633412964030237e-01,2.836986816690716812e-02,1.227844766386359567e-02,7.990167199854108365e-03,7.782964408397674561e-02
-3.799440607386606050e-01,-4.222582579970447503e-01,-4.284294204543455109e-01,-2.370169852140048550e-02,1.686586281339459009e-02,-1.570297787501103923e-02,7.326756417751312256e-02
-4.034874780627929480e-01,-4.155946404276881778e-01,-4.251939127917060413e-01,-2.033612645213646666e-02,2.037329617425768982e-03,-1.787924803633408888e-02,5.066633969545364380e-02
-4.098800793255771291e-01,-3.951113599963108070e-01,-4.384867675579089408e-01,-2.455202088099038213e-02,5.429472574141343266e-03,-1.730225339679550972e-02,6.522183865308761597e-02
-4.003284406083887359e-01,-4.081818898048578115e-01,-4.262883850202204283e-01,-1.471469740106432118e-02,8.067520975256502191e-03,-8.462363138133836490e-03,3.989206254482269287e-02
-4.114918299325371343e-01,-4.001640572341744750e-01,-4.350197466665607360e-01,-1.698278201385726785e-02,1.452932684822717943e-03,-1.715245755756526422e-02,5.198651924729347229e-02
-4.137505702290915632e-01,-4.017296003984834885e-01,-4.246561085560356386e-01,-1.648974157251085690e-02,3.100964457974982481e-03,-1.148256672338437805e-02,4.043093323707580566e-02
-4.088242047512991584e-01,-4.000277187639964538e-01,-4.271699472347751936e-01,-2.467338355878314488e-02,1.226237221153402175e-02,-1.964274478976249863e-02,6.332661211490631104e-02
-4.098556712406564717e-01,-3.991406911407756053e-01,-4.246144654187270495e-01,-2.411664607537953794e-02,1.355178245856092541e-02,-1.689401938713207263e-02,6.035550311207771301e-02
-4.484910105386097356e-01,-3.828045367413463462e-01,-4.125828180035962522e-01,-8.318461402750630673e-03,-1.468932452739725968e-02,-1.680001038511656775e-02,7.033540308475494385e-02
-4.354697680005403249e-01,-4.044180819269850291e-01,-4.054199274836718936e-01,-8.969261996795535943e-03,-2.012331621275013221e-03,-2.333013781608735127e-02,5.310818552970886230e-02
-4.422623204998735180e-01,-4.065321213212276796e-01,-3.988865992227890178e-01,-2.065856176144834425e-02,1.047952851861517869e-02,-4.026465597661309931e-02,8.989880234003067017e-02
-4.584242844654899396e-01,-3.924949427077955022e-01,-4.092798364146986168e-01,-2.108983315473776654e-02,-1.915303532805385719e-02,-5.453041049874161189e-02,1.219727471470832825e-01
-4.510652015908320767e-01,-3.567120923265699739e-01,-4.135422667945989894e-01,2.950279600196898354e-03,2.167927647510475408e-03,7.099441592613866571e-03,8.343555778264999390e-02
-4.844593769458104271e-01,-3.607054420328817401e-01,-3.931721668958307880e-01,-2.157325273035190505e-02,-5.171022111308195245e-03,-9.855546441203594243e-02,2.072853446006774902e-01
-4.480331334216737238e-01,-3.876294235922721487e-01,-3.917377313182298093e-01,7.869836603812617156e-04,-3.199075857139611900e-03,1.085119172247184412e-02,6.166956201195716858e-02
-4.498801983710640218e-01,-3.931273192440123410e-01,-4.049099029260028737e-01,-2.853035581947338528e-02,5.553995012812343356e-04,-6.319771133091883764e-02,1.308271586894989014e-01
-4.486101820802538831e-01,-3.709886206875928072e-01,-4.174371639706496162e-01,2.592022984871560423e-03,-1.424386945589441698e-02,-4.835867072184445864e-02,1.105516552925109863e-01
-4.083011710344137124e-01,-4.434877307536519986e-01,-3.960349401382725620e-01,-2.749183092478498912e-03,-3.024205772601057385e-02,-1.562279865784707567e-02,7.293008267879486084e-02
-3.918022855235457347e-01,-4.338367999615014847e-01,-4.078235179420311440e-01,8.343408826055914718e-03,-1.599234477824406850e-02,-9.594704886146655093e-03,5.101385340094566345e-02
-4.073209360296941584e-01,-4.369304347401204436e-01,-3.911986748171970563e-01,8.874959327912493789e-04,-1.223516231804657253e-02,-3.703655549528298008e-03,4.589807614684104919e-02
-4.117336382970023245e-01,-4.350579429369957896e-01,-3.905775982878295638e-01,4.517360256371593871e-03,-1.149449032232538123e-02,-4.218765328585678820e-03,4.467700421810150146e-02
-4.221989687197370555e-01,-4.485055172734995210e-01,-3.779076566139101256e-01,-4.595694980859099665e-03,-3.123158153847284749e-02,-1.985885219461976450e-02,8.939588814973831177e-02
-4.097069208218408476e-01,-4.062898501227675818e-01,-4.209250710851089039e-01,-1.474169016636492748e-04,-2.760997912012546490e-03,-7.804149776305182055e-04,1.416397374123334885e-02
-4.231316676940239940e-01,-4.406364964967999232e-01,-3.877352054188235586e-01,-3.251054816922427457e-03,-2.500948799748256568e-02,-1.624315166132105429e-02,6.984689831733703613e-02
-4.240984125190842002e-01,-4.006563321685367440e-01,-4.118241950830149878e-01,-8.195487962712244556e-03,-9.245869141159651985e-03,9.024562822832581446e-03,3.338770568370819092e-02
-4.376034597103315993e-01,-3.919867414039284181e-01,-4.039047269576597210e-01,-1.832763054598001221e-02,-2.028854492665593118e-02,1.854814457725707452e-02,7.038427889347076416e-02
-4.452125872164310327e-01,-3.904086783224364754e-01,-3.852663642622293771e-01,2.581456285906653589e-03,4.903283190465954023e-04,5.732308911542241189e-03,5.857492610812187195e-02
-4.067158734885982785e-01,-4.310280405300404571e-01,-4.025118904227983352e-01,1.017061268642567269e-03,-6.356354977727930559e-03,-5.652295493023137829e-03,3.051427938044071198e-02
-4.351281928414669209e-01,-4.114341038551244667e-01,-3.897632725027460054e-01,-1.924195878495882361e-02,-1.647335608581299710e-02,1.411976657248999699e-02,6.377681344747543335e-02
-4.330767175042838923e-01,-4.117403674406598379e-01,-3.985250272490039047e-01,-1.797586742092100592e-02,-2.202962273237290408e-02,2.341681572024090219e-02,7.058471441268920898e-02
-4.430949998693781700e-01,-3.264567398541238230e-01,-4.565888511338750955e-01,1.785959130883862239e-02,-5.572891818913773771e-04,1.549552348145726184e-02,1.305321007966995239e-01
-4.323334027781753353e-01,-3.384492871620162213e-01,-4.553072366604586918e-01,1.180620848723695250e-02,3.031804167396661559e-03,1.375901396632407160e-02,1.118595972657203674e-01
-4.138246098741965029e-01,-3.440874862712414717e-01,-4.608510900354977347e-01,2.130310492657220070e-02,3.650445176995883653e-03,9.395776676145658340e-03,1.096381917595863342e-01
-4.520405034719462423e-01,-3.004388142813130824e-01,-4.676845327883883408e-01,4.022495314069000905e-02,-3.308869474665714159e-03,1.747630364051202395e-02,1.772081255912780762e-01
-4.347419695409401319e-01,-3.294617224006975986e-01,-4.619050951583140718e-01,8.063653034701022057e-03,-5.159383182323541706e-03,4.075291078034131223e-03,1.225000247359275818e-01
-4.070544606452317082e-01,-4.219975576511309501e-01,-4.101554335004931051e-01,8.708344005265237489e-04,-1.288452367470062886e-03,-1.296204370327953435e-03,1.410212274640798569e-02
-4.236943553898123715e-01,-3.176430597650122811e-01,-4.711774754409545074e-01,3.850557670533685112e-02,-9.409386480804907442e-04,9.191988904737104574e-03,1.524511128664016724e-01
-4.411030537789578654e-01,-3.060617194582551659e-01,-4.709778040335599880e-01,4.046389259281234219e-02,-7.820606784269398468e-03,1.272482595534359801e-02,1.695411950349807739e-01
-4.351685732190560540e-01,-3.338773241534900849e-01,-4.613422725136160918e-01,1.236457250206437521e-02,-3.691810669766327699e-03,2.650384668935181973e-04,1.187261268496513367e-01
-3.986955549539041299e-01,-3.983298087868607507e-01,-4.413463543881210316e-01,-2.719041091976678870e-02,-2.121013924121891575e-02,7.296165235315033373e-03,7.457943260669708252e-02
-3.797778119684620535e-01,-3.941349585810612899e-01,-4.601011612446034293e-01,-4.572742442158043291e-02,-2.320667845764185291e-02,1.692224855935629000e-03,1.157669499516487122e-01
-4.004987873226510398e-01,-4.022913697125678478e-01,-4.310458262006116592e-01,-2.459379399799904026e-02,-2.020420039427120798e-02,1.891977856502640234e-02,7.067279517650604248e-02
-4.366555363368880838e-01,-3.782813604171917365e-01,-4.485233198087543727e-01,-6.331781227986744975e-02,-4.460098509394250232e-02,4.709587449427927487e-03,1.493414938449859619e-01
-4.394037093990705301e-01,-3.696853989598787860e-01,-4.278372602339893249e-01,-5.091696443999955968e-02,-2.874009779495483724e-02,2.858271417200830208e-02,1.299789994955062866e-01
-4.214042248073864294e-01,-3.921324451610297968e-01,-4.371603840665373442e-01,-3.705279779551347297e-02,-2.606117366259963139e-02,6.046499623765602856e-03,8.850010484457015991e-02
-3.722137924604484449e-01,-4.519061496077197981e-01,-4.033739024337024692e-01,-4.515269515240154068e-03,9.466869775668091541e-03,-8.031247158809718886e-03,7.322657853364944458e-02
-4.123503769223889059e-01,-3.857643518386792425e-01,-4.344727944861340729e-01,7.184824413454209482e-03,-1.220005747457813747e-02,-5.005668081392228470e-03,4.960770905017852783e-02
-3.926581372584533880e-01,-3.600519889509692373e-01,-4.553154367738977970e-01,4.253533581486983878e-02,-2.764863864094931675e-03,-8.738145014290621100e-04,1.117367446422576904e-01
-4.063805720779297692e-01,-4.013130872374696123e-01,-4.354661683249888560e-01,2.495184432538366873e-02,-2.121860765853100100e-02,-2.613486655224090544e-02,7.928813248872756958e-02
-3.913027957527259737e-01,-3.895872268528375315e-01,-4.418537743779745730e-01,2.424835693006539838e-02,-8.357818016750499790e-03,-8.229415548336208378e-03,6.943879276514053345e-02
-3.697379239130684225e-01,-4.498539968366473962e-01,-3.960685879340608007e-01,2.241490387934432903e-03,1.288702046344469831e-02,3.361675719456464189e-03,7.449550926685333252e-02
-4.116759312679649230e-01,-3.849617237001626280e-01,-4.384438209848686707e-01,1.137081961513487435e-02,-8.386646993508427642e-03,-7.784220255616811253e-03,5.409184843301773071e-02
-3.969831610380796794e-01,-4.022551413512716612e-01,-4.427163274590426578e-01,2.226204523244498801e-02,-1.135263517556850572e-02,-2.427084049800588145e-02,7.428913563489913940e-02
-4.082383556994547691e-01,-3.814780236715328843e-01,-4.421777190038176930e-01,1.615941826979440388e-02,-1.290354174231741861e-02,-1.367663199194249675e-02,6.797249615192413330e-02
-4.133034250960662681e-01,-4.085571679124307964e-01,-4.190421396125544873e-01,-2.750247721842721065e-07,-2.381906554636053271e-03,1.403337577347153970e-03,1.027743797749280930e-02
-4.161128084437558106e-01,-4.033150786728135762e-01,-4.227042868715230051e-01,-1.390318201362476108e-02,-1.175504247338353923e-02,4.632045974880679221e-03,3.674767166376113892e-02
-4.151885743513683003e-01,-4.041897924879548354e-01,-4.239547017212275115e-01,-9.449669941422399189e-03,-9.730095100507112418e-03,2.512040819679930374e-03,2.941222488880157471e-02
-4.120758723478206709e-01,-4.111539371144051769e-01,-4.214393219710959593e-01,-1.038277447385503767e-02,-1.209591980823399894e-02,4.285986480028474745e-03,3.024244681000709534e-02
-4.023544800009243305e-01,-4.091021178370137235e-01,-4.214985192008865456e-01,-7.797291554177353777e-03,-5.982258306694551546e-03,9.146618359738119958e-03,2.869817428290843964e-02
-4.137163658870889882e-01,-3.905381283930925429e-01,-4.263596704725653441e-01,-2.649723957662937154e-02,-1.722481475392572889e-02,9.908073531580737642e-03,6.542963534593582153e-02
-4.856056400582710042e-01,-3.576092186416167107e-01,-3.775066059567426247e-01,-4.503042855365368968e-02,-3.137193879753594206e-02,7.727596002551544163e-02,2.029352933168411255e-01
-4.152355139770987913e-01,-4.285996889769214113e-01,-3.956507055063440137e-01,-6.246276915796778080e-03,-1.376431780012544581e-03,1.554786409765269517e-03,3.088501840829849243e-02
-6.039833684777820011e-01,-2.546775855447157566e-01,-3.640195302345439199e-01,3.533017086919830463e-02,1.714206372334944146e-04,1.583829887275070569e-01,4.180630147457122803e-01
-4.551819355368936781e-01,-3.821480131779938505e-01,-4.034613283638988079e-01,-2.972513044353657097e-02,-3.199156654513517217e-02,3.890607435058622554e-02,1.203901767730712891e-01
-4.734937365088951466e-01,-3.822541020667162837e-01,-3.672983454091095501e-01,-5.733708166383196837e-03,2.452956405776180512e-03,5.831599002120910896e-02,1.422386914491653442e-01
-4.527929817954854386e-01,-3.832984491595428644e-01,-4.008545253376709083e-01,-1.618382670484774105e-02,-1.896777512651959263e-02,4.107765809905494087e-02,1.041386350989341736e-01
-4.549162007226760229e-01,-3.818235179003195423e-01,-3.875699255723944470e-01,-1.434014260738682330e-03,-1.063565702687789029e-02,4.678631659092007122e-02,1.089400798082351685e-01
-4.106436429908539298e-01,-4.088893031283009627e-01,-4.204843369314107959e-01,-1.984031661645473468e-03,-2.174991922781320357e-03,4.855109811807562501e-05,1.196615491062402725e-02
-4.328413142925831014e-01,-4.109105526507671469e-01,-3.970959148704098496e-01,-9.656324936270404072e-03,4.385124556679598912e-03,-1.040302572952695598e-02,4.045810922980308533e-02
-4.319301247224798246e-01,-4.065154692153659099e-01,-4.038599107425178691e-01,-5.620805367556728528e-03,-8.479692506469286260e-04,-7.589935717995817226e-03,3.146753460168838501e-02
-4.419635090538803213e-01,-4.000082407626727177e-01,-3.956543185430305698e-01,-1.112565452565084101e-02,3.215932591265102756e-03,-1.634359051514814101e-02,5.626346170902252197e-02
-3.908459843643350973e-01,-3.858972369887541110e-01,-4.468848650866856231e-01,3.297404950343986452e-02,1.396373887521115860e-02,2.215344023125724246e-02,9.360189735889434814e-02
-3.989888645838883807e-01,-3.798354052106855394e-01,-4.372370301998363407e-01,4.793236700210569412e-02,3.367979856696244612e-02,3.311338007851818283e-02,1.270723044872283936e-01
-4.008657795758608366e-01,-4.113378014452397369e-01,-4.310008887653066778e-01,-3.166698342935305062e-03,-2.631738560026568741e-03,-5.621922997137771124e-04,2.745947614312171936e-02
-4.133391791970293383e-01,-4.087114321922464266e-01,-4.160126553151329287e-01,6.233685397963130209e-04,-1.671251025337090182e-03,-3.567305888571175893e-05,7.105245254933834076e-03
-3.930274689290262358e-01,-4.402492548536897088e-01,-3.929552907041696796e-01,4.059557822305462360e-02,5.968092888908628491e-02,4.274189928272714711e-02,1.527853459119796753e-01
-3.852612106263803571e-01,-4.106696428937355314e-01,-3.992508134944987574e-01,4.637834770283291719e-02,4.794942405030299531e-02,4.467581276630970544e-02,1.407974511384963989e-01
-4.006947810596288018e-01,-4.057683232340436041e-01,-3.998393073803514497e-01,2.730438173849187786e-02,3.096096749426988787e-02,2.269510527804367503e-02,8.178232610225677490e-02
-3.963057325934044028e-01,-4.161488401397116510e-01,-3.986292480179504105e-01,3.257669093214482503e-02,3.252953968943046725e-02,3.106657489177661394e-02,9.801363945007324219e-02
-4.238516910525846337e-01,-3.734895423286177518e-01,-4.451336831952137918e-01,-6.621664732871579591e-03,-3.791611111783562294e-03,-2.609229327948701851e-03,6.523931771516799927e-02
-3.862661768875514379e-01,-3.926200448914425878e-01,-4.398296885381001164e-01,4.721721029846176650e-03,2.061615541268484175e-03,3.115860773276375902e-03,5.174791067838668823e-02
-3.752070498353353156e-01,-4.275427550456674108e-01,-4.047788459506311276e-01,2.369942715563113506e-02,2.552717203172009952e-02,2.293021472895172969e-02,8.534130454063415527e-02
-3.762572147957385371e-01,-4.378173367135353988e-01,-3.910750872917211907e-01,2.970266169136110551e-02,4.899663945290439609e-02,2.826662131370477615e-02,1.238660141825675964e-01
-4.157037863066279093e-01,-4.143568660324948860e-01,-3.922751639552364278e-01,2.508121651994281096e-02,2.878110284674256086e-02,2.935592971542703641e-02,8.646807074546813965e-02
-3.897331235823642270e-01,-4.154797616428984597e-01,-4.013310036828020566e-01,2.811667740295198392e-02,3.355994090488283177e-02,3.074121604400158539e-02,9.531165659427642822e-02
-3.930675358986304158e-01,-4.371559233608231509e-01,-3.916433987025660368e-01,1.816924910872851420e-02,3.361428747216516771e-02,1.732939934575757415e-02,8.537945896387100220e-02
-4.009172751042323624e-01,-4.007507223383160455e-01,-4.092027258804494250e-01,2.937762134812651332e-02,2.626619866169249001e-02,2.561396072220441592e-02,8.183614909648895264e-02
-3.954153222866590434e-01,-3.971445035205170004e-01,-4.246998138537043110e-01,3.171553434117581338e-02,2.423073410643037523e-02,2.672819733297207567e-02,8.793254941701889038e-02
-3.938115962005663828e-01,-3.784616337776261497e-01,-4.245116131767048828e-01,5.223204569395713259e-02,4.469734393351473128e-02,4.117578828687127462e-02,1.446160823106765747e-01
-4.179560634531140906e-01,-4.013108003348074271e-01,-3.938691071765385021e-01,2.064357828438938280e-02,2.357421917456595586e-02,2.535646354880313758e-02,7.301278412342071533e-02
-4.961743340881548114e-01,-3.638739738728032358e-01,-3.645547905766836627e-01,-8.080875486471938637e-03,-1.225848935875722447e-02,6.727567359040008410e-02,1.778722554445266724e-01
-5.355255318197753578e-01,-3.967887953983409433e-01,-2.683791919117032299e-01,-3.890865479366639040e-02,-2.080327581394771086e-02,1.490580812950499101e-01,3.550309240818023682e-01
-4.812392106026568417e-01,-4.074505266160665662e-01,-3.561361931445037321e-01,-2.985208762103791144e-02,-2.670449476566513769e-02,5.644783228279286885e-02,1.619760841131210327e-01
-5.045001885309327028e-01,-3.682548805026146788e-01,-3.444593057219449417e-01,-1.425540281485443601e-02,-8.394312226655670922e-03,1.289894058270965316e-01,2.703828513622283936e-01
-4.685813907240947152e-01,-3.786350631624085805e-01,-3.669234593975385650e-01,-2.007099788269574303e-02,-1.813530652746586647e-02,6.506919840799856025e-02,1.554931700229644775e-01
-4.562624208090274580e-01,-3.972343186827632100e-01,-3.890809032996520589e-01,-1.896453773466764969e-02,-1.657662151212000584e-02,3.411157187252546186e-02,9.708856046199798584e-02
-4.612654548609178562e-01,-4.113835885707183837e-01,-3.594064937577773899e-01,-1.751933429464007375e-02,-1.612665208892144486e-02,5.746201461580602299e-02,1.392450034618377686e-01
-4.543679367960512527e-01,-3.881035039993211422e-01,-3.749212675706076192e-01,-3.750185636015664070e-02,-4.272160955652294645e-02,5.580448118913163696e-02,1.564456969499588013e-01
-4.267720882572018093e-01,-3.942642532014405399e-01,-4.065001058827486524e-01,-1.834259135637108379e-02,-2.029374411738744596e-02,1.835924629093283952e-02,6.375547498464584351e-02
-4.453055238536985372e-01,-3.876508724777657511e-01,-4.183683249192192144e-01,-3.007208936394378460e-02,-2.342361690044435923e-02,2.157773096776062841e-02,9.084273129701614380e-02
-4.226130702255652682e-01,-4.012198486580497714e-01,-4.195648757657984285e-01,-2.688356197276286705e-02,-1.818606769693523889e-02,1.686864972419356568e-02,6.645134836435317993e-02
-4.133193363314130453e-01,-3.891926338399052110e-01,-4.253672723987160231e-01,-5.550173046750701139e-02,-4.376257512309116721e-02,3.031827647898376055e-02,1.369756758213043213e-01
-4.720952017583646132e-01,-3.795963932585138534e-01,-3.547730382482623401e-01,4.097066955103515276e-03,8.787912362697259533e-03,6.330293451541416094e-02,1.541823148727416992e-01
-4.706862897605665341e-01,-3.709197202750984523e-01,-3.710231037952441135e-01,-1.478586727639884940e-02,-1.430630158581024450e-02,6.440852794866745723e-02,1.538126021623611450e-01
-5.741179018362212449e-01,-3.540900528283910109e-01,-3.200500538274568263e-01,-1.185429643630576436e-02,-9.761758937587390605e-02,1.521879151611856551e-01,3.944025337696075439e-01
-4.680947048329295868e-01,-3.615538515088672078e-01,-3.970377429732457886e-01,1.069160342948029079e-02,5.701405807202575282e-03,5.656141005689255957e-02,1.373593956232070923e-01
-4.926273259527154114e-01,-3.951547650618180696e-01,-3.502608202369748014e-01,1.020823630855455461e-03,2.108605659050896697e-02,9.005499541506288563e-02,2.038602232933044434e-01
-4.930460891885919406e-01,-3.479792630571088008e-01,-3.656402890963948993e-01,2.654315636199550479e-02,1.608560298655928311e-02,8.252084974946882756e-02,2.052150070667266846e-01
-4.300124358269963865e-01,-4.060187665695157988e-01,-3.779144069085472735e-01,1.835711282347385342e-02,1.619523455310181714e-02,2.242688317122809583e-02,7.312031835317611694e-02
-4.282958484488247897e-01,-3.819454531486737303e-01,-4.061384554155811344e-01,1.419971851767597333e-02,1.336991741813747282e-02,1.814487146358106581e-02,6.116513907909393311e-02
-4.312561546017871228e-01,-4.052076646939722360e-01,-3.790769421996121880e-01,1.761897909032877560e-02,3.124936102901136603e-02,3.840547606352694848e-02,1.016257777810096741e-01
-4.118971423534099063e-01,-4.071251559392696784e-01,-4.063559908566073409e-01,1.512396000261699743e-02,1.337664835641624167e-02,1.701810544380832901e-02,4.603138566017150879e-02
-4.157532014102089390e-01,-3.918089379983923370e-01,-4.090377751700254305e-01,1.189491148303049167e-02,1.338060441597087834e-02,1.290987514414461412e-02,4.380881041288375854e-02
-4.317600092242518395e-01,-3.738462100856180248e-01,-4.053523338059881187e-01,2.038983676895001276e-02,2.006327284068261732e-02,2.467391869132513210e-02,8.248183131217956543e-02
-3.926976851322893092e-01,-4.319382973097634082e-01,-3.943203578993665359e-01,5.571608543014836684e-03,7.787524455022424782e-03,5.055616638335845743e-03,4.278465732932090759e-02
-4.110372292657600291e-01,-4.076635405891427255e-01,-3.901569042135288323e-01,2.086466533124509137e-02,2.056351124081693196e-02,1.965889106413822723e-02,6.411644816398620605e-02
-1.963494336932951612e-01,-4.937540253197937323e-01,-5.182049482313141331e-01,-4.237109195538175943e-02,1.462921056732373326e-02,-3.820391125648680414e-02,3.266890645027160645e-01
-4.045176977693613063e-01,-3.907502670100681530e-01,-4.081529156530680491e-01,3.415330923421246861e-02,3.046414226488500243e-02,3.308579924233485264e-02,9.909769147634506226e-02
-4.509395544116365229e-01,-3.987044695343558431e-01,-3.532711719821393093e-01,5.529273423478975324e-02,4.834284197260713817e-02,8.658182774591301201e-02,2.140983194112777710e-01
-4.436035425508407792e-01,-3.880867411803983758e-01,-3.869608394958725106e-01,4.164711249333155618e-02,5.177593181470913769e-02,7.799831388253605780e-02,1.861257255077362061e-01
-4.579675905742623954e-01,-3.920778363899764529e-01,-3.819307369528036622e-01,1.898295742834691519e-02,1.360003271342609225e-02,4.517222445819401438e-02,1.134484186768531799e-01
-4.522535704580807336e-01,-3.679270074387277489e-01,-3.944607483925773317e-01,2.201160399681973204e-02,1.314949651115284585e-02,4.581596187813447713e-02,1.176735982298851013e-01
-4.411065545523415454e-01,-3.733265621518490618e-01,-3.942857568286403103e-01,2.173461254327233028e-02,2.107016223912144826e-02,3.277720457986859487e-02,9.790235757827758789e-02
-3.026732941498936347e-01,-4.861134101937866214e-01,-4.599219013567716896e-01,-7.251880949547329092e-02,-1.006245626970504042e-01,-2.377703379262671290e-03,2.751390635967254639e-01
-4.277612558386402197e-01,-3.763643533317435619e-01,-4.035560686775929717e-01,2.205174409324927101e-02,2.654136823604819062e-02,2.741786831430912189e-02,8.837901800870895386e-02
-4.221944471671804089e-01,-3.782878709047967081e-01,-4.029225811225053411e-01,3.865297081845940619e-02,4.037337937504392044e-02,4.791320327719852251e-02,1.330873519182205200e-01
-4.444122299577737967e-01,-3.929490399052651406e-01,-3.737540840401546993e-01,2.800208077323917966e-02,3.702917049247431147e-02,5.413227757017682884e-02,1.387857347726821899e-01
-4.042175360138700602e-01,-4.404860112306054343e-01,-4.027703497847275882e-01,4.818553942135847361e-03,-2.523018474250446341e-02,-9.998975086441668284e-03,6.040914356708526611e-02
-4.060752462954657083e-01,-4.459930441235353538e-01,-3.863383093505645682e-01,6.328556172584007787e-03,-3.297078667525754625e-02,-1.703186657894562722e-02,8.380009233951568604e-02
-4.055344350791423857e-01,-4.398776942274181811e-01,-4.019652945440018721e-01,6.412494176193978164e-03,-4.766951315747387091e-02,-1.498384389268447338e-02,9.449248015880584717e-02
-3.995686540282880617e-01,-4.332992223670797394e-01,-3.998526116447593259e-01,-9.407619729434376493e-03,1.379808484719267404e-02,-1.215052869625202550e-02,4.906965792179107666e-02
-4.137320636183543510e-01,-4.528386301876276554e-01,-3.567875029106601925e-01,-1.507799555467102988e-02,3.177265143332963504e-02,-1.579371941818312475e-02,1.070410162210464478e-01
-4.078060652564834965e-01,-4.323403473203455416e-01,-4.036910897897544315e-01,-2.206048985668005238e-02,1.679669956580336770e-02,-1.861481162673146728e-02,6.376314163208007812e-02
-4.036314796533897464e-01,-4.414905093976057571e-01,-3.907914680213252501e-01,-2.229372332373795104e-02,2.894299741136217852e-02,-2.440363206431572091e-02,8.874128758907318115e-02
-4.024569909723545447e-01,-4.352275146257286176e-01,-3.805825323385708114e-01,-3.257170846025454758e-02,4.337321080348235242e-02,-4.652294212414061908e-02,1.326229423284530640e-01
-4.069621029312996408e-01,-4.308588724496865696e-01,-3.956978703371196171e-01,-1.496199226278144973e-02,1.469965760437214053e-02,-1.646167578857788555e-02,5.567675456404685974e-02
-4.054658850480614696e-01,-4.260836120353437284e-01,-4.082730812805956400e-01,-1.577331705531534803e-02,1.141958211481926451e-02,-2.217103386990532457e-02,5.465684086084365845e-02
-4.134942482728368729e-01,-4.486505068321926526e-01,-3.841527679058613920e-01,-2.225153213096726923e-02,2.666072778576658239e-02,-2.904698772603152984e-02,9.631915390491485596e-02
-4.072512342384363992e-01,-4.307920034968877876e-01,-3.936656133880074848e-01,-1.438821009027402634e-02,1.625836055874793976e-02,-1.476460157003592170e-02,5.591598898172378540e-02
-4.003481458205106480e-01,-4.544237088518207623e-01,-3.570161407207801396e-01,2.576516399454805914e-02,3.827264910316038188e-02,1.806389039597987647e-02,1.204568892717361450e-01
-4.003323875214211403e-01,-4.326950978728250075e-01,-3.701417574264149746e-01,2.572794322364294409e-02,3.505280305021829523e-02,2.472145529577281231e-02,1.021821871399879456e-01
-4.203352772370492207e-01,-4.548799625985012751e-01,-3.478037703177450646e-01,3.884144242966366609e-03,3.584716716522625551e-02,1.437768069128697937e-02,1.161042824387550354e-01
-4.003468804825092708e-01,-4.527220576247176220e-01,-3.736248474662718921e-01,2.141552037839253297e-02,5.056521638753547904e-02,2.896950768993692554e-02,1.281440258026123047e-01
-4.076982004818108241e-01,-4.271604307500654341e-01,-3.769270546020247470e-01,1.293666453608918396e-02,1.937792380579298965e-02,1.716949051660309616e-02,6.661437451839447021e-02
-4.685612881139250563e-01,-3.279309536978773365e-01,-4.209751753383425554e-01,1.129467862681920331e-04,-3.252110218991750411e-03,5.571123227912713055e-02,1.571377366781234741e-01
-4.614921037031091133e-01,-3.154476628613539502e-01,-4.461732525842792563e-01,2.965908707952289412e-03,-1.550259641156007638e-03,2.391039746161045115e-02,1.451727747917175293e-01
-4.544192843481839050e-01,-3.452360305972418386e-01,-4.104199827834412728e-01,6.527638014064428978e-03,6.894000387082440708e-03,2.278652466152363346e-02,1.043121442198753357e-01
-4.590960159644124072e-01,-3.503615366200069081e-01,-4.198364315724493201e-01,2.169301909831363590e-02,8.418123036192302205e-03,3.322793349279751229e-02,1.184578984975814819e-01
-4.520814376305825055e-01,-3.507574815190175332e-01,-4.207685741816668545e-01,1.744728135211144615e-02,-7.914431377853552467e-04,3.860304978250616442e-02,1.160171777009963989e-01
-4.087426507539913545e-01,-4.090227860500340595e-01,-3.795743372492026979e-01,4.126626162486676797e-02,4.746072735438532086e-02,4.842729888227249174e-02,1.405735611915588379e-01
-3.796005894539442593e-01,-4.010892990897293453e-01,-4.322084429682777618e-01,3.914362713136700089e-02,2.157953072334694786e-02,3.018378666619674078e-02,1.040469035506248474e-01
-3.686742532445380083e-01,-3.926652319213231879e-01,-4.462537488529613738e-01,3.325584757014191095e-02,1.611322448285954639e-02,1.503722538431074944e-02,9.750925004482269287e-02
-3.919532192303773477e-01,-3.965751669439299132e-01,-4.362759706811649152e-01,3.611766757355193425e-02,2.818666792543316965e-02,1.861436543275605399e-02,9.548516571521759033e-02
-3.821220125662751488e-01,-4.243984293816622233e-01,-4.073911781426654555e-01,1.463587709675661513e-02,1.871201716897837736e-02,1.675905214131595197e-02,6.239534541964530945e-02
-3.649905691368158234e-01,-4.261996410163777504e-01,-4.228248668519991593e-01,2.549872456074303226e-02,2.545324602282665952e-02,1.773653378499857533e-02,9.159304201602935791e-02
-3.569714055892895255e-01,-4.255144098443333078e-01,-4.257839356560223498e-01,3.243678605251559821e-02,3.602169938118979925e-02,2.956774211229762708e-02,1.199523583054542542e-01
-4.321296671224602592e-01,-4.020025652229055613e-01,-4.155453918193495744e-01,1.799680157820786330e-02,-3.682930244218205612e-02,-4.005026810654516156e-02,1.026448383927345276e-01
-4.174661073751929630e-01,-4.036025882072412085e-01,-4.318176096547920451e-01,1.514700880189404075e-02,-2.974279715200842805e-02,-3.011856169953406465e-02,8.161314576864242554e-02
-4.134948701231846990e-01,-4.068571179837841556e-01,-4.226017111792276792e-01,1.189882487681340542e-02,-1.877731748291005393e-02,-3.601039831748232417e-02,7.456673681735992432e-02
-4.203134423048839885e-01,-3.842030235557952755e-01,-4.266007652078263046e-01,1.685089211176301477e-02,-2.069091339517626846e-02,-2.334468067927096199e-02,7.308661192655563354e-02
-4.508249562775319408e-01,-3.699890043955492702e-01,-4.356301767862909013e-01,3.037455638958257154e-02,-6.396127860135583654e-02,-4.592398633503266825e-02,1.640276312828063965e-01
-4.383644643251302098e-01,-3.724950848369485423e-01,-4.331425775991019633e-01,1.157457395589134123e-02,-1.304898688529188520e-02,-1.475977226197307084e-02,7.475543022155761719e-02
-4.001344421288643982e-01,-4.255947412940526697e-01,-4.099918790710639915e-01,-9.378102024734789877e-03,7.660036408889805970e-03,-1.049480818360486699e-02,3.556291013956069946e-02
-4.126805501841168122e-01,-4.228935571469710220e-01,-4.072937773932135408e-01,-1.239267057130516263e-02,5.360744569838838194e-03,-1.170401461107292013e-02,3.385612741112709045e-02
-3.919413765927248772e-01,-4.276953160938745113e-01,-4.077091335208830603e-01,-1.279703440892294986e-02,1.777051429805649729e-02,-1.308481362857524984e-02,5.399546027183532715e-02
-4.177223240915207136e-01,-4.239637921145184007e-01,-4.014151183973032055e-01,-2.186364883347340429e-02,1.463004680351848510e-02,-1.346674858676938022e-02,5.501721426844596863e-02
-4.147201677457813540e-01,-4.059077123415928967e-01,-4.098289648687357123e-01,-1.427606167427072394e-02,8.768145212192905366e-03,-1.931881223548593748e-02,4.494650289416313171e-02
-4.055796001566840947e-01,-4.119842410506117658e-01,-4.174547044830244635e-01,-8.973756565370034910e-03,6.989072417991534433e-03,-9.491046596498657270e-03,2.764684334397315979e-02
-4.382376391134687466e-01,-3.919301400233965449e-01,-4.034930857432435514e-01,-1.128126695936747942e-02,-1.250809334655935898e-02,1.693956360520534887e-02,5.877618119120597839e-02
-4.589273661801184234e-01,-3.910474440950890695e-01,-3.670143663131573142e-01,-8.609650956701958915e-03,-1.046942989139671223e-02,3.375134851543318965e-02,1.038523092865943909e-01
-4.491137080263784553e-01,-3.960402517932057331e-01,-3.874219214145055989e-01,-3.185214700922005347e-03,-6.356894590817381216e-03,1.579083277411234831e-02,6.517814099788665771e-02
-4.403332502722100417e-01,-3.930168993173105418e-01,-3.943114305070464787e-01,-7.604586084836603005e-03,-5.006478834741399236e-03,1.692596136215429245e-02,5.733592808246612549e-02
-4.424366322720972855e-01,-3.914494593488802021e-01,-3.997087888122468069e-01,-8.388981124486639962e-03,-8.617100866494779507e-03,1.856973246760053320e-02,6.095229089260101318e-02
-4.530608078529725358e-01,-3.854327193524029749e-01,-3.932169065740692693e-01,-8.162054564393349948e-03,-1.577678218851684064e-02,3.488835428817964324e-02,9.330537170171737671e-02
-4.355236140917034260e-01,-3.934040173766257809e-01,-4.006056545372569944e-01,-1.382612521053950758e-02,-1.319282713023994802e-02,1.368037812290024378e-02,5.638873577117919922e-02
-3.551636696640926849e-01,-3.740523757709010022e-01,-4.855263783419227486e-01,7.796891984597167924e-02,1.909974256197420270e-02,4.130468352520254988e-02,1.983404308557510376e-01
-4.339884432863627683e-01,-4.572945808413628188e-01,-3.386832118524853441e-01,-1.298713769967580096e-02,8.661091478216653011e-03,-1.068862552005158013e-02,1.136716380715370178e-01
-3.647634181960761612e-01,-4.079450928077084093e-01,-4.435924319891149104e-01,3.955382486258066099e-02,1.600546963834161354e-02,1.908077024903718361e-02,1.059668287634849548e-01
-3.825386309354440462e-01,-3.595755557629497501e-01,-4.547417821454964315e-01,7.353642490101158780e-02,3.547039700317564798e-02,4.101585469730654326e-02,1.801187694072723389e-01
-3.555698350690071341e-01,-3.874248288074865210e-01,-4.408324241797434984e-01,7.909243036849709918e-02,5.339104463766012471e-02,4.347076313183589197e-02,1.963572800159454346e-01
-3.776542171446112817e-01,-3.994269046807834567e-01,-4.395912823168889871e-01,4.834537940161917624e-02,3.423700405424449922e-02,2.739779239458251664e-02,1.254670321941375732e-01
-3.609061361432633341e-01,-4.040616477595078693e-01,-4.584670229025696875e-01,4.262879442283113579e-02,1.864403639792887313e-02,1.378084669925348955e-02,1.193080544471740723e-01
-3.860824890341733595e-01,-3.899757268095672136e-01,-4.490883399196999859e-01,4.749180089304240460e-02,1.850490948642571909e-02,2.059356064743296175e-02,1.131617873907089233e-01
-3.955104844897786021e-01,-4.557607786635222147e-01,-3.728509497053732469e-01,-7.015086715062258775e-03,2.504970360832824150e-02,-5.624612885916905128e-03,8.737163245677947998e-02
-3.943913689098681452e-01,-4.479863007496694416e-01,-3.775317236985638591e-01,-8.548354692841304869e-05,1.452605956412482587e-02,2.542552806299318985e-03,6.864903867244720459e-02
-3.891351569469322924e-01,-4.605631063687257720e-01,-3.687781715736436206e-01,1.082146646696702068e-02,5.646809189352407221e-02,2.064583530874497877e-02,1.347828507423400879e-01
-3.944107761240258636e-01,-4.543725835369376576e-01,-3.651493930464514426e-01,1.116886138447312736e-02,3.742957253392301814e-02,1.211435049375378555e-02,1.059416532516479492e-01
-3.815588238505489560e-01,-4.531535270846008823e-01,-3.937895728317180044e-01,-2.593179275794444717e-03,1.513837838902934788e-02,-5.341892271000618642e-03,7.206267118453979492e-02
-3.833175791768990703e-01,-4.480700066871461384e-01,-3.951775412141141364e-01,5.273002588984463355e-03,2.046853975607064099e-02,6.976813471511411624e-03,7.107671350240707397e-02
-3.852204607878296772e-01,-4.501458339487826588e-01,-3.834562004865221252e-01,6.079911010727687311e-03,1.601300458505741306e-02,3.249312857499333119e-03,7.242085784673690796e-02
-4.092820197062104204e-01,-3.950457514915673984e-01,-4.091815080663012139e-01,1.226000094269576830e-03,7.053168147567181849e-03,1.824386033535820495e-03,1.910461857914924622e-02
-3.686286022197008405e-01,-4.584367911002069640e-01,-3.897032977507769447e-01,-4.722589816655826424e-03,4.027701279807022194e-02,-5.940292434624598258e-03,1.079650670289993286e-01
-3.755513850642054896e-01,-4.519530884300337892e-01,-4.040163383106618045e-01,-1.624612430388018731e-03,2.230402525929446253e-02,-4.928595274578615945e-03,7.775540649890899658e-02
-3.662231755661738419e-01,-4.567189915598874328e-01,-3.828838838097908814e-01,8.416344689090705586e-03,4.306948275410728971e-02,1.080984575060488229e-02,1.143999621272087097e-01
-4.720318697301615352e-01,-3.349404345809754990e-01,-4.195210390812092460e-01,-1.701386722974564114e-02,-1.175015456839404067e-02,7.755979028250696572e-02,1.835261285305023193e-01
-4.368002956938173975e-01,-4.406596875180262551e-01,-3.671492416560280803e-01,-5.784460095289304521e-02,3.537769104482544474e-02,-4.642594950593530168e-02,1.593543738126754761e-01
-3.901498574707262246e-01,-4.421273927965069239e-01,-4.135966836084989384e-01,-4.504738449304365733e-02,3.030629492026318955e-02,-5.108017072230104649e-02,1.367606520652770996e-01
-4.243792606839532633e-01,-3.897575065829983476e-01,-4.200131542546550745e-01,-4.430630757598302827e-02,1.840619592107649305e-02,-4.718642495627375921e-02,1.210444271564483643e-01
-3.950435413879646585e-01,-4.394824036371573484e-01,-4.197637539135224416e-01,-3.756560181227949075e-02,2.922667016224878359e-02,-7.112437530331798541e-02,1.531649827957153320e-01
-4.237106063760825436e-01,-4.246945026524600042e-01,-3.966235404862867853e-01,-2.152082108153302933e-02,9.769069800335060394e-03,-3.239624202097617089e-02,7.473699748516082764e-02
-4.254411672201962036e-01,-4.235354929352539988e-01,-4.034136615534559822e-01,-2.624147385557890413e-02,1.645285478840477142e-02,-2.650448106135780066e-02,7.370387762784957886e-02
-4.241734744036290694e-01,-4.101765177996334888e-01,-4.203537247084893069e-01,-2.959908143850387835e-02,1.017015878547184934e-02,-3.006871591736604357e-02,7.621047645807266235e-02
-4.157883996768547696e-01,-4.137872082259677620e-01,-4.083692090012082665e-01,-1.665788579937755882e-03,-2.983910455409780624e-04,1.153932248181881523e-04,7.268669083714485168e-03
-3.941377802916302131e-01,-4.365635401605079124e-01,-3.991039776032825892e-01,-4.003738607693099055e-02,3.655041731976317598e-02,-3.562738696088631890e-02,1.193256974220275879e-01
-4.045360777514572792e-01,-4.115009163564622985e-01,-4.256606982036053588e-01,-1.898345660948279681e-02,1.080372457657939426e-02,-3.033085051422386089e-02,6.737051904201507568e-02
-4.011374535885390835e-01,-4.267664917305781236e-01,-4.102220989007446250e-01,-1.812776345010308834e-02,1.912556358414994537e-02,-2.517381832254510232e-02,6.701432913541793823e-02
-4.143349163735100538e-01,-4.146796789021128249e-01,-4.119010965308677608e-01,-1.019953415253659242e-02,-1.321054182857463871e-02,7.709063350070754009e-03,3.195022791624069214e-02
-4.167596320456252168e-01,-4.028335308196837605e-01,-4.129966470851035854e-01,-8.063486230258045187e-03,-8.326600064175352506e-03,7.943171079692133707e-03,2.735015191137790680e-02
-4.162008224282969238e-01,-4.079940749997184035e-01,-4.113450042547051044e-01,-5.823067670393685356e-03,-5.552328958916736418e-03,4.170133567961586095e-03,1.724698953330516815e-02
-3.810851283239656828e-01,-4.259310749339437763e-01,-4.364558792746754956e-01,-5.627753055579134273e-03,-3.727650839934624778e-03,-3.900874750508891934e-03,5.269038677215576172e-02
-3.964116906114402150e-01,-4.425675717852061708e-01,-3.953808768299579279e-01,-2.098368631140029930e-02,2.625483553315191912e-02,-2.673804110447467602e-02,8.782180398702621460e-02
-4.629916292455513172e-01,-3.455392000291113153e-01,-4.219681434711967105e-01,-8.872006517728389229e-04,-1.126693340016336493e-03,3.658119665087858352e-02,1.211627572774887085e-01
-4.368360817765202242e-01,-3.373041846050695014e-01,-4.226941334834305453e-01,1.516663081275884672e-01,1.179461010075039534e-01,1.538762676574225996e-01,4.364339411258697510e-01
-3.917697888441283305e-01,-4.317288542754906255e-01,-4.062664834081821108e-01,-1.509875125466326670e-02,1.760242756765973554e-02,-1.249593909072710222e-02,5.752830207347869873e-02
-3.914990703831768837e-01,-4.352362837818407049e-01,-4.053500695676137688e-01,-1.853049453254185111e-03,2.385487881322557839e-03,-6.502990562521016905e-03,4.065992683172225952e-02
-3.899103144209652427e-01,-4.329312174525775658e-01,-4.104450426562482601e-01,-2.408376149250008019e-03,4.332133164352463227e-03,-1.015644113004291263e-02,4.209766536951065063e-02
-4.014097923135089840e-01,-4.469584462451748896e-01,-3.904701537319886229e-01,-1.003877774878203857e-02,-2.467714635930871522e-02,-3.382922758544941282e-03,6.968636810779571533e-02
-3.354675079545558214e-01,-5.107035457399755618e-01,-3.756981207381300258e-01,-2.485128747069763333e-03,-1.137551243245499694e-01,-2.939924754285250935e-02,2.582798302173614502e-01
-5.127919618142057212e-01,-2.562976920424168137e-01,-4.679941405662793041e-01,1.007591388791313942e-02,-2.640668746736976602e-02,1.171088010650946955e-02,2.431331276893615723e-01
-4.176015418075076924e-01,-4.453626536260338886e-01,-3.808468553957926050e-01,-8.090592796620376184e-03,-2.702107333926996244e-02,-2.691121090336070099e-03,7.450135797262191772e-02
-3.666606278577138056e-01,-5.071761960072779241e-01,-3.789740296306498557e-01,2.114697742316918455e-02,-1.478819574137076598e-01,-1.976356735588466473e-02,2.937458455562591553e-01
-4.415601332498090836e-01,-5.042320637178314691e-01,-3.069243170053134739e-01,-3.993220756859736098e-02,-9.791627437664311706e-02,-4.253152106482907535e-02,2.635636329650878906e-01
-4.290164332039325679e-01,-4.419159379245642394e-01,-3.763842395337366198e-01,2.173243008725110528e-03,-3.929704040931094461e-02,-1.255521862710857941e-03,9.092383831739425659e-02
-3.508007684243822366e-01,-3.969642828927286149e-01,-4.765414069149405685e-01,9.328966346180758706e-02,-7.935955159265321163e-03,3.653468718384440036e-03,1.961504817008972168e-01
-4.037052580236890620e-01,-4.454200541051593909e-01,-3.888414057972442439e-01,7.563514378749814845e-03,-4.386099784719008077e-02,-2.719611678913464586e-02,1.036482974886894226e-01
-4.484496181007138205e-01,-3.805850284369954872e-01,-3.966590983629975087e-01,1.049658767090854913e-02,8.894378660784917762e-03,2.095109932405390257e-02,7.521854341030120850e-02
-4.570538162966748530e-01,-4.271387512888163429e-01,-3.497761381752660381e-01,-1.119332298239382115e-02,2.491550978745625707e-03,3.311719443379002037e-02,1.134853884577751160e-01
-4.397189436328656775e-01,-4.091785865082358531e-01,-3.815590165464420314e-01,-1.287432969691429570e-02,-8.841028297996735702e-03,6.599619464610430135e-03,5.832209810614585876e-02
-4.525652716597282632e-01,-4.139321405768955353e-01,-3.624718749867854584e-01,-8.731531751801469010e-03,-7.554571536342757909e-03,7.046184842386911569e-03,8.171676099300384521e-02
-4.554278673551833134e-01,-4.215411428798592208e-01,-3.522246917021263912e-01,-1.540616761536138003e-02,-2.733489098329390174e-03,3.023432125359981973e-02,1.085301637649536133e-01
-4.678429763772422034e-01,-4.132046168971510447e-01,-3.438371723898954735e-01,-2.047424764262211622e-02,-1.947059457537299657e-02,5.114034170359842840e-02,1.477437466382980347e-01
-4.533239774362013974e-01,-3.623732255023934257e-01,-4.141773444226932166e-01,-2.276167478765280406e-03,-5.450933852116746775e-03,8.030046489694714351e-03,8.088392019271850586e-02
-4.564438656720458676e-01,-4.230190907763062835e-01,-3.516822626740643831e-01,-7.627988462804676136e-03,-8.659856251633889571e-03,1.858419646230660346e-02,1.001310721039772034e-01
-4.548792938060864932e-01,-4.274265615165644405e-01,-3.411388460244355048e-01,-4.452055453298013610e-03,-1.741719191665100754e-03,1.691397129451171003e-02,1.072141155600547791e-01
-4.533750132446627834e-01,-4.261449486917086582e-01,-3.465832234287306579e-01,-4.039185738200691371e-03,2.656938632661096870e-03,1.930225957775916559e-02,1.021071523427963257e-01
-3.978499788272547022e-01,-3.785105247066701817e-01,-4.481597488153150066e-01,4.776537018269469241e-03,1.042305107205895301e-03,1.182999384255545468e-03,6.288047879934310913e-02
-3.884708358945503370e-01,-3.838683608665283686e-01,-4.491974980178016219e-01,6.926221437919667309e-03,3.318583367079505197e-03,1.643337232681246589e-04,6.454022973775863647e-02
-4.427777813502306037e-01,-3.917396980157394348e-01,-3.860010272635336359e-01,1.320558225023560220e-03,1.578929668550891913e-03,2.880194070121154526e-03,5.448216572403907776e-02
-3.868327502568855714e-01,-3.630434606444257750e-01,-4.612090023256081861e-01,4.182998454888241929e-02,3.593085724748880036e-03,1.552076132510299498e-03,1.147271394729614258e-01
-3.981268122503801021e-01,-3.699017512825671927e-01,-4.503925863938720298e-01,1.308269770418259668e-02,1.581709736359406329e-03,5.518012804789115648e-03,7.493925094604492188e-02
-4.018081727321723418e-01,-3.802498923252165541e-01,-4.307043032212974909e-01,2.506307025306951652e-02,2.115537331134026769e-02,1.705789218602908608e-02,7.760627567768096924e-02
-3.889004387195387213e-01,-3.892670513049246717e-01,-4.463317465866852296e-01,1.012639289945292849e-02,2.540752552097759291e-03,1.466891105048258618e-03,6.009066104888916016e-02
-4.020462978436477597e-01,-3.841520535199043351e-01,-4.284894757336709104e-01,1.975643413685638020e-02,1.483176715622357839e-02,1.473286865737322843e-02,6.304516643285751343e-02
-3.641329048692931170e-01,-3.873510540507468791e-01,-4.599550231074128748e-01,4.104021012465806223e-02,9.732636324793422430e-03,6.727850734862914073e-03,1.138815581798553467e-01
-3.815896118459295994e-01,-4.206090579538837027e-01,-4.316069398308403082e-01,-3.800118091292508521e-02,2.788910070396654131e-02,-2.098765267505991322e-02,1.002981662750244141e-01
-3.789522827085704537e-01,-4.147344787879291284e-01,-4.541511139480426396e-01,-4.328699200031993488e-02,1.821371488251965695e-02,-3.047465283056801158e-02,1.168206855654716492e-01
-3.552963515133568118e-01,-4.453555133730690563e-01,-4.507337022897027201e-01,-6.876647611374266111e-02,3.118888641821638760e-02,-6.175958629282361084e-02,1.927988529205322266e-01
-3.937466599604377837e-01,-3.961587208609770316e-01,-4.460730405921924380e-01,1.942854655527687449e-02,-2.342015240077472901e-02,-1.883467887471016941e-02,8.037291467189788818e-02
-3.728307736645447568e-01,-4.049969542798524946e-01,-4.437664459988330257e-01,3.630625458587539989e-02,-2.802837189191618311e-02,-3.419711609734217561e-02,1.166376098990440369e-01
-3.628627130512853682e-01,-4.359188214677491291e-01,-4.348117836838387151e-01,5.166695936186830457e-02,-2.195874352948902486e-02,-3.037835742547079915e-02,1.322159618139266968e-01
-4.408056990119753604e-01,-4.280522415337523201e-01,-3.687303134927947812e-01,-8.166127324395779791e-03,7.809942462950423278e-04,-5.805087411063581185e-03,6.885699182748794556e-02
-3.855571973396416663e-01,-3.975193383311922957e-01,-4.497557182397469155e-01,3.793759792131074643e-02,-8.832190621894619315e-03,-1.241850535710837568e-02,9.225538372993469238e-02
-3.616616750641711842e-01,-3.678184965003998830e-01,-5.044131487168201922e-01,6.461132000509371698e-02,-3.254896810514029681e-02,-3.830181819460246051e-02,1.990986019372940063e-01
-3.298708271233394274e-01,-3.913296721556475122e-01,-4.829493515228742706e-01,7.318827024807043891e-02,-8.633964892726084294e-04,-1.810202437632730090e-03,1.840756088495254517e-01
-3.516315325508559408e-01,-4.168114418733769311e-01,-4.716987426072192235e-01,3.605748760110254886e-02,-1.145475091102128584e-02,-1.356355803657718039e-02,1.252380013465881348e-01
-4.549321493001950989e-01,-3.859207394031155536e-01,-3.819064954878202967e-01,-3.179642098249383774e-03,3.461278566225951467e-03,3.027914608074216279e-02,8.872693777084350586e-02
-4.599175806718218684e-01,-3.522433617427113139e-01,-4.006012639409797238e-01,3.840715695514600745e-04,-4.714510999032252639e-03,3.626500251841547479e-02,1.128622964024543762e-01
-4.579845468352123916e-01,-3.621207937779230557e-01,-3.944751951335618845e-01,4.808947100687788884e-03,-6.444162504349169223e-04,3.637846088088107083e-02,1.057159081101417542e-01
-4.665987295546380476e-01,-4.053715004891860207e-01,-3.498681403754979047e-01,2.483434725538554225e-03,8.880300224785465241e-03,6.976792777287954550e-02,1.583839803934097290e-01
-4.603334313689491641e-01,-3.795559089054418300e-01,-3.772218006507335186e-01,1.527241432992693104e-02,2.472591056545536334e-02,5.188136766277175876e-02,1.316354125738143921e-01
-4.494879092620440719e-01,-3.964104131520486130e-01,-3.813139710846832342e-01,2.321789566997086753e-03,4.527966851038752946e-03,2.473213266744942254e-02,7.588886469602584839e-02
-4.054132184016112084e-01,-4.150262471785021168e-01,-4.164563222083828009e-01,-2.365499671876047927e-03,-4.067998818438053193e-03,3.035538372784310750e-03,1.422247756272554398e-02
-4.517618416128134640e-01,-3.784159252236384274e-01,-3.975131839368963860e-01,1.534117748423067867e-03,-2.305165634681868771e-03,2.336246386159510080e-02,7.748573273420333862e-02
-4.532241908271257280e-01,-3.740855981201539060e-01,-3.870854135415557895e-01,1.476889244644962774e-02,1.413653424518646583e-02,3.314524552393233875e-02,9.976388514041900635e-02
-4.657091238299790881e-01,-3.792581722457245008e-01,-3.849504708662446761e-01,-6.313106687734170689e-05,-5.658086843697456188e-03,3.419255420884886876e-02,1.030413061380386353e-01
-4.615686502695682814e-01,-4.308768406482809676e-01,-3.531479435545857304e-01,-2.843395116281894827e-02,-3.388369090831865049e-02,5.539803374864787217e-02,1.563522219657897949e-01
-4.702270451625588099e-01,-4.187536441269673615e-01,-3.453253621968527254e-01,-2.740201782010618162e-02,-2.885508423070059711e-02,3.742658954362251128e-02,1.441302746534347534e-01
-4.659854017967174911e-01,-4.132451521480490220e-01,-3.394444184877280501e-01,-1.744974671940853830e-02,-1.562007252970872180e-02,4.716035907266312444e-02,1.429618448019027710e-01
-5.009642688121608289e-01,-4.315257803271348447e-01,-2.848690720054443126e-01,-1.490541821154104350e-02,-1.002547409273579250e-02,8.448029438411738812e-02,2.426773905754089355e-01
-4.938117510218375528e-01,-4.335245401448305502e-01,-2.868979564813417538e-01,-1.921509993687535445e-02,-1.139179468303170434e-02,8.690487965718486640e-02,2.410974204540252686e-01
-5.042423441428165454e-01,-3.879256587785390731e-01,-3.394524649506685532e-01,-2.907436006657250840e-02,-3.724248992995994600e-02,8.096652708271380450e-02,2.188176512718200684e-01
-3.783595220129793990e-01,-4.424415884378467556e-01,-4.176601469578771209e-01,6.056190331759987895e-04,-1.108732318405430614e-02,-5.858066744478643978e-03,6.004517152905464172e-02
-3.512195401722306154e-01,-4.555423922357512700e-01,-4.394800855539403583e-01,-2.391177917427341967e-03,-1.539095272541358625e-02,-1.325074050699019852e-02,1.035380735993385315e-01
-3.529370898019057456e-01,-4.577739263582715212e-01,-4.400990151617816815e-01,1.451605284826630073e-02,-3.862077543736358587e-02,-7.454423236681474718e-03,1.213413700461387634e-01
-3.697110454818021141e-01,-4.733685630613043149e-01,-4.044244357574277582e-01,-1.671467109398394948e-02,-4.927484516152434019e-02,-1.507747024881482198e-02,1.309799998998641968e-01
-3.914653427643907113e-01,-4.415178548582913143e-01,-4.160055448801837086e-01,-6.788386049918109129e-03,-2.103066652699502048e-02,-9.187615947973945540e-03,5.997938662767410278e-02
-4.513653226312815403e-01,-4.012909296181406127e-01,-3.745073396117483688e-01,-1.323471769106180328e-02,-1.091467262374079192e-02,2.966574703338128657e-02,8.993893116712570190e-02
-4.413970704903743547e-01,-3.198687533567490804e-01,-4.602328358061807956e-01,5.096047806550438319e-02,1.602247768031525924e-02,3.000892643132368684e-02,1.693389266729354858e-01
-4.384805011514648632e-01,-2.996048192599722326e-01,-4.692531949022096804e-01,7.196871683674992137e-02,3.472276300027408308e-02,4.192079797222458826e-02,2.212115526199340820e-01
-4.403516305335922199e-01,-3.115601702164431663e-01,-4.617368965339651021e-01,4.405027424296534266e-02,1.354677528068879387e-02,3.382888336115966871e-02,1.720575988292694092e-01
-4.504693243970202543e-01,-2.831873008014106352e-01,-4.855247924914603552e-01,6.501825842781532028e-02,9.296055435499387537e-03,4.472360135752723176e-02,2.324183434247970581e-01
-4.315851190218935041e-01,-4.298266016772623321e-01,-3.900011360798809612e-01,-6.960682063627079974e-02,1.989340077997114875e-02,-4.310840147680294193e-02,1.515149027109146118e-01
-4.491078594568941873e-01,-3.707620348256189802e-01,-4.191470439038623708e-01,-2.744825245392367580e-02,2.409709211226230413e-03,-4.280596996893993450e-02,1.116382852196693420e-01
-4.277500358723194118e-01,-3.698107555079851450e-01,-4.256849555456660994e-01,-4.027228625003900081e-02,1.831684025797224863e-02,-4.670397725163922403e-02,1.251297295093536377e-01
-4.475291262090401179e-01,-3.908346731690873210e-01,-3.991801440266600220e-01,-1.492783287372133512e-02,1.057838604466393613e-02,-2.885981666410255414e-02,7.945854216814041138e-02
-4.181674322485474660e-01,-4.518231843732152253e-01,-3.526569044176247614e-01,-1.483592113524030351e-02,2.905318995900640910e-02,-1.283109535474607002e-02,1.063749641180038452e-01
-4.253896486980138225e-01,-4.694656755771458023e-01,-3.357435004181220650e-01,-7.493542599555254140e-03,8.034626625198734717e-02,-1.781419255576456931e-02,1.855193674564361572e-01
-4.049698855990899737e-01,-4.500391679305024151e-01,-3.747342773260345927e-01,-3.056290655661202116e-02,4.491830078853627228e-02,-3.995405044098050001e-02,1.339863538742065430e-01
-3.945163365378535625e-01,-5.044161700208295018e-01,-3.443619780387020546e-01,-3.797786966912326118e-02,5.747128159156930649e-02,-5.325513546732286302e-02,2.070012539625167847e-01
-4.257066157071974222e-01,-4.824320633746930764e-01,-3.317320855214556108e-01,-3.108712226583668081e-02,4.190099932039110381e-02,-3.212762617487850692e-02,1.692412346601486206e-01
-4.493838984237941703e-01,-4.006905128961433804e-01,-3.721728560158185095e-01,-4.986482328451646504e-03,1.000597193338187679e-03,1.430572710253136259e-02,7.255676388740539551e-02
-4.313388717770266223e-01,-4.465420186592987117e-01,-3.544762835476017448e-01,-2.486037169794620000e-02,2.959117025413008847e-02,-4.100363208036252732e-02,1.297399997711181641e-01
-4.531566798183483402e-01,-3.822229585359999127e-01,-3.872268295442454766e-01,3.664860728902180322e-05,5.615493095054997340e-04,2.050353566080793596e-02,7.722579687833786011e-02
-4.484342848493421130e-01,-3.882013158675421960e-01,-3.897894988630012381e-01,6.021898629986460055e-04,-4.091227819416440314e-03,1.050444499404373268e-02,6.258757412433624268e-02
-4.473243546862201714e-01,-3.876027895909767151e-01,-3.899766686044425779e-01,-1.762487867911574722e-03,-9.687074855301404733e-04,6.107782566861131787e-03,5.962028354406356812e-02
-4.461009884254714120e-01,-3.826390501202542871e-01,-3.996000947106028711e-01,-1.279080674370684009e-03,-2.023941092207613961e-03,4.818661966420384815e-03,5.766775086522102356e-02
-4.462235508844110687e-01,-3.804416597480416717e-01,-3.957787386861771339e-01,-1.743956388911133484e-02,-1.242285920607555730e-02,3.158342153573687194e-02,8.900289982557296753e-02
-4.427737724959573962e-01,-3.832533664364538017e-01,-4.063638293446968364e-01,-6.091825046892295099e-03,-7.900379081423294231e-03,1.244035157894827874e-02,5.885655432939529419e-02
-4.443779574591183446e-01,-4.034097169037945130e-01,-3.790355567574351103e-01,-7.309764018613942697e-03,-9.500201905615712848e-04,8.201374079266070261e-03,6.029805913567543030e-02
-4.576060418160537435e-01,-3.901457088412174090e-01,-3.659500597317794091e-01,-4.962786517842170467e-03,-2.505160236688504065e-03,4.218867046269986210e-02,1.104578599333763123e-01
-4.760382430787050145e-01,-3.614650512488170597e-01,-3.969541705124554620e-01,-9.194068193195164412e-03,-1.330043474322851506e-02,5.179363769892867536e-02,1.383923143148422241e-01
-4.607898708615603134e-01,-3.634910151823086411e-01,-3.906948225308076172e-01,1.605165542770451391e-03,2.016885322275425909e-03,3.573438530629425430e-02,1.068222224712371826e-01
-4.063371987542138131e-01,-4.059511593933939344e-01,-4.221465282241164685e-01,-5.851286297362246185e-04,-5.256492138874872518e-04,-4.789148859365934441e-04,1.608511991798877716e-02
-4.533021978956144338e-01,-3.714731007405794316e-01,-4.020662498960074216e-01,-4.334172712055943573e-03,-1.248210687611136377e-02,4.769041301337263034e-02,1.116934344172477722e-01
-5.012176212037782186e-01,-2.598008378652174599e-01,-4.941427995432207121e-01,5.077073551511345796e-03,-2.937362151548413708e-02,1.443124326465949903e-02,2.447747439146041870e-01
-4.673089117765870104e-01,-3.167529440982995159e-01,-4.560379977153213860e-01,-6.353787209203276727e-03,-8.599555172366329589e-03,8.060931383688799828e-03,1.470888704061508179e-01
-4.686999253073722560e-01,-3.167694670716440508e-01,-4.630945167048056699e-01,-1.050779353988847385e-02,-1.792176987310002342e-02,-2.879107046541583628e-03,1.535653918981552124e-01
-5.055095720800371062e-01,-2.594123623496138453e-01,-4.952019610854702103e-01,9.043293053414273863e-03,-2.296181319682166419e-02,1.207164536368295245e-02,2.457593530416488647e-01
-4.604007606826341359e-01,-3.057069048836455472e-01,-4.688980469178373744e-01,4.008667742056712564e-03,-1.022081170112367973e-02,-5.972403397212575754e-05,1.602450758218765259e-01
-4.637885587033501733e-01,-2.943089324748257574e-01,-4.727593507563200292e-01,1.691944752769039204e-02,-6.902558921458503728e-03,-3.755836155979480444e-03,1.771108210086822510e-01
-4.153450108173861732e-01,-4.107439090494525713e-01,-4.122315189375893585e-01,-3.974463155557280618e-04,-1.020565217148878276e-03,-2.740270414354890839e-04,4.512460436671972275e-03
-4.136748043644676298e-01,-3.577335608324999083e-01,-4.359094842921119595e-01,5.611381776709604974e-02,2.588462400217538331e-02,4.573107526731896855e-02,1.503261625766754150e-01
-4.321430699793571972e-01,-3.375117579364262932e-01,-4.356008632229496635e-01,6.655193117324229024e-02,5.782444788452287265e-02,6.705576053737549724e-02,2.147141396999359131e-01
-4.704171779715355939e-01,-2.884394234606829643e-01,-4.338532073513336473e-01,5.207213247559937946e-02,2.945438722040065113e-02,6.623761827603090457e-02,2.273729741573333740e-01
-4.334033833976869143e-01,-3.598967757471712159e-01,-4.204065075945448426e-01,4.536204887916815698e-02,2.903621390595016380e-02,5.050892852117253029e-02,1.448195129632949829e-01
-4.122249318554520037e-01,-4.075276464654967179e-01,-4.212086751655313988e-01,-2.177275812366487664e-03,2.783140449548662104e-03,-2.457363005566632827e-03,1.416144240647554398e-02
-4.386221334720934451e-01,-3.428936858024904666e-01,-4.080221111452697058e-01,6.051364590640100072e-02,4.449248767775791646e-02,7.412932231583491127e-02,2.014470696449279785e-01
-4.360911037066792506e-01,-2.930752820690853966e-01,-4.703964204049960740e-01,6.393845127289292385e-02,3.133105450027535294e-02,4.560168530969768014e-02,2.190534323453903198e-01
-4.607097663435317791e-01,-3.261181899473600820e-01,-4.301448679875917724e-01,2.770986230660429928e-02,1.134256533671003549e-02,4.167845710648423324e-02,1.511161178350448608e-01
-4.709433058758669133e-01,-3.265105593850805565e-01,-4.323936027448150310e-01,-2.178842984064256402e-02,-3.420727054032309151e-03,6.143457628854294417e-02,1.719330996274948120e-01
-4.646459917179651677e-01,-3.348406600850131754e-01,-4.123691052205937235e-01,-2.808250640843459531e-02,-2.275416838240573378e-02,5.996469382655818248e-02,1.658400148153305054e-01
-4.918199183613189418e-01,-2.506738851887051478e-01,-4.493285679302503888e-01,-4.939081676298423540e-02,-3.452913216761735460e-02,1.011587210623563493e-01,3.021666705608367920e-01
-4.728359324669423325e-01,-3.553392821106371446e-01,-4.350320214316897860e-01,-6.400621154336942620e-02,-4.099806555918183992e-02,4.380249044268860054e-02,1.840696930885314941e-01
-4.306034209649265421e-01,-4.336546655814136897e-01,-3.672237064015481112e-01,6.724679659430390401e-03,-3.856307207461451281e-02,-3.581444887328614352e-02,1.125375702977180481e-01
-4.234390079385618177e-01,-3.874339114597341593e-01,-4.151632736236252619e-01,3.196748027794964891e-02,-3.993015520253530987e-02,-5.028897345995193141e-02,1.284633725881576538e-01
-4.127728937538047149e-01,-4.282028331194134840e-01,-4.016882673388010860e-01,1.198940140161932136e-02,-1.703388819116321076e-02,-1.937889439342824552e-02,5.440872162580490112e-02
-4.429472225632403726e-01,-3.814668944066891831e-01,-3.977164204746155840e-01,9.462339814609263024e-04,5.613915121610251087e-03,2.579618403535327651e-03,5.623210221529006958e-02
-4.997449884171709100e-01,-2.822013652419380625e-01,-4.465389711887646773e-01,6.215562751944556964e-03,-6.812109110897690773e-04,5.364650469003082872e-02,2.175605893135070801e-01
-5.016755064270570497e-01,-2.776632973167502128e-01,-4.550405579437286074e-01,1.526158365573487656e-02,8.264728091237190377e-03,4.820081920394936326e-02,2.231213003396987915e-01
-4.818613346916050255e-01,-3.150368416754034118e-01,-4.245934832188834052e-01,5.293639044478346684e-02,2.524950195309081172e-02,6.639312880126203853e-02,2.123673111200332642e-01
-4.611651407932524371e-01,-3.245838375241992257e-01,-4.250107968730181818e-01,4.808883429211491256e-02,1.548060387940165469e-02,6.997220177720181455e-02,1.933092474937438965e-01
-4.796998280138684012e-01,-2.910248377408725662e-01,-4.199529191831484765e-01,2.648888497981616991e-02,9.865998807285959391e-03,9.041178037152822200e-02,2.341261655092239380e-01
-4.690353475070436207e-01,-2.974864080263345811e-01,-4.531727779832979142e-01,2.129690212761147297e-02,-6.333568291031000438e-04,3.766847529245381798e-02,1.804939657449722290e-01
-5.081702492905127988e-01,-2.659295392282265968e-01,-4.548697483575864786e-01,2.442382058834573905e-02,-9.595606970089400750e-03,8.428876447202357514e-02,2.683086693286895752e-01
-4.839829096949667120e-01,-4.549834426804950649e-01,-2.876807143312960502e-01,-4.024092314435408213e-02,-6.371614530018872291e-02,6.834302240909287396e-02,2.544256448745727539e-01
-4.947186149773616926e-01,-2.780636349270945162e-01,-4.665508639026710869e-01,3.150761627946180310e-02,5.105477972018750837e-03,6.635206142399692475e-02,2.406123280525207520e-01
-4.083670593510780877e-01,-4.161726960965525524e-01,-4.096376044911114178e-01,-4.873120773060852194e-03,3.801395657245080356e-03,-4.252070855273529237e-03,1.488149538636207581e-02
-4.021194454736071178e-01,-4.500574843405334979e-01,-3.694573093191989566e-01,-1.470648932316837715e-02,3.142253756875924148e-02,-1.358766753675749381e-02,9.537019580602645874e-02
-4.017840935325288632e-01,-4.340478333976782732e-01,-3.979224539960725116e-01,-7.680688313963766195e-03,6.905772925956147820e-03,-7.374227626812501768e-03,4.078771546483039856e-02
-4.138742504711686032e-01,-4.237454285890385197e-01,-4.085911852855272364e-01,-1.859799246782142465e-02,1.848434623052662776e-02,-2.155682483231849758e-02,6.028482690453529358e-02
-3.981864446512448086e-01,-4.306544912708445971e-01,-4.057724657583481886e-01,-1.191124574201645435e-02,2.125830321853749288e-02,-1.432753694302945323e-02,5.711946263909339905e-02
-3.878866875185887353e-01,-4.388708724906144609e-01,-4.048736353446678038e-01,-1.233063285525329983e-02,1.480291258917754496e-02,-1.068928120905947125e-02,5.897603183984756470e-02
-4.100706511456785885e-01,-4.250678745301503247e-01,-4.000290825394523520e-01,-7.915425090904657304e-03,1.029518139921704704e-02,-6.424956353001846400e-03,3.325837850570678711e-02
-4.278963115885089374e-01,-3.797703483325665097e-01,-4.286978468581720270e-01,-2.903188134824259692e-02,1.033770462611609438e-02,-3.256709966737331152e-02,9.157689660787582397e-02
-3.826877263509952387e-01,-4.234639810216357936e-01,-4.012843100367868288e-01,2.153587112314805582e-02,3.122395681572154996e-02,2.519254910351237386e-02,8.643157780170440674e-02
-4.066161855409181070e-01,-4.157372313676263587e-01,-4.301614893024972019e-01,-6.293122878895550387e-02,1.308705030396930570e-02,-5.162649149321917041e-02,1.442689597606658936e-01
-4.580041439498707123e-01,-4.351030608759395846e-01,-3.299809708409673359e-01,-3.887662879274984915e-03,5.057565931784567884e-03,9.742353093510923434e-03,1.199555844068527222e-01
-4.153167388967164420e-01,-4.386230134633213318e-01,-3.878716036307527926e-01,-2.601956408909027185e-02,2.739201070376706681e-02,-2.366986172627184512e-02,8.887557685375213623e-02
-4.192449465977173828e-01,-4.222748171599602363e-01,-4.022891544824746535e-01,-2.958259368906936485e-02,1.360807529950731377e-02,-3.903634962647963003e-02,9.000273048877716064e-02
-4.530243276410237940e-01,-4.021432160299628356e-01,-3.712352506926337448e-01,-9.154641216273450358e-03,-4.753010492311186830e-03,1.074352028812331460e-02,7.604134827852249146e-02
-4.240683558542914233e-01,-4.027546117753020849e-01,-4.040600864431025396e-01,-2.355613989592490742e-02,1.512867205772506704e-02,-3.002167572969736964e-02,7.404974102973937988e-02
-4.211091710181141257e-01,-3.982567089659748705e-01,-4.208658431933043897e-01,-2.410918187243955152e-02,1.149736957846418314e-02,-3.038051216155227691e-02,7.366129755973815918e-02
-4.096814618458514135e-01,-3.989730730617769283e-01,-4.295446319391337808e-01,-2.414097340460798213e-02,1.336117960478795837e-02,-1.923103275375053281e-02,6.415090709924697876e-02
-5.046774155490303393e-01,-2.198611505142030742e-01,-4.800315629212562607e-01,-4.432187419831142006e-02,-2.394846900684190205e-02,8.046221065989969667e-02,3.189742267131805420e-01
-4.697148499207985939e-01,-2.744560658620193716e-01,-4.951485949785738305e-01,-6.998039108256219262e-03,-1.669744026422194036e-02,1.134476426349078325e-02,2.123875468969345093e-01
-5.125079800116061346e-01,-2.817667387931797052e-01,-4.670928803304804089e-01,-3.128232282288394284e-02,-2.973308558199012908e-02,2.397135632212488154e-02,2.283346503973007202e-01
-5.137029746967725075e-01,-1.920062220747907333e-01,-5.109112679109575339e-01,-9.901295069270871219e-03,-3.123380652345772446e-02,1.757882146467579579e-02,3.267205357551574707e-01
-4.530907281782506901e-01,-1.591536381343658935e-01,-6.273177969599286197e-01,3.759411368620227401e-02,-2.481887603271938983e-02,6.927037480627866450e-02,4.341070353984832764e-01
-5.264754626021650452e-01,-1.366538900146156976e-01,-5.847306003367058747e-01,3.666660743492385077e-02,-6.202712201039025514e-02,8.690100377380791108e-02,4.650745987892150879e-01
-5.043715674526595416e-01,-1.544360498517441949e-01,-5.291293339891494085e-01,8.915690452863297977e-02,-2.701367026032644100e-02,2.003124013914179755e-02,3.987120091915130615e-01
-5.135497440166743033e-01,-1.528252992093437623e-01,-5.302681350179152542e-01,1.741472808406163350e-02,-3.094105820746930954e-02,-1.177743427500658980e-03,3.744574487209320068e-01
-5.065437203010793032e-01,-2.507677959658640710e-01,-4.750331713559236002e-01,2.125711466865083665e-02,-3.885340370270919108e-03,3.887308335572281504e-02,2.535524070262908936e-01
-4.715785653853791226e-01,-2.626140678548275487e-01,-4.803969419827815446e-01,2.558745458750158117e-02,-1.526301208626914749e-02,1.122777916928382330e-02,2.205172926187515259e-01
-4.631712448973582252e-01,-2.630792022853922774e-01,-4.745493878865587045e-01,3.859018642246239000e-02,-3.467545650504254024e-03,2.337082732755613526e-02,2.204205691814422607e-01
-4.441633144509932185e-01,-3.641732231195575764e-01,-3.766453564871046211e-01,5.105102748308952554e-02,4.721240753457282835e-02,7.752639609394344766e-02,1.951742917299270630e-01
-4.194359029639980196e-01,-3.819207435498779835e-01,-4.213192384448185002e-01,4.024980946361196577e-02,2.653387790895301787e-02,3.822906119505821432e-02,1.133060157299041748e-01
-4.377856750986393042e-01,-3.781732329231573542e-01,-3.993700188554916708e-01,3.999054208545474443e-02,1.863376277056786809e-02,4.245145100540297783e-02,1.182586699724197388e-01
-4.062719448518807286e-01,-3.949872628034173938e-01,-4.110427772235611954e-01,8.506307123907598869e-03,1.061291838312653987e-02,1.149914471812222422e-02,3.399422019720077515e-02
-4.043020329783145184e-01,-4.039222838299075247e-01,-4.042804937850649205e-01,2.503069285418791853e-02,2.333838789225967450e-02,2.533643029422497778e-02,7.375356554985046387e-02
-4.101414582346972759e-01,-3.959348558791783712e-01,-4.094850463325802603e-01,1.230719685440393070e-02,1.170886405116802406e-02,1.135479950674912232e-02,3.801869601011276245e-02
-3.462165471678951278e-01,-4.119962989240483209e-01,-4.595515614977194185e-01,8.653089901858815325e-02,-1.046935204494102711e-01,-8.314755438007946642e-02,2.929201126098632812e-01
-3.735450631187149928e-01,-3.804791852306333988e-01,-4.934665519140603029e-01,7.352394412134874435e-02,-3.610799059736971572e-02,-4.349554204004433405e-02,1.984992474317550659e-01
-3.919703428689780278e-01,-4.200940364179960862e-01,-4.553381038154130644e-01,4.463128537017254510e-02,-7.415054824548557300e-02,-6.408039220610674269e-02,1.944580525159835815e-01
-4.729344858562463116e-01,-4.581747556906407559e-01,-2.927286496672328875e-01,-3.806961218346537057e-02,-8.039138608404917952e-02,5.686217044107134966e-02,2.519292235374450684e-01
-3.996747028199334473e-01,-3.986934946507926791e-01,-4.586737418556590673e-01,4.599828254700705915e-02,-7.320386803059653058e-02,-6.027656605928977118e-02,1.919986456632614136e-01
-4.285858233480654977e-01,-4.244624049026662904e-01,-3.712901304184504925e-01,2.363606605848174100e-02,4.085034006392929129e-02,4.406068822674687191e-02,1.247790828347206116e-01
-3.609153160087700263e-01,-4.594165722898958526e-01,-3.701045726219104881e-01,4.153049671577096341e-02,8.040757558273452232e-02,3.914567225355460728e-02,1.950626075267791748e-01
-3.681651176904053857e-01,-4.454714484267908170e-01,-3.897471420113259311e-01,4.158484018117675207e-02,7.664154034042391928e-02,4.042923389909983123e-02,1.802411377429962158e-01
-4.317687465439042915e-01,-4.136383587592856181e-01,-3.946400244527568102e-01,3.456462928989856818e-04,-4.623878263916641682e-03,-7.195652548113670201e-03,3.541082143783569336e-02
-4.190053538920612275e-01,-4.103349455999166229e-01,-3.573579404272870796e-01,4.939337151730891634e-02,6.659839004387299588e-02,7.166360011995116797e-02,1.984269022941589355e-01
-3.738495546827338978e-01,-4.499258183773613973e-01,-3.530796677721814714e-01,5.264928446351243435e-02,9.436894096862409598e-02,5.710186755125220420e-02,2.293758541345596313e-01
-3.785474464567756825e-01,-4.367742939043829931e-01,-3.965685545804494838e-01,6.309298069768538852e-02,8.994522834441136261e-02,6.104660821131442650e-02,2.237375378608703613e-01
-4.531465021016564121e-01,-4.195472540661925320e-01,-3.533088370952027213e-01,-7.467725781571261630e-04,-1.189208726708880113e-03,3.110015385745237490e-02,1.031967699527740479e-01
-4.061296480154757416e-01,-4.312554746548757367e-01,-3.745757158686561228e-01,2.018473864351832611e-02,5.022151719728342595e-02,4.034548182460497012e-02,1.268539428710937500e-01
-4.132173942156818769e-01,-4.150621174297537963e-01,-4.105229613190736204e-01,-1.298725203469931365e-03,-1.216298545570043558e-03,3.973475289938885584e-04,5.060169845819473267e-03
-4.212075337424625032e-01,-4.345450406479454131e-01,-3.419092643245540408e-01,6.591211833918325658e-02,7.167764030717367618e-02,7.527543132919213564e-02,2.301503717899322510e-01
-3.447558857338779981e-01,-4.567412802639873592e-01,-4.390700106543663495e-01,-1.147865314662228041e-02,2.302088446379229117e-02,-1.472729209138730518e-02,1.162321791052818298e-01
-3.503099751947815754e-01,-4.346347963215729804e-01,-4.536578066704056722e-01,-1.661543166471667748e-02,9.087750313140264061e-03,-1.262263403523226218e-02,1.031049638986587524e-01
-3.564124228165411190e-01,-4.400363482093853085e-01,-4.415825654869450223e-01,-2.498868088570092155e-02,2.711910886310962138e-02,-2.004497030681318126e-02,1.113988161087036133e-01
-3.440597787178799050e-01,-4.553723224246415402e-01,-4.499225689973301301e-01,-1.500525170859368269e-02,9.374433172458267877e-03,-1.422686604841105588e-02,1.155849471688270569e-01
-4.498912288984057151e-01,-3.250720569788616565e-01,-4.496154542382400643e-01,6.791716813877611558e-02,1.221901852672642973e-02,4.267099011124816932e-02,1.878671348094940186e-01
-4.338860940642170205e-01,-3.753890088852003815e-01,-4.132549051106860771e-01,4.051812212657472656e-02,3.085796929645568190e-02,4.611582672549099232e-02,1.296244412660598755e-01
-4.567660495863936632e-01,-3.047348651326779456e-01,-4.554306525414151263e-01,3.786176383129626760e-02,7.597411966626715397e-03,3.812855705435591602e-02,1.781777292490005493e-01
-3.896147624524991526e-01,-4.463967285945685814e-01,-3.898135688554867917e-01,-7.617913049541763298e-04,4.159458205248591119e-03,-6.664938135414769267e-03,5.830824002623558044e-02
-4.440926880898266038e-01,-3.198610879232339776e-01,-4.554420527001935004e-01,3.572071901658363524e-02,2.672768472806188577e-03,3.184777097123199507e-02,1.544811576604843140e-01
-4.334997679430371842e-01,-3.621759709338800981e-01,-4.192198823844030531e-01,2.359736315227391884e-02,2.769483255566723007e-02,4.085428509580293216e-02,1.151140257716178894e-01
-4.591940712963810678e-01,-3.445731076967084028e-01,-4.236588771093322547e-01,1.256719377193954781e-02,1.113825895934492625e-02,3.701645601404640606e-02,1.236295923590660095e-01
-3.925449635563568740e-01,-4.493793373436014704e-01,-3.800056429150294179e-01,-9.978458852314166239e-03,2.044721157546603579e-02,-4.942882500567812032e-03,7.567242532968521118e-02
-4.016784070317400701e-01,-4.268015255683282883e-01,-4.040176066371774510e-01,-3.265152774506938950e-03,4.864357731913303111e-03,-4.237533837667266205e-03,2.710562013089656830e-02
-3.967820642083059735e-01,-4.142127974276694213e-01,-4.360813324916980593e-01,-2.737134380679139001e-02,-2.101679858141821452e-03,-1.235994799808152328e-02,6.230871006846427917e-02
-3.670403257215562043e-01,-4.018864846440191041e-01,-4.629289619019961721e-01,-4.967646769570890214e-02,-3.496255409443599881e-03,-1.708439452842496972e-02,1.240285858511924744e-01
-3.185667504755556045e-01,-4.404212946709787913e-01,-4.884328014865253476e-01,-5.785520140020155438e-02,-1.089519817660640315e-03,-4.933509973939067400e-02,2.008759379386901855e-01
-3.619617185711105911e-01,-4.169413833874220376e-01,-4.600760812753477147e-01,-5.032492167070141964e-02,-2.221440025032076111e-03,-1.995799250132377842e-02,1.267377585172653198e-01
-3.987940773322637966e-01,-4.112459549993986441e-01,-4.371834266780041944e-01,-2.915322340989409330e-02,9.043183438165453350e-03,-1.180354608720085227e-02,6.605915725231170654e-02
-3.889218278254202299e-01,-3.312610831653129972e-01,-4.802582744753718935e-01,-1.167031989184416918e-01,-2.113577439888350562e-02,8.184369100862043042e-03,2.435850203037261963e-01
-3.281504363881249664e-01,-4.855083530071274134e-01,-4.713441405159837228e-01,-1.216128091591196086e-01,-1.990681580916468796e-02,-5.451807230053028197e-02,2.778629362583160400e-01
-3.637552286804032753e-01,-4.374736438495810398e-01,-4.731625171668754626e-01,-9.872212071663950816e-02,-2.829017189680258990e-03,-3.986008936421622795e-02,2.082491070032119751e-01
-3.742442104163322125e-01,-4.107938136573389132e-01,-4.446852327054854337e-01,-6.422048202929611649e-02,1.529769947931117029e-02,-2.702174199027843407e-02,1.377991735935211182e-01
-3.818106262594690437e-01,-4.446433776951271843e-01,-3.865033650742353832e-01,3.453399091252930958e-02,5.076033154586346435e-02,2.803054021038148963e-02,1.316809654235839844e-01
-4.290346327846034091e-01,-4.261958141535138189e-01,-3.572465958157061694e-01,2.665807622817724376e-02,2.838370998050673485e-02,3.182752920790104384e-02,1.120072603225708008e-01
-3.947881905510770562e-01,-4.374753904887541678e-01,-3.754331738695265708e-01,1.435986469067021716e-02,1.610576653118232435e-02,1.074414203165935909e-02,6.903722882270812988e-02
-3.865683630183620045e-01,-4.510637850918371994e-01,-3.816956355528653422e-01,9.024470498399288568e-03,1.763504121861473109e-02,5.671659399878201634e-03,7.597026973962783813e-02
-4.062401574029897433e-01,-4.365471286113986604e-01,-3.739951729264725522e-01,1.521735511494493216e-02,2.039943822730002840e-02,1.453698699099953418e-02,7.424679398536682129e-02
-4.295732505025253167e-01,-4.203024051963172303e-01,-3.660699883380029163e-01,1.747177454491338766e-02,2.188092864516939448e-02,2.471954767318957844e-02,8.783601969480514526e-02
-4.219310064008919281e-01,-4.606110172031686045e-01,-3.481168008693391602e-01,6.326014066485178937e-03,3.430611375451970285e-02,1.645651686162443589e-02,1.194280087947845459e-01
-4.007124232846543399e-01,-4.441631135668432928e-01,-3.613941446207405983e-01,2.000683629198752450e-02,3.596184739702015798e-02,1.924564896635024350e-02,1.064615622162818909e-01
-4.184806691464580952e-01,-3.991602102237378213e-01,-3.956150018958549675e-01,2.150498287946776485e-02,2.860324569147188259e-02,2.994554784296846184e-02,8.358457684516906738e-02
-4.102109869710283685e-01,-4.323172400749319411e-01,-3.728506617888093233e-01,1.673332894987893810e-02,2.281754789979281370e-02,2.161589534076929775e-02,8.070968091487884521e-02
-3.334487799490640780e-01,-4.363123867238669629e-01,-4.532438388602608170e-01,8.798131630652787638e-03,5.987590269448087206e-03,4.639450995581984407e-04,1.137965172529220581e-01
-3.922285061506171622e-01,-4.066017150805590896e-01,-4.204514703125888930e-01,1.717596328292765855e-03,2.178698680059994175e-03,6.191200684998732218e-03,2.712109498679637909e-02
-3.985762942824985222e-01,-4.448917084989668091e-01,-3.878424834967998946e-01,-5.987935025798554051e-03,7.739186876286179365e-03,-3.530326376055100118e-03,5.551679059863090515e-02
-4.156030561996335027e-01,-4.222252053466240551e-01,-3.854023613833056916e-01,2.142342593390444971e-02,3.101815707001592121e-02,2.726177356308911656e-02,8.745747059583663940e-02
-4.185623842338789258e-01,-4.253686588676175995e-01,-3.789002103562605916e-01,8.305577791448758712e-03,1.277118229236255675e-02,1.008515489329185610e-02,5.376572534441947937e-02
-4.184865230811369852e-01,-4.255668154201708298e-01,-3.711780536933566577e-01,2.109316669056863700e-02,2.782187815659867280e-02,2.559934297812650403e-02,9.080801159143447876e-02
-4.040083902634355462e-01,-4.077284805946835289e-01,-4.051578032334686164e-01,1.585200268691013686e-02,1.806193170061527048e-02,1.529716810437964543e-02,4.945151507854461670e-02
-4.177640861368384639e-01,-3.839858223718298214e-01,-4.054950573227455446e-01,4.611209350576510324e-02,4.250267801261087969e-02,6.386079109822338784e-02,1.578292846679687500e-01
-3.896437457815367655e-01,-3.909795993005696912e-01,-4.315375185081759546e-01,4.012578215633273021e-02,2.780765858495092002e-02,2.305190916224209019e-02,1.022013351321220398e-01
-4.088252352444409210e-01,-3.860639661703206271e-01,-4.152310708606996026e-01,3.511365471113898906e-02,3.907853635175386614e-02,3.392225908294702053e-02,1.115229874849319458e-01
-3.531870834509450163e-01,-3.532247491363346148e-01,-4.673687915830848083e-01,1.213909617168723587e-01,4.513822643711373761e-02,6.620603814893347150e-02,2.765909433364868164e-01
-3.982246684466484443e-01,-3.829384133758183539e-01,-4.282093271623675923e-01,4.325907009990188901e-02,2.513489317557507374e-02,3.617048549396242180e-02,1.141286343336105347e-01
-4.025573210316054640e-01,-3.765539270450576903e-01,-4.293032387608472500e-01,3.836025435463939759e-02,2.304217222616680716e-02,3.173661136220905926e-02,1.054324209690093994e-01
-4.177377954539486238e-01,-3.786095387362809483e-01,-4.242698904454244579e-01,4.403740643341159250e-02,2.656178740971898433e-02,3.628855575798439759e-02,1.171081587672233582e-01
-3.960310533345041684e-01,-3.702091142141827329e-01,-4.393967384892293881e-01,7.058801068276372714e-02,3.735445849438208399e-02,4.119642156998708921e-02,1.670109182596206665e-01
-3.483087553403309555e-01,-4.033763975021686377e-01,-4.395525853264549143e-01,8.412330140310647630e-02,6.782328388812038089e-02,6.671188018784522666e-02,2.339121848344802856e-01
-3.335314973331342525e-01,-4.786182049252901693e-01,-3.900663565414391742e-01,2.410688798018404549e-02,7.830657930608690698e-02,8.428997449005220730e-03,1.907779276371002197e-01
-3.404269600890962311e-01,-4.982679666235854676e-01,-3.829978808698738524e-01,2.684562344523559567e-03,8.039338640196373731e-02,1.010837968744345526e-02,1.993090063333511353e-01
-3.612154553392514234e-01,-4.704636894227203214e-01,-3.995043873666767609e-01,1.725591551229055734e-03,4.364202676184094493e-02,-8.915524542408967325e-04,1.222432702779769897e-01
-3.644932873923695804e-01,-4.544864833519669522e-01,-4.016676438054516685e-01,-2.724424110028120325e-03,4.460207058567838140e-02,-8.492039930973919321e-03,1.110941693186759949e-01
-3.478045796876633733e-01,-4.829255142168428772e-01,-3.730929253606430906e-01,-7.826887039750807934e-03,8.486581384229527347e-02,-1.176954813454250508e-02,1.941292136907577515e-01
-3.777953136982551419e-01,-4.595066825363370300e-01,-3.967179323878592956e-01,-1.616872776033785944e-02,4.298333913094124631e-02,-9.895083737830134493e-03,1.100424602627754211e-01
-3.978641550228388946e-01,-4.450800254253661770e-01,-3.816614151065544913e-01,6.963926956197230610e-04,3.716289947789549759e-03,-2.958097120762420056e-04,5.744600668549537659e-02
-3.992115165515237596e-01,-4.605023108850204161e-01,-3.539398619707331828e-01,-3.244538819516388714e-03,3.970119141872358731e-02,7.901310239226841609e-04,1.155111566185951233e-01
-3.898568019008885610e-01,-4.554757503397071083e-01,-3.732575580598508358e-01,1.530461600925985292e-03,3.271324845302194667e-02,8.026001967404432658e-04,9.428698569536209106e-02
-4.027581564395322222e-01,-4.202635622979103980e-01,-4.142573218953432002e-01,-1.013094609707038954e-03,8.890738134271677353e-04,-6.193179733337534840e-03,1.891796290874481201e-02
-4.044620836752602089e-01,-4.176882664356650343e-01,-4.145307845267511282e-01,-1.772211624732281197e-03,2.149166063594974436e-03,-3.748363626104380363e-03,1.444194559007883072e-02
-4.113306601917071093e-01,-4.175851440536074155e-01,-4.087674033314893096e-01,-1.423460084396642976e-03,1.056711979128652397e-03,-1.567677520086703481e-03,8.861274458467960358e-03
-4.096671133979132851e-01,-4.172592072781619588e-01,-4.093510220459888882e-01,-2.900977869536370320e-03,2.072787398312884392e-03,-2.537703157673200545e-03,1.084415800869464874e-02
-4.070468451681152899e-01,-4.211463618838810485e-01,-4.088642811049269521e-01,-8.926593665449514747e-04,3.447579083678735477e-04,-3.184913470501616554e-03,1.447938475757837296e-02
-3.991962739831173002e-01,-3.780493287432693528e-01,-4.435369192341918065e-01,4.569653611523252085e-03,3.488499410692553690e-03,7.024308137585318947e-04,5.875023081898689270e-02
-4.624642822590609992e-01,-3.958872516016918031e-01,-3.819008019511745400e-01,-1.824736350142468905e-02,-2.002458655519625749e-02,3.793162685343420132e-02,1.098980158567428589e-01
-4.351553225209072173e-01,-4.077876768317877376e-01,-3.942630396822306427e-01,-1.106309347003033364e-02,-1.100497106026268601e-02,1.040172202889804755e-02,4.855031520128250122e-02
-3.910629189100829350e-01,-4.475039821822129893e-01,-3.842541831612909520e-01,6.534810543890487390e-04,5.318995161710904189e-03,-6.119753709623179194e-05,6.084745004773139954e-02
-4.379863337928460720e-01,-3.896774695418660506e-01,-4.032460829139907776e-01,-1.466565841985414780e-02,-1.488945928765121607e-02,1.940863043230601701e-02,6.559562683105468750e-02
-4.363672318339660294e-01,-4.022813170346903333e-01,-3.950869491422247526e-01,-1.250826947779234456e-02,-1.060885555273359364e-02,8.564965012731858007e-03,4.985905066132545471e-02
-4.340992275805213296e-01,-3.985723787039591182e-01,-4.077340314292516310e-01,-1.228421194264902629e-02,-1.235889871200553450e-02,9.151508750872592440e-03,4.672035202383995056e-02
-4.687649517646591546e-01,-5.117152753533910081e-01,-2.651372039316786111e-01,-2.335884904983672253e-02,4.084502868058705050e-02,-2.104554278186299837e-02,2.450009584426879883e-01
-4.347959717831271220e-01,-5.101600928533790436e-01,-2.945635848111588517e-01,-1.620640475018359297e-02,4.196831955905860889e-02,5.894289447473429443e-03,2.051573842763900757e-01
-4.143773663062816914e-01,-5.121907928245816866e-01,-3.097495684654492654e-01,-1.791036752812876637e-02,6.246893565363020179e-02,-1.681871485124648066e-03,2.083899676799774170e-01
-4.375398809691155577e-01,-5.299984997706914669e-01,-1.962836850766191688e-01,7.959601583733452376e-03,1.498939503724195377e-01,5.597289306997487585e-02,4.074959158897399902e-01
-4.670455934521655639e-01,-5.221930162062833336e-01,-2.213992205993128848e-01,-3.050786449622860247e-02,8.006474479962026602e-02,-4.919504831645923199e-02,3.259046971797943115e-01
-4.168104390450400598e-01,-4.711407429512264877e-01,-3.379761736648368986e-01,-1.602863028182010749e-02,5.433779894689616530e-02,-1.829621046803792811e-02,1.551854014396667480e-01
-4.510977971351441962e-01,-3.402539385932559224e-01,-4.151814935131253881e-01,7.462754548787375874e-02,2.765162615668757470e-02,7.910422054506571765e-02,2.176449447870254517e-01
-4.481173484870198398e-01,-3.875755109745974702e-01,-3.907952046560251302e-01,2.424440933813034119e-02,2.333192797272986771e-02,4.291026527698254406e-02,1.113603934645652771e-01
-4.452633191632414111e-01,-3.865509022654850524e-01,-3.868546053313237088e-01,1.638370997207343194e-02,1.524389561483453087e-02,4.829462535712767540e-02,1.092196330428123474e-01
-4.589672631977002037e-01,-3.817944864482131218e-01,-3.840115135508935795e-01,1.414192260850657447e-02,1.502783850261762630e-02,4.968385825597385064e-02,1.203013136982917786e-01
-4.024554936552124929e-01,-4.215724021032275504e-01,-3.922520105568227389e-01,2.979434886467239446e-02,3.111682166631765667e-02,2.343070630364312013e-02,8.876654505729675293e-02
-4.404530888360159713e-01,-3.951081873504108666e-01,-3.682136447702298865e-01,6.189990316000616721e-02,4.729676903949744937e-02,7.690552908923836695e-02,1.998703032732009888e-01
-4.478952177203043838e-01,-3.923972137463282994e-01,-3.830344803306270918e-01,2.143180613046140933e-03,-3.218016388426551315e-04,7.392262075397055925e-03,6.217177212238311768e-02
-4.486011244312564372e-01,-3.962274498360625619e-01,-3.795914027568110805e-01,6.548960709155909714e-04,7.436459827019477505e-03,2.234350537460486411e-02,7.453815639019012451e-02
-4.487806802682833274e-01,-3.993643851703290171e-01,-3.742552296017362945e-01,-3.666131567284981350e-04,-3.477816009385442404e-03,4.496229978120491744e-03,6.641218811273574829e-02
-4.171347576016020131e-01,-4.272520874177590522e-01,-3.996399058542451921e-01,6.001086087376179302e-03,-2.096785077605865452e-02,-2.719973082251038107e-02,6.505304574966430664e-02
-4.220214371977695222e-01,-4.065633845781807532e-01,-4.021344304262271518e-01,1.204483421446455975e-02,-1.950959989043732704e-02,-2.481172543913398240e-02,6.124543026089668274e-02
-4.217212085561164447e-01,-4.119074594672323397e-01,-4.100797894772081342e-01,5.249638823220637539e-03,-1.128953892328097078e-02,-1.265121259235579484e-02,3.260035440325737000e-02
-4.051915275720667231e-01,-4.220010725904617677e-01,-4.081125567766715756e-01,-3.634120148589929655e-04,-1.593734009555322325e-03,-8.256889951113166853e-04,1.587619259953498840e-02
-4.222828046447514305e-01,-4.225253277105981420e-01,-4.050117886294297698e-01,9.935066680185772065e-04,-1.203341335554808725e-02,-1.125124827759521259e-02,3.346158191561698914e-02
-3.813030052237591505e-01,-4.252804804054008958e-01,-4.078057570998041559e-01,2.996439133666427800e-03,4.665347392396159212e-03,9.801646019570840404e-03,4.302719235420227051e-02
-3.735454974137517037e-01,-4.234737983035560260e-01,-4.181398850603890716e-01,5.634447820694749899e-03,4.857379010206104401e-03,1.165844758682774325e-02,5.318603292107582092e-02
-3.791603695648663175e-01,-4.039966796581843655e-01,-4.267710688859102652e-01,2.393721655621819377e-02,1.600098851348540074e-02,1.720974087371150013e-02,7.125123590230941772e-02
-3.935211874172421243e-01,-4.080996171462407673e-01,-4.131863913540528288e-01,1.341859888793524649e-02,9.202826584355932454e-03,1.162833600707159458e-02,3.889048844575881958e-02
-2.827503597596890961e-01,-4.444455150118282183e-01,-5.108679767865633714e-01,8.063500042332601148e-02,1.043425394203821577e-02,-2.570205610509319200e-02,2.512207627296447754e-01
-3.678329559779445201e-01,-4.233451707120531871e-01,-4.243786624408152908e-01,5.460946948184968418e-03,5.209977699846799620e-03,1.163230682101052196e-02,6.096617504954338074e-02
-3.793075318401993856e-01,-4.086260824287551996e-01,-4.251992865352124396e-01,6.704738678930987836e-03,5.046192233031572896e-03,1.087051991449752147e-02,4.675369709730148315e-02
-4.342328571917427049e-01,-4.200827841072021784e-01,-3.685875582178627652e-01,3.109474853683439136e-02,3.928177782384527361e-02,5.520750114951783472e-02,1.423168033361434937e-01
-4.643075982002273783e-01,-3.970690035412253738e-01,-3.548872570099225188e-01,1.854721031591206187e-02,1.722065755168497234e-02,3.914448089129550501e-02,1.251203119754791260e-01
-4.765716761716163319e-01,-4.307073046695581997e-01,-3.188215690678669612e-01,2.666719050484095410e-02,5.802585198943270572e-02,7.823040131177126655e-02,2.243834435939788818e-01
-4.649885950096497855e-01,-4.063479590701891131e-01,-3.452531316022171559e-01,1.546296497773749085e-02,4.795006350414553892e-02,9.229227331001918500e-02,2.095768749713897705e-01
-4.346921627050649439e-01,-4.153845106715415292e-01,-3.557793431226616843e-01,2.167920762503336776e-02,3.288398579651697490e-02,4.322469537320689642e-02,1.238368004560470581e-01
-3.836074388735226104e-01,-4.682499313935110097e-01,-3.632529874730746622e-01,1.398136985777546047e-02,6.434173548749662352e-02,2.837346745509487095e-02,1.572344750165939331e-01
-4.024433696151073492e-01,-4.709509063564368825e-01,-3.473536246971491437e-01,2.590008464871244517e-02,7.402749169394852446e-02,2.949000545207575846e-02,1.804545819759368896e-01
-4.001503644326013243e-01,-4.381080132829376361e-01,-3.780408610572815742e-01,4.010291136072752227e-02,5.290460933799004395e-02,2.882540720249966368e-02,1.359521001577377319e-01
-3.609959928057297485e-01,-4.623994295332550242e-01,-3.873558295934835805e-01,3.073045967263661124e-02,8.837712512377393637e-02,5.025824895125640540e-02,2.052969187498092651e-01
-3.671933526520952951e-01,-4.561544714359826447e-01,-3.916381909387277593e-01,2.773680070474287759e-02,4.916101204965538790e-02,1.867877157227005799e-02,1.301617622375488281e-01
-3.978070260084453080e-01,-4.409908201168023512e-01,-3.752261585231282393e-01,1.897622882471481504e-02,4.950020930397341229e-02,2.923862905921480182e-02,1.197733655571937561e-01
-4.025573581396278966e-01,-3.369104860742325180e-01,-4.763381884991051973e-01,6.516358248835932288e-02,-6.904651533315882272e-03,1.422510785809767524e-02,1.675874888896942139e-01
-4.204221420707149326e-01,-3.462408997729919946e-01,-4.574921130568788685e-01,3.876793344931410423e-02,6.680832709659212734e-03,1.260818037291723190e-02,1.214355528354644775e-01
-3.808488925628226163e-01,-3.570936387256152256e-01,-4.765874539815360689e-01,6.871573465076473430e-02,1.017205364192479665e-02,2.193990760987936557e-03,1.627725064754486084e-01
-3.869218450885416605e-01,-4.458427114780222356e-01,-3.841866342827564562e-01,6.258877195461999381e-03,1.492059662307622381e-02,8.371441767672979303e-03,6.808779388666152954e-02
-3.791668909267958409e-01,-3.868450248562910199e-01,-4.576500188943580794e-01,4.871349973471223588e-02,8.085159371768829012e-03,7.010165785328354056e-03,1.143612861633300781e-01
-4.472054710633660002e-01,-4.236101356624798475e-01,-3.498071004780357596e-01,-2.990724929420031375e-02,-3.365386184755446430e-02,3.760497553843431678e-02,1.344191730022430420e-01
-4.225928277469053751e-01,-4.133188796263488340e-01,-4.098216906615052557e-01,-1.233556652541427032e-02,-1.362211683433044510e-02,7.581404222919597632e-03,3.628066927194595337e-02
-4.400350030709044846e-01,-4.362067337127196187e-01,-3.596464530975910234e-01,-2.612922432287419564e-02,-3.949647108671897749e-02,5.754245229199474176e-02,1.510984748601913452e-01
-5.144038858357694588e-01,-3.287178013095874984e-01,-3.831236609791033310e-01,-2.887031932596761247e-02,-3.775736127258781660e-02,9.753686051135736224e-02,2.503089308738708496e-01
-4.050539776363813460e-01,-4.234199274900877774e-01,-4.101784061830741623e-01,-7.377815954483156816e-03,5.491105185839455401e-03,-8.456179278747290307e-03,2.716113068163394928e-02
-4.109341643917071019e-01,-4.198968910805130350e-01,-4.049931877025476079e-01,-9.642316297742736450e-03,5.972416981109568944e-03,-6.246918429591434216e-03,2.592059224843978882e-02
-4.155503314371660206e-01,-4.131255958332341605e-01,-4.050247696256145113e-01,-7.480365772784258564e-03,5.563407181700554156e-03,-8.665942410787816352e-03,2.402421459555625916e-02
-4.075991241670366971e-01,-4.196205716939025443e-01,-4.061351915222308206e-01,-4.054539178790516479e-03,6.430310451984841760e-03,-4.328276182759359554e-03,1.984498277306556702e-02
-3.965947105938465445e-01,-4.294146340284953345e-01,-4.103020684224774062e-01,-1.055536355863497325e-02,1.001776007683804343e-02,-1.295140809947498660e-02,4.420062527060508728e-02
-4.119576497256133840e-01,-4.225682576485372821e-01,-3.971736227905612315e-01,-6.446895875498840321e-03,9.647297320358856620e-03,-1.985352076271605041e-03,3.006232343614101410e-02
-4.094188451163419118e-01,-4.222215774202757732e-01,-4.024411579535047134e-01,-5.999100581289791741e-03,3.123958917370602689e-03,-3.529582622795816946e-03,2.183003351092338562e-02
-4.103237005194337317e-01,-4.285715421144333792e-01,-3.954277782060999225e-01,-1.142318136976879991e-02,1.199085861571655247e-02,-7.444179116602695802e-03,4.261158779263496399e-02
-4.845557916073353621e-01,-4.859779041877485550e-01,-2.766239071886227308e-01,-1.182548945066329987e-02,-7.254188398250717429e-02,-8.236619738325459683e-02,2.830061316490173340e-01
-4.918663476093978471e-01,-5.065840423434780915e-01,-2.663033240825272152e-01,-3.138849074662080491e-02,1.321882804173634199e-02,-2.385933651713643619e-02,2.441368103027343750e-01
-5.068922110934299674e-01,-4.949866754939903357e-01,-1.957148120077425169e-01,-1.633936792453050471e-02,3.427299193700101415e-02,-4.967644274508260793e-02,3.240315914154052734e-01
-4.925081303158903023e-01,-4.774361167007025730e-01,-2.742772127111931524e-01,-1.582134385032440971e-02,9.130597049217899566e-03,-3.183778161170314203e-02,2.204647362232208252e-01
-4.230416579967890556e-01,-4.141553367496967342e-01,-4.019971353549787740e-01,-1.025317614978766764e-02,-9.870033861413966478e-03,4.927803952051794736e-03,3.186401724815368652e-02
-3.949967208470864244e-01,-4.497411947462975346e-01,-3.723235813901976665e-01,4.043901373956779605e-05,1.429310439408130497e-02,4.700289100628732633e-03,7.369816303253173828e-02
-4.098751556148816921e-01,-4.225588614113363617e-01,-4.119926839222974313e-01,-1.133248908994296048e-02,-1.426302421457633848e-02,6.347722521155803495e-03,3.542542085051536560e-02
-4.127451895872015775e-01,-4.257559975582799194e-01,-3.977660700559043638e-01,-1.101368767845894991e-02,-1.109465812609391859e-02,6.456878830229734884e-03,3.803679347038269043e-02
-4.266425093292511295e-01,-4.097261330862277395e-01,-4.089306005121569054e-01,-3.102372126983777428e-02,-3.060558254264027916e-02,1.003794578732955002e-02,7.937288284301757812e-02
-4.227681958317072164e-01,-4.204745448395412200e-01,-4.069299797383648665e-01,-2.331264952838397672e-02,-3.014140173078130522e-02,1.308296781803225048e-02,7.133881002664566040e-02
-4.132062240775116191e-01,-4.160258689007539923e-01,-4.049511077871883469e-01,-8.833661475650636530e-03,-8.248951881396586819e-03,5.844263452498400443e-03,2.529973164200782776e-02
-4.025683474821353802e-01,-4.044740715376715090e-01,-3.729100751431672078e-01,6.933554154153824534e-02,8.394145133782160428e-02,8.134098939605455270e-02,2.373806834220886230e-01
-4.492839328521770481e-01,-3.920558477992449053e-01,-3.599902391070854413e-01,4.273996228063381420e-02,4.785848480869654697e-02,6.733303512271753000e-02,1.791394501924514771e-01
-4.473596939176865961e-01,-3.947187133952705929e-01,-3.462589424954072848e-01,5.850875323724007149e-02,8.599896801084755404e-02,9.716091692783909717e-02,2.616264820098876953e-01
-4.228743593527526379e-01,-3.864678240658705466e-01,-3.843327936001537104e-01,4.682660046078615523e-02,4.031463784106224107e-02,5.533869141091328492e-02,1.484885066747665405e-01
-4.247845353948725977e-01,-3.989876671859323154e-01,-3.944217503928535984e-01,2.627309541889346831e-02,2.467009894736841777e-02,3.358595732529843364e-02,8.991568535566329956e-02
-4.006780044710359645e-01,-4.522969388171335092e-01,-3.810105003410686475e-01,-3.311974000760633391e-03,2.194109921610246094e-02,1.127774455192762613e-03,7.448153942823410034e-02
-4.073452338504107151e-01,-4.171229995572874882e-01,-3.742711169914779146e-01,3.724883019498045900e-02,5.011797933878014283e-02,4.587868642733207436e-02,1.397330164909362793e-01
-2.446157017161675884e-01,-4.170487453095610419e-01,-5.871729507287455352e-01,1.801367156877475284e-01,5.490534831222001338e-02,8.085878817259041160e-03,4.411327242851257324e-01
-4.537856696169645376e-01,-3.969672285645757248e-01,-3.545850100191933474e-01,8.509576885644127078e-03,1.607816510905352506e-02,3.844009122573726484e-02,1.133947148919105530e-01
-4.412214656579902528e-01,-3.981764673798068865e-01,-3.734977931578996602e-01,1.914822418493992290e-02,1.888628312530244574e-02,2.785659586643274635e-02,8.956679701805114746e-02
-4.352248478438759394e-01,-4.023471803898720500e-01,-3.842998331763138875e-01,1.181689072817315028e-02,1.278182514200453673e-02,1.673248335127520622e-02,6.122885271906852722e-02
-4.552844328733078316e-01,-3.780097952783697535e-01,-3.883227814438615089e-01,1.371708147342058301e-02,1.613878832619602965e-02,5.021241855828890294e-02,1.191239356994628906e-01
-4.440512386208694262e-01,-3.754657321870167319e-01,-3.877088875432616599e-01,1.863050260078429748e-02,1.898269294961534015e-02,3.470750055282571800e-02,9.874365478754043579e-02
-4.138445928690126507e-01,-4.519701130096073216e-01,-3.562442053352606885e-01,2.364881474736390057e-03,7.294930916125672536e-03,2.096116445091339518e-03,8.459912240505218506e-02
-4.386598032367620137e-01,-3.862094384541336911e-01,-3.886824798571788531e-01,1.030446398272203377e-02,1.192534236124384930e-02,1.609932317402386348e-02,6.442201882600784302e-02
-4.435087440852941709e-01,-3.788626269960178594e-01,-3.984378958822658023e-01,4.884452498426039221e-03,7.865737452884487974e-03,2.137282613577421927e-02,7.017423212528228760e-02
-3.873985974300422352e-01,-3.905235543465200854e-01,-4.451048646966364597e-01,1.365667975623527809e-03,-8.420594639927464964e-04,2.764046441366281560e-04,5.627966299653053284e-02
-4.445778766375399482e-01,-3.902156931335007406e-01,-3.883111897932468581e-01,2.269249709197767445e-03,1.892197192303405164e-03,8.448183029060758742e-03,5.746922641992568970e-02
-4.462999812957260115e-01,-3.888155682644680033e-01,-3.851027770066687839e-01,2.623160093926738597e-03,1.262617514279728778e-03,7.136577868567573618e-03,6.090885028243064880e-02
-4.454294919988377455e-01,-3.978036197026649790e-01,-3.794763091097418384e-01,2.999130821804383683e-03,1.325972563984846803e-03,4.952606298130781369e-03,5.985659733414649963e-02
-4.557186500954666930e-01,-3.917868354590726687e-01,-3.663909725263089778e-01,-7.108078162738421142e-03,-4.555512375120931122e-03,3.487476199216756056e-02,1.010861471295356750e-01
-3.711380604099100422e-01,-4.046526886640182119e-01,-4.426795571221857628e-01,1.388506694389324801e-02,5.918346910675276185e-03,1.030637348886603334e-02,6.961220502853393555e-02
-4.502280555175995347e-01,-4.015592933321445734e-01,-3.701036620306316083e-01,-9.653512541720465359e-05,2.282450630067442334e-03,1.763377524137269003e-02,7.640365511178970337e-02
-4.547517194959163067e-01,-4.001040591811846903e-01,-3.720739271203261089e-01,-1.707384957158270770e-03,-2.677537347665152109e-03,1.638513198751136504e-02,7.835500687360763550e-02
-4.056987803748702826e-01,-4.071901318993146890e-01,-4.257506485758090209e-01,3.606300632597532300e-03,-1.070024999677708297e-02,-1.246016732648884406e-02,3.496665135025978088e-02
-4.038378114395394514e-01,-4.181044606614179315e-01,-4.131969838729367961e-01,6.008339835351818661e-03,-7.045027304652876424e-03,-6.930375873369546726e-03,2.364096790552139282e-02
-4.158222531514382259e-01,-4.113800136451578049e-01,-4.054679449828231252e-01,8.265319015394871280e-03,-1.719048525108649375e-02,-1.781379412472806553e-02,4.609151184558868408e-02
-4.134389642375017604e-01,-4.109487660131643239e-01,-4.242575084685402120e-01,1.177624536458877352e-02,-2.792650773161247518e-02,-2.533144511319896167e-02,6.950494647026062012e-02
-4.063803049175251370e-01,-4.080101399163409970e-01,-4.206845312360147915e-01,2.235875513075027965e-02,-1.694485985216590690e-02,-1.694668342655103466e-02,5.836651846766471863e-02
-3.914996861067652212e-01,-3.874816236877139386e-01,-4.447801046858158580e-01,2.218059809228735760e-03,-9.236493630965747720e-05,-6.170247842178640208e-04,5.554240569472312927e-02
-4.176222469695285433e-01,-4.132849387843962052e-01,-4.071307543624202996e-01,-5.342176772074540281e-03,3.660758648710754886e-03,-4.273634003771504056e-03,1.624779030680656433e-02
-4.060156253656169167e-01,-4.231316283024233460e-01,-4.082176177637493186e-01,-4.663342485399249449e-03,3.858332963861146186e-03,-5.872851494910867609e-03,2.175979502499103546e-02
-4.081472183978573920e-01,-3.884194855093007215e-01,-4.069797032311621710e-01,2.196204560237490985e-02,2.331695179987561956e-02,2.127498914614192257e-02,6.930674612522125244e-02
-4.100552235240322863e-01,-4.174901137379840033e-01,-4.083386291517112632e-01,-2.738519727996090083e-03,1.396860859127006717e-03,-1.585057400973347583e-03,1.033810060471296310e-02
-4.094448128593914937e-01,-4.211610397681616047e-01,-4.057966177025345567e-01,-3.310870508817847276e-03,3.555438104529251965e-04,-1.203355909400610508e-03,1.519642770290374756e-02
-4.494960659490709887e-01,-4.050183004875464454e-01,-3.846279714433119001e-01,4.488522930930183633e-03,-9.352971125439247385e-03,-3.489158721783913036e-02,8.530003577470779419e-02
-4.302040753053009703e-01,-4.100914937476518585e-01,-4.007494479374246743e-01,4.839019849319454135e-03,-9.846868450184523280e-03,-1.941059456405876474e-02,4.659534990787506104e-02
-4.445311995409800820e-01,-3.966623924420803471e-01,-3.986335841543189873e-01,-5.179842277743562130e-04,-1.235933347395118918e-02,-1.963717191393742068e-02,6.178081780672073364e-02
-4.415529864420260631e-01,-3.805635220480134695e-01,-4.183535385785345784e-01,1.032589208767043312e-02,-1.527000135506352378e-02,-2.495543564461629935e-02,7.570151239633560181e-02
-4.414448033131527227e-01,-3.948810100485244390e-01,-4.135672166367238556e-01,-1.646914658033357811e-03,-1.582331883172758205e-02,-2.589886763136073355e-02,6.647393107414245605e-02
-4.294497734783045972e-01,-3.961254573821325620e-01,-4.161506188778808513e-01,5.087411137174652730e-03,-1.388436354798610987e-02,-1.414776322047054009e-02,4.583276063203811646e-02
-3.891774442532469624e-01,-4.549654510922921391e-01,-3.799534186954444115e-01,2.171049807946808657e-02,4.850861417029662254e-02,2.611525530092746392e-02,1.246566846966743469e-01
-4.394674165355925144e-01,-4.042188340094756693e-01,-3.981897607607541856e-01,-2.514377941041817752e-03,-7.952411369298953989e-04,-4.604414874509540553e-03,3.969627246260643005e-02
-4.415360881804107351e-01,-3.987500466403531285e-01,-3.953743273612109199e-01,-2.474219682931131509e-03,-4.917743647626507571e-03,-1.963513258530828753e-02,5.686833709478378296e-02
-4.318329104568061072e-01,-4.035685408025184717e-01,-4.078118004607814151e-01,-8.185609319165584310e-04,-4.926701059574252993e-03,-6.690206386594272844e-03,3.010067529976367950e-02
-4.158990355011865647e-01,-3.601741773913431643e-01,-4.520599459424067823e-01,-4.622055316261063085e-02,-1.644251383689978099e-02,2.741797195256057661e-03,1.169212237000465393e-01
-4.286954672829305646e-01,-3.743351035424849482e-01,-4.365562261108457132e-01,-2.279731566186929750e-02,-1.575853090797910486e-02,5.550885566145202961e-03,7.642471790313720703e-02
-4.350154173554292569e-01,-3.520434710915842369e-01,-4.516017196304344394e-01,-1.345092785373085305e-02,-7.268027557147684579e-03,5.462407627250752060e-03,9.657336771488189697e-02
-4.413294983034709018e-01,-3.520224513136882560e-01,-4.478886721814392402e-01,-1.486350063588451863e-02,-1.439317817623820932e-02,-8.413791863971826698e-03,1.005046740174293518e-01
-4.183085855091874250e-01,-3.831150119411100841e-01,-4.377151590899299172e-01,-7.840948825128462446e-03,-6.444357276736319140e-03,5.194181310781807595e-04,5.106886848807334900e-02
-4.178730253187933341e-01,-3.897124897101840735e-01,-4.403084507794567393e-01,-1.952881679406636914e-02,-1.195617829663226739e-03,-6.560128932414511626e-04,5.547847598791122437e-02
-4.185261684029074059e-01,-3.835503347724765755e-01,-4.380943301644068533e-01,-6.976547961632364493e-03,-7.539998030693878875e-03,3.992843810180885748e-04,5.106548964977264404e-02
-4.044532218240025068e-01,-3.988741155982603037e-01,-4.113017219337745667e-01,8.866464570606453696e-03,9.953230249400674134e-03,8.492717187813076177e-03,2.942207641899585724e-02
-4.565826850765908884e-01,-3.506594450348153869e-01,-4.353419121032622852e-01,-2.837706692021843211e-02,-2.491868355706676127e-02,2.289302936287094040e-02,1.235794499516487122e-01
-4.334055351593536498e-01,-3.753413649642595162e-01,-4.383414380911963559e-01,-2.158009011166512128e-02,-1.585343561835897072e-02,1.091265410083031018e-02,7.868140190839767456e-02
-4.736068386812535280e-01,-3.577615712657706837e-01,-4.039337596425130461e-01,-5.455352578343634906e-02,-2.113489817730784120e-02,6.235170665228472603e-02,1.792615056037902832e-01
-4.285774622969284464e-01,-3.825663408998450921e-01,-4.200685247323583948e-01,-2.231807229294547473e-02,-1.766913338415409748e-02,1.525810535025815332e-02,7.019425183534622192e-02
-4.149642002189184442e-01,-3.871897781242439329e-01,-4.244960736030746196e-01,-5.437559317869119363e-02,-4.533275855078656991e-02,2.831888453692408755e-02,1.362651437520980835e-01
-4.206812172908376279e-01,-3.977055920714734349e-01,-4.315128086823815656e-01,-3.711671545058015109e-02,-2.922621709482854310e-02,1.080007417157812302e-02,8.910363167524337769e-02
-3.747807445229668355e-01,-4.190471485729270751e-01,-4.444796307755711218e-01,-2.210856514884387142e-02,8.782037834653439595e-03,-1.545576750636056679e-02,7.839968800544738770e-02
-3.708760811735685170e-01,-4.450497692233731928e-01,-4.379654299239447712e-01,-3.733768700442437888e-02,2.940726543699766563e-02,-3.532026589495389224e-02,1.246823444962501526e-01
-3.747617952388672680e-01,-4.457965748636252834e-01,-4.301263362628788833e-01,-3.701815467474069143e-02,2.861237781316602197e-02,-3.322104591948901731e-02,1.185593232512474060e-01
-3.498282913526611360e-01,-4.523576234070502688e-01,-4.438745537571948674e-01,-2.460240752318260810e-02,1.943464423527248297e-02,-2.466363153838131358e-02,1.203673481941223145e-01
-4.004591912585001023e-01,-4.186510820829439927e-01,-4.278763877055676845e-01,-4.884576360209791357e-02,3.765568062436273900e-02,-5.470200820747595644e-02,1.448184400796890259e-01
-4.084610322574130925e-01,-4.103667012302358863e-01,-4.385678976485147262e-01,-4.977853255544173461e-02,4.610453191806705535e-03,-3.940883827118354943e-02,1.140584349632263184e-01
-3.725340312313014102e-01,-4.075333469540516340e-01,-4.555020787829455187e-01,-7.213461632126848266e-02,2.103771496395142812e-02,-4.937389863128984618e-02,1.716278940439224243e-01
-4.014236043634712980e-01,-4.094471688311538959e-01,-4.240042186125431711e-01,-2.054080467252340086e-02,-1.948338613772613789e-02,1.106751203064563864e-02,5.625953525304794312e-02
-4.334034088237090909e-01,-4.085093421268209402e-01,-3.934074427334801616e-01,-1.537903510496048398e-02,-1.410722554902078124e-02,1.367950819758076246e-02,5.560307577252388000e-02
-3.883753248781500744e-01,-3.927488271232055794e-01,-4.189912650548939244e-01,4.988481479159091042e-02,3.684971082622091193e-02,4.423475721901420910e-02,1.350255310535430908e-01
-4.246192735152134468e-01,-3.561473575854374740e-01,-4.282391898103730110e-01,4.027882080536060450e-02,2.492641148028087658e-02,3.197528895453825848e-02,1.214403361082077026e-01
-4.162419541859521122e-01,-3.565301278703574828e-01,-4.502819886893429380e-01,3.731237951392758767e-02,1.700489130551614478e-02,2.215254577301713559e-02,1.152092218399047852e-01
-3.937929908428247638e-01,-3.696012944183369453e-01,-4.432206918496791603e-01,3.430799370748175564e-02,1.883766849295763490e-02,2.016765784641977657e-02,1.001996397972106934e-01
-3.799789142035691070e-01,-4.442338049770358510e-01,-3.940770831836912236e-01,8.106518068403002070e-03,1.997280064860283699e-02,7.100533462399723564e-03,7.047489285469055176e-02
-3.892130582100379876e-01,-4.458975677031826179e-01,-3.898686871167608148e-01,-5.417035716038255330e-03,1.604058088272162369e-02,-5.628720221076582639e-03,6.427581608295440674e-02
-4.063139406135826692e-01,-4.770869870239332622e-01,-3.361175039677900545e-01,1.647548721377740250e-02,9.595187253984778508e-02,8.121365481965400063e-03,2.086548805236816406e-01
-3.914398880209637999e-01,-4.470419054962421201e-01,-3.943989118774164360e-01,-8.676781164259898815e-03,2.177957692507283619e-02,-9.948188371532431726e-03,6.986860185861587524e-02
-3.937224017581967828e-01,-4.517979216241324592e-01,-3.741354143993894654e-01,-1.529353279211731476e-02,4.465382953265623761e-02,-1.386086351525317277e-02,1.102446392178535461e-01
-3.873963247704426682e-01,-4.472739023634137445e-01,-3.955127384323501305e-01,-6.235182575252302094e-03,1.427540014320678730e-02,-1.129065524584311683e-02,6.538837403059005737e-02
-4.023210997281236878e-01,-4.469925492185529148e-01,-3.767631717148941517e-01,3.900132055640149337e-03,2.323582131121657707e-02,-2.329237684577309397e-03,7.397347688674926758e-02
-4.006117761205342243e-01,-4.413022792176294895e-01,-3.925632390596453525e-01,-1.452725716526364827e-02,1.919543934244591007e-02,-1.557499130538788842e-02,6.718820333480834961e-02
-3.667808873891037491e-01,-4.721571488791717619e-01,-3.834766102065247373e-01,-7.988904872220177825e-03,4.363725428194910327e-02,9.632638526687603694e-04,1.246212348341941833e-01
-3.600033532677661130e-01,-4.154475491800848630e-01,-4.428495182191468649e-01,6.756527279951318223e-03,6.302363262150959856e-03,8.819046015246976081e-03,7.637830078601837158e-02
-4.211810525826206186e-01,-4.463652582148680548e-01,-3.763819121621275188e-01,-2.250574637405285128e-02,1.615930961053374873e-02,-1.945752709228869975e-02,8.490064740180969238e-02
-3.992654661726897647e-01,-3.924423427078613802e-01,-4.266028039957960316e-01,6.112021256205517339e-03,4.121338267820818906e-03,4.311512486554075659e-03,3.462954238057136536e-02
-4.208172744235330609e-01,-4.523237217043122871e-01,-3.646945716039241558e-01,-9.861614635850907834e-03,2.539898830144200759e-02,-9.817556844124199211e-03,9.179800748825073242e-02
-2.752767063436322159e-01,-3.543008952932000799e-01,-6.441806879148282983e-01,2.117977612795070574e-01,-7.020303603777472423e-02,-6.700282827349823833e-02,5.253675580024719238e-01
-4.136062108533014037e-01,-4.442828270748009345e-01,-3.703476459935550746e-01,-4.397716777335668875e-02,5.685668096852507930e-02,-2.458242208434812878e-02,1.464660018682479858e-01
-4.034035894257122501e-01,-4.909480814515568281e-01,-3.604063661003190089e-01,-2.095608780743032917e-02,5.964217198006518256e-02,-2.896090642411162583e-02,1.666799634695053101e-01
-4.471835515211562972e-01,-3.813506861493666245e-01,-4.196069713751109376e-01,-2.686132446545646743e-02,-2.893911182161115411e-02,4.941112838118266737e-02,1.236138194799423218e-01
-4.739687538271042944e-01,-3.785674634208343603e-01,-3.556243371307034606e-01,-1.554546318550495236e-02,-1.741726179915085645e-02,7.195135326573712242e-02,1.702429354190826416e-01
-4.754955481001525985e-01,-3.323414563818921641e-01,-4.289113434938347513e-01,-2.943887195268268808e-02,-2.904647875682121738e-02,3.768237059939706646e-02,1.593279093503952026e-01
-4.531650096136936590e-01,-3.672114588770934995e-01,-4.000758298123948675e-01,-5.954163568537803805e-03,-8.754934869078837348e-03,2.878135939589200262e-02,9.200365841388702393e-02
-4.875587156343628159e-01,-3.153819926603123047e-01,-4.399505745163864168e-01,-3.477215582630403118e-02,-3.794237804942602460e-02,6.930553502225621221e-02,2.146399319171905518e-01
-3.389927590783919364e-01,-4.306614462087046125e-01,-4.405070222852341399e-01,8.013616910930022874e-02,7.387291553399685795e-02,5.419999992558524604e-02,2.320615798234939575e-01
-4.558592858220362198e-01,-3.573277441050811132e-01,-4.196941407787873057e-01,-2.712825340139668473e-02,-2.766788672653432493e-02,3.592701557031556525e-02,1.258156895637512207e-01
-3.333369953186648971e-01,-4.178677491070887928e-01,-4.582148167569027875e-01,5.775723870359268652e-02,3.103820763351659157e-02,1.784911226014162036e-02,1.613613367080688477e-01
-3.376858289416821424e-01,-4.198121711248844479e-01,-4.520157395578299764e-01,8.262378392901827129e-02,5.096727268900772684e-02,2.112956403445796424e-02,2.000974714756011963e-01
-3.026284013863653755e-01,-4.255086258516284636e-01,-4.787277234203940468e-01,9.001407835459364348e-02,2.004374037521362839e-02,1.021356648787906905e-02,2.242703884840011597e-01
-4.422210757772113698e-01,-3.871775176726207635e-01,-4.080697023268392010e-01,-1.674741178708100131e-02,5.702103722453476416e-03,-3.252433342013204276e-02,8.017956465482711792e-02
-4.436103137152039855e-01,-4.301373858938639660e-01,-3.600164376772243546e-01,-2.208457210779601193e-02,1.638712146959405216e-02,-4.924715979402442129e-02,1.248513013124465942e-01
-4.388892687885075361e-01,-3.993851793791447502e-01,-4.080324572519026249e-01,-1.191133422534248858e-02,8.544359913572443024e-04,-2.317901579296448994e-02,5.773539468646049500e-02
-4.339634598713997815e-01,-4.072241614521125985e-01,-4.007005948252763683e-01,-8.253018481004820162e-03,1.915228776393187310e-03,-8.539223791175457046e-03,3.696050494909286499e-02
-4.189773271518888453e-01,-4.113111980965424852e-01,-4.166110139187083616e-01,-1.059405751462850521e-02,3.030936827332161680e-03,-1.360983816983298879e-02,3.108333051204681396e-02
-4.419816008284187525e-01,-4.215485944909891369e-01,-3.747212392449168483e-01,-2.238230993623178261e-02,1.182864829155502902e-02,-2.813115460705923818e-02,8.867847919464111328e-02
-4.311549623854683544e-01,-4.173890978203906865e-01,-3.933303141209117948e-01,-8.566038567036873830e-03,7.935694951258228519e-03,-1.437475045017655439e-02,4.613535851240158081e-02
-4.202711987672279603e-01,-4.187357482923733110e-01,-4.062306136445951732e-01,-1.881553226825431746e-02,1.012122116623668383e-02,-3.066058131451485091e-02,6.608737260103225708e-02
-4.257392623697396350e-01,-4.230382788171814790e-01,-3.819549637175267409e-01,-1.820378696700459403e-02,1.353934113109897183e-02,-2.473746974104808899e-02,7.201389968395233154e-02
-3.492592681176489577e-01,-4.198125905091639742e-01,-4.441732519212321373e-01,1.594825492711082066e-02,8.886823380464044242e-03,1.097278670740244044e-02,9.301135689020156860e-02
-3.040116038888995287e-01,-4.517018490921588247e-01,-4.475379204272799671e-01,3.755394167794905147e-02,3.198896186637157496e-02,7.294925368277024175e-03,1.693375259637832642e-01
-3.447953728222782899e-01,-3.903845425552122661e-01,-4.536417662410642815e-01,7.666940117535857302e-02,4.860607326476974743e-02,3.519777701597416597e-02,1.933974772691726685e-01
-3.734247154821049852e-01,-3.893420439593223703e-01,-4.440141676242380653e-01,3.397864951302387998e-02,1.849342259010981759e-02,1.841425213231731930e-02,9.807933866977691650e-02
-3.555448203809523089e-01,-4.275930815357260051e-01,-4.201014559432433293e-01,6.562599983716009555e-02,6.378105649603947602e-02,4.016195480086485331e-02,1.862005591392517090e-01
-3.506733264764535507e-01,-4.417952911678571515e-01,-4.299572294942949902e-01,2.588721540057433226e-02,3.218496974812068423e-02,1.557166618837330790e-02,1.149353533983230591e-01
-3.841030127701471342e-01,-4.060576522192409499e-01,-4.368279002138203415e-01,7.418928135980512421e-03,-2.775074313946557757e-03,-6.111308944254356321e-03,4.903705790638923645e-02
-3.906671172614538667e-01,-4.230920839500949548e-01,-4.208290389020075128e-01,4.006272438483157727e-03,-6.452037492041626070e-03,-9.694196815128520647e-03,3.792215883731842041e-02
-4.221535128517064361e-01,-4.253201873283436463e-01,-3.853391768397507189e-01,-1.843307143597913353e-02,1.666255677204020111e-02,-1.961342241511017381e-02,6.699416041374206543e-02
-4.389243338763767488e-01,-3.954461249551238233e-01,-4.108542462601690315e-01,-8.676777053623260447e-03,3.474292713135988982e-03,-1.827332602755627963e-02,5.216955393552780151e-02
-4.498462606787965168e-01,-4.252214429155489750e-01,-3.748068581020680412e-01,-3.500649492928290668e-02,-5.532985227226775620e-04,-4.424780493260266345e-02,1.180692538619041443e-01
-4.285478249089408331e-01,-4.114925354790655021e-01,-4.004316438001832568e-01,-1.181147386034832845e-02,4.040556477182922351e-03,-9.204624323139806372e-03,3.638075292110443115e-02
-4.263361077476404692e-01,-4.196637846831193230e-01,-3.996052541320010976e-01,-1.300230640571168467e-02,3.673334927037289702e-03,-1.257271876546825484e-02,4.003225266933441162e-02
-4.424450436927259700e-01,-3.955576464987662355e-01,-3.983116309075609429e-01,-1.574265687952741688e-02,7.419889544278837970e-03,-2.688902063188522776e-02,7.179555296897888184e-02
-4.265892533436842493e-01,-4.093638587438951371e-01,-4.097094155059868292e-01,-1.171518471095551843e-02,4.064037198243798492e-03,-1.064523747714285311e-02,3.304739668965339661e-02
-4.221980950187725901e-01,-4.207690575041075354e-01,-3.952256835003252200e-01,-1.734969892965153304e-02,-2.104007827460736488e-02,9.430746831657781104e-03,5.647049099206924438e-02
-4.308562954417425872e-01,-4.263828312303940549e-01,-3.852377070258430347e-01,-2.756213495292923754e-02,-2.559557821510829653e-02,1.057906092077226003e-02,8.048079907894134521e-02
-3.910509065379758620e-01,-3.739024453173258045e-01,-4.544502084931270058e-01,3.643042459397267258e-02,-9.332777502754352472e-03,-8.985880762513262510e-03,9.942740947008132935e-02
-3.836329813208455564e-01,-3.835888396516637933e-01,-4.694386859867294981e-01,4.805347846501700770e-02,-5.124573462750084234e-03,-4.721443710064556279e-03,1.201643794775009155e-01
-3.834654332728164028e-01,-4.032459792231373186e-01,-4.487015479719222433e-01,1.221171599261734568e-02,-8.047563048707252406e-03,-1.023306321450402970e-02,6.566908955574035645e-02
-2.599785909897116554e-01,-3.679443132046015252e-01,-5.862979485395192203e-01,1.881712121056842435e-01,4.623425803158723313e-02,-2.302824646682556306e-02,4.440028667449951172e-01
-2.881647339773733552e-01,-4.270388921995263987e-01,-4.837673274286682923e-01,1.036524147461871798e-01,-8.326639306895788906e-02,-6.010158673248476580e-02,3.070019781589508057e-01
-3.183604769758126563e-01,-4.363701586845038505e-01,-4.789952667742316539e-01,1.634306741373467986e-01,-4.840669935092507814e-02,-4.211493201761995486e-02,3.365304470062255859e-01
-4.105831950943708564e-01,-3.407535707628079891e-01,-4.963520549288831796e-01,7.638268653365908045e-02,-1.819872879448140163e-02,-1.858584783459911113e-02,1.943051964044570923e-01
-3.715932131226865609e-01,-2.603859865222328818e-01,-5.297610293015365679e-01,1.660690798262837442e-01,1.939093226161802200e-02,2.166349307139010458e-02,3.744947016239166260e-01
-3.615513342433859245e-01,-2.723049262132182791e-01,-5.329864183744091877e-01,1.640540517519401553e-01,2.534697866365283325e-02,3.157662554683189626e-02,3.719068765640258789e-01
-3.221462800210470045e-01,-4.060484468321909901e-01,-5.254251155773135284e-01,8.783594707380729116e-02,-1.991108462987596639e-02,-2.051146986108989476e-02,2.385441213846206665e-01
-4.118789020086086605e-01,-3.412004679444555766e-01,-4.897672600295820411e-01,7.722121844229305754e-02,-2.378586128677601802e-02,-2.511180272825325882e-02,1.950526237487792969e-01
-4.315142763749456045e-01,-4.068853551185881989e-01,-4.024057079405432558e-01,7.627634244799618834e-04,-2.911728026271519394e-03,-5.422620172205102999e-03,2.919544838368892670e-02
-4.423331279220502066e-01,-4.109762037078117380e-01,-3.919358974583464494e-01,8.703919841892465746e-04,-1.365341768832393013e-02,-1.958050272358018151e-02,6.045282259583473206e-02
-4.232566418947562026e-01,-4.139850703735405979e-01,-4.015405406172519731e-01,4.974251444086441945e-03,-4.123507461350917752e-03,-5.844252212233638083e-03,2.416431345045566559e-02
-4.254898042330799157e-01,-4.007993184283574761e-01,-4.164468004451492011e-01,4.024072044143968060e-03,-1.020428597190850724e-02,-1.043848236671136159e-02,3.399952128529548645e-02
-4.262099375915900379e-01,-3.845543596939831055e-01,-4.177934171423907106e-01,1.400528109705578145e-02,-1.447249735456858886e-02,-1.963727670579562892e-02,6.187973171472549438e-02
-4.458686669013351422e-01,-3.724530007922253194e-01,-4.131805259171210110e-01,1.399569253364364545e-02,-2.499384039814676536e-02,-4.014245441844659090e-02,1.065575778484344482e-01
-4.315680497527218384e-01,-4.037948227337202489e-01,-4.079707199057062694e-01,-8.195346327446079203e-04,-5.425150726412864867e-03,-6.085577373026225360e-03,2.956732176244258881e-02
-4.244636031786038211e-01,-4.113645929166849236e-01,-4.108560638536919440e-01,2.779665466781257050e-03,-1.126846377192937745e-02,-9.778274787069760055e-03,2.948664687573909760e-02
-4.344861157155089915e-01,-4.103507246388987673e-01,-4.024034351813793320e-01,2.238110975200146083e-03,-1.138625177998231486e-02,-1.824795695805560974e-02,4.733306169509887695e-02
-4.399487242886017113e-01,-4.115992233676464829e-01,-3.841808354060773922e-01,4.740478334945676456e-03,-1.258852051973605515e-02,-2.975282417813175304e-02,7.437257468700408936e-02
-4.459922775721830712e-01,-3.978548161934049032e-01,-3.982296796219009227e-01,-9.922437453495284825e-04,-6.466100844092500556e-03,-1.673398263289101878e-02,5.716444924473762512e-02
-4.513469172873237900e-01,-3.777812065137615138e-01,-4.013294699138879040e-01,-3.775595055973603436e-03,-8.867974776062541309e-03,-4.709782650980013502e-02,1.056758910417556763e-01
-4.409571592615107449e-01,-3.686658264522502670e-01,-4.365571926214697474e-01,-1.880546645110638820e-02,-3.736607029467532443e-03,-3.464271738996026195e-02,9.813508391380310059e-02
-3.984549026831526453e-01,-3.816875917500191506e-01,-4.472476918893956710e-01,2.170351484699551553e-02,-1.169717574620688077e-03,-1.457045169348870342e-03,7.002574205398559570e-02
-4.543090530876117139e-01,-3.244024083076395559e-01,-4.614149280406628639e-01,1.580700620747094338e-03,-1.079377943974996375e-02,-1.262063601909655178e-02,1.366901099681854248e-01
-4.603454722832930890e-01,-3.530785905484458698e-01,-4.406993088309045237e-01,-4.607483292385972790e-02,-2.144259647000928016e-03,-2.514658293205911110e-02,1.344034522771835327e-01
-4.078482504249259510e-01,-3.909367585092259345e-01,-4.277141332584940003e-01,1.757609686930212273e-02,-1.636538299950931682e-02,-1.691466868490503275e-02,6.004303693771362305e-02
-4.455525011996269158e-01,-3.592648409328590420e-01,-4.449253313697965062e-01,-1.613782656973658525e-02,-1.543996417246932921e-03,-1.041153963936829532e-02,9.222514182329177856e-02
-4.438855916962138881e-01,-3.644261603192076593e-01,-4.380292867100626930e-01,-9.374773587108146261e-03,-7.105343482167437129e-03,-1.576025025419699327e-02,8.392277359962463379e-02
-4.432172120015201444e-01,-3.756839664974158666e-01,-4.342304963042198929e-01,-2.038057273162666161e-02,-5.038554328598975930e-03,-5.437580473490969540e-03,7.379406690597534180e-02
-4.345874075779048162e-01,-3.786527568679949884e-01,-4.403405034157896192e-01,-5.261094830745233035e-03,-8.531786403899160182e-03,-2.690204560155252597e-02,7.717610895633697510e-02
-4.299407574917904484e-01,-3.923732174268927952e-01,-3.922535295370488950e-01,8.087457056278373607e-03,9.108243114027895007e-03,1.114075658727316925e-02,4.725760594010353088e-02
-4.392097324869152497e-01,-3.942217499572621686e-01,-3.906191090931115939e-01,4.262839112914051411e-03,5.802030456520564962e-03,7.424947295193032662e-03,5.019829422235488892e-02
-3.926024228834549823e-01,-3.699656883477281388e-01,-4.556661574068285869e-01,3.440847451553352698e-02,-8.334995032020321715e-03,-6.426202422832300205e-03,9.900074452161788940e-02
-4.541682483466545905e-01,-3.597435971821136835e-01,-4.129030562632272638e-01,2.193434611147772925e-04,-4.627980154310907222e-03,8.562584439830656091e-03,8.370622247457504272e-02
-4.039096360420376675e-01,-3.912059999201907834e-01,-4.378577473862773073e-01,1.632118574781698389e-02,-6.530252221964890323e-03,-4.770091401827038398e-03,5.234938859939575195e-02
-4.013029980781309680e-01,-3.955953442057200675e-01,-4.361777490664150436e-01,9.470293030339261772e-03,-1.194136063821161359e-02,-1.030406862490382790e-02,4.963111504912376404e-02
-3.963880557146509664e-01,-3.787043851679162687e-01,-4.545877804227721475e-01,2.756996310164176386e-02,-2.119604647993669072e-02,-2.149808218370779025e-02,9.871035069227218628e-02
-3.970166903977672690e-01,-4.099246018066650121e-01,-4.337980177315419739e-01,8.711167230735370609e-03,-1.208133064839717746e-02,-1.300880636197553585e-02,4.709486290812492371e-02
-3.891813479455030200e-01,-4.073466211791446079e-01,-4.367360244806997027e-01,1.725724207639736316e-02,-1.480200740817650372e-02,-1.631837225051110951e-02,6.385283172130584717e-02
-4.579961860491121861e-01,-3.586172684474769334e-01,-3.970603397788841082e-01,1.291837043216556048e-02,9.605277794237192246e-03,3.882805261801469676e-02,1.132867932319641113e-01
-4.490390700569830695e-01,-3.837023962549778733e-01,-3.846962771500716527e-01,1.049483528360804947e-02,2.930937663272811019e-03,2.078721595954904910e-02,7.653399556875228882e-02
-4.499639878955038474e-01,-3.960167715948395006e-01,-3.798841474616881930e-01,2.322767792991650530e-03,4.532395676296298304e-03,2.277079085038676010e-02,7.532738149166107178e-02
-4.411648120412329788e-01,-4.017658633156863113e-01,-3.594667554060050896e-01,2.208740381455471039e-02,2.859001755968723635e-02,3.966644718101688949e-02,1.168077066540718079e-01
-4.607334046156517093e-01,-3.893223606730819020e-01,-3.807420092945894008e-01,-3.215493016505367729e-02,-2.853864535106738834e-02,4.360628299360545107e-02,1.305204778909683228e-01
-4.837231214762648945e-01,-3.945954442783077831e-01,-3.194791170660575830e-01,4.933359781449305446e-03,7.550241029515543725e-03,7.820845912672250155e-02,1.971671134233474731e-01
-4.578161799946378618e-01,-3.590205910497516473e-01,-4.010553151942095051e-01,8.298076618591497186e-03,4.057343904751786225e-03,5.767548716768215039e-02,1.327026188373565674e-01
-4.659847606863286584e-01,-4.188770126102821512e-01,-3.444410655947822697e-01,-1.971017529355409414e-02,-1.556237151332068303e-02,7.448516159190550490e-02,1.726340502500534058e-01
-4.758452591499340301e-01,-3.855504648460464368e-01,-3.580334667353259892e-01,7.459865938884702175e-03,3.846815325686351976e-03,8.933902942212945675e-02,1.885489523410797119e-01
-5.481277139549357580e-01,-3.613179565978382191e-01,-2.536541584844557162e-01,2.752690990572380543e-03,1.676940620935997092e-02,1.800933724953627246e-01,4.059177935123443604e-01
-5.294227171069523230e-01,-3.511875759290105647e-01,-2.664254094948098617e-01,4.533658624992491226e-02,6.644809180666737258e-02,1.882683394751617223e-01,4.240367412567138672e-01
-5.279637551639919657e-01,-3.764340108501840754e-01,-2.788457110150619478e-01,7.464847769314574000e-02,9.424405418161355130e-02,1.577681191224022395e-01,4.065803885459899902e-01
-5.205508781271271923e-01,-3.268780804397865003e-01,-3.382225376307130826e-01,4.435764669268122545e-02,4.319638848837099865e-02,2.031720831306130237e-01,4.132529497146606445e-01
-5.330205399444922776e-01,-2.765324150999403097e-01,-3.440626411826840370e-01,4.667561428044515043e-02,4.142757193385743913e-02,1.817290410277846990e-01,4.047056734561920166e-01
-3.972705527971234774e-01,-4.143592425517851896e-01,-4.384883930226350368e-01,-2.394037254744460150e-02,-1.605087260662413145e-03,-1.415284066777466356e-02,6.012184917926788330e-02
-3.984401278970705618e-01,-3.952336305520980919e-01,-4.459244736496620343e-01,-1.667596894570663735e-02,-6.959316293314161267e-03,-3.981448015628600336e-05,5.828265473246574402e-02
-3.974168225160161771e-01,-3.975345418058046643e-01,-4.408353132506838690e-01,-1.782079884296927652e-02,-2.850224740934653635e-03,-2.589595795795669470e-03,5.364046990871429443e-02
-3.762883975330282849e-01,-4.025656958030935928e-01,-4.504534527209157480e-01,-4.150333616103010770e-02,-9.231600963317366376e-03,-7.597530720719270414e-04,9.832128137350082397e-02
-3.920045592970373693e-01,-4.100146760187185491e-01,-4.241668809748505575e-01,1.710078240478368067e-02,-1.714519242389745193e-02,-1.705481143551246248e-02,5.840646475553512573e-02
-3.710191232195914068e-01,-4.469110422614507860e-01,-4.105286593698260211e-01,1.143620300961316338e-03,-4.258816415534036337e-02,-1.490392507625203956e-02,1.021454483270645142e-01
-3.955851502496790517e-01,-4.350431566688741092e-01,-4.147056156118891224e-01,-1.869620196113179738e-03,-2.093443568956269984e-02,-4.521168172066489417e-04,4.993918910622596741e-02
-4.083608869973706645e-01,-4.593184117298344527e-01,-3.945498239803401086e-01,-1.124978402567258264e-02,-5.550535874336835762e-02,-2.064317913173274732e-02,1.199659183621406555e-01
-4.137850317484014773e-01,-4.429763785215383720e-01,-3.915551508128770064e-01,-5.230289492487773598e-03,-1.958766479651023740e-02,-3.566187459027262124e-03,5.715306848287582397e-02
-4.153223371997921132e-01,-4.361908006202697141e-01,-3.929270833524484696e-01,-2.816745216436464944e-03,-1.979491641273537633e-02,-4.467543386112607200e-03,5.160997807979583740e-02
-4.697887033890695285e-01,-3.585389394553625264e-01,-3.935023061866347316e-01,2.871464143512782608e-03,6.783813658968105426e-03,3.908567710799074058e-02,1.202295646071434021e-01
-4.586944427345113762e-01,-3.959243813022667036e-01,-3.624835162595367866e-01,-1.953561314243685686e-03,-3.339201013751818235e-04,3.248141337558955316e-02,1.016580909490585327e-01
-4.473478167395526506e-01,-3.903760338028364196e-01,-3.768370390191775332e-01,-3.408832620469576941e-02,-4.219228979802805424e-02,5.752104666499245622e-02,1.515026390552520752e-01
-4.711649789759214668e-01,-4.104350994774463302e-01,-3.281589638204638892e-01,-1.617349236359475742e-03,2.829424409999296754e-03,5.692820375621624601e-02,1.587716192007064819e-01
-4.445625858417704412e-01,-3.934045740060193586e-01,-3.894245936618243586e-01,-8.664256447403014330e-03,-6.869307177470690765e-03,1.632499368376279236e-02,6.326828896999359131e-02
-4.893198367412329164e-01,-3.963692269394998857e-01,-3.379294828912873805e-01,7.325346701718776776e-03,6.672432183932346626e-03,8.090470407424979471e-02,1.934380680322647095e-01
-4.979269619284951154e-01,-3.524862110804502513e-01,-3.713927317398749706e-01,-3.267810946598135279e-03,-1.409679343247848167e-02,9.244772315547018782e-02,2.121995091438293457e-01
-4.718511563799078767e-01,-4.072364028117178014e-01,-3.296487923140862253e-01,2.165636089233389638e-03,5.876867553665280318e-03,5.760702923887887905e-02,1.590018868446350098e-01
-4.067972683242709886e-01,-4.059755387337199428e-01,-4.398368169332924627e-01,-5.851329431903853906e-02,2.613343754598125481e-03,-2.138668262316271301e-02,1.130641996860504150e-01
-4.086306641358056768e-01,-4.034962319274145170e-01,-4.327275979258012883e-01,-1.559175786259886683e-02,4.194245926746061710e-04,-8.857414468041674080e-03,4.118186980485916138e-02
-4.357233861212764792e-01,-3.683517252091444427e-01,-4.404832248575134002e-01,-3.743180208908202661e-02,-8.478487671215754681e-03,-1.663564182731244040e-02,1.006557643413543701e-01
-4.259325708717622838e-01,-3.889025180683663985e-01,-4.359120873777330152e-01,-2.212106621303513987e-02,4.092926370006156234e-04,-1.885046208986835420e-02,6.614305824041366577e-02
-4.109558890168565903e-01,-3.886631491861201049e-01,-4.361196085726009586e-01,-1.106152884965887206e-02,1.500491846301191734e-03,-4.700654424550342221e-03,4.616559669375419617e-02
-4.370205180049381855e-01,-3.576005125027763021e-01,-4.546992260481335091e-01,-1.917550636941143041e-02,-8.754451740099446905e-03,-2.809525052558285631e-03,9.685462713241577148e-02
-4.284433770887523529e-01,-3.746967860868358202e-01,-4.355965210706774227e-01,-1.292015628775119128e-02,3.943793681733719081e-03,-8.634120625531767346e-03,6.399544328451156616e-02
-4.232509483012580898e-01,-3.788474304820259597e-01,-4.445160275612457523e-01,-7.538789924545836324e-03,-6.685961650661495850e-03,-7.405260428061602104e-03,6.194546073675155640e-02
-4.625802851116592174e-01,-4.758872735069450410e-01,-3.041420661203794729e-01,-8.435208373125505782e-03,1.059246181205970340e-02,-2.989147804274628825e-02,1.749818325042724609e-01
-4.837868340455054317e-01,-5.134291285795941073e-01,-2.034916291723551651e-01,-7.595773975795006537e-03,9.987593550606313486e-02,2.443475853193264463e-02,3.458938002586364746e-01
-4.577901355301300934e-01,-6.093019493357888505e-01,-1.913323705772814465e-01,-7.997209044813560763e-02,8.904632591293916433e-02,-3.419827356165218435e-02,4.252175688743591309e-01
-4.750243085749550342e-01,-4.924821557821900675e-01,-2.176259253198830901e-01,-4.020284091564518825e-02,8.083290277377130906e-02,-5.784806959540617771e-02,3.248725831508636475e-01
-4.569734383114805731e-01,-4.680501506185947846e-01,-3.206894621245701127e-01,-3.618568084918735717e-02,9.438363978236594121e-03,-4.701820636312577240e-02,1.761623919010162354e-01
-5.591472841803685201e-01,-5.121301079366099573e-01,-1.712644636021581623e-01,-3.965355351929630845e-02,1.037676079003573421e-01,2.597821218053303349e-02,4.164991080760955811e-01
-3.865404192306430842e-01,-4.240847355660486984e-01,-4.076036832026654344e-01,8.854386014750959683e-03,1.402716800576163728e-02,9.296291715228284513e-03,4.633766040205955505e-02
-4.034094334679944605e-01,-4.149845282616763109e-01,-4.024977949445562864e-01,2.992557937507637784e-03,4.354002459249478769e-03,6.262682345191497232e-03,1.862170733511447906e-02
-4.058775917210804551e-01,-4.044710043468239813e-01,-3.996009690692903238e-01,9.127000400515719244e-03,1.188518888571171370e-02,9.529117954205384988e-03,3.128318488597869873e-02
-4.039942678462020709e-01,-3.944293457450878115e-01,-4.169679909277442809e-01,1.403255781543754493e-02,1.604165005118836015e-02,1.132520962636661063e-02,4.616731032729148865e-02
-4.061494111232410997e-01,-4.057517957854894219e-01,-4.035579735733924589e-01,4.538333763993878008e-03,4.823756421678176108e-03,4.009305920117631726e-03,1.362579036504030228e-02
-4.031173563575216612e-01,-4.002136328856016889e-01,-4.118694441043357357e-01,1.060467205932548104e-02,1.142475089721120898e-02,1.026812449067979194e-02,3.399557992815971375e-02
-4.398587685977955464e-01,-4.791973402415480310e-01,-2.999013806708832330e-01,1.693354854400631881e-02,8.453651214153135030e-02,6.666093932499007890e-02,2.495433092117309570e-01
-3.686672374259175600e-01,-4.002044439207830262e-01,-4.509505308291414938e-01,1.126501739368434250e-02,1.792052486830371947e-03,-5.210789206334209660e-04,7.457413524389266968e-02
-4.742687046379190918e-01,-5.030358300711531561e-01,-2.123764575304165070e-01,1.133013634738487367e-02,1.113680498984443712e-01,5.506459327884704463e-02,3.516233265399932861e-01
-3.858649603046011012e-01,-4.856291540333907975e-01,-3.271812843173702023e-01,4.749168516999433681e-02,1.232078153876597498e-01,6.124149635446328455e-02,2.877666354179382324e-01
-4.245327531284764921e-01,-5.101654533387360857e-01,-2.553987273286890125e-01,1.934246962440726997e-02,1.314044058725025443e-01,4.162718301678871441e-02,3.294615149497985840e-01
-4.431792165238609971e-01,-3.779268826061671915e-01,-4.272694302768518249e-01,5.902478978573281500e-03,-3.019135371541842999e-02,-5.355751170489409657e-02,1.221357062458992004e-01
-4.406441680047179510e-01,-3.827786051071911388e-01,-4.150866275681067141e-01,5.532424129217674950e-03,-1.905492233849715583e-02,-2.248459168932020677e-02,7.225284725427627563e-02
-4.295480314290633372e-01,-3.852975335016558533e-01,-4.246323696007768267e-01,1.605488585887820258e-02,-2.380527538139601273e-02,-1.684207657936253461e-02,7.133769989013671875e-02
-4.237544047796277802e-01,-3.800204017120270006e-01,-4.382820168301727604e-01,1.154274383246307878e-02,-1.912609223705193096e-02,-2.329936081731503669e-02,7.671227306127548218e-02
-4.086430903938417791e-01,-4.127935263862350657e-01,-4.094862417373679175e-01,-1.696430914969466325e-02,-1.861567049504501276e-02,1.253332255849974423e-02,4.887415468692779541e-02
-4.104943126847189205e-01,-4.230447169609909408e-01,-3.967543843872123333e-01,-1.372367958491955801e-02,-1.620101176276982427e-02,1.077710566469440578e-02,4.711278527975082397e-02
-4.184106194533352974e-01,-4.325409630392180182e-01,-3.978760466550170793e-01,-6.607213447307169751e-02,-6.478965610350131965e-02,2.403027245427922023e-02,1.683256924152374268e-01
-4.348505424724855573e-01,-4.256454395326482176e-01,-3.743294228346918939e-01,-3.173388979281877020e-02,-4.272146747490726537e-02,4.927862835202745373e-02,1.377391666173934937e-01
-4.115435922117822165e-01,-4.207833128674458578e-01,-4.065588953878980782e-01,-1.578608265467828023e-02,9.098621422321746463e-03,-1.807587937912958839e-02,4.617840424180030823e-02
-4.013568287584121652e-01,-4.137813993005400315e-01,-4.253665218905368084e-01,-2.916887542948056952e-02,9.631185897689331296e-03,-1.240485869472316392e-02,6.103209033608436584e-02
-3.849162922856852465e-01,-4.357978076178293247e-01,-4.117884140911195479e-01,-4.672613872341414148e-02,2.813869964463337411e-02,-4.039155789558352555e-02,1.255529224872589111e-01
-3.775959711430013632e-01,-4.198971881801676909e-01,-4.496398523988446305e-01,-5.163815146710317577e-02,3.360182692682285588e-02,-4.559646617011476472e-02,1.468197107315063477e-01
-3.831652508252704203e-01,-4.131711431815531799e-01,-4.564445000828912802e-01,-8.046724444783849572e-02,-3.800018739477893474e-03,-4.258851800803015869e-02,1.702380478382110596e-01
-3.600210299468665776e-01,-4.409958687022469959e-01,-4.305541106649806715e-01,-2.588129089729695673e-02,2.260301547140636594e-02,-1.565286826798390277e-02,1.004872322082519531e-01
-3.962368263357214926e-01,-4.222045002882121589e-01,-4.280383620411272183e-01,-2.924825427618227974e-02,9.093222385496266616e-03,-1.969750315708353877e-02,6.955761462450027466e-02
-3.992550383976630757e-01,-4.288093696522645160e-01,-4.242045747963041347e-01,-6.708340674021920358e-02,2.200087662373105893e-02,-4.827216786908562762e-02,1.506713032722473145e-01
-4.085572530072043573e-01,-3.732638371666153199e-01,-4.549789247854996721e-01,-4.528531337400328732e-02,-5.071764192427376423e-03,-2.080894395884927764e-02,1.121046841144561768e-01
-3.899015518663958013e-01,-4.112795558532485463e-01,-4.384926825287922547e-01,-1.827324671778869647e-02,4.701441277093414833e-03,-1.468356507226556244e-02,5.911177769303321838e-02
-4.097369289252600910e-01,-4.005812475173659570e-01,-4.252213156481517986e-01,-2.327234598674297189e-02,1.028837005426057154e-02,-1.941367083546880618e-02,5.948438867926597595e-02
-4.394825246236138683e-01,-4.058295863978057527e-01,-4.179171715218321093e-01,-5.381684185495153039e-02,1.084162180757635742e-02,-5.951551740824643361e-02,1.433161497116088867e-01
-4.238676059113299921e-01,-3.831359946221716828e-01,-4.342839140749544247e-01,-2.264970098629094306e-02,1.838131561978560702e-02,-3.884558524109894828e-02,9.628821164369583130e-02
-2.912641214901551256e-01,-4.527692980943454626e-01,-4.687500599657494771e-01,4.049444841319342625e-02,2.171126622422891311e-02,-6.422980670846489479e-03,1.880892962217330933e-01
-4.115053075398630855e-01,-4.072398236577401964e-01,-4.240799146509851569e-01,8.663816300480148974e-03,-1.051539699415591361e-02,-1.212422192267217230e-02,3.504066169261932373e-02
-3.865132404747778083e-01,-4.224993748866133214e-01,-4.210320224547914325e-01,1.605643321526478012e-02,-2.035419482455372298e-02,-1.949495015481195540e-02,6.633865088224411011e-02
-4.004901508360612095e-01,-4.264843559170757303e-01,-4.129105619242992575e-01,4.827005101851527744e-03,-8.529477911968001702e-03,-1.142524257723303606e-02,3.445099294185638428e-02
-3.995990255992353246e-01,-4.074656285377894482e-01,-4.320565096028684549e-01,-4.858395700033017392e-03,5.039888331680065917e-05,-4.868893562958685750e-03,3.165405988693237305e-02
-3.928012295179583724e-01,-4.338496390949383441e-01,-4.108417504841159751e-01,6.397054488244360848e-03,-1.938835945210106923e-02,-1.225045599074556929e-02,5.450331047177314758e-02
-4.029981279117951787e-01,-4.366156568847596176e-01,-4.157656938623550125e-01,6.117526435470560520e-03,-3.092707739171635106e-02,-2.269175132694738889e-02,7.341938465833663940e-02
-4.179178667250420531e-01,-3.664347800959324442e-01,-4.282126695481640044e-01,2.665208345912821464e-02,1.904990746332038340e-02,2.704450258666465240e-02,9.327600151300430298e-02
-4.295203541221204180e-01,-3.789567995620349850e-01,-4.044299348960952445e-01,1.883469750932535020e-02,1.788387960402689630e-02,2.222640963700988487e-02,7.364318519830703735e-02
-4.008199301904653566e-01,-4.124160512518370014e-01,-4.066427628613744072e-01,8.355533361577285531e-03,9.866838925073267291e-03,9.847787941035850146e-03,2.988809533417224884e-02
-4.157909110182013146e-01,-4.067524845622381702e-01,-3.928272701311391057e-01,1.272808224502074322e-02,1.150262494500288446e-02,1.289964093829304957e-02,4.223283380270004272e-02
-3.939442229521509242e-01,-4.446666963146900797e-01,-3.871391531864127322e-01,-1.088175812603062566e-03,4.767005503275955464e-04,3.887792198807604217e-05,5.448382347822189331e-02
-4.088809878998063696e-01,-4.216103176290951771e-01,-3.832815327082444434e-01,1.322966508116503286e-02,7.574190743550751094e-03,5.994205915348407160e-03,4.413842409849166870e-02
-4.153247857058700587e-01,-4.100485959264522640e-01,-3.911025490863234699e-01,1.476475139563690475e-02,1.306839139500060552e-02,1.240573794575687387e-02,4.598698765039443970e-02
-3.921182618047269752e-01,-4.115143064361274083e-01,-4.101780868323832707e-01,1.462148608726552244e-02,1.658162234349632586e-02,1.683921354030504247e-02,5.166203901171684265e-02
-4.251774190687079291e-01,-4.068471896023678203e-01,-3.821259319969621537e-01,1.592055598404296807e-02,1.506355851999631630e-02,1.984324396775342947e-02,6.342453509569168091e-02
-4.251999679114149000e-01,-4.078987993478597751e-01,-3.802322899505357623e-01,1.020998840631853234e-02,6.157050251313177583e-03,6.217732643068055523e-03,4.567131772637367249e-02
-4.043196551482249879e-01,-4.166733143011045470e-01,-3.894581158203526128e-01,1.946118062176595276e-02,2.239297729057071473e-02,2.128138823759284301e-02,6.750047206878662109e-02
-4.401330589643095426e-01,-3.991252826956269706e-01,-3.984930846929262138e-01,-5.404553160931448164e-03,-3.218807791487141631e-03,-1.828949085102571370e-02,5.319951847195625305e-02
-4.379234750571292523e-01,-3.955263641911467287e-01,-4.157962552977985116e-01,-8.911907477102918099e-03,-3.173910063639777315e-03,-2.157648733780340861e-02,5.490100756287574768e-02
-4.636395520210773724e-01,-3.699031926527049374e-01,-4.057193279204043268e-01,-2.142004856767279128e-02,3.547798512181933161e-03,-4.282694821481170672e-02,1.167419627308845520e-01
-4.451785399908922414e-01,-4.153248465405383061e-01,-3.958282553172688401e-01,-1.760646942280281665e-02,-1.274831099610281362e-02,-6.210747009272237634e-02,1.218316033482551575e-01
-4.420462190479942932e-01,-3.945395314077197457e-01,-4.150341943231005137e-01,-8.892640711924271538e-03,-4.979651807873424277e-03,-2.179786759010559488e-02,5.865451321005821228e-02
-3.058772269660043897e-01,-5.028147005325777075e-01,-4.232582541702126222e-01,-2.414654496439406529e-03,6.044393782530846360e-02,-2.856287731685625692e-02,2.070540189743041992e-01
-3.561139004637879357e-01,-4.528866841787111408e-01,-4.154285071392738171e-01,1.632905572887232912e-02,3.397939010231922768e-02,1.104625947773787975e-02,1.085031107068061829e-01
-4.376236609457230253e-01,-3.818886530030400350e-01,-4.206041549221847808e-01,1.198201877343339251e-02,-1.948910463640405807e-02,-2.254979702770377667e-02,7.445222884416580200e-02
-3.421507820987996773e-01,-4.806230400276905179e-01,-4.094152416651544724e-01,3.195961221683870507e-02,9.098361338044533286e-02,2.280169447050110418e-02,2.093868851661682129e-01
-3.911722086114964858e-01,-4.445212786882646872e-01,-3.879368837300117279e-01,1.138723596450156965e-03,1.684633860330150921e-03,3.456299047545835024e-04,5.515391752123832703e-02
-4.450780885168773016e-01,-4.040010426442153246e-01,-3.968254765767664782e-01,4.123120343725251362e-04,-3.165463153213511627e-02,-2.713215797541614072e-02,8.513861149549484253e-02
-4.023904167579927527e-01,-4.389592292441134025e-01,-4.096875971453749488e-01,1.640312352098225596e-02,-4.378394403096898951e-02,-3.564091404123965329e-02,1.072044372558593750e-01
-4.404264958175149736e-01,-3.802787615703401292e-01,-4.206183762977703799e-01,1.007318358731563307e-02,-3.221917616018173808e-02,-4.163217656369078146e-02,1.069441214203834534e-01
-4.103931657099085806e-01,-3.884750285471478826e-01,-4.329669935672953995e-01,2.670005807263328007e-02,-1.957502279992243133e-02,-1.279785257486128897e-02,7.255575805902481079e-02
-3.251058517102847767e-01,-4.823889115474988554e-01,-4.082337564138416863e-01,4.214244455818887125e-02,7.135869623990616362e-02,1.156621434533704196e-02,1.989449113607406616e-01
-3.962200074858149290e-01,-4.204822916665540977e-01,-4.381508916520712171e-01,2.253690534969671894e-02,-5.244196327015861886e-02,-6.467075503800435998e-02,1.537876874208450317e-01
-3.954326523702622054e-01,-3.994911167821042497e-01,-4.448890137154736246e-01,2.899686000864843197e-02,-2.001883493414851126e-02,-1.999233702869519097e-02,8.476722240447998047e-02
-4.012104902929546912e-01,-4.058909463919478378e-01,-4.336843675869306858e-01,2.234253564720886306e-02,-1.492428782470446059e-02,-1.665960337585853032e-02,6.263276934623718262e-02
-4.218257024044996251e-01,-3.589909219789138017e-01,-4.432327957876777136e-01,3.668597637255424648e-02,-3.591698322601828697e-02,-3.950310331413755399e-02,1.354279965162277222e-01
-4.481229513938920217e-01,-3.537514778171239604e-01,-4.374322686906420565e-01,4.179214696385578215e-02,-3.466127614983120081e-02,-4.017331225454649074e-02,1.472990810871124268e-01
-4.055830106555711190e-01,-3.878656848577347049e-01,-4.370847601174872588e-01,1.874694262576193093e-02,-1.606391164299770039e-02,-1.545432229125789751e-02,6.640323996543884277e-02
-4.278848759522625445e-01,-3.842476102909826441e-01,-4.187919979872093412e-01,1.145846080961291161e-02,-1.700578085350583704e-02,-2.337107482537473246e-02,6.700897961854934692e-02
-4.043840522935188142e-01,-3.887285593192149613e-01,-4.373808704508855283e-01,1.819252774491683655e-02,-1.511429683353433459e-02,-1.482054094363494112e-02,6.471198797225952148e-02
-2.758133612798296386e-01,-4.964158472548408918e-01,-3.908596896904364959e-01,8.648689316034856300e-02,1.558789664970810507e-01,5.385025204426290013e-02,3.749077916145324707e-01
-4.259086709705910412e-01,-3.828751103156731173e-01,-4.381496590329570506e-01,1.590122831148675295e-02,-2.173997961234288775e-02,-2.049704714668600797e-02,7.723546028137207031e-02
-3.846399902191866560e-01,-4.239256247026187974e-01,-4.222331360496673347e-01,1.728407445227986630e-02,-1.954062740901416420e-02,-2.110026431667329921e-02,6.969307363033294678e-02
-4.053347042672768019e-01,-4.016795697129901810e-01,-4.253689334862564286e-01,1.843052693538943521e-02,-1.666395060823953195e-02,-1.813015767848015838e-02,5.767305195331573486e-02
-3.889043624910845653e-01,-3.918409599261054588e-01,-4.392422125585817017e-01,1.647210502083191509e-03,1.689365745661713762e-03,1.985678020620722413e-03,4.922632873058319092e-02
-4.272897586608108700e-01,-4.258311990748451237e-01,-3.906134701633591777e-01,1.390712983158459270e-03,-2.480617539077624792e-02,-1.483824272954928185e-02,6.169395893812179565e-02
-4.110443480730797683e-01,-4.229017668815193698e-01,-4.199716823132265686e-01,1.164823259160088775e-02,-2.908909258074924425e-02,-2.798928079708331434e-02,7.355412840843200684e-02
-3.167297123328650654e-01,-3.370333922939163784e-01,-6.378255998240051072e-01,1.854017011425492523e-01,-3.908098004638875522e-02,-2.910844349687509089e-02,4.552368819713592529e-01
-4.133408264363648832e-01,-4.004650553767310495e-01,-4.257162151516730164e-01,5.204377646944495853e-03,-9.992108488936947766e-03,-8.596706946398881971e-03,3.287509456276893616e-02
-4.241787894266365599e-01,-4.291918690627487543e-01,-3.962907710570182651e-01,4.943996111456612150e-03,-2.102248740335348892e-02,-2.154638698617770964e-02,6.111122667789459229e-02
-4.238924715763208728e-01,-4.064382823465449990e-01,-4.230595761099416596e-01,1.327227756531941527e-02,-2.451901815053416853e-02,-2.713825416827117878e-02,6.951450556516647339e-02
-4.324392664177557632e-01,-3.721699036901754964e-01,-4.074723849321482683e-01,3.199484498637271412e-02,1.846049902856661609e-02,3.827854928590912476e-02,1.060194596648216248e-01
-4.236461960725775855e-01,-4.196036550329289572e-01,-3.755111584722642393e-01,1.151320312567155266e-02,1.746627414246321175e-02,1.955851748489167985e-02,6.781752407550811768e-02
-4.263202473680218207e-01,-4.649154500261740708e-01,-3.249466290711989780e-01,3.400095582251860121e-02,5.585773495888049500e-02,3.881259004697097670e-02,1.817317903041839600e-01
-4.118868976263603265e-01,-4.614655845350209562e-01,-3.282403697113616681e-01,2.089465446919393579e-02,6.290613323530049039e-02,3.404035098334960707e-02,1.739523261785507202e-01
-4.087652555605345572e-01,-3.898416683037135289e-01,-4.185160712451674869e-01,1.293013664477620124e-02,1.254603326744277089e-02,1.123795832454834408e-02,4.461334273219108582e-02
-3.914746230259544824e-01,-4.146394882681742056e-01,-4.080563178890450615e-01,9.050718981364789043e-03,6.443538321960876752e-03,7.494379406759302253e-03,3.108459711074829102e-02
-4.286111408674642687e-01,-4.018714696369437012e-01,-4.037804968500462999e-01,-3.618140123477033010e-03,-4.381559841881769307e-03,3.800178107403775953e-03,2.842180058360099792e-02
-4.216772602731068131e-01,-3.778236945545733749e-01,-4.083666945254610381e-01,2.190287670362468103e-02,1.846132821006140831e-02,2.260974433029331113e-02,7.424191385507583618e-02
-4.231876322612462271e-01,-3.917718297228487967e-01,-3.997089799086432360e-01,1.175951960375320147e-02,1.382172858484928546e-02,1.172032014833414987e-02,4.691136628389358521e-02
-4.046644258465119104e-01,-4.236292295601740143e-01,-3.788237616700750876e-01,4.020323222685830838e-02,4.859551500726267542e-02,5.609051268974101639e-02,1.512923538684844971e-01
-3.837857166120382524e-01,-3.863660700235574952e-01,-4.419817053131547824e-01,2.418276694893332565e-02,9.851436842958298523e-03,1.082773122390248005e-02,7.510363310575485229e-02
-3.880396563920721631e-01,-3.750483086592655280e-01,-4.540096581022914357e-01,5.480312948451952076e-02,1.501917844394575798e-02,2.232183007714364301e-02,1.286838203668594360e-01
-4.579512936307685300e-01,-3.046198356950135522e-01,-4.530071146951307748e-01,4.210399689027768261e-02,1.033353826226890426e-02,4.113746262110380691e-02,1.830091327428817749e-01
-4.127430417722178224e-01,-3.502358504292067409e-01,-4.605516859294965792e-01,3.708452491410614560e-02,1.112413549718789009e-02,1.534681880180137001e-02,1.199366450309753418e-01
-4.251779405541619705e-01,-3.399917432985847809e-01,-4.480054101195680705e-01,4.128274036383177553e-02,1.413075975974606262e-02,2.635310786659841864e-02,1.323542743921279907e-01
-3.162060796796288265e-01,-4.207410334811521047e-01,-4.593290307502810310e-01,1.229011331253898887e-01,1.155988242727941234e-01,5.088557534482715528e-02,3.310917317867279053e-01
-3.531076251257066478e-01,-4.156799186390643941e-01,-4.563491164375163001e-01,5.934359633180684435e-02,4.019770763293382954e-02,2.283380527848501498e-02,1.584005802869796753e-01
-3.590375419833464199e-01,-3.544145407313599172e-01,-4.874228945649100031e-01,8.688699791864201716e-02,1.228001534796148084e-02,9.796101690357507039e-03,2.012114226818084717e-01
-4.022505168299640999e-01,-4.127579338027189126e-01,-4.098539489613650666e-01,2.772575696496722142e-02,3.923257574147410998e-02,3.257999034476254108e-02,1.009773761034011841e-01
-3.404201644239495117e-01,-4.150072591653921616e-01,-4.451190003002415407e-01,1.059678590169410434e-01,6.069453445622928489e-02,5.124178032476212064e-02,2.476531863212585449e-01
-4.000742607528026129e-01,-3.908419676527261633e-01,-4.287589550049883957e-01,8.218318481044804835e-02,7.393531172547208874e-02,6.925284116475276253e-02,2.285218983888626099e-01
-3.970603789929931238e-01,-4.238790018314463337e-01,-3.954568528652286363e-01,2.797050915646000571e-02,3.253272524119470849e-02,2.621908964027382105e-02,9.137460589408874512e-02
-3.845541108215966286e-01,-4.322362915633536917e-01,-4.010257229895473619e-01,2.761636076848939577e-03,6.614793135956781528e-04,7.300170577881705952e-03,4.408596083521842957e-02
-3.749272019440075265e-01,-4.354520396431500462e-01,-4.012403835523444817e-01,4.708817330106761061e-03,1.058872840278303473e-02,1.172584751778306227e-02,5.981979146599769592e-02
-3.682630384543630342e-01,-4.488068113431274431e-01,-3.980463277176912729e-01,3.322310410253629439e-03,1.576051442558404000e-02,6.002888857923176572e-03,7.656294107437133789e-02
-3.940076271122913143e-01,-4.331989763311718256e-01,-3.901137608783550870e-01,8.727002510221572654e-03,1.130399153994880550e-02,6.668279698834404454e-03,4.948686808347702026e-02
-3.922569069781076667e-01,-4.367394306967967155e-01,-3.915615871220334276e-01,4.220838857764496778e-03,7.217877222015175488e-03,5.393647755040557532e-03,4.803251102566719055e-02
-4.085455079378498278e-01,-4.108164352048034873e-01,-4.168044796844653788e-01,5.418796248695908514e-03,-4.352416520472474591e-03,-6.340650401241594396e-03,1.789257861673831940e-02
-4.094302964131785183e-01,-4.095698303989123157e-01,-4.156560750925509251e-01,7.430066832883101824e-03,-6.471918929843640568e-03,-5.230241480862773268e-03,2.027935534715652466e-02
-4.158610238194511699e-01,-4.107687459958495046e-01,-4.121417826115415517e-01,2.296985797094992093e-03,-2.878046129164959967e-03,-3.390764743264572390e-03,9.797671809792518616e-03
-4.099381724502402791e-01,-4.123432852910035029e-01,-4.149014771403145563e-01,1.731593014257977415e-03,-8.201845404660054522e-04,-1.841071005689157375e-03,6.297906860709190369e-03
-4.106755522316484774e-01,-4.100817079200436144e-01,-4.172345119538230507e-01,1.094437132694283917e-03,-2.490243398199099185e-03,-3.226522479957635598e-03,1.003475300967693329e-02
-4.869845701290677065e-01,-3.714711223437497933e-01,-3.631847808344405015e-01,-1.413521625643152785e-02,-1.974180315158291683e-03,7.246417224702876581e-02,1.753096580505371094e-01
-5.118989690070191445e-01,-3.464037907913775083e-01,-3.802501818514903986e-01,-1.242693777245265467e-02,3.721723254413222392e-03,8.599638752799526609e-02,2.135972678661346436e-01
-4.524852536725190166e-01,-3.715305432937234253e-01,-3.991791967268308317e-01,-9.329869888290870730e-03,-8.570738867400742866e-03,3.184976762281147011e-02,9.276076406240463257e-02
-4.609052823528448917e-01,-4.108494777838648804e-01,-3.431107499811896777e-01,2.818752658265347155e-02,3.859488788591916575e-02,9.387442439599583133e-02,2.092232406139373779e-01
-4.550495936053453039e-01,-4.172246891877445241e-01,-3.505248988443641633e-01,5.316833298362564665e-03,1.002474242450027662e-02,3.885490177621719887e-02,1.154032126069068909e-01
-4.745160535633856091e-01,-3.480811188944349377e-01,-3.865160654347989944e-01,9.474172425199803640e-03,1.944990735042959398e-02,9.187801407567985912e-02,1.983239799737930298e-01
-4.070392270471548390e-01,-4.072096549181018488e-01,-3.899422955905469390e-01,2.691025560994929344e-02,2.885925868305188463e-02,3.484049277192400457e-02,9.277868270874023438e-02
-4.510368528387720399e-01,-3.602132948090653319e-01,-3.914958943640168276e-01,1.732369262637454763e-02,1.516764068876663360e-02,4.108447407807781782e-02,1.141955703496932983e-01
-4.367676158819056020e-01,-4.312235489736632177e-01,-3.735458640823836052e-01,-1.519405595061647457e-03,-3.984600095183147422e-03,-1.370082108146759500e-02,6.553560495376586914e-02
-4.428919890095380230e-01,-4.305655482112477062e-01,-3.520605067933488264e-01,1.355399373611753007e-02,2.729562276930917394e-02,3.079690096270210412e-02,1.136411130428314209e-01
-3.855231707687768461e-01,-4.049008918712018734e-01,-3.990062259407674006e-01,6.046001399822569650e-02,6.237260159062250203e-02,5.791778338910534563e-02,1.816499084234237671e-01
-4.378137382841028047e-01,-4.475695410725780699e-01,-3.626800332767002311e-01,-1.189354490869751202e-02,-3.064358974310166933e-02,-3.159155772927801052e-03,9.871493279933929443e-02
-4.141448372158307301e-01,-4.106247219493989187e-01,-4.138702783982772804e-01,1.887250604266210351e-35,-1.358825919650554631e-03,1.235607078997488458e-04,4.133417736738920212e-03
-2.127242427107476075e-01,-4.975253831629787848e-01,-4.748337328250267220e-01,8.636757927734496632e-02,9.737004450540835687e-02,1.837299967265053346e-02,3.563671410083770752e-01
-4.426719422962444583e-01,-4.574574521100029378e-01,-3.483387363890392274e-01,-3.642831143280639977e-02,-3.101491713475503301e-02,1.306788773319874850e-02,1.337582916021347046e-01
-4.310710372082215414e-01,-4.455315738219576827e-01,-3.598118315572439441e-01,-1.211924259779827845e-02,-4.755685030839178380e-03,-4.669053711718612262e-03,8.301389217376708984e-02
-4.401600748418769138e-01,-4.447443026472940875e-01,-3.504477989873033272e-01,-1.235811128605403611e-02,-1.273584656654720010e-02,2.499682618794921152e-03,9.718070179224014282e-02
-2.369163367232647865e-01,-4.851099718608126166e-01,-5.107919124259084898e-01,3.845415553108148116e-02,-2.818920110254936537e-02,-3.816888718540258074e-02,2.825320959091186523e-01
-4.173104370081411330e-01,-4.418693171881981629e-01,-3.803834506711226693e-01,-1.177480067986336025e-02,-7.927762901458378086e-03,3.877552548729784523e-03,5.935670807957649231e-02
-5.099891092756692057e-01,-5.154036828420150984e-01,-1.786939600780608761e-01,-3.416933239413113416e-02,-7.057201941119972677e-02,6.154515708914622477e-03,3.607452213764190674e-01
-4.032894941520127063e-01,-4.023263872046162759e-01,-4.264682930056319377e-01,1.957073995403284944e-02,-1.634388976876824384e-02,-1.571514503768796367e-02,5.702468752861022949e-02
-4.085995336844235881e-01,-4.077468351814233505e-01,-4.213697240819045398e-01,7.543402171815310510e-03,-8.277961457985370461e-03,-6.270560400526270679e-03,2.586380578577518463e-02
-4.084433235593217248e-01,-4.010851630032662429e-01,-4.286140322996678242e-01,8.074891824143930891e-03,-9.238888378950963279e-03,-1.108459676508716761e-02,3.781146556138992310e-02
-3.856908044189771290e-01,-4.425388457738765324e-01,-4.038982884445593280e-01,-6.151093467015571019e-03,1.632332380943181394e-02,-9.551705493022680585e-03,6.094848737120628357e-02
-3.982422812438822235e-01,-4.115726923260467074e-01,-4.278718117423099265e-01,2.038362699274385084e-03,-5.765819299461170423e-03,-9.844360075840313112e-03,3.261239454150199890e-02
-4.245412014243734045e-01,-4.019044759078726492e-01,-4.116614551679286804e-01,-1.143789684625491805e-02,-1.118473294533156755e-02,6.933468453652383810e-03,3.603809326887130737e-02
-4.047787900458027499e-01,-4.253191479573735778e-01,-4.086104756429166374e-01,-1.831894227471178929e-02,-2.068053487583097413e-02,1.357962891055168597e-02,5.657656118273735046e-02
-4.042162927855843524e-01,-4.336391679339348659e-01,-4.101560186319296308e-01,-1.025288603648727079e-02,-2.161016846043934542e-02,-4.086957926163501363e-03,4.992689564824104309e-02
-3.982944553417658851e-01,-4.413083454174186460e-01,-4.094376918285110856e-01,-8.757764042532284465e-03,-2.313112449985854288e-02,-3.765735724001384541e-03,5.807612836360931396e-02
-4.025151660645703289e-01,-4.366223882513658450e-01,-4.007845603194042372e-01,-8.449944487097453549e-03,-1.332475835237650723e-02,1.394528521411137270e-04,4.440984502434730530e-02
-4.164652438520424771e-01,-4.406989682414858556e-01,-3.890043759744691299e-01,-1.371330616410371822e-02,-1.992075093535624133e-02,6.110794020644370883e-03,6.223785504698753357e-02
-4.255101054838062447e-01,-4.264165385961450894e-01,-3.840718305507704322e-01,-2.331599639277862068e-02,-1.958755334149171398e-02,1.573923791990647358e-02,7.266779243946075439e-02
-4.708473557467777182e-01,-3.327862442150431588e-01,-4.101106798671201870e-01,-2.243509020651358529e-02,-2.205338697507153861e-02,6.260469288192863080e-02,1.705624163150787354e-01
-4.641011587990226395e-01,-4.147881234335289991e-01,-3.523593130413317231e-01,-2.751340522552889970e-03,1.104294663967998660e-03,3.317299264602208142e-02,1.128512099385261536e-01
-4.612769790281732174e-01,-3.517705200300180191e-01,-3.915682800204555725e-01,2.911896176606526207e-02,4.724793386845518167e-02,8.416830185553113297e-02,1.992766112089157104e-01
-5.267143029385866759e-01,-3.147558460530047730e-01,-3.716758788631175370e-01,-2.840692979163646908e-02,-2.894031553444372656e-02,1.196060097662611788e-01,2.897444963455200195e-01
-4.743075217465873017e-01,-3.420818423486982063e-01,-3.871598673896006759e-01,1.872939234790814075e-02,1.715803993619077067e-02,9.088615459778427719e-02,2.006779313087463379e-01
-4.886772032456002668e-01,-3.199330750316973782e-01,-4.263334497394057898e-01,1.309165687965722089e-03,-1.088731065751830096e-02,4.574470285527182378e-02,1.687591671943664551e-01
-4.121737367741375446e-01,-4.771318949142383525e-01,-3.130701430939422103e-01,2.458420013054836081e-02,7.214729798601098032e-02,2.336262067238292772e-02,1.988591253757476807e-01
-4.114940371142965514e-01,-4.384443716895443655e-01,-3.589542067060716990e-01,2.002652958583580819e-02,3.971940588789500681e-02,2.698633056589455625e-02,1.141209229826927185e-01
-3.759180303263999212e-01,-4.686712253083583080e-01,-3.466715860539656968e-01,2.810145420025085203e-02,9.909126236466972437e-02,4.440521744765213441e-02,2.234121561050415039e-01
-3.997408613228848329e-01,-4.695345838512234304e-01,-3.340315425632606194e-01,4.024711704200296253e-02,1.074246480131531706e-01,4.329566358143084603e-02,2.426482588052749634e-01
-4.025583389259362876e-01,-4.163810788737226098e-01,-4.171271215355037976e-01,6.548503372043400217e-03,-3.974660065988649092e-03,-4.943773519477678152e-03,2.124387398362159729e-02
-3.976474199132475906e-01,-4.109896081499894160e-01,-4.286200177661641519e-01,6.263580160507436698e-03,-7.717332165170397683e-03,-9.410687281164335782e-03,3.586259484291076660e-02
-4.115867471671522115e-01,-4.213932525054184808e-01,-4.064751124603419585e-01,-1.690237943749328285e-03,-6.579252179900600987e-04,1.117487446033165821e-03,1.363962143659591675e-02
-3.958705691812746674e-01,-4.006302731794816885e-01,-4.362343262116473719e-01,5.566160196284422428e-03,-4.776107183848626349e-03,-4.179514050364572381e-03,4.090908542275428772e-02
-4.018725727922490276e-01,-3.889751675864962510e-01,-4.384638170816309577e-01,1.935932858998478528e-02,-1.439522973353798800e-02,-1.054316120261535213e-02,6.369213014841079712e-02
-4.098925796200842964e-01,-3.948018880044337209e-01,-4.338960158635845055e-01,7.521865673645542968e-03,-1.175264371221280101e-02,-9.908285229778393544e-03,4.521895572543144226e-02
-3.960633266608100667e-01,-4.087528069985396639e-01,-4.297063382234446727e-01,9.537038976105553442e-03,-6.126255614320255845e-03,-6.470701053892818737e-03,3.710836917161941528e-02
-3.974618731237880009e-01,-4.023541386500020245e-01,-4.301342341947733683e-01,6.275897536684858780e-03,-4.903935749380623418e-03,-5.270598852964505053e-03,3.471627458930015564e-02
-4.005328385002763780e-01,-4.498709334517650982e-01,-3.878729655762908624e-01,-2.073699821961461076e-02,1.934439673288302144e-02,-2.311900599345008064e-02,8.506048470735549927e-02
-4.406389190931924160e-01,-4.314902657177511203e-01,-3.650988697873180366e-01,-1.406530797175569412e-02,-1.337612390354623454e-02,6.156387739850251520e-03,7.964214682579040527e-02
-3.985480734497343636e-01,-4.503943914064122422e-01,-3.730892204108515187e-01,-3.918341132096066388e-03,2.278712435647213541e-02,2.694355773277458399e-03,7.925742864608764648e-02
-4.444264881368285569e-01,-4.424137990568244305e-01,-3.573371206946064915e-01,-1.540147545017110306e-02,-4.405577843657521378e-03,-1.693362304533049508e-03,9.050840139389038086e-02
-3.740493094886166436e-01,-4.647015220172305283e-01,-4.079124601996520494e-01,-2.792873715428328268e-02,3.922754288662645694e-02,-2.545228452532376923e-02,1.232666522264480591e-01
-4.619270069745116669e-01,-4.250712065314375954e-01,-3.413042290360034925e-01,-5.580276736007974518e-03,2.616190408340630848e-03,1.719473286241458149e-02,1.116399765014648438e-01
-3.138850591396476486e-01,-4.850608869304141590e-01,-4.424375211420432663e-01,-2.659244133873504487e-02,6.325321804899632083e-02,-2.843254907843407661e-02,2.009264528751373291e-01
-3.170434970834452582e-01,-4.636163347924527334e-01,-4.368946184314059789e-01,-3.178718478854816037e-02,3.979704089724148131e-02,-1.728947355796770988e-02,1.641963273286819458e-01
-3.288289781548259239e-01,-4.907771306730149830e-01,-3.943283944770753502e-01,-2.281930729203575717e-02,8.499982857403706737e-02,-1.248209418975156429e-02,2.088404893875122070e-01
-6.012536177277456595e-01,-5.424091134109407797e-01,-1.509407637957556614e-01,-6.381279454260031792e-02,1.236859953822693099e-02,8.213347368674188409e-02,4.611494243144989014e-01
-3.409674519407187576e-01,-4.241444773550175351e-01,-4.895596158714516366e-01,6.022441703700073118e-02,-5.704804364010573198e-02,-4.634125894824050323e-02,2.091064602136611938e-01
-3.847375190319307081e-01,-4.410205746412517169e-01,-4.065189181106245164e-01,1.776263720766624310e-02,-5.372520257994692350e-02,-3.133493840195524655e-02,1.223423406481742859e-01
-3.852801387695726221e-01,-4.289266892659083785e-01,-4.414620800993783178e-01,1.161655108446661699e-02,-7.719102889592395489e-02,-3.686755900960096005e-02,1.580099165439605713e-01
-3.944406778534244040e-01,-4.458305412977641713e-01,-4.011317993317464192e-01,3.014989290546714676e-02,-5.412009789007599797e-02,-3.388675704004051603e-02,1.315324008464813232e-01
-3.667609337064782205e-01,-4.167243835249310746e-01,-4.420771691398469039e-01,4.371861180894214688e-02,-1.974960678280462609e-02,-1.908313380746120072e-02,1.113661229610443115e-01
-4.583316829709865869e-01,-3.727340478516220634e-01,-4.183121334249818024e-01,-6.856550272666279977e-02,-7.005156305600915290e-02,3.181690763639919567e-02,1.933009028434753418e-01
-4.236347353701634955e-01,-4.044283693576923855e-01,-3.979576102671395499e-01,-4.384393849906449009e-02,-4.519835339722234890e-02,3.404513525835726334e-02,1.261261105537414551e-01
-4.510863131238957990e-01,-3.668417358292989094e-01,-3.963065448754725106e-01,-4.772955148990669361e-02,-4.229177707511225237e-02,5.714411862919871465e-02,1.657695323228836060e-01
-3.865599394646656028e-01,-4.286999168381550041e-01,-4.264789453606763203e-01,-3.446424807009469682e-02,-4.122408674126851885e-02,2.089107221388223929e-03,1.017931252717971802e-01
-3.855764235086840408e-01,-4.364555385443882329e-01,-4.153689057002334373e-01,-3.396399180213135333e-02,-3.512530708303430310e-02,5.920748070183188237e-03,9.606064110994338989e-02
-4.183747667201473952e-01,-4.426793318173516956e-01,-3.896233143880031280e-01,-5.852443461115068579e-02,-4.792849139717434565e-02,2.742355067135186786e-02,1.467618942260742188e-01
-4.108470797128771501e-01,-4.264017881967790413e-01,-3.987919968337444998e-01,-3.471870484701762571e-02,-4.550172396506597244e-02,2.174217434997498255e-02,1.087213829159736633e-01
-4.578264789724030281e-01,-3.772963050394005924e-01,-3.655733663372771058e-01,6.902095960851777068e-02,6.989047408807001760e-02,1.038935751117559120e-01,2.624765336513519287e-01
-4.544014484770694251e-01,-3.811457791003846074e-01,-3.861179779834077452e-01,8.649692268658516064e-03,1.747513156405670551e-02,3.944605569723643596e-02,1.040934175252914429e-01
-5.095056365009712485e-01,-3.879790356710662858e-01,-3.180420160235740701e-01,1.310483022175773851e-02,1.138866913946191481e-02,9.756985346922696090e-02,2.400480210781097412e-01
-4.659592978655239248e-01,-4.164282156625697118e-01,-3.436513953913101216e-01,7.080213825065996558e-03,1.543822036559678625e-02,4.040472473743894621e-02,1.308340132236480713e-01
-4.370100328248122667e-01,-4.391457106140361777e-01,-3.448337377835002937e-01,1.968071503502119221e-02,3.313051754245668196e-02,2.772037051909351929e-02,1.243303343653678894e-01
-4.400312048596748404e-01,-4.041180193509013030e-01,-3.707622351320930543e-01,1.663321671295797319e-02,1.720177849184010080e-02,2.781837977469674844e-02,8.740457147359848022e-02
-4.246333170699155279e-01,-4.064734963711865157e-01,-3.865484047951932567e-01,1.096504806212902049e-02,9.387725960692391500e-03,1.484897414757737136e-02,4.873587563633918762e-02
-4.287196016920162833e-01,-3.862800484767349163e-01,-4.047852565627780841e-01,9.904599806663666461e-03,1.000227465209633029e-02,1.683766699926251761e-02,5.294493958353996277e-02
-4.081967263335688489e-01,-4.045194597560942684e-01,-3.981883915566679089e-01,4.279974071555812248e-02,6.020645243725866042e-02,4.585042190738050638e-02,1.508428752422332764e-01
-4.351361061317070567e-01,-3.679600189997539461e-01,-4.062225362731567979e-01,4.329555799153557427e-02,3.092121265921148401e-02,4.845448331715509344e-02,1.376288980245590210e-01
-4.417257868883953109e-01,-3.676711615400815036e-01,-4.031895735079014109e-01,2.538610203532758527e-02,1.627761918990875203e-02,4.680290408751697911e-02,1.158236712217330933e-01
-4.261471472943342276e-01,-3.816326993336988105e-01,-4.047792621898023691e-01,1.554212214906694478e-02,1.846526378917144606e-02,2.403393512633738779e-02,7.047981023788452148e-02
-4.267270523106563851e-01,-4.109374286438659540e-01,-3.985325987420010874e-01,-7.529381494838081022e-03,-5.181887113549064720e-03,9.696919369064390185e-03,3.364195302128791809e-02
-4.333880543318907042e-01,-3.884192894215262037e-01,-4.116952809889298792e-01,-3.370298129554212280e-03,-1.116787593751993220e-02,4.591942450869252422e-03,4.459560289978981018e-02
-4.331961095908639092e-01,-3.912985183650823928e-01,-4.060245933941264429e-01,-4.229750542619951578e-03,-8.079793566542774544e-03,3.782081678105904832e-03,4.059202224016189575e-02
-4.382749125257320855e-01,-3.943819391035972566e-01,-3.977033902228781503e-01,-2.940505638147947621e-03,-5.685407929191999346e-03,5.198070703511560586e-03,4.467446729540824890e-02
-4.437043023421756716e-01,-3.934222297240773103e-01,-3.923476486380469419e-01,-5.520007645496643502e-03,-6.290589455886385142e-03,7.894884335376502194e-03,5.459475517272949219e-02
-3.888278603635185182e-01,-3.879098484057031393e-01,-4.506884990661965684e-01,2.407375492633110833e-02,-7.168938861951758799e-03,-9.777254411881061355e-03,7.787150889635086060e-02
-4.323827230603108362e-01,-4.016574221038110570e-01,-3.993689004000757770e-01,-7.845499212182714677e-03,-8.253948463251548767e-03,5.683525064047919781e-03,3.880132734775543213e-02
-4.156405880279183118e-01,-4.020263152044747934e-01,-4.241560240877292332e-01,-1.494805446000780670e-02,4.301055989663367558e-03,-1.232003159535755184e-02,3.943313658237457275e-02
-4.059360484233531241e-01,-4.065338742825222451e-01,-4.269349235128713227e-01,-2.309471670723481102e-03,2.925132842789832273e-03,-3.021633721367492781e-03,2.231182344257831573e-02
-4.136831128035997618e-01,-3.980003720384370225e-01,-4.270875868435289879e-01,-7.458215228284533448e-03,2.022854463597090549e-03,-5.017828086948997700e-03,2.984181232750415802e-02
-4.064697384785064260e-01,-4.096307708027863148e-01,-4.219468768819216176e-01,-2.027589781832866023e-03,2.844854639489468283e-03,-2.592667704651389644e-03,1.604334637522697449e-02
-4.067783451439638820e-01,-4.124499452145766742e-01,-4.203645150652915441e-01,-4.587373787776837311e-03,3.021831943024745094e-03,-4.582199360610644118e-03,1.712342724204063416e-02
-4.379642411654596224e-01,-4.049441116971438381e-01,-3.894518270753407618e-01,-6.581918745638000098e-03,-4.517991847303001914e-03,1.603548395204789159e-02,5.295761674642562866e-02
-4.144169922519734262e-01,-4.086913830160732175e-01,-4.146228342926926436e-01,-3.069197663834694750e-03,4.622476957557458167e-03,-2.711223512060884164e-03,1.218267437070608139e-02
-4.151925817470953350e-01,-4.120825735529359268e-01,-4.146511508803830681e-01,-1.056812363172799675e-02,4.802702369313237817e-03,-8.566514816508068522e-03,2.515334077179431915e-02
-4.121427306575178307e-01,-4.141105319372301308e-01,-4.085359183286855211e-01,-3.931031216565281788e-02,3.075333368581656054e-02,-4.162815293681221968e-02,1.126760542392730713e-01
-4.598973879641197748e-01,-4.140491238484499403e-01,-3.917260869179950422e-01,-5.246077964893459261e-02,-1.296674754155516512e-03,-7.319487243823739886e-02,1.672057658433914185e-01
-4.337766607625025417e-01,-4.054430901022925693e-01,-4.012512720140233857e-01,-7.859432772304922668e-03,8.392923014259855716e-04,-1.041135559712303912e-02,3.810178488492965698e-02
-4.474043538848121448e-01,-4.127010018453514673e-01,-3.938854488866677106e-01,-1.538679736347749009e-02,3.221532918355400447e-04,-2.146732369183374303e-02,6.560808420181274414e-02
-4.397729611121653504e-01,-3.889865811689239283e-01,-4.055149990970237650e-01,-2.800349962041468778e-03,-2.792060886262415307e-03,-1.361367853961060158e-02,5.114622041583061218e-02
-4.706404533680419999e-01,-3.640306745327945293e-01,-4.020969320340853637e-01,-1.995962437943295600e-02,-1.095365515622330650e-02,-9.342302799135691893e-02,1.910370141267776489e-01
-4.280538895716477499e-01,-4.147923579847989650e-01,-3.881630512143990352e-01,-3.567060980842649831e-02,2.857331392706037240e-02,-4.705919568749538512e-02,1.189467012882232666e-01
-4.587773653153721654e-01,-4.060374199945439577e-01,-3.764350246325047777e-01,-1.889616785271766228e-02,-1.004109302668413327e-03,-3.963000446302773067e-02,1.049040704965591431e-01
-4.221747338293231344e-01,-3.912343570471650267e-01,-4.298420431559846766e-01,-1.857956314808541926e-02,4.481637718732144234e-03,-2.385495318799163433e-02,6.368952989578247070e-02
-3.950197401021344756e-01,-4.273650394990796686e-01,-4.118293018689431761e-01,-4.021257069659742861e-02,3.042183496376451093e-02,-3.437036311314251719e-02,1.093464717268943787e-01
-3.921146723786069210e-01,-4.174829685247185007e-01,-4.404025241167091043e-01,-3.577811670082248902e-02,1.037391955919681266e-02,-2.876300515948808714e-02,9.162583202123641968e-02
-4.197127942337083306e-01,-3.633603073536383898e-01,-4.517420921137803025e-01,-4.417147514671304620e-02,1.773089257815535502e-02,-3.934751072794525489e-02,1.320893615484237671e-01
-3.830545703007550151e-01,-4.199702665356012110e-01,-4.330102579911149774e-01,-8.958603508044551619e-03,3.013528289076990770e-03,-1.085001904053389983e-02,5.133588239550590515e-02
-3.946027865575230109e-01,-3.904775518036480153e-01,-4.412672683814755636e-01,5.084325153592744208e-03,-4.152703408407490762e-03,-9.091819121400218336e-04,5.018823593854904175e-02
-4.008255281797594161e-01,-4.082791569698355216e-01,-4.270079009050866126e-01,-1.014404951313963542e-02,3.755830957956345691e-03,-7.537465747423793133e-03,3.267084062099456787e-02
-4.058091189382085906e-01,-4.104044975321893829e-01,-4.491513688233301771e-01,-5.255711490589973223e-02,1.005887128969821902e-02,-3.305627112355823127e-02,1.164857894182205200e-01
-4.143846471830355260e-01,-3.744683566870699032e-01,-4.478580447904428885e-01,-3.398352703794835922e-02,-1.753987078530707365e-03,-1.086162783106776712e-02,8.875644952058792114e-02
-4.061278042282947531e-01,-4.151939867351446822e-01,-4.237907072170872258e-01,-2.860262827769842475e-02,1.260474656822729855e-02,-1.866323817606466845e-02,6.488418579101562500e-02
-3.853833558626663103e-01,-4.390691245545942922e-01,-4.144697504195211657e-01,-5.293043973382820407e-03,-9.600753373720854675e-03,2.462795512348640338e-03,5.045218765735626221e-02
-4.161124769759438902e-01,-3.906820985816977232e-01,-4.430915203925103740e-01,-2.049035377839464322e-02,-7.143664945100502289e-03,-5.103830510333601939e-03,5.959418788552284241e-02
-4.494655032482710033e-01,-4.396257968888033218e-01,-3.535392996878232164e-01,-1.038420635512807277e-02,5.730870623924765907e-03,-1.661801878578043901e-02,9.800647944211959839e-02
-4.594784130217463014e-01,-4.594571841318862981e-01,-3.190853298223509382e-01,-1.665105499680486975e-02,1.792326710114696764e-04,-1.285559348103538189e-02,1.450341492891311646e-01
-4.479967862233488196e-01,-4.637798706191007536e-01,-3.072567001204167259e-01,-1.706214759757084323e-02,3.114901566812840888e-02,-2.091076921797765595e-02,1.654512137174606323e-01
-4.483274896418382727e-01,-4.589736895680218698e-01,-3.289427081199333691e-01,-1.395826894630682047e-02,1.179177462968515264e-02,-1.126420217567198311e-02,1.304582208395004272e-01
-4.493238769109746400e-01,-4.441012265829054617e-01,-3.500077355603700702e-01,-1.155703974642927762e-02,1.123078578562166502e-02,-3.935484824301125999e-03,1.009843051433563232e-01
-4.642795765603376923e-01,-3.371662017118278731e-01,-4.187416433569936536e-01,1.485160224205869794e-02,-1.891846346825262987e-04,3.723723957908953164e-02,1.313951611518859863e-01
-4.517902415386567672e-01,-3.839860049335315217e-01,-3.798781213554086600e-01,7.893017293380042917e-03,9.076743069385296084e-03,3.851670703747495789e-02,9.888119995594024658e-02
-4.278573406867627882e-01,-4.104011914625602109e-01,-3.948504164320298937e-01,-7.777365146201438602e-03,-4.173087674118250608e-03,5.776146507895131565e-03,3.393815457820892334e-02
-4.229925629244050689e-01,-4.194870698622667482e-01,-3.742127726643035279e-01,1.702623077517861558e-02,2.286486540276782761e-02,1.837248639800184019e-02,7.530928403139114380e-02
-4.153450484312412594e-01,-3.460177729736407803e-01,-4.324861092118001404e-01,6.629773015276491099e-02,4.562279497423470803e-02,6.651866154161933942e-02,1.974667310714721680e-01
-4.294993482179588207e-01,-3.653362919489082095e-01,-4.262853510165777737e-01,2.649461768537919593e-02,1.858069940855162569e-02,2.705659839930789345e-02,9.622269868850708008e-02
-3.512762743441487090e-01,-4.825339560793237004e-01,-3.847642314486173221e-01,-5.173292912432476964e-02,8.371055081970422973e-02,-3.233415646275022981e-02,2.148074060678482056e-01
-3.460053093590924056e-01,-4.357368515889438187e-01,-4.417310097799521107e-01,-2.647612457537853320e-02,2.522806981113843647e-02,-1.816874796641779893e-02,1.167397797107696533e-01
-3.599069724879393473e-01,-4.579191550434907887e-01,-3.961066718311080370e-01,-5.006117950445338610e-02,8.151850441380943668e-02,-4.623153340383815563e-02,2.030640840530395508e-01
-3.937769652864873127e-01,-4.209541573374032120e-01,-4.176939384232888908e-01,-1.731249296781109392e-02,1.499441063118480202e-02,-1.524363650725174719e-02,5.414235591888427734e-02
-2.896053141787452989e-01,-4.848840298574540464e-01,-4.784498652353946779e-01,-1.140774114431468075e-02,2.965459903634358810e-02,-2.553230533513029324e-02,2.047022432088851929e-01
-2.780999291669788431e-01,-4.920007770655930313e-01,-4.737096788045335183e-01,2.491759669851547135e-02,4.979242225401547123e-02,-1.880662424447582595e-02,2.292100340127944946e-01
-2.780850705575631521e-01,-4.768522377567714909e-01,-4.843000182120614783e-01,3.480080908384704935e-02,4.726401421422372906e-02,-1.097120180974218290e-02,2.274648994207382202e-01
-2.233083798711708867e-01,-5.142661561393547798e-01,-4.843606642517965799e-01,1.562216504504375554e-02,5.914014504962696733e-02,-2.751721195974352746e-02,3.005760312080383301e-01
-3.018301994093203766e-01,-5.003159949410663776e-01,-4.566990973297569423e-01,-2.754775702950566091e-02,3.374992202623072757e-02,-2.137556391466646083e-02,1.992643028497695923e-01
-1.986148742586958393e-01,-5.930134468558302396e-01,-4.517294053419356192e-01,3.877041836579844802e-02,8.052176441322952960e-02,-4.190973130454435196e-03,3.792131245136260986e-01
-4.048997529193114620e-01,-3.852676074860837963e-01,-4.289622905065569869e-01,1.598945966077921707e-02,9.770115092011580002e-03,1.031394369158401131e-02,5.300294607877731323e-02
-3.871271141398813231e-01,-4.046976376642913431e-01,-4.247589063293590872e-01,1.575132550876628262e-02,1.054612572362761611e-02,9.527285139958367732e-03,4.913193732500076294e-02
-4.037945511924611042e-01,-3.760350823155064748e-01,-4.263907695295629519e-01,2.637268803732306655e-02,2.748996732572010770e-02,2.621471142319584807e-02,9.123442322015762329e-02
-4.023838456474862491e-01,-3.825752851653603792e-01,-4.388358868118237277e-01,1.818463809027324671e-02,9.405657454709857868e-03,1.003347989998484499e-02,6.326647847890853882e-02
-4.079198255440078524e-01,-3.797063238851205447e-01,-4.242369281233519529e-01,2.036218954007210785e-02,1.718538896379059877e-02,1.645056263355501591e-02,6.681574881076812744e-02
-3.766975682507613943e-01,-4.645850188628267707e-01,-3.862930395495636215e-01,-7.217809270607095269e-03,2.951165053771000885e-02,-6.348300955866135672e-03,9.931243956089019775e-02
-3.530568102063860181e-01,-4.989209879117768032e-01,-3.494085620866370090e-01,1.190642915964932116e-02,1.095260885769068909e-01,1.259832357518662210e-02,2.423038482666015625e-01
-3.173694645216565968e-01,-5.034944413117030670e-01,-3.918927577241843041e-01,3.296614663125961575e-02,1.687894031316898580e-01,-1.001516329750374093e-02,3.396415412425994873e-01
-4.152821288530387234e-01,-4.048496478732762638e-01,-4.171529463292993345e-01,-2.732554273852042925e-03,-5.367993521676633906e-03,1.069729750972162876e-03,1.562477089464664459e-02
-3.825292643198945353e-01,-4.455076685267518322e-01,-4.040716462684060817e-01,-9.573213708995830917e-04,1.940290715457648058e-02,-6.974394850244149471e-03,6.596774607896804810e-02
-4.262409987142555812e-01,-4.241676806053718551e-01,-3.868736222786308132e-01,-2.035668140210515620e-02,1.225633665065520989e-02,-2.094680300930870306e-02,6.695229560136795044e-02
-4.050026097342082632e-01,-4.235415633426883320e-01,-4.052329669062298412e-01,-1.924627758904366714e-02,1.767912789380079661e-02,-1.951420605454106533e-02,5.942053720355033875e-02
-4.159625408903325217e-01,-4.367725939208088048e-01,-3.835327021715403961e-01,-4.469296652280343313e-02,5.993735713908228402e-02,-3.575834003213290008e-02,1.508821994066238403e-01
-4.278411741174372174e-01,-4.079296289857202717e-01,-4.117421854158170302e-01,-3.439862698463012208e-02,4.521018308850936057e-02,-4.715378887549284692e-02,1.291789859533309937e-01
-4.038092313904771413e-01,-4.215732113699661721e-01,-4.136884143984856377e-01,-1.983614719014286168e-02,2.059663138130814197e-02,-1.775079946077728552e-02,6.029940396547317505e-02
-4.001714217564822929e-01,-4.571403324803741675e-01,-3.719350768179432998e-01,-2.530733798878015070e-02,4.097167344591152310e-02,-1.796004065446588777e-02,1.165180206298828125e-01
-3.497822622574910945e-01,-5.893332319464549274e-01,-3.407492942496870292e-01,-4.709745563676427660e-02,1.594015113708645293e-01,-3.378943526021945670e-02,3.820161521434783936e-01
-4.641786325590425144e-01,-3.953216252835141109e-01,-3.756798831156583640e-01,-1.889211536571475808e-02,-1.926644414633502805e-02,2.686182863544926344e-02,1.040603369474411011e-01
-4.495646017230023883e-01,-3.923730226725633541e-01,-3.876280828672377110e-01,-9.930412145782536656e-03,-5.125682726656820981e-03,1.323184833458121955e-02,6.681814044713973999e-02
-4.478482871631772610e-01,-3.740764986075062470e-01,-4.063887609232227915e-01,-1.654430990337580091e-03,-1.051457563481897513e-02,1.222429113294882727e-02,6.993429362773895264e-02
-4.561348918812349051e-01,-4.053735079481216030e-01,-3.563379716775795791e-01,-7.206022580767935774e-03,-1.796244328559069067e-03,3.246676014209913530e-02,1.039136424660682678e-01
-4.142994882228576703e-01,-4.163106822953374642e-01,-4.098275832354980053e-01,-6.001877097421966407e-03,-5.565769328716450685e-03,2.378987647958019213e-03,1.584349758923053741e-02
-4.382590602796557766e-01,-4.462662089948310484e-01,-3.578641536011083479e-01,-7.119890400469917890e-03,-1.674430683421916644e-02,-2.214852483836830203e-03,9.043838083744049072e-02
-4.734049763421344648e-01,-4.283960778341100450e-01,-3.382567583573495296e-01,-3.093519789435977135e-02,-4.486312089781604312e-02,6.611687091492815527e-02,1.903453469276428223e-01
-4.942796786150916999e-01,-4.102615416390678060e-01,-3.376189791828154707e-01,-2.384200499523295158e-02,-2.542404328466318225e-02,7.834831483307490296e-02,2.012439519166946411e-01
-4.826492239471301682e-01,-3.822294191675013608e-01,-3.804793390224199268e-01,-4.963027986000542735e-02,-4.376949316591694644e-02,7.068859453342303534e-02,1.959346234798431396e-01
-3.651430075042084167e-01,-3.739872831816962173e-01,-4.613787304806891143e-01,7.125914208993909538e-02,2.338971883685284428e-02,2.494665631473771961e-02,1.650158762931823730e-01
-4.512790865896535997e-01,-4.180317981242164804e-01,-3.458954099205712729e-01,7.873016356824535239e-03,6.471012993860891967e-03,2.120582868820891642e-02,1.018234565854072571e-01
-3.568637931549512587e-01,-4.091394172511433336e-01,-4.646807814481201393e-01,3.814222835755229357e-02,-1.514938864549714506e-02,-1.641009357309493322e-02,1.207556128501892090e-01
-3.623904585165817482e-01,-3.910788208116292575e-01,-4.642971695005734811e-01,4.147669630649587769e-02,-1.144918638460545868e-02,-3.425435522998654045e-03,1.177873685956001282e-01
-3.481189488169633695e-01,-4.147303857912159053e-01,-4.686351843718002397e-01,8.029267447775813304e-02,-5.684383456017197411e-03,-2.641259536563491175e-02,1.801778078079223633e-01
-3.575182653121564691e-01,-3.947634960754209388e-01,-4.554131934126551262e-01,3.800556451420870202e-02,1.131005835923979894e-02,8.639324248020874980e-03,1.107494458556175232e-01
-3.423686471225924066e-01,-4.180321149039930573e-01,-4.688473243436203086e-01,3.340617310346834928e-02,6.678495244434756728e-03,3.307777650914402699e-04,1.250362098217010498e-01
-3.212017830582470923e-01,-4.182630897859301866e-01,-4.759412274813730748e-01,5.638757763062002271e-02,1.035124614529163434e-02,9.670417987418477440e-03,1.687798947095870972e-01
-3.799678061504088156e-01,-4.795130689790105816e-01,-3.429243074127518165e-01,-4.756441024531153292e-03,8.569411134730947621e-02,-5.333494004053793364e-04,1.925309151411056519e-01
-4.227218246646362587e-01,-4.506601824950763335e-01,-3.683913162807743169e-01,-2.765065019966337148e-02,4.094367811249349787e-02,-2.756860362748014479e-02,1.218736022710800171e-01
-4.362540193964868362e-01,-4.282407955643900421e-01,-3.855477080002176482e-01,-4.984997954426874378e-02,1.876325474225305767e-02,-4.825207293552789128e-02,1.331354528665542603e-01
-4.455262332113452683e-01,-4.259771570254508033e-01,-3.801926623340419753e-01,-5.321688621504124667e-02,3.082504794467644249e-02,-5.171548030018350423e-02,1.508097052574157715e-01
-4.143001712483609378e-01,-4.147669267552171468e-01,-4.087737814507750311e-01,-1.202500040309781347e-03,-3.583337990494693992e-04,5.962331342684466708e-04,6.255240179598331451e-03
-2.923226703985784547e-01,-4.432843895573735371e-01,-4.624637554223317570e-01,5.624571451184576937e-02,4.437652888760355158e-02,1.363981998009980434e-02,2.049618065357208252e-01
-2.981529554784095870e-01,-4.560278781361051803e-01,-4.610385870659099439e-01,7.276802551635089267e-02,3.723222429841362840e-02,2.324788119009783133e-02,2.177299410104751587e-01
-3.294412791845540700e-01,-4.385064354800821129e-01,-4.611499005106042270e-01,3.860940095699415958e-02,2.210446013409687188e-02,9.467205896517011041e-03,1.452043801546096802e-01
-3.493578876853344894e-01,-4.486165480173202047e-01,-4.190614334906787586e-01,2.929661701851227554e-02,4.065096898015013033e-02,1.947948639588716752e-02,1.283078938722610474e-01
-3.438385658168515713e-01,-4.071323977759002677e-01,-4.462297091466236876e-01,8.198062164830384468e-02,7.301692426958002191e-02,5.169068384063732480e-02,2.284337729215621948e-01
-3.417764377520590147e-01,-4.202352031740123617e-01,-4.435140404101757805e-01,4.550315073550224854e-02,3.098477603703881159e-02,2.032725846211109674e-02,1.373152732849121094e-01
-3.378267570968418454e-01,-4.190612637898922799e-01,-4.559090990278111821e-01,4.771457758630805179e-02,2.860024955860369575e-02,2.606583664673679454e-02,1.492393165826797485e-01
-3.882964567048932669e-01,-4.236930920221733676e-01,-4.292681104837797745e-01,-1.903487102711479487e-02,-1.698895217667110297e-02,4.822912010236268809e-03,5.919437110424041748e-02
-4.108381174661905888e-01,-4.197752790067567075e-01,-4.139424490819848534e-01,-8.335433162976507021e-03,-9.718845390461769082e-03,4.497936353084239051e-03,2.478439733386039734e-02
-4.143291546285981508e-01,-4.093621822710939440e-01,-4.132705975048046598e-01,-7.689926890424297369e-03,-6.759071587985986465e-03,6.462098610798050480e-03,2.145389840006828308e-02
-4.220538397281458076e-01,-4.033964015239623890e-01,-4.139526656199862265e-01,-8.394066636372866236e-03,-1.006820373841102630e-02,3.973639663436312995e-03,2.873044647276401520e-02
-4.239120950740823401e-01,-4.149555916373148801e-01,-4.021647246960889377e-01,-1.040505644055832873e-02,-9.035395405140473138e-03,3.730394685267571144e-03,3.114233352243900299e-02
-4.232583771638165904e-01,-3.897479280767461307e-01,-4.228216178065323794e-01,-1.596389358477283069e-02,-1.810886730187129603e-02,1.474757857181729914e-02,5.923942103981971741e-02
-3.994825812768374451e-01,-4.263251784139073242e-01,-4.137615571974603279e-01,-1.335876158902952505e-02,-1.768191354650722538e-02,3.286520412779445413e-03,4.524215683341026306e-02
-3.807142141908104738e-01,-4.149770529911384065e-01,-4.480849016497047144e-01,2.163167459434952450e-02,-1.769338520687107480e-02,-1.367376116728954809e-02,7.942488044500350952e-02
-3.891967008818030260e-01,-3.899305496152229433e-01,-4.491434441403326927e-01,1.228198001465539632e-02,-1.014345662628618992e-02,-7.747938906542771627e-03,6.701835989952087402e-02
-3.824940158998819117e-01,-3.924726524747173539e-01,-4.480094827407291036e-01,6.962569679408016354e-02,-4.328727651565614926e-02,-3.382182006596581858e-02,1.653312444686889648e-01
-4.294475566894496166e-01,-3.499435687127494532e-01,-4.569836157566835033e-01,3.390266864431340510e-02,-2.461906610223517020e-02,-2.118064099700580835e-02,1.260185390710830688e-01
-3.598818095454409116e-01,-3.900310681898083720e-01,-4.592870017624096635e-01,4.202425931024641320e-02,6.667818619252905733e-03,5.226996528076635617e-03,1.153552606701850891e-01
-4.131772581843374259e-01,-3.520903800057480493e-01,-4.533236876140665506e-01,3.862240337015334507e-02,7.624574151300116814e-03,1.057350223118058187e-02,1.130514591932296753e-01
-4.001956688038936227e-01,-3.186802476592994759e-01,-5.067471092080414463e-01,7.055107606098295903e-02,1.828413782015651107e-02,8.371148876393216809e-03,2.069518715143203735e-01
-3.634414478093524470e-01,-3.566189767776218877e-01,-4.818114703799676324e-01,8.460806363744730052e-02,-2.175495469704421571e-03,-1.827693014288249429e-03,1.906970888376235962e-01
-4.137768592860369132e-01,-3.507916252852573136e-01,-4.700663822348999377e-01,3.905725663731914044e-02,-7.842370428228473064e-03,-1.165424145055119582e-03,1.242821365594863892e-01
-3.548667868308110762e-01,-3.477684624002106983e-01,-5.163367113642277628e-01,8.819303460546017159e-02,2.339224724517428682e-03,1.189577635496902146e-02,2.259293347597122192e-01
-4.551053508701775052e-01,-4.472082709685224478e-01,-3.383089050099301054e-01,-1.210819331769767346e-02,-1.071767241917096977e-02,-1.351619639611164117e-02,1.188020035624504089e-01
-4.101523209805881809e-01,-4.164107501988851268e-01,-4.128302836200676285e-01,-1.025268404536548760e-03,-1.921447439115603209e-03,2.651582392877929826e-03,8.056156337261199951e-03
-4.568610114981171422e-01,-4.607223595679834083e-01,-3.223153917344931396e-01,-1.684858056433565648e-02,3.846724099626430953e-03,-1.057893048334389817e-02,1.409564465284347534e-01
-4.660783646853930429e-01,-4.595955170549265723e-01,-2.937419410368763417e-01,-6.685691330867923887e-03,-1.552138040668116226e-02,-9.466511153361195641e-03,1.724828034639358521e-01
-4.567460773237053684e-01,-4.462450186696933496e-01,-3.222099280296853996e-01,-7.510491167774455135e-03,4.171692959772000872e-03,-2.770256062709836389e-02,1.390007287263870239e-01
-4.529495543033293381e-01,-4.469699880104149869e-01,-3.365106636963752229e-01,-8.207910827379812785e-03,7.883308809560896080e-03,-3.391630236946789959e-03,1.154147982597351074e-01
-3.970932975098456774e-01,-4.440023996909557291e-01,-3.909920528535662521e-01,-1.744240974069565311e-02,-3.972493575268729038e-02,6.701168205671184479e-03,9.113470464944839478e-02
-3.969856803871616990e-01,-4.481882062604841677e-01,-3.987292786130056110e-01,-7.836002350628508764e-03,-2.727355855129930812e-02,-1.362388084953328193e-02,7.421618700027465820e-02
-4.097110113794851238e-01,-4.401246856234826144e-01,-3.852341522281073627e-01,-5.765292449585058404e-03,-1.305304859505573498e-02,-1.780851517307311424e-04,5.366094037890434265e-02
-4.175480260175486458e-01,-4.313934017098235985e-01,-3.953871983411385571e-01,-9.615047744864175377e-03,-1.701510694109942962e-02,4.500102690485336190e-03,4.686430841684341431e-02
-4.144582636174016788e-01,-4.425408099260434436e-01,-3.865495455489727505e-01,-2.291565906704687988e-02,-4.316862438031382476e-02,2.288119221047897958e-02,1.052990630269050598e-01
-4.043507452297933069e-01,-4.343834334594169344e-01,-3.975154120828228166e-01,-8.842183509216056461e-03,-1.305217943289480043e-02,4.705654139811137580e-03,4.433991387486457825e-02
-4.235492134201009895e-01,-4.045018111186405307e-01,-4.040084516504702239e-01,-2.166418904020111363e-02,-2.148938041272388175e-02,1.997222803053415319e-02,6.604926288127899170e-02
-3.800315744985267030e-01,-4.711308930549319429e-01,-4.032399039138645502e-01,-1.831951946212249591e-02,-6.193322337127399324e-02,-1.519241038532230699e-02,1.411731690168380737e-01
-4.046381934124420043e-01,-4.389451729838492744e-01,-3.947286575722975810e-01,-5.612852133073033267e-03,-1.735156693068623870e-02,-1.003764200468233560e-05,5.111631006002426147e-02
-4.035192757646628436e-01,-4.399183976596892642e-01,-3.970472890621958295e-01,-6.149995347787960004e-03,-1.801730078342186903e-02,4.620957072628892673e-03,5.247621983289718628e-02
-4.145328649090918027e-01,-4.039918082480292161e-01,-4.001185213964102982e-01,3.603497618634375708e-03,4.877020386658205593e-03,3.316668839426729996e-03,1.761411875486373901e-02
-4.072323582596131253e-01,-4.064528040573446854e-01,-4.038942947769085245e-01,1.961678874141578686e-03,2.017347345884463496e-03,2.623518120083309646e-03,7.317809388041496277e-03
-4.091697791813476148e-01,-4.139967062857274893e-01,-3.894234347197130797e-01,9.056433084981375253e-03,4.870923346225421689e-03,4.208845354454900448e-03,2.964640408754348755e-02
-5.715275925998775097e-01,-5.554355408134029615e-01,-2.075998176741568058e-01,-1.096001287844197564e-01,-1.405412823175591908e-01,2.621698007867559119e-02,4.734977781772613525e-01
-4.109929584867083041e-01,-4.047520177507876737e-01,-4.250798852866730648e-01,-7.078571363798639299e-03,-6.240108323388999893e-03,9.999016594344997157e-04,2.440166659653186798e-02
-4.060513772072956162e-01,-4.051204555421342723e-01,-4.044998647969820227e-01,3.922390902527998074e-03,2.929935047321869344e-03,3.497242870985229918e-03,1.050859689712524414e-02
-4.061770942013284702e-01,-4.135497582158965124e-01,-3.958606895267929304e-01,5.281838943609636246e-03,2.457750432622361845e-03,2.975364540406539703e-03,1.911065727472305298e-02
-3.868265051063240478e-01,-4.386709141750556595e-01,-4.056952295545058762e-01,-5.688118158884610800e-04,4.576775803133718325e-03,-4.127966020707625125e-03,4.669652134180068970e-02
-4.082376763967626720e-01,-4.130331244656515466e-01,-3.942938762126934615e-01,6.660987188730155793e-03,1.628436882964455707e-03,1.865617924552770684e-03,2.087572589516639709e-02
-4.208085832661789816e-01,-4.612109183274038515e-01,-3.923688072040572017e-01,6.068433565859041728e-03,-6.718682208525605937e-02,-5.165566514463211523e-02,1.588955968618392944e-01
-4.201221402713122832e-01,-4.145825020918063597e-01,-4.021115060434462540e-01,-6.130918825298997503e-03,-1.246527743287853453e-03,9.010013454579000403e-05,1.930669508874416351e-02
-3.988594807146971788e-01,-4.575404883823613322e-01,-4.161560038214727753e-01,-1.697367005544187998e-02,-8.345152581102303901e-02,-5.981412229910801348e-02,1.876635998487472534e-01
-4.239526728719282822e-01,-4.603768359745437633e-01,-3.677041342302029281e-01,-9.683401595268321949e-03,-5.331083798739455482e-02,-8.101946029604277857e-03,1.246747374534606934e-01
-4.026900127505101956e-01,-4.232473585497236179e-01,-4.139322707120198785e-01,5.498466905875614569e-03,-6.223952106947649131e-03,-9.941935261314038819e-03,2.865868434309959412e-02
-4.096791177254255345e-01,-4.292644107162582601e-01,-3.943536139739573509e-01,6.322856986525858362e-03,-2.232189272900908170e-02,-1.401723947521118195e-02,5.588196963071823120e-02
-4.126709976469419838e-01,-4.253216997651955711e-01,-4.072428306262396713e-01,3.790329944918266730e-03,-1.048667217005935619e-02,-1.075669981465409743e-02,3.127788007259368896e-02
-4.002182352656716291e-01,-4.208124522522448396e-01,-4.191282878658057487e-01,6.634135309102798250e-03,-9.198473046268614353e-03,-9.569299170611783242e-03,3.244779631495475769e-02
-3.927094479292047025e-01,-3.931953705831391921e-01,-4.309265027865330500e-01,4.817247896491103770e-03,5.244443213092839055e-03,5.407324505190948781e-03,4.101288318634033203e-02
-4.177780350623575556e-01,-4.281881152782301414e-01,-4.023902650097904155e-01,2.956137357525629068e-03,-2.008885319369541761e-02,-1.093463477989098376e-02,4.583603516221046448e-02
-4.135484456172912049e-01,-4.139327295670034990e-01,-4.109290248350952468e-01,-1.593729855998353472e-03,-9.200381568657230776e-04,1.787004784675704861e-03,5.268314387649297714e-03
-4.153893382632586895e-01,-4.106020186844449027e-01,-4.113763362078775576e-01,-1.024521631274625914e-03,-1.221189975716853145e-03,2.031259656928299621e-03,6.309674121439456940e-03
-4.116520988944868398e-01,-4.169005949572554548e-01,-4.103713443825918183e-01,-1.714680375393034476e-03,-1.800146619029275186e-03,2.374316566160081070e-03,8.447673171758651733e-03
-4.150643368509696063e-01,-4.175382516752508821e-01,-4.067033258301107068e-01,-5.222090036139706223e-03,-4.023686307636744480e-03,2.047435060700900263e-03,1.548121403902769089e-02
-2.920140764097904906e-01,-3.653054540585163878e-01,-4.972586227657946334e-01,1.767570171161695902e-01,9.685901623098948365e-02,7.982368875281757592e-02,4.164659678936004639e-01
-3.065228934861069510e-01,-4.218738940678535831e-01,-4.676983114375933281e-01,7.142167031863100313e-02,3.648683298395622582e-02,2.166243534394791601e-02,2.034611403942108154e-01
-3.258269535934975591e-01,-3.984203345509609306e-01,-4.792331961498383919e-01,7.078830597538010583e-02,1.334482019406158827e-02,9.074384838317774149e-03,1.829787790775299072e-01
-2.426389323643985407e-01,-4.314245584115266041e-01,-5.379005284119144914e-01,1.109876481194092962e-01,2.040585018963245179e-03,-2.006034707017000096e-02,3.244268596172332764e-01
-2.299531694494657552e-01,-4.322792392949881268e-01,-5.659287826861836290e-01,1.725178037462334613e-01,5.317793832917004637e-02,-4.063514830601688832e-02,4.342387914657592773e-01
-2.790109863504824372e-01,-4.395207406914698467e-01,-4.656199053116916731e-01,1.801681952973724909e-01,1.062825957169364205e-01,3.813322523514237755e-02,4.077571034431457520e-01
-4.162894381374783737e-01,-4.131869733180000281e-01,-4.081735174949729372e-01,-1.581190893085146314e-03,-1.579543781647848590e-04,3.921305841358699654e-04,7.638765498995780945e-03
-4.162030576395975845e-01,-3.819951746341004317e-01,-4.418412184472385595e-01,-1.321597032891656288e-02,-3.922686450270847398e-03,2.926108306804140434e-03,5.744872614741325378e-02
-4.361965928591104436e-01,-3.728210013286542557e-01,-4.342561506958493855e-01,-1.814110379451100777e-02,-1.407323731026600272e-02,1.634888276312203986e-02,7.925010472536087036e-02
-4.398678874552172102e-01,-3.449168032197706402e-01,-4.346436975498689237e-01,-3.427504401288813951e-02,-2.303793524072303076e-02,3.485408852165484961e-02,1.315596997737884521e-01
-4.412496553585517067e-01,-3.571459614592247256e-01,-4.367458613247091614e-01,-2.119492403015163506e-02,-1.714665647752160876e-02,-1.255007949206884358e-03,9.460102021694183350e-02
-4.219548997194581541e-01,-3.832549496572446590e-01,-4.474268928767728415e-01,-5.885403941305642622e-02,-9.162847084454845900e-03,-1.502988982799956241e-03,1.173981130123138428e-01
-4.209132174272099403e-01,-3.876548073204690859e-01,-4.314101409188891290e-01,-6.485954311834758734e-02,-2.147183588566857135e-02,3.802051041414335197e-02,1.410868316888809204e-01
-4.052161779612435399e-01,-3.956604582643394319e-01,-4.401307995045812826e-01,-3.095135465299504035e-02,-1.658689762417839275e-02,6.291126926195991613e-03,7.390566170215606689e-02
-4.269134285424112107e-01,-3.824308574359837065e-01,-4.555798900106304838e-01,-7.552901784601839807e-02,-4.584153257295023320e-02,1.880157656770000199e-02,1.689803451299667358e-01
-4.349282904006244732e-01,-3.672423999235923664e-01,-4.638137827150140557e-01,-6.748910836355062615e-02,-3.212617026008639243e-02,-1.068536259034738893e-03,1.553542017936706543e-01
-4.381508065059904200e-01,-3.396037678880464150e-01,-4.470956961997352153e-01,-3.444143029504480313e-02,-2.323496795320460079e-02,1.978170426200535903e-02,1.304806321859359741e-01
-3.196979569554602163e-01,-4.859534443067705656e-01,-4.165374916178758435e-01,3.838244974265693499e-02,6.579438706433128614e-02,2.243672007782673318e-03,1.958063393831253052e-01
-3.600705455761643581e-01,-4.475255349270636507e-01,-4.134445668052211809e-01,4.855945046013270851e-03,8.443007489180724343e-03,4.039579840568662157e-03,7.850404828786849976e-02
-3.910751458770893585e-01,-4.421651021116883573e-01,-3.876394891895463823e-01,1.475964285391893026e-03,2.079626366484762026e-03,8.524894481938468391e-04,5.309618636965751648e-02
-3.445116959120835265e-01,-4.697323283453576082e-01,-4.172541210614468810e-01,5.096081447414957215e-03,3.849171214887703307e-02,-2.705899537233244327e-03,1.280918717384338379e-01
-3.327826495478299895e-01,-4.972267457302049776e-01,-4.084096933469953949e-01,4.917290267370735303e-03,9.127790669528310086e-02,-3.063193344458752833e-03,2.131209671497344971e-01
-3.267810959414182981e-01,-4.333460144359549404e-01,-4.326346745751400436e-01,5.692563502955535343e-02,6.110405583659418716e-02,3.646680871474460711e-02,1.902444958686828613e-01
-3.205624890179448738e-01,-5.598631272734128084e-01,-3.629283008650184272e-01,4.743740469753784245e-02,1.762514867579986488e-01,4.459673697382501856e-02,3.934879601001739502e-01
-4.252834835990182971e-01,-4.554955982007202198e-01,-3.441801456997418684e-01,-4.710232295153395608e-03,1.527812762359985824e-02,2.238783661328189959e-03,1.035504043102264404e-01
-4.136994973062306791e-01,-4.674917489158734174e-01,-3.479209834889055442e-01,1.800011634240705760e-03,3.520418623449234063e-02,7.084532592987935820e-03,1.209838390350341797e-01
-3.840511320967436859e-01,-4.481856740767801717e-01,-3.946212383650012923e-01,9.169191836949093510e-03,2.258093123781261535e-02,7.746940604405949671e-03,7.422277331352233887e-02
-3.783227383487290929e-01,-4.397599511546709250e-01,-3.985861308799946157e-01,1.688451625890268620e-02,3.055515113858620069e-02,1.873068196621876375e-02,8.745763450860977173e-02
-5.074032378494157669e-01,-3.841842489473429323e-01,-3.390668846412786541e-01,9.952597155494099027e-03,2.033469214751128587e-02,1.077537261609290975e-01,2.432037591934204102e-01
-4.235587911529489769e-01,-4.135667848354228626e-01,-4.009292623596278915e-01,-1.539369474590945863e-02,-2.199086546267685002e-02,2.380209176381740954e-02,6.517002731561660767e-02
-4.490783442066907383e-01,-4.458675386410222985e-01,-3.042904365610270556e-01,1.074153532050088795e-02,4.502694208890310745e-02,4.815843413820018043e-02,1.841061711311340332e-01
-4.509130454941700505e-01,-4.193331297124888724e-01,-3.513709358141540173e-01,7.027727185101207905e-03,1.077772869441173502e-02,3.714091152230585696e-02,1.113435178995132446e-01
-3.875488528228099860e-01,-4.446364335339351714e-01,-3.919089818948273685e-01,-1.567161301794329836e-04,1.490444346796733098e-03,1.681683691065529731e-04,5.509914830327033997e-02
-5.160729865152471341e-01,-4.241636589998141749e-01,-2.921505443576566385e-01,-7.698261203286630230e-03,7.003049813230616434e-03,8.081880544298772340e-02,2.406823188066482544e-01
-4.905535567463057411e-01,-4.320429152209020462e-01,-2.999506885215988961e-01,-9.404193635260708548e-03,2.082914337812847086e-02,7.261863446664551525e-02,2.144479602575302124e-01
-3.884220951201132199e-01,-4.382799090752245719e-01,-3.653061534958824130e-01,5.675179346137344816e-02,8.964710698141953316e-02,6.737948343663413553e-02,2.270787358283996582e-01
-3.982315044323961328e-01,-4.000084466454869037e-01,-3.966852686935303796e-01,7.125264949868913289e-02,7.864431387720087485e-02,9.546351640559753993e-02,2.472524046897888184e-01
-4.113948933864683410e-01,-3.987382681613017565e-01,-4.092334949466334137e-01,5.084496708275694499e-02,4.812476123454478144e-02,5.033602907593814207e-02,1.498074233531951904e-01
-3.556715966315565636e-01,-4.305935860629152012e-01,-4.233937367635202120e-01,7.311729104210888674e-02,6.026089413568506276e-02,5.116747865372289067e-02,1.997813582420349121e-01
-3.891853364341639754e-01,-3.756980187554378459e-01,-4.288468502891165102e-01,8.678653912118991509e-02,7.620157649590594828e-02,6.579825667858463234e-02,2.351464480161666870e-01
-4.034579827018565101e-01,-4.465883786241633957e-01,-3.677627254485647534e-01,6.213854884428157872e-03,1.132070689327701468e-02,4.423988721357551175e-03,7.233919203281402588e-02
-3.714318974969240683e-01,-4.436635675988810923e-01,-3.911898282306278118e-01,4.859407031620752854e-02,7.291849526716176477e-02,4.903836954309567786e-02,1.855542957782745361e-01
-3.679942325874840936e-01,-4.532610819411373448e-01,-3.916610497737947894e-01,1.703492125632075430e-02,3.573958811415737374e-02,2.110853435385041943e-02,1.088659241795539856e-01
-3.817842253921628348e-01,-4.517573118818184463e-01,-3.826294666391738541e-01,3.757115607327527352e-03,2.082736656181319312e-02,-1.792351879763345261e-03,7.868371158838272095e-02
-4.721334904616469319e-01,-4.741027928076660958e-01,-3.153017864336801757e-01,-3.504422756126298472e-02,1.458139649576232870e-02,-4.103652498094861184e-02,1.851568073034286499e-01
-4.895459810168758530e-01,-4.687088197498646691e-01,-2.630600442445946152e-01,1.510109975263984952e-03,2.478106708292711347e-02,1.996910007964172035e-02,2.237323969602584839e-01
-4.990543166018681642e-01,-5.032341721300062076e-01,-1.807969278062845631e-01,-2.906881086630801539e-04,6.958187269711028911e-02,9.206390377498040178e-02,3.776082098484039307e-01
-5.171002940562631212e-01,-5.765139733901869512e-01,-1.561397416538903848e-01,-6.164879708951283982e-02,5.711068253724078253e-02,7.177704346915404765e-02,4.380764067173004150e-01
-4.711326992427730120e-01,-4.691736766485389842e-01,-2.784994142143068507e-01,-5.017603461936782916e-03,5.575585153245773279e-02,2.040832471374405543e-02,2.176814675331115723e-01
-3.950334824619441410e-01,-4.070176351952752292e-01,-4.371560647648566333e-01,9.958572383534954400e-03,-3.534604015552365169e-03,-8.112780051585333219e-03,4.410872608423233032e-02
-3.591095989789359622e-01,-3.929109434117747934e-01,-4.609495111032224091e-01,4.124480756208103588e-02,-3.705049660577703838e-03,-2.955336269432221573e-03,1.150754541158676147e-01
-2.875078351648218122e-01,-4.498504996719088767e-01,-4.919209843634774759e-01,3.654821691385331389e-02,1.118164264274393305e-02,-1.603134791574323606e-02,2.002706080675125122e-01
-3.490611757506392743e-01,-3.822387888288207858e-01,-4.795540708787039974e-01,1.048000339555124338e-01,9.516736191752077356e-03,1.543717614144259065e-02,2.184844911098480225e-01
-3.867376385615292067e-01,-3.551718930553910969e-01,-4.636652359883041696e-01,4.801595497438367749e-02,7.671824089155798027e-03,1.119259988007664797e-02,1.296592354774475098e-01
-3.808174983911828404e-01,-4.037480183473152739e-01,-4.415506013375496974e-01,2.317865822851876770e-02,-8.061949366685652874e-03,-1.202633901497567222e-02,7.114992290735244751e-02
-4.585357807593952173e-01,-3.951818123760131307e-01,-3.997575345474331798e-01,-3.057996644621726809e-02,-1.480592727600829660e-04,-5.303739220738029614e-02,1.224301308393478394e-01
-3.801941713828728142e-01,-3.963514519755176879e-01,-4.539829858608205315e-01,1.900884727673978619e-02,-2.080390230642836531e-03,5.951765363143341923e-04,7.491111755371093750e-02
-4.596677736080156951e-01,-3.342186340903016695e-01,-4.376916570315012023e-01,-9.074463934776783383e-03,-1.628966928567916056e-02,1.029223854883829121e-02,1.217556521296501160e-01
-4.859857278748723752e-01,-3.322641770598847577e-01,-4.357345763066694522e-01,-4.829021405246482906e-02,-3.256428770413205553e-02,2.491739420443684835e-02,1.745582222938537598e-01
-4.356649126727727972e-01,-3.994599787020727821e-01,-3.962150572619321243e-01,-3.766896005744736330e-03,-3.149936555321402026e-03,1.567154385215361635e-03,3.896808624267578125e-02
-4.534630061669613355e-01,-3.328033463902593247e-01,-4.588530224941350655e-01,-3.772051945108214482e-02,-1.864213914744632453e-02,2.674779775990931280e-02,1.506505757570266724e-01
-3.918329453814212160e-01,-4.346227080170370072e-01,-4.233314664782623082e-01,-3.181989090206836096e-02,-3.220594697867032452e-02,2.230307221187924262e-03,8.740374445915222168e-02
-5.330391051967529048e-01,-3.074731134092422158e-01,-3.603455401902845856e-01,-4.694976190937787813e-02,-5.101772963693738255e-02,1.335702346152181641e-01,3.312002122402191162e-01
-4.489485126684322203e-01,-3.715616588156825384e-01,-4.171790716277682387e-01,-9.964686437699847230e-03,-1.151357463818950162e-02,2.281775324363626706e-02,8.244396746158599854e-02
-4.559292152895386696e-01,-3.577505023126883454e-01,-4.172866485195058095e-01,-2.033005418611272958e-02,-1.052806046514841339e-02,3.551431255934511810e-02,1.126706823706626892e-01
-3.868190334704610933e-01,-4.435906629545703916e-01,-3.837283596798889418e-01,7.267099714554852742e-03,1.667013006559734528e-02,7.083429359033334774e-03,6.745865195989608765e-02
-4.678643106201639257e-01,-3.110250040561556850e-01,-4.405241475563479447e-01,-1.534349093206650166e-02,-1.299104857685623796e-02,4.527315105960536684e-02,1.685810983180999756e-01
-4.030562780724211147e-01,-4.288174329683827612e-01,-3.875121147793957332e-01,9.311784601482398643e-03,1.444308974322773380e-02,1.008157340148926016e-02,4.996543377637863159e-02
-4.648218804119192971e-01,-3.453669740125691612e-01,-4.207880869687846137e-01,-3.348362233654950983e-03,-1.393937447500607357e-02,3.805274814371416986e-02,1.261308193206787109e-01
-4.588070890065932828e-01,-4.573441978858231449e-01,-3.001958065883522098e-01,8.216013663610532937e-04,1.184054467387768948e-02,2.069564480207995716e-02,1.632029265165328979e-01
-4.501431717665762555e-01,-4.583574104523074344e-01,-3.123666486011518750e-01,1.500333173160512150e-03,1.891089358566860890e-02,1.375446737892360369e-02,1.477455496788024902e-01
-4.514259582043423924e-01,-4.936886049633268381e-01,-2.890049343633167012e-01,-1.368875370063695612e-02,3.222419754804136532e-02,3.860766827026261561e-02,2.077981233596801758e-01
-4.660824522618690069e-01,-4.900131931927331763e-01,-2.867824190943350504e-01,-1.600240740911982110e-02,4.677384440070227190e-02,2.748768183489618336e-02,2.158941626548767090e-01
-5.215998902698992801e-01,-4.846262593815880426e-01,-1.905743460515450516e-01,-2.105126941618878922e-02,2.323134509992085678e-02,8.645072849128819514e-02,3.522435128688812256e-01
-4.773092968749148013e-01,-4.555351151657784925e-01,-2.985872224324605528e-01,-8.815027655044245861e-03,2.723788056759937886e-04,1.113608917809678564e-02,1.706737875938415527e-01
-2.390362563788417938e-01,-5.290933931627026521e-01,-4.688992794626606897e-01,1.010438134230649682e-01,1.397051542890349884e-01,3.590892062543751817e-02,4.041624069213867188e-01
-4.738964390046320752e-01,-4.951355044314884601e-01,-2.711064156144019632e-01,-8.805777009494071203e-03,5.399046497973550643e-03,1.408420173214027134e-02,2.163264453411102295e-01
-4.182901617984413067e-01,-3.935429875347847273e-01,-4.053704021931717749e-01,2.239161400066952759e-02,1.858294264932566775e-02,2.739800038987199454e-02,7.246859371662139893e-02
-3.989986428433694443e-01,-4.430211806101689298e-01,-3.884072562172419807e-01,-2.770297399565261644e-03,2.029108487470638027e-03,-3.935565721725985643e-04,5.051990970969200134e-02
-4.412220871942115208e-01,-4.472076369785019656e-01,-3.444565765988282235e-01,9.311507518939658723e-03,3.969045868972735647e-02,3.650484796781174046e-02,1.377044171094894409e-01
-3.697739321593910278e-01,-4.445865195068843256e-01,-3.973022013359476801e-01,3.557816711667407400e-02,5.125279347230718430e-02,4.404965143168890901e-02,1.476290822029113770e-01
-4.013721653861567207e-01,-3.800921721497412809e-01,-3.966619939912790493e-01,7.997197780832208946e-02,7.415356730393783680e-02,8.063563404345039376e-02,2.357199937105178833e-01
-4.598241628176997775e-01,-3.881238586537856805e-01,-3.487742768585440634e-01,6.443094348860041454e-02,7.564891502497364528e-02,1.046299664336610286e-01,2.682821452617645264e-01
-3.128370190006729001e-01,-5.036189115470911526e-01,-4.241519491202631054e-01,-1.419140103805126979e-02,3.897901325220166219e-02,-2.223191771850851345e-02,1.849240958690643311e-01
-3.910988799022467877e-01,-4.649302069361850309e-01,-3.504363024815225214e-01,1.198863159150326263e-02,4.846691901333689823e-02,1.784158145838671619e-02,1.361615061759948730e-01
-3.974924875056710660e-01,-4.461732071102242903e-01,-3.608630036016268194e-01,1.772812884212297824e-02,3.410680558045214861e-02,2.389380649469492399e-02,1.078893169760704041e-01
-3.731400107867238747e-01,-4.529158486556850716e-01,-3.782912026110440418e-01,1.250414575133393554e-02,4.361353799035562473e-02,1.643942227961654387e-02,1.138684526085853577e-01
-4.538672246408596567e-01,-3.261733514366138009e-01,-4.602819760413104921e-01,-1.248271332105833735e-02,-1.263596969928278135e-02,1.371457862118790998e-02,1.366628110408782959e-01
-4.731900287534214211e-01,-3.335150189165990708e-01,-4.157407407196174187e-01,-8.984471034095128580e-03,-1.257109648109451354e-02,5.211144368444844271e-02,1.537802517414093018e-01
-4.480254362356074771e-01,-3.456730592715688832e-01,-4.662042055933148244e-01,-5.184009532880805293e-02,-3.012374899952337606e-02,2.428648672030294178e-02,1.588115990161895752e-01
-3.595457149457582102e-01,-4.424031911687961172e-01,-4.179694507261876857e-01,2.053659837706031319e-02,3.098690355151432693e-02,8.698566454770828224e-03,9.904880821704864502e-02
-4.728266455443759231e-01,-4.833028501804863541e-01,-2.877607810506207509e-01,-6.167502282984091942e-03,4.077038253531830442e-02,3.536877062228083179e-02,2.124889343976974487e-01
-4.250112584524448067e-01,-4.416128923356423264e-01,-3.718503622894580585e-01,2.297423427698829738e-03,-1.284333001083454509e-02,-8.120304119986746297e-03,6.850371509790420532e-02
-5.133973587368294567e-01,-2.159509873268921909e-01,-4.565184382365983229e-01,-4.879937806271684303e-02,-4.846502967434378889e-02,1.111928022237815977e-01,3.550681173801422119e-01
-4.607263209668969184e-01,-3.208560719608071765e-01,-4.590548407604339576e-01,-2.464640458059303915e-02,-2.371963042229355279e-02,1.673588804923429457e-02,1.538933366537094116e-01
-4.794379528175701233e-01,-3.010582217590385135e-01,-4.636749094632330870e-01,-2.452727439972443579e-02,-3.755320500878797652e-02,2.560238003479994515e-02,1.930231302976608276e-01
-4.594143723157574355e-01,-3.320321116637456327e-01,-4.316383724146150569e-01,-1.314989278525047905e-02,-1.682825520874581607e-02,1.946717827543791024e-02,1.263519674539566040e-01
-4.957570046229745619e-01,-2.720270837488313331e-01,-4.656179696650130651e-01,-1.502676825224329019e-04,-1.039974805006016641e-02,4.493085221798727436e-02,2.249473482370376587e-01
-4.542646307834874442e-01,-4.193888530241929868e-01,-3.543024221800002427e-01,-1.165882554273644026e-02,-6.052655244904839998e-03,1.452691197418016014e-02,9.419811517000198364e-02
-4.034299548408674108e-01,-3.918228032165221308e-01,-4.513449106391693166e-01,-5.189767899524277972e-02,-5.509563839986772286e-03,-1.788515758634230679e-02,1.100796759128570557e-01
-3.950981079849117394e-01,-4.189409568004716644e-01,-4.242011628145071489e-01,-1.625067838031571052e-02,1.104691209550662245e-02,-1.187780626756654648e-02,4.799138382077217102e-02
-4.138621245779141589e-01,-4.240248848296222506e-01,-4.038742373466491231e-01,-1.163933106490665746e-02,4.022281886182800699e-03,-1.021976263407720770e-02,3.275413066148757935e-02
-3.623399596040999260e-01,-4.454494340094705684e-01,-4.168459261233265489e-01,-2.539450175745255889e-02,2.758765841014467271e-02,-2.174324415346510705e-02,1.048060506582260132e-01
-4.064969043841635266e-01,-4.148528516816821776e-01,-4.146062712691631069e-01,-5.808636673567653744e-03,4.838494738760650352e-03,-5.647124027806408979e-03,1.830153353512287140e-02
-4.003296577564676717e-01,-4.251776421341825207e-01,-4.098053013276924950e-01,-9.133249394441258703e-03,7.648848792004159930e-03,-1.125942448669731838e-02,3.574698418378829956e-02
-4.122964924320275948e-01,-4.036832439531474748e-01,-4.196298982921896625e-01,-1.733633377913094617e-02,1.118079308377052661e-02,-1.343142342186320892e-02,4.482205584645271301e-02
-4.028548396056513270e-01,-4.214861326011834497e-01,-4.158568230581456415e-01,-8.691552115853267910e-03,6.979542291286952929e-03,-1.142886067771876207e-02,3.222670778632164001e-02
-3.492301904320009309e-01,-4.421283425616338025e-01,-4.425529879288352952e-01,-4.767993568482492561e-02,3.027171525666817742e-02,-3.298779292901139054e-02,1.466408520936965942e-01
-4.045025607598428108e-01,-4.079154517274084513e-01,-4.281457526739825270e-01,-6.055352564819504058e-04,8.849526107936386962e-05,-1.866905178432431457e-03,2.239500544965267181e-02
-4.062171972495885464e-01,-4.139794677381296584e-01,-4.174331283293400419e-01,-6.032005767988376892e-03,3.574798949332684203e-03,-7.147167038814964540e-03,1.999319158494472504e-02
-4.100214388533598431e-01,-4.094125677184818346e-01,-4.265719081573016158e-01,-1.480104156490777596e-02,2.019902709697536485e-03,-9.690313152742937100e-03,3.515003249049186707e-02
-3.998495257108431455e-01,-4.416506558695469931e-01,-3.911326856676528019e-01,-7.695021582503524388e-03,1.331874875074805578e-02,-2.391126946283092178e-03,5.398751050233840942e-02
-4.436814430493635220e-01,-3.898138041756030181e-01,-3.941231512437848306e-01,-1.850942755504272430e-04,-2.586284807427314571e-03,1.841409810780003263e-03,5.213924124836921692e-02
-3.614727058096893764e-01,-4.434016852141750009e-01,-4.220975968957672020e-01,-2.448794063983726274e-02,2.837335606272995206e-02,-2.523750224661732919e-02,1.074509844183921814e-01
-4.012925433889611426e-01,-4.111126442891506749e-01,-4.245724322009964413e-01,-9.996527423830611075e-03,5.892189658080520566e-03,-8.106596807825048809e-03,3.179422765970230103e-02
-3.391642414633386782e-01,-4.951163025464053735e-01,-3.922689284216355210e-01,-8.840772587954017284e-03,8.426373492076313920e-02,-3.556550426905752404e-02,2.102134376764297485e-01
-3.643393666259573394e-01,-4.305180597920384433e-01,-4.489354228047636730e-01,-4.634758466411031258e-02,4.416955539281645915e-02,-3.364132297072078281e-02,1.470714658498764038e-01
-3.843654465777950335e-01,-4.260072208110572967e-01,-4.343827146691848218e-01,-1.757822024397342683e-02,5.273602497310981956e-03,-1.501835293385136300e-02,6.196792423725128174e-02
-3.608134973517101440e-01,-4.596018522217296676e-01,-4.139018542458370864e-01,-1.773032781639609715e-02,2.647665102071798671e-02,-1.825693754235873517e-02,1.066727787256240845e-01
-3.006693365784574024e-01,-4.822930925608652775e-01,-4.604187652514767359e-01,-2.230919238122825582e-02,3.238102693800926080e-02,-4.342675756386076696e-02,1.994720995426177979e-01
-3.291540814618930111e-01,-4.865761459524770016e-01,-4.384839358830178724e-01,-4.934181654337229522e-02,3.914559599050567579e-02,-5.567033985087854742e-02,2.017977386713027954e-01
-3.398613975765525375e-01,-4.389659931502694623e-01,-4.521154390426521119e-01,-6.972655953145175112e-02,3.641477089529396999e-02,-1.009579805866461441e-02,1.736866682767868042e-01
-3.556240128998415240e-01,-4.670351950773505845e-01,-3.669979245950849567e-01,2.988899940410492256e-02,8.474901513375596163e-02,2.930916462340493744e-02,1.951383203268051147e-01
-3.546628052123658725e-01,-4.544593973519083230e-01,-4.357111674507766486e-01,-1.971252733659638323e-02,2.779217821490400503e-02,-1.632901336779461060e-02,1.127950474619865417e-01
-3.171144902556204404e-01,-4.897918394792637464e-01,-4.562713140495952002e-01,-4.210652383051326220e-02,4.361237962079909242e-02,-3.362633294923672578e-02,1.989222019910812378e-01
-4.832262314440936568e-01,-4.476235521008068430e-01,-3.047727073948042764e-01,-5.934479415591161627e-02,-5.508334970806826741e-02,9.467327217318761978e-02,2.707707881927490234e-01
-4.829127122298583208e-01,-4.253443287833859610e-01,-3.480889671136529473e-01,-6.370876852752045683e-02,-9.718952292087622291e-02,1.001824390363916656e-01,2.904365062713623047e-01
-4.380367636618112126e-01,-4.427045799062183651e-01,-3.594643858729246189e-01,-1.853822051520138264e-02,-1.757210280630679133e-02,5.201205945215783659e-03,9.273973852396011353e-02
-6.111580069721137543e-01,-3.577401194786835603e-01,-2.623063525136010710e-01,-4.841702339639268604e-02,-4.525994618473049708e-02,1.485198043705478477e-01,4.205535054206848145e-01
-6.335400333885555790e-01,-4.028249394303683451e-01,-2.418631919777541883e-01,-9.833349559308926513e-02,-5.639741562369968847e-02,1.403145898938172043e-01,4.624818265438079834e-01
-4.393160596257508210e-01,-4.399014463390729102e-01,-3.645549856140579692e-01,-1.118352473289154977e-02,-2.981472694568487389e-02,8.367729603497514948e-03,9.426213055849075317e-02
-6.072425652230333259e-01,-3.362030410452838680e-01,-3.357398790579232406e-01,-4.707820630460113343e-02,-7.889230535615775197e-02,1.557023098823112073e-01,4.142931997776031494e-01
-6.610768982082890766e-01,-3.318620104891754075e-01,-3.095846365148502422e-01,-2.530293420496781270e-02,-7.690932546825064720e-02,1.486836931966322717e-01,4.496655762195587158e-01
-3.943794523234923632e-01,-4.261645860295114607e-01,-3.984546463904163893e-01,1.034664985283619519e-02,1.314367667835802077e-02,8.012453120388493555e-03,4.392490908503532410e-02
-4.000402553279073792e-01,-4.132497899250380802e-01,-4.075157597093280737e-01,6.509623203004413598e-03,1.179808192146514743e-02,1.104063195970628880e-02,3.228038921952247620e-02
-4.476719651136962241e-01,-4.140032845879507151e-01,-3.611856196707647348e-01,4.634942191088058973e-03,6.515030127384056208e-03,8.628892951252889812e-03,7.820962369441986084e-02
-4.101356864642770605e-01,-3.526539707567791782e-01,-4.130199664719155228e-01,7.509088487295835501e-02,5.204602966995371116e-02,7.236847073040172940e-02,2.103143781423568726e-01
-3.949038163344927299e-01,-4.103042654073357776e-01,-4.056443562033700823e-01,3.725266508202015187e-02,2.779377863265798318e-02,2.369277120546608301e-02,9.138890355825424194e-02
-3.937637926752392548e-01,-4.281536758702257917e-01,-3.940403126696783165e-01,1.073028290769461289e-02,1.925076406758812961e-02,1.324082004708167400e-02,5.618168413639068604e-02
-2.927294329383044458e-01,-4.057953915908434350e-01,-5.108568904571589853e-01,1.812535936513653412e-01,1.020377516339353308e-01,6.678570837514972991e-02,4.229366481304168701e-01
-3.825411570683807105e-01,-4.433694015179122649e-01,-4.136456615384120905e-01,-8.856733608364144097e-03,1.331639487657092918e-02,-1.220399081328335175e-02,6.316367536783218384e-02
-3.993741097746485447e-01,-4.308952273423448665e-01,-3.930316121640974325e-01,2.084646760346822378e-02,2.305701593469970320e-02,8.565191353629443213e-03,6.597288697957992554e-02
-4.099929886138161117e-01,-4.199341784338760930e-01,-4.114459885012438645e-01,2.977775771880387251e-02,-6.023436955092554418e-02,-4.060756536421917390e-02,1.363015025854110718e-01
-3.726635634934730157e-01,-4.179684290663846502e-01,-4.450800536351315340e-01,2.416380592352635262e-02,-8.227830999950461188e-03,-1.254624417192086970e-02,8.026733249425888062e-02
-3.554870937007517662e-01,-4.288260876655377030e-01,-4.435877045028687737e-01,3.507974797782847237e-02,-3.865578818470948030e-02,-2.659424820203999673e-02,1.302898824214935303e-01
-3.578150507461341223e-01,-4.313913204406337742e-01,-4.304950219205606610e-01,3.548761946950481500e-02,-3.394856026319498232e-02,-2.364642374297669034e-02,1.194211542606353760e-01
-3.144037876301023493e-01,-4.120605651688629689e-01,-4.915100347468670527e-01,1.010419789495230897e-01,-6.076997051764781999e-02,-5.564472100746354483e-02,2.731378078460693359e-01
-3.397282349266708690e-01,-4.328125462113291411e-01,-4.755245174834052402e-01,3.838488409029831155e-02,-3.490644503225056455e-02,-4.770598439333217228e-02,1.713708788156509399e-01
-3.698761029631442709e-01,-4.102897858491372229e-01,-4.301933493509057516e-01,2.919681849871133203e-02,2.392849246629626808e-02,2.732418957462993958e-02,9.668871760368347168e-02
-3.616176143657666708e-01,-4.209821915228164069e-01,-4.343009676795710483e-01,2.720435019259441478e-02,2.476848603364065204e-02,1.760374914464653620e-02,9.737836569547653198e-02
-4.193099772481450604e-01,-4.375911590743311042e-01,-3.913613834318794837e-01,-1.312584697110749654e-02,-2.004129149720213984e-02,5.252755270024530958e-03,5.857351794838905334e-02
-3.906048034958210513e-01,-4.464961066163185555e-01,-3.869030611553078147e-01,-7.643305940886853216e-03,2.109873993717212987e-02,-8.252180147360847068e-03,7.112989574670791626e-02
-4.104846182406662880e-01,-4.382306806157337253e-01,-3.811001193370640583e-01,-1.133846765117345508e-02,1.210873960529175106e-02,-1.095549360666706225e-02,6.028443202376365662e-02
-4.031443320357029347e-01,-4.480012872329230955e-01,-3.776235600182475949e-01,-2.847772720170933455e-03,2.312764064594231839e-02,-7.327862509104591908e-03,7.482196390628814697e-02
-4.144829144104990037e-01,-4.499809868629876530e-01,-3.614495248404326899e-01,-9.358527843549652170e-03,8.567719977548604246e-03,-7.825572042430430086e-03,8.137517422437667847e-02
-4.053580499663341219e-01,-4.384943953105013281e-01,-3.875409854632873019e-01,-8.799364332557279081e-03,3.741090671451165802e-03,-8.965880426235181555e-03,5.021247267723083496e-02
-3.981892350272200343e-01,-3.975365653031286417e-01,-4.397167249196597405e-01,-1.801805193104754482e-02,-3.151219961863811498e-03,-2.174413934706565660e-03,5.263067036867141724e-02
-3.828104135359586824e-01,-3.981538517748410833e-01,-4.650782951706758372e-01,-4.096548978273328867e-02,-3.410946127497597319e-02,1.332305247596391948e-03,1.194627881050109863e-01
-4.075076677230246580e-01,-4.138299274032199992e-01,-4.226091276346925496e-01,-2.668498066513014591e-02,-1.653305223130717080e-02,1.674940872475616863e-02,6.301164627075195312e-02
-4.070527752259802678e-01,-3.815812919307302042e-01,-4.459144173767061181e-01,-3.690392569783790960e-02,4.202916197885319359e-03,-1.647278568442834754e-02,9.000910073518753052e-02
-4.162136112977440350e-01,-3.893328957652157363e-01,-4.427524388783426468e-01,-5.048893308708460315e-02,-1.803191219959782501e-02,2.194023018832412866e-02,1.104863435029983521e-01
-4.206381104876111277e-01,-4.137796884925968866e-01,-4.055236603705998921e-01,1.817090349652582650e-03,-3.034029167418203585e-03,-3.595794999725427255e-03,1.575226895511150360e-02
-4.114824047845201394e-01,-3.900197942889850333e-01,-4.352393974920091280e-01,-4.351889902393039911e-02,-2.822777853354722227e-02,1.442319429788071171e-02,1.011489853262901306e-01
-3.902055543851726260e-01,-4.333676177062114054e-01,-3.955386324509178042e-01,1.823583477550071033e-03,9.172856417002901242e-04,3.973141003022193085e-03,4.148586466908454895e-02
-3.949606088769944678e-01,-4.136936628405287197e-01,-4.400344845651361081e-01,-2.049119221274431704e-02,-8.521232149260586641e-03,-2.676898632807908109e-03,5.511087551712989807e-02
-4.569520963210115250e-01,-3.861122809969433911e-01,-3.606778005942699039e-01,1.171716606364698876e-01,1.381032328933911313e-01,1.740144177934440928e-01,4.435257911682128906e-01
-3.747939155982178971e-01,-4.334149282689533367e-01,-4.433670778318352101e-01,-2.573041972500976146e-02,3.005083900563867809e-03,-1.411281584136536704e-02,8.203440159559249878e-02
-3.854858336301535959e-01,-4.193979077265486133e-01,-4.320502842328696191e-01,-1.318520897044202222e-02,8.493413535610078863e-03,-7.983747547299387473e-03,5.165620893239974976e-02
-3.829800710762849003e-01,-4.188167249234384104e-01,-4.388391641013984490e-01,-1.741755779439210089e-02,3.848017626192036717e-04,-8.274793003854268372e-03,5.931842699646949768e-02
-4.141367003058665786e-01,-3.895634344581688224e-01,-4.408426652411498448e-01,-4.628802588260250150e-02,5.818235512725076532e-03,-9.875505402546492367e-03,9.378264099359512329e-02
-4.178352516698786157e-01,-3.831333854185911547e-01,-4.474553293458489733e-01,-1.925929663703317835e-02,-1.281065388696405946e-02,-3.208101012110498029e-03,6.888698041439056396e-02
-4.148161288446258754e-01,-3.880114738291481902e-01,-4.371063803573279616e-01,-1.547409197758156836e-02,4.135554166704206482e-03,-1.017362826915001271e-03,5.084863305091857910e-02
-4.175108535019706468e-01,-3.830210163318442662e-01,-4.405475387177954505e-01,-9.922504583296687386e-03,-3.534097209195658125e-03,-2.084986662718421417e-03,5.348503217101097107e-02
-4.197878266999300889e-01,-3.825950823761108399e-01,-4.450546544314078479e-01,-1.512692482912449642e-02,-1.561724961968043342e-02,-5.386166775550695236e-03,6.683303415775299072e-02
-4.425313485575695926e-01,-4.183002031858347181e-01,-3.717859274677768333e-01,-1.448256245317394719e-02,-1.492266964393612269e-02,1.231191015309900452e-02,7.503240555524826050e-02
-4.488883734208174436e-01,-4.497838921708329218e-01,-3.531752585109390052e-01,-9.464491669782283678e-03,-2.194613890136057691e-02,-4.001937092828424317e-03,1.049246862530708313e-01
-4.145278611666909918e-01,-4.148615307674960451e-01,-4.081970452431806784e-01,-1.514234771338009459e-03,-6.233149507661746140e-05,3.036708522354753578e-04,7.033490575850009918e-03
-4.400537394303752903e-01,-4.587150338699871877e-01,-3.505072192009768273e-01,-4.251606525015124045e-03,-3.411027320170486460e-02,-2.297376193749291196e-02,1.231503933668136597e-01
-4.439864989278663465e-01,-4.626817271972391010e-01,-3.638881249643541871e-01,-1.168241554813187824e-02,-5.520211866157494901e-02,-6.588820765569803305e-03,1.339560151100158691e-01
-4.573034665433163282e-01,-4.797013827685929765e-01,-2.725971871352133591e-01,-1.868506731468040291e-02,-8.862015288084892917e-02,1.914919070364288003e-02,2.538959980010986328e-01
-4.570672251550804144e-01,-4.802021237854284808e-01,-3.097030273645350329e-01,-2.328682652092116043e-02,-4.458555981297273457e-02,-2.390637812648732999e-02,1.869911104440689087e-01
-4.856929595422111445e-01,-4.954478309878062037e-01,-2.244396610072221243e-01,-1.005618459216010840e-02,-4.873639405390407797e-02,1.063456783220528661e-02,2.804733514785766602e-01
-4.056019015407451023e-01,-4.257777858729770992e-01,-3.903351127670980358e-01,6.836573518519095671e-02,7.638356856505917891e-02,7.206885663633409711e-02,2.192142605781555176e-01
-4.123557089696129330e-01,-3.949979717643511967e-01,-3.964725835468559945e-01,5.653463321582587880e-02,7.600129548064378515e-02,6.402126785720264890e-02,1.987237334251403809e-01
-3.992967775500929073e-01,-4.267654016028842312e-01,-3.847316231302771450e-01,1.279806826526769768e-02,8.796905289524890870e-03,7.338854144318777105e-03,4.745374992489814758e-02
-4.383795356886674432e-01,-4.494792932188986789e-01,-3.535314790790192174e-01,-1.481232194744391308e-02,-1.426946535901709757e-02,-5.618998530640283498e-03,9.812225401401519775e-02
-4.080515878113019079e-01,-4.213136256585906514e-01,-3.862156572181917880e-01,9.804814219657512903e-03,4.433300344387334883e-03,3.876235371855256233e-03,3.653381392359733582e-02
-3.993241641316950807e-01,-4.349668709507960584e-01,-3.828829643201906441e-01,7.712171191985524137e-03,7.217914952232439355e-03,4.466660407833575840e-03,5.021259933710098267e-02
-3.899189888315345298e-01,-4.365586678760263739e-01,-3.828286951015208439e-01,1.187552812339573438e-02,1.858669786693145642e-02,1.254311281252200490e-02,6.699022650718688965e-02
-3.814797876790929076e-01,-4.466563037405259506e-01,-3.930106280631907589e-01,4.813590466902230823e-03,1.587411077891747596e-02,2.535171224455860708e-03,6.688911467790603638e-02
-4.012221819404424017e-01,-4.495121390541436668e-01,-3.742809893909719299e-01,5.684997262844168099e-03,1.914451115941285739e-02,4.904948453442880586e-03,7.501604408025741577e-02
-3.887139038195115415e-01,-4.472491069296856137e-01,-3.809602337570425212e-01,1.520874383133278239e-02,5.072229043063267162e-02,2.058779374983310886e-02,1.167222931981086731e-01
-3.872377442779905699e-01,-4.100661498418474160e-01,-4.082430543936401701e-01,2.190223080310878603e-02,2.581123910075109121e-02,2.170245544231296300e-02,7.303159683942794800e-02
-3.990935175129339818e-01,-4.382244220557378611e-01,-3.805146222695437452e-01,8.041427000354746044e-03,6.963043721433381274e-03,4.529525014649728003e-03,5.481247603893280029e-02
-4.219145569399759821e-01,-3.893630983823312963e-01,-4.081936301125471123e-01,1.197813670419705691e-02,1.155208403265017315e-02,1.367311075440683088e-02,4.682805016636848450e-02
-3.998167098752560267e-01,-4.172536951058793964e-01,-4.041464101914982732e-01,1.721441858955791160e-02,1.846917511532034789e-02,1.820809307882995803e-02,5.616263672709465027e-02
-4.202780801199751393e-01,-3.715471219290778504e-01,-4.261415379663237579e-01,2.478110175601576370e-02,1.305963114217413741e-02,2.490536208277336488e-02,8.312412351369857788e-02
-3.972373563684726827e-01,-3.961205981929116771e-01,-4.158489694396505509e-01,1.063914356232694043e-02,1.022073284303160086e-02,1.294564392991354694e-02,3.904045745730400085e-02
-3.896512713749630263e-01,-4.183023961062995455e-01,-3.826977499570288210e-01,6.907589934198783699e-02,1.104978635636234968e-01,7.983941957744009055e-02,2.667118906974792480e-01
-3.341510084835100369e-01,-4.162408852591065189e-01,-4.870807074387433766e-01,-1.319635153335820266e-01,-3.517543401146816517e-02,4.708007256695831422e-02,2.831552624702453613e-01
-4.077655925238549695e-01,-4.239547350347629417e-01,-3.877961711997498506e-01,1.048150705958782181e-02,1.268526341882366543e-02,9.264974611712540470e-03,4.532115161418914795e-02
-5.527724441976966663e-01,-2.944343933109043743e-01,-3.979129631770791931e-01,-1.151351871325888149e-01,-5.063970765801976970e-02,1.349077437518352574e-01,3.908652961254119873e-01
-3.729020458496680179e-01,-4.979996137880381979e-01,-3.833236120328811780e-01,-3.423576919346529163e-02,7.587690355687835841e-02,-4.059159000974854603e-02,2.004632353782653809e-01
-3.729095732289097742e-01,-4.896555037025506207e-01,-3.555415621939291282e-01,-1.433892679077827369e-03,8.205872948181754112e-02,2.760132250787755356e-02,1.960904747247695923e-01
-3.895173759168352179e-01,-4.664145781178571371e-01,-3.636466673446424602e-01,7.180644094368471286e-03,3.916201134004202583e-02,-1.370221456293270338e-03,1.154693290591239929e-01
-3.853984869984207196e-01,-4.504790301313442158e-01,-3.869238558174279974e-01,-1.198033132894380220e-03,1.538834336552498058e-02,-2.570844884665575685e-03,6.980737298727035522e-02
-4.450110286670373450e-01,-3.510659945482092481e-01,-4.487291781900064058e-01,-3.578854672725233829e-03,-9.604281643549714489e-03,1.004783136934475456e-02,9.902940690517425537e-02
-3.659264944156763177e-01,-4.256102620405537440e-01,-4.196829940552141980e-01,2.511330481132322337e-02,2.650804678422717664e-02,1.456055597894757338e-02,8.876720070838928223e-02
-3.566091754391694235e-01,-4.431733820328367934e-01,-4.194336171673972435e-01,2.702498617278021112e-02,3.132397879830758902e-02,9.881731068990824707e-03,1.069088131189346313e-01
-4.038586289356844716e-01,-4.038302981701368810e-01,-4.318494212010956512e-01,-1.339642351030541877e-02,-8.109571195897016804e-03,8.101355674848962490e-03,4.143503308296203613e-02
-3.969120045335999825e-01,-3.836591892373634183e-01,-4.430999597688610736e-01,2.262829457394673408e-02,6.908070666512163699e-03,6.948936078764466479e-03,6.888563930988311768e-02
-3.456712770280555569e-01,-4.193959092978450931e-01,-4.478993347492542521e-01,3.798469548266651674e-02,2.872494866528486207e-02,1.684549268576622863e-02,1.265083551406860352e-01
-3.865441772669069298e-01,-4.081942070872272010e-01,-4.241690682393578493e-01,3.673702858458952752e-02,3.142279147116581323e-02,2.784439692787684523e-02,1.020132899284362793e-01
-4.396147586266684337e-01,-3.896842061027217530e-01,-3.894378575080801874e-01,-2.069128397131459601e-02,-2.474297209319914481e-02,4.280706244474873773e-02,1.054693609476089478e-01
-4.339722361289561348e-01,-3.840489065936650293e-01,-4.268952540638245585e-01,-2.272914631736903945e-02,-1.934351966928489139e-02,1.382287602660572587e-02,7.372034341096878052e-02
-4.518701424827747948e-01,-3.852811311640842451e-01,-4.340865107550484492e-01,-6.786356977834799575e-02,-4.856193231326448589e-02,2.491535985587512228e-02,1.622333526611328125e-01
-4.287226038636105518e-01,-4.235554679164346137e-01,-3.853767074572230222e-01,-2.017387125749078858e-02,-1.768505270413097200e-02,1.389589019678739296e-02,6.648396700620651245e-02
-4.385746588881658248e-01,-3.879706828809785790e-01,-4.043197557476636006e-01,-1.308532493160105038e-02,-1.403816026761345835e-02,1.816078649292249270e-02,6.399262696504592896e-02
-4.008926807274575399e-01,-4.547194135430303596e-01,-3.696539429998841886e-01,-1.492829616387493117e-03,1.239084135755741563e-02,-2.085388542550671576e-03,7.768516987562179565e-02
-3.719400921846979235e-01,-4.579925561413934476e-01,-3.815342353807301135e-01,8.842926065627421551e-04,3.903879933913238787e-02,8.598656907066294999e-04,1.060571670532226562e-01
-4.135832642798611403e-01,-4.540711838697412683e-01,-3.607611337815994079e-01,-4.377071305151582561e-03,8.453877019990778396e-03,-1.745305487922800417e-03,8.275944739580154419e-02
-4.162098180776155898e-01,-4.566668087950325194e-01,-3.499837101626227520e-01,-6.142087731713912618e-04,2.128318645599143813e-02,-8.581618294400125213e-04,1.003206744790077209e-01
-4.234961596614721380e-01,-4.604313555071715691e-01,-3.492347094822800813e-01,-9.931819794605962343e-03,1.530317942225225235e-02,-6.120136420147144485e-03,1.035986766219139099e-01
-4.008482451694294624e-01,-4.818166305943254457e-01,-3.215940035768015126e-01,1.419365167727106546e-02,7.125224240283238586e-02,1.049940665754334028e-02,1.882018595933914185e-01
-4.327247719466867926e-01,-4.035129657158815220e-01,-4.056856931590994697e-01,-1.802960630073284281e-03,-6.790777374163132780e-04,-1.733559381345923123e-03,2.854351326823234558e-02
-3.948526495005318382e-01,-4.707381597050165345e-01,-3.565081110246727247e-01,1.321102187730578909e-03,4.738298028469691697e-02,3.659787964399948638e-03,1.300752311944961548e-01
-4.577829560962812239e-01,-4.126917909008148144e-01,-3.565864195943803105e-01,9.624475507935548180e-03,1.713918161837533691e-02,3.723489657534433117e-02,1.141461431980133057e-01
-4.348059313586274954e-01,-3.953414889814249045e-01,-3.863038008297643988e-01,4.601413065494597970e-03,3.207524006154940498e-03,3.681525189922966838e-03,4.616095498204231262e-02
-3.908349330366135410e-01,-4.329137541333598627e-01,-3.952145893514815156e-01,1.742410857286882117e-03,2.140287363350613318e-03,1.687380633434389186e-03,4.045874625444412231e-02
-3.709664765255678009e-01,-4.521694780815891934e-01,-3.689256593110073479e-01,6.276904744203475051e-02,1.068088588840293146e-01,4.388704109128595959e-02,2.420460432767868042e-01
-4.624558783229844594e-01,-3.808828195478479728e-01,-3.664687162190009562e-01,5.525315142107191727e-03,5.221672835007322953e-03,4.493958873077585209e-02,1.194563433527946472e-01
-4.993820967677359279e-01,-4.178670984050060766e-01,-2.984981001299362169e-01,1.361047380115764337e-02,4.035015243155147535e-02,8.648053333555000277e-02,2.418693900108337402e-01
-4.986578192776866536e-01,-3.403352266658821734e-01,-3.788569076200336561e-01,3.498103165894590055e-02,1.526751964679376114e-02,1.089269612723962749e-01,2.457980215549468994e-01
-4.488702677357166992e-01,-3.720535438781555349e-01,-4.130570000640971240e-01,-3.444266665767559653e-03,-5.369331916968314404e-03,1.538014698976292866e-02,7.255388796329498291e-02
-4.279571183062865214e-01,-4.131155918661615911e-01,-3.802359070472981495e-01,2.833757384421499784e-02,4.051669158096068285e-02,4.536584881863196805e-02,1.236825436353683472e-01
-4.421674565871571705e-01,-3.714922458787415227e-01,-4.044558152682702912e-01,2.698693142004340850e-03,1.334999526968012364e-02,1.333910696778177647e-02,6.958582252264022827e-02
-4.447040640505652842e-01,-3.786573037630279748e-01,-4.006975727722468794e-01,9.489210587263501376e-03,7.864533261915700874e-03,1.942994062756894097e-02,7.057276368141174316e-02
-4.401754370523071058e-01,-3.920358358950975508e-01,-3.863908389648885167e-01,9.476121193754698593e-03,8.398346576178659581e-03,1.777878789020538586e-02,6.364179402589797974e-02
-3.817594013387258234e-01,-4.393514419104688207e-01,-4.374567164464226998e-01,-4.238925746851571891e-02,-5.485294027885918161e-02,6.282401299840305320e-03,1.332171112298965454e-01
-4.139818905690401118e-01,-4.021124112894126079e-01,-4.202455691817527650e-01,1.836946788014007020e-04,-5.577208575519090016e-03,-6.055381284601407199e-04,1.868105493485927582e-02
-4.429809873066963277e-01,-4.161207631341502511e-01,-3.596922688532859791e-01,7.502931712976369794e-03,2.015031332571673092e-02,3.616900009547005523e-02,1.035997346043586731e-01
-4.031803355742170636e-01,-4.283522173712996373e-01,-4.150736967677243761e-01,6.485525048508933646e-03,-4.036058330595893723e-02,-3.276484069304319569e-02,9.332425892353057861e-02
-4.109543089242980729e-01,-4.255732119092048849e-01,-4.066184971987382712e-01,4.804006761168972024e-03,-1.496126703166563224e-02,-1.139620830516028041e-02,3.776600584387779236e-02
-4.041101802164047130e-01,-4.268240385015470428e-01,-4.120008688793795337e-01,6.894001690593931295e-03,-1.333964614025045202e-02,-1.410126584802354546e-02,4.088901728391647339e-02
-4.226973905393274222e-01,-3.999044333558500752e-01,-4.188643110343026055e-01,4.882621464806870260e-03,-9.507774657563621695e-03,-1.070236536920564537e-02,3.366272896528244019e-02
-4.088566187196744917e-01,-4.063999981604463629e-01,-4.197303832148163716e-01,1.316353942950867877e-02,-2.173698448070842532e-02,-1.769481708631828049e-02,5.502391979098320007e-02
-4.068163897713028554e-01,-3.906487946783909204e-01,-4.328784904088973096e-01,1.975369864174058784e-02,-1.795373992554297540e-02,-1.608609981668055258e-02,6.539043784141540527e-02
-4.196748669731637515e-01,-3.845872567476835147e-01,-4.249484288542142441e-01,1.760034109904754993e-02,-1.889704871339300055e-02,-2.223706844659941242e-02,7.020014524459838867e-02
-4.240198062267135914e-01,-3.888187274357740586e-01,-4.229198693636872508e-01,4.572782211004320849e-03,-1.000519897578834756e-02,-6.600457957156946262e-03,4.117460548877716064e-02
-4.168377775443359301e-01,-4.221473160896313526e-01,-3.988020517156037337e-01,2.424795498299406934e-03,-1.005892243279637652e-02,-3.180896088095106194e-03,2.829803712666034698e-02
-4.084693423527125944e-01,-4.282649082269023300e-01,-4.025882235716234936e-01,2.151058930829653337e-03,-1.213731301686375025e-02,-1.084448665531113562e-02,3.676282241940498352e-02
-4.156955461213163727e-01,-3.994413900699263498e-01,-4.218278116437093050e-01,7.150998732165714765e-03,-6.758529535290978309e-03,-7.359949947441009506e-03,2.923058718442916870e-02
-4.108382180430571462e-01,-4.255651417888025589e-01,-4.072081739402410583e-01,1.398593888108096020e-03,-1.037368491333849098e-02,-1.099318946669556978e-02,3.122143074870109558e-02
-4.041749615126080108e-01,-4.236448430838631318e-01,-4.137140695548383040e-01,4.946076775690057097e-03,-9.638914880444042488e-03,-7.753770981261014390e-03,2.858015894889831543e-02
-3.909773373348309766e-01,-3.489787058883368487e-01,-4.990667861789213622e-01,8.744460916736435108e-02,-8.670200013391802726e-03,-7.825200707177680168e-03,2.033118754625320435e-01
-4.366088973721556910e-01,-3.259619931558372374e-01,-4.775781189617412936e-01,2.633740260415222759e-02,-2.424776293774977623e-02,-2.629076464664345872e-02,1.561178565025329590e-01
-4.164351120390756833e-01,-3.333597338944473409e-01,-4.832903800205317624e-01,7.141970210573736488e-02,-2.017152977340254394e-02,-3.621893558807690733e-02,1.933483928442001343e-01
-3.908561465327507478e-01,-4.682832375110826950e-01,-3.711693149890755716e-01,4.321408683898593679e-03,4.905488222755993027e-02,1.421258335317050932e-02,1.256502270698547363e-01
-3.859301001988559299e-01,-4.372243036643897462e-01,-4.007903263037178032e-01,9.565740986121205186e-03,1.724543232726980305e-02,9.448990577921837983e-03,5.936542153358459473e-02
-4.402646089615385172e-01,-4.145348525893275959e-01,-3.560633894523104193e-01,2.935445352814155390e-02,3.990699624355276837e-02,4.167845500028137529e-02,1.347569227218627930e-01
-3.613877840985472156e-01,-4.495996537174614671e-01,-3.911885074586213262e-01,3.943886686755530141e-02,7.860686607526815028e-02,4.037996387052965319e-02,1.847583651542663574e-01
-4.492725201952179059e-01,-4.493407929164242032e-01,-3.069584234478709983e-01,1.353161724559624919e-02,4.768415388234901325e-02,3.524108320213073520e-02,1.770860701799392700e-01
-3.987528656426085338e-01,-4.531834699041644154e-01,-3.651666240187136925e-01,-2.915611786676493831e-04,1.275646575323816263e-02,2.020413931175058051e-03,8.012196421623229980e-02
-3.857670185687274711e-01,-4.373229572038120905e-01,-3.829093932947969514e-01,2.918926919012696311e-02,4.747534747811927441e-02,2.949946915570387726e-02,1.214163526892662048e-01
-4.005034019289419600e-01,-4.377969421867909938e-01,-3.839713111665948309e-01,9.926113149903858721e-03,1.640146213335062081e-02,1.065432740177828068e-02,6.102302297949790955e-02
-4.197073144580175108e-01,-4.078624844732641752e-01,-3.967169865016304531e-01,1.213059237033601787e-02,1.382521463265727960e-02,1.521620694968642273e-02,4.589118808507919312e-02
-4.390407240540548095e-01,-4.339617885245858897e-01,-3.377541718405362436e-01,5.771410910295186186e-02,8.662673632302057836e-02,9.821404201779990184e-02,2.668588757514953613e-01
-4.301137784437880085e-01,-4.372093633174859995e-01,-3.475755729186541521e-01,1.268373233965638253e-02,3.764370151484937310e-02,2.223238843125177264e-02,1.168981269001960754e-01
-4.355981538402368680e-01,-4.363239990948443170e-01,-3.336269911633363838e-01,2.736014457535577635e-02,5.069141253632800104e-02,4.641036326358925074e-02,1.639787107706069946e-01
-3.836915878592138118e-01,-3.572258749048874971e-01,-4.662518053338446933e-01,4.693258007394469217e-02,4.998531791383538196e-03,8.030152462639640609e-03,1.287557631731033325e-01
-3.629265743636866381e-01,-3.901079217617900996e-01,-4.605054333864667115e-01,3.911118223028003937e-02,3.301383874311988442e-03,7.856071301510194477e-03,1.114227920770645142e-01
-3.752540992690353572e-01,-3.720008696687329142e-01,-4.864049528936445488e-01,9.316402038915726214e-02,3.329172951181688656e-02,3.424393601017199779e-02,2.135608941316604614e-01
-3.632243528634221952e-01,-3.906245578709949262e-01,-4.626276952833194289e-01,3.419444576667056424e-02,2.404383417078130580e-02,9.706722597518372547e-03,1.159003153443336487e-01
-4.253625464457002070e-01,-4.079053587068520170e-01,-4.167138440876664296e-01,-3.387476043140507515e-02,-2.262254115520296108e-02,1.170080640222759781e-02,7.494754344224929810e-02
-4.253073497708733663e-01,-4.216855592042032530e-01,-4.056176164034314691e-01,-2.625240724409050666e-02,-3.092756779958801341e-02,1.199230997756874952e-02,7.548540830612182617e-02
-4.285564797869301779e-01,-4.024525108346467817e-01,-4.001795002372471322e-01,-6.614660234709349683e-03,-5.599214926891730830e-03,6.992013237511980617e-03,3.343497961759567261e-02
-4.489042438380253519e-01,-4.021034445273321545e-01,-3.827763476312145974e-01,-9.697958085085642971e-03,-8.676019957320859829e-03,2.024199215321016015e-02,7.214957475662231445e-02
-4.443503656785554035e-01,-4.151406731129170802e-01,-3.960902211490550662e-01,2.391949894051700887e-02,-4.798159092661469921e-02,-5.232762524722814335e-02,1.364194005727767944e-01
-4.081201784816237410e-01,-4.211712340853211445e-01,-4.100897116325097902e-01,6.869733682814948292e-04,-1.648223842702206720e-03,-1.053976543546717706e-03,1.270444598048925400e-02
-4.071815354032261580e-01,-4.169883074639910703e-01,-4.138164638264616446e-01,3.515530816251426801e-04,-7.174482443319919007e-04,-3.188243201841190356e-03,1.037002727389335632e-02
-5.142641440567514710e-01,-3.002391555337621809e-01,-4.273892219876549436e-01,-5.627239639737217219e-03,-2.474947435881600169e-02,8.647563051997675387e-02,2.431609630584716797e-01
-3.987757256300076270e-01,-4.000951075198782569e-01,-4.399755712937810093e-01,-6.576906167700825867e-02,-5.429922917800215215e-02,1.378046036961456250e-02,1.550368964672088623e-01
-4.593542788068735727e-01,-3.962593197118811084e-01,-3.992635316932896528e-01,-5.818921143384515882e-02,-7.497225699180753988e-02,2.906303281618465711e-02,1.826332360506057739e-01
-4.260292062842718219e-01,-3.986349687500305161e-01,-4.068485729311458465e-01,-1.751050124102015645e-02,1.052377810790836900e-02,-2.702110993227509542e-02,6.352500617504119873e-02
-4.385213061940070323e-01,-4.147638600402698272e-01,-4.143778219974049160e-01,-5.083868945355166785e-02,2.361954820242888678e-02,-6.821963946165844617e-02,1.547994166612625122e-01
-4.150639933353238997e-01,-4.113812487492404246e-01,-4.155840857953854717e-01,-1.203162972832713326e-02,2.626843540301008594e-03,-1.235718867699118866e-02,3.047671355307102203e-02
-4.081005464801917837e-01,-4.468449083556411683e-01,-4.072595032053070718e-01,-6.495441397634703351e-02,2.340746031186302645e-02,-6.074082984249654787e-02,1.640235334634780884e-01
-3.526726950842988262e-01,-3.475607774707767383e-01,-4.873911249495587739e-01,1.213591436473528268e-01,5.357811335331427033e-02,6.109449217429198387e-02,2.878496646881103516e-01
-3.397996602861953486e-01,-4.125580228701455354e-01,-4.715803742551570865e-01,4.912385426758224954e-02,8.496671259570478738e-03,3.951878734588010027e-03,1.434387564659118652e-01
-3.427333600061095442e-01,-3.967753750619791298e-01,-4.733264762374604917e-01,7.999090762140034783e-02,2.382079013810683293e-02,1.115882621857565253e-02,1.849028617143630981e-01
-3.381971720807086523e-01,-4.065961917780738788e-01,-4.794955612173990023e-01,8.952225689764253813e-02,2.818888798538302792e-02,-2.599421769345414829e-03,2.035333067178726196e-01
-3.343829307670217466e-01,-4.566973793094690759e-01,-3.998802401109929905e-01,3.679744681458207989e-02,6.756927405287221911e-02,3.568440587003323533e-02,1.811589449644088745e-01
-3.728838799549237804e-01,-4.270425619148137120e-01,-3.998464162577390901e-01,4.277513452552341583e-02,4.932672614655025933e-02,3.746041261522806837e-02,1.385577470064163208e-01
-3.708327877475917078e-01,-4.231376225918306311e-01,-4.239153993743311477e-01,1.837676698229666686e-02,1.787541563874570430e-02,1.117236786555946687e-02,7.157692313194274902e-02
-3.713294378058571987e-01,-4.428684460858513527e-01,-3.970549903565004923e-01,1.721166003838534367e-02,2.991544045348572614e-02,1.788338078154706051e-02,9.204468131065368652e-02
-3.946901116781961205e-01,-3.900419634897272503e-01,-4.377974395658406626e-01,4.844529564938505894e-02,2.019622580399157291e-02,1.679492280865370682e-02,1.057871803641319275e-01
-4.342854179997164832e-01,-4.020258391557413047e-01,-3.971673184486165797e-01,-9.071375127791905107e-03,-6.967657555830866940e-03,7.598430095371636571e-03,4.226987436413764954e-02
-3.644493661022438769e-01,-4.526498153541383962e-01,-4.108849483844201345e-01,-2.417623704648014672e-03,5.510796786578940967e-03,-1.789411500334174999e-03,7.718931883573532104e-02
-3.886015525201299003e-01,-4.735703097202350054e-01,-3.464060277947482724e-01,-2.180358489440041309e-03,5.092941656210793477e-02,-4.699646613562211486e-03,1.429943740367889404e-01
-4.059848817665789866e-01,-4.491626418048096370e-01,-3.543909758356478812e-01,2.597076160037107076e-02,4.533428598270732718e-02,3.797761252748946964e-02,1.388160288333892822e-01
-3.784322328506855015e-01,-4.754264492622690130e-01,-3.849293135734422888e-01,6.854454647628278538e-03,5.842804915866509075e-02,-7.301441197283237150e-03,1.391485035419464111e-01
-4.330633334129348477e-01,-4.029260136527013647e-01,-4.042071401896194516e-01,-1.936223383758056086e-03,-7.462405127937148368e-04,-4.158215440999013177e-03,3.059541434049606323e-02
-3.534212573791570278e-01,-4.350562520302518887e-01,-3.952733850298190688e-01,9.318550115377632892e-02,1.047155922434983566e-01,5.836024961692865692e-02,2.723301351070404053e-01
-4.613893340048910163e-01,-3.293350446434534229e-01,-4.340933707424610155e-01,4.075745924599402659e-03,-5.081849102894598486e-03,1.170660359149707647e-02,1.229524314403533936e-01
-4.347549597058480986e-01,-3.990041898742130444e-01,-4.128869632386054644e-01,7.008467113194490668e-04,-1.468530239512173992e-02,-2.445759172106327581e-02,5.845937505364418030e-02
-3.625401149713767257e-01,-4.252005299536646965e-01,-4.187155389869705036e-01,2.687718945398209769e-02,3.986228097019236388e-02,2.515154195335781231e-02,1.113282740116119385e-01
-3.582841712748331964e-01,-4.417704794810444757e-01,-4.204639541215676735e-01,2.328472819721233086e-02,2.853825875165780235e-02,9.836527196357820052e-03,1.000261604785919189e-01
-3.964816319537172729e-01,-4.175926782230302003e-01,-4.300163675346534431e-01,-1.412137773099189815e-02,3.906323616109501698e-03,-1.086915342212994851e-02,4.313623532652854919e-02
-4.006575888449668832e-01,-4.213556475772231025e-01,-4.193785996707510288e-01,-9.792686965780649996e-03,5.231339267754722688e-03,-1.086965590630263601e-02,3.340114280581474304e-02
-4.036021297618754833e-01,-4.146174996168913163e-01,-4.171499610864571883e-01,-9.365499950137632854e-03,4.402261911058916871e-03,-8.461160319378902353e-03,2.630016952753067017e-02
-4.264430351781021145e-01,-4.072471179726094848e-01,-4.022668143554661291e-01,-6.997677446852927814e-03,3.148244459304215450e-03,-1.059266097941658977e-02,3.165657073259353638e-02
-4.094079285865158124e-01,-4.244508357373019125e-01,-4.043257275317481692e-01,-8.636351164189757720e-03,5.612186731738275786e-03,-8.530186592305626786e-03,2.941276505589485168e-02
-4.498217031555494239e-01,-4.243299069220407005e-01,-3.870340787986936704e-01,-2.956547413125927906e-02,7.957934288942437526e-03,-5.821916265170543753e-02,1.263815611600875854e-01
-4.038174466312297595e-01,-4.228206817914900162e-01,-4.101850944778425712e-01,-5.786295854998613902e-03,6.783115728327456656e-03,-7.468973488814998306e-03,2.620107494294643402e-02
-4.107596845102862160e-01,-4.272835730381530639e-01,-4.001632324768971682e-01,-1.225255844618278536e-02,8.492671648879995122e-03,-9.227445792963466509e-03,3.850464150309562683e-02
-3.557237491352946424e-01,-4.487750406003464532e-01,-4.345591277430828070e-01,-2.722378795364814238e-02,2.444707996796063529e-02,-3.325197935117714387e-02,1.219479069113731384e-01
-4.451402879967001902e-01,-4.104875049579074231e-01,-3.808252854144234534e-01,-2.115369969648565537e-02,4.752340025118029047e-03,-3.741472384868650691e-02,9.337192773818969727e-02
-4.276003642410653449e-01,-4.162326822810988869e-01,-4.223856488691267175e-01,-6.235185399883957230e-02,2.982926643977888356e-02,-5.839452600628473183e-02,1.570334881544113159e-01
-3.960902231964581466e-01,-3.259465642539602914e-01,-4.762893122789536027e-01,7.262517989186147160e-02,-2.257984070438594400e-03,-2.719769489623762894e-03,1.812132000923156738e-01
-4.166184087570877215e-01,-3.720435389172389029e-01,-4.509719299557320427e-01,2.706313557438511791e-02,-2.196466617511388247e-02,-2.110811488812793305e-02,9.838508069515228271e-02
-4.169683518532216748e-01,-3.511489378079531987e-01,-4.560584930126999614e-01,3.996774560991767089e-02,-2.324732174798135528e-02,-1.692739285592777948e-02,1.253248155117034912e-01
-3.958799412852528343e-01,-3.508937518859042703e-01,-4.750595623606209128e-01,9.434964107305550407e-02,-3.950949147209227054e-03,-1.280064209890638318e-03,1.965005546808242798e-01
-4.141196553072101216e-01,-4.127066593525649529e-01,-4.090640182630857491e-01,-8.335657227015255341e-03,6.407607386402734521e-03,-7.482767561688575403e-03,2.280372194945812225e-02
-2.930135404553149692e-01,-5.203058885312658033e-01,-3.552688629749625182e-01,5.302350759408944181e-02,1.667692607782387260e-01,3.549362443298231806e-02,3.701853752136230469e-01
-2.767881523571733560e-01,-5.095612997706449043e-01,-4.102483380949775715e-01,6.688410148157494794e-02,1.612309465025133226e-01,6.628263214452627394e-02,3.814654350280761719e-01
-2.684920764241478519e-01,-4.901253414391764096e-01,-4.107178825177875137e-01,8.995395490991839327e-02,1.414624455735682407e-01,4.710110635162122888e-02,3.588775098323822021e-01
-3.425410552853705992e-01,-4.603764756626617105e-01,-4.212249987080780578e-01,1.385237923257056844e-02,4.297529767467121731e-02,9.038661960672629255e-04,1.300897300243377686e-01
-3.306762417474087834e-01,-4.550505480487366805e-01,-4.373403377635453615e-01,3.336136863945810254e-03,1.095649080946977522e-02,-5.320747567366012482e-03,1.185680329799652100e-01
-2.649753467414015518e-01,-5.012050814287964950e-01,-4.120162350295674680e-01,5.872520822884069042e-02,1.275917620826654275e-01,3.298988829649314447e-02,3.242529928684234619e-01
-3.160067385174261112e-01,-4.655897971569042948e-01,-4.265978735233733055e-01,2.274612580103274259e-02,5.923651318309838126e-02,9.121585607635724485e-03,1.743318438529968262e-01
-3.881970826661277907e-01,-3.899146308672349903e-01,-4.414521799115053713e-01,1.386832145641180708e-02,5.487639178468666813e-03,6.664842829963582918e-03,5.956660956144332886e-02
-3.681078432073842666e-01,-3.967436614689477392e-01,-4.520361233679145441e-01,2.959235076467306089e-02,9.876857199991564279e-03,1.576739440310029328e-02,9.553126245737075806e-02
-4.086924647988010584e-01,-4.187029967307022149e-01,-4.129328455056702762e-01,6.685966372962648396e-03,-1.075589275314610578e-02,-9.845639977614577612e-03,2.911575324833393097e-02
-3.928520376499723965e-01,-4.016789578764271007e-01,-4.287534469739291421e-01,1.440537710724866700e-02,8.799799649540454918e-03,1.164788738306401020e-02,4.808118939399719238e-02
-3.934391942585142576e-01,-3.942323582758613942e-01,-4.278582847528125677e-01,9.057415620269394091e-03,8.994217479606565063e-03,9.135713470254859525e-03,4.355668649077415466e-02
-3.936568630888453435e-01,-3.929269019664531348e-01,-4.302812447956525510e-01,1.010760327819031079e-02,1.048489809687644207e-02,7.685798364097045678e-03,4.671313613653182983e-02
-4.000141211632644023e-01,-3.983167258466444038e-01,-4.006833767965282678e-01,8.162842566888837970e-02,5.620311847577963427e-02,6.924263755412152221e-02,2.094136178493499756e-01
-3.978219637543606857e-01,-4.171169739207929994e-01,-4.312328664075968376e-01,-3.419027884115320021e-02,-3.808727080084255839e-02,2.140831343526459346e-02,1.003878265619277954e-01
-4.625778608689791183e-01,-3.437711546340725954e-01,-4.306225259381959436e-01,-2.815507734697404035e-02,-1.583303628968442053e-02,3.120869690445662176e-02,1.318779587745666504e-01
-5.139339771047657379e-01,-4.185605913066705042e-01,-3.069953675159426409e-01,-9.162787329519521407e-03,9.065241231127715849e-03,9.303857998626480219e-02,2.421779781579971313e-01
-5.691593108666327394e-01,-4.152729984184488354e-01,-1.853867347728177517e-01,-1.119246576747349141e-02,7.148992612032624427e-02,1.916519937672363227e-01,4.876522719860076904e-01
-4.401314579669936555e-01,-4.237772681655757601e-01,-3.798780810859357371e-01,-1.803838265743401559e-03,-6.415190364588189802e-03,-5.604525788807464617e-03,5.603562667965888977e-02
-6.332528440919593660e-01,-4.473859498027457082e-01,-1.995096941379261024e-01,-5.531136689196446132e-02,-9.058216269825726877e-03,1.771244751633358483e-01,4.955850839614868164e-01
-4.921410484111871098e-01,-4.174692637941136431e-01,-3.091875107128326805e-01,-2.486370168529078439e-02,-8.161650255041055443e-03,1.015657441343203043e-01,2.416353821754455566e-01
-5.024399629670731615e-01,-4.493489427077700937e-01,-2.875250826225057565e-01,-6.494476831055051580e-02,-4.974387308865382828e-02,9.263575531051833345e-02,2.888217270374298096e-01
-6.278387372762018748e-01,-3.670851467162699056e-01,-2.558493301044977852e-01,-1.803902545017740250e-02,-2.542458440334265796e-02,1.773507013581235858e-01,4.545835852622985840e-01
-3.820036531002198310e-01,-3.979100034872133373e-01,-4.465581718137714429e-01,1.932311816989671152e-02,-2.792144735545779542e-03,-4.447636327592425012e-04,6.736171990633010864e-02
-3.978603121416892652e-01,-4.252269598780404891e-01,-3.895954522542696141e-01,1.676174503695605777e-02,3.186926238170108977e-02,2.671138802234536772e-02,8.410549908876419067e-02
-4.415756037356411423e-01,-3.109975101758664651e-01,-4.753112129150506293e-01,8.717115199157586536e-02,2.324222687806606902e-02,5.990985788068377976e-02,2.403715252876281738e-01
-4.364541712698604692e-01,-3.985872194233961996e-01,-3.795352629227559671e-01,2.258409659175939291e-02,2.927117557222241526e-02,4.686146649832501065e-02,1.149210333824157715e-01
-4.166974796792092262e-01,-3.638737006054171275e-01,-4.393369772640562942e-01,3.426067702787678054e-02,1.147883418375652415e-02,2.111462780597962371e-02,9.875706583261489868e-02
-4.341847157278769798e-01,-3.532732526968877518e-01,-4.235314374729973741e-01,3.345204351197696852e-02,2.785009828699578499e-02,3.966504190343618508e-02,1.272875964641571045e-01
-4.774750267894711797e-01,-4.115318398433673308e-01,-3.388762502279805133e-01,2.790961149192473789e-02,5.203667479981863991e-02,9.041972226581281025e-02,2.222744822502136230e-01
-4.279332891129945526e-01,-3.987322201990659565e-01,-4.156703949514763963e-01,5.222486224714864914e-03,-1.046694330011063191e-02,-1.227640591271072536e-02,3.882802650332450867e-02
-4.243976473900132884e-01,-4.135824780388188127e-01,-4.062725417396907401e-01,2.315870856222313357e-03,-9.942841774350820450e-03,-1.571598105113535676e-02,3.609858080744743347e-02
-4.085286710462361914e-01,-4.188745848580697206e-01,-4.134889354322698884e-01,5.661883802828915693e-03,-9.413340938961636817e-03,-9.302177955946925800e-03,2.649375423789024353e-02
-4.412215176750465262e-01,-4.077870597072550951e-01,-3.913170761511134410e-01,1.376158217987490454e-02,-2.888823714455488606e-02,-4.172221069119323722e-02,1.011620014905929565e-01
-3.847030042483530199e-01,-3.794481359521434394e-01,-4.500841553569884246e-01,5.755576921894410558e-02,-3.469248216369819060e-02,-4.026219321468196832e-02,1.518476754426956177e-01
-4.137394749797319582e-01,-4.202348027322986290e-01,-4.057384390717687639e-01,-2.916956158670293547e-03,-2.085628482562437833e-04,4.602252818857653052e-04,1.358186360448598862e-02
-4.320846020415269328e-01,-3.654598732520202842e-01,-4.366249034838197707e-01,5.144264922276220627e-03,-1.257329150514561490e-02,-7.833315584142325205e-03,7.415997236967086792e-02
-4.222213025380935902e-01,-3.750853613672046616e-01,-4.368027577444034137e-01,1.656215130860171428e-02,-1.311926718351120319e-02,-1.467640378987676054e-02,7.146451622247695923e-02
-4.120362712922702175e-01,-4.470156342991740694e-01,-3.887124453118635525e-01,-2.522111317563194548e-03,-2.297246825278163873e-02,-9.586843484990418759e-03,6.679384410381317139e-02
-4.134931338198467587e-01,-4.428654452016326237e-01,-3.892551036054883173e-01,2.067850874366848613e-02,-2.766012981591807821e-02,-4.077588313801455006e-02,1.035770773887634277e-01
-3.283795916903899381e-01,-4.140729033179291196e-01,-4.674949046658385954e-01,5.380369100498273716e-02,-5.162662090571382145e-03,-1.388058393194923322e-02,1.552985608577728271e-01
-3.972755969814452670e-01,-4.426379544011783684e-01,-4.020406219183867980e-01,-1.604447935822372450e-03,-1.699739793097958945e-02,-1.113414097889416782e-02,5.577329918742179871e-02
-3.554708884803114977e-01,-4.726767106147968245e-01,-4.274081527843200945e-01,4.588701397523580611e-03,-4.654821279997509859e-02,-4.749896651402706060e-02,1.543131321668624878e-01
-4.160810403715615724e-01,-4.391131082519250106e-01,-3.887894042753910484e-01,-3.517909180232286614e-03,-2.088845533911070501e-02,-1.413726949262050780e-02,6.204506009817123413e-02
-4.490608410049150567e-01,-3.980564944394394677e-01,-3.871118756698446184e-01,-6.452416993200833090e-03,-6.380693019498933499e-03,1.751369070100074546e-02,6.668343394994735718e-02
-4.508945219602710774e-01,-3.580292887240834609e-01,-4.237272629964752846e-01,-1.168632859226049689e-02,-1.726909141311576412e-02,2.399825423937207436e-02,9.935412555932998657e-02
-4.511091803787201093e-01,-3.475945135844667466e-01,-4.335994525646520437e-01,-1.210844750579547630e-02,-1.686628815338938117e-02,3.062428145150227973e-02,1.153956726193428040e-01
-4.654951567030984894e-01,-3.214871189314313926e-01,-4.245929263741645698e-01,2.413350777997970431e-02,8.673170705853038356e-03,5.274677254302089641e-02,1.638312339782714844e-01
-5.068826531174274175e-01,-2.945154637237730189e-01,-4.201707933724544430e-01,1.152338796409000700e-02,-2.302000525428271605e-02,8.048396478574873503e-02,2.358498424291610718e-01
-5.104940741087146128e-01,-3.762300776679680103e-01,-3.511857377188479790e-01,2.519661766712131580e-03,1.497679638268879787e-02,9.437631011103160550e-02,2.223268151283264160e-01
-4.994938310570387063e-01,-3.786610752144664582e-01,-3.587355586851181943e-01,5.984964764427744797e-03,-1.090343684136018190e-02,8.903016897126420082e-02,2.040795534849166870e-01
-4.713027335856288524e-01,-3.613826928536529870e-01,-3.865624665217985423e-01,2.516257878328267365e-03,6.295541119725619160e-03,3.389514714201819628e-02,1.163323447108268738e-01
-3.756398715653195830e-01,-4.001714328686338251e-01,-4.500803292700201186e-01,1.927281116675327519e-02,5.614814191989885017e-03,3.848437855466154637e-03,7.463492453098297119e-02
-3.505698845777776018e-01,-4.177893243702929249e-01,-4.558378465918024314e-01,1.659328092195098622e-02,-1.690435792400795485e-03,-3.553424124100654897e-04,9.674040228128433228e-02
-3.679750353192826617e-01,-4.008536532066372948e-01,-4.488687881702773663e-01,1.027746292150553617e-02,-5.025356554461699130e-04,1.584451528327208113e-03,7.273442298173904419e-02
-3.670963638655333483e-01,-3.995046061630781464e-01,-4.532531230809239142e-01,9.042122820663061472e-03,6.873082913347064405e-04,3.795885563240002526e-03,7.727234810590744019e-02
-4.311553302776848784e-01,-3.238599090713314421e-01,-4.099821227225361464e-01,1.228995450867733236e-01,8.856642090640849674e-02,1.340500262684556354e-01,3.639257848262786865e-01
-3.792474770404721807e-01,-4.010472446026039361e-01,-4.509675468385543340e-01,1.914829899187180801e-02,-3.443256814684617084e-03,-5.999157693254714672e-03,7.279441505670547485e-02
-3.427572609531689962e-01,-4.209698421395612344e-01,-4.573096678594646969e-01,3.407431379506094954e-02,3.293873115268170339e-04,-1.514659795020979402e-03,1.173473745584487915e-01
-3.454307019027212933e-01,-3.753872197014268552e-01,-5.079098824127076250e-01,1.038040523093739648e-01,-1.772713229177695681e-03,1.231813227445648085e-02,2.349894642829895020e-01
-4.009663106357397866e-01,-4.154520559454912276e-01,-4.231583542252449481e-01,4.431781312438752909e-03,-7.306415327454418747e-03,-9.952905079366315341e-03,2.995178475975990295e-02
-3.991649696037213868e-01,-4.121473206037845061e-01,-4.231874164320202358e-01,8.809093244985993776e-03,-4.616824883026754422e-03,-6.759133196347322584e-03,2.945428341627120972e-02
-4.011261995931320601e-01,-4.012606809087418958e-01,-4.283099028852305756e-01,8.266642906542749983e-03,-6.700524485469422711e-03,-5.873916778216103397e-03,3.432969748973846436e-02
-3.995948128861908089e-01,-4.264774203723762369e-01,-4.036952714606075188e-01,2.298307598811261121e-02,-5.181139048524683460e-02,-4.017396205652666585e-02,1.229187771677970886e-01
-3.992027496907718520e-01,-4.301291200401919923e-01,-4.109294824276392699e-01,4.986342308752543008e-03,-1.024390293613795626e-02,-5.589888453174022068e-03,3.484874963760375977e-02
-3.949296476181738957e-01,-3.961150689953859549e-01,-4.358329874115862146e-01,3.660093221757578646e-02,-4.078652671929265672e-02,-3.671677730851424792e-02,1.211605221033096313e-01
-3.935868308267385651e-01,-4.585240388302217474e-01,-3.611556330703242779e-01,9.219844867269122446e-03,3.340851869915870825e-02,1.043795406946741201e-02,1.063243672251701355e-01
-4.419661041780362232e-01,-4.068566891929461526e-01,-3.881108923954390000e-01,7.439351925306703084e-03,-2.342341783302408567e-02,-3.337791286010236697e-02,8.600282669067382812e-02
-4.168745560937576755e-01,-4.026003710393685209e-01,-4.148912076276783933e-01,6.021069720577039430e-03,-8.357845900371802320e-03,-7.490605994382927568e-03,2.580743096768856049e-02
-4.277225558941725181e-01,-4.035745267798230285e-01,-4.065909759223334530e-01,-1.708827454976593815e-02,9.366830416507482618e-03,-1.944788151758296973e-02,5.285153910517692566e-02
-3.383141216762388104e-01,-4.730811112579306199e-01,-3.949615945282778928e-01,-2.543759039182911033e-02,7.238229227068357363e-02,-1.983060436079317826e-02,1.804866492748260498e-01
-3.963495138568083886e-01,-4.267019584866749704e-01,-4.135283554550244767e-01,-3.341996937033209908e-02,5.027253413525112347e-02,-3.497833688447150174e-02,1.236854121088981628e-01
-3.963009327128310111e-01,-4.439614375372561428e-01,-4.023962144418495313e-01,-4.011977106646431174e-02,5.357087472254364047e-02,-2.332261500559955694e-02,1.307222545146942139e-01
-3.833445547944483445e-01,-4.186648403180531774e-01,-4.387957448197249977e-01,-1.726783193511741490e-02,4.652912442914880486e-03,-1.232013028165312649e-02,6.147068366408348083e-02
-4.318782852164206321e-01,-4.422263178957721586e-01,-3.664380279084100134e-01,-2.583238934870399350e-02,-2.832711700250671247e-02,2.974456892461425223e-02,1.101368218660354614e-01
-4.008575053631606711e-01,-4.130519472083679644e-01,-4.328192180498233177e-01,-1.296947075503771842e-02,-9.218765595882418354e-03,-3.328854118435510111e-03,3.966512903571128845e-02
-4.213948132467161822e-01,-4.109303413414363559e-01,-4.121771322351450162e-01,-1.270181865966119386e-02,-9.407844188802633525e-03,7.525647568824087551e-03,3.189749270677566528e-02
-3.088469210843303170e-01,-4.216940343784156831e-01,-4.644542199370964575e-01,-1.296372091580807462e-01,-6.560765544070712441e-02,1.648459575973755878e-02,2.890225052833557129e-01
-4.629015075170911930e-01,-3.835432143989491172e-01,-4.596072205539303845e-01,-1.657561515476184966e-01,-1.510549561048309675e-01,3.871596057850648035e-03,3.961946964263916016e-01
-4.136886902357029827e-01,-4.236764873163768041e-01,-4.021305803324399797e-01,-6.936575780360803266e-03,-7.662162003875817341e-03,4.552168397784077045e-03,2.704491093754768372e-02
-4.044096556629859784e-01,-4.084533271830587120e-01,-4.251295337064523450e-01,-1.867272679440259986e-02,-1.825494280330221264e-02,1.207160659732418699e-02,5.333659425377845764e-02
-4.457785430418370609e-01,-3.135140047798686824e-01,-4.200477140697894685e-01,-7.104567804884745486e-02,-7.403517803682528597e-02,1.040138865727968098e-01,2.807053029537200928e-01
-3.817034855838807306e-01,-4.488927045137079963e-01,-4.319580947566158957e-01,-5.795308695646145952e-02,-4.672436269986850882e-02,5.608383048256269411e-03,1.427686512470245361e-01
-4.142103729500947740e-01,-4.159168476751470278e-01,-4.045301466961421788e-01,-6.267142425998414347e-03,-8.616177790787278579e-03,3.800553778801081702e-03,2.229388430714607239e-02
-4.271206891298992003e-01,-4.022043593761276403e-01,-4.013710545394301166e-01,-6.741413236292278198e-03,-5.902988970014479836e-03,7.322463482260455937e-03,3.231117501854896545e-02
-4.257721880538354320e-01,-4.118510459568436866e-01,-4.064196723216499385e-01,-2.781213329543887405e-02,-2.526017915734441593e-02,9.861954551247768819e-03,6.946551054716110229e-02
-4.124956828425882516e-01,-4.157230261037614949e-01,-4.148031630839307815e-01,-8.717837685466849063e-03,-9.050953181946423676e-03,3.987708635621373641e-03,2.301651611924171448e-02
-4.130700444105868119e-01,-4.110405287493671400e-01,-4.141217183012573244e-01,-5.630659202383953010e-03,-7.293338599462104860e-03,8.637543013591935867e-03,2.204250730574131012e-02
-4.210579869883325776e-01,-4.036796105043788940e-01,-4.137707812485107439e-01,-9.081265481800188111e-03,-9.010296702559495927e-03,3.740056800957009334e-03,2.759347856044769287e-02
-3.544021478340304010e-01,-4.595605777914806844e-01,-3.948440539975962560e-01,3.978785646863067238e-02,8.522173861537539474e-02,5.350398277534483549e-02,2.087259441614151001e-01
-3.861194387411234774e-01,-3.874166204237962097e-01,-4.447294679564874342e-01,1.962528716974711041e-02,9.110868842087720132e-03,5.945221140150869742e-03,6.979474425315856934e-02
-4.124694524814740970e-01,-4.023516033703667394e-01,-4.023061463861734577e-01,6.688997185292697156e-02,6.924773929810965067e-02,7.918568592235751546e-02,2.161538898944854736e-01
-4.066188754651870463e-01,-4.224820779223376066e-01,-3.917088624846157829e-01,1.074556999857969979e-02,1.186678028572916294e-02,1.216665744421281670e-02,4.385676980018615723e-02
-3.881374277906323722e-01,-3.859971782615865821e-01,-4.414158337232477747e-01,1.579047432115275248e-02,1.203728615536013048e-02,9.462282171104608591e-03,6.639660149812698364e-02
-3.942942453708161987e-01,-3.697085642404821515e-01,-4.460580587156441901e-01,3.814800028861226044e-02,1.832306830632204897e-02,1.641766068780424123e-02,1.036254316568374634e-01
-3.911244097315888513e-01,-3.958547227849266159e-01,-4.272317885376076818e-01,3.029892696429484569e-02,1.480858719646112320e-02,2.034564189581538132e-02,7.621753215789794922e-02
-3.755456670481756576e-01,-3.925346502271510052e-01,-4.338114363372771454e-01,4.741071675994579238e-02,5.085664048999017500e-02,3.656890474409817127e-02,1.456297487020492554e-01
-3.989698895286758473e-01,-3.686191951688166935e-01,-4.466502947851325733e-01,1.233701089579046679e-02,8.329535027288269625e-03,2.155907022220441074e-03,7.294115424156188965e-02
-3.479152511206490828e-01,-4.255690621597659762e-01,-4.537629496909131865e-01,3.664136595841108873e-02,7.743885405206821053e-03,-2.839803060652783696e-03,1.150922998785972595e-01
-3.834807495183054638e-01,-3.857036150393114982e-01,-4.492660582580989548e-01,1.787118779755298564e-02,2.707212520856896315e-03,3.145859926777064036e-04,7.188072055578231812e-02
-3.826850489782239184e-01,-3.823392928609682939e-01,-4.561602181857711269e-01,2.393560892337520674e-02,2.178286653209036538e-03,7.180901201866627531e-03,8.550903946161270142e-02
-3.702948404438856089e-01,-3.978910389589464525e-01,-4.536417994588462510e-01,2.794736471716079487e-02,-9.505089009972610831e-03,-1.214264834485406439e-02,9.200404584407806396e-02
-3.880204548416905097e-01,-3.415846262053232052e-01,-5.094398999574866194e-01,9.764498958531742101e-02,-6.376704836532740180e-04,1.291698049864618142e-02,2.272500395774841309e-01
-3.651158640923749532e-01,-3.880128086434357360e-01,-4.529139025028424137e-01,4.572828054612736864e-02,2.179149643725671048e-02,2.266615473887279714e-02,1.243445128202438354e-01
-3.990601078692764814e-01,-3.555381165270209420e-01,-4.560921182213766301e-01,3.679228219776978920e-02,7.055740565320920733e-03,1.077072282519418375e-02,1.103963404893875122e-01
-4.099258573399450767e-01,-3.232328357304770083e-01,-4.700602408952168076e-01,6.912314994976576088e-02,1.431008682502547986e-02,2.170696318709745137e-02,1.808507591485977173e-01
-4.165457904034181591e-01,-4.048074999233713389e-01,-4.174313443385280209e-01,8.681047854722657563e-04,-5.408436803820106803e-03,-3.430560289644038387e-03,1.656161807477474213e-02
-3.906758731011761299e-01,-4.435522037023078012e-01,-3.847903655524826383e-01,3.879037371293823921e-03,6.569899065493040383e-03,2.206503702659777435e-03,5.771470442414283752e-02
-4.081570777738836031e-01,-4.291567764589115930e-01,-4.001554239228093945e-01,-6.948228924325464129e-03,2.267731261819535063e-03,-4.174967417251173631e-03,2.975901030004024506e-02
-4.107770788950405039e-01,-4.118873340917725834e-01,-4.144068431126836094e-01,-2.683654905850285134e-03,2.580245438631216092e-03,-2.894883776912348262e-03,8.780544623732566833e-03
-4.098937689269889217e-01,-4.107912851291459777e-01,-4.221337638779913970e-01,-2.948327174752290915e-03,-4.374758793143914554e-03,3.075842362067324979e-03,1.585916988551616669e-02
-4.016430167534834061e-01,-4.142272953861220741e-01,-4.231884442853677264e-01,-2.234879310241398055e-03,-2.538516494816926792e-03,3.326576714172484964e-03,2.046827971935272217e-02
-3.861968792089545133e-01,-4.096333987917910036e-01,-4.336613630198230540e-01,5.285073205059414268e-03,-2.330070796700738425e-03,-9.142890692198106864e-03,4.517307132482528687e-02
-3.925102181323346096e-01,-3.816759728274988217e-01,-4.489047992527176456e-01,5.570410210935926310e-03,-2.278328294425905134e-03,-3.515061858146719905e-04,6.338575482368469238e-02
-3.918639586932484709e-01,-4.360411547510570918e-01,-3.545497945213363367e-01,5.855457657718163289e-02,8.494869945881204643e-02,5.800689944153587796e-02,2.168445736169815063e-01
-4.196119082425744384e-01,-3.441253462029544297e-01,-4.518177646775033418e-01,1.766542352168499683e-02,6.419403710932871342e-03,4.703966936095372621e-03,1.014532297849655151e-01
-3.911724639496202971e-01,-4.401530395068114498e-01,-3.892763539798282380e-01,2.420746189811263591e-03,1.042638541564470814e-03,4.005969987090857252e-04,5.016858875751495361e-02
-3.853520753344206184e-01,-4.390597959067964462e-01,-3.939212999398759019e-01,3.267982998172147373e-03,4.623279402972287587e-03,4.568881692286415157e-03,5.154129117727279663e-02
-3.956621290290858739e-01,-4.272687124435703421e-01,-3.945883942095184671e-01,3.175196462256213263e-03,8.225184016601086575e-04,6.781125381063602808e-04,3.267599642276763916e-02
-3.937126924339195977e-01,-4.342525195241137559e-01,-3.881699768721010302e-01,4.901588353103788522e-03,5.115680832169822688e-03,2.688195275133084712e-03,4.551006853580474854e-02
-3.916819065220348839e-01,-3.880236201622301873e-01,-4.424050561404559989e-01,8.650973913194939108e-03,2.638639636846513373e-03,3.984023040901624700e-03,5.536066740751266479e-02
-3.916358745442585221e-01,-3.893132524455035770e-01,-4.394941250185485093e-01,1.367947813157777874e-03,2.597089578443297509e-03,6.402702166648523673e-04,4.933600872755050659e-02
-3.896616892478396710e-01,-3.887492684624745398e-01,-4.451214268940304475e-01,9.776065165863635342e-04,2.656691154387047179e-04,-1.275081177628679084e-03,5.599262565374374390e-02
-3.837448639251346272e-01,-3.901955826048617570e-01,-4.445853759017512896e-01,7.200311991843017477e-03,2.180746308009462887e-03,2.687807265892531473e-03,5.951628461480140686e-02
-3.991610839082129214e-01,-4.352870823671061151e-01,-3.973521845515578521e-01,-2.702810421294314040e-03,9.512405214465800406e-04,-1.832655970289170716e-03,3.752884641289710999e-02
-3.986953413676681546e-01,-4.388680393387771050e-01,-3.929667712098159349e-01,-3.795922554351391798e-03,1.739297776266076918e-03,-7.628173883155874198e-04,4.394135251641273499e-02
-3.975459125003770744e-01,-4.405541198017672300e-01,-3.953528193520589595e-01,-4.048725970984960384e-03,5.534198115784335834e-03,-2.904773764631608281e-03,4.599139466881752014e-02
-3.986928027901012195e-01,-4.419209438731578343e-01,-3.885438730107979577e-01,-4.359614123108958295e-03,3.433733804991043886e-03,-1.335294084946691282e-03,5.008124932646751404e-02
-4.498927328120924107e-01,-4.295680556167801312e-01,-3.565154955915251223e-01,-5.399325609247655755e-03,-5.003254869933816337e-03,-1.778988746040977703e-02,9.135936945676803589e-02
-4.515248127193504657e-01,-4.384168377805549577e-01,-3.538139449001926340e-01,-1.259108856448655847e-02,-3.188224616890765820e-03,-1.487744264437793930e-02,9.802324324846267700e-02
-4.715564824529856480e-01,-4.577170477660930104e-01,-2.988421131807076359e-01,-1.126990971652688973e-02,-1.293440799116074048e-02,-1.158860388935270547e-02,1.700509637594223022e-01
-4.550737205289717702e-01,-4.355713300009568800e-01,-3.320958716745878170e-01,-4.240817815509468139e-03,4.809043743249334299e-03,-2.132937772775287191e-02,1.208043619990348816e-01
-4.741900889842171063e-01,-4.423415053954657949e-01,-3.465012723955385732e-01,-1.433602656598524649e-02,-2.435677323415404508e-02,-5.233206378241750389e-02,1.544807851314544678e-01
-3.855824421693504478e-01,-3.910555790796153008e-01,-4.433891321111913530e-01,5.960273524458835175e-03,1.528261572241988980e-03,5.753565672805617190e-03,5.716709420084953308e-02
-3.866992854618163666e-01,-3.915596516433260121e-01,-4.425114613538948527e-01,2.106330928491828135e-03,1.444859166281824408e-03,1.303629926285414633e-03,5.377755686640739441e-02
-3.906401455040269255e-01,-4.460211669303268955e-01,-3.853040213495395050e-01,-6.123783972785940390e-04,4.690631957051630448e-03,3.089766281797868110e-04,5.880875140428543091e-02
-3.867277675582625474e-01,-3.913877377651414635e-01,-4.425795266716776588e-01,2.077032318513603436e-03,1.438796258432420861e-03,1.224603623256157511e-03,5.389358475804328918e-02
-4.524558619262543102e-01,-3.606610179408494821e-01,-3.399537487532758862e-01,9.578334667461205210e-02,1.090537536606491359e-01,1.470354858313835389e-01,3.725798130035400391e-01
-4.884219239489816511e-01,-3.480276907471324677e-01,-3.787676996286630793e-01,3.547274098227194000e-02,1.346815405566145936e-02,9.997181496723681060e-02,2.250377237796783447e-01
-4.602201180965467264e-01,-4.171339622877616171e-01,-3.506269070203588134e-01,2.177267807658418101e-03,6.093633709161711334e-03,3.461820392712594563e-02,1.134284660220146179e-01
-5.096581144556053822e-01,-3.488330354233464270e-01,-3.422699190738653363e-01,-1.487630991107201026e-02,-7.916719554155897398e-03,1.076464484605721278e-01,2.501569688320159912e-01
-4.663967761216971653e-01,-4.338026909814419185e-01,-3.234363395210850811e-01,-3.434139589210328646e-03,2.659616418050929007e-03,5.190695125153315520e-02,1.580505967140197754e-01
-4.555416875785316400e-01,-4.388574325628311068e-01,-3.206265518277276461e-01,3.695660318971252800e-02,4.099659275841073536e-02,6.176812480064897831e-02,1.918721944093704224e-01
-4.039965909123293675e-01,-4.547378788672880034e-01,-3.829835140199188137e-01,-4.140937949998946960e-02,6.133034902712802827e-02,-4.127192832524701621e-02,1.600656658411026001e-01
-3.584211596510522568e-01,-4.946748308322531651e-01,-3.355795349530884542e-01,-6.554661889373415706e-02,1.297758830870132662e-01,-5.523864973198106681e-02,3.078431487083435059e-01
-2.521447257698996580e-01,-5.570532358582991339e-01,-4.165767671474285283e-01,-2.730452501200424792e-02,1.459827207284145334e-01,4.441334917611981098e-03,3.689160048961639404e-01
-2.686418340735692856e-01,-5.288234478088149615e-01,-3.953549851747617527e-01,-1.927535139967022013e-02,1.310125201133091888e-01,-3.375481271214238188e-02,3.268147408962249756e-01
-4.056832532694260585e-01,-3.373617469763157684e-01,-4.600037956206064482e-01,6.364683416140186345e-02,1.819188317615991202e-02,2.847145837987526129e-02,1.640343666076660156e-01
-2.643929091673361542e-01,-5.680366027167473852e-01,-4.009063292391973343e-01,-6.104336501152669153e-02,1.157366307076937439e-01,-7.309606483556645162e-02,3.698335587978363037e-01
-3.171956610398802279e-01,-4.998699997278716056e-01,-4.400437992446312729e-01,-4.566009173074046107e-02,5.533770885903625120e-02,-3.679401022515101094e-02,2.133614122867584229e-01
-3.912789146035231536e-01,-4.407980242998393861e-01,-3.903514628169391099e-01,3.512506369387563381e-03,7.939486122491618350e-03,3.537053077674799390e-03,5.256025865674018860e-02
-3.829065655895947939e-01,-4.445040361241134885e-01,-3.917758786552990591e-01,2.591697825130676036e-03,5.351854537257312930e-03,1.609447332044159707e-03,5.865521728992462158e-02
-4.087233749303410546e-01,-4.219221940892200484e-01,-4.043100682131238743e-01,-9.076876236420918648e-04,6.103170769537072729e-04,-3.217345336272990717e-03,1.692866347730159760e-02
-4.332861127509294863e-01,-3.829760065936514413e-01,-4.029228688428054816e-01,3.078227929165045472e-03,6.401152976167411891e-03,4.852548468504061865e-03,4.634056240320205688e-02
-3.921289629400850352e-01,-4.380148749095652549e-01,-3.908836655729751031e-01,5.152568789162603052e-03,7.793374235590910110e-03,3.522794674390818028e-03,4.963160678744316101e-02
-4.384378906445896562e-01,-3.514205323229797062e-01,-4.460728831461335808e-01,-8.657014936614129338e-03,-9.577975957168012242e-03,1.940833047669200662e-04,9.378085285425186157e-02
-4.530323211456602772e-01,-3.306637075426251959e-01,-4.604114035117869985e-01,-1.189213135364630171e-02,-1.448040367466240513e-02,-3.770104577379721107e-03,1.304892748594284058e-01
-4.380053140309591031e-01,-3.675274078543909750e-01,-4.462818505141729064e-01,-4.084454854291343778e-02,-1.887454203174961228e-03,-1.193410311066113970e-02,1.051747873425483704e-01
-4.268510271642407261e-01,-3.409999809407830429e-01,-4.614183967264247066e-01,1.816561878780429545e-02,-1.696558263027617836e-03,2.392177683268713469e-04,1.119451895356178284e-01
-4.447472819924952470e-01,-3.235685583581385805e-01,-4.559662692746930812e-01,-3.125263293527678898e-02,-1.164106508894639271e-02,1.007552691348814755e-02,1.407512873411178589e-01
-4.472754138790068223e-01,-3.491723349626204564e-01,-4.467921139421619503e-01,-5.956647203804798368e-02,-1.569802665852304199e-02,1.275676079396437755e-02,1.464548259973526001e-01
-4.434535672107908222e-01,-3.369946485557590576e-01,-4.585080308330468646e-01,-3.909536876070312562e-03,-7.283420448863444328e-03,-1.669800412429860159e-03,1.156554520130157471e-01
-4.147462137449536845e-01,-3.640297100058563773e-01,-4.398197247016171763e-01,6.341164038211712269e-03,9.418504778253329254e-03,6.111109779357263606e-03,7.050729542970657349e-02
-4.027888267008370438e-01,-4.511068561099094154e-01,-3.670708618528624734e-01,-1.197600363452566274e-03,1.279559994222739285e-02,2.604022221529072104e-03,7.649872452020645142e-02
-4.401493296090087104e-01,-3.563346682826549205e-01,-4.465115687475157968e-01,-1.544299069980895403e-02,-1.062691274815978637e-02,-2.037857864736167290e-04,9.302150458097457886e-02
-4.507867593316223775e-01,-4.137051294252620526e-01,-3.715637116543539786e-01,-1.361583736379924463e-02,-3.066349002964780662e-03,-3.906956815191591631e-02,9.938456863164901733e-02
-4.651626945345649911e-01,-4.227215636029311718e-01,-3.763356768543142383e-01,-1.815928644825101981e-02,-3.760003057342544558e-02,-6.475043967589855232e-02,1.540454328060150146e-01
-4.015045641486637007e-01,-4.314822234576941584e-01,-3.976939720869288042e-01,-4.307056712845350535e-03,6.283228457825045313e-03,-1.001337713364564182e-03,3.470605611801147461e-02
-4.447298641536826525e-01,-4.357338063473233936e-01,-3.600178766308174683e-01,-1.239167479875947012e-02,3.447581939547802749e-03,-3.054746602112460782e-02,9.894815087318420410e-02
-4.108248481669574126e-01,-4.134604269569925883e-01,-4.143437701071347457e-01,-1.233214710478826000e-03,1.043933983672325812e-03,-1.316260741826806883e-03,4.804598633199930191e-03
-4.472706198243686648e-01,-4.462454988138098155e-01,-3.417004661104838803e-01,-6.814130472387094559e-03,2.299553680266216288e-02,-4.306517223712681697e-02,1.353787034749984741e-01
-4.369292161447627110e-01,-3.767781983195244155e-01,-4.272579706749892181e-01,-5.217881787854833191e-03,1.264059328879331640e-03,-1.070726822605726387e-02,5.966868251562118530e-02
-4.765568839683946845e-01,-4.784895494514878056e-01,-2.410957128629720170e-01,-3.257663811852744978e-02,7.148952476790519650e-02,-4.973057791898699564e-02,2.860701382160186768e-01
-5.558734747394208364e-01,-4.774978279563850680e-01,-2.904372103325285059e-01,-1.128392456535929483e-01,-4.054368805817691601e-02,-1.267813397717623691e-01,3.835953474044799805e-01
-3.572844194614439028e-01,-4.319516425167787554e-01,-4.431488163108604494e-01,-4.182908911419670576e-03,4.510806117084792399e-03,-8.401320967900971493e-03,8.283665776252746582e-02
-4.495291282740628280e-01,-4.248307660696981625e-01,-4.028400412290513710e-01,-1.114514809230619449e-02,-2.225230400205388190e-02,-8.006713401817884546e-02,1.507551372051239014e-01
-5.058203526705375985e-01,-3.578286476425840412e-01,-3.650699419464610296e-01,-3.629479771947008437e-02,6.748765418114647608e-04,-1.149128089093365973e-01,2.538710236549377441e-01
-4.313356003945507666e-01,-4.018347545852721803e-01,-4.107370171352572319e-01,-1.324780421214566926e-03,-4.108562312552914170e-04,-3.072961152381566488e-03,2.685194090008735657e-02
-3.255803182103133575e-01,-4.235408218471128916e-01,-4.351556353690148038e-01,1.117283216271526547e-01,9.952058903832404491e-02,5.993392960025345495e-02,2.980065047740936279e-01
-3.951120434821486782e-01,-4.166082673859744512e-01,-4.067373947894890041e-01,3.397941994306349738e-03,1.852312490014255573e-03,5.661550690974275629e-03,2.210036106407642365e-02
-4.425694133377021111e-01,-3.354153571353254426e-01,-4.291820951960519936e-01,2.926143706839284819e-02,2.194506582359591687e-02,4.007021294294632607e-02,1.380471885204315186e-01
-4.001934790473395398e-01,-4.166286393957909784e-01,-3.492804511386788380e-01,9.404502346765011844e-02,1.203436186735013236e-01,1.304599779796873360e-01,3.531849384307861328e-01
-3.561389397871714269e-01,-4.569584333591278913e-01,-3.522769550716611797e-01,1.422711171067697344e-01,1.597671813758495540e-01,1.619706025194521115e-01,4.759959578514099121e-01
-4.301185744638529318e-01,-4.057396354187817189e-01,-3.988012576308954116e-01,-4.181412939051347769e-03,-9.696587421251020179e-04,-1.305576005566813202e-04,2.944399043917655945e-02
-3.912638902684968389e-01,-3.887982260330439255e-01,-4.443247655831992216e-01,1.358507966988977940e-03,1.014064800085386900e-03,2.935673010762471073e-04,5.441733449697494507e-02
-4.170687449498693411e-01,-4.098886205671453675e-01,-4.099269469249634534e-01,-2.479431094780059058e-04,-1.030706155248291593e-04,-2.105925576386969702e-04,7.185388822108507156e-03
-4.200324114777442275e-01,-3.896921050757244931e-01,-4.366507609484452934e-01,-5.314948254161584902e-03,1.776901027726471782e-04,-4.454565243237181005e-03,4.295672103762626648e-02
-3.506028964482110211e-01,-4.406100413827110374e-01,-4.211037824678486308e-01,9.953759080852940186e-03,1.392059074025798690e-02,1.255097569026332981e-02,8.987346291542053223e-02
-4.503288232445159522e-01,-3.486841948428606175e-01,-4.504075419498044797e-01,-1.096281403408011154e-03,-1.223961872910976113e-02,-2.762275893134363836e-02,1.143753379583358765e-01
-4.748728542213309645e-01,-3.340690073493242096e-01,-4.573311749909833579e-01,-2.354695631984432894e-02,-2.282824494662206993e-02,-5.800005874466328259e-02,1.760178506374359131e-01
-3.577673769909596180e-01,-4.212745130521682313e-01,-4.405927754932853491e-01,2.898664721277235609e-02,2.326799135535766519e-02,1.230899445830392798e-02,1.011563539505004883e-01
-4.632498804056796038e-01,-3.193865758318572001e-01,-4.567750107152702688e-01,9.955546550009700124e-03,-6.921939540296621028e-03,-3.918641811019468735e-02,1.576543152332305908e-01
-4.294568380996324763e-01,-4.069580753079495850e-01,-4.045254270848139266e-01,-1.944193245173147936e-03,1.383804725657351734e-04,-1.416977225615894927e-03,2.417155914008617401e-02
-4.674630827889790785e-01,-3.393059915621552958e-01,-4.141627869690449604e-01,2.459870294166252515e-04,-6.613442260707045987e-03,2.148415432391811986e-02,1.181120276451110840e-01
-5.619223978758760563e-01,-2.190761482388451920e-01,-4.641178230289575990e-01,4.898748949625040400e-02,-4.537468999867017710e-02,-7.759451017706553433e-02,3.535760045051574707e-01
-4.753421795539181094e-01,-3.716614527815343960e-01,-4.101168405637281023e-01,-2.426894091368229228e-02,-1.941422578581395580e-02,-5.169113723184443759e-02,1.384017020463943481e-01
-4.303230956169643018e-01,-4.231807364607972355e-01,-3.790293232439369553e-01,-2.333108817241488428e-02,2.300098199559007586e-02,-2.695291715545453798e-02,8.783643692731857300e-02
-4.628430737344194634e-01,-3.704378582986674884e-01,-4.106653124724565229e-01,8.594241800171832299e-03,-1.040267770584004867e-02,-5.048989105018555218e-02,1.209696754813194275e-01
-4.455585137454234901e-01,-3.976743973478539806e-01,-3.798247689723349696e-01,2.567979102752872365e-03,9.470556379470872243e-04,4.559717727689148979e-03,5.959076061844825745e-02
-6.473321313292788037e-01,-2.965614632237395520e-01,-3.279572749218772065e-01,-7.785490042615567097e-02,-6.016709983666249789e-02,1.448491010410666857e-01,4.527705907821655273e-01
-4.894556952891214729e-01,-3.545143015664037334e-01,-3.863972999160554256e-01,-2.801945106726503806e-02,-4.946680540409154059e-02,6.617091751902447194e-02,1.943072378635406494e-01
-4.568032219473419087e-01,-4.546638358031946936e-01,-3.243686600069063397e-01,-5.753236191470460260e-03,1.809729467371378733e-03,1.351096413681518796e-02,1.338541209697723389e-01
-4.686188193637386146e-01,-4.702802110224799104e-01,-2.762910181658815856e-01,-5.235137903475234680e-03,1.680370092480758942e-02,2.703767133593353023e-02,2.010837942361831665e-01
-4.100232611071700228e-01,-4.210856165901281090e-01,-4.075052389786980034e-01,-2.114006431362775232e-03,-2.468345142074802705e-03,2.488457662616323698e-03,1.438172161579132080e-02
-4.676545876617190789e-01,-4.696486229013757674e-01,-2.904239907410627319e-01,-1.425883259941616160e-02,-1.580768253745433449e-02,-9.870600279863139814e-03,1.828112155199050903e-01
-4.661880992682622682e-01,-4.679934550644136437e-01,-2.969932858245756258e-01,-1.159125184010819688e-02,-4.363065134291027256e-03,-1.003111646474644236e-02,1.723300665616989136e-01
-3.952596402193874758e-01,-4.398056531802093105e-01,-3.929686948491830645e-01,-1.495256328559643180e-04,1.974175896308289629e-03,-3.035712149342833545e-03,4.616333916783332825e-02
-4.675321220156506974e-01,-4.713561164900587630e-01,-3.060040295784410835e-01,-4.453543567294507288e-03,8.407989631955837748e-03,-2.579873434059451465e-02,1.702701896429061890e-01
-4.227368883495069007e-01,-4.139367625458088562e-01,-4.092303564280687644e-01,2.928772878368405847e-03,-1.200747263125030370e-02,-1.373688106134127347e-02,3.413775563240051270e-02
-4.050342100819512847e-01,-4.269426910414941823e-01,-4.111062549613129224e-01,1.792842400237447788e-03,-5.368512484042732742e-03,-5.068546369588265536e-03,2.360080741345882416e-02
-4.468388109654876095e-01,-3.458389748539767994e-01,-4.413254901212076975e-01,-2.769568669549614566e-03,-4.809925091910663593e-03,-5.192532924644410221e-03,9.923620522022247314e-02
-4.024836159557436677e-01,-4.263986247396099882e-01,-4.120033951880559542e-01,4.869859118882294453e-03,-1.496006268495443832e-02,-1.314067348471641833e-02,4.117617383599281311e-02
-4.045323579111749779e-01,-4.194827497201548683e-01,-4.162691055268319951e-01,3.531804021387158904e-03,-8.842364465401672188e-03,-7.652317823277490078e-03,2.516850270330905914e-02
-4.346968320171919475e-01,-3.867390406546767911e-01,-4.211962108651635117e-01,-1.837822502125108920e-02,-1.445729961300575885e-02,1.570891465369447099e-02,6.492599099874496460e-02
-4.398802107722599164e-01,-3.934545091483946933e-01,-3.944759541958614002e-01,2.496871737938315496e-04,-5.730313365727098028e-04,8.166528334865813619e-04,4.595803096890449524e-02
-4.127791503320790700e-01,-4.375806429888008386e-01,-3.947140366202235851e-01,-3.576506827562486116e-03,-3.484458817039484419e-03,-8.124816254730417298e-04,3.829207643866539001e-02
-4.041566215348558755e-01,-4.183158952178737122e-01,-4.144347479454263405e-01,3.669461947922852355e-03,-3.230185277565748598e-03,-6.182183083838985183e-03,1.862657815217971802e-02
-3.926864947096072034e-01,-4.152202457607447883e-01,-4.339620443009672979e-01,-2.249011756004198025e-03,1.661988871907544522e-04,-6.007840650573387231e-03,3.748182952404022217e-02
-4.116649154801923505e-01,-4.210555643929392300e-01,-4.066451246917768825e-01,-2.040929270856136919e-03,-2.224209630776549532e-05,1.638793875982988283e-04,1.315674372017383575e-02
-4.047152508374374791e-01,-4.156818842683154269e-01,-4.166973666809787313e-01,1.791560592815968390e-03,-3.052860979982070441e-03,-5.089437892897867230e-03,1.573946513235569000e-02
-4.006708150297867976e-01,-4.264079948041505363e-01,-4.137917851066635899e-01,-4.310296580880504532e-04,-2.202968269437850530e-03,-5.627362995973989382e-03,2.463703975081443787e-02
-3.995638050681429299e-01,-4.213419552986024663e-01,-4.176033043664562627e-01,1.764976731239642537e-03,-1.983317228105617360e-03,-6.774455688127011509e-03,2.378382347524166107e-02
-4.413999507576639170e-01,-3.752915228991100527e-01,-4.777919266836974654e-01,3.319784050906035566e-02,-1.588268800066559017e-01,-1.625111926126869832e-01,4.078166186809539795e-01
-3.920068359026517846e-01,-4.062810342406429909e-01,-4.192559931463179512e-01,1.896362374683665131e-03,1.565181299410005594e-03,8.300134568914496053e-03,2.796648070216178894e-02
-4.248645349836973617e-01,-4.348953969008493292e-01,-3.592785239393470054e-01,3.313262240373155559e-02,-1.000665492105701354e-01,-9.212616512569150873e-02,2.526954114437103271e-01
-4.095606534102645413e-01,-4.114871596841325752e-01,-4.160788989762269630e-01,-9.249017886364351818e-05,1.592381666373958671e-05,-9.467451002990165182e-04,6.029669661074876785e-03
-3.981785917531928121e-01,-4.277730944425797155e-01,-4.162399440832550424e-01,-3.475064164868617387e-04,-2.658781349313318106e-03,-8.020048273202356678e-03,2.969955280423164368e-02
-4.029262432557405016e-01,-4.136091291967260442e-01,-4.205993271197057126e-01,-2.983294990665352387e-05,-1.204059097425496001e-03,-5.378239854309227463e-03,1.813258789479732513e-02
-4.463140535054534452e-01,-3.949231255773503757e-01,-3.692052530725277171e-01,4.906619299807562368e-02,-8.706278764192436348e-02,-1.009362326609079957e-01,2.552464008331298828e-01
-3.858829236191828049e-01,-4.279595086456177699e-01,-4.172938595804464579e-01,5.879458673702430381e-03,-7.040002984651960727e-03,-7.628174296206507825e-03,4.315526783466339111e-02
-3.610195979338591266e-01,-4.389973831640748281e-01,-4.617831804239479476e-01,4.374711480280039227e-02,-6.620500540445235782e-02,-5.387817838872565462e-02,1.896729469299316406e-01
-4.351211331068448596e-01,-4.481881568593615861e-01,-3.685477176912090869e-01,-8.522713936394836140e-03,-2.038283030834996817e-02,-1.665850011230254196e-02,8.814470469951629639e-02
-4.422009972119743670e-01,-4.083337501877588593e-01,-4.290075897728871102e-01,2.013672278295702139e-02,-6.522046496826557072e-02,-6.306805942272118715e-02,1.636599004268646240e-01
-4.162494956101570054e-01,-4.011494257130031049e-01,-3.970278843825090775e-01,6.424292117169991441e-03,3.012666477190596714e-03,4.085353645133589680e-03,2.254657819867134094e-02
-4.074219008389428631e-01,-4.052429214307187721e-01,-4.037102270662228376e-01,1.999581894045552709e-03,1.107726953358412897e-03,5.823929979086699127e-04,5.208696238696575165e-03
-4.165515363151109929e-01,-4.443738006941833074e-01,-3.496845733606431805e-01,1.389132831077888146e-02,1.866586777383609855e-02,9.885132244491518644e-03,9.498924762010574341e-02
-3.808345346629640749e-01,-4.170777134149772358e-01,-4.193675051352728222e-01,4.280909833813307738e-03,4.138534293525662246e-03,1.052514061202072630e-02,4.290101677179336548e-02
-4.154225902740404930e-01,-3.996310860606209769e-01,-4.013077085670439526e-01,1.520043272594754713e-03,3.286754787580429497e-03,1.114029583162944254e-03,1.639418490231037140e-02
-4.104070733993988584e-01,-4.051744703835320482e-01,-4.007917168631706106e-01,3.571575740477520456e-03,1.397490839228252794e-03,1.094830494144107555e-03,1.082798372954130173e-02
-3.708869223085653477e-01,-4.485208700491967182e-01,-4.121142193130065134e-01,-6.006053772092945914e-03,1.284600577091007945e-02,-7.423380776218849002e-03,7.276454567909240723e-02
-4.323897208061525110e-01,-4.158074127626674166e-01,-3.968529336023964849e-01,-1.141081911661139675e-02,6.558315928328208901e-03,-1.563997290934841800e-02,4.692585021257400513e-02
-4.039257377772320634e-01,-4.224321479512460065e-01,-4.129573075114899017e-01,-2.522023363024173629e-03,-2.734292196921703048e-03,2.460061788404159597e-03,1.779272593557834625e-02
-4.421043310045733588e-01,-4.365978355686363499e-01,-3.540634987498846864e-01,-1.940423044721381260e-02,1.741870489541774009e-02,-2.823853650225608553e-02,1.082994192838668823e-01
-4.410100638857812339e-01,-4.159389432537626274e-01,-3.811910735941694828e-01,-4.225215449652767324e-03,2.492796158685439602e-03,-1.429883854812645169e-02,5.824700370430946350e-02
-4.744689637915552316e-01,-2.999532498499208333e-01,-4.327275841852245564e-01,1.625344675449692106e-02,1.525140148175327393e-03,4.911610990221517564e-02,1.815219819545745850e-01
-2.912969040914908936e-01,-6.010557658457078567e-01,-4.336836332865262600e-01,-1.153860760670096935e-01,1.387905777691342823e-01,-1.240333253636791144e-01,4.647602438926696777e-01
-4.375421208350522284e-01,-4.142344358404845828e-01,-3.820134386239888435e-01,-8.296943509125881411e-03,3.511109702136601353e-04,-1.254450777918496990e-02,5.487640202045440674e-02
-4.446249389530212981e-01,-4.153172300757560498e-01,-3.870681519179208774e-01,-9.262790453292731388e-03,-9.356580256659721012e-03,-2.499566882337988724e-02,6.985165178775787354e-02
-4.436845732493163164e-01,-4.043015281992566878e-01,-3.972552196227329691e-01,-1.408513197937655975e-02,-6.905767104176796685e-03,-2.026729372148443689e-02,6.203798204660415649e-02
-4.637411564018575350e-01,-4.144203371598959573e-01,-3.739211551255597343e-01,-2.243387780885159472e-02,-1.651677312682668652e-02,-8.823537688133765988e-02,1.781989634037017822e-01
-2.818221179822824052e-01,-5.254512689815843407e-01,-5.422140799070083172e-01,-1.747820015070827016e-01,3.906642136758528561e-02,-1.149610231619900974e-01,4.467583000659942627e-01
-4.035870431423537741e-01,-4.041087503215679555e-01,-4.345060185885372683e-01,-1.436557859205629369e-03,-1.525993981385810301e-03,-5.028323928520607097e-04,3.088786453008651733e-02
-3.915494581109965067e-01,-3.869537840587320421e-01,-4.424775660865260529e-01,2.569260624034799389e-03,1.516226036313044227e-03,1.143966176601610239e-03,5.366066843271255493e-02
-3.928052648221012633e-01,-4.432552454280496157e-01,-3.927057617857262484e-01,-1.368307382302783428e-03,8.073003229583926727e-07,-1.644946163283841087e-03,5.063560605049133301e-02
-4.070044131999035475e-01,-4.178301146860667337e-01,-4.138041889131329754e-01,1.704565671348552618e-05,-3.859164872130004496e-04,-2.442359285456949594e-03,1.040016580373048782e-02
-4.104397856468935402e-01,-4.107143641696837100e-01,-4.177031207547161618e-01,1.108911097736829448e-03,-2.123430329814554943e-03,-2.735221415747219123e-03,9.513007476925849915e-03
-4.105212132563262339e-01,-4.142654240704178314e-01,-4.133568449326002758e-01,1.509724514931314000e-03,-9.809225975015742165e-04,-1.056626438188275991e-03,4.951416980475187302e-03
-4.160057505201275041e-01,-4.109293541108402503e-01,-4.108884256916798816e-01,-7.470037129299421765e-04,-8.159001875511296201e-04,5.205445459678473838e-04,5.519353784620761871e-03
-3.403608892090028148e-01,-4.539639649412179900e-01,-4.331830197808110849e-01,2.770515182393252281e-03,8.620320777959563849e-03,-3.492697862021283683e-03,1.061097607016563416e-01
-4.103091007197861018e-01,-4.284039165356768875e-01,-4.026923749749503623e-01,-3.538710285148403620e-03,-6.451977711147741622e-04,4.753649439129983660e-04,2.372244186699390411e-02
-4.424807497212565610e-01,-4.131226584606809693e-01,-3.754071170072785790e-01,-6.532893420696042792e-03,-1.349466014811308984e-03,5.429739791978128310e-03,6.011290475726127625e-02
-4.092414282308649010e-01,-4.123442471928884245e-01,-4.159726340868379890e-01,-5.865397354509593367e-07,-1.950811767916500565e-04,-1.569162724162502564e-03,6.446075625717639923e-03
-4.713233150542813776e-01,-2.129991547641789107e-01,-5.931692568917389385e-01,-8.898077341600267587e-02,-2.596469502818379849e-02,-7.969353687892237470e-02,3.973436355590820312e-01
-3.786790776508184853e-01,-4.080978279895348670e-01,-4.255672320262191555e-01,7.507107968089400153e-03,9.584776541997618374e-03,1.218685501553653378e-02,5.074251815676689148e-02
-4.112233450995761430e-01,-4.029863465308438086e-01,-4.008863338546930222e-01,1.316776520144211961e-03,3.954077971006645167e-03,1.653789745564644654e-03,1.224201638251543045e-02
-4.058989569267161257e-01,-4.251809796005169839e-01,-4.036425300621949153e-01,-2.677309268390360396e-03,1.234301357443316413e-03,-1.828830310318983873e-03,2.136596851050853729e-02
-3.991475621223376513e-01,-4.346862441573868252e-01,-4.019808629533690447e-01,-5.985175814384123202e-03,2.255045348180823809e-03,-6.693007573914934623e-03,3.778154775500297546e-02
-4.264286710882504994e-01,-3.973132280078947032e-01,-4.115162323575172754e-01,-3.942361109161449106e-03,3.480257438650209961e-03,-7.858645859553349544e-03,3.006901592016220093e-02
-3.946092593749664923e-01,-4.363890024027559655e-01,-3.972968968149542257e-01,-1.776320231931666650e-03,5.206332012858336938e-03,-3.218225392737742840e-03,4.198018833994865417e-02
-4.119841527679409254e-01,-3.914736648507421979e-01,-4.580267634188374681e-01,4.573947553172093283e-02,-4.844102509078547503e-02,-5.231262617452928088e-02,1.581476777791976929e-01
-4.097526206365048607e-01,-4.097847659722144154e-01,-4.170754681258559970e-01,-1.440661119437129385e-04,3.788186175363775340e-05,-4.031797815215496612e-04,7.344655692577362061e-03
-3.895206555311790386e-01,-3.905859010851242541e-01,-4.438873374330631338e-01,-6.835689150597107962e-04,-5.170302113813538556e-04,1.043695086900333583e-03,5.389275029301643372e-02
-4.018246623593306754e-01,-4.299199333382428545e-01,-4.029087209621884380e-01,-5.481125751070681229e-03,2.567064273910053904e-03,-4.304330350287655961e-03,3.042272105813026428e-02
-3.989957989981836040e-01,-4.306741630621748196e-01,-4.034023586680293150e-01,-1.362177577497543715e-03,2.458581025406263078e-03,-4.552949876749126136e-03,3.113249689340591431e-02
-4.271366967138385262e-01,-3.693764485129001351e-01,-4.420389226641646685e-01,-1.376886633273432560e-02,2.548044263518825427e-03,-9.443871022222842873e-03,7.262824475765228271e-02
-4.526589522361536000e-01,-3.762595547624949521e-01,-4.447342122881479121e-01,-4.557586606367571014e-02,-4.084706887085762066e-03,-5.241049239474087490e-02,1.407705098390579224e-01
-4.056817159235656112e-01,-4.192514745286343159e-01,-4.128021836700245251e-01,3.284516998289127923e-03,-4.127269685156919297e-03,-4.791808452184615104e-03,1.704605109989643097e-02
-4.307423523141019062e-01,-3.632941697240865686e-01,-4.403769531049080976e-01,-2.976165351372625154e-02,3.885892271098435966e-03,-2.244749300097645742e-02,9.749952703714370728e-02
-4.478989062790217912e-01,-3.779076224196680767e-01,-4.304149787529024107e-01,-3.772475963522681219e-02,1.147504617403921796e-02,-4.174522219035767256e-02,1.177847087383270264e-01
-4.118154540474842085e-01,-4.336065612101789313e-01,-3.969041055632716586e-01,-8.912094168190258124e-04,-3.115376083217625495e-03,-2.098386691960305722e-03,3.266258537769317627e-02
-4.205813454604706014e-01,-4.203583307181794626e-01,-4.021380270756094166e-01,-1.158715154607490617e-02,6.514187790931401378e-03,-1.256116345017571460e-02,3.659960627555847168e-02
-3.335752363882685256e-01,-4.348936722040900871e-01,-4.595717136555452775e-01,9.969138323093668791e-03,2.450697097708154880e-03,-5.948003097013319571e-03,1.174609586596488953e-01
-4.271005857987016929e-01,-3.821873089294298143e-01,-4.276173916671530129e-01,-1.185760623086607249e-02,4.303877675102076895e-03,-9.271062110044856960e-03,5.268697440624237061e-02
-4.119220306975098223e-01,-4.164407676743581699e-01,-4.093404409070524608e-01,-1.069209251663682299e-03,-1.841246487521862503e-04,-3.668623043005867618e-04,6.533315405249595642e-03
-4.165416111454882664e-01,-4.146800632933366204e-01,-4.068072781565292839e-01,-2.391809884067132817e-03,-8.098281447814005830e-07,-7.376645863990473383e-04,9.944666177034378052e-03
-4.143565249165663267e-01,-4.143173791216796520e-01,-4.094804722301760291e-01,-1.591928244269341999e-03,1.654315619657911306e-03,-8.254930527073242423e-04,6.437689531594514847e-03
-4.303420841483721060e-01,-3.973532622488789579e-01,-4.110697121403992793e-01,2.337587196265451719e-03,-4.876209165270261291e-03,-3.636514536528297464e-03,3.084334172308444977e-02
-4.270257213884942060e-01,-4.046923178600396742e-01,-4.077841880061370827e-01,2.346287813197969752e-03,-2.546317282342249171e-03,-2.217577169334169172e-03,2.213612198829650879e-02
-4.055422359140355426e-01,-4.098068035903772444e-01,-4.212116300059777774e-01,-2.212984706171013951e-04,-5.379358492597335201e-04,-2.725933802936992330e-03,1.483915280550718307e-02
-4.289230037099962534e-01,-4.046947552188158714e-01,-4.056335788057099379e-01,1.101604717060437671e-03,-2.290378851148956903e-03,-3.516909337402035051e-03,2.493245713412761688e-02
-4.562798727301458079e-01,-3.187035349963571740e-01,-4.596977869908043246e-01,1.925462827033772376e-03,-9.487062819849833087e-03,1.918109633978428872e-03,1.403614133596420288e-01
-4.247045817970676040e-01,-4.059298502043709456e-01,-4.096708189311656922e-01,7.805653680562685054e-04,-9.161586025393145911e-04,-7.981074450143630815e-04,1.739271543920040131e-02
-4.031229620605343844e-01,-3.699949444562373180e-01,-4.412897335054480896e-01,8.760819798583119322e-03,9.816510558551828566e-03,6.424277021273972106e-03,6.679610162973403931e-02
-4.180782127687807659e-01,-3.587220570529293662e-01,-4.358434950966347809e-01,1.730544160479340760e-02,1.300937091802572589e-02,7.235805627938560192e-03,8.035218715667724609e-02
-4.616423884308747394e-01,-4.432881197313279231e-01,-3.244197684061523312e-01,-6.324009787766217416e-02,-1.131269048009754669e-01,5.523069456924361437e-02,2.760264873504638672e-01
-4.209173300027734266e-01,-3.660195796577823124e-01,-4.219223716086499820e-01,1.418910772777070943e-02,1.858005535671020461e-02,1.458156467158258467e-02,7.312633842229843140e-02
-4.239509094242710496e-01,-3.664428349517702688e-01,-4.231013024608251683e-01,1.017112538415089994e-02,1.376715356276428728e-02,8.824372116941375452e-03,6.611814349889755249e-02
-4.042026865503826061e-01,-3.793741624923473443e-01,-4.308533916296948263e-01,7.527168722279743707e-03,1.041596059398899182e-02,5.032380365635234255e-03,5.059485509991645813e-02
-4.099355303952618157e-01,-4.149432969899751744e-01,-4.136036179332000517e-01,4.914548973117896513e-04,-9.662055418876360369e-04,-1.391522877623782095e-03,5.431198514997959137e-03
-2.196883505375170909e-01,-5.134224563223929172e-01,-4.999179283853208977e-01,-3.290568483683051909e-02,-2.275601645104696757e-02,-1.033112876126592548e-02,2.960023880004882812e-01
-2.796071493714127887e-01,-4.684633545275691535e-01,-4.774230458268133304e-01,3.221520574523862451e-02,-3.345620111986397256e-03,-2.218317325661819939e-02,2.050910890102386475e-01
-2.838059995409960568e-01,-4.745273808174894081e-01,-4.883666314202017578e-01,-5.796878697159505572e-03,-1.708604848676374688e-02,-2.925244243334555738e-02,2.067591249942779541e-01
-3.170318435648569189e-01,-4.616523103238366899e-01,-4.617646787967649158e-01,-2.561616148263721245e-03,-1.035132740186867420e-02,-8.724419100226034687e-03,1.466315984725952148e-01
-4.047182607864077131e-01,-4.082224584537086920e-01,-4.036722904533143197e-01,1.414991242970253501e-03,3.532360243124780196e-04,7.578166461664996708e-04,5.014232359826564789e-03
-4.069571908556590678e-01,-4.051178121937904497e-01,-4.058199983090793328e-01,3.289320878790795866e-03,2.291442364536178024e-03,2.699749801459847259e-03,8.524186909198760986e-03
-4.051096400693948718e-01,-4.043652912775793640e-01,-4.063243268918568241e-01,6.463175803045926671e-04,1.778617793648038913e-03,1.404295041486885607e-03,4.426446277648210526e-03
-4.035211126552431526e-01,-5.849410667180643397e-01,-3.193722059136439029e-01,-1.113520823978107477e-01,1.368257065680291984e-01,-1.117681953411757689e-01,4.313914775848388672e-01
-4.037948304499461849e-01,-4.058568542529557011e-01,-4.062930167473852161e-01,7.545915437533336862e-04,1.397059992701063687e-03,1.833373973118038961e-03,4.794673528522253036e-03
-4.048865582834744181e-01,-4.316368877196862242e-01,-4.046935755317954131e-01,-1.700446135182886575e-03,-9.557409656239209458e-04,2.243005891925181291e-04,2.706188336014747620e-02
-4.090338151746245043e-01,-4.316343934835870644e-01,-4.032406806579476588e-01,-6.832115770670812473e-03,-4.980176555314050173e-03,2.607578209098998252e-03,3.016807883977890015e-02
-4.051834730306983490e-01,-4.298698887845417427e-01,-4.042989223894631334e-01,-1.687025267456000906e-03,-4.778312431927585549e-03,9.361291795856384150e-04,2.667774260044097900e-02
-4.092979745264623825e-01,-4.235968415315988778e-01,-4.064044501950468402e-01,-1.430716640572099333e-03,-1.048471874110071906e-03,1.480169250132366788e-03,1.643823646008968353e-02
-4.080751985498138334e-01,-4.093495436754506223e-01,-4.183987123945444031e-01,1.776016654624219685e-03,-3.758314229636710701e-03,-2.298197210305718673e-03,1.275640167295932770e-02
-4.009500318400072150e-01,-4.053434397458055560e-01,-4.342521709051666567e-01,-5.483035701848914742e-03,-1.392759378073316935e-03,-1.804112227416758462e-03,3.298180550336837769e-02
-3.847325264872686890e-01,-4.081995371319936949e-01,-4.404596824206936101e-01,5.236645512127724618e-03,-1.206463163146049471e-03,-8.967933816308714182e-03,5.173366516828536987e-02
-4.173564919906984638e-01,-4.074931007693838869e-01,-4.117274167468513713e-01,2.788753261739509125e-03,-2.206806986651164808e-03,-2.466560401744602015e-03,1.138614863157272339e-02
-4.058236178313514020e-01,-4.214101446601526413e-01,-4.115021016282511823e-01,3.150679492015065967e-07,-4.510587732242590385e-04,-1.944143108793033566e-03,1.409349497407674789e-02
-4.142325282207607873e-01,-4.106772943770504725e-01,-4.136338036803026141e-01,1.361209569137249425e-03,-1.265007097788224634e-03,-1.212336001682801957e-03,5.063421092927455902e-03
-4.175166720825202460e-01,-4.071928289631673303e-01,-4.140374398329004224e-01,-3.290799881173602035e-04,-2.350077869092318406e-03,-4.581612505193636154e-04,1.001453772187232971e-02
-4.405142009643225887e-01,-3.873470163753031659e-01,-4.124226711447498972e-01,-9.503638373645313057e-04,4.112282068135293504e-03,-1.606451205701809465e-02,5.431375280022621155e-02
-3.833795515000855136e-01,-4.341509684373793254e-01,-4.168777736173818749e-01,4.318357970229153193e-03,-1.425392387515042429e-02,-1.087718996560729096e-02,5.495018512010574341e-02
-4.350055785140918285e-01,-4.000978213335693034e-01,-4.054049490314060034e-01,-1.307388265879645597e-03,-1.967592966016470588e-03,-5.898590999276717359e-03,3.438865020871162415e-02
-4.354579279115297075e-01,-3.889817895701286887e-01,-4.114650391646397787e-01,-3.803188682531078845e-03,9.932708457288303198e-06,-9.492409436209676282e-03,4.398072138428688049e-02
-4.318147460996897280e-01,-4.049040831329668300e-01,-4.090920613388909222e-01,-8.328926441824676188e-03,-1.069008078809065808e-03,-1.469920659263384763e-02,3.858449310064315796e-02
-4.593471996632575438e-01,-3.390059831582529215e-01,-4.539388667022521973e-01,-1.978577704879538532e-02,-9.092526488465043450e-04,-5.768293018627915908e-02,1.581748574972152710e-01
-4.072217619089329443e-01,-3.980225691307253122e-01,-4.350163881569861224e-01,-3.842562189819433496e-03,-4.126890369994147545e-03,2.135226473646556760e-04,3.476177155971527100e-02
-4.558219872746794854e-01,-3.273461237748849229e-01,-4.580833599005240675e-01,-3.114821704375805161e-02,-1.049788127300395855e-02,-4.682784830968503287e-02,1.631609201431274414e-01
-4.527254491953269788e-01,-3.544186594837258064e-01,-4.329681864613701414e-01,8.040119029137925719e-05,-1.326492562757403994e-02,-1.629082277186097438e-02,9.714096784591674805e-02
-4.576485669353041463e-01,-3.239290878302881760e-01,-4.604255086759715399e-01,2.708387909506718670e-03,-9.716796030839533818e-03,-1.308984950884616895e-02,1.381275802850723267e-01
-4.570383079952158867e-01,-3.179315284523936413e-01,-4.654767751082469207e-01,1.634471086726015793e-02,-1.930633085001474958e-02,-4.826291222446869866e-02,1.717653274536132812e-01
-4.668769363329253186e-01,-2.853218967425341090e-01,-4.678731974458189002e-01,2.044124065813342911e-02,-1.196231619239644488e-02,-1.851167590715179986e-02,1.893540918827056885e-01
-3.966766551302531307e-01,-4.331748954201614654e-01,-4.125546447629198643e-01,-2.834359211192117884e-04,-3.648331810572319218e-03,-4.324421063663092327e-03,3.318112716078758240e-02
-3.444707841380001412e-01,-4.222244867758508380e-01,-4.517513489453102715e-01,3.460361365771214698e-02,1.386010035307604256e-02,2.700403348027073831e-03,1.157743930816650391e-01
-4.160821925141574007e-01,-4.110434168339314187e-01,-4.103547844361905006e-01,-2.527842755584540769e-04,-3.370289497190870776e-04,2.849641395797230148e-04,5.487204995006322861e-03
-4.156904878688596483e-01,-4.104895577417213004e-01,-4.112569045096786113e-01,-6.156632048206140458e-04,-5.594175497391740918e-04,9.067746311388198656e-04,5.309450905770063400e-03
-3.035064771948211559e-01,-4.570190398741218463e-01,-4.590023992022319588e-01,8.771960496408858984e-03,1.551103771812654269e-02,-1.589496505260765439e-03,1.575903147459030151e-01
-3.957532068535341008e-01,-4.361876809153145129e-01,-4.129113585297972677e-01,7.459843764453956807e-04,-3.318522065102196168e-03,-6.917950748825184987e-03,3.760118782520294189e-02
-2.897577940976213129e-01,-4.676089299693175771e-01,-4.432833613756697599e-01,2.956431795287136483e-02,5.118056815145646810e-02,5.074040029599401203e-03,1.960973441600799561e-01
-4.033796660074578377e-01,-4.325692258996441941e-01,-4.053602200078708084e-01,-1.080313217154384164e-03,-1.289918770940070387e-03,-4.281571467992740989e-04,2.841098979115486145e-02
-3.193062587938851338e-01,-4.590448661228182514e-01,-4.499472353948009706e-01,4.464377081825025330e-03,1.441110913176564014e-02,-2.366778133983479197e-03,1.379782259464263916e-01
-3.184269273467464356e-01,-4.469776562436281742e-01,-4.556930300372222797e-01,1.958751098356742437e-02,8.670340487398654761e-03,7.536634898864157973e-03,1.388112157583236694e-01
-3.314227788705654265e-01,-4.397670907055178935e-01,-4.421135330462999113e-01,1.508996801712141761e-02,1.528594982906647699e-02,1.166248431013715108e-02,1.174323707818984985e-01
-5.445217590091069315e-01,-2.894213253895248084e-01,-3.534100898743999242e-01,-2.185228204089219913e-03,-1.807181450184012703e-02,1.686876871476058193e-01,3.731057941913604736e-01
-3.985324274637870867e-01,-4.273828337238743669e-01,-4.126178028151958332e-01,2.869739854857056294e-03,-9.406547884087915201e-03,-6.790947654251375601e-03,3.244813531637191772e-02
-4.050632821764178493e-01,-4.320326852013860464e-01,-4.041198051273202640e-01,-6.632061589273469560e-05,-1.168727224851253332e-03,-1.013411391423082184e-03,2.758397720754146576e-02
-4.026811934434286755e-01,-4.319145995975927632e-01,-4.064877587246836232e-01,-4.799773520451807427e-04,-7.015313439975084595e-04,-1.967791160960466294e-03,2.777745947241783142e-02
-4.059313383670570818e-01,-4.262974960623002185e-01,-4.086642339990536055e-01,1.060495382007134533e-03,-8.857410895218588952e-04,-1.783585129360503721e-03,1.954128034412860870e-02
-4.094691541546736646e-01,-4.064002176499455499e-01,-4.208475567827351660e-01,-1.008963066824646385e-03,-3.045874129292744977e-03,-7.473349627365743781e-04,1.436550077050924301e-02
-4.058873628502152053e-01,-4.295514794519497137e-01,-4.037253098842363830e-01,1.408861284183818589e-03,-4.299142038270323263e-03,-1.896609702873595102e-03,2.623017132282257080e-02
-3.925657079186976595e-01,-4.359996050127877831e-01,-4.036819464243572297e-01,-2.652016163334361756e-03,4.713007262741103140e-03,-6.909494302769246706e-03,4.193104803562164307e-02
-4.083112297922897871e-01,-4.205270092311320096e-01,-4.080620485576620382e-01,-6.207248757864190086e-03,3.842184915073127739e-03,-7.015658361690617698e-03,2.144450135529041290e-02
-4.103282551235970521e-01,-4.319691439269194300e-01,-3.900414090102959364e-01,-9.021821122480008087e-03,1.933583501313065499e-03,-2.306675057776402804e-03,3.987816348671913147e-02
-4.106815827681356557e-01,-4.285419095523766431e-01,-3.966569981385007493e-01,-9.043640334135481795e-03,7.129130394394582113e-03,-6.437092769000506663e-03,3.589301183819770813e-02
-4.085166776505949060e-01,-4.280419644262208889e-01,-4.032241292615187933e-01,-1.819670108826343564e-03,-8.164950505492126918e-05,1.779203165030717479e-04,2.286121062934398651e-02
-4.015541032250649067e-01,-4.287018350749305928e-01,-4.119020614453829388e-01,-2.336857550384454068e-03,-3.262043899712394491e-03,1.143502011659046575e-03,2.480694092810153961e-02
-4.022796166545724028e-01,-4.126580872997629434e-01,-4.219972037353142968e-01,-3.784169491603380821e-03,1.158874089210857076e-03,-4.377287922950114443e-03,1.990799419581890106e-02
-4.189684268532439249e-01,-4.179901855193128291e-01,-4.024597052217396276e-01,-6.538191692328042606e-03,-1.573728423770318465e-03,3.156419936155697818e-04,1.983224414288997650e-02
-3.999261355550371433e-01,-4.460463816944620907e-01,-3.753820540658181493e-01,-3.707506034398985999e-03,9.153053234545707045e-03,-3.806417155369583825e-03,6.478816270828247070e-02
-3.695125237095088222e-01,-4.531621306425422380e-01,-3.904585136399209566e-01,-8.185272877364658736e-03,4.078475490631124079e-02,-1.106142291191350956e-02,1.060288548469543457e-01
-4.161639425711107232e-01,-4.099547116721931617e-01,-4.112901147367542531e-01,-2.119604725343329229e-06,-6.694319178581080486e-04,2.143127954118461743e-04,5.790357943624258041e-03
-4.016809449101660379e-01,-4.434655549516470230e-01,-3.803193381296264275e-01,-5.258618511212209343e-03,1.426586121000705462e-02,1.891907531351655564e-04,6.155054271221160889e-02
-3.830748587592333609e-01,-4.998037861612578681e-01,-3.756141825625677888e-01,-4.292444364175469068e-02,6.734985906700556579e-02,-4.091544239980494935e-02,1.967484056949615479e-01
-3.275322093508021837e-01,-5.131880097948906538e-01,-3.590536115351482538e-01,-5.715258626367539924e-02,1.311118996990237040e-01,-6.214907869640414612e-02,3.202613294124603271e-01
-3.633846427571683080e-01,-4.871677676897420151e-01,-3.885104899735530304e-01,-5.679158244317070864e-02,5.739355308747162709e-02,-3.275869269125589178e-02,1.887345314025878906e-01
-3.808129462947341115e-01,-4.419325157415477379e-01,-4.109203896784033305e-01,-1.682839573175907988e-02,3.314267096675047042e-02,-2.020261436743863923e-02,9.039489924907684326e-02
-4.095301571446727240e-01,-4.310165446952936574e-01,-4.049289456318609925e-01,-6.386559475794606824e-03,-7.249880074097683931e-03,-1.259304173097761104e-03,2.943643368780612946e-02
-5.414897752457537017e-01,-2.671502980971836028e-01,-3.961250653603543559e-01,-9.320074496283980298e-03,-2.674322289598909941e-02,1.489898653328795841e-01,3.542793989181518555e-01
-4.307212440393656805e-01,-4.257436827759140119e-01,-4.083068864368947226e-01,-5.016664990250418316e-02,2.114317524127483708e-02,-6.418448070002535921e-02,1.471928507089614868e-01
-3.777481224235818558e-01,-4.572174565375625721e-01,-4.079882538853463192e-01,-2.163338935035297866e-02,3.469670507583017677e-02,-1.646292724964554949e-02,1.032247841358184814e-01
-4.325942443389365066e-01,-4.072526068605559768e-01,-4.019367649435867662e-01,-2.807034061719467562e-03,-9.141280453791208712e-04,-1.246801800490719573e-03,2.891327813267707825e-02
-4.354537599095079092e-01,-4.007450169824626762e-01,-4.042432367023747752e-01,-8.431692254545856144e-04,-1.338533231516416105e-03,-4.112533698890948400e-03,3.396707400679588318e-02
-4.349213004327035503e-01,-4.022212549609991972e-01,-4.054411727330050619e-01,-1.184786429298203278e-03,-1.320431860937154849e-03,-1.120639365147611680e-03,3.142576292157173157e-02
-4.165812675563192458e-01,-4.101517587319972735e-01,-4.101476545022844644e-01,5.169534612089522062e-06,-1.107831700922455045e-04,1.702103726361914196e-04,6.441180128604173660e-03
-4.371780025740346631e-01,-4.120945755545993294e-01,-3.941388996605887929e-01,-4.649096211522972012e-03,-1.175597003675446679e-03,-2.874622450490168027e-03,3.867496922612190247e-02
-4.019991276058383356e-01,-4.077663884878213185e-01,-4.315339282939332222e-01,-8.972096909554363618e-04,-2.934230116577261752e-04,-2.512996249925988738e-03,2.751089818775653839e-02
-4.060278928469806536e-01,-4.096005598347386978e-01,-4.249213369580687738e-01,-9.507932147717666847e-04,1.111757379415840219e-03,-1.605424071427487233e-03,1.778702810406684875e-02
-4.064519228994574740e-01,-4.048846970441828397e-01,-4.290586822777615050e-01,-4.097205628148564011e-03,6.181460881765861231e-04,-1.431978540132689860e-03,2.462947368621826172e-02
-4.133031931884578736e-01,-4.218037529774369965e-01,-4.067025994291648683e-01,-5.820974127804190434e-03,-3.484333933406334478e-03,2.963547939635125753e-03,1.834003627300262451e-02
-3.908966696727727563e-01,-4.309694572172736438e-01,-4.218619294525348118e-01,-4.224678131437580378e-03,-6.604670335463167646e-03,3.218840219765063725e-04,3.883980959653854370e-02
-4.102446349352169008e-01,-4.237575874453093361e-01,-4.068259144483653555e-01,-5.438732458423369519e-03,-4.409337990329464420e-03,2.785624426559117888e-03,2.026893943548202515e-02
-3.899819238471816663e-01,-4.156087887019843108e-01,-4.445171542725067648e-01,-2.171317481302029173e-02,-4.970416741044664938e-03,-1.137398817639850498e-02,6.410822272300720215e-02
-4.152289503619018274e-01,-4.174283026883541803e-01,-4.046920835655708482e-01,-4.398068131846125800e-03,-3.013029551980636947e-03,1.563413887889120125e-03,1.521952170878648758e-02
-4.146671635546360091e-01,-4.206874466137703328e-01,-4.031374834157266940e-01,-4.759687785141275204e-03,-2.567579658730244352e-03,1.589608215490198985e-03,1.827323436737060547e-02
-4.473004908350212139e-01,-3.771539323683721912e-01,-3.962240506357867509e-01,-1.614031633863614737e-03,-3.282468587647718004e-03,1.302661864566724212e-02,6.705015897750854492e-02
-4.094159389140469285e-01,-4.318588822468024113e-01,-4.045073924758275097e-01,-6.414168044827012367e-03,-7.223923610156661457e-03,-9.341228932943051837e-04,3.034039214253425598e-02
-4.237728623324637511e-01,-4.011340445533393972e-01,-4.099231106126295376e-01,-2.796674492150391916e-03,-5.920162432804303328e-03,1.398153114932325228e-03,2.291862294077873230e-02
-4.048786352411682943e-01,-4.294724447327668004e-01,-4.057136793366935557e-01,-2.533895260176931633e-03,-3.953416441619425452e-03,7.532799369086465129e-04,2.555129118263721466e-02
-4.077208319993838592e-01,-4.317327083671541055e-01,-4.024642836368109711e-01,-3.312230443526201218e-03,-1.150176155999224105e-03,-1.450662486973790417e-03,2.781394682824611664e-02
-4.262534179437234005e-01,-3.863901253880264730e-01,-4.263355951164541913e-01,-2.186304013880721597e-02,-2.464623687065739879e-02,1.321565020724193087e-02,7.329811155796051025e-02
-4.353082202115046706e-01,-3.850529473261840585e-01,-4.189823605267802842e-01,-1.327571615310557673e-02,-1.222213342711160784e-02,2.064139009738210837e-02,6.501340121030807495e-02
-4.004354594738394613e-01,-4.200621836476322590e-01,-4.221924159957042288e-01,-3.975246361802875841e-03,-2.980696395964167397e-03,2.041171806125964636e-03,2.276216633617877960e-02
-4.736181272415904697e-01,-3.526351288520532257e-01,-3.945716587475602277e-01,-4.340441036398147087e-03,-1.065328958637825826e-02,3.810688636873840046e-02,1.267886161804199219e-01
-4.514658980909493913e-01,-3.763219802543708581e-01,-3.973870728841604749e-01,-5.081435482021104053e-03,1.748807084435541033e-03,1.468087660593910687e-02,7.239236682653427124e-02
-4.391955123180062426e-01,-3.701210429289421011e-01,-4.191950184652007416e-01,-9.567934851673969357e-03,-1.345291486133554787e-02,1.178423073381376987e-02,7.087991386651992798e-02
-3.986173979254779010e-01,-4.180906721201689824e-01,-4.215201678867887547e-01,-2.171000655467544144e-03,-5.822139360570054980e-04,-7.788140219187031192e-03,2.559053339064121246e-02
-4.472820380621022607e-01,-3.575853529582000423e-01,-4.212841552552713531e-01,-9.390849120535534186e-04,-9.261588735539238310e-03,1.773779221455864738e-02,8.713968843221664429e-02
-4.359224382478781301e-01,-3.968777019983151799e-01,-4.039887550715746678e-01,-1.327364035438597691e-02,-1.545212669551322519e-02,2.549605355080430957e-02,6.702557951211929321e-02
-4.505963572578731702e-01,-3.664048113888767055e-01,-4.120497474562114237e-01,-2.696586756725981738e-03,-6.692307896869324237e-03,6.698531673815850095e-03,7.496362924575805664e-02
-4.186014998463995496e-01,-3.760812098347671162e-01,-4.390884517374554763e-01,3.630637745865742533e-02,-2.368289498656767772e-02,-3.314560286757832486e-02,1.096895262598991394e-01
-4.114021368147422475e-01,-3.832464725443578413e-01,-4.533706889798789219e-01,3.574254393830932075e-02,-3.562739275256093796e-02,-6.579361170585563967e-02,1.560854613780975342e-01
-4.179496252289392477e-01,-4.085034085857356390e-01,-4.104443630119686826e-01,-1.190188373032781757e-03,-2.445539591218255822e-03,1.391995667158431619e-03,1.013253349810838699e-02
-4.471564799319111549e-01,-4.077610940032440623e-01,-4.012333840752971836e-01,-1.518160155948143674e-03,-2.219706999750065135e-02,-5.986369287250878357e-02,1.186920329928398132e-01
-4.405319323950078192e-01,-4.192453363831546431e-01,-4.066706765595262119e-01,1.163069081604998015e-02,-5.539628675376850886e-02,-7.394486341233497129e-02,1.639954447746276855e-01
-4.165829657338611103e-01,-4.104673558456160554e-01,-4.098257831630139902e-01,-1.992823429429451266e-04,8.356995418559223234e-05,1.491897472427014017e-04,6.476324051618576050e-03
-5.250137088129764873e-01,-1.674548007570944297e-01,-4.920361438912871366e-01,4.873100703236183523e-02,-1.996576153104939744e-02,1.116454739131927387e-01,4.035574793815612793e-01
-4.328338970448166734e-01,-3.634509811584312189e-01,-4.383371565933950054e-01,7.096288507055765506e-03,-1.556067161043438001e-02,-1.178273728319550843e-02,8.074702322483062744e-02
-4.278840558162521068e-01,-3.883509941476592786e-01,-4.184832386970278595e-01,2.227401480364524147e-03,-9.601323803029575277e-03,-8.922991197005953126e-03,4.254285618662834167e-02
-4.278729653582672987e-01,-3.666594559966290245e-01,-4.368741574230874392e-01,9.927053614659557546e-03,-1.958300889414398699e-02,-1.326093176562029817e-02,7.970438152551651001e-02
-3.989259088964218769e-01,-4.058215894965270798e-01,-4.300627449131154134e-01,-1.861696114190332949e-04,-7.921875994771421584e-04,-4.201440400137487242e-03,2.927945181727409363e-02
-4.157695583267739803e-01,-4.131554454885176808e-01,-4.090699908727966072e-01,-1.652737434294519660e-03,-3.113348242446768764e-04,1.799040657850218433e-04,6.541167385876178741e-03
-4.012095479788272967e-01,-4.320661927068891739e-01,-4.061373340662547959e-01,-8.929888322676459095e-04,-5.157029574928241773e-03,-3.384907842523073810e-03,3.067426569759845734e-02
-4.064742490932979901e-01,-4.314040845795210632e-01,-4.025683902587318674e-01,7.817480459399032185e-04,-4.342421211580198628e-03,-1.878774859817378042e-03,2.833932824432849884e-02
-4.025630353764842462e-01,-4.312130362726918076e-01,-4.081455105734312361e-01,-1.306698706994264582e-03,-1.695426189654451526e-03,-2.691893461986308907e-03,2.697282657027244568e-02
-4.050415237583125383e-01,-4.312695102329671681e-01,-4.049589391993191345e-01,-2.179270114810700576e-05,-1.130617805018912419e-03,-1.201813873233306988e-03,2.642441168427467346e-02
-4.491208527335601164e-01,-2.951207712417470708e-01,-4.531718842306131645e-01,1.528154018579991891e-01,9.548994818551354014e-02,1.368148988377946018e-01,4.218102395534515381e-01
-4.049609337497492301e-01,-4.343614608376211161e-01,-4.030637069872227141e-01,-1.308403112147047158e-03,-1.182082998055362846e-03,-1.686314983035043080e-03,3.068596869707107544e-02
-4.013491513518274156e-01,-4.268018084771519893e-01,-4.123194602186393554e-01,1.539177704507346854e-03,-3.042626505678134446e-03,-6.393076962386398145e-03,2.542550116777420044e-02
-4.070043947454883293e-01,-4.170277349649671450e-01,-4.133586347324115784e-01,4.403113874682223518e-03,-4.726828792219873662e-03,-5.455773427695593050e-03,1.707748137414455414e-02
-2.704064559375439769e-01,-5.545755053909071641e-01,-4.548578747896434571e-01,5.484983903941435812e-02,-1.107471675900959240e-01,-1.358675828283011089e-01,4.044246673583984375e-01
-4.020298242847977210e-01,-4.220011444899501862e-01,-4.126896677701934468e-01,2.511337797853729903e-03,-2.713972126974637661e-03,-5.119760574116415108e-03,2.047554589807987213e-02
-4.330900506694379537e-01,-4.054125119431751245e-01,-4.024287105922215169e-01,-1.041707433788173790e-03,1.173110243099296547e-04,-7.990589404510768830e-04,2.937253378331661224e-02
-4.073446841934199592e-01,-4.184285216467126811e-01,-4.120096970553481230e-01,3.465404716248043134e-03,-2.249516509980298458e-03,-1.824151571958442832e-03,1.241362933069467545e-02
-4.069671120812989873e-01,-4.215847542200096276e-01,-4.102591838459854756e-01,2.405655843201928452e-03,-1.732600360418194577e-03,-2.337715064873746758e-03,1.480381190776824951e-02
-3.801455082031994226e-01,-4.520836433463421011e-01,-3.984512917244395491e-01,-1.983352011745296087e-02,-4.970776028939416502e-02,3.541826525623494037e-03,1.132414937019348145e-01
-4.656518440834733208e-01,-4.548540933212317783e-01,-3.373217436083669751e-01,-3.118943729469511247e-02,-5.598643741235835580e-02,2.229050372794517260e-02,1.703288406133651733e-01
-4.124235924633269934e-01,-4.074659577071765293e-01,-4.209232721619039497e-01,-3.207962926017287122e-03,2.086837991220602366e-03,-3.054965597276710059e-03,1.452230010181665421e-02
-4.689579643321482028e-01,-4.161258104141059566e-01,-3.611621059716976223e-01,-5.202503100428615412e-02,-6.299871441150640961e-02,5.684119017563932230e-02,1.960489302873611450e-01
-4.733303233944896604e-01,-4.217282269074351664e-01,-3.416018314575939296e-01,-3.390775129654824416e-02,-3.802894390127416896e-02,3.952878990769331802e-02,1.602906435728073120e-01
-4.374062738931316918e-01,-3.594970590403782085e-01,-4.170601950800226221e-01,5.366093884243914799e-03,9.037786756092260759e-03,9.654333056181376577e-03,7.422742247581481934e-02
-4.545529640901210255e-01,-4.622244628009388734e-01,-3.089953764237128864e-01,-9.222842338132357376e-03,1.043971586834087535e-02,4.140298263913639795e-03,1.516445875167846680e-01
-3.967295020428560637e-01,-4.338548113780028026e-01,-4.118933126222946162e-01,-7.270248733185416664e-04,-2.588259259644337586e-03,-8.056785482988477239e-04,3.269401937723159790e-02
-4.308238256916013253e-01,-4.435936199430837168e-01,-3.759503280666930403e-01,-5.099478148097574826e-02,-6.317306536349219515e-02,3.338070440141873568e-02,1.642912626266479492e-01
-4.016807036448755697e-01,-4.186766920621960431e-01,-4.184546540694438210e-01,-1.691676402360703596e-03,-1.873187443802803339e-05,-6.769452251371751127e-03,2.076540328562259674e-02
-4.507554811212469148e-01,-3.591205906213295607e-01,-4.173732830959225870e-01,-5.381861507188448294e-03,-9.676104970328263527e-03,2.821449230322842228e-02,9.595987200736999512e-02
-4.729294199308164970e-01,-4.225708629094051538e-01,-3.401909817254865631e-01,-2.608947439648157118e-02,-4.214780051298943481e-02,3.792382052037680806e-02,1.586092710494995117e-01
-4.635798124151503941e-01,-3.284978835083364190e-01,-4.458205902887648064e-01,-3.423888260168453379e-02,-4.248407848824932442e-02,4.460555311428236747e-02,1.762501895427703857e-01
-3.604753330236151188e-01,-4.134855499723444905e-01,-4.466394542706743076e-01,7.801492942182631542e-03,3.664185653431724018e-03,5.180757182020861301e-03,7.726674526929855347e-02
-3.823822719129059133e-01,-4.304998265363528809e-01,-4.293128211808026617e-01,2.950932708859925046e-03,-3.546202807387031832e-03,-1.173163574690328469e-02,5.231000483036041260e-02
-4.524605434172483953e-01,-3.238771186458246909e-01,-4.529743127392906743e-01,-7.951724056288942116e-04,-9.827114312527756787e-03,5.231666882687258623e-03,1.302833408117294312e-01
-4.100787878487874849e-01,-4.213076015572549404e-01,-4.082988974776866065e-01,-1.837215960235030711e-03,-1.168495470587971232e-03,1.347666273650343889e-03,1.299658324569463730e-02
-4.527145864929392749e-01,-3.350969653036920959e-01,-4.484639605292001230e-01,-1.088563562577653070e-02,-9.439334985811382792e-03,1.347783268459432950e-02,1.204980239272117615e-01
-3.395820635562387668e-01,-4.441338794904231002e-01,-4.501963488694549209e-01,5.462922853134187691e-03,-1.193815332056459132e-03,-8.099291992757709155e-03,1.090517267584800720e-01
-4.299890826852947878e-01,-4.309480468386048813e-01,-3.782204217834659321e-01,-1.097301394993764438e-02,-3.505354447038379860e-03,4.180974201721042276e-03,5.640109255909919739e-02
-4.044693792877619987e-01,-4.008136781084196132e-01,-4.362100442968451230e-01,-1.108809471740639270e-02,-8.151380843527037887e-03,-9.918596770105737870e-04,4.132786393165588379e-02
-4.111855991752131900e-01,-4.372747032845450965e-01,-3.960719455458621696e-01,-3.229582409209278814e-03,-3.048926925083102549e-03,-4.811295104506569569e-04,3.692205995321273804e-02
-4.171756068032344555e-01,-4.235922511997382567e-01,-3.989533022678056207e-01,-7.217312236296832828e-03,-2.011919012457724122e-03,2.369656515455666906e-04,2.566578425467014313e-02
-4.052622405201696809e-01,-4.070565851894875631e-01,-4.257240392917108207e-01,-3.427957554219329857e-03,1.470492467356319987e-03,-1.928986339014942576e-03,2.093064785003662109e-02
-4.090409372058194659e-01,-4.150191342903756797e-01,-4.141735044427147239e-01,-1.998348407708021909e-03,-1.954454524676750831e-03,1.735357277806434196e-03,7.992048747837543488e-03
-4.592690989736002427e-01,-3.325934175131550208e-01,-4.414005534533072539e-01,-1.023529817924372087e-02,-1.515084417498578119e-02,2.635047216001949397e-02,1.311048120260238647e-01
-4.388704319902057005e-01,-3.567704546737857085e-01,-4.458201340702728777e-01,-2.115696413885940347e-02,-1.580089173447246989e-02,7.994770958319099424e-03,9.819816797971725464e-02
-4.252633448849101327e-01,-4.099421966883430857e-01,-4.005503336522033275e-01,-6.300233701484825657e-03,-2.153345384044478162e-03,2.269631801200648179e-03,2.480487897992134094e-02
-4.458582428167303102e-01,-3.495756345531204623e-01,-4.488141425255651740e-01,-1.629834427228702212e-02,-9.562292006846988268e-03,4.509901587123577374e-03,1.034210696816444397e-01
-4.253126571218343033e-01,-4.045423855060197305e-01,-4.051851153447282305e-01,-5.579664677902245427e-04,-2.132616742847744627e-03,7.167004144444907897e-04,2.084674313664436340e-02
-4.438767006606167964e-01,-4.772232900335957595e-01,-4.120957544626663860e-01,-1.572760218491827122e-01,-1.819162908034079318e-01,4.373820015747319906e-02,4.270933866500854492e-01
-3.492914414745882379e-01,-4.336563983071839434e-01,-4.486712835705043978e-01,-3.193722441499731446e-02,8.602282062788756123e-03,-2.115580407183287673e-02,1.150403544306755066e-01
-4.011441251789445994e-01,-4.114661226027649388e-01,-4.302439124809710469e-01,-4.764183601704676495e-03,-3.223003278610569403e-03,5.410679211824412013e-04,2.744279801845550537e-02
-2.693400567234629506e-01,-4.803774772381432800e-01,-4.446907326434811902e-01,-7.911270517040715211e-02,1.143922453153728980e-01,-3.943541060847592650e-02,3.177700042724609375e-01
-2.353160032914101418e-01,-4.994586714763092350e-01,-5.597890269274595765e-01,-1.079729025121512337e-01,1.451927147028503296e-03,-1.168485730091737423e-01,4.065568447113037109e-01
-4.158232210503235993e-01,-4.115398029507084110e-01,-4.109520860815492060e-01,-9.747615582895916269e-04,-8.868852513192627268e-04,1.716240719437115093e-07,5.140106659382581711e-03
-3.100252503708933460e-01,-4.414006821882918707e-01,-4.829627550249511181e-01,-1.195027534329859836e-01,-2.234164905439307847e-02,-2.839643769837869522e-02,2.668452560901641846e-01
-3.829913682546909892e-01,-4.236008915666386043e-01,-4.318827968745735935e-01,-4.798621883350028851e-03,-1.872570285618272790e-03,2.437146423021397702e-03,4.638390243053436279e-02
-3.462578705475611862e-01,-4.757926136428046182e-01,-5.270203636233702360e-01,-1.909469416858026181e-01,1.999495306139369502e-02,-1.098594811164174262e-01,4.157261252403259277e-01
-3.646890287408601772e-01,-4.508917092406664051e-01,-4.651710558984668564e-01,-6.699861591385558590e-02,-1.626714815336942691e-02,-3.067152204584448413e-02,1.610846072435379028e-01
-3.076111966562689037e-01,-4.700343145784063315e-01,-4.631408114157953282e-01,-3.534927022709689892e-02,3.415699463145388526e-02,-2.335008143873685410e-02,1.849151700735092163e-01
-3.156181405706732224e-01,-4.630961921502789735e-01,-4.534876332996682913e-01,-3.532163946617140199e-02,3.042833193850520354e-02,-3.571506663621128869e-02,1.754202097654342651e-01
-4.000569159595255830e-01,-4.185902818272920212e-01,-4.203743046395084226e-01,-9.728332124255012221e-04,-3.898740816864265180e-04,-7.761680028565752162e-03,2.374360151588916779e-02
-3.833718333024117020e-01,-4.452320113847951233e-01,-4.107063203401604135e-01,-3.884906338286554296e-04,-9.722543281069742291e-03,-5.272921728359370071e-03,5.701216682791709900e-02
-3.725781156147317530e-01,-4.037668027265011172e-01,-4.265925030959740738e-01,2.744724607645985734e-02,2.519389196408432230e-02,1.972668804924418429e-02,8.681778609752655029e-02
-3.484637627448974873e-01,-4.406563233763607368e-01,-4.415725725007870750e-01,1.858965994900747473e-02,-2.363968081082053890e-02,-1.355539154807522406e-02,1.088542863726615906e-01
-3.877981090534436404e-01,-4.379749310768810688e-01,-4.164949178258819940e-01,1.942841945828786780e-05,-1.717396588483275505e-02,-5.033808239139763406e-03,5.349915474653244019e-02
-3.686853692489504564e-01,-4.682759139215761368e-01,-4.290141987884454333e-01,6.791207785904668226e-03,-6.633171687858939458e-02,-3.364212165613938987e-02,1.558303236961364746e-01
-4.012508598104952418e-01,-3.876511142336024340e-01,-4.374599225761483523e-01,9.777823350268171829e-03,-8.765585186423155775e-03,-4.586595379011288234e-03,5.068449303507804871e-02
-3.981693065690051769e-01,-4.447973190792271492e-01,-4.042240016437037564e-01,-1.016827722797003508e-02,-2.576172552815169867e-02,4.081297013659308283e-03,6.541914492845535278e-02
-4.145410721619172678e-01,-4.032839127867714479e-01,-4.220065489316670027e-01,-6.251429761906041917e-03,3.231032296968433786e-03,-3.655079075817131967e-03,2.133390866219997406e-02
-3.874313314152323939e-01,-4.359587440460335750e-01,-4.172222498856715811e-01,3.421792476344351006e-03,-1.737716364211112918e-02,-6.937966931865070623e-03,5.368576943874359131e-02
-3.556265438674356405e-01,-4.389845178024366912e-01,-4.401029102819454253e-01,3.161640746752961400e-03,-1.412526081454445505e-02,-1.357054082002755700e-02,9.068663418292999268e-02
-4.300549650281299541e-01,-4.003085447038262634e-01,-4.075047097117249773e-01,5.444121917351272752e-03,-7.945190871914104697e-03,-1.122054422152183456e-02,3.712909296154975891e-02
-4.277189233178116390e-01,-3.893889998256986895e-01,-4.184675825836525198e-01,5.927998342975960427e-03,-9.160318138788302658e-03,-6.760964067372004192e-03,4.116377979516983032e-02
-4.281981194035537341e-01,-3.963865970281401085e-01,-4.170689585844197245e-01,-4.434465321093067266e-06,-7.378693873352800206e-03,-1.783408627401995373e-03,3.089777752757072449e-02
-4.279566115712761243e-01,-3.996316797208456784e-01,-4.154924608793277852e-01,-3.495838275851928566e-04,-1.028830474421023843e-02,-8.945340449848128775e-03,3.409665822982788086e-02
-3.788335866073669900e-01,-4.150568152160505342e-01,-4.446569803106477092e-01,4.164684896408336542e-03,-3.757163875328802492e-04,-1.148314488620026316e-02,6.089787185192108154e-02
-4.293973837366484858e-01,-4.137222290343043896e-01,-4.015669513835125604e-01,-3.090723222198704656e-02,1.529242906522688961e-02,-1.727897451759326589e-02,7.104247063398361206e-02
-4.310281800001563579e-01,-3.761344337283974437e-01,-4.288524664641706341e-01,5.832754760945213848e-03,-1.176021514741436638e-02,-5.844323781801739025e-03,5.931326374411582947e-02
-4.273859531872237216e-01,-3.780282014940338220e-01,-4.538919440306170561e-01,1.527600638035747464e-02,-3.352646089116598921e-02,-6.129896007992136769e-02,1.406835466623306274e-01
-4.232337127063244275e-01,-3.708213550828722838e-01,-4.375040385164998269e-01,7.181613912373506492e-03,-1.322450150018910156e-02,-8.010352004658886221e-03,6.760565936565399170e-02
-4.417570645452552069e-01,-4.415774222890597733e-01,-3.584603493219019055e-01,-6.773594221138995973e-03,-4.822585385162155534e-03,-4.623507429462846152e-03,8.482310175895690918e-02
-3.899194486878304056e-01,-4.290431792773235498e-01,-4.197301741324305779e-01,1.263351375642812399e-02,-2.806832132963330007e-02,-2.663396271407912977e-02,7.888885587453842163e-02
-4.096216113609510989e-01,-4.218996607454730818e-01,-4.019949378044384569e-01,-6.402942144335208724e-03,2.208376005077465534e-03,-2.783674586239632664e-03,2.152736857533454895e-02
-4.412205886065935223e-01,-3.311565967312700143e-01,-4.443877172306848755e-01,1.107627937418939612e-02,8.686913808129784545e-03,1.002735538530824359e-02,1.156234517693519592e-01
-4.263764200214089639e-01,-4.210674119374103186e-01,-3.883022977994188274e-01,-1.087101740722340622e-02,4.156524351079904714e-03,-6.673971537515486011e-03,4.261081293225288391e-02
-4.192366531118909556e-01,-4.125837618114344130e-01,-4.076064489576234906e-01,-3.762716867863317820e-03,2.148477432694103403e-03,-2.826981976245309530e-03,1.350724231451749802e-02
-4.028482093082384474e-01,-4.073571567994608289e-01,-4.334754107097610332e-01,-9.142933399048583029e-03,3.738281582758935708e-04,-5.753332012261566653e-03,3.421638533473014832e-02
-3.984772768834544676e-01,-4.094463812671577663e-01,-4.320307973304077787e-01,-5.063369958395063687e-03,7.467281947790568126e-04,-4.792075914533687302e-03,3.202477097511291504e-02
-3.973864407185307424e-01,-4.091142607598645120e-01,-4.343373490275421744e-01,-4.932931678025985825e-03,8.989332626403443490e-04,-4.550783392600405396e-03,3.474352136254310608e-02
-3.724815576120381611e-01,-4.410849502674671907e-01,-4.283201685106726719e-01,1.093299488386701790e-03,-5.254053247790519722e-03,-9.735648486917238692e-03,6.606366485357284546e-02
-3.495117279606033134e-01,-4.337400397269260410e-01,-4.504394312597221894e-01,8.442885161189487772e-03,-1.827385860082299165e-03,-1.265182079782603379e-02,9.738536924123764038e-02
-4.021179730303358624e-01,-4.051966059573151591e-01,-4.351070930518151636e-01,-1.078913830667916534e-03,-1.717254119713715376e-03,-1.566292717679273593e-03,3.187314793467521667e-02
-3.739651814395613671e-01,-4.466452599082023633e-01,-4.237621039437083348e-01,-2.119026397157963010e-02,-5.051983996801007876e-02,1.036484248581146482e-02,1.160560995340347290e-01
-4.091896421475096912e-01,-4.148126656932397682e-01,-4.162093808013052620e-01,-3.391907514047699367e-03,1.664049633664174644e-03,-5.194503755919173231e-03,1.285277679562568665e-02
-4.118906853439824878e-01,-4.156762058430144013e-01,-4.102200393770759068e-01,-3.268321466126319647e-05,8.531349116396439499e-04,-4.553886285138126480e-04,5.123899318277835846e-03
-4.110968106524680588e-01,-4.162424945067030313e-01,-4.102820210164301318e-01,-7.578771084086538881e-05,3.159561854239729376e-04,-1.482756417321658937e-05,5.626008380204439163e-03
-3.803503948162615944e-01,-4.386608052744094821e-01,-4.248657056176355917e-01,-2.760839004071360177e-03,-6.409452070004344713e-03,-2.919343341818983299e-03,5.438463389873504639e-02
-4.134154048629389289e-01,-4.468046867637583963e-01,-3.570561439706023688e-01,7.010869748305485587e-03,8.358302990824082249e-03,3.780661778853965961e-03,8.107358962297439575e-02
-3.115933653403069603e-01,-4.547007872515223537e-01,-4.604731491968239165e-01,7.207903327282279282e-03,4.427457217778474168e-03,-7.673469978634240955e-03,1.474124789237976074e-01
-4.097998833456362733e-01,-4.164742275570239571e-01,-4.109753404805188692e-01,-2.868482833696383845e-04,-1.980518182544134499e-04,-1.285648455592874103e-03,6.588350515812635422e-03
-3.977006339028921200e-01,-4.149378300878556192e-01,-4.280261281700769027e-01,-1.751638602216830896e-03,8.346309145291971052e-04,-6.599722888173506670e-03,2.891355380415916443e-02
-4.102303907626865809e-01,-4.168446755514688129e-01,-4.108218656303769256e-01,-3.434755381774188491e-04,3.276303101289593299e-04,-2.231826476648334644e-08,6.392368581146001816e-03
-4.145639784022509544e-01,-4.393504946099608954e-01,-3.850094388406844481e-01,-2.332586070576524867e-03,-1.218562190569647853e-02,-1.091059241506244816e-03,5.182430520653724670e-02
-4.099782662543975942e-01,-4.177507846950987425e-01,-4.088073740586329330e-01,-1.150383085006669937e-03,3.832100783249175547e-04,-1.030506649106475645e-03,8.858912624418735504e-03
-4.543453475645233830e-01,-4.971387733949811927e-01,-3.007387285139441757e-01,-2.131156248237826845e-02,5.072748945562060435e-02,-1.808761189528688973e-02,2.050938606262207031e-01
-4.560842572884805102e-01,-4.669521100208026687e-01,-2.986408784957657048e-01,-9.942508212076013943e-03,2.638080113133897328e-02,-1.304844810599564003e-02,1.717928498983383179e-01
-5.516844489988208533e-01,-5.880086610156092242e-01,-1.651527568469263185e-01,-7.653802906290736729e-02,8.442509041033562089e-02,-2.863797793147860454e-02,4.540749490261077881e-01
-4.054931385411824629e-01,-5.306560204515978763e-01,-2.525487182806100406e-01,-1.483689016810304032e-02,1.421720004557702477e-01,9.532140393817686505e-03,3.460813760757446289e-01
-4.876960305415604657e-01,-5.240233760513648420e-01,-2.285220026699948948e-01,-4.680328869110172291e-02,1.329982633327588815e-01,6.879118745771055192e-03,3.710595369338989258e-01
-4.723447245283648455e-01,-4.964933268562797819e-01,-2.435411504268163718e-01,-8.454528191938821824e-03,6.964597167126931887e-02,4.344570498755435245e-02,2.808704674243927002e-01
-4.666374351456437641e-01,-4.702244321683048400e-01,-2.570571457273106430e-01,1.098491312570803492e-02,6.071845752155116682e-02,3.198551674122053490e-02,2.432692945003509521e-01
-4.393360717887265787e-01,-2.999900199170882908e-01,-4.435767616450384532e-01,1.514114542804372854e-01,8.905453115424115385e-02,1.021946375674374907e-01,3.793756365776062012e-01
-4.490256223611367448e-01,-5.053081427848384877e-01,-2.868145509857009112e-01,-2.342907770948435969e-02,3.344790990666613589e-02,-6.198917407771363519e-03,2.091127336025238037e-01
-4.345952133920244487e-01,-4.082477285143513712e-01,-3.952689089466098760e-01,-1.145432342318827672e-02,-9.909799030336053499e-03,1.165029073412978192e-02,4.795835539698600769e-02
-4.662746733621268569e-01,-4.570522866187358146e-01,-2.716582613121889533e-01,5.284089869258484784e-02,1.107134794656209342e-01,1.650123013055447285e-01,4.037348926067352295e-01
-4.450225932042372601e-01,-3.254095976307267435e-01,-4.474953096981386103e-01,3.248643257471771351e-02,4.996216365172996381e-03,2.941646889609266652e-02,1.429899632930755615e-01
-4.456957374501747116e-01,-4.404246088772431622e-01,-3.091271125498727401e-01,5.626360400160114461e-02,8.531506541930918008e-02,9.412170818272601325e-02,2.754420936107635498e-01
-4.825512188883934184e-01,-3.455486675124603835e-01,-4.000934627861910675e-01,3.839568539389005136e-02,2.445416420901828924e-02,9.185266432130899383e-02,2.140081673860549927e-01
-4.642470885873479780e-01,-3.590629848434787053e-01,-4.140601607954280117e-01,-1.387683540173524806e-02,-1.719827469492954397e-02,4.078021903879060911e-02,1.214811801910400391e-01
-4.909218993257908892e-01,-4.032491550155911098e-01,-3.105223797031335664e-01,4.715916298347009109e-03,1.989104839445803019e-02,7.192623660413129116e-02,2.029487788677215576e-01
-4.547534765162321024e-01,-3.532654812555475199e-01,-3.403696899478871885e-01,1.083498479692377309e-01,1.005346400095635806e-01,1.587900270167220684e-01,3.910989761352539062e-01
-4.069860856722973819e-01,-4.326133196617359955e-01,-3.989682725320790047e-01,-4.686675203586406803e-03,-6.420615263033724318e-03,-3.144547839144123144e-04,3.341225907206535339e-02
-4.022643849815827899e-01,-4.345159974507298295e-01,-4.054722373033870508e-01,-1.023043573106855331e-03,-1.249440428688315197e-03,-8.918495648447642829e-04,3.093877434730529785e-02
-4.041954345578148144e-01,-4.360592581840319615e-01,-4.057203735235427322e-01,-3.782194228710615124e-03,-8.918020386075019637e-03,-1.679523592594647438e-03,3.548251464962959290e-02
-4.295909003187453612e-01,-4.009043890693659296e-01,-4.050146209959711863e-01,-1.053431549320549407e-03,-4.203904795294307467e-03,-1.361340174025967194e-03,2.799659036099910736e-02
-4.380086940250288996e-01,-3.925617420163658999e-01,-3.877010339092112901e-01,3.107510337824333137e-03,5.649242143970415299e-04,1.770617820332973580e-03,4.846946150064468384e-02
-3.926542696804714017e-01,-3.996656426698750320e-01,-4.390611134489079692e-01,7.228305170881324472e-04,-7.499640909147016476e-04,-3.839168513110740970e-03,4.387312754988670349e-02
-4.139691974087692516e-01,-4.098833441883092954e-01,-4.149407680350731820e-01,4.015138700167204398e-04,-1.700640171527388004e-03,-1.314952995305899855e-03,5.996275227516889572e-03
-3.996243958132460472e-01,-4.343168902722185920e-01,-4.076989515389880525e-01,-3.737821333644307390e-04,-4.587663220535472333e-03,-1.958364145691087431e-03,3.261450305581092834e-02
-4.079298091837277318e-01,-4.127141987139678614e-01,-4.184498934345464716e-01,-7.652423044974850227e-04,1.190685489045546384e-03,-1.157539151184705344e-03,9.657124057412147522e-03
-4.079179979069702533e-01,-4.164817675023097521e-01,-4.119615571582733726e-01,-2.890032507078481045e-03,1.971920337432994143e-03,-3.775432988395329131e-03,1.159932650625705719e-02
-4.487824311393882049e-01,-3.423359872706951412e-01,-4.473101595185532964e-01,3.606537701187139972e-03,-8.961286046733832680e-03,-3.366998863961162981e-03,1.071925386786460876e-01
-4.113145773490584078e-01,-4.158312446106378069e-01,-4.114286746855818633e-01,-3.919003367364748761e-03,6.105950002673946313e-04,-4.217799832738899912e-03,1.097550522536039352e-02
-4.056668242168322558e-01,-4.165225354789577894e-01,-4.143323712946783144e-01,-2.749450841125233337e-03,1.757860988392494781e-03,-4.303941998290519190e-03,1.365239545702934265e-02
-3.800801807380364550e-01,-3.980395827399608177e-01,-4.455901450286754439e-01,3.481038741352374989e-03,2.250061927540278881e-04,4.051919341891889546e-04,5.894551053643226624e-02
-4.049920899234001892e-01,-4.037857833255213413e-01,-4.369969988280056339e-01,-8.237071435837295397e-03,-5.626872260074538071e-03,-1.735387457161123755e-03,3.703977540135383606e-02
-3.808186774760442539e-01,-4.120019267407085684e-01,-4.404911319244865231e-01,2.231860314787538924e-03,-2.710865345036626677e-03,-5.959685641230390990e-03,5.306561291217803955e-02
-3.858221320925202535e-01,-3.827433073396082630e-01,-4.503081714175282135e-01,1.741457576308049621e-02,-1.291006132981852234e-03,-5.907454298563515191e-04,7.267956435680389404e-02
-3.993569459554505707e-01,-4.049816606308789257e-01,-4.359009905232449356e-01,-5.224216203218925471e-03,-1.327296559055015117e-03,-2.363809561748778272e-03,3.557358682155609131e-02
-4.002748304317515493e-01,-4.050070104709688201e-01,-4.351562120025924685e-01,-5.675392946378986919e-03,-6.461604708042969223e-04,-2.396946101758861813e-03,3.448417410254478455e-02
-4.054916171207321174e-01,-4.043080260963257122e-01,-4.318614843428409955e-01,-1.157199234846460669e-03,-1.826787519250422463e-03,-9.091119273176125266e-05,2.724032849073410034e-02
-3.929967366669002149e-01,-4.203270240305013172e-01,-4.034595796431112991e-01,2.078777792727351612e-03,2.639329612497887632e-03,8.806378455227078378e-03,2.893064543604850769e-02
-4.368169658874185290e-01,-4.032463910662489881e-01,-4.062943842120447790e-01,-3.242165975458941030e-03,-5.231995420103172437e-03,-8.986544054578380833e-03,3.728110715746879578e-02
-4.344620063745368022e-01,-4.038886287417297605e-01,-4.064742382804004683e-01,-2.008551196827990885e-03,-6.374889712356632786e-03,-9.643719399256064223e-03,3.571260720491409302e-02
-4.197654872279110161e-01,-5.010190792654406478e-01,-4.319909542365325539e-01,-1.840039938597479163e-01,5.807905528868203410e-02,-1.746668489108970379e-01,4.571385979652404785e-01
-3.963848633034552371e-01,-3.963476275402205706e-01,-4.237371732483389830e-01,3.228447166869229866e-08,1.648750150450590179e-03,1.385199134344311219e-03,2.762390673160552979e-02
-4.314665860664197439e-01,-4.039863979772124747e-01,-4.082846322022797847e-01,5.985628801990706049e-04,-5.625255757073175863e-03,-7.429282993761424439e-03,3.028378076851367950e-02
-3.635544831592527060e-01,-4.504619103499103439e-01,-4.141764101503368489e-01,-8.362934264485125460e-03,4.239461284811937153e-02,-2.177994214860055899e-02,1.128755137324333191e-01
-4.399538917715249409e-01,-3.332199247992595481e-01,-4.577777613333314788e-01,1.108406925959588320e-02,-1.430158491176221520e-02,-8.469237748650586955e-03,1.216947063803672791e-01
-3.932301756781446112e-01,-3.880230794439028519e-01,-4.342043245415797559e-01,4.711098988852634693e-03,5.406311037060984939e-03,3.390996793806453583e-03,4.591422155499458313e-02
-4.346984768345741323e-01,-4.056202657175500548e-01,-4.001299681199065872e-01,-2.047609216506096185e-03,-9.656003614373681512e-04,-6.049387365692866433e-03,3.406602889299392700e-02
-4.324327762937585917e-01,-3.995380362329072343e-01,-4.027090208594001353e-01,3.528970909808523421e-03,-1.026419200299187769e-02,-1.611709334316583156e-02,4.604904353618621826e-02
-4.460065945410107702e-01,-4.260994943400193136e-01,-3.708063894074144495e-01,-7.309682524604147955e-03,-8.567648851499087143e-03,-5.597944050959898291e-03,7.091448456048965454e-02
-3.413292743071015822e-01,-4.527134846741833196e-01,-4.474661831062983208e-01,-6.267516428813034663e-05,-3.784859983547218289e-03,-1.029621889036691842e-02,1.105012819170951843e-01
-4.476025146403939114e-01,-4.287883799991630274e-01,-3.619316919664350984e-01,-6.239001137666054866e-03,-1.866238201305629599e-03,-1.682793238926673721e-02,8.401428908109664917e-02
-3.126627556723021173e-01,-4.614940027604803041e-01,-4.906097245882745095e-01,-5.154277971982817314e-02,-7.220218281488155303e-03,-2.964773076470001226e-02,1.951797306537628174e-01
-4.294508967986532255e-01,-3.219859348997893278e-01,-4.573588843646267943e-01,1.526392765039096822e-01,9.916006906062749260e-02,1.504401572500898843e-01,4.273380637168884277e-01
-4.397341966103988087e-01,-4.115177667098703918e-01,-3.880738942080245168e-01,-2.617267605036647897e-03,-2.058126005802758413e-03,-9.690100248978556624e-03,4.818958789110183716e-02
-4.406149572486490196e-01,-4.117637592855936668e-01,-3.861123073994718879e-01,-3.232788114681129504e-03,-3.257297086914955411e-03,-9.102431834435703931e-03,5.042032524943351746e-02
-4.325670404932948632e-01,-4.129078579948988748e-01,-4.065230978136396556e-01,2.160471227961634905e-02,-2.722833914411576517e-02,-5.304803898322673489e-02,1.123365014791488647e-01
-4.388063305601314079e-01,-4.115239825884867697e-01,-3.933970616197828285e-01,-4.626255420221759423e-03,-1.890604144337820281e-03,-2.837521921220236779e-03,4.082329198718070984e-02
-3.638690162284505258e-01,-4.344311345065726693e-01,-4.451530432059302433e-01,-1.852336409044884682e-02,-1.784940419081515635e-03,-6.055839994443866156e-03,8.366274833679199219e-02
-4.578469736138248702e-01,-4.501502962017715492e-01,-3.379822747608078881e-01,-8.722003803367845212e-03,-1.356254740168208461e-02,-1.394387701702652291e-02,1.219326406717300415e-01
-5.474637289329780110e-01,-2.641651699147363752e-01,-3.758633466809255808e-01,5.856239540219231390e-03,-8.552338128319250665e-03,1.624408917955399712e-01,3.749320805072784424e-01
-4.157969038738384970e-01,-3.953468298446028428e-01,-4.288032203099415574e-01,-1.476931117507450505e-03,-6.626544918275213518e-03,1.214714011544208716e-03,3.156032040715217590e-02
-4.245868046758718428e-01,-3.968993574701239480e-01,-4.099173934419316767e-01,-4.399938299656030831e-03,-7.123979197186386912e-03,5.051479869925207603e-03,2.936855144798755646e-02
-4.894971806794645719e-01,-2.715045653291286443e-01,-3.797455034642472360e-01,9.390538223409319873e-02,5.028531659069811199e-02,1.687200615125159231e-01,3.938032984733581543e-01
-4.606948707822712263e-01,-4.163386801951679539e-01,-3.674751324942979180e-01,-1.927977380472846100e-02,-1.846300712562080198e-02,2.603824293491281694e-02,1.034130826592445374e-01
-4.309731925586544055e-01,-3.766241073210465085e-01,-4.387576244332114794e-01,-4.495691467746684711e-02,-4.844205458809434234e-02,1.272631346852431782e-02,1.304861903190612793e-01
-3.973125185387575975e-01,-4.018797336777110707e-01,-4.315492065335780891e-01,4.321895807826354498e-03,-8.161138272901042982e-04,-4.244879657291637798e-03,3.389300033450126648e-02
-4.079128502551486735e-01,-4.054311194017198305e-01,-4.276834474259260110e-01,-1.425511986508607191e-03,-2.149598649960561460e-03,-1.293410306315754220e-04,2.158957161009311676e-02
-5.314410342105291285e-01,-4.006508416907670345e-01,-3.014867786307440234e-01,-2.571653676358899229e-02,-2.430321910220608131e-02,6.968038637805427926e-02,2.413116246461868286e-01
-3.944315069531849072e-01,-4.134758286150334583e-01,-4.341065598143020177e-01,-3.123921059035624469e-03,1.165871142930757255e-03,-3.627653658796439924e-03,3.541250526905059814e-02
-4.539301897502435179e-01,-4.053294384457725719e-01,-3.903794195867691386e-01,1.811227088786726211e-02,-4.604370887930982897e-02,-3.907950792672067880e-02,1.234421879053115845e-01
-5.132659580745039252e-01,-4.594102381317667350e-01,-2.939775198778200593e-01,-2.791518251413871790e-02,-2.229634981628067850e-02,4.685550106961229588e-02,2.226957380771636963e-01
-4.600785759360702665e-01,-4.245427116712364723e-01,-3.253941460042029110e-01,1.218975817585815809e-02,1.982819098206945949e-02,5.666611391041127127e-02,1.608569324016571045e-01
-4.980312957518308048e-01,-4.067657727304300752e-01,-3.097927240024649920e-01,-2.055083568236799885e-02,-1.541497122675949093e-02,6.993624061284978155e-02,2.079340517520904541e-01
-3.777156122547017381e-01,-4.370527551219064444e-01,-4.257814489914229505e-01,-6.095297468249817781e-03,-1.442343105060588278e-02,-6.114619551631946242e-04,6.095750629901885986e-02
-3.871764617132738562e-01,-4.208747847442420587e-01,-4.285932546631285867e-01,-3.605882974140915687e-02,-1.983491958099445340e-02,1.572269754848508796e-02,8.531031757593154907e-02
-3.799316643664887860e-01,-4.234106780596247899e-01,-4.329283560424346256e-01,-1.431904529733283270e-02,-8.666205099098701209e-03,8.982728047080782569e-03,5.896874517202377319e-02
-3.978652278547269439e-01,-4.245443473678603974e-01,-4.236281180757661136e-01,-1.240807996192386589e-02,-7.998720896959209126e-03,-4.039451816569989036e-03,3.729533776640892029e-02
-4.261200969193054133e-01,-4.390235682486225977e-01,-3.820911326898251414e-01,-1.408148218011306615e-02,-1.580492686529092264e-02,2.918821460772290811e-03,6.358447670936584473e-02
-4.455809445187263740e-01,-3.562675468766116071e-01,-4.246573986255226529e-01,-3.999985143155896511e-02,-2.855532662853697140e-02,3.170899292486703547e-02,1.296475529670715332e-01
-3.627030325450645853e-01,-4.390609463300286786e-01,-4.373526211603243063e-01,-2.872757119647545865e-03,-1.785684475131502774e-02,-4.400984915617405825e-03,8.211254328489303589e-02
-5.478046902091056047e-01,-4.445635526874939236e-01,-1.922463717556314455e-01,-4.803405545622290579e-03,2.757242610578758066e-02,1.258664212413518058e-01,3.876199126243591309e-01
-3.589026997608143477e-01,-4.143562401334068834e-01,-4.539113453279181587e-01,7.072072546312140919e-03,3.861446521033379568e-04,-4.008497995120229029e-03,8.385622501373291016e-02
-4.312577151564952471e-01,-3.579770655403203827e-01,-4.468417036489929495e-01,5.999890887632094473e-03,-1.010977614938466003e-02,-2.301211725782321450e-03,8.476688712835311890e-02
-4.012898398887677076e-01,-4.338766404283809219e-01,-4.172058570941008515e-01,-2.548500064414586583e-02,-2.888017223720346777e-02,2.494168765916280651e-03,7.256637513637542725e-02
-4.059722599768946782e-01,-4.350206536255369905e-01,-3.999084086642068492e-01,-1.560921973040443628e-03,-5.176150628717257965e-03,-1.096466096229888141e-03,3.388242051005363464e-02
-4.049811388046805072e-01,-4.337511318136194616e-01,-4.051415821810474549e-01,-1.008427802509964406e-03,-9.920231383008244752e-03,-5.111265357239357272e-03,3.463785722851753235e-02
-4.048260258745393081e-01,-4.314598999167336135e-01,-4.061309550846975425e-01,1.411941192002167961e-03,-9.166995544603399534e-03,-5.148211984121999797e-03,3.184187784790992737e-02
-4.060980565896022965e-01,-4.342438237987368832e-01,-4.002960128040022325e-01,-1.181084238622090617e-03,-5.388209718104788014e-03,-1.036979348263191445e-03,3.291899338364601135e-02
-4.135668242456072008e-01,-4.114240776315707948e-01,-4.141329854658808984e-01,1.597039884495328943e-03,-1.768623867921997493e-03,-2.097178759860967873e-03,6.029529031366109848e-03
-3.870540511571179398e-01,-3.913899211890780050e-01,-4.434001392429785526e-01,1.719252456015755428e-03,1.217931150843928933e-03,6.154948844445805745e-04,5.444103479385375977e-02
-4.151412826692944535e-01,-3.536532409433251201e-01,-4.524805012833551521e-01,1.072576205596822638e-02,-4.709016184014364406e-03,3.697073749921810353e-03,8.901442587375640869e-02
-1.894964780074518129e-01,-4.757911374622106337e-01,-5.209554903043147611e-01,1.097205021334902025e-01,5.918189727792399352e-02,-6.130378323094281059e-03,3.790392577648162842e-01
-4.183729393589329382e-01,-4.027616635967194436e-01,-3.807775025371013533e-01,2.313933619798041325e-02,1.956021137233221810e-02,2.584347850362480464e-02,7.634110748767852783e-02
-3.941893853163145334e-01,-3.954660472433575991e-01,-4.435680726677397878e-01,6.220419713353791437e-03,-4.127802401576875779e-03,-5.578717431810743810e-03,5.135570093989372253e-02
-3.602692033404617522e-01,-4.136726928068150677e-01,-4.496398901395538550e-01,7.518439365325473890e-03,1.657945253835872322e-03,-2.483224477145479833e-04,7.902125269174575806e-02
-3.909186419380157873e-01,-3.928315327265696211e-01,-4.439306801895369636e-01,7.691598519495532757e-04,-2.046133227089068796e-03,-2.351150120436384158e-03,5.237793177366256714e-02
-3.992436195895608941e-01,-3.978277754746835093e-01,-4.353167101654811244e-01,1.211934615021195228e-03,-2.936602802409791785e-03,-2.051375086815251849e-03,3.737978264689445496e-02
-3.959752941737320064e-01,-3.913001513200590198e-01,-4.406025199894367805e-01,5.845816867013382302e-03,-2.944919737532920856e-03,-2.878790585974408639e-04,4.848578944802284241e-02
-4.383550020187653162e-01,-3.978272559608630465e-01,-3.950413049310267377e-01,-4.982004845855630276e-03,-3.024123153335235223e-03,2.811171193755671125e-03,4.346001893281936646e-02
-4.429330280909388740e-01,-3.952765852851261030e-01,-3.949904852073533035e-01,-4.245395194347096474e-03,-5.034343665524820301e-03,4.553924389317411635e-03,4.977119341492652893e-02
-4.531380094065841635e-01,-3.167873555446201195e-01,-4.610264127756799057e-01,6.846879815162508834e-03,-7.524689881115863635e-03,2.195141202616521063e-03,1.416131108999252319e-01
-4.401420321399529545e-01,-3.973246333149521581e-01,-3.912828826200887011e-01,-3.642283434313403016e-03,-3.213478530687907220e-04,5.414960800400469773e-03,4.750366508960723877e-02
-3.994797158723771835e-01,-4.095262026886218876e-01,-4.279171677564359011e-01,2.535215329405324583e-03,-2.753652695938817088e-03,-6.421008029130141626e-03,2.810056693851947784e-02
-3.078180361655010189e-01,-4.619209760408325427e-01,-4.575997001133218500e-01,-1.834837484203113989e-02,1.106464814567056400e-02,-1.340142199733739513e-02,1.581661552190780640e-01
-3.643190151043269043e-01,-4.534964750843520909e-01,-3.621332483921697043e-01,1.577792722379411094e-01,1.791539060881251755e-01,1.553893903116430331e-01,5.015587210655212402e-01
-4.345395506470604019e-01,-4.004045547019322027e-01,-3.963528390248742261e-01,-2.932403684064418484e-03,-1.757541932825759613e-03,1.628230263440051282e-03,3.691797330975532532e-02
-2.130164274703396643e-01,-5.103640492033301168e-01,-4.476881615711721940e-01,5.713066514359665948e-02,1.298639537942418709e-01,1.476526617378952529e-02,3.670791089534759521e-01
-3.888475289886059172e-01,-5.033997527743472311e-01,-4.487669474754613641e-01,-1.717121599294086642e-01,5.783580557008925066e-02,-1.783592829824470760e-01,4.514143168926239014e-01
-4.616465440878821935e-01,-4.494100062545758334e-01,-3.273642346164643557e-01,-1.243089594659613391e-02,-5.492936257391041119e-03,1.099246585370898012e-02,1.321170777082443237e-01
-4.399691968929471675e-01,-4.538569422073581161e-01,-3.542094436499900745e-01,-1.164770617286918324e-02,-1.612662326572818217e-02,-4.040261981549482170e-03,9.987390041351318359e-02
-4.464844803044797361e-01,-4.565296059852261834e-01,-3.368749267725744678e-01,-1.078038555983958091e-02,-3.771409324872786965e-03,-1.099643306299024747e-03,1.166668310761451721e-01
-4.677771049484620858e-01,-4.559358194647152307e-01,-3.150580407768653890e-01,-1.578557381605245891e-02,-2.266874448393733227e-02,9.473471842561484793e-03,1.556063890457153320e-01
-4.567767636327881853e-01,-4.441219866449763742e-01,-3.213594108158688289e-01,-1.345477861235528337e-02,-1.071222603814218216e-02,3.191265716365140892e-02,1.439684927463531494e-01
-4.624238225526585144e-01,-4.572913676672993311e-01,-3.197078319035603355e-01,-1.676260960446163475e-02,-1.393949330175858758e-02,1.708454224821156575e-03,1.452458351850509644e-01
-2.360042105174776361e-01,-4.915872483020987116e-01,-4.882604243805310773e-01,1.923447699120938229e-02,-7.485112046427422339e-02,-3.269701009979967404e-02,2.925896942615509033e-01
-4.143377766193164224e-01,-4.508537883154116188e-01,-3.558182467870915078e-01,3.070842432622504937e-03,8.440210394366688684e-03,4.924609213688920656e-03,8.490943163633346558e-02
-4.273711748688611145e-01,-4.485975950441952742e-01,-3.449741153565433205e-01,1.164456631523670509e-02,3.707214541920521300e-02,2.089550203736759496e-02,1.217723935842514038e-01
-3.399830386940440041e-01,-4.495718604412170527e-01,-4.499363152272535804e-01,-1.045861095801041939e-02,-2.398559624194082467e-03,-1.395425886112901075e-02,1.139269694685935974e-01
-3.350765815710253781e-01,-4.877707496677956556e-01,-3.782048258504906446e-01,-5.791143056016107016e-02,1.309511332162104358e-01,-4.944700989089492738e-02,2.956872284412384033e-01
-4.017968571253106580e-01,-4.518390417562688777e-01,-3.647543597782579305e-01,3.865708854344127813e-03,1.185200476810154696e-02,4.038785020779179190e-03,7.902677357196807861e-02
-4.010230014758067174e-01,-4.434194673453035196e-01,-3.704053105098536469e-01,7.947413694896010919e-03,1.014347212976639788e-02,3.529240814613456012e-03,6.759072840213775635e-02
-4.110665669427009949e-01,-4.020868521762451797e-01,-4.287860123715219740e-01,-3.327239894335658980e-03,1.218391174991420318e-03,-2.201415506793466537e-03,2.461571246385574341e-02
-3.934062762521234324e-01,-4.511487725769727231e-01,-3.770206216040924430e-01,1.068977146288695862e-02,4.562231412030313266e-02,1.057085847651009422e-02,1.071030497550964355e-01
-4.217474163391053410e-01,-4.396486644219318451e-01,-3.522480655396899030e-01,1.211043487168205618e-02,1.566587632406153674e-02,1.230087895545136333e-02,8.958192914724349976e-02
-4.184453911719077657e-01,-4.090912384584173833e-01,-4.099298478903727339e-01,-3.166682203011723625e-04,-1.383339243555151664e-03,8.073478114227562773e-04,9.399793110787868500e-03
-4.179084404735355363e-01,-4.101469455844334311e-01,-4.083019346936544447e-01,-2.244973763414401073e-03,-1.548050080257910811e-03,1.143974214448836152e-03,1.020784210413694382e-02
-4.183961372001050449e-01,-4.103250430396050419e-01,-4.085390648211533748e-01,-9.914246725742468114e-04,-6.542097606419168543e-04,5.262696093980257471e-04,9.370735846459865570e-03
-3.791860545539083027e-01,-4.259817560395805502e-01,-4.432597397345928170e-01,-4.844980341081549756e-03,-8.055763726855580463e-05,-9.155471227303219744e-03,6.015655025839805603e-02
-4.254466168697507156e-01,-4.061808865006186209e-01,-4.037604418450160826e-01,-2.006585332547350733e-03,-9.683364734666079134e-04,8.002604967345616988e-04,2.098742499947547913e-02
-3.930414800064186975e-01,-3.906522608059527779e-01,-4.429405317942483600e-01,1.754437442634106418e-03,3.824938860522686911e-04,3.457052993694672833e-04,5.123353376984596252e-02
-3.867982974798155338e-01,-4.034780813274636557e-01,-4.401061504985905315e-01,-1.057167000286593364e-03,-3.594782221671377360e-03,-5.580071739491193790e-03,4.864474013447761536e-02
-3.973905415727063684e-01,-3.784229359422253691e-01,-4.544572855676066170e-01,2.224892256190847545e-02,8.568285051131086915e-04,6.783024693139046721e-04,7.866021245718002319e-02
-3.414218325080479177e-01,-4.958340540171491950e-01,-3.958464149474329452e-01,1.509948059091873081e-02,-1.017517267454136204e-01,-5.716494726022495337e-02,2.448449879884719849e-01
-4.047655539704041461e-01,-3.992688993411424025e-01,-4.360278804237181505e-01,-5.296451718840071432e-03,-1.873207643599635389e-03,-1.341409411700199110e-03,3.576963022351264954e-02
-3.845282330088573564e-01,-4.022886410819850322e-01,-4.334168929692261973e-01,2.688377817787325746e-03,2.433788017918960683e-03,6.220619160025484332e-03,4.464068636298179626e-02
-2.868883485914079934e-01,-4.535687506946728398e-01,-4.740139234425587156e-01,3.307407090206558598e-02,-1.344437088460599065e-03,-1.018362005845839698e-02,1.876336783170700073e-01
-3.936284749831263641e-01,-4.378872238776815862e-01,-3.855631978297343054e-01,4.221729387295221521e-03,4.835685829130971503e-03,2.773510242963855930e-03,5.027467012405395508e-02
-4.245327375602868103e-01,-3.495199564567086914e-01,-4.436496030245575817e-01,1.593664429696170504e-02,7.387764707245394850e-03,8.731369848154176341e-03,9.263238310813903809e-02
-4.676481529806053583e-01,-4.585334367322419502e-01,-3.354604371674682617e-01,-1.706916598446777886e-02,-4.240122976705384961e-02,-4.694307442794121155e-02,1.709691137075424194e-01
-3.595778709631003434e-01,-4.139053378178823017e-01,-4.494775994863991486e-01,7.636334810330825708e-03,3.172189484260062777e-03,2.712771572380748373e-03,7.985372096300125122e-02
-4.189315381665180693e-01,-3.808458352065542396e-01,-4.179680824273313000e-01,3.550682357842668575e-03,9.622176632370258234e-03,3.973183568893202434e-03,4.216271638870239258e-02
-4.407201731992030913e-01,-4.354021697461664675e-01,-3.703337840619305710e-01,1.326821636235124904e-02,-2.435990343671143310e-02,-2.556486032858299937e-02,9.421914815902709961e-02
-4.084239169221901555e-01,-4.437340020370444393e-01,-3.856573862095878380e-01,6.305651996698119661e-03,-3.401897275864980419e-02,-1.516343104747075628e-02,8.276442438364028931e-02
-3.874191388494976351e-01,-3.908939321067805839e-01,-4.425506192812436734e-01,1.585730392428895408e-03,1.031763010956315276e-03,1.643575945681518971e-03,5.365468189120292664e-02
-4.115683273257209618e-01,-4.725916144084698067e-01,-3.615159366537786800e-01,-1.015279887572078169e-02,-4.693734622162378661e-02,-2.415516810527520986e-02,1.339867264032363892e-01
-4.346450158296157329e-01,-4.204545451399908651e-01,-3.838671524570169136e-01,8.433584420290213268e-03,-2.715462312484248977e-02,-2.439551742755931632e-02,7.918408513069152832e-02
-4.131152522843904440e-01,-4.694212995345968253e-01,-3.849903805208191865e-01,-1.672001201652973876e-02,-8.244107563625263646e-02,-4.644674422694498178e-02,1.823325306177139282e-01
-4.382309296701008550e-01,-4.711716792920695451e-01,-3.387531414478658354e-01,-1.128076415095309766e-02,-4.047412328463617648e-02,-2.787126548046339053e-02,1.479339301586151123e-01
-3.204298348167344823e-01,-4.421582750931504213e-01,-4.577124232188614084e-01,1.634675908440508946e-02,5.065807480626990759e-03,1.558488857741099952e-03,1.335629075765609741e-01
-4.341264448360441230e-01,-3.313821214226811418e-01,-4.556784165072452764e-01,1.155086664068442209e-02,3.272953182914002408e-03,8.510113125144779661e-03,1.178341880440711975e-01
-3.905877814068396403e-01,-3.952120652223606867e-01,-4.334252553254026585e-01,2.044733295181288667e-03,1.815240714950966134e-03,1.817695491969585110e-03,4.111788794398307800e-02
-3.444537856663135722e-01,-4.342199175969507774e-01,-4.381284410807632090e-01,1.378927402137281218e-02,1.280556404176642731e-02,9.167190592460985193e-03,9.868424385786056519e-02
-4.162590337580242550e-01,-3.442403837942875633e-01,-4.584286049897556281e-01,1.970720425918777788e-02,5.279245310715722367e-03,4.632525687385247865e-03,1.063723117113113403e-01
-3.445142443394314524e-01,-4.387611610033104736e-01,-4.372725107452483662e-01,1.018111579074618134e-02,1.433665966026881865e-02,1.109113881296700140e-02,1.002048999071121216e-01
-4.361320925545380534e-01,-4.399180581907856658e-01,-3.342444785999984513e-01,1.252541555419618979e-01,1.633028131191358590e-01,1.626098167271677608e-01,4.660217463970184326e-01
-3.340059250514492151e-01,-4.354405097735493113e-01,-4.559973818227239795e-01,8.654723902907241612e-03,3.266028947346408164e-03,3.302521568762943529e-04,1.142531335353851318e-01
-2.944432789733920086e-01,-4.465397757015036606e-01,-4.634266368389805546e-01,4.427571559776594112e-02,2.531361735204514310e-02,2.199993953040615957e-03,1.838608682155609131e-01
-3.462150481338984731e-01,-4.171525008750330832e-01,-4.604046685242345616e-01,3.394743091218525161e-02,1.792460398897356005e-02,8.022611866866808175e-03,1.207696795463562012e-01
-3.370984942988015653e-01,-4.383317262725069385e-01,-4.381233372565754847e-01,8.419030351384035674e-03,6.040687418981164312e-03,8.278377780620099768e-03,1.037054434418678284e-01
-3.483713352679433384e-01,-4.204809863445287399e-01,-4.424850188224189740e-01,3.554377788506955793e-02,2.591390927483974010e-02,1.317971448558195001e-02,1.166039034724235535e-01
-3.514915990244168453e-01,-4.209692662698197863e-01,-4.405864529336147584e-01,1.529678722692418696e-02,9.502050849178371450e-03,1.340864736483084532e-02,8.992860466241836548e-02
-4.148756047089453558e-01,-4.109369795019774951e-01,-4.114001969187061625e-01,2.614558728807940546e-03,-2.660993891562515607e-03,-2.524190889055427309e-03,8.646845817565917969e-03
-3.280362140928795855e-01,-4.565413696699157087e-01,-4.511218387709893252e-01,-1.659309487753060197e-04,6.365704008436941924e-03,-7.834235191654412983e-03,1.270916312932968140e-01
-4.429492688937524125e-01,-3.921118746117947529e-01,-3.869061336841279619e-01,4.683179548941125616e-04,1.057464176689169302e-03,1.708251716917804025e-03,5.374898761510848999e-02
-4.163243558129602340e-01,-4.059362695807270383e-01,-4.171674953050254486e-01,2.601107294795314100e-03,-5.378637681615050341e-03,-2.826584189621501701e-03,1.576188579201698303e-02
-4.268079143605357784e-01,-4.044631042535715704e-01,-4.103518892223420589e-01,4.389793430804786283e-03,-5.303841303009501282e-03,1.139173324358758383e-04,2.333723567426204681e-02
-4.262118320243903913e-01,-4.022559769954862641e-01,-4.105221422954732913e-01,1.171283738003281493e-03,-6.329920992092433543e-03,-3.104104608622591886e-03,2.444207854568958282e-02
-4.453508200834010999e-01,-2.960309893379164392e-01,-4.713486672903137720e-01,5.419648368687354084e-02,-2.500190088862531274e-03,2.444433429977575789e-02,1.935908049345016479e-01
-4.033777662010719633e-01,-3.331868943511209769e-01,-5.075495888723383642e-01,9.320811674446116690e-02,8.833003330063727079e-03,2.181505834076931036e-02,2.254228293895721436e-01
-4.210227446729608025e-01,-4.031827484221643942e-01,-4.131615835242696821e-01,2.075252920381346310e-03,-4.349063548696126963e-03,-2.116095579221971296e-03,1.796988956630229950e-02
-4.002788416206762290e-01,-4.463976397736661994e-01,-4.165533004279706186e-01,-7.213729846477162644e-02,4.265433185376441699e-02,-5.936697739721609468e-02,1.824393123388290405e-01
-3.537447155588870351e-01,-4.456410096462652959e-01,-4.421194568536850888e-01,-2.746371179756054281e-03,3.707164364112362429e-03,-8.911636237237056946e-03,9.184672683477401733e-02
-3.993923729711774673e-01,-4.351736590585250086e-01,-3.975176269492913805e-01,-3.411863616462959461e-03,1.396546462935387752e-03,-1.869303259871719740e-03,3.744532540440559387e-02
-4.041379144260371925e-01,-4.262030033397607998e-01,-4.043969616034133185e-01,-1.304560942037476636e-03,1.270768919293218779e-04,-2.713600315508562025e-03,2.254915423691272736e-02
-4.020110382009613459e-01,-4.307991400108581170e-01,-3.984754996360734269e-01,-4.449941193704956381e-03,3.195008723464697487e-03,-9.137677380482002541e-04,3.218029439449310303e-02
-4.247908065658492216e-01,-4.251967006308615682e-01,-3.914125871029622283e-01,1.574813679140255529e-03,-1.806105307820154993e-02,-1.741413412248253925e-02,5.498744919896125793e-02
-4.249082134847982362e-01,-4.108339734737026516e-01,-4.076653534627090458e-01,2.027882018366438527e-03,-1.157066959382763160e-02,-9.900320666568616923e-03,3.099592588841915131e-02
-5.896041951990929064e-01,-4.123974927863826023e-01,-2.582913810799288279e-01,-1.032094257783346819e-01,-3.346492728993517851e-02,1.623501392404610999e-01,4.436761438846588135e-01
-3.713611725737686053e-01,-4.405081000334231112e-01,-4.000837215001634140e-01,6.848196828414775984e-03,1.436831605089172563e-02,9.608834938935821579e-03,6.824393570423126221e-02
-4.222556798368655162e-01,-4.243000251000515477e-01,-3.924477617087449022e-01,3.998717383175010541e-03,-3.438394359468615897e-03,-4.938430382564717482e-03,3.332011774182319641e-02
-4.253417041306691848e-01,-4.264674402330276837e-01,-3.828190655735139725e-01,3.171694033582334038e-03,-1.336497096765101172e-02,-1.348600936468294549e-02,5.448830127716064453e-02
-4.076926187272669200e-01,-3.859899261404617365e-01,-4.205048543469546152e-01,6.006020185626874050e-03,1.067997017950694620e-02,4.561616056645225077e-03,3.776304423809051514e-02
-3.938163384274548373e-01,-3.968810773840061867e-01,-4.231662463097577431e-01,1.979720155913047581e-03,4.299815461062811428e-03,3.444835884794463648e-03,2.972681820392608643e-02
-3.989434724777708996e-01,-3.997923148620655120e-01,-4.157323173090275992e-01,2.696976492333752560e-03,2.498728449581484861e-03,5.627412965451434115e-03,2.009701728820800781e-02
-3.673814371228691922e-01,-4.441461881402840595e-01,-4.148338731130716273e-01,-2.229771603993008461e-04,7.238214199837204703e-03,-6.495967366836568994e-03,6.917950510978698730e-02
-3.950517782612564255e-01,-4.304084925760815472e-01,-4.106619724207177802e-01,-1.439677158992302931e-03,2.189637169966322620e-03,-7.521462892806347542e-03,3.364771977066993713e-02
-3.623375387156089755e-01,-4.023252266275825773e-01,-4.440136671221031617e-01,2.896652293373424766e-02,1.978325598114106382e-02,1.431807414048786621e-02,9.648988395929336548e-02
-4.001637186566053828e-01,-4.025787455342045851e-01,-4.145568189563355599e-01,2.960967419271832209e-03,4.979680646337709266e-03,4.010759528826253646e-03,1.808828860521316528e-02
-3.934962163991639894e-01,-4.091978058921735273e-01,-4.147283689081238123e-01,1.310754323588541811e-02,8.935576605865419228e-03,1.006969765079042747e-02,3.772424533963203430e-02
-4.123980266846473675e-01,-4.439935445379490364e-01,-3.923368668836815232e-01,-1.321279364140390267e-02,-1.941895229818177068e-02,2.430736018349393800e-03,6.088773161172866821e-02
-4.100550376795667473e-01,-4.152504704296738902e-01,-4.115782984023028668e-01,-1.219801168798538256e-03,1.675559598634594229e-03,-8.600217100232083979e-04,6.041854154318571091e-03
-4.097934490168964605e-01,-4.183240346094313500e-01,-4.078260264745623975e-01,-1.849597960102293808e-03,1.479066903188110257e-03,-1.264761289377803067e-03,1.072612311691045761e-02
-4.349172950716808650e-01,-4.003284249224401958e-01,-3.825776051402473565e-01,7.070904902550814719e-03,2.371720481141770427e-03,3.288382678054661747e-03,4.821587726473808289e-02
-4.098466829463143779e-01,-4.094875399572012187e-01,-4.207973726048787055e-01,-4.558562099549435045e-03,-2.756616115775802067e-03,4.451349082411237184e-04,1.448144111782312393e-02
-4.119625390278717769e-01,-4.151562544212196171e-01,-4.100077437604074948e-01,-1.009222631677802670e-03,1.900983236869894762e-03,-1.083295301687261288e-03,6.138524971902370453e-03
-4.088836260636001252e-01,-4.250202278638258724e-01,-4.040546412464725012e-01,-5.877561112605004211e-03,-1.047853177601385893e-04,-5.098598712042167608e-03,2.330857515335083008e-02
-3.849194294190865229e-01,-3.998941813168026549e-01,-4.343843300482436165e-01,3.382783310864910954e-03,2.283867037140876934e-03,7.305975430967897796e-03,4.626450687646865845e-02
-4.095818152228372089e-01,-4.255903566347600253e-01,-4.012284110620021882e-01,-5.928519336867896575e-03,2.641306017485410204e-03,-2.395705346012394227e-03,2.456355653703212738e-02
-3.694844731523964088e-01,-4.165776488075972339e-01,-4.340773583741126540e-01,5.337134710692833899e-03,4.117193569542334196e-03,8.951425680036768917e-03,6.103127822279930115e-02
-4.095581820856238342e-01,-4.208783790449271978e-01,-4.072296156266129175e-01,-2.860767543165900449e-03,-5.239103227068609521e-04,-8.776715948338584998e-04,1.369727216660976410e-02
-4.076927553577498475e-01,-4.211126641741657073e-01,-4.089055731193564913e-01,-9.193947596264610443e-04,9.031094572081281580e-04,-3.056592213269855021e-04,1.305955369025468826e-02
-4.052207318853303653e-01,-4.260477168939831305e-01,-4.039707063324639025e-01,-2.790637790107531376e-03,6.023843780398621889e-04,-1.315001886062326913e-03,2.215850539505481720e-02
-4.059933002820015902e-01,-4.017528348941977745e-01,-4.121264185154525639e-01,4.005183332269285704e-03,6.873738119710052531e-03,4.004547978924213186e-03,1.787687093019485474e-02
-4.018193575945442908e-01,-4.050173091771599454e-01,-4.114047957069253414e-01,1.367352329446543027e-03,1.842170235101464951e-03,6.519191048411198796e-04,9.408425539731979370e-03
-4.159539142409922063e-01,-4.010137918059764051e-01,-3.998816188296699381e-01,2.955127152274748033e-03,-8.074382684751822475e-05,8.771233363100185143e-04,1.642953976988792419e-02
-4.215946069119984596e-01,-3.995305654126194428e-01,-3.940791784558085875e-01,5.408945385791836050e-03,2.734540080025070485e-03,3.950172911086850119e-03,2.817505970597267151e-02
-4.039072877750041202e-01,-4.049814131752645929e-01,-4.073568115480429852e-01,4.099814964057386349e-04,2.840532652325635453e-04,1.192412558721946212e-03,3.789405571296811104e-03
-4.047704301604192478e-01,-4.033773111312131676e-01,-4.085280285460773375e-01,1.394515303451139034e-03,4.427170083506922101e-03,2.764870767225127181e-03,1.043370366096496582e-02
-3.353986745751914578e-01,-4.537901425047844994e-01,-4.345655311335279714e-01,6.070257938585436712e-03,9.177347142683884434e-03,1.469370467249112022e-03,1.117129698395729065e-01
-4.075711436991816816e-01,-3.979629101033993477e-01,-4.106930484799044545e-01,7.521897619650835896e-04,5.685111157085473606e-03,7.142224232279731008e-04,1.523973792791366577e-02
-4.077003772973817330e-01,-4.049205292040364279e-01,-4.032725061948303491e-01,1.570941356808171511e-03,-1.264252895871911103e-04,5.139460048282788783e-04,4.823767114430665970e-03
-4.042809368107908585e-01,-4.064600188444998929e-01,-4.050437839192440603e-01,9.718192832702380636e-04,7.495391480772843965e-04,1.354468694026903387e-03,3.700068686157464981e-03
-4.385976036607667217e-01,-3.469423496324874345e-01,-4.325230812651032486e-01,2.212193154977372400e-02,1.194651574128548048e-02,2.647775138759597691e-02,1.089969500899314880e-01
-4.058386515899263247e-01,-4.047868671638050198e-01,-4.061508752808462575e-01,-1.192610800641435157e-04,-4.971973765486809927e-05,7.351545593819045279e-04,1.789851579815149307e-03
-4.465837819486080384e-01,-3.626982772507622022e-01,-4.212875321177138033e-01,-1.465881496288901076e-03,-1.131264820624046374e-02,1.039187802483826882e-02,7.917725294828414917e-02
-4.548651682867472790e-01,-3.114691758683107992e-01,-4.565522139276774194e-01,9.740080541613954992e-03,-2.630167526767435756e-03,8.987375501093221308e-03,1.461329907178878784e-01
-4.067864783084941260e-01,-4.059820985494039802e-01,-4.044085296237949767e-01,6.473678593148088162e-08,4.907662552740520157e-04,6.620905339862112040e-04,2.535061910748481750e-03
-4.090728509593891671e-01,-3.850316538966078173e-01,-4.204841977400757824e-01,4.270761107927945749e-03,9.719893400006991355e-03,3.854399232432355587e-03,3.694938123226165771e-02
-4.052756189253294283e-01,-4.422189271103158514e-01,-3.850922724356884430e-01,-1.006916166169891276e-02,7.244375397278242368e-03,-6.245703990403074675e-03,5.564574152231216431e-02
-3.352127955411997595e-01,-4.637615929464463660e-01,-4.117858311667266791e-01,1.456062624198952056e-02,5.168475727324650659e-02,-2.585538793557895249e-03,1.456533074378967285e-01
-3.394762220380788120e-01,-4.585450325917309611e-01,-4.317765311172760967e-01,5.041277176921373209e-04,8.878272652960974773e-03,-5.891359403990453596e-03,1.097633764147758484e-01
-3.950495215379346559e-01,-4.526300953178813424e-01,-3.827021793055328525e-01,-4.327238035381306136e-03,1.715284991510584653e-02,-4.253822722701959894e-03,7.191708683967590332e-02
-3.561920588775056573e-01,-4.582376537821302165e-01,-4.143913823233852378e-01,3.749408707614713000e-03,3.189182186322433998e-02,-6.403696429686764856e-03,1.052517965435981750e-01
-3.899140736735921542e-01,-4.424294648419872522e-01,-3.945454120926923380e-01,-2.234428555443754034e-03,1.780704594175700969e-03,-2.225103211132401469e-03,5.074882134795188904e-02
-4.469283569111253129e-01,-4.494761328120918664e-01,-3.411097310554315198e-01,-1.189863428248600849e-02,-3.546335031564221574e-03,4.817564434792410283e-03,1.095708161592483521e-01
-3.858028410877832881e-01,-4.462804564421650189e-01,-3.940648747449981837e-01,-2.689773552206704745e-03,1.428900247653632286e-02,-2.908262406880973792e-03,6.233570724725723267e-02
-4.488397149216374338e-01,-4.141083864252452229e-01,-3.589963817321096817e-01,3.608970076441887515e-03,3.991328698284216624e-03,7.963169482472295599e-03,8.021728694438934326e-02
-3.689677301190493752e-01,-4.340855154391978776e-01,-4.165534972258171931e-01,4.714271877913128392e-03,6.075278608114616750e-03,8.781501187861846455e-03,6.176403164863586426e-02
-3.787651046032981528e-01,-4.197906205667607527e-01,-4.197780400622190267e-01,3.944018767466581261e-03,3.937639442941477490e-03,8.647663234240392585e-03,4.472252354025840759e-02
-3.931639365804280861e-01,-4.374309065467194557e-01,-3.977006526915985996e-01,-6.643596973904289556e-03,1.017587701276146360e-02,-7.314855741251065184e-03,4.881494119763374329e-02
-3.882931849967729554e-01,-4.372138310627865510e-01,-4.034864546715536404e-01,-5.246794288431761051e-03,7.203074267084223076e-03,-1.012784592968589588e-02,4.926215112209320068e-02
-3.953454013190501048e-01,-4.337948053530039649e-01,-3.895472544231022849e-01,1.638066290633885536e-03,2.333248487976028514e-03,1.974104410496652692e-03,4.208305850625038147e-02
-3.751192631282603829e-01,-4.448641891665317538e-01,-4.043360349983536328e-01,-3.104606844801089099e-04,1.392976314387336760e-02,-6.265130853464308605e-03,6.618468463420867920e-02
-4.041096573968960826e-01,-4.056134539344332657e-01,-4.041335754144502745e-01,2.110329417900817447e-03,2.680803869882511341e-03,5.722059573845453620e-03,1.163496915251016617e-02
-3.957466570375169357e-01,-3.880369880101183777e-01,-4.439107763547385233e-01,4.827925113851564733e-03,-2.467497183009279092e-03,-2.100871585877282267e-03,5.340396985411643982e-02
-3.886510444848277346e-01,-3.913620697134881921e-01,-4.464517446390215971e-01,9.443882942957046445e-03,2.021165164796222789e-03,-3.935714416224421236e-04,5.892242491245269775e-02
-3.846976808419463323e-01,-3.908568592146353660e-01,-4.457299099360377825e-01,5.128396082461453807e-03,2.592076280221071176e-05,2.182602272712911781e-03,5.899283662438392639e-02
-3.909778455364848471e-01,-4.343831749986539204e-01,-3.916827020313467522e-01,1.816073755469900909e-03,8.126249076784877821e-04,1.805320760238804650e-03,4.330794140696525574e-02
-3.913391616153245600e-01,-3.847013988994603673e-01,-4.464547440964094505e-01,8.312694284154580754e-03,4.600808261721327946e-04,1.560840595408443656e-03,6.052171438932418823e-02
-5.212278029518665479e-01,-4.043255370976754914e-01,-3.204351070708097438e-01,-2.204463796500224365e-02,-2.232103148256959699e-02,8.766088904986837904e-02,2.377322018146514893e-01
-3.788873431867699204e-01,-4.462334963521626952e-01,-4.017116356402271049e-01,-4.297596922347104824e-03,4.801490889359015524e-03,-4.721112545806455119e-03,6.091602519154548645e-02
-4.055999438813645552e-01,-4.071944463735843733e-01,-4.280699601338731064e-01,-1.151753481864302518e-03,5.081277707633508577e-04,-1.604370522673387789e-03,2.200208604335784912e-02
-4.369354855682185956e-01,-4.173195870828367848e-01,-3.897621841069817128e-01,3.440770627427389237e-03,-2.199030681709217283e-02,-5.703700396167272341e-02,1.137130334973335266e-01
-3.942037236904941677e-01,-4.285445076300190004e-01,-3.957528235683805407e-01,1.083125399638060812e-03,1.530843042153966780e-03,3.375256213375260692e-03,3.425228223204612732e-02
-4.410823184472753011e-01,-4.244047688720358202e-01,-3.786099389342454935e-01,-5.656675872437248211e-03,-1.086752870173127161e-02,-1.394142009770706243e-02,6.459446996450424194e-02
-4.565306627252208038e-01,-4.422425421751589036e-01,-3.796562158864103531e-01,-9.820201075941063090e-03,-4.962019427454106291e-02,-4.778158546167526888e-02,1.397872716188430786e-01
-4.749481850216789036e-01,-4.220644951496646535e-01,-3.474924107694685738e-01,-1.785847239084522448e-02,-1.949270342265008865e-02,-3.111060267664077922e-02,1.315355747938156128e-01
-4.068140611473589074e-01,-4.117976122545626283e-01,-4.188559426428644095e-01,-2.693745268631317271e-03,3.489243349336640723e-03,-2.381097380844397239e-03,1.360637694597244263e-02
-5.288329489949740170e-01,-3.852357760326585723e-01,-3.245259785390938179e-01,3.363162857284388019e-02,-4.780185904907102018e-02,-1.469682411873101668e-01,3.287413716316223145e-01
-4.055674280414176547e-01,-4.108843210277213220e-01,-4.218216379940794014e-01,-1.306410049765722396e-04,5.393667155951311102e-04,-1.727365591840004325e-03,1.469428837299346924e-02
-3.126266425743804422e-01,-4.552297064012704175e-01,-4.555782495855050240e-01,8.917473954881214443e-03,7.453591874445041413e-03,-4.294625030191873138e-03,1.443815231323242188e-01
-4.673010761950858738e-01,-3.045244901847450336e-01,-4.958054904220964287e-01,-3.209336334504796912e-02,-2.036763692215019794e-02,-3.931036309955387303e-02,2.022843509912490845e-01
-4.656666341239354967e-01,-4.411708427367083130e-01,-3.465990424165776296e-01,-2.033556559534483929e-02,-2.664600980923152035e-02,-4.424957324549590176e-02,1.452762484550476074e-01
-5.807740713242801611e-01,-4.322489658964168147e-01,-2.193499113922195154e-01,-4.210867769736645339e-02,-1.143981384839502929e-01,1.146215689211846911e-01,4.277862906455993652e-01
-4.162581032344367937e-01,-4.357670759606701028e-01,-3.731989911832522822e-01,4.010485158585520155e-02,-1.169205713632368998e-01,-8.542993914754289098e-02,2.660939693450927734e-01
-4.099352616343473477e-01,-4.174128146975142895e-01,-4.091328591324596142e-01,-2.615314362488286876e-03,2.596318966100142830e-03,-2.734302900489999927e-03,1.121289934962987900e-02
-4.093839491841722023e-01,-4.159138597685531624e-01,-4.122021906699331883e-01,-3.661172798126845836e-04,6.879863521987351514e-04,-1.214710696881517692e-03,6.199033930897712708e-03
-3.986013240140869884e-01,-4.240839955401790595e-01,-4.114074321493936259e-01,-2.405431416519401844e-03,2.719770655799436283e-03,-6.475633070600826137e-03,2.554173767566680908e-02
-4.146789502205566191e-01,-4.119922473743176106e-01,-4.165291194029394073e-01,-1.305777179852434834e-02,3.653693267830063207e-03,-1.114664064067484583e-02,3.065811097621917725e-02
-3.828386052782603022e-01,-4.128143411211761538e-01,-4.383930613910705376e-01,-1.175450178677797490e-02,3.722808393437382693e-03,-1.327973212597844191e-02,5.748646333813667297e-02
-3.954461271816736567e-01,-4.004255435389352247e-01,-4.219589376836077599e-01,2.272118701114148129e-03,1.988321920691356413e-03,1.323790507951549131e-03,2.506612241268157959e-02
-3.837500728216324264e-01,-4.357792449429180870e-01,-4.215470756525979690e-01,-1.826125064305926873e-02,1.172072177380011938e-02,-1.638879174305424291e-02,6.623763591051101685e-02
-4.024236076524995154e-01,-4.135112703070709106e-01,-4.211101899064947363e-01,-8.539265412479252887e-03,5.914640789385392644e-03,-8.772046151071350231e-03,2.862667664885520935e-02
-4.041826902041550929e-01,-4.070655875585072470e-01,-4.060352299405249332e-01,2.896655602562526501e-03,2.562834481322974478e-03,2.495032527929705920e-03,8.363856002688407898e-03
-4.041312954105250044e-01,-4.129125357122563900e-01,-4.209427452707200645e-01,-2.570937206817874594e-03,1.504884239489578729e-03,-4.642320866803347976e-03,1.741798594594001770e-02
-3.908152742057166562e-01,-4.225234728666006911e-01,-4.216950653789762749e-01,-5.665284643777598536e-03,3.068657637068694481e-03,-1.131333780370915795e-02,3.857900947332382202e-02
-3.566635125798485739e-01,-4.562646246579746268e-01,-4.104716461768227465e-01,-4.523878042120382977e-03,1.702378674300565262e-02,-1.317475629488810496e-03,9.160992503166198730e-02
-3.910400603742763548e-01,-4.398576911457994232e-01,-3.973305205544225283e-01,-3.616805735334037864e-04,4.866185982150435935e-03,-3.699797175897681731e-03,4.720320925116539001e-02
-3.993651024202686250e-01,-4.352949497271468848e-01,-3.963409535482692037e-01,-4.483046804884165473e-03,5.808163872477817291e-03,-2.978765773778993542e-03,3.996089473366737366e-02
-3.877289050728963682e-01,-4.474928298996322940e-01,-3.857752407889301627e-01,1.990566051622791148e-03,4.733143811210722279e-03,2.604611410764014982e-03,6.157718226313591003e-02
-4.204239338000146931e-01,-4.108117918947004066e-01,-3.821102100933307377e-01,1.071711943740214813e-02,4.588238513575984383e-03,8.874660422788453046e-03,4.284929856657981873e-02
-3.692051386946933467e-01,-4.356371028889817754e-01,-4.141447897758391838e-01,4.412344614447006631e-03,6.670027401193386919e-03,9.429821835530861202e-03,6.249789893627166748e-02
-3.949753692907790326e-01,-4.388088197924330802e-01,-3.947423937450859621e-01,-1.394100711734127836e-05,-2.223018113041648524e-04,-4.282172159526117464e-04,4.395835101604461670e-02
-3.871893975206369687e-01,-4.440613565961440967e-01,-3.905058380238990434e-01,-4.615404638902089363e-04,6.963243083914591458e-03,3.567179292151524076e-03,5.693048238754272461e-02
-3.998206656765603828e-01,-4.548503643691494402e-01,-3.721602206284043146e-01,-5.110785983199604698e-03,2.642460552058478393e-02,-6.122481013317174550e-03,8.718433231115341187e-02
-3.977807188632463964e-01,-4.216534940279862975e-01,-3.963629892191832260e-01,1.807128503084440936e-03,1.301041633288015954e-03,4.035204871695078667e-03,2.587447315454483032e-02
-4.347552048340476150e-01,-3.507152890398652079e-01,-4.335942076967470582e-01,8.594397258358215178e-03,8.416095444891920352e-03,8.398051356761632516e-03,8.724763989448547363e-02
-4.282786201106472679e-01,-4.070294242916140948e-01,-4.054375570273993645e-01,-1.750716854307057856e-03,3.446159641707004120e-04,-1.546791930374742576e-03,2.246368862688541412e-02
-3.901517935356336730e-01,-4.425314695667746934e-01,-3.852380334157241015e-01,5.028068488750430873e-03,6.089624451528176038e-03,1.542803260825458813e-03,5.673968791961669922e-02
-3.970654368752860597e-01,-4.560381566343323922e-01,-3.706642159061905306e-01,-6.099794054465073473e-03,4.339228008585824942e-02,-6.245115124142314351e-03,1.077453270554542542e-01
-4.524788457000466502e-01,-3.671326494573198262e-01,-3.984451964141131897e-01,1.818001340597785081e-03,1.284640726168471687e-04,1.228570615211877631e-02,7.781273871660232544e-02
-3.928258267842018592e-01,-4.547459164145576938e-01,-3.762030279023850787e-01,-9.194550207065955647e-03,1.015809894904414097e-02,4.852345121832542739e-04,7.552209496498107910e-02
-3.956579809499653488e-01,-4.458342067424286292e-01,-3.840057270138581003e-01,-1.050397380576699718e-03,9.137100645653437395e-03,1.423827219829544664e-03,5.914343893527984619e-02
-4.745259290220730231e-01,-4.424705331130990849e-01,-3.310440855886277456e-01,-7.503440796083822584e-02,-1.197775405277989036e-01,1.428494552150356145e-01,3.717036247253417969e-01
-4.058813227886831632e-01,-4.307867989762805827e-01,-4.052574551823484583e-01,8.443613268360041857e-04,-6.378703887747205065e-03,-3.429711963690007352e-03,2.820817008614540100e-02
-4.110333145520045917e-01,-4.276590494593043856e-01,-4.033366374688917011e-01,4.998537445931754142e-03,-1.646858793137382510e-02,-9.966663708687772266e-03,4.062288999557495117e-02
-3.868041758941963004e-01,-4.362918404415490614e-01,-4.142591544490133448e-01,-4.379298534888423594e-04,-8.342702767170983441e-03,-8.704171539170059424e-03,4.775758832693099976e-02
-3.995617292668920406e-01,-4.327147018416136470e-01,-4.128141539654785475e-01,9.420311705302807266e-04,-1.910929742201453521e-03,-8.299941544089521617e-03,3.249112889170646667e-02
-4.068067279647041845e-01,-4.248540103177468885e-01,-4.082144781730375205e-01,8.596264238276160683e-04,-1.281828329037741111e-03,-1.544522882505523732e-03,1.779277622699737549e-02
-4.044446653503937505e-01,-4.251116527215019203e-01,-4.108729738946065857e-01,-3.744858663947055752e-04,-1.205072224292470838e-03,-3.418666103740742018e-03,1.937609165906906128e-02
-4.780521182936342539e-01,-4.790114935569477206e-01,-2.740518501891628933e-01,-1.319397718499344153e-04,6.577304100809397251e-03,1.805339170693663967e-02,2.071722745895385742e-01
-4.973211838503160953e-01,-4.977529703453911214e-01,-2.688982673412970703e-01,-3.369497651454378406e-02,-1.756419177796460576e-02,4.954224519362763861e-03,2.380777895450592041e-01
-3.658006583063941886e-01,-4.473224376515203549e-01,-4.173956715334927736e-01,-1.373950005048055808e-03,6.242088865726014117e-03,-1.086563818766424910e-02,7.468914985656738281e-02
-5.337965161688553728e-01,-4.645472735304820300e-01,-2.359793698075347002e-01,-3.196862241081244865e-02,-8.059816607138227309e-04,2.739264833708907748e-02,2.796173989772796631e-01
-5.069112679605549676e-01,-5.451789459428140194e-01,-1.858007067747188823e-01,-2.767132570191740276e-02,2.468574564374103122e-02,4.214501806949490226e-02,3.554130494594573975e-01
-3.691999331864661005e-01,-4.517826618654078308e-01,-4.123024337711829190e-01,-1.987509209439008821e-03,3.355934558902501190e-03,-5.749751565535733688e-03,7.254672050476074219e-02
-4.034191814006703458e-01,-3.769550032145330132e-01,-4.353108916657024707e-01,6.289006667072817754e-03,9.441933452127132184e-03,4.132190527486672392e-03,5.476086214184761047e-02
-5.911508822546587272e-01,-4.958137299528054265e-01,-1.728328551830263238e-01,-1.401883550606103368e-02,-5.979693495042479046e-02,1.804719283799249493e-02,3.955901861190795898e-01
-4.173179154570615390e-01,-4.098121252142920556e-01,-4.102045053160727761e-01,-2.201908637998992863e-03,-2.133635533453246899e-03,1.411272538351858409e-03,9.366066195070743561e-03
-4.137117228894626741e-01,-4.125980383688291897e-01,-4.135628814017950905e-01,-2.800957023821695670e-03,-2.115140850002663903e-03,1.614875972844199504e-03,6.773307919502258301e-03
-4.160918875758321533e-01,-4.130216012785989932e-01,-4.092214294626775883e-01,-3.575483391502455848e-03,-3.073210606546502091e-03,1.142693423150404654e-03,1.030237507075071335e-02
-4.159724812036419972e-01,-4.118630672496211842e-01,-4.096123538467644765e-01,-8.041758829925925271e-04,8.097707214802492086e-05,1.597540687923538550e-04,5.765278823673725128e-03
-4.149403890909915127e-01,-4.129053165597870168e-01,-4.106408731441883453e-01,-1.030094979500796723e-03,-9.109399099367406893e-04,7.127467251446404023e-04,4.590672906488180161e-03
-3.942065756284577893e-01,-4.346073530137848362e-01,-3.877280709198416830e-01,4.644861767993235108e-03,3.907805082018454834e-03,2.829378269936681529e-03,4.550256580114364624e-02
-4.029814153805608701e-01,-4.214175713106895760e-01,-4.109415996241503888e-01,-6.171574137234896174e-04,5.371777369648342206e-04,-4.002600920893593407e-03,1.750919595360755920e-02
-3.910017949870920329e-01,-3.997607517488043771e-01,-4.254006435574395062e-01,3.422193491266997591e-03,3.537244627131126262e-03,5.697722041679835481e-03,3.359709307551383972e-02
-3.607401794683949836e-01,-4.478465037981109176e-01,-4.305331080110395559e-01,-1.449120714392438574e-03,6.404834295596737934e-03,-1.194224394846503043e-02,8.328490704298019409e-02
-3.944959589788087362e-01,-4.005197337256855561e-01,-4.214636749719417042e-01,1.602904610091401274e-03,2.468054822767291271e-03,5.513742148612423011e-03,2.680078335106372833e-02
-3.958002490252462424e-01,-3.938182134007909285e-01,-4.284640609006766798e-01,1.141754842158465176e-03,3.401167984661588456e-03,1.256215753938400622e-03,3.433573618531227112e-02
-3.622731946592484542e-01,-4.841576404451428117e-01,-3.875513593932159995e-01,-7.042980074416459180e-02,-1.500423903994782260e-01,5.292394288627101130e-03,3.080860972404479980e-01
-4.115196473591081761e-01,-4.075065968253057114e-01,-4.216795990269441297e-01,-3.229451490753243535e-03,2.200092971787787673e-03,-3.038448782957737290e-03,1.528422068804502487e-02
-4.454377386610485212e-01,-4.605421972753061532e-01,-3.194273950341691148e-01,-1.428087455132296194e-02,-2.794687232179726699e-02,9.099986281790487658e-03,1.456482410430908203e-01
-4.049959649994107069e-01,-4.138632905160268827e-01,-4.209375719698413842e-01,2.711071199999555203e-05,5.253468863042613140e-04,-3.339407475243286096e-03,1.502298191189765930e-02
-4.953244608557124673e-01,-4.652879980425813078e-01,-2.815940725018700186e-01,-2.314262335327173931e-02,-3.237632549215953368e-03,4.657567433222787462e-02,2.197936177253723145e-01
-4.098433861488674501e-01,-4.143138469319984640e-01,-4.146704815304487757e-01,-1.206012764698699991e-03,3.284669241695885354e-04,-1.566041139385975422e-03,5.809566006064414978e-03
-5.448296562058683179e-01,-5.334173044856934665e-01,-1.967309813781950301e-01,-4.375200587383370338e-02,6.440299762937500005e-02,5.867303660689411615e-02,3.818950653076171875e-01
-4.565305651926089281e-01,-4.637748885343467853e-01,-3.152121425111074071e-01,-9.276272156633586646e-03,1.591282992552877631e-03,7.070368028558765864e-04,1.459944397211074829e-01
-4.672295733680850160e-01,-4.636279458118783281e-01,-3.041431731793720061e-01,-8.703540099874455122e-03,-6.284945296131453892e-04,-1.529519648084281353e-03,1.620438992977142334e-01
-4.540843896573830696e-01,-4.524122693024404396e-01,-3.349616973467582914e-01,-6.767410443292974122e-03,-4.926708788125732340e-03,-1.628559406386424204e-03,1.192140579223632812e-01
-4.625976079756070614e-01,-4.562959694236708996e-01,-3.127644785355747636e-01,-1.160843661471416301e-02,1.579423756624532497e-03,6.161428449182774353e-03,1.485635340213775635e-01
-4.022289534023189006e-01,-4.116435874688461616e-01,-4.045191932127941148e-01,1.513106700489503815e-03,1.920838780230047470e-03,6.347472346921006732e-04,9.563723579049110413e-03
-4.631870689641222061e-01,-4.660241054429143936e-01,-3.214574346574509689e-01,-1.296604581387932748e-02,-1.970149942528906170e-02,-3.414167937298011844e-03,1.490006744861602783e-01
-3.967856924015840669e-01,-4.105042085041509248e-01,-4.103027658366747987e-01,2.602801141377780215e-03,3.030245877397090299e-03,4.580167900834323375e-03,1.721277087926864624e-02
-4.167228871966572878e-01,-3.231648303215240992e-01,-5.490366403159480102e-01,1.522065079745165903e-02,-9.111268190456707494e-02,-2.063800293228349181e-01,4.381971955299377441e-01
-4.161637394105243137e-01,-3.226400587804988951e-01,-4.976947753900539673e-01,5.584508930093533968e-02,-2.359497285654695020e-02,-1.097068853787682395e-02,1.854894310235977173e-01
-4.445860488846968828e-01,-3.369304461335707601e-01,-4.403226450278883153e-01,2.306022032064668215e-02,-1.608555383011637738e-02,-2.522630136341503029e-02,1.242158636450767517e-01
-4.047873595086877163e-01,-4.058327239019420829e-01,-4.053903910075575268e-01,4.995756419156005762e-04,5.053504453188602426e-04,1.284604364793842874e-03,2.700284356251358986e-03
-4.139515515833066539e-01,-3.599166061137263894e-01,-4.463495339314617616e-01,7.885377841379348843e-03,3.733106781257891638e-03,4.100094897877911218e-03,7.745195925235748291e-02
-4.748982867749030889e-01,-3.482370170313033308e-01,-4.367291226229076950e-01,-1.210408537263376293e-02,-3.314161581372123550e-02,-4.534830621822695529e-02,1.502312868833541870e-01
-4.409342787688620979e-01,-3.144261167159898562e-01,-4.649721202672988940e-01,3.707718892959214335e-02,-9.725996440457660569e-03,-5.429022360504398396e-03,1.553044617176055908e-01
-4.260001628546697394e-01,-4.001231670870625812e-01,-4.126421954409558168e-01,-1.144958448441645710e-02,-1.311429098980769307e-02,8.148392361366395970e-03,4.013492166996002197e-02
-4.104760129518915113e-01,-4.149940654713988319e-01,-4.116616064476062986e-01,-6.889224361570434399e-04,9.850443432881641950e-04,-1.671139181513912441e-04,4.569509532302618027e-03
-4.545683061510995548e-01,-2.754858121226162471e-01,-4.969733814062547994e-01,7.283399304292938192e-02,-2.972789651938933381e-03,1.605809364443866114e-02,2.411995232105255127e-01
-4.434645774824134690e-01,-3.368304847787956802e-01,-4.411359271642814051e-01,2.402896107116229973e-02,-1.710269508716523446e-02,-2.516021098064749953e-02,1.250468939542770386e-01
-4.143798884453786524e-01,-4.133442844876073496e-01,-4.109738300659843691e-01,-1.283451960758976622e-03,1.633006539297348529e-03,-9.076648339325254404e-04,4.955787211656570435e-03
-4.121072720302866310e-01,-4.142092658782636772e-01,-4.119223960173809540e-01,-2.325240766650560863e-03,2.149690914648737933e-03,-2.132098399442740409e-03,6.968675646930932999e-03
-3.921345661919680148e-01,-4.204599873367492746e-01,-4.065067803710250560e-01,1.791013259565521574e-03,1.482667931441472142e-03,6.378510131916334189e-03,2.720414102077484131e-02
-4.099507728432004727e-01,-4.185552584665238607e-01,-4.082816058205832599e-01,-1.575623445503294365e-03,4.974433166371482239e-04,-8.460891586860144796e-04,1.007587835192680359e-02
-4.103768138210799332e-01,-4.166402263400103001e-01,-4.096006544007577688e-01,-2.844102982606094301e-04,-4.518238206376341414e-05,-1.997194743741978853e-04,6.712869741022586823e-03
-4.110984491182955725e-01,-4.149614575030908803e-01,-4.112708228676305589e-01,-8.996773812380904527e-04,1.490155088114701145e-07,-8.342351170649608180e-04,4.336216021329164505e-03
-4.080831267986625432e-01,-4.188501945610604293e-01,-4.092248671888845113e-01,-2.241801199128781903e-03,2.195208867727714043e-03,-2.539852534423339345e-03,1.240268163383007050e-02
-4.188454897460182069e-01,-3.959001756903846037e-01,-4.306085766209076238e-01,-3.911957945941136466e-02,-5.583656193353492975e-02,4.738075602545892273e-02,1.470161974430084229e-01
-4.432289612908578702e-01,-4.135925156342533104e-01,-3.732340765871292598e-01,-6.430209066297658434e-03,-1.362357097715126376e-03,5.898320795390118651e-03,6.274698674678802490e-02
-4.241408038639276068e-01,-4.058464388708540871e-01,-4.041257314954707636e-01,-1.853688018680946237e-02,-1.590515161496676780e-02,1.788753660762919945e-02,5.584608390927314758e-02
-4.008787286744042166e-01,-3.972240138038047319e-01,-4.350273939639802689e-01,5.541517696507838528e-03,-4.026004630158052169e-03,-4.133977606098211167e-03,3.868220001459121704e-02
-3.788026363366123195e-01,-4.437822445958371498e-01,-3.986349237031033277e-01,1.745370046299485074e-03,3.989689690660963572e-03,3.280083449045696070e-03,5.844778567552566528e-02
-4.021389931127652417e-01,-4.048816756837997910e-01,-4.272336391807036171e-01,4.688357322295255356e-03,-5.590299122468367875e-03,-4.568626350926459009e-03,2.812028490006923676e-02
-4.053454399149712395e-01,-4.042447909352158142e-01,-4.255062882459650919e-01,9.800852452907307666e-04,-2.864007399135570526e-03,-1.870723712857822385e-03,2.162982709705829620e-02
-3.993467243616748430e-01,-4.046749783084521712e-01,-4.302520127524410154e-01,6.597766897142560245e-04,-1.379751348878460217e-03,-5.055639367334718859e-03,3.004249371588230133e-02
-4.001165351439567863e-01,-4.309934519366268590e-01,-4.122193943036667751e-01,-5.584481994342539030e-02,-6.885191757730754758e-02,1.741498990494524599e-02,1.587882339954376221e-01
-2.918692658025432984e-01,-4.760285455753974770e-01,-4.486239462346898188e-01,6.590661568237978635e-03,5.603772356737040522e-02,-8.496751222587436416e-04,1.979191601276397705e-01
-3.992147880716597763e-01,-4.356191832268119790e-01,-3.953130188971941128e-01,-4.264544921036600607e-03,3.320364197762150534e-03,-2.956138402801017882e-03,3.995491191744804382e-02
-2.378023698735662605e-01,-5.196009833499418695e-01,-4.526608154665963113e-01,-4.278444417060135729e-02,7.988912870743961059e-02,-2.576471695719392829e-02,3.027500808238983154e-01
-3.740775763286246502e-01,-4.471260373030255253e-01,-3.992526377950037508e-01,-2.455194663904515734e-04,4.592661824681769540e-03,4.204575857652349314e-04,6.476766616106033325e-02
-4.550498062895364515e-01,-4.148321583425057524e-01,-3.570127776088447003e-01,-5.176868656269362906e-03,1.250804132662950178e-03,8.086505108186155255e-03,8.698946982622146606e-02
-2.203083117516902445e-01,-5.208153112096763904e-01,-4.911207878829205731e-01,-4.351997073323390919e-02,7.944595123979457385e-02,-6.427862624565414476e-03,3.271141946315765381e-01
-4.045787693482125191e-01,-4.034125318674902649e-01,-4.318936088319731970e-01,-3.478781559189739019e-03,1.362080127538948041e-03,-2.092200786610540382e-03,2.888459153473377228e-02
-3.740474563089353222e-01,-4.355506955288578896e-01,-4.267233966407678047e-01,-2.306598092228739211e-02,1.816264533938872008e-02,-1.893745115466027515e-02,8.354224264621734619e-02
-3.947481971845205884e-01,-4.292987409409391719e-01,-3.904081017666465869e-01,6.226438971093411351e-03,4.314562432257745307e-03,1.963489889382794527e-03,3.932234644889831543e-02
-2.429353443960818038e-01,-4.858479538829511002e-01,-4.590129897679988136e-01,-5.713142964447313898e-02,8.153627965182957960e-02,-3.254070482465076797e-02,2.934642732143402100e-01
-4.001850598944300397e-01,-4.299644240163827957e-01,-4.048620987959699602e-01,-9.880397843318551240e-04,-9.434313733888904520e-06,-3.805729256337281579e-03,2.856196090579032898e-02
-3.857460241353123376e-01,-4.724009209146852739e-01,-3.692164170172277937e-01,2.788795867823550597e-03,6.267676119449525074e-02,-1.955015952492452844e-02,1.488951295614242554e-01
-4.447475769809156043e-01,-3.793119246715071502e-01,-4.225705439631252669e-01,-1.116731356364991483e-03,-7.705065120715066940e-03,-7.558114411512805060e-03,6.062753126025199890e-02
-3.217341675314295824e-01,-4.812608445438437688e-01,-4.374230031353033010e-01,-1.254614962957296444e-02,5.108480048737840812e-02,-3.309851486689132510e-02,1.787873953580856323e-01
-3.994106005669089687e-01,-4.127582607051137331e-01,-4.274243649965325798e-01,-9.987963938899826685e-03,3.873433946205607267e-03,-1.067547099435357978e-02,3.570992127060890198e-02
-3.879451338275120564e-01,-4.446564350807893917e-01,-3.917955663969223123e-01,1.781032386609940289e-04,1.110591332712347872e-03,5.784066438095787329e-04,5.493117123842239380e-02
-3.897770432333618196e-01,-3.897075051655048972e-01,-4.317717033923896830e-01,1.463596925793417443e-02,1.002475007939059720e-02,1.027619784186626674e-02,5.502180382609367371e-02
-4.115269169664588778e-01,-4.146634969751293864e-01,-4.112876268848552619e-01,-1.740481756025288049e-03,9.368171083110016055e-04,-7.407231133162477587e-04,4.900272004306316376e-03
-4.134936487608674160e-01,-4.163842881072192803e-01,-4.067998994032780424e-01,-3.569203791906821761e-03,1.834382431014716609e-03,-2.624615877939637503e-03,1.189494226127862930e-02
-4.044103624740590930e-01,-4.106758899009595454e-01,-4.255221844239377438e-01,-5.224491500397893638e-03,1.177611285826811070e-03,-5.644088562006045230e-03,2.311498671770095825e-02
-4.597267051210589539e-01,-4.335704220377580853e-01,-3.340058219959732844e-01,-5.338881117690480807e-03,4.835009252572562721e-04,8.419602951317687808e-03,1.161911413073539734e-01
-4.078181653398377793e-01,-4.101721840585350054e-01,-4.214058851511967019e-01,-1.493915835865192122e-03,5.291671953645771470e-04,-1.740135146723444668e-03,1.322124805301427841e-02
-4.065021553060920723e-01,-4.141749410897768158e-01,-4.182778574530292004e-01,-6.815514215763266576e-04,-3.308956065308648622e-04,-2.619108174882098586e-03,1.137925963848829269e-02
-3.722715527854902895e-01,-4.018669318113926581e-01,-4.527658154728922968e-01,1.136760328217370671e-02,-1.628784151856143203e-03,-5.650916838243764950e-03,7.392144203186035156e-02
-4.101059311227223669e-01,-4.159716694035643925e-01,-4.112661976723412383e-01,-2.786575176172277515e-04,-7.343370147786970105e-05,-9.678557983428328097e-04,5.657441448420286179e-03
-3.782532815580190166e-01,-4.036372802157726647e-01,-4.467607919617877510e-01,2.162685593753885249e-02,-7.984261374793499497e-03,-8.322553555121852895e-03,7.349037379026412964e-02
-4.078363268193748170e-01,-4.158674620172966296e-01,-4.139225260143922780e-01,-8.324224391650400609e-05,4.580254667854297330e-04,-1.567984698041883541e-03,7.790233939886093140e-03
-3.882001052329540625e-01,-3.914705204303201569e-01,-4.446601209385642739e-01,5.588976772531121379e-03,-1.517895861779790549e-03,-4.115319451317841159e-04,5.581139028072357178e-02
-3.932281806588297512e-01,-3.964917756186630005e-01,-4.402598725885780717e-01,6.067987193773064815e-03,-3.836895398899448952e-03,-4.858158173159081265e-03,4.790167510509490967e-02
-3.833282008619793846e-01,-3.996450559342620834e-01,-4.452192436109155271e-01,3.180477530210416934e-03,-2.018515371094823947e-03,-2.819420801772746284e-03,5.615416914224624634e-02
-4.048002678368464724e-01,-4.051038731695319473e-01,-4.313616637537536769e-01,-1.150102670212458950e-03,2.829528162334330539e-04,-1.554521305173624983e-03,2.662693709135055542e-02
-3.782353734023466418e-01,-4.096155354355885958e-01,-4.412702960677365449e-01,3.943944561766471457e-03,-4.198928432404390280e-03,-8.391458775224354405e-03,5.736616253852844238e-02
-4.309157192943950387e-01,-3.776596191829745264e-01,-4.062605418322186579e-01,4.928796778034613343e-03,9.732909609373128004e-03,8.151702890761076264e-03,5.184081196784973145e-02
-4.093113032675735341e-01,-4.200475735719110815e-01,-3.631602854552649640e-01,3.685713393948607253e-02,4.488439921278467720e-02,4.176140770867021318e-02,1.345061063766479492e-01
-4.386651090602506908e-01,-3.901678575680290750e-01,-3.923017528853253166e-01,4.133136667510205892e-03,5.355003100139127566e-03,8.027332129271220335e-03,5.082951486110687256e-02
-4.389257004388534833e-01,-4.032460010480821699e-01,-3.777547244688854167e-01,7.672202183983664603e-03,8.709882939712762853e-03,2.266107025130795899e-02,6.911666691303253174e-02
-4.387296123788019808e-01,-3.818954932092367693e-01,-4.020623960164538269e-01,1.054313213294037072e-02,1.146526095868438677e-02,1.928703246172490740e-02,6.583654880523681641e-02
-4.341948719121750955e-01,-3.882715292824044373e-01,-3.943831823098530864e-01,2.673077217474028201e-03,5.422423937534897806e-03,5.571912646284546758e-03,4.547989368438720703e-02
-4.300976635727569164e-01,-3.703823499789544726e-01,-4.182637136107404952e-01,2.644886343185460370e-02,1.557581581494708357e-02,3.726602236273111879e-02,9.996002912521362305e-02
-2.075482105275270051e-01,-5.694659544627885817e-01,-5.374186259197557547e-01,-8.555731351464279655e-02,-8.424905710466130959e-02,-1.058452630863222915e-01,4.441582262516021729e-01
-4.208866666656322364e-01,-3.488597489061027179e-01,-4.423917249103492821e-01,4.456012503969871558e-02,2.125924068763300478e-02,2.959573285933846457e-02,1.309186369180679321e-01
-3.862738072219003005e-01,-4.367468957810181629e-01,-3.436918134682804271e-01,1.015114177251991157e-01,1.450177035002993831e-01,1.135379588616391433e-01,3.730773627758026123e-01
-3.887604298528011260e-01,-3.888574258370486869e-01,-4.466690115501855129e-01,9.835411397612011525e-03,2.328665392342014941e-03,4.054635288472643786e-04,6.045464053750038147e-02
-3.683795994308963762e-01,-3.620962234223497056e-01,-4.309093437732923748e-01,1.521634794810730051e-01,1.382603596164472815e-01,1.482168645907659954e-01,4.439099133014678955e-01
-3.273198547088446153e-01,-4.143392530569082743e-01,-4.819218866982879490e-01,8.487760208311420640e-02,4.276404165348587916e-02,2.096556575668859917e-02,2.154956310987472534e-01
-4.701434814982543564e-01,-2.586605248797873013e-01,-4.807774623425838945e-01,2.942533961441025359e-02,7.884979531422151369e-03,4.042410558809747534e-02,2.340372204780578613e-01
-4.626823186674077215e-01,-3.288573624737838319e-01,-4.588800198929895435e-01,-8.805828659125641139e-03,-1.112661872501879631e-02,-4.520811902784455279e-03,1.344621926546096802e-01
-4.618923634203729867e-01,-3.086301730663062459e-01,-4.624243581090321520e-01,3.581419177848858652e-03,-4.581932216346907769e-03,1.247397678342978752e-02,1.553685218095779419e-01
-3.870984103112561914e-01,-4.449041969280144726e-01,-3.946449507154833891e-01,4.261447217228052082e-04,1.979301167873183387e-03,-1.786350944798493047e-03,5.462688207626342773e-02
-4.597232865674569791e-01,-3.213685678301569926e-01,-4.667660767372977526e-01,-1.956248203859106086e-03,-1.479504415397519222e-02,-1.138228955575981867e-02,1.456806808710098267e-01
-4.042621673368422264e-01,-4.253438626514776111e-01,-3.876452721840060733e-01,7.664082126563472389e-03,2.418336851939129582e-03,2.092964486824191745e-03,3.574594110250473022e-02
-4.699497507865681989e-01,-2.833374993334912828e-01,-5.035797682191128777e-01,3.780914197767993451e-02,-2.345960750240680057e-02,-1.903377765946783970e-02,2.219400554895401001e-01
-4.544599161505935014e-01,-3.049319566230835332e-01,-4.663754433809419453e-01,4.954140558710708880e-03,-3.986712261712163988e-03,-2.205169725783549892e-03,1.562632173299789429e-01
-3.880872224672506920e-01,-4.419848540430290074e-01,-3.913111691900260647e-01,1.076277500652675616e-03,1.299896997955628762e-03,1.446648137492522173e-03,5.250150710344314575e-02
-4.582955565598777481e-01,-3.092437769441748752e-01,-4.667063145771643828e-01,1.244970710343793786e-02,-9.072270441805807550e-03,2.905669453471364672e-03,1.558141410350799561e-01
-3.941383003318285061e-01,-4.385337771823086817e-01,-3.992111079728704603e-01,-3.478040253246817565e-04,4.791563074824350802e-04,-3.683977835448299688e-03,4.258225858211517334e-02
-3.988435609658171899e-01,-4.102098407614654385e-01,-4.314026554855950324e-01,-4.423062315521678403e-03,5.724322771510783432e-04,-5.882692029355463502e-03,3.134809061884880066e-02
-4.635249612948358355e-01,-3.109648631634020499e-01,-4.602728622533898140e-01,5.416631480716484724e-03,-6.730610811572433974e-03,1.195785867724624175e-02,1.531075239181518555e-01
-4.348683535977455605e-01,-3.882724637523179978e-01,-4.172669102664861573e-01,-4.074100832584125545e-03,-6.774627304402795584e-03,-2.329445409170643848e-03,4.318093881011009216e-02
-4.159201890438322113e-01,-4.054341131553005351e-01,-4.144937124751888469e-01,1.078344839493632556e-03,-5.777579066056017995e-03,-3.511264007264047488e-03,1.541593857109546661e-02
-4.266325508609432604e-01,-4.017433953918913003e-01,-4.082213955766170188e-01,5.267788927508973949e-03,-9.146242349589930529e-03,-1.193468046114698304e-02,3.552073240280151367e-02
-4.287621529746474813e-01,-4.043459966908062309e-01,-4.099676956645786907e-01,1.914653581658741022e-03,-4.961260088681366393e-03,-6.073931633551539651e-03,2.619178965687751770e-02
-4.142238621932901599e-01,-4.143679544270240656e-01,-4.088598479659930063e-01,-1.508542609870379544e-03,3.705070021226610508e-04,-8.394758003203684424e-09,6.066733505576848984e-03
-4.181254132628740017e-01,-3.933498894561303083e-01,-4.245252540656750395e-01,2.558469521459567648e-03,-9.185907214596045894e-03,-3.767240065149262112e-03,3.359613567590713501e-02
-4.260038015517898513e-01,-4.049425871361495011e-01,-4.113193758484504081e-01,1.857273635358769499e-03,-5.679061615101115013e-03,-6.657891012789149063e-03,2.429035678505897522e-02
-3.735936379631904503e-01,-4.005701064561955627e-01,-4.409106540939217722e-01,2.413556183174447867e-02,1.047903840002665371e-02,1.065603258773421304e-02,7.655713707208633423e-02
-4.106400299797486886e-01,-4.151985768551090805e-01,-4.108531853992440919e-01,-4.897556010842015395e-04,6.761407774281864846e-04,-4.483407518739599361e-04,4.748496226966381073e-03
-4.035865422429767424e-01,-4.078125920384096381e-01,-4.284459574010928695e-01,-1.221644537363454706e-04,3.150508642105316831e-04,-1.788752484191216208e-03,2.325369603931903839e-02
-3.999615982186597307e-01,-3.953863882768566262e-01,-4.220335918464452329e-01,3.110346663555784048e-03,6.515573138921701597e-03,2.677390450473942415e-03,2.805308438837528229e-02
-4.070892331532994235e-01,-4.025714303352218026e-01,-4.086516553010914321e-01,3.154096375998295329e-03,2.964198479481700357e-03,3.786384292519264297e-03,1.136331539601087570e-02
-4.074288290827739467e-01,-3.927765170973680497e-01,-4.227603784274823751e-01,1.243787654446943530e-02,1.204173600624033197e-02,1.105541624310508661e-02,4.404734447598457336e-02
-4.013897645780658552e-01,-4.311901200689859937e-01,-3.992238744922790294e-01,-9.753382905826179367e-04,-1.463660780120051332e-03,-4.186075731081652937e-04,3.109828010201454163e-02
-4.303539623499937905e-01,-4.292054192156953829e-01,-3.810851504561955649e-01,-1.112755716776215285e-02,2.406466637154216007e-03,-3.638164779606313688e-03,5.292161181569099426e-02
-3.803973579652162873e-01,-3.978753385839288725e-01,-4.429847627108380315e-01,3.604627087657534448e-03,1.634864258110751934e-03,5.163301695492132984e-03,5.705908313393592834e-02
-3.876533693976350059e-01,-3.931984915315615003e-01,-4.348748516572985556e-01,6.699873334228140243e-03,3.777707895471848088e-03,5.729875464620427794e-03,4.769423976540565491e-02
-3.763880227250065991e-01,-4.063006626473834593e-01,-4.309629956766612424e-01,1.203106551297107585e-02,3.038665816316259236e-03,1.298419493744045611e-02,5.664291977882385254e-02
-4.072123028455085225e-01,-4.221381093758454495e-01,-4.050720582567405303e-01,-7.142586326445235240e-04,-1.214546898927035398e-03,-3.915379771223762451e-04,1.630095019936561584e-02
-4.069640068399226762e-01,-4.212437194534263685e-01,-3.908664460214436032e-01,5.821750456470718531e-03,2.039474427862703922e-03,1.962036073310102248e-03,2.861146070063114166e-02
-3.580973945349503751e-01,-4.482323401229136861e-01,-4.490144506622451015e-01,-1.558993395032238355e-02,-7.542725890402105469e-03,-9.915330205199759939e-03,9.690290689468383789e-02
-3.399006516413402013e-01,-4.490237662061510870e-01,-4.494503648464615031e-01,-3.180111329160515039e-03,2.859083063608190874e-03,-1.019042561665868020e-02,1.109999343752861023e-01
-2.813646878793159001e-01,-4.812733710188168423e-01,-4.884248279444525775e-01,-1.168398940845463869e-02,-2.754804795639381396e-02,-3.734624400723669801e-02,2.198061048984527588e-01
-4.100466669944717868e-01,-4.166734351964810901e-01,-4.098079617841533517e-01,-2.215758852317672349e-04,-3.497402382571884695e-04,-3.205704189359533129e-04,6.809949874877929688e-03
-2.993580089614363282e-01,-4.663990403112240335e-01,-4.699475625711637128e-01,2.743079022014269577e-03,-3.378861839490862606e-03,-1.448364364931878367e-02,1.708630919456481934e-01
-3.233798203691988782e-01,-4.545215044253648751e-01,-4.617647314775207845e-01,1.800780337741418255e-03,-4.026860269576235628e-03,-6.202438205788875746e-03,1.355517655611038208e-01
-3.241274115920327326e-01,-4.592934506880899104e-01,-4.568789056733021381e-01,5.181422714071836147e-03,-1.152392315303119898e-03,-6.823706619430213415e-03,1.348092705011367798e-01
-4.217008240576820555e-01,-4.063084909375165865e-01,-4.070261834966540371e-01,-1.906083172495226746e-04,-6.693114661852090502e-04,-7.013540550312366822e-04,1.514333672821521759e-02
-3.438587524602716439e-01,-4.439334392467819135e-01,-4.562402124877298348e-01,-1.236039204189540684e-03,-1.620180467666815574e-02,-1.238267560737904560e-02,1.124725192785263062e-01
-4.387426948469080878e-01,-3.737261931795479164e-01,-4.193888208586633581e-01,-1.234122861803597059e-02,-1.412859370148479392e-02,2.277527427410093105e-02,7.717062532901763916e-02
-5.154952564203438836e-01,-3.463698726208633838e-01,-3.290527958078733883e-01,1.186536038235781482e-03,6.048363509614105432e-03,1.569469118828630827e-01,3.253352046012878418e-01
-4.136302926973771110e-01,-4.128600921897130904e-01,-4.147596506798100213e-01,-9.921575013732921236e-03,-8.434703663872058013e-03,2.403856720779909504e-03,2.299608103930950165e-02
-4.441815522486000645e-01,-3.893584280689309507e-01,-3.909039039244255331e-01,-1.229782175784776828e-04,1.054603079525409572e-03,8.473891761405503206e-04,5.411812663078308105e-02
-4.677085674829716266e-01,-3.593832381149454358e-01,-3.983802319230334565e-01,-1.631922819323990484e-02,-1.266289188481431807e-02,3.096315286033970299e-02,1.148343533277511597e-01
-3.876494783084077911e-01,-4.321461168030336086e-01,-4.009077825488369107e-01,1.822914376914948982e-04,3.250431219352175986e-03,8.255719648948004613e-03,4.245055839419364929e-02
-4.685062913997122269e-01,-3.199819201013189285e-01,-4.216373759177319269e-01,1.775460360528952064e-02,5.024827310954202431e-03,5.232929123381120651e-02,1.628849208354949951e-01
-4.448947428061028608e-01,-4.243246979559279763e-01,-3.513446091902160395e-01,-2.915780415548754542e-02,-3.528758637531974329e-02,3.865689725540908533e-02,1.342373490333557129e-01
-4.601693958285817954e-01,-3.202134886102431244e-01,-4.442394492490018831e-01,2.619614185215462902e-03,-1.775588669463951325e-03,1.433814644507138206e-02,1.351248323917388916e-01
-3.914356926377009493e-01,-4.413887169104206420e-01,-3.885995234736950299e-01,1.831850721173483012e-03,1.080903472437662370e-03,-2.597941488131053794e-04,5.156353488564491272e-02
-4.348973554714788414e-01,-4.027555792609364693e-01,-3.952362456859121465e-01,-3.999479331021999103e-03,-2.878225558128821252e-03,4.279980828562707229e-03,3.819834440946578979e-02
-4.206943338038923730e-01,-4.070533913959328287e-01,-4.089747803752622479e-01,-1.095230484713737018e-03,-3.404879747586212965e-03,-2.653288898624122229e-04,1.421783678233623505e-02
-4.703862043966464679e-01,-4.307127471720143541e-01,-3.413489931244395592e-01,-1.996194871267710155e-02,-3.692206095062952609e-02,4.804847379031855492e-02,1.591111421585083008e-01
-3.173149169960620686e-01,-4.458876226355831807e-01,-4.622144067043123528e-01,4.230288162949447789e-02,-5.736649964484564178e-03,-1.536149092695341008e-02,1.583412140607833862e-01
-4.335649897723107826e-01,-3.929357655404188687e-01,-3.918923582114120507e-01,2.046710587518011434e-03,3.269422521984378591e-03,2.434500251304646395e-03,4.191217198967933655e-02
-4.030844150939628112e-01,-4.331918994224527308e-01,-3.842238137072813142e-01,5.502996424882904483e-03,3.595253239179278023e-03,2.479470723856169994e-03,4.447581246495246887e-02
-4.306053765557659174e-01,-3.886842680989874288e-01,-4.185786061201389185e-01,-2.355831458823570788e-03,-1.009682149037496694e-02,3.032293773279130106e-03,4.180811718106269836e-02
-4.415054361266962379e-01,-3.870966109708880443e-01,-4.051811608514995222e-01,-1.262414517884845365e-03,-6.666127035285495869e-03,2.927677521445267231e-03,4.967110604047775269e-02
-2.424876273778960034e-01,-3.568353892416528117e-01,-6.513262985898260471e-01,1.560834361024307504e-01,-6.047297332687007893e-02,-6.421891488214603871e-02,4.794830083847045898e-01
-4.100858083947362398e-01,-4.106606247183419156e-01,-4.159632225700721220e-01,1.475821363175286059e-03,-1.046378985755201359e-03,-8.728595392708071807e-04,6.603067740797996521e-03
-3.914930805038676631e-01,-4.035743329093735565e-01,-4.398845306794956223e-01,3.164531354756181837e-03,4.374923674417066101e-04,-7.209827186671222132e-03,4.571237787604331970e-02
-4.040894792849027972e-01,-4.048336137923589373e-01,-4.335437034892366537e-01,-1.416562566920603243e-03,-1.531736778651698796e-03,-1.519622965740111131e-03,2.943082526326179504e-02
-3.917529738781700965e-01,-4.105408326052985002e-01,-4.319319442682844068e-01,9.565328329133615005e-05,-1.476086163257387578e-03,-8.239926474530829409e-03,3.771882131695747375e-02
-4.258934906461484537e-01,-4.042793676186001717e-01,-4.038624882737256727e-01,-3.858153776386049651e-03,-2.780979944465975743e-03,2.193551146803173965e-03,2.363571897149085999e-02
-4.080041873449651857e-01,-4.206809846220949667e-01,-4.123230718291656660e-01,-1.684445543175744310e-03,-1.843716846049064592e-03,1.841457350373276736e-03,1.238899398595094681e-02
-3.553562532076181557e-01,-4.085707236800911191e-01,-4.629260351947906971e-01,6.524906403737563976e-02,-5.239389561028726106e-02,-1.346841942159415252e-02,1.738696247339248657e-01
-2.688485042431156269e-01,-5.009694933092183611e-01,-5.423158470377700269e-01,-1.430857015721315462e-01,-1.027660119391134719e-01,-9.000139662323232426e-02,4.273065626621246338e-01
-3.640898715933760244e-01,-3.923771602845440576e-01,-4.311996153428138134e-01,7.089508003065822517e-02,5.958417643179288875e-02,5.116160849441150210e-02,1.923206299543380737e-01
-2.885415121791907733e-01,-3.332346390474807962e-01,-5.341709857238302606e-01,1.864724074989661251e-01,4.477201259728460364e-02,3.951338474683713242e-02,4.078808128833770752e-01
-3.962903331310176913e-01,-3.967619645710488974e-01,-4.364449789283683101e-01,1.438670868062041572e-02,-7.327595286169786767e-03,-6.090378315089451516e-03,4.986954107880592346e-02
-3.271455409257645330e-01,-3.558807436062690344e-01,-5.338320610429215796e-01,1.976484225940031147e-01,1.044471822638827485e-01,1.048191158567422648e-01,4.695629179477691650e-01
-3.592643081443586128e-01,-3.902676802822668822e-01,-4.721288675548256375e-01,3.979254486267617269e-02,3.566923319290628714e-03,8.368452039858490605e-04,1.224379241466522217e-01
-4.391872461722413079e-01,-3.943786499305961812e-01,-3.985070942595850818e-01,-5.822415202886952086e-04,-3.531113172386896211e-03,7.460102963787450811e-04,4.335847496986389160e-02
-4.164063202669163744e-01,-4.116969682838644840e-01,-4.092307765664375263e-01,-1.281212667735372960e-03,-4.070295663645326334e-04,2.904492092168308413e-04,6.748991087079048157e-03
-3.646378793038127508e-01,-4.310842364251026293e-01,-4.495251709358993875e-01,-1.368115706053705388e-02,-9.178730134682313441e-03,-6.177170506762461044e-03,8.312196284532546997e-02
-4.185122175265400535e-01,-4.085477096575083622e-01,-4.093666623032518048e-01,-4.216781070808353279e-03,-2.615766534879178980e-03,2.648272682673106972e-03,1.366426423192024231e-02
-4.210437734692921707e-01,-4.095252883031735291e-01,-4.062951305174515859e-01,-3.851200460391572024e-03,-9.824959550499660910e-04,-1.911498517257424474e-04,1.509359758347272873e-02
-4.208699596256786912e-01,-4.102984542528300693e-01,-4.061664209523567770e-01,-2.621846686828181294e-03,-6.711335015528140102e-04,-1.065798040994178717e-03,1.406746264547109604e-02
-4.447674222283706236e-01,-3.715984828352938418e-01,-4.166337864555228476e-01,-1.291374340865713557e-03,-9.812186501179100476e-03,5.985053126262005786e-03,6.699245423078536987e-02
-3.939871003152079498e-01,-4.129596144347067455e-01,-4.364551296563356497e-01,-4.235262943021170755e-03,-1.491878009497443281e-03,-3.887719879383243291e-03,3.825698792934417725e-02
-4.168090463750775410e-01,-4.100195430935625884e-01,-4.107562475040602568e-01,-3.440141960314859284e-04,-3.465870125720903894e-08,5.079677456616079907e-04,6.539675872772932053e-03
-4.226545012068201324e-01,-4.074340644479235718e-01,-4.077664847884334143e-01,-4.025807356891879935e-03,-4.713200220287147753e-03,1.645046430139785821e-03,1.871083304286003113e-02
-4.261475576243578534e-01,-4.034742016162637390e-01,-4.047358864198013495e-01,-1.473745726473286955e-03,-2.783054484160254072e-03,4.266996229986593360e-04,2.274564653635025024e-02
-4.215011410244499102e-01,-4.058437975838091738e-01,-4.089359952991134528e-01,-8.824394609475394143e-04,-3.183856972551659531e-03,3.655066445573338101e-04,1.547404937446117401e-02
-4.058135799049970571e-01,-3.421734010227151512e-01,-4.613959283460774552e-01,5.596107788591582477e-02,2.780935210516294331e-02,3.463394670069398773e-02,1.612150073051452637e-01
-3.883037746110438171e-01,-4.034477435088336117e-01,-4.252828318594403800e-01,1.881298982553078611e-03,2.692779027192565653e-03,7.818594041370708833e-03,3.539128601551055908e-02
-3.835722144126799682e-01,-3.864506933504482933e-01,-4.412973025959093798e-01,1.841725411266846232e-02,8.133180002115717594e-03,7.912398438054088837e-03,6.766210496425628662e-02
-3.567583451980643749e-01,-4.321047386372086629e-01,-4.448905487373140399e-01,-4.366140013444885955e-03,3.884892831821837138e-03,-9.841542132522281341e-03,8.483487367630004883e-02
-4.348812019540367890e-01,-4.051741214287923887e-01,-4.023714728502432170e-01,-1.772322316426956038e-03,-1.766734886477648939e-03,-1.387827323437270353e-03,3.159413859248161316e-02
-4.434318980394270637e-01,-3.845328870442312197e-01,-3.924202552360537832e-01,1.786085981899504602e-03,4.378670694827690806e-04,3.615297745649225913e-03,5.582205951213836670e-02
-4.356922439800638980e-01,-4.061097997300838203e-01,-4.035910807877248208e-01,-4.232161068486472479e-03,-2.711567944797686931e-03,-9.229386382723598486e-03,3.587911650538444519e-02
-4.396011456468589818e-01,-3.957211207541964648e-01,-3.931829309133626493e-01,-7.655221944303405683e-04,2.290246631026241690e-04,-6.538781660619516142e-04,4.523795843124389648e-02
-3.894724136409512538e-01,-4.344808616047885486e-01,-4.235097162180452846e-01,-3.433560862359282505e-03,-6.119380185630592280e-03,-3.636174953399167603e-03,4.289179295301437378e-02
-4.322668445263223025e-01,-4.077196171932473967e-01,-4.018133426081100801e-01,-2.905370825842505059e-03,-1.197222794189262921e-03,-1.273782221585466985e-03,2.858188748359680176e-02
-4.250958338066159747e-01,-4.120639299448626280e-01,-3.990691366975238630e-01,-7.276023528191640118e-03,-5.773978586419147539e-03,8.512660676122831352e-03,3.137317672371864319e-02
-4.810243543143028488e-01,-2.440753646126932186e-01,-4.840060864901861715e-01,8.564410306775781245e-02,3.760523580564335139e-02,1.621103705415151697e-01,4.024260640144348145e-01
-4.346696791856465292e-01,-4.077943597210745286e-01,-3.981981037834088077e-01,-4.308585307408443511e-03,1.140494828350130385e-04,-5.619959911618684946e-03,3.496792912483215332e-02
-4.120697046331688318e-01,-4.120287440349137409e-01,-4.166719464304925458e-01,-3.356579391470867167e-03,-2.883205536568896749e-03,1.953379522620980659e-03,9.568510577082633972e-03
-4.435647513734429226e-01,-3.874580261602554865e-01,-3.947976634094503834e-01,1.033155430142444027e-03,1.745931474017077426e-04,3.636904043040503284e-03,5.322599783539772034e-02
-4.223996370858028038e-01,-4.082502085473856956e-01,-4.082204625534640585e-01,-3.937250291527492028e-03,-5.013474649881184859e-03,2.626303953612332300e-03,1.852649822831153870e-02
-4.153847575912995582e-01,-4.038147693993597853e-01,-4.150256976701837131e-01,-5.345802756659620569e-03,-6.366410673340042875e-03,4.552750827609621832e-03,1.998369954526424408e-02
-4.192996925890247195e-01,-4.042422827791338769e-01,-4.142233791237056040e-01,-1.115716920664744198e-03,-6.114508393948538123e-03,1.271615623413697429e-03,1.722804456949234009e-02
-4.166309871757692962e-01,-4.080194974152336340e-01,-4.128987693669278758e-01,-2.094307748622340880e-03,-3.657297298981470983e-03,9.591014664249446382e-04,1.058266125619411469e-02
-4.417865392615552000e-01,-4.047651164087757714e-01,-3.863259871376905630e-01,-7.528314206877468641e-03,-1.381636725686113953e-03,1.388213319908708152e-03,5.074213817715644836e-02
-4.079315870026574697e-01,-4.207457348432498412e-01,-4.125243260125621148e-01,-1.634887441194124436e-03,-1.744369754723544465e-03,1.636612140236637153e-03,1.231365650892257690e-02
-4.180777397223958136e-01,-3.936747934209059996e-01,-4.381672964025942751e-01,-6.335847570082878133e-02,-6.258416432995081435e-02,2.404360353339320480e-02,1.643680185079574585e-01
-3.821241376432802928e-01,-5.209514718609549178e-01,-3.396344897722115008e-01,6.592143497217646357e-03,1.012506157875897317e-01,1.504119014597010348e-02,2.419530302286148071e-01
-4.101360593334901772e-01,-4.683577090069330207e-01,-3.579685355587937101e-01,-1.479030419658179489e-02,4.125892863341075467e-02,-1.554300052782704548e-02,1.250455975532531738e-01
-4.100355566435114341e-01,-4.702854290049862662e-01,-3.494857193572448173e-01,-1.581404370861990913e-02,3.133509524473439278e-02,-1.031065510930039529e-02,1.223081946372985840e-01
-4.163580020160949080e-01,-4.550487125581985093e-01,-3.501930982536165526e-01,7.423422549500488131e-04,3.492675884842921102e-02,1.216143357122926281e-02,1.119809001684188843e-01
-4.241641997108397955e-01,-4.657788934733745889e-01,-3.276646287712290384e-01,-8.574691995696276034e-03,5.464089545944052911e-02,-2.149254198792238061e-03,1.557275354862213135e-01
-3.883233516518931894e-01,-4.639072792779054821e-01,-3.868556714985759148e-01,-6.709791346594919971e-03,4.009014067015893162e-02,-1.410852270197510833e-02,1.066765710711479187e-01
-4.060733752726792822e-01,-4.841786828662518749e-01,-3.344685625139862672e-01,-2.547328940850121168e-02,8.181797077662686379e-02,-2.983439985973529440e-03,1.971707791090011597e-01
-3.936574151536169630e-01,-4.588222295226087599e-01,-3.557295259747417782e-01,8.264715376689187390e-03,3.994385832302527889e-02,1.227257193729646215e-02,1.166183575987815857e-01
-5.204702100750666638e-01,-5.145326250670768653e-01,-1.702667112624740853e-01,-3.654823244639461566e-02,-4.626881870412727360e-02,1.957989816834446520e-02,3.635632395744323730e-01
-4.857867573527553384e-01,-4.854305615709536559e-01,-3.030837127287354660e-01,-2.917704131714004764e-02,-5.194577274702679576e-02,-1.915326611599947257e-02,2.122851461172103882e-01
-4.877745774632236686e-01,-4.718403500506229142e-01,-3.078342224466689148e-01,-4.941659552232002817e-02,-5.041745876731652809e-02,-7.686253852989197166e-03,2.118825465440750122e-01
-4.553817188768806701e-01,-3.282171604510951690e-01,-4.348879561533748883e-01,8.557283724227083416e-03,1.196342327987658279e-03,1.166128662973328622e-02,1.208994239568710327e-01
-4.664718754490341790e-01,-4.619994928190216399e-01,-3.314638811021981546e-01,-3.759959700335561289e-02,-4.574339674771253639e-02,2.793626752969945171e-02,1.746517121791839600e-01
-4.490655492546228311e-01,-4.855373247705644379e-01,-3.211088033316381596e-01,-3.238924453501052653e-02,-1.267075167308757966e-01,-2.301362889761160088e-02,2.743544876575469971e-01
-4.409791185222747822e-01,-3.855902540411377255e-01,-3.924599282558252633e-01,2.256789073495128750e-03,5.826046410349765975e-03,5.436806250035506813e-03,5.422545224428176880e-02
-5.939572386050673281e-01,-5.138837448820197107e-01,-2.140115969961695064e-01,-1.134409162527017234e-01,-1.575940833533745755e-01,5.096111865681973718e-02,4.911743104457855225e-01
-4.438835985844839516e-01,-3.913371553713972939e-01,-3.858118107799582419e-01,7.818556607646393215e-04,1.759708208541001543e-03,2.850745592643072653e-03,5.583456903696060181e-02
-4.354063658575023643e-01,-3.828911908671775999e-01,-4.011253731319690541e-01,3.064933704809812663e-03,6.152700147041652821e-03,4.863474437231713951e-03,4.843001812696456909e-02
-4.567824548764599646e-01,-4.714110670974039352e-01,-3.114091274155030287e-01,-1.890779326221147735e-02,-1.998558427178460592e-02,4.059890025537593594e-02,1.751844882965087891e-01
-4.996557685502807100e-01,-4.579393357726208036e-01,-2.988710314597736173e-01,-1.810540958322037070e-02,-2.166857001816064818e-02,4.761049882208410328e-02,2.070531994104385376e-01
-5.280695343512515905e-01,-1.621575415717750324e-01,-5.011885559443158833e-01,5.334150077448765459e-02,-1.217089911323088365e-02,1.071547241013085516e-01,4.101278483867645264e-01
-4.006376677064285574e-01,-3.988737845977314289e-01,-4.348528267348211185e-01,5.923744563304455917e-03,-5.861169189449066952e-03,-5.193464914160848649e-03,3.903060778975486755e-02
-4.761566208848532211e-01,-2.987946919671280455e-01,-4.461772428345948116e-01,-1.094019871108814490e-02,-1.956125357169725618e-02,4.327016192083071866e-02,1.848316192626953125e-01
-5.219503058248928795e-01,-2.070183507473461471e-01,-4.814544993266902662e-01,-3.259234225871838336e-02,-2.379843131325541997e-02,9.508902215257623858e-02,3.465259969234466553e-01
-5.321338337426094744e-01,-1.614185062843125906e-01,-5.082729602325261054e-01,-7.552233697064773821e-02,-5.168896715868571967e-02,3.881603956443240022e-02,3.984968960285186768e-01
-2.418683769470526546e-01,-4.194269074138818887e-01,-5.528421532385789927e-01,1.604222231564058354e-01,-3.362891881322634027e-03,3.135998310145226425e-02,3.914151489734649658e-01
-3.989392684020722779e-01,-3.758475800861712512e-01,-4.510466515633534956e-01,2.117885881807210144e-02,2.351434599660656970e-03,-4.202216641352296729e-03,7.659535855054855347e-02
-3.815869643698936997e-01,-3.881684984745315536e-01,-4.535531619552246596e-01,4.326793535194727036e-02,-2.515548460343641941e-03,-1.196456747165963556e-02,1.039883717894554138e-01
-3.921812549227794986e-01,-3.866010357601203928e-01,-4.431440295847215438e-01,2.699661460246863091e-03,5.247092727263885040e-04,1.276874198473588150e-03,5.422461032867431641e-02
-3.459222469320832882e-01,-4.195469015596299256e-01,-4.535995865588576814e-01,1.446612701329527857e-02,3.090124844134686712e-03,1.299490884888018696e-03,9.873607009649276733e-02
-4.219908345378057812e-01,-3.976730703386157084e-01,-3.965244992605236884e-01,1.522410033333436571e-03,3.526125763180798251e-03,1.177826503018933671e-03,2.586540579795837402e-02
-3.399738778529421968e-01,-4.273417193428010741e-01,-4.613871205153272648e-01,3.232076210041782277e-02,-1.801604468943663467e-03,-9.938632889132792761e-03,1.233153045177459717e-01
-4.007981874576976855e-01,-4.107272081767176508e-01,-4.283249000693252762e-01,-3.340367596087090180e-03,1.514742484008962378e-03,-5.269336886500583343e-03,2.658283896744251251e-02
-3.527117720505427712e-01,-4.197296150922875113e-01,-4.499028490833201221e-01,1.498459024186226882e-02,-6.734357905251462176e-03,-1.292088952112361439e-02,9.345842152833938599e-02
-3.685836966703770479e-01,-3.798730478546422096e-01,-4.896064585502476474e-01,5.822573808885889157e-02,-1.673887077102663087e-02,-1.940220619382795886e-02,1.598383784294128418e-01
-3.447141186737198160e-01,-4.191259111001258142e-01,-4.564143039260585288e-01,1.555369453097535035e-02,2.916629169085903708e-03,-1.175581153092227675e-03,1.022626683115959167e-01
-4.462663732657897731e-01,-4.485704388034666423e-01,-3.407863035050981981e-01,-9.820411622805945082e-03,3.042525438613738562e-03,-3.806432642473613591e-03,1.083279550075531006e-01
-4.084244481616461919e-01,-4.079584672575117255e-01,-3.986562197504208149e-01,7.244153062003376095e-03,2.176648487460979345e-03,2.154656292603522594e-03,1.663303561508655548e-02
-4.575489785889600980e-01,-4.608968873499886820e-01,-3.189126245455600750e-01,-1.742467473927792818e-02,7.204856094313893435e-03,-2.224224567817305667e-02,1.491513699293136597e-01
-4.212572975847505563e-01,-4.002438535974718881e-01,-3.974543940634998052e-01,1.270681995201701497e-03,1.710376929416600319e-03,2.389431355623474265e-03,2.321013249456882477e-02
-4.497455122452308496e-01,-4.189207532534665046e-01,-3.310965970127051627e-01,1.057954258188533586e-01,1.391013840933139623e-01,1.576450356042264078e-01,4.213690459728240967e-01
-4.752641738408804328e-01,-4.964590936803643384e-01,-2.288176551092610256e-01,-3.493600022179397385e-02,7.422126509226789626e-02,-4.462244416476506687e-02,3.042531311511993408e-01
-4.043827439461283313e-01,-4.208351660266574368e-01,-3.916772336626306306e-01,8.103796023241073912e-03,2.832090648093606774e-03,2.242048675491270515e-03,2.961934730410575867e-02
-4.908895227315955845e-01,-4.523527865664759284e-01,-3.051945908821401821e-01,-2.694102157081181698e-02,8.413381906260083629e-03,-1.378914803295681543e-02,1.782465875148773193e-01
-4.067503938512176398e-01,-3.999094405018444043e-01,-4.099552380045365929e-01,7.132981690881292540e-04,4.881534892105064173e-03,2.534902578541240858e-03,1.308761164546012878e-02
-4.112938772607765414e-01,-4.018916295113874604e-01,-4.048895157207675344e-01,1.365582826279952830e-03,8.314877133933969849e-04,1.864494271676776088e-03,9.343462996184825897e-03
-4.155500012614422034e-01,-3.998422192767862038e-01,-4.005716521182696721e-01,7.620651197935117286e-04,2.305869283108917273e-03,1.559977201868172503e-04,1.592404022812843323e-02
-4.941712393071965859e-01,-4.985981456035734616e-01,-2.561667545466995710e-01,-3.229124906657419164e-02,2.804367710335021330e-02,-1.094744117826015189e-02,2.521238029003143311e-01
-4.677209587657366607e-01,-5.057259305647734404e-01,-2.736031647334860040e-01,-3.006037176919725343e-02,6.547816681868990664e-03,3.779024739704606780e-03,2.222293466329574585e-01
-4.447194000877450759e-01,-4.654606932049561441e-01,-3.176925981593189396e-01,-2.247561236947350979e-03,1.409232036476262481e-02,5.602274448939500127e-03,1.410879194736480713e-01
-4.252471984216641410e-01,-4.073616430243813813e-01,-4.065806099957521291e-01,-2.998909515697879054e-03,1.937996202286762417e-03,-2.884333220855999063e-03,1.994187384843826294e-02
-4.170851030422938477e-01,-4.218087159365789818e-01,-4.011723219547969066e-01,-9.072308809758913850e-03,5.336283913716840729e-03,-1.075353254237973108e-02,3.209296613931655884e-02
-4.001360219227729775e-01,-4.063818587968948126e-01,-4.107248470784471972e-01,9.981923135867298933e-04,1.148723114829089311e-03,5.660772131714022180e-03,1.371417194604873657e-02
-4.143662352948636052e-01,-4.128752087933926784e-01,-4.113449675918240400e-01,-3.120559136837995542e-03,1.409046638844735962e-03,-3.377738934938357557e-03,8.731763809919357300e-03
-4.257609538782672343e-01,-4.108972747202947473e-01,-4.037256202118129078e-01,-3.207297506847224360e-03,2.839073287705598259e-05,-8.290992448100579929e-04,2.029491774737834930e-02
-4.208017661166705281e-01,-4.134680451858880335e-01,-4.031065654525650133e-01,-5.019514579096767161e-03,1.773262054183339298e-03,-3.154363196842938956e-03,1.876171305775642395e-02
-3.991002525195288531e-01,-4.463519945314714521e-01,-3.785978376375470078e-01,-7.335929691283433638e-04,3.714488298139327627e-03,1.266540921643894476e-03,6.057780236005783081e-02
-5.230890206011522547e-01,-5.282113034168371968e-01,-1.309713443421252066e-01,-2.793491043600387566e-02,1.947871983491927111e-02,-9.703990612157162646e-03,3.994407057762145996e-01
-4.067096801289469821e-01,-4.047498463205438379e-01,-4.059274692229562498e-01,4.282638398538497304e-04,5.941863116187409326e-08,6.963823367398581671e-04,2.219205722212791443e-03
-4.509035046273672798e-01,-5.003035235757350430e-01,-2.098028068767315291e-01,2.159416905014480831e-02,1.353654218176451596e-01,8.379019347450665511e-02,3.871859908103942871e-01
-4.043004270596458061e-01,-4.102847943532442754e-01,-4.253022464462179464e-01,-7.437973876044123595e-04,1.230688481419842919e-04,-2.909070792257011009e-03,1.944992691278457642e-02
-4.634760269806249555e-01,-4.855646613194271044e-01,-2.874359621253412822e-01,-5.639001844165240354e-04,5.172854665463291063e-02,3.977357759288305261e-02,2.194100916385650635e-01
-4.443022090080300246e-01,-4.401690110710811954e-01,-3.600356326636494075e-01,-1.046028637574789900e-02,-4.856580903024753162e-03,1.407406693234037123e-02,8.810731023550033569e-02
-5.553074445685323157e-01,-2.508171940996404281e-01,-4.255928010570257936e-01,7.653252207827461462e-02,3.654729998222660398e-02,1.601099028099094990e-01,4.105212390422821045e-01
-4.774554493250951492e-01,-4.647601970300198060e-01,-2.801057368495675770e-01,-1.642102697790501220e-02,2.230137830190931370e-02,5.002041099601270413e-02,2.154293507337570190e-01
-4.056226464171357460e-01,-3.982423526308224715e-01,-4.303874872200055268e-01,3.219625784698856505e-03,-7.199589498318528097e-03,-1.065467430168418527e-03,3.225746005773544312e-02
-4.251253484397778948e-01,-3.969786120409687924e-01,-3.989403972692804334e-01,5.523865056524764235e-03,3.912670851493237067e-03,5.050893860877490697e-03,3.090097568929195404e-02
-4.836949008941340278e-01,-4.653309322853461660e-01,-2.857490583608153223e-01,-8.758138321070684310e-03,9.477573527969681416e-03,5.781320838835372899e-02,2.154330760240554810e-01
-4.157328324244561890e-01,-4.069637275838939861e-01,-4.145433087674594286e-01,-9.465778383946293157e-04,-2.060731743208888637e-03,1.362245997150949477e-03,9.427413344383239746e-03
-3.572439151286648795e-01,-4.368335814586067345e-01,-4.216686178436392374e-01,6.001357215788600229e-03,1.150508525475751366e-02,1.122185332721525007e-02,7.899656146764755249e-02
-4.021268392391902924e-01,-4.007387040267832434e-01,-4.152343013774954517e-01,1.994384112012147561e-02,1.696012510906408713e-02,1.962165641120936638e-02,5.833664163947105408e-02
-3.692607497367860203e-01,-4.403562902129948831e-01,-4.044531147582494657e-01,6.380712547791461686e-03,1.006423240750058297e-02,1.099848782607015102e-02,6.767544150352478027e-02
-3.737923172286092277e-01,-4.180485560715003213e-01,-4.241769053045471027e-01,4.372687015948141347e-03,4.901051077570489981e-03,1.117441961673936238e-02,5.264422297477722168e-02
-5.099923802541463935e-01,-3.756644106639689396e-01,-3.328376761597320321e-01,6.372161521690235600e-03,-5.726226860849913114e-02,-1.276540333545042871e-01,2.906481325626373291e-01
-4.398895275290267692e-01,-3.884691414881612515e-01,-4.017819686181329231e-01,-1.260806420369416743e-03,-2.826281678448743298e-03,2.923955020265890312e-03,4.680937901139259338e-02
-3.932843582836602625e-01,-4.133165424611917049e-01,-4.384492127418739837e-01,-3.138844100516199973e-03,1.101633301726413685e-03,-6.845378758204455003e-03,4.135429114103317261e-02
-4.169082628358540266e-01,-3.948240843739754258e-01,-4.296002331390886830e-01,-1.477648044272816992e-03,-8.093299477917516305e-03,1.215303484952371055e-03,3.371312096714973450e-02
-4.050736109405165264e-01,-3.999603951836618321e-01,-4.350921008578780835e-01,-5.813607625034292702e-03,-1.519102777483467186e-03,-1.119873998955183726e-03,3.453730046749114990e-02
-4.440778076942168417e-01,-4.124037140777899180e-01,-3.949350524992999434e-01,-6.827142985079590401e-03,-8.687100083188764588e-03,-2.163630340043240854e-02,6.026874855160713196e-02
-4.595698348466891181e-01,-3.916909180107190913e-01,-3.968005105763221518e-01,-3.616889793580256585e-02,1.790215611209161357e-03,-2.759098062740705098e-02,1.024928763508796692e-01
-4.376914896169823432e-01,-4.060919931828405050e-01,-3.981498697283604171e-01,-4.229794763391672187e-03,-1.371295754653422457e-03,-5.083874129320096677e-03,3.807131201028823853e-02
-3.932396845864311041e-01,-4.053087501454468167e-01,-4.317218159495664342e-01,2.282394377727288339e-03,-9.367993382825948482e-04,-4.065918395426711303e-03,3.507063165307044983e-02
-4.377969281185816741e-01,-3.985723313538673263e-01,-4.071543781559336939e-01,-1.800862584734066150e-03,-5.111901189347726158e-03,-5.749698251364792831e-03,3.824780136346817017e-02
-4.467353884021837418e-01,-3.798478755574325461e-01,-4.022836414284617912e-01,2.155107752106637025e-04,-3.828860440314522592e-03,4.210794164373409323e-03,5.978246033191680908e-02
-4.537907261966466210e-01,-3.654009848528534388e-01,-4.347059915848527911e-01,-1.608764966578735134e-02,-7.700969414949717165e-03,-3.418211683803177442e-02,1.046407297253608704e-01
-4.475345105486539521e-01,-3.858593558847631666e-01,-3.966792603742816947e-01,4.110047762726051074e-03,-1.839781071516140634e-02,-4.377167500438111647e-02,1.003372818231582642e-01
-4.371379272067486554e-01,-4.145597809125228794e-01,-3.858756668457086203e-01,-3.582214742526613777e-03,-1.958787781036988151e-03,-1.085250563066386328e-02,4.882134124636650085e-02
-4.455005826418874659e-01,-3.811643741594414325e-01,-3.987167805949317079e-01,1.817362103384264412e-04,-1.655630119373173730e-04,4.140027575125870656e-03,5.804808437824249268e-02
-4.027933887309183558e-01,-3.992202289734151921e-01,-4.305942792431560751e-01,1.719420893184287261e-04,-4.674022408866722496e-03,-1.172945171992238267e-03,3.089902177453041077e-02
-3.926375526322864462e-01,-4.225748172440384476e-01,-4.198486773127155791e-01,-6.536001557192589427e-03,3.229511428707533896e-03,-1.043625687509647584e-02,3.616976737976074219e-02
-4.298843969527804121e-01,-3.972160024456260485e-01,-4.093329557879910596e-01,-1.154656307785283586e-03,-7.770638533980158552e-03,4.683351456731654869e-04,3.168610483407974243e-02
-4.344961779304306604e-01,-4.112828768316545980e-01,-3.989477156055544205e-01,-1.608659233484514405e-03,-3.953687366759869003e-03,-3.264279438880116416e-03,3.261867910623550415e-02
-4.256478655179525283e-01,-4.223370038215532585e-01,-3.642853912805164573e-01,1.142731833860870412e-02,6.872597010261680649e-03,9.809355721045432200e-03,6.629684567451477051e-02
-4.288670252568883012e-01,-3.804637849374207792e-01,-4.302658906892660173e-01,-3.686843539967452239e-03,-1.087396762499727616e-02,2.721714550441294619e-03,5.320029333233833313e-02
-4.420113273427588862e-01,-3.830329681482519399e-01,-3.993146686490682273e-01,2.170691950699802503e-03,2.772489799574217109e-03,2.934664902759818311e-03,5.335077643394470215e-02
-4.328941658102836154e-01,-4.188199581127329263e-01,-4.013085864860160279e-01,1.085345421732952439e-02,-3.639343763651305130e-02,-4.859304491699256712e-02,1.102809235453605652e-01
-4.198035519033891938e-01,-3.937099782194654063e-01,-4.036393103388966064e-01,3.149457383697148311e-03,8.574654148245803784e-03,3.575496973466997606e-03,2.844395115971565247e-02
-4.531367739470538170e-01,-3.460658994630477214e-01,-4.306909783162633509e-01,-1.176351877539265605e-03,-3.072323988916561121e-03,6.672946243504665129e-03,9.864455461502075195e-02
-3.849340486907689152e-01,-4.213337643964447099e-01,-4.075510403443669549e-01,4.374351356960967142e-03,5.041943555224619004e-03,1.034460766823611100e-02,3.831340000033378601e-02
-4.447948805208555845e-01,-3.824855192043256080e-01,-3.985483696715710900e-01,8.260666479209370378e-04,1.229990158365978133e-03,3.028430005895725672e-03,5.633565038442611694e-02
-3.781119699985820426e-01,-4.517273987415830749e-01,-3.950729813461478224e-01,6.191282507704388288e-03,2.432013416337661105e-02,6.138106940084022724e-03,8.037877082824707031e-02
-3.963093320303813782e-01,-4.259226790018786346e-01,-3.915088728791180084e-01,9.631192654254288124e-03,1.291696874347707073e-02,1.009919021956158340e-02,4.611894488334655762e-02
-3.995302304257271064e-01,-4.242343005309927584e-01,-3.966255429362495200e-01,5.269043109936710940e-03,6.018592282037092157e-03,6.254425519290430190e-03,3.161958605051040649e-02
-3.871001903528027421e-01,-4.346306611121880659e-01,-3.938613161618459424e-01,2.436357484082759227e-03,6.060074856759967155e-03,5.184736251100352869e-03,4.682013019919395447e-02
-3.765814883243565614e-01,-4.348411406510810928e-01,-4.017866882110076587e-01,3.632774589748969784e-03,1.225554224051327544e-02,1.229606570378975056e-02,5.920142680406570435e-02
-4.081843521948155251e-01,-4.097332379113748924e-01,-4.188357918011034742e-01,5.708539387687053138e-04,-1.035075172226530664e-03,-1.838584792193455678e-03,1.066242437809705734e-02
-4.963933304251568757e-01,-5.134213067016685228e-01,-2.245024076117165535e-01,2.771072426464832317e-02,1.374720580235224698e-01,1.312908690107045806e-01,4.353798329830169678e-01
-3.274483704238758675e-01,-4.356457639880546018e-01,-4.556337495205001753e-01,1.242362211184538934e-02,1.290454080429586682e-02,3.821198878453595498e-03,1.235931590199470520e-01
-4.069070703765231278e-01,-3.918891539135900826e-01,-4.212450638157186900e-01,2.366450943345474196e-03,5.713719976103060275e-03,2.840988261175005254e-03,2.802492305636405945e-02
-4.392927926920984216e-01,-3.606898120674536523e-01,-4.676586316618598360e-01,-6.470927634216962210e-02,-2.231127471117796621e-02,-1.482302921655633508e-02,1.546838879585266113e-01
-4.520271828681526882e-01,-3.164980711583373907e-01,-4.845826996745770110e-01,-1.173621459678342999e-01,-1.412793135936827107e-02,-4.484700512117405224e-02,2.679447829723358154e-01
-4.448010651885170308e-01,-3.530920998948222089e-01,-4.302197436960339405e-01,-4.079107791474944483e-02,-2.832617517767279519e-02,3.147278698251320533e-02,1.328772902488708496e-01
-5.101070138470130688e-01,-2.682454700850662732e-01,-4.637767951753880014e-01,-3.003022689363999201e-02,-2.417838775534432438e-02,4.395543599804985213e-02,2.443224638700485229e-01
-4.822957326540030509e-01,-2.909824048672901009e-01,-4.656130816640382530e-01,-3.120305422312224380e-02,-6.157791694087188898e-03,6.952304243626351160e-03,1.920081675052642822e-01
-4.588614058287044384e-01,-3.199670646939256624e-01,-4.545472197445870055e-01,-2.872942533766286929e-02,-1.779101178223223972e-02,1.145074066539519819e-02,1.501002758741378784e-01
-4.413761283886565856e-01,-4.299294371805859605e-01,-3.693635566342471921e-01,1.736531747611375293e-03,-1.558561215627437928e-02,-3.026268020592646352e-02,8.931853622198104858e-02
-4.311237929014823389e-01,-4.045971974558806861e-01,-4.060721439148369805e-01,1.953743051797856884e-04,-1.310608312207012845e-03,-1.030450896384660755e-03,2.598390914499759674e-02
-5.399511422764824431e-01,-2.203986836358267920e-01,-5.576408609966427843e-01,-1.984774882048779276e-01,-1.065468223499502765e-01,-7.105423217853298369e-03,5.103602409362792969e-01
-4.058610307476530621e-01,-4.061510230332416316e-01,-4.047031717260656247e-01,-1.003269832923842439e-05,6.995370382134625533e-05,6.709724048757877753e-04,1.768077374435961246e-03
-3.023697979004144054e-01,-4.917285197017278175e-01,-4.469353751050494927e-01,-5.670931155884276556e-03,-1.933157637196898648e-02,-2.173564675776364346e-03,1.749655902385711670e-01
-2.596808691340919406e-01,-4.705575846195509393e-01,-4.791262010274600636e-01,1.729708986587729161e-02,3.688721632630883717e-03,-1.152675565124578957e-02,2.183719724416732788e-01
-4.698419934387666475e-01,-4.194099765951231906e-01,-3.157122723200687653e-01,3.358309668842246465e-02,3.186022488501286110e-02,6.839199220783578892e-02,1.974522173404693604e-01
-2.880031063230237831e-01,-4.579666724461052274e-01,-4.936325041030389382e-01,1.538129087686080851e-02,-2.900212559922405592e-02,-1.459385401490168738e-02,2.002339214086532593e-01
-3.025318162685434187e-01,-4.622947598768765154e-01,-4.644684656900843756e-01,1.093199052188741256e-02,-1.838832897196234634e-02,-1.636806953383236965e-02,1.674898713827133179e-01
-4.246220476601538230e-01,-4.347352866730673782e-01,-4.103072478800993683e-01,2.028285410836110428e-02,-5.813132732372739558e-02,-6.471149669931847148e-02,1.561621874570846558e-01
-4.505159189978588663e-01,-4.319951611104263511e-01,-3.685797813789393751e-01,5.757164244834505479e-03,-1.271995922867595087e-02,-4.347298640350091142e-02,1.085981503129005432e-01
-4.822933793906790667e-01,-4.439088656610580830e-01,-2.945956452559383432e-01,-2.781309596370865056e-03,-6.248882292744524503e-02,-9.200683433042586290e-02,2.581330239772796631e-01
-4.617717577695583109e-01,-4.719723234408949031e-01,-3.338843217326443735e-01,-2.216441731229893547e-02,-6.962869082735057003e-02,-2.556874541999780079e-02,1.890589892864227295e-01
-4.315420076051719178e-01,-4.570752208151082074e-01,-3.559690362331864311e-01,8.498715435407359908e-03,-6.202884945675438827e-02,-2.431813626618454377e-02,1.477375179529190063e-01
-4.176049736404926493e-01,-4.020431324513659699e-01,-4.197706300084638742e-01,-9.054486502930264536e-04,-6.889277691030195813e-03,7.876419481146096661e-04,2.067050151526927948e-02
-4.188122819648301687e-01,-4.021671436716034997e-01,-4.181082019928831217e-01,-9.053437695579932528e-04,-6.537640025759991307e-03,7.875507670462404686e-04,1.995942741632461548e-02
-4.302405006412703958e-01,-3.895838068735137938e-01,-4.156612963891209711e-01,-2.389428401438871592e-03,-7.577776423759140234e-03,2.920099742633531278e-03,3.857142478227615356e-02
-4.015147181281082944e-01,-4.111328855889260225e-01,-4.261738231229985074e-01,-3.464012049250483720e-03,1.352166014338069058e-03,-5.574326808253293394e-03,2.445624209940433502e-02
-3.415997127942490552e-01,-3.621962951065781366e-01,-4.922960068350419327e-01,1.855441026183516362e-01,9.141366858109473137e-02,5.545886276716475299e-02,3.969962596893310547e-01
-5.889088188780108313e-01,-3.178722590135056869e-01,-3.438770893777723381e-01,2.427840138969968031e-02,1.261952243569111794e-02,1.765206995493700526e-01,4.035016298294067383e-01
-3.713598891622393317e-01,-5.008062694295295492e-01,-3.378495710508181982e-01,-9.192213842996824202e-02,1.140328813045480560e-01,-8.451634325341239595e-02,3.286421597003936768e-01
-4.433547390314068748e-01,-3.732259931106817197e-01,-4.121396564879502566e-01,-1.489812500168861704e-03,-5.307107899546064517e-03,5.562782565903536328e-03,6.234850734472274780e-02
-4.488766281195963881e-01,-3.611991835494193781e-01,-4.129060873476573246e-01,1.697570657959989685e-03,-6.121672106097819427e-04,8.858649023139633996e-03,7.792692631483078003e-02
-5.489787607088606469e-01,-2.512781368223966361e-01,-5.209462160967026634e-01,-1.646962846596289609e-01,-1.087230056165646580e-01,4.756016084800729349e-02,4.524254202842712402e-01
-3.302336825674075382e-01,-4.000847879181541611e-01,-5.067512681617630799e-01,1.015093388602743840e-01,4.067620067961648378e-02,1.043730092370859057e-02,2.447664141654968262e-01
-3.654578084802742044e-01,-3.403947600841421006e-01,-4.465211174521818149e-01,1.509380422544983058e-01,1.131610733238512106e-01,1.255977314897953334e-01,4.041270017623901367e-01
-4.031647983706359017e-01,-4.098850906989430221e-01,-4.279141605847852081e-01,-7.077732498392351034e-04,3.433752560239167325e-04,-2.973140756338408554e-03,2.279792912304401398e-02
-3.625967878818809886e-01,-3.454956321604948921e-01,-4.683588784947842476e-01,1.707988009116325756e-01,9.426148261024154540e-02,1.479158035616773281e-01,4.394272863864898682e-01
-5.061873577378844802e-01,-2.809608583566812201e-01,-4.678508002737089555e-01,-3.644910841035737918e-03,-3.487438827680757608e-02,-5.011550024124466346e-02,2.340629696846008301e-01
-4.475812757300153266e-01,-3.579250080681518065e-01,-4.126266607639572648e-01,4.489602220703397054e-03,5.497997417156146559e-03,7.783347270999921644e-03,8.036831766366958618e-02
-4.326880798071145451e-01,-3.490497402971897145e-01,-4.474584562701103274e-01,6.557474997367971833e-03,-9.028109094259148537e-03,-5.610805298947651532e-04,9.393280744552612305e-02
-4.462928725493097160e-01,-3.463928619123991526e-01,-4.363652605396433626e-01,-8.735369295573587730e-04,-9.432473292604501638e-03,8.580057683437589816e-03,9.786141663789749146e-02
-4.627402975144657704e-01,-3.106100137787894400e-01,-4.594732431844326115e-01,-9.180977318442159682e-03,-8.301821705280451255e-03,-1.847402917689666343e-02,1.553730368614196777e-01
-4.566526390284925685e-01,-3.287993603542689325e-01,-4.489457723194186789e-01,-1.078543955405416449e-02,-1.270208354156198566e-02,-2.480213347341328652e-03,1.275616288185119629e-01
-4.503638993734452312e-01,-3.511939459206149805e-01,-4.477410965823666600e-01,-1.477302777582585993e-03,-1.169616602380556605e-02,-1.807647741622651211e-02,1.047791987657546997e-01
-4.277672368671011638e-01,-3.739349200296415154e-01,-4.380034657740208837e-01,-4.239942342689347402e-03,-7.159265176629664613e-03,1.132635989648542478e-03,6.136190891265869141e-02
-4.273235756504984439e-01,-4.034605037252989579e-01,-4.102366382896041608e-01,5.830849218749124834e-05,-1.921354062998449673e-03,-1.008973543867629566e-03,2.162872813642024994e-02
-4.383713137324444786e-01,-3.599298648338070672e-01,-4.145239510433209040e-01,5.549013982363053092e-03,1.022365251963124229e-02,8.683494770112952510e-03,7.404923439025878906e-02
-4.611497124167184269e-01,-3.079134362490194010e-01,-4.605721743992652328e-01,1.044131484165813223e-02,-9.682740118037120453e-03,9.089982633186064268e-03,1.557222008705139160e-01
-3.584209594419445755e-01,-4.377051962693960241e-01,-4.437798506938253618e-01,-1.878626987442452365e-02,-6.175719567867176546e-03,-5.354283586459848178e-03,8.979816734790802002e-02
-4.273195288811428294e-01,-4.056602102652646091e-01,-4.080505856067474513e-01,3.692639235049088755e-04,-1.585820717055002769e-03,-1.191986904969385801e-03,2.086341567337512970e-02
-4.591728054189829211e-01,-2.316638776990381510e-01,-4.826186101496225955e-01,1.226327087381467174e-01,2.948978391955946535e-02,1.088555809355281484e-01,3.753905296325683594e-01
-5.091837203177472793e-01,-1.690115504089521881e-01,-5.175457190999990242e-01,-9.956616653986176402e-02,-4.245480770207930160e-02,1.226459134298311937e-02,3.927216529846191406e-01
-4.193165809721606796e-01,-3.803000440957965966e-01,-4.189403476071510979e-01,5.059893310491324694e-03,8.806270412925617033e-03,5.486086818749028038e-03,4.367496445775032043e-02
-5.095171863258233236e-01,-2.516831117671055607e-01,-4.923963947000972730e-01,-3.145015848679497128e-02,-3.900868882216834699e-02,1.644675896111514116e-02,2.658967077732086182e-01
-4.358468344210181811e-01,-3.665444498058661460e-01,-4.482138848299008771e-01,-2.358218751230014079e-02,-1.027683928239837841e-02,-1.131818616995886902e-04,8.830667287111282349e-02
-4.356083784520143332e-01,-3.359611968190716613e-01,-4.500862510038813324e-01,8.335955814514633619e-03,3.214272146560954568e-03,6.044583079989867234e-03,1.092287451028823853e-01
-4.808942482280890163e-01,-2.561738773447175266e-01,-5.007021314925063082e-01,-8.556636190358346333e-04,-3.259298476340062589e-02,1.162491385507399833e-02,2.427701652050018311e-01
-3.995265487187222853e-01,-3.842213712983546525e-01,-4.344959434326828296e-01,4.113375198251546100e-03,7.420008980815033864e-03,2.851755581071076327e-03,4.725088924169540405e-02
-3.570024556550935313e-01,-3.625089328519691123e-01,-4.848932993005496961e-01,1.842936556178174368e-01,1.067294178553227224e-01,1.196652146575351849e-01,4.412566423416137695e-01
-4.362734059912700690e-01,-3.473700567009349038e-01,-4.359295691744758949e-01,7.911528792053151501e-03,7.388905364381804543e-03,7.615107466031239940e-03,9.164545685052871704e-02
-4.726696344322362520e-01,-2.808956100550123458e-01,-4.698130492554319915e-01,-9.602968493630778535e-03,-1.125562997114830897e-02,-3.151325640075264018e-03,1.921565234661102295e-01
-4.659803265816048756e-01,-3.082130315602572557e-01,-4.539895969381285146e-01,-1.177523275803035122e-03,-3.329682137821494709e-03,3.721048192421765391e-03,1.523860543966293335e-01
-4.582907102890726447e-01,-3.130211572913594864e-01,-4.597959395668184679e-01,5.219023759145608073e-03,-1.352420315894765739e-02,9.388340371311249336e-03,1.490604728460311890e-01
-4.594576378158766183e-01,-3.253467206608585127e-01,-4.531782693196610978e-01,-1.066812331015942403e-02,-1.446492476570008200e-02,9.800152061046634236e-03,1.357950419187545776e-01
-3.944349443061244687e-01,-3.877962453225674011e-01,-4.448211749814711125e-01,2.004919147257227217e-03,-1.787285137562743534e-03,5.186849977283886732e-04,5.421985685825347900e-02
-4.640528771998543300e-01,-3.253742138962819608e-01,-4.538931741518071883e-01,-1.030559840376314880e-02,-1.299747158458043964e-02,1.342232446869353821e-02,1.388954669237136841e-01
-3.656712852141853487e-01,-4.232759675701658342e-01,-4.242062129340985477e-01,2.534673612907955079e-02,2.491522111995197672e-02,1.595760575357406397e-02,8.903012424707412720e-02
-3.921790187358650259e-01,-3.939298562523954050e-01,-4.319091340724174333e-01,2.758238703698277262e-03,2.881830205138956325e-03,4.121194812552993539e-03,4.013324901461601257e-02
-3.636349442550573796e-01,-4.375437574004188979e-01,-4.170069457648327149e-01,2.246066682022791750e-02,2.665745259366024411e-02,1.405655698096553059e-02,9.276036918163299561e-02
-3.488584147302536409e-01,-4.406568873099497852e-01,-4.184892136587211042e-01,1.432217831847192209e-02,1.849517586923614745e-02,1.555526815283996001e-02,9.618157148361206055e-02
-3.640298183561214707e-01,-4.246638399059566860e-01,-4.251734499424059677e-01,1.148828999914275513e-02,1.085220419752994797e-02,1.446258494964609495e-02,7.130495458841323853e-02
-4.601340910926712269e-01,-4.450452778575840207e-01,-3.250541366441638824e-01,-1.157594852242770957e-02,-5.373275144018242917e-03,-2.948702018904016814e-02,1.397610306739807129e-01
-4.442900589598682282e-01,-4.631144787289456222e-01,-3.294415482973901410e-01,-1.481966392833077711e-02,6.891939030743842072e-03,-9.986457084043406582e-03,1.296419948339462280e-01
-3.817111189217397005e-01,-4.022097731584224900e-01,-4.344568201892080039e-01,4.172598098440270277e-03,3.362459339438560960e-03,8.369847061901200883e-03,4.916707426309585571e-02
-3.948672810213316176e-01,-4.121442753106837054e-01,-4.340621068747287925e-01,-4.038041002631419414e-03,-1.116271629836849619e-03,-1.423418409678008827e-03,3.487540781497955322e-02
-4.011921873771718272e-01,-4.137019788577551149e-01,-4.278258466073365796e-01,-4.345370203190403180e-03,-3.695267695904967675e-03,6.839128003069244168e-04,2.513324655592441559e-02
-4.799389927439294823e-01,-6.187302278409056999e-01,-1.705948463957435157e-01,-9.111142683084930138e-02,1.078103049609871605e-01,2.179063723478045882e-03,4.665601551532745361e-01
-4.687241121657517162e-01,-4.666357101859672785e-01,-3.251648601051703169e-01,-8.017506735228878412e-03,-2.444409754108566382e-02,-5.202958101110467110e-02,1.744145154953002930e-01
-4.255533076245414104e-01,-3.741390720779810275e-01,-4.407331956028551212e-01,-4.248572032386844013e-03,-3.211613796504228773e-03,-7.889266172571436338e-04,6.116597726941108704e-02
-4.142081698236196874e-01,-3.937251477646805942e-01,-4.363004874500077124e-01,-2.239671522733758559e-03,-7.037852802921582343e-03,3.064940914660594816e-04,3.903929516673088074e-02
-4.030755470586141476e-01,-4.047095794151221448e-01,-4.350184873842135036e-01,-1.314650659272403703e-03,-2.092534006639626409e-03,-1.735244085051249182e-03,3.159398585557937622e-02
-4.748018947072126794e-01,-4.579546761826925882e-01,-3.193047325088520516e-01,-3.115150779481188487e-02,1.338728176016253449e-02,-4.865258652576824605e-02,1.799823045730590820e-01
-4.489006902686906719e-01,-3.375092050508416985e-01,-4.477944779673220244e-01,-2.200158506376492188e-03,-1.036788715737384757e-02,6.948449114740481644e-04,1.123588606715202332e-01
-4.304374697352483792e-01,-4.905604455713065137e-01,-3.034806521217707775e-01,-4.718187498092515919e-02,7.247223948120030956e-02,-9.553645127369064793e-02,2.778174579143524170e-01
-4.440253945519604950e-01,-4.657684919535240442e-01,-3.079251074089341955e-01,-8.764186768154783036e-03,3.655389404682880816e-02,-1.549971187417711590e-03,1.618687510490417480e-01
-4.354074804506014584e-01,-4.141059643679232405e-01,-3.701461774802789484e-01,8.649579148193363085e-03,4.274524729500891150e-03,5.887548615461488458e-03,6.087591871619224548e-02
-4.260190314308146542e-01,-3.725812041500422556e-01,-4.458878172175473886e-01,-4.618073179062725901e-03,-7.504562903208897642e-03,-2.025552297805680198e-03,6.750821322202682495e-02
-3.340191160895618072e-01,-4.475599127611354922e-01,-4.682474441459176795e-01,-1.203969921910343424e-02,-2.723326532768117689e-02,-2.266418711033773604e-03,1.354385167360305786e-01
-3.825936942796993034e-01,-4.299491498380255683e-01,-4.251099295463255934e-01,-2.800254757786572492e-03,4.186331126015103467e-03,-1.133492959135218650e-02,4.998335614800453186e-02
-2.952659270288684468e-01,-4.825562968272100184e-01,-4.696236562082165555e-01,-3.366049335129964876e-02,-2.672923819979955429e-02,-4.593788614956079673e-03,1.960319578647613525e-01
-4.524819079894844553e-01,-3.285164020852895383e-01,-4.367104452274597759e-01,8.500304591493951234e-03,2.004627850890097242e-03,1.168490653240791648e-02,1.195805221796035767e-01
-3.738908331636625060e-01,-4.140796809716532634e-01,-4.453936289430966977e-01,5.669702033187649232e-03,4.664715315409480160e-04,-9.151702564734779180e-03,6.482691317796707153e-02
-3.617072351991844070e-01,-4.375780157527664471e-01,-4.508860779760062165e-01,-1.480538902633841275e-02,-7.716520006624983698e-03,-9.426992969525321495e-03,8.969955146312713623e-02
-3.562909486910644796e-01,-4.504739651584971361e-01,-4.442799099780526673e-01,-5.262131940319638573e-02,3.631307882394543569e-03,-1.952770898462494393e-04,1.291205435991287231e-01
-4.263129444607491880e-01,-3.821686686540916589e-01,-4.065559661491133236e-01,4.409757625949536387e-03,1.135791351313618358e-02,5.807146990257100287e-03,4.487105086445808411e-02
-4.485099797016076084e-01,-3.378245419150569528e-01,-4.470619923827995890e-01,-2.517793393012612846e-03,-9.519104402292446337e-03,2.143687890997350901e-04,1.112838163971900940e-01
-4.630655559410553068e-01,-3.166193324238615880e-01,-4.496803829817087594e-01,1.908238253561369635e-03,-8.610635040268731222e-03,7.323780667810108648e-03,1.416323333978652954e-01
-4.566760988063518489e-01,-3.440828868601970569e-01,-4.342467888490338934e-01,4.962950740784630946e-04,-8.436957883363061655e-03,8.377631198581791602e-03,1.052604243159294128e-01
-3.825484714931913777e-01,-4.235171499947448237e-01,-4.378342885653292438e-01,-6.326596771478211478e-03,-7.703409869948547699e-03,9.883892911728280354e-05,5.261275172233581543e-02
-4.437116495897789892e-01,-3.559591252311879450e-01,-4.374598524210189243e-01,8.022588231391677288e-03,-1.467130191143769212e-02,-1.259482797806274479e-02,9.222632646560668945e-02
-3.659240667054770579e-01,-4.341878476153492317e-01,-4.395301414323763423e-01,-1.467290508748883213e-02,-7.725916458624478012e-03,1.092782788048443166e-03,7.669226080179214478e-02
-4.595393679111048901e-01,-3.071884234609205122e-01,-4.612685762375965393e-01,7.388241933108711211e-03,-8.372084434248250329e-03,5.775349049337743026e-03,1.547622233629226685e-01
-4.337475802475628250e-01,-3.353317942050620948e-01,-4.542062200312449449e-01,8.612561524709362246e-03,1.513761894877145445e-03,5.057926213033449303e-03,1.114622205495834351e-01
-3.680372618359092352e-01,-4.450142384573771981e-01,-4.558379853929966918e-01,-5.761253221967158750e-02,-2.878657613391291670e-02,-9.974778446964729234e-03,1.400638669729232788e-01
-3.921840227195046991e-01,-3.855803465061197199e-01,-4.428480843516594545e-01,4.851251300817967758e-03,2.730813089111977249e-03,1.796994816626688689e-03,5.520587041974067688e-02
-4.362081152362575209e-01,-3.475537474805417415e-01,-4.353338094931588076e-01,7.965797149883324657e-03,7.887090824089828742e-03,7.795322358741533370e-03,9.133527427911758423e-02
-4.129248141331245958e-01,-4.226315762718528823e-01,-3.807254065331260873e-01,1.008140410423469073e-02,1.032093589903542753e-02,8.308432233214958773e-03,4.769837111234664917e-02
-4.529476061315536595e-01,-3.169746504436602441e-01,-4.597877057054371996e-01,8.893836354545981565e-03,-8.197857242598891730e-03,2.697114556582164493e-03,1.411603242158889771e-01
-3.800158571990104872e-01,-4.028964759771757054e-01,-4.392279146802963719e-01,1.704630027832240713e-02,1.050357628153416115e-02,9.155469911716535014e-03,6.425693631172180176e-02
-3.908768717729794173e-01,-3.913952348152857641e-01,-4.408010784798962467e-01,9.069505105311667648e-03,3.925878368281980266e-03,4.735691000672012999e-03,5.317049846053123474e-02
-3.768590148905917592e-01,-3.990127657753097523e-01,-4.474664624029672799e-01,1.943011562919121776e-02,5.622523939135266879e-03,1.049739484404034083e-03,7.171270996332168579e-02
-4.330828063000875527e-01,-3.349939839438306755e-01,-4.570468988484460149e-01,1.108768730267410858e-02,-4.691337445024117668e-03,3.856105134345523284e-03,1.141304075717926025e-01
-3.618074874421537412e-01,-3.668070978793636638e-01,-4.698056991634996238e-01,7.720492279941208735e-02,1.583382139707879485e-02,1.756072034703897930e-02,1.752362102270126343e-01
-3.994732438612155212e-01,-3.783418372410216612e-01,-4.439537990723768646e-01,2.250580174922515650e-02,7.472158112001040832e-03,7.131353227851189303e-03,7.214287668466567993e-02
-4.143033735155193797e-01,-3.609106794370603444e-01,-4.459211401919175310e-01,7.986649984200124355e-03,4.611758884527762323e-03,4.920153429775822596e-03,7.659249007701873779e-02
-3.842400408409838430e-01,-3.913991483773382463e-01,-4.458920310875310045e-01,4.603582917418629072e-03,4.639560265355441217e-04,2.561225927304385821e-04,5.895141139626502991e-02
-3.926740205459241517e-01,-3.919732369408988060e-01,-4.429643604634603826e-01,5.890899849208721794e-04,-1.502382547994917912e-03,-1.135193898203363519e-03,5.075953528285026550e-02
-3.842140032892553125e-01,-3.922426315088575199e-01,-4.460263303537079782e-01,5.492258776334304864e-03,8.596805441402811552e-04,-8.380624643081296911e-04,5.902349948883056641e-02
-3.604044588134956428e-01,-4.441756701981846023e-01,-4.373716422714147289e-01,-7.750035081008221569e-03,-1.080137388969780975e-02,-1.466652874806673428e-03,8.384855836629867554e-02
-4.059436169503640168e-01,-3.748361517080967542e-01,-4.443006336653984034e-01,1.031408027022166080e-02,-5.879783033990020405e-03,-3.601274413508611478e-04,6.368178874254226685e-02
-3.236714796959232476e-01,-4.621130138720391800e-01,-4.575027879536821551e-01,-1.179535226904596633e-02,2.416609139508415788e-03,-1.362747324693098019e-02,1.397894918918609619e-01
-3.540006472211963406e-01,-4.427246803069004866e-01,-4.464377758619740844e-01,5.776204421412858662e-03,-1.631747247669290690e-02,-1.364852763041946027e-02,9.835091233253479004e-02
-3.374648538054618729e-01,-4.473752281002746356e-01,-4.584544289432219699e-01,-7.434017286955211558e-03,-1.003808868915300259e-02,-9.877157753811835125e-03,1.190861687064170837e-01
-4.141154633926651951e-01,-3.913779473471593606e-01,-4.371222040794742747e-01,-1.706689995085814565e-02,-6.791799385653737517e-03,-3.538670663415776144e-03,5.117822065949440002e-02
-3.533455739715309352e-01,-2.952250456723502503e-01,-6.330515837373980048e-01,1.753751128856644304e-01,-4.248144178820223438e-02,-1.025991314373639850e-02,4.425711333751678467e-01
-3.081549509610179149e-01,-4.791997425625044715e-01,-4.568353400811786535e-01,-3.811116630456649890e-02,-2.689812868181280445e-02,-1.386196703459213059e-02,1.817568391561508179e-01
-3.467024271531186641e-01,-4.569244217484259574e-01,-4.126951248114190673e-01,2.486712631085811077e-03,1.633713850742366663e-02,-1.184426023284405579e-03,1.002673581242561340e-01
-4.115481922087821376e-01,-3.953825366954844545e-01,-4.345846480384512600e-01,-3.457303597548271826e-03,-9.628899222324799204e-04,-8.460581163056255134e-04,3.471590206027030945e-02
-4.131265605902413873e-01,-4.123442874149556570e-01,-4.134502684575927511e-01,-1.429529237912672765e-03,2.740560100255048145e-03,-1.083278943409335480e-03,5.757874343544244766e-03
-3.072416890114853527e-01,-4.351991461440365971e-01,-5.118363358296277310e-01,-1.012545865130524969e-01,-4.567900071144755797e-02,-2.710422482621580378e-02,2.669714987277984619e-01
-3.264506133786103659e-01,-4.428655347600292669e-01,-4.591860287693991238e-01,-2.696766193600329958e-02,-7.215244820938690289e-03,-9.927026607534691210e-03,1.354707479476928711e-01
-3.482652023527945673e-01,-4.555800656991665920e-01,-4.326151571548280672e-01,-1.433855193326606312e-02,2.916115354690106479e-02,-1.381917647739176573e-02,1.154131740331649780e-01
-3.060911639114460847e-01,-4.575746421879394732e-01,-4.609715412170593551e-01,-1.398546808058414963e-02,1.570894697527244060e-02,-9.980169156333965411e-03,1.584274619817733765e-01
-4.121091007731628730e-01,-4.176507395297557323e-01,-4.077864087760091905e-01,-1.516556239966906873e-03,-2.288797705985087198e-03,1.686564169764488263e-03,1.022249180823564529e-02
-4.589350973771925135e-01,-3.166931960851212535e-01,-4.535452760275116013e-01,9.117526050262400941e-04,-8.415362934747811288e-03,8.226506975518568451e-03,1.411138772964477539e-01
-4.127734961637496425e-01,-4.150050498372680474e-01,-4.131245307424253332e-01,-7.460590661713973996e-03,-9.551580513228703079e-03,4.112877863241244138e-03,2.226536162197589874e-02
-4.135160202909325955e-01,-4.423280461879731118e-01,-3.728151069795964112e-01,-5.520426759849009386e-03,7.839683004139176917e-03,2.796985531119466971e-04,6.273288279771804810e-02
-4.220508147237616581e-01,-4.240088109066454947e-01,-3.904666239650094184e-01,-1.049020622661532044e-02,-5.171030014265842918e-03,2.626508329440585109e-03,3.865597024559974670e-02
-4.383882068956383438e-01,-4.735513370457120619e-01,-3.049294521369378952e-01,2.422844854613977195e-02,9.761139001433068174e-02,6.864876994336875649e-02,2.611962556838989258e-01
-3.984684623880434540e-01,-3.970689580339283320e-01,-4.428281836816687078e-01,-1.474007109411266427e-02,-1.554870881293879262e-04,-8.398009914606827456e-03,5.380786582827568054e-02
-4.231402010139568848e-01,-4.247323670608931789e-01,-3.888916493123272811e-01,-9.451421137072929177e-03,-7.017218538576394833e-03,4.978236676232845360e-03,4.147394746541976929e-02
-4.109834106026695744e-01,-3.983953917867312788e-01,-4.336342951635197007e-01,-3.077650048967950705e-03,-5.692665357346823321e-04,-2.514581263528323403e-03,3.170185908675193787e-02
-4.180965216423462305e-01,-4.229127974906817800e-01,-3.980944509234686235e-01,-8.100700992584574170e-03,-2.201025978372661215e-03,4.547454253893154583e-04,2.704871259629726410e-02
-4.253801174621957282e-01,-4.012252085903187382e-01,-4.064080592773907652e-01,-8.322538851467116416e-03,-8.806747569206642076e-03,6.576100895004243115e-03,3.248593583703041077e-02
-4.232088022741986033e-01,-4.140924610641510406e-01,-3.955491932670063271e-01,-8.795087277441344248e-03,-5.393343249533257867e-03,4.163719270566934930e-03,3.110212273895740509e-02
-3.985786155972091405e-01,-4.347948259149403416e-01,-4.102479355038175513e-01,-2.617029970468388693e-03,-2.469099479915601390e-03,-2.574159454490523250e-03,3.292237967252731323e-02
-3.618124192940900263e-01,-4.452524979668587291e-01,-4.292684767430926529e-01,-1.444055931413685189e-03,6.400905330330810585e-03,-9.005489227388209159e-03,7.909800857305526733e-02
-4.464767856774718990e-01,-3.355697501566781704e-01,-4.570991684743043182e-01,-2.049062929964187187e-03,-1.087041048610696246e-02,2.357022944210139179e-03,1.182161718606948853e-01
-4.170173606199296112e-01,-4.422365411397722879e-01,-3.829813366462397339e-01,-1.501868234850681563e-02,-1.655764393012612926e-02,-1.693046147015329949e-03,6.450245529413223267e-02
-4.546057299165887633e-01,-3.113348294711126840e-01,-4.551565344484395093e-01,1.010270353776639846e-02,-7.541326367063791577e-04,8.730368140780301114e-03,1.454040110111236572e-01
-4.672930228181930712e-01,-3.520580382406010012e-01,-4.541476520150536933e-01,-4.024723622924446936e-02,-1.219024222663198272e-02,-5.881038665761968015e-02,1.661878675222396851e-01
-2.727517791210596898e-01,-3.689697475412520578e-01,-5.090838030036902717e-01,1.773908149303438375e-01,6.383500352138442302e-02,4.481537721748909964e-02,3.937306404113769531e-01
-3.863246629128237464e-01,-4.378504995023231317e-01,-4.112664117836324351e-01,-2.705737563261000501e-03,-1.132454499860372117e-02,-2.142904887090819367e-03,4.911550879478454590e-02
-4.309472811409161275e-01,-3.790484376076564410e-01,-4.296659733924388380e-01,2.517905117088791757e-03,-1.052017395032887534e-02,-5.025430279267112041e-03,5.527603253722190857e-02
-4.133513439656890109e-01,-3.601936719859554215e-01,-4.494834676588843059e-01,8.054339007846864421e-03,2.632293323386714502e-03,3.945615970197840008e-03,7.946115732192993164e-02
-4.129078942058865831e-01,-4.327573825159380938e-01,-4.007079176822111455e-01,-2.430967452450713204e-03,-2.383159927173153503e-02,-8.066736290702758438e-03,5.197870358824729919e-02
-3.989001791070302394e-01,-4.347488496482184717e-01,-4.079961756807277684e-01,-7.279014043106998106e-04,-4.513578861663808742e-03,-1.564260455848803192e-03,3.334414958953857422e-02
-3.845056868957691942e-01,-4.387766634922759534e-01,-4.168459525586127312e-01,-6.577529029480076511e-04,-6.647347614114452498e-03,-4.820907608302449354e-03,4.939308762550354004e-02
-3.930588823143187360e-01,-3.802293686821979768e-01,-4.445436943843431021e-01,8.705024240890495493e-03,7.158981510805209787e-03,5.993570622394801643e-03,6.296555697917938232e-02
-4.386067666917934371e-01,-3.485145673737589656e-01,-4.474377185584620942e-01,8.341131282291141744e-03,-1.153696761480066391e-02,-3.633663819255603545e-03,9.817244112491607666e-02
-4.453992505117339018e-01,-3.108332747630145887e-01,-4.189613969646746039e-01,1.522793408548454019e-01,1.172419994963776746e-01,1.323953203057268713e-01,4.226570129394531250e-01
-3.675096853893603521e-01,-3.308093890305601192e-01,-4.334231107246767634e-01,1.518754572869638053e-01,1.174393343806545004e-01,1.311217745383105870e-01,4.126302897930145264e-01
-3.718322362689774896e-01,-3.001673739946892350e-01,-4.979638153378382892e-01,1.452791148976842472e-01,5.011399925691469026e-02,6.497452743233657346e-02,3.370483517646789551e-01
-4.251702837905603216e-01,-2.735725769024348608e-01,-4.987010575152555636e-01,1.499368865327354305e-01,7.745550344147618393e-02,5.804444909636790467e-02,3.675384223461151123e-01
-4.321584466227111343e-01,-3.455142984252196903e-01,-4.395376770617966944e-01,8.572043797954438660e-02,5.239258973170875244e-02,8.912689283351808711e-02,2.496212571859359741e-01
-4.347038177419717542e-01,-4.055322051936176009e-01,-3.809114592518219600e-01,8.893056937436558812e-03,1.071364740080769408e-02,1.947040536855156739e-02,6.240422278642654419e-02
-4.589166695100014848e-01,-3.826240865840431771e-01,-3.506395334326504187e-01,3.679438550663434448e-02,3.996599414016726443e-02,8.018123584149408623e-02,1.934532672166824341e-01
-4.197047398449459954e-01,-4.176267008510605172e-01,-3.833714603555345990e-01,9.391558991770786527e-03,1.049068359296534067e-02,5.941693817392654925e-03,4.415429756045341492e-02
-4.379816006244452442e-01,-4.198365160338340951e-01,-3.562441962270266327e-01,1.431087496379341260e-02,9.068347291336049942e-03,1.215608571792294208e-02,8.265309780836105347e-02
-4.369402257519417465e-01,-4.065418878564126537e-01,-3.697697607528170893e-01,1.010379257488947836e-02,7.030528247075334448e-03,8.931030562727865565e-03,6.393664330244064331e-02
-3.919483481552306081e-01,-3.885486893452860802e-01,-4.393885254761568104e-01,1.520740735839905310e-03,3.012690636316678328e-03,7.843470153311923876e-04,4.959255084395408630e-02
-4.187498930085982729e-01,-4.246552501931625256e-01,-3.719956057094859214e-01,1.166458519128407353e-02,5.359352066045579115e-03,3.858662397123038563e-03,5.509955435991287231e-02
-4.471560759763272275e-01,-4.530063909004851119e-01,-3.438140391872539503e-01,-6.962176625303786656e-03,-2.778214579622829278e-02,-3.185389273123856446e-02,1.297048777341842651e-01
-4.469947844085746524e-01,-4.423651889671209037e-01,-3.581162355975105460e-01,-7.072304033473122455e-03,-6.032543197475975262e-03,-5.293156997072355485e-03,8.861511200666427612e-02
-4.385137031405796360e-01,-4.300823188906409689e-01,-3.742629944319275093e-01,-4.092667159756080246e-03,-1.901364975258553955e-02,-3.628623961207933651e-02,9.350080043077468872e-02
-4.746333715506391160e-01,-4.758031203431629663e-01,-2.862872145647754607e-01,-1.849665863254832190e-02,2.089009504016930367e-03,-1.025128455321884079e-03,1.916731148958206177e-01
-4.562474263986959211e-01,-4.615337366780782324e-01,-3.274680697051084444e-01,-1.727536984472719667e-02,1.943128044921231578e-03,-2.381184740268526071e-02,1.410690993070602417e-01
-4.586859940097836041e-01,-4.712365194124163992e-01,-3.061841958869753744e-01,4.088959983517669733e-03,1.369766349004378041e-02,-2.779973538867212476e-02,1.681065261363983154e-01
-4.119924848078694857e-01,-3.940490271890710328e-01,-4.390015601557645253e-01,-3.446891121392064907e-03,-4.699297625008432011e-03,-7.993294166325046364e-04,4.049573093652725220e-02
-3.475727163888632232e-01,-4.552714264421466317e-01,-4.221404053927124145e-01,-5.625418551077174430e-04,3.303135692089009118e-02,3.102539402625781751e-03,1.114968433976173401e-01
-3.312359148233095518e-01,-4.989302468644085664e-01,-4.160528080455954125e-01,-6.927362129351370169e-03,8.332530309885700925e-02,-1.269157542532475987e-02,2.062728554010391235e-01
-4.048660975745658752e-01,-4.071143633299165732e-01,-4.291010821631970895e-01,-1.144925133470582439e-03,2.781455939631687839e-04,-1.616260133047970216e-03,2.345003187656402588e-02
-3.428100026643693399e-01,-4.566216211453763552e-01,-4.360295154672685913e-01,-6.936536348028869703e-03,1.425649371246447659e-02,-1.327045959813056251e-02,1.109770387411117554e-01
-5.430370385539204925e-01,-5.842949972088052890e-01,-1.447897713657362861e-01,-3.991123654273360383e-02,8.002628296880989756e-02,8.118399134535278505e-02,4.695719778537750244e-01
-3.153457156755960500e-01,-4.816801553882973375e-01,-4.296484857169036720e-01,-2.114417498434867718e-02,7.054206269622985415e-02,-4.461353744751141333e-03,1.950622200965881348e-01
-4.233255682831386646e-01,-3.877413011286016120e-01,-4.352654812122094818e-01,-4.505419610690274482e-03,-2.827626376000558998e-03,-1.991996468810727002e-03,4.393702000379562378e-02
-4.330981244210360681e-01,-4.047840738631455770e-01,-4.018859947672650534e-01,-4.811091106341221614e-04,-1.619549811659699813e-03,-5.900889858134387642e-03,3.170434385538101196e-02
-6.418718373503718988e-01,-2.798926684621821925e-01,-3.957735877251435386e-01,-6.898134441534758965e-02,-1.060031822628383635e-01,1.639131115761691126e-01,4.807272255420684814e-01
-3.158327694304868816e-01,-4.806146726256979029e-01,-4.039576840427215876e-01,1.366484900718147738e-02,7.117494439452397292e-02,5.955280837125579221e-03,1.904255300760269165e-01
-3.115163044053658736e-01,-4.540342266754081590e-01,-4.613383522869326514e-01,7.244306896347175138e-03,4.381976468542692592e-03,-6.304181103022847045e-03,1.474447399377822876e-01
-3.954714639743861504e-01,-4.388767420310678014e-01,-3.939904387638136773e-01,-4.724215184659867725e-04,-3.934930429311859178e-04,5.112856341468507347e-05,4.417734593152999878e-02
-4.357922848906061186e-01,-3.721908524841108790e-01,-4.361282771058777041e-01,-5.829302638983274026e-03,-1.191833357354242767e-03,-5.063794703791849386e-03,6.519014388322830200e-02
-3.177265966722823687e-01,-6.267307136758524244e-01,-3.139511835809764562e-01,-3.899740283169880750e-02,2.002208825502857226e-01,-3.546999501334447552e-02,4.746223390102386475e-01
-3.104488427111846138e-01,-4.532767279269656058e-01,-4.648951841524793793e-01,7.659734750077300258e-03,6.211855221001276808e-03,-2.469796362849402665e-03,1.500143557786941528e-01
-3.961909069679667716e-01,-4.306678811010621333e-01,-4.062334728835260145e-01,-1.531924247448279795e-03,1.570129869814025463e-03,-4.319897628056552571e-03,3.183862939476966858e-02
-3.262161671807490837e-01,-4.503773986733338730e-01,-4.620461152375097136e-01,7.155582413077926640e-03,-7.185665554400455166e-03,-7.771203044383655570e-03,1.322522461414337158e-01
-2.240609703978693468e-01,-5.248579382440154983e-01,-4.289899040781470774e-01,3.408492809798735479e-02,1.280794656524857633e-01,7.735378894187574898e-03,3.517251610755920410e-01
-4.316909126145614395e-01,-3.886929037291615430e-01,-4.226085053748867559e-01,-3.584414515577031331e-03,9.607462257851212377e-04,-5.388959288768130525e-03,4.085620120167732239e-02
-4.146596735789634947e-01,-4.557587983667456544e-01,-3.551343439300853611e-01,-5.200630222741211249e-03,7.630694954406313027e-03,1.358074491085884761e-03,8.910778164863586426e-02
-3.677188932471732730e-01,-4.376686249597304124e-01,-4.257698473992275190e-01,-1.060331220693388858e-02,1.035947381442572056e-02,-1.597496201975750346e-02,7.501383125782012939e-02
-6.407795984506214904e-01,-4.436984831762288972e-01,-1.933749419514979306e-01,-4.642540495922409249e-02,1.274315240314164051e-02,1.214071166261306983e-01,4.494541883468627930e-01
-3.340847344002474961e-01,-3.725995841573769285e-01,-4.930474030173492284e-01,-1.285716062790357994e-01,-1.831433709882037894e-02,-1.607159719465154138e-02,2.683341205120086670e-01
-3.199984662853359030e-01,-4.471992963388632947e-01,-4.620654255929313448e-01,1.102841578866806983e-02,-9.095724261355813581e-07,-6.284784637662492110e-03,1.370233893394470215e-01
-3.267574101307647583e-01,-4.507198410618551976e-01,-4.572740462129619710e-01,1.834720611968495771e-02,1.083163620097026512e-03,-3.125056070668875020e-03,1.313955634832382202e-01
-1.587253884040883967e-01,-5.704346542849045854e-01,-5.113873136213855641e-01,9.945294753504566043e-02,1.507390507643465161e-01,-6.344381703267161152e-03,4.966296255588531494e-01
-4.129629058563772936e-01,-3.607019696453501179e-01,-4.504066206816154661e-01,9.100813473418583113e-03,-1.160457238442514586e-03,2.103235791029793057e-03,7.972368597984313965e-02
-1.722731726832328891e-01,-5.195860929265639916e-01,-5.747445605373573407e-01,7.463089841382310186e-02,1.884564518859921725e-02,-8.218847592662406609e-02,4.252829551696777344e-01
-2.899025250152918454e-01,-4.958640547271213617e-01,-4.808607676177492629e-01,-2.699599625627989441e-02,-1.285795760435330670e-02,-2.512227873883457821e-02,2.100734859704971313e-01
-4.508260495528564893e-01,-3.167216180721025842e-01,-4.628071287196356409e-01,8.762833540749550426e-03,-8.870130114297393106e-03,2.924641735218464628e-03,1.422192752361297607e-01
-4.279776291418175282e-01,-4.035335193502757600e-01,-4.078633784042041688e-01,2.874325954259358655e-03,-5.543429497015829426e-03,-6.459187796979764216e-03,2.743282727897167206e-02
-4.444679404144148971e-01,-3.438322205303416812e-01,-4.481095044947316364e-01,4.852214049597479428e-03,-1.039287599882343475e-02,-3.560764477083025546e-03,1.045943871140480042e-01
-3.990804973475207129e-01,-4.389953568097898495e-01,-3.921003718242070391e-01,-2.065071992720968717e-03,1.056854167409158234e-03,-1.893996083731388797e-03,4.412975162267684937e-02
-2.715028401665170454e-01,-4.871184711039218129e-01,-4.795307566523882570e-01,2.486481931087567571e-02,-1.706225195801001297e-03,-8.913544711836182688e-03,2.168259918689727783e-01
-2.920605616198408971e-01,-4.842425664565809251e-01,-4.858505086116325922e-01,-2.590861060603849575e-02,-1.180441172206054580e-02,-3.151936941391815516e-02,2.065375000238418579e-01
-4.114336328269259102e-01,-4.247129783787851887e-01,-4.015211221204484371e-01,-5.415309100670661138e-03,-4.271731353443403850e-03,7.966011674306306377e-04,2.347028069198131561e-02
-2.809184786965468472e-01,-4.697260383522604554e-01,-4.778533836994000028e-01,1.036188764033325362e-02,4.256641067195789802e-02,-1.035403753276826176e-02,2.081544548273086548e-01
-2.882164974523875323e-01,-4.883897039253015659e-01,-4.583417965316417542e-01,-1.673519614019419385e-02,1.212561089803894897e-02,-1.698752701423360961e-02,1.926250904798507690e-01
-3.740712821745232897e-01,-5.089172572679068196e-01,-3.424749565973020937e-01,2.072645558114460246e-02,8.371603619797889084e-02,2.829151148546290781e-02,2.194481939077377319e-01
-4.782388275461254556e-01,-4.357826893511329569e-01,-2.992766400142993222e-01,1.635359921310274023e-02,4.059829484974607217e-02,4.253431699999770527e-02,1.934074312448501587e-01
-4.147175115418572089e-01,-3.588001892783232449e-01,-4.555399056343742981e-01,8.381534146962939594e-03,-6.389724943395439297e-03,6.841241499308192090e-04,8.608445525169372559e-02
-4.365425359342338663e-01,-4.509117750914485301e-01,-3.293129472292104509e-01,1.054428948406700185e-02,8.857778958251783658e-03,1.376882554089526624e-02,1.199297085404396057e-01
-4.559948166853330931e-01,-4.330045638751751080e-01,-3.289791360930494069e-01,1.150212367368996097e-02,1.247899884405874113e-02,1.055599403007194056e-02,1.222283616662025452e-01
-4.640086129864369191e-01,-4.351156309698853697e-01,-3.243799761011256777e-01,-6.217359680683943774e-05,6.945449832154503098e-04,1.185743994239293365e-02,1.293055564165115356e-01
-4.603332135283512705e-01,-4.383900787982923930e-01,-3.003075612095831848e-01,8.929917514084062535e-03,3.012809259889910607e-02,4.579292277794270311e-02,1.784140020608901978e-01
-3.981567728296265818e-01,-3.794822457642188507e-01,-4.460352627085082400e-01,4.791493801293359757e-03,1.005085356010284583e-03,1.308101606164908948e-03,6.010187417268753052e-02
-4.082641537040817004e-01,-3.941265337741591268e-01,-4.346871014975126624e-01,1.185187459935627824e-02,-1.186829209284972000e-02,-1.115608196318813687e-02,4.988934099674224854e-02
-3.986155676257903679e-01,-4.207441738978094925e-01,-4.230037556160515244e-01,-9.095683642076558828e-03,6.274898389014653931e-03,-1.044416689966714412e-02,3.519007936120033264e-02
-3.878612983500762112e-01,-4.258221527800202244e-01,-4.208731819931910145e-01,-1.644300727595010558e-02,1.057220665927698956e-02,-1.759883972165191685e-02,5.790717899799346924e-02
-4.133745211869396807e-01,-4.033360702266607922e-01,-4.220317396633643803e-01,-4.529176017178410812e-03,3.914474447671844291e-03,-3.592228494538972101e-03,2.021991461515426636e-02
-3.808547504716474630e-01,-4.201145259539789678e-01,-4.162566434727802411e-01,4.324780203421731140e-03,4.184050193875884019e-03,1.046869220374254533e-02,4.292044043540954590e-02
-4.110369461166635263e-01,-3.971528576458598914e-01,-4.292648041422919558e-01,-7.956912076179904411e-03,3.358857732193698716e-03,-3.993781751875397079e-03,3.239959850907325745e-02
-4.108268215057641615e-01,-4.015322999232840973e-01,-4.310543917969621996e-01,-3.276721187318294790e-03,-3.431151004776104548e-04,-1.728508056859667059e-03,2.692722529172897339e-02
-4.230467540148491468e-01,-3.697942907898340015e-01,-4.414178092701088185e-01,7.224432220663319464e-03,-1.595293497363922328e-02,-8.038256056802738428e-03,7.256397604942321777e-02
-5.097249323955763689e-01,-2.002175494370260767e-01,-4.674489624718072278e-01,1.039808464513080899e-01,2.069264373220355141e-02,1.355220813328655294e-01,4.163131713867187500e-01
-4.890484345516687426e-01,-2.983509961277781564e-01,-4.454926816263649614e-01,5.264043842738068066e-03,-1.535062006757811209e-02,3.389928132731635790e-02,1.849167048931121826e-01
-4.040091451195072514e-01,-4.220818402011611292e-01,-4.228350896180250729e-01,-2.488810201969878649e-02,1.224678869270885359e-02,-2.513072642979899060e-02,6.740672886371612549e-02
-4.396504363523388026e-01,-3.703446164009437380e-01,-4.388876137960650015e-01,-4.653757576250724774e-03,-6.242126294125983736e-03,-4.119899808710284286e-03,7.059600949287414551e-02
-5.070865775506874229e-01,-2.614809509610125371e-01,-4.642974837967863699e-01,1.748419264663442566e-02,-5.180299290127587941e-03,3.151010244745920674e-02,2.358390241861343384e-01
-4.767977415221552606e-01,-2.683972227182517267e-01,-4.699643466144506343e-01,1.357392518545600876e-02,-1.045451379803774387e-02,3.211721640494050872e-02,2.145427167415618896e-01
-4.998993302105999570e-01,-1.722522667059932511e-01,-5.152324864617072731e-01,7.561358167000342689e-02,-8.805329371401503930e-03,4.050920979620706991e-02,3.673137724399566650e-01
-4.221655742867826411e-01,-3.988164605040545596e-01,-4.224324018068617015e-01,-3.801279461709739307e-03,1.363523221962478727e-03,-3.556840557499969715e-03,2.526583895087242126e-02
-4.646700299061835016e-01,-3.075577476073778627e-01,-4.596821122522454228e-01,3.142122054861504459e-03,-3.614976319892991216e-03,8.350967977824398647e-03,1.555748134851455688e-01
-3.863823328482437480e-01,-4.400291181734334311e-01,-4.013449526552285707e-01,-1.338849621728927051e-03,3.010206560117458571e-03,-2.378085107118954600e-03,4.846327006816864014e-02
-4.532705431164072429e-01,-3.464480288361611593e-01,-4.450783053330133465e-01,1.765765846599926534e-03,-1.217559308120398816e-02,-3.002959514747729607e-03,1.052814722061157227e-01
-4.928095899088103526e-01,-2.773595673693070585e-01,-4.526850144719573033e-01,-2.745945263976889896e-03,8.626554798866953094e-04,4.904987595558148172e-02,2.159314155578613281e-01
-4.055989668875590315e-01,-4.109766248708114356e-01,-4.252431582715060499e-01,-4.107847965243429864e-03,2.144037600400567050e-03,-6.254078131222226382e-03,2.215689793229103088e-02
-3.422998165847629393e-01,-4.528794792462540464e-01,-4.370030470215329199e-01,-2.767875582105233309e-02,2.606900168611047536e-02,-2.020782185366428937e-02,1.276185661554336548e-01
-4.571273967528825533e-01,-3.152430674947985234e-01,-4.509610059794478820e-01,3.123450389495559948e-02,7.665352021442775783e-03,3.265894003988039501e-02,1.599910855293273926e-01
-4.615598240973293187e-01,-3.089711340423525465e-01,-4.600140395707826291e-01,4.474227131015963595e-03,-6.854265990059219514e-03,9.098835297186625565e-03,1.532944738864898682e-01
-4.140555001116494882e-01,-4.156175812898910693e-01,-4.060001414108289630e-01,-3.018038646372345635e-03,2.419585869772629492e-03,-1.466538883957397166e-03,1.145657431334257126e-02
-4.658581430720610816e-01,-3.200422313488320292e-01,-4.504993372244240346e-01,-4.788150802838824632e-03,-1.289688926568234757e-02,5.585462037196522143e-03,1.411381363868713379e-01
-4.325427539352884598e-01,-4.016165346486318399e-01,-4.073213003744849958e-01,-1.010120828988451871e-03,-2.435649178262894697e-03,-1.362513876404259370e-03,2.896508388221263885e-02
-4.477183622573687183e-01,-3.430183026940524238e-01,-4.477609183144796168e-01,5.256069391221236328e-03,-1.259272690147821873e-02,-3.524386031626295778e-03,1.075287535786628723e-01
-4.274468344472008852e-01,-4.984724239845950700e-01,-3.265925309710790425e-01,-1.227866562095799446e-01,1.349676248587028393e-01,-7.814915890812414168e-02,3.749397397041320801e-01
-4.636011296845797269e-01,-3.187431979146940209e-01,-4.459098494418838876e-01,2.429051169144405727e-03,2.301882128204640367e-03,1.435131244384488074e-02,1.392320245504379272e-01
-4.656597292863695614e-01,-3.271747107306679503e-01,-4.460913690151497857e-01,-8.112260436080582712e-03,-1.321599111201075642e-02,9.099092513953684763e-03,1.334949135780334473e-01
-4.402321680061535569e-01,-4.133646078406068014e-01,-3.957960669465558912e-01,-7.246749258108523516e-03,-5.461397341684760993e-03,-2.171140752810605395e-02,5.624700710177421570e-02
-3.712405338937802557e-01,-4.292874583314870152e-01,-4.411078692270191670e-01,-2.255724442415312989e-02,6.416132354793377575e-03,-1.693258355701846365e-02,8.188670128583908081e-02
-4.129944522867451950e-01,-4.522500483655936265e-01,-3.649533543906731126e-01,-6.378670579988964320e-03,8.245077843432466191e-03,-5.648687442637316883e-03,7.846374809741973877e-02
-4.495423994076313545e-01,-4.486268577906738497e-01,-3.517834745905214500e-01,-1.022990007048492356e-02,-2.878163223620142791e-03,-1.769600403002629177e-02,1.036648079752922058e-01
-4.530131167490382693e-01,-4.389097043617937732e-01,-3.415765069463149173e-01,-1.359334322752910225e-02,8.572792311552852179e-03,-2.685903675296181375e-02,1.182557642459869385e-01
-4.569000736969387466e-01,-4.369722390426047376e-01,-3.482476743144711784e-01,-6.716095716439167591e-03,1.820140914173553476e-02,-3.225386316884649301e-02,1.195298358798027039e-01
-4.476526724808900237e-01,-3.487220555403683919e-01,-4.426014431663697346e-01,-4.330548586948047873e-05,-6.036277692960168029e-03,-4.065675998747356884e-03,9.732402116060256958e-02
-3.898826353245730125e-01,-4.447466397536792848e-01,-3.885102660951126330e-01,3.200975254968323907e-04,1.245294694160525590e-03,-9.163223493026551730e-04,5.563015863299369812e-02
-3.983699993669534423e-01,-4.282705221396591599e-01,-4.161111758975487018e-01,4.973551231394234169e-03,-1.197409377193189677e-02,-1.051148885987858439e-02,3.891194984316825867e-02
-3.777760843701600257e-01,-4.509126027877372600e-01,-3.964237028751511627e-01,3.118421123343461440e-03,2.201575020115409398e-02,4.602222595018433393e-03,7.667892426252365112e-02
-3.840259417646673112e-01,-4.461095981595277760e-01,-3.947541887892123680e-01,1.044660274751056531e-03,8.034580645152547204e-03,-6.940185043914212301e-04,5.917608737945556641e-02
-4.338847579018567657e-01,-3.934693834141435587e-01,-4.146309324252676620e-01,-1.444768145214774912e-04,-3.740933104757852672e-03,-3.425580770767592664e-03,3.610002622008323669e-02
-4.494611966135216852e-01,-4.294061170273105743e-01,-3.732884076081368629e-01,-2.901958207468240472e-02,-2.542312086632005953e-03,-4.430669642459259677e-02,1.145071908831596375e-01
-3.848537129510388732e-01,-3.875872041264153967e-01,-4.481257900477805811e-01,1.957501574967775507e-02,-1.667347689694263736e-03,-3.113122910719040830e-03,7.088605314493179321e-02
-3.670295851338862825e-01,-4.498624072870453516e-01,-3.974813290453254044e-01,4.525614452789011866e-03,1.354731524604037111e-02,5.179671173127899444e-03,7.719261944293975830e-02
-3.909398268713298874e-01,-3.952016473905160532e-01,-4.334790473924203247e-01,1.336807919153191028e-03,2.175222534241216896e-03,2.733244696405393546e-03,4.109041020274162292e-02
-3.701669679677674907e-01,-4.418662326563657650e-01,-3.986007957050759498e-01,4.518938900571023258e-03,1.247824995180931741e-02,7.984278626328687734e-03,6.804565340280532837e-02
-4.227744995724346810e-01,-3.847599890582122373e-01,-4.363188737089774838e-01,-2.571937751470044012e-02,-1.237614433920950115e-02,1.079835304922187669e-02,7.026532292366027832e-02
-3.170562244281832642e-01,-5.017220190299380711e-01,-4.202095548234067723e-01,-6.312405802215918793e-02,1.229990723854581802e-01,-8.941147503594355783e-02,3.271340131759643555e-01
-3.943985407732701343e-01,-3.927082131920054398e-01,-4.408709771443496961e-01,1.511848430351513855e-03,-3.885362508424030910e-04,-3.450978515017854263e-03,4.779263585805892944e-02
-5.575589325757061010e-01,-2.348910400461723391e-01,-5.013620480200514651e-01,-2.091736744756364230e-01,-1.061637387727822762e-01,-3.789727261339458780e-02,5.084500312805175781e-01
-4.173219046137305321e-01,-3.730007126674619311e-01,-4.451223526051703017e-01,6.060138322934078420e-03,-1.048824780216989216e-02,-1.095547366242258409e-03,6.643168628215789795e-02
-4.082586415180190498e-01,-3.642840390724754740e-01,-4.716874444508650788e-01,-3.975212353719683595e-02,-8.485513035293159104e-03,-8.572452858775440887e-03,1.179974675178527832e-01
-4.459117628395286581e-01,-3.499275750200372403e-01,-4.519167904096392241e-01,-4.718991561533562168e-02,-4.386647462494642352e-02,1.989396624306320402e-02,1.531867831945419312e-01
-4.070926716924427868e-01,-3.966680632370498394e-01,-4.406150789988910743e-01,-1.953773024602266373e-02,1.553996815895904637e-03,-7.422268431523902643e-03,5.384761840105056763e-02
-4.089240190498211192e-01,-3.607354257864617830e-01,-4.766591153066239706e-01,-1.255978489386444241e-01,-6.543725563855259941e-02,1.070038646826373258e-02,2.658727169036865234e-01
-3.017494155865024230e-01,-5.026243620554189384e-01,-4.419712798966963785e-01,-2.202642014882139759e-02,4.620707703839183750e-02,-1.452065673100458483e-02,2.008461505174636841e-01
-3.677633215745756967e-01,-4.357837740330977039e-01,-4.363347964323470163e-01,-1.909818715857908994e-02,1.131249200551400803e-02,-1.463657023716592384e-02,8.237349987030029297e-02
-2.655166454008057730e-01,-4.183891389945587069e-01,-5.687905191216112710e-01,1.355994273984451881e-01,-6.031169789562462746e-02,-1.177254438453541469e-01,4.202793836593627930e-01
-2.957581895846985720e-01,-5.811737987946169470e-01,-3.797895295500239299e-01,-1.599966634268490118e-01,3.281297512264981509e-02,1.454794745408419764e-02,3.810528516769409180e-01
-2.824827630202132456e-01,-5.042974061451105383e-01,-4.443333602054007625e-01,1.956866608016014780e-02,6.667554615506528226e-02,-1.269173204804544160e-02,2.333783209323883057e-01
-3.892258761932618771e-01,-4.203906164182310556e-01,-4.068085851152949406e-01,2.788024779812027076e-03,1.838406957122255478e-03,8.480789387397588697e-03,3.133148699998855591e-02
-3.284923652120015358e-01,-4.628951561549710658e-01,-4.783172650562798611e-01,-5.729747146753139120e-02,-1.930906367309197583e-02,-2.706670272932660756e-02,1.831394731998443604e-01
-3.210048165087961980e-01,-4.473365237743529010e-01,-4.863805515550807534e-01,-2.474563716710306144e-02,-2.064939673909719706e-02,-1.738715525967328424e-02,1.626032143831253052e-01
-4.341933372133996993e-01,-4.032420357046381243e-01,-4.052761983056344386e-01,-1.352495408781310450e-03,-1.875097077895037257e-03,-1.445118320395319877e-03,3.035558760166168213e-02
-3.949240850689159088e-01,-3.948859640576380947e-01,-4.306392223291811705e-01,1.509448598096592464e-06,3.466229920914501265e-03,4.237591078423975401e-03,3.697093203663825989e-02
-3.945071093943073870e-01,-3.923374766573002881e-01,-4.274873898850162224e-01,6.636168963646525004e-03,5.398719100541226994e-03,9.102226373022355779e-03,4.039885476231575012e-02
-4.064334199676890580e-01,-4.104602108381959491e-01,-4.217332849197669709e-01,-1.042716740018537072e-03,1.343273268639794300e-03,-1.751104843504574420e-03,1.437238976359367371e-02
-5.010360801766283734e-01,-4.320479590533360947e-01,-3.199550597837975685e-01,-9.572614670419978336e-03,-6.432566243480078785e-03,-1.090977464513473022e-01,2.473120540380477905e-01
-2.711972309871484299e-01,-4.765267993213646025e-01,-4.648700574432532151e-01,7.386839706825574711e-03,2.041624586615558429e-02,-1.094867933379154064e-02,2.041480392217636108e-01
-3.513847317865279596e-01,-4.378855577006873223e-01,-4.483086833816385397e-01,-1.842323884769284797e-02,-2.910768424647235553e-04,-1.525625258217342718e-02,1.010416001081466675e-01
-4.172730067467324555e-01,-4.579480100700693557e-01,-3.874715068445236388e-01,-8.776178007077863052e-02,4.800498880421045361e-02,-6.513082848362804211e-02,2.156401276588439941e-01
-4.110362924508411675e-01,-4.178453438988576352e-01,-4.109802049468457286e-01,-9.211570485957106674e-03,9.484382320193099000e-03,-7.532481409809051870e-03,2.722834236919879913e-02
-4.275215336737814842e-01,-3.725395269286434496e-01,-4.432905185497724720e-01,-4.114300513672453953e-03,-1.101603540136751429e-02,1.936400396839584427e-03,6.756317615509033203e-02
-4.099208460548696142e-01,-4.157623049954622396e-01,-4.139756085592191104e-01,-3.817881777969625318e-03,2.344247410109521687e-03,-5.473415350214023284e-03,1.330293156206607819e-02
-4.111377787978252596e-01,-4.044370639293617398e-01,-4.261656427955884952e-01,-2.989662779034722717e-03,1.827328428626969446e-03,-3.518221656330524413e-03,2.110447734594345093e-02
-3.500773117008861846e-01,-4.415885683404019990e-01,-4.486960388198932836e-01,-2.045791489730981738e-02,2.435271692164719341e-03,-1.170648415364177256e-02,1.037291437387466431e-01
-4.588697014643185468e-01,-4.979969576099221307e-01,-2.876798807612377384e-01,-3.416567610756789022e-03,-9.539110916575085919e-02,-6.929620237081743350e-02,2.815570831298828125e-01
-3.821895202037688399e-01,-4.120361637978285363e-01,-4.471777421186589052e-01,-1.963502339000836039e-02,1.504893703304049533e-03,-7.369494010513524818e-03,6.708901375532150269e-02
-4.989669912539805297e-01,-2.787095303085012077e-01,-4.978958054780347475e-01,-2.415617935607393754e-03,-3.670022934644882190e-02,-3.014700686291539936e-02,2.346557378768920898e-01
-3.929365149742786167e-01,-3.906616190147493284e-01,-4.335865223367353916e-01,1.584355922541698380e-03,3.111280337144999106e-03,2.145306056460009447e-03,4.243171587586402893e-02
-4.498289450193598826e-01,-3.520328516497606142e-01,-4.335385977175199579e-01,-2.001124875395380220e-04,-9.413220018154040691e-03,-3.442891438909536500e-02,1.098103597760200500e-01
-4.289105208780422118e-01,-4.023924042068403595e-01,-4.111220820775151608e-01,-2.067882512900963074e-03,1.160011565827059324e-03,-3.113376669552216786e-03,2.436940371990203857e-02
-4.371640059209920270e-01,-4.375430576557746698e-01,-3.410194082586927578e-01,6.826706434583416222e-03,9.697141749873079697e-03,8.119239032238444870e-03,9.949900954961776733e-02
-4.559483705480705251e-01,-3.194780113792692888e-01,-4.569439054295016400e-01,-1.358429784017249620e-02,-3.716493481411394222e-03,-2.363703008340493558e-02,1.450247466564178467e-01
-4.534695400555064926e-01,-3.344663308218909226e-01,-4.506238748056268784e-01,-1.316410711615360711e-02,-5.193846483113311735e-03,-1.359729426826083477e-02,1.224201247096061707e-01
-3.059765305325041207e-01,-5.027504763132943921e-01,-4.406331899621208636e-01,-1.235777202322260321e-01,-1.148682985340082063e-01,4.874545549749424028e-02,3.505458235740661621e-01
-4.063346889111344451e-01,-4.208890256244813277e-01,-4.095459663423526298e-01,-7.500644509428799813e-04,-7.248112348251476182e-04,-2.873158070068073961e-03,1.426295749843120575e-02
-5.107404348244404257e-01,-2.252154140297044915e-01,-4.718139952446602225e-01,-1.006166542593112806e-02,-2.823026190887705997e-02,-8.972099727587497242e-02,3.142760992050170898e-01
-4.200475082640633961e-01,-4.087238421979356162e-01,-4.125550579675556495e-01,-2.678203436982721369e-03,2.593303067082140985e-03,-2.339087033686556693e-03,1.255500689148902893e-02
-4.912642092283304174e-01,-3.697149739883780484e-01,-3.506994018637931698e-01,1.513583256274579798e-02,-4.018670782399115515e-02,-1.366561985917698618e-01,2.810766398906707764e-01
-4.443886279129793393e-01,-3.381024569593508167e-01,-4.713889881295643125e-01,-1.433012174639562882e-02,-1.453417388378294706e-02,-5.968886425337283086e-02,1.638096421957015991e-01
-4.482989794154039753e-01,-3.554262849276775271e-01,-4.371486705763291125e-01,-3.031503873283360184e-03,-7.435451501519969690e-03,-1.865450428195312982e-02,9.461240470409393311e-02
-4.615865421969706506e-01,-4.457202706661930192e-01,-2.989947476170626284e-01,3.994826977231419850e-03,3.466128292272941530e-02,4.628341708116261860e-02,1.848963499069213867e-01
-3.885727043239237122e-01,-4.208575295883851264e-01,-4.259638322611087879e-01,-8.006336376932788115e-03,4.648401407782173402e-03,-1.064388538762584165e-02,4.278135672211647034e-02
-4.295685834941129766e-01,-3.793465874457924158e-01,-4.299630396260583076e-01,2.210378879330940349e-03,-9.691002788139970597e-03,-5.021694034188881918e-03,5.398399010300636292e-02
-5.257443835877563254e-01,-5.220641695339384158e-01,-1.339904287804541405e-01,-2.156415917781370067e-02,3.834575804755472467e-02,2.110439509006104691e-02,3.989804387092590332e-01
-4.714168019220597028e-01,-4.455890471726210444e-01,-2.978730615906391432e-01,-9.096049166516070178e-03,4.697118643174067083e-03,4.128821316310911371e-02,1.781314462423324585e-01
-4.385222937727291659e-01,-3.806890764273938577e-01,-4.238146663086566068e-01,-2.756539377435029969e-03,-3.886705527062148981e-03,-7.565644825652591277e-03,5.431609228253364563e-02
-4.613534187289093924e-01,-4.456699068342636072e-01,-3.200414907233305462e-01,-3.458287451158761818e-03,3.751118188792047000e-03,1.435881183930033840e-02,1.367310732603073120e-01
-4.399049831616873574e-01,-5.617475070834820894e-01,-2.124622992002712374e-01,-1.374412714118610282e-02,1.058823230941946109e-01,6.031616929366199337e-02,3.733657598495483398e-01
-3.173455227801821321e-01,-4.621530648094780425e-01,-4.332188148582432619e-01,8.416338097252683975e-03,2.507513547765378298e-02,6.228042463583476768e-03,1.408249735832214355e-01
-5.972289475326484354e-01,-5.770536103274811479e-01,-1.485698993850689820e-01,-7.815206350109386857e-02,-2.207966052541869909e-02,6.074084842491049574e-02,4.727623760700225830e-01
-4.439882422669295114e-01,-3.934287652334644836e-01,-3.904218301424257631e-01,-4.797163946676357218e-03,-2.736287207644824086e-03,9.768411484685841223e-03,5.563359707593917847e-02
-4.570350576492115957e-01,-5.103621431167519873e-01,-2.730110187593840498e-01,-1.368008459938476959e-02,5.844951910424010105e-02,2.061618903859118064e-03,2.394688129425048828e-01
-4.435362848289391979e-01,-4.419504092737349121e-01,-3.577114135516775706e-01,-1.340306298716562733e-02,5.748993763743812969e-03,-1.314399517374665455e-02,9.158978611230850220e-02
-4.546730620497698716e-01,-4.426755886934286011e-01,-3.469193170107660595e-01,-1.198406940254063274e-02,-7.638441285275498691e-03,-1.469050585737030103e-02,1.082375198602676392e-01
-4.432244441202253249e-01,-4.406859395332580753e-01,-3.555145278857938518e-01,-1.091232318673597719e-02,1.620814199925264213e-03,-1.666121944950476469e-02,9.313821792602539062e-02
-4.076801729361386184e-01,-4.042113461826182808e-01,-4.249218918250078358e-01,3.309585569203904367e-03,-3.417561265951502524e-03,-4.094335129030918924e-03,2.207505702972412109e-02
-4.587440128039505516e-01,-4.651413463234814194e-01,-3.163303719447718709e-01,-1.572065473056958110e-02,-3.605135059459995718e-03,-3.006320519418529714e-03,1.484626531600952148e-01
-3.981066521419671655e-01,-4.210470695443543909e-01,-4.192778957187557887e-01,1.801544162967619409e-03,-2.029324989126145024e-03,-6.251680349767669599e-03,2.506289817392826080e-02
-3.317028950831932277e-01,-4.586677995055498114e-01,-4.392256113460910050e-01,-3.412922720142490545e-04,9.163448713156848932e-03,-6.734932491142436514e-03,1.200747415423393250e-01
-3.892319836578455594e-01,-3.385617042625141959e-01,-4.912343903209576146e-01,-1.286869046276879758e-01,-3.239451255066289753e-02,-1.153599316442449792e-02,2.671495378017425537e-01
-3.609614812761108293e-01,-4.378450166701061130e-01,-4.598771550547687825e-01,-4.407148884966214514e-02,-3.351295243126576479e-02,-1.923180687788107746e-02,1.356327086687088013e-01
-4.037058570727188322e-01,-3.905823443655425109e-01,-4.500351645493070873e-01,-1.250029664229831798e-02,-1.074876133182514626e-02,1.156630650023061056e-03,6.120480224490165710e-02
-3.787237206120528388e-01,-3.989878757037049750e-01,-4.471107255994360985e-01,3.373821975995082434e-03,6.139448434538684373e-04,3.412723638816795029e-04,6.113298609852790833e-02
-3.182892039991560007e-01,-4.349816849320387591e-01,-4.779072209956106709e-01,-1.046981762148617989e-01,-4.996867907732534253e-02,-6.407528053742674382e-03,2.469164282083511353e-01
-4.138391035785835004e-01,-4.137231522633398328e-01,-4.120379583847361138e-01,1.778406337693693275e-03,-1.050824011818337223e-03,-9.320228946897068847e-04,4.295998718589544296e-03
-4.170042097523468660e-01,-3.890765138793492728e-01,-4.300842214505384287e-01,2.705069245665073403e-03,-8.750886479638054355e-03,-1.556856133119407549e-03,3.968998789787292480e-02
-3.454163678625306599e-01,-4.182172576206878989e-01,-4.920585452731554565e-01,-1.328628456478885000e-01,-1.227728773210996945e-02,-4.382769228178195337e-02,2.744095921516418457e-01
-4.031570574854452804e-01,-3.922082242742283009e-01,-4.564889801542147407e-01,-5.692538784299907423e-02,6.143391191152794764e-03,-1.360515726541455112e-02,1.180598065257072449e-01
-4.013943188184723176e-01,-4.467774556769380512e-01,-3.805282525416626704e-01,4.116955643190370155e-03,2.120634331893413507e-02,3.951633105678088211e-03,6.992003321647644043e-02
-4.051466174821913846e-01,-4.010449951095351739e-01,-4.294509651280699059e-01,2.428698397540069679e-04,-3.952723060921134457e-03,-1.049186556577263790e-03,2.752386778593063354e-02
-3.216358163242892809e-01,-4.428375027179910495e-01,-4.538323030710352812e-01,-4.916585461639517290e-02,2.584213156754701715e-02,-2.505871305208514158e-02,1.651739478111267090e-01
-3.759151608258350374e-01,-4.647741082862756890e-01,-4.375024682576575397e-01,1.778831751153739935e-03,-7.509477384413715262e-02,-5.139347161156762600e-02,1.762593537569046021e-01
-3.815619334696118692e-01,-4.480292043519500944e-01,-4.165022937799681690e-01,-3.467340939338701619e-03,-1.087713994761228126e-02,-1.105133249163793054e-02,6.382583081722259521e-02
-3.544415240785548371e-01,-4.415851346759490648e-01,-4.444077926641989973e-01,4.612946607759749358e-03,-1.768810041264417404e-02,-1.102674616949775310e-02,9.599564969539642334e-02
-4.377030168013343880e-01,-3.940376842662257628e-01,-4.134406168350841515e-01,5.421785556328466025e-05,-5.236561068923922813e-03,-2.477796347198075403e-03,3.919938206672668457e-02
-3.948553554901647611e-01,-4.311158741210991963e-01,-4.172349666088451814e-01,6.364504067778941308e-03,-2.210259763781710976e-02,-1.005244090444783710e-02,5.379986763000488281e-02
-3.380223537582698334e-01,-4.668582087530881997e-01,-4.537035545792238445e-01,-7.679669992511230399e-03,-4.604543765152058904e-02,-4.140440891410276936e-02,1.635768562555313110e-01
-4.538458323610018441e-01,-4.595926449608979114e-01,-3.142584863284111352e-01,-7.445284566950676440e-03,7.350354933657959021e-03,1.830652119649401601e-03,1.437298506498336792e-01
-4.214840671450666432e-01,-4.116192339695980418e-01,-4.053360607467302312e-01,-1.845856479526731143e-03,5.391585989365223165e-04,-1.000241128321996550e-04,1.448790170252323151e-02
-3.929721359913148637e-01,-4.455033432359274403e-01,-4.137964207056847310e-01,-1.189598468108546761e-03,-2.078832695213872830e-02,-7.261381520513923542e-03,5.965019389986991882e-02
-3.580699294526829002e-01,-4.394908142840239229e-01,-4.397801374506093985e-01,4.477676087363074986e-03,-1.670943225313366309e-02,-2.136050309100168132e-02,9.444352239370346069e-02
-3.522066354968765856e-01,-4.423605772878632103e-01,-4.440822701137636108e-01,3.279539880280056031e-03,-1.543689995586035660e-02,-1.275711472664685896e-02,9.757718443870544434e-02
-3.453864932627545015e-01,-4.544876121311640094e-01,-4.165958756440391042e-01,3.784985191687684648e-03,2.009933346044228547e-02,7.185641763487230459e-03,1.030273512005805969e-01
-4.403539279125505135e-01,-3.701659284246667236e-01,-4.262393470337599855e-01,1.950217210875735026e-03,-5.941951229898214185e-03,-6.345547008373188420e-03,6.612889468669891357e-02
-2.837820930422977894e-01,-4.672160071778072021e-01,-4.635499475423874860e-01,-5.174967295986554645e-03,2.308063328076706555e-02,-1.312733764653345458e-02,1.875751316547393799e-01
-3.243420401842991851e-01,-4.569492309514409656e-01,-4.586298124523005004e-01,-8.978962176083730984e-03,3.111829890305767895e-03,-1.259079345060559914e-02,1.362235248088836670e-01
-4.285881253839859406e-01,-3.966369079654364915e-01,-4.162206492618036879e-01,9.397947327613101606e-04,-7.957200869936117277e-03,-2.185461648175826034e-03,3.139439970254898071e-02
-3.261478939581756720e-01,-4.633392648773976830e-01,-4.487056447170224005e-01,-9.806416850478744812e-03,7.042670365127912287e-03,-1.076423442461647319e-02,1.334650069475173950e-01
-4.669108571689197795e-01,-4.749510161416150011e-01,-2.973458185130005704e-01,-8.079826705372439299e-03,-3.138545703587183877e-02,-4.485825366300008263e-03,1.827337890863418579e-01
-4.370032022131501992e-01,-4.515935495264353228e-01,-3.278448721087650064e-01,3.267267075721717439e-03,1.100602274869912946e-02,6.653985428271519224e-03,1.193705424666404724e-01
-2.951723435114128047e-01,-4.891810446041458538e-01,-4.724056918039594155e-01,-2.400387108065698064e-02,3.455612638852108981e-02,-2.967962210018715644e-02,2.064456343650817871e-01
-3.216657062664818323e-01,-4.697928024903528788e-01,-4.190191960308047858e-01,-2.008409950952473599e-02,6.930487368976825935e-02,-2.141524101868009372e-02,1.843748837709426880e-01
-3.742730251273210240e-01,-4.365990344353889996e-01,-4.360293420633638006e-01,-3.203267739068718645e-02,7.097512708234183371e-03,-2.106738321071526671e-02,9.170743823051452637e-02
-3.283572688650504556e-01,-4.496329564494707665e-01,-4.556381236346503383e-01,1.317028645153346146e-03,-5.855412921445201334e-05,-1.960249077849069918e-02,1.289578378200531006e-01
-3.474634954239591567e-01,-4.588534278269610356e-01,-4.280191062647454858e-01,-1.204338053876856732e-02,1.857700717195899867e-02,-6.674991624373425268e-03,1.073682978749275208e-01
-4.472414285582756444e-01,-3.863765868648996182e-01,-3.833455979447843998e-01,9.061068674647307017e-03,7.399989216580432454e-03,2.264292031214430734e-02,7.646496593952178955e-02
-4.329289915691821866e-01,-4.019872733116465202e-01,-4.059641441797468553e-01,-1.807428332367506593e-04,-1.171365770366146041e-03,-9.800367028497969108e-04,2.927883155643939972e-02
-4.461528886021792761e-01,-4.000883564379817958e-01,-3.838224942181354127e-01,-3.951247438761685583e-03,-2.530548463166669600e-03,3.260405152737893587e-03,5.686596035957336426e-02
-4.258861741430537973e-01,-4.016533412619960330e-01,-4.123790174290938859e-01,4.777343303975035223e-04,-5.624676814401948118e-03,-2.125338523567540938e-03,2.348411455750465393e-02
-4.423381059494020384e-01,-4.025100129431452567e-01,-3.718203529037468758e-01,1.033060373991246533e-02,3.525523086006899978e-03,8.654715426446650886e-03,6.582254171371459961e-02
-4.054970431443499779e-01,-4.071275849543865011e-01,-4.220568851688084044e-01,-5.412327268810118676e-04,-3.922907942424741978e-04,-7.559171160357421515e-04,1.590409502387046814e-02
-4.503984683226372465e-01,-3.962726976511632415e-01,-3.715461228142111216e-01,-1.862107472113136994e-03,-4.404064190035045386e-04,1.575748822830965248e-02,7.506814599037170410e-02
-4.160008304834362236e-01,-4.134099666025224384e-01,-4.124439646323939668e-01,3.684420411446657877e-03,-9.718219519312626051e-03,-9.683817738076477485e-03,2.480995282530784607e-02
-4.500067178639166610e-01,-3.836967192286180328e-01,-3.867553140047085281e-01,2.024238828344676090e-03,1.153879430361412104e-03,1.627901337711689170e-02,7.081568241119384766e-02
-4.187059320748077740e-01,-4.011707958013487341e-01,-4.192258831293915744e-01,5.272813991724330587e-04,-7.166941338644415918e-03,-1.128125475924497082e-03,2.180862240493297577e-02
-4.469489670655132363e-01,-3.926666709012345269e-01,-3.882217977673984022e-01,-3.040644857591112606e-03,-2.981864161267732110e-03,4.745918033137167501e-03,5.770255625247955322e-02
-4.465440787931039823e-01,-3.920713778823827766e-01,-3.903554150233559117e-01,-3.031962794585747484e-03,-2.639562903292470147e-03,7.800769695086501310e-03,5.739973112940788269e-02
-3.911327504026951285e-01,-4.160208997923782737e-01,-4.300810591802904370e-01,2.380903799277447799e-03,-2.431480952319012463e-03,-1.010369987892377995e-02,3.883343935012817383e-02
-4.450106713699104044e-01,-3.898144963602127588e-01,-3.914682754395110154e-01,8.725016299485874620e-04,-1.169039057827744301e-03,8.424541527639798841e-03,5.636819079518318176e-02
-6.261836181708153592e-01,-1.769170920327223784e-01,-4.577510954220794792e-01,-3.599730697864149398e-02,-3.649606394829371658e-02,9.343704388467004296e-02,4.342966377735137939e-01
-4.860799222212348614e-01,-1.785366321453350225e-01,-5.699112980928326966e-01,4.686844672290502861e-02,1.615062751241266512e-02,9.499228477667007176e-02,4.022877514362335205e-01
-4.683786679166259126e-01,-3.203199199215187587e-01,-4.726304514446518779e-01,-2.631061863985461810e-02,-3.225236540624678433e-02,-4.089363447208645141e-02,1.810614317655563354e-01
-4.693327912761449672e-01,-2.873275865534499207e-01,-4.682752369735495024e-01,-6.295032482782618455e-03,-1.127104412517675527e-02,-3.509344612696807964e-03,1.829521059989929199e-01
-4.912469922630757213e-01,-2.715322275865263424e-01,-4.917015478295506670e-01,-2.654332035008412013e-02,-2.683858247403956079e-02,-6.856573716201078399e-04,2.294572740793228149e-01
-4.765125247190226676e-01,-2.655768612271798279e-01,-4.692795318791012638e-01,3.411218755280547715e-02,-7.719151262592638223e-03,2.942622509255884977e-02,2.220087051391601562e-01
-4.754964495798450486e-01,-2.656403900642160254e-01,-4.711891780876955593e-01,3.374389745301006188e-02,-7.623014968570280409e-03,3.059998163648369393e-02,2.226063162088394165e-01
-4.769282678980184542e-01,-3.171604177234580990e-01,-4.783849798737882519e-01,-4.550219034115225020e-02,-2.067855104259290824e-02,-2.885642989766977473e-02,1.890842616558074951e-01
-4.602210333402150244e-01,-3.063892020227937385e-01,-4.678131110685371241e-01,4.907670990208239450e-03,-1.385914573924395057e-02,6.248466972958224017e-04,1.598106026649475098e-01
-4.146385888616137549e-01,-4.147119972931526677e-01,-4.086534205273285592e-01,-8.852881918512312161e-04,1.015986967131319446e-03,-8.785420264115241778e-04,6.635540165007114410e-03
-4.602618361674931657e-01,-3.387763549924970308e-01,-4.499867578684225156e-01,-1.645140159308070352e-02,-1.394607732890952405e-02,-2.921810499093806593e-03,1.226257011294364929e-01
-4.676480298214883424e-01,-2.862554353251781092e-01,-4.656068473598712898e-01,1.259739431266483634e-02,-1.317911973662842622e-02,-1.214984852500322274e-02,1.843290328979492188e-01
-4.204657624227725599e-01,-3.740648296482347313e-01,-4.225038132829282977e-01,2.049513369275050151e-02,1.429612974309841036e-02,1.783860439206033655e-02,7.127204537391662598e-02
-4.545693744825393123e-01,-3.433615904683218201e-01,-4.430118875421027447e-01,1.243912663107047583e-03,-5.116907246838262903e-03,-4.689576847886093788e-03,1.066050231456756592e-01
-4.126450604989045923e-01,-4.178860902215287276e-01,-4.082740294806928572e-01,-1.038341120143037363e-03,-3.615941186496619483e-04,1.024799419791183651e-03,8.732717484235763550e-03
-4.132762337142283360e-01,-4.205202963931413684e-01,-4.046495988875624117e-01,-4.423486209548100137e-03,-2.306374522776740224e-03,1.496959533114799448e-03,1.645507849752902985e-02
-4.112485545008168764e-01,-4.245836338605263882e-01,-4.046573025495829867e-01,-2.889366880820561870e-03,-8.053475992267349493e-04,-8.052594508787026557e-04,1.838750205934047699e-02
-4.475067103217256204e-01,-3.301167956566284367e-01,-5.347290434400305825e-01,-6.338933541506387714e-02,-5.472895239246315657e-02,-2.200671048520580764e-01,4.449226260185241699e-01
-4.122449493740843462e-01,-4.228309753270449445e-01,-4.066999679464122774e-01,-4.671764737343589956e-03,-4.968465206544553196e-03,2.471952854576720503e-03,1.895718462765216827e-02
-4.357083137399306860e-01,-4.582819905874761512e-01,-3.313233338778617809e-01,-6.662541387245733866e-03,1.069346787465080828e-02,3.537831635420636642e-03,1.194818615913391113e-01
-4.330842485745400872e-01,-4.057494915873895436e-01,-4.020571556852946538e-01,-1.102091159804514378e-03,-3.078816384704780138e-04,-9.266638712386039266e-04,2.946617826819419861e-02
-4.003602595295359667e-01,-4.221693271731127850e-01,-4.158972400659326496e-01,-4.740532640587817592e-03,-3.868061406558963040e-03,4.501581415015660018e-03,2.347940579056739807e-02
-5.897742735774444967e-01,-1.359547328967013469e-01,-5.036394987537585743e-01,6.885489498232054417e-02,-1.389061812685655171e-02,1.472217753972086644e-02,4.355844259262084961e-01
-5.609315831654947404e-01,-1.812693824122062480e-01,-5.598999939366419154e-01,-7.464391229578816456e-02,-1.134831591676880858e-01,-7.189198234748431227e-02,4.632586538791656494e-01
-4.337740806545387628e-01,-4.014651905931226894e-01,-4.070276432547436096e-01,-3.905492507886855718e-04,-2.639508214604670885e-03,-1.225442654388386125e-03,3.034719638526439667e-02
-4.817777987331986478e-01,-2.963154002662811148e-01,-4.704547625036510916e-01,-1.452909320552653837e-02,-3.688076218168593462e-02,-4.565342255671919758e-02,2.083052396774291992e-01
-4.492985653940088642e-01,-3.647267060239448577e-01,-4.342843834830448779e-01,-1.114359945699078779e-02,-8.131781569992651421e-03,-1.665471231054839116e-02,8.666662126779556274e-02
-4.780550127989764975e-01,-2.854810506597760256e-01,-4.787019376643750213e-01,-1.010598419516530178e-01,1.914523604649234550e-03,-9.515667810455176456e-02,3.082602620124816895e-01
-4.968347196554871448e-01,-3.092679061283249986e-01,-4.697873965259339868e-01,-4.970934199713780005e-02,-2.114650389621616777e-02,-3.447735182545517973e-02,2.077506482601165771e-01
-4.761883086015924471e-01,-3.579525982485102786e-01,-4.222718255274968691e-01,-2.247755435304527039e-02,-1.308512621213020997e-02,-3.839857380368226492e-02,1.302480399608612061e-01
-4.508752427960867060e-01,-4.414683764384230713e-01,-3.614242134980322207e-01,-1.718084974103524162e-02,-5.865687742388919768e-02,9.418698329643660980e-03,1.368286907672882080e-01
-4.281769128428903892e-01,-4.018348934178784804e-01,-4.106019549846043892e-01,2.660458696684049628e-04,-3.414239854299861224e-03,-1.175322159491947989e-03,2.406551130115985870e-02
-4.352874468898628724e-01,-4.714188294479401686e-01,-3.653778444775653833e-01,-2.214191718292396124e-02,-5.149539340796061015e-02,-2.064006355174066373e-02,1.393661201000213623e-01
-4.832783097176644449e-01,-4.686700526620238283e-01,-2.645198957167520515e-01,-4.380190734616385556e-02,-6.693196342258327103e-02,5.786359796885748308e-02,2.722370922565460205e-01
-4.906709545065578992e-01,-4.963899711846637697e-01,-2.720822826721579490e-01,-3.870865928920341065e-02,-2.515095119245009184e-02,9.006181963568851701e-03,2.360083758831024170e-01
-4.217124030877491547e-01,-4.121696691225351650e-01,-4.074609255182163881e-01,1.886078516474263113e-03,-2.485719076118633915e-03,-2.505453856386213613e-03,1.436003111302852631e-02
-4.734446749818484457e-01,-3.619783136133101209e-01,-4.106161895558621544e-01,3.310564340498959104e-03,-3.511730508147636876e-02,-8.693271036362382187e-02,1.891384422779083252e-01
-4.613917222090258008e-01,-4.577973962910277805e-01,-3.179375669612212740e-01,-1.201816445058652601e-02,-1.181776147285099055e-02,2.534092630420552855e-02,1.511792540550231934e-01
-4.486450244753930061e-01,-4.732168805876133533e-01,-3.189503087870462217e-01,-2.866314178336248908e-02,-2.718584566886644849e-02,2.045332750169473121e-02,1.629364490509033203e-01
-4.285451767066549844e-01,-4.023925516283428094e-01,-4.081957592857693995e-01,2.716933858650199922e-04,-1.847852874544211443e-03,-1.077499050821582828e-03,2.407936938107013702e-02
-4.222510053049636225e-01,-4.108220676375088920e-01,-4.076822070642843188e-01,2.508529165166140541e-03,-2.390239999610928485e-03,-2.969396635117973419e-03,1.545426994562149048e-02
-4.040433373426017272e-01,-4.160301823895346529e-01,-4.181483110123831448e-01,-2.847664944455540435e-03,1.214656876720900678e-03,-5.083732231220002874e-03,1.672863960266113281e-02
-4.110043488558030589e-01,-4.105146083482767438e-01,-4.157996589710563629e-01,9.539713541893689872e-04,-7.150075233322919239e-04,-4.654028273092854369e-04,5.522408057004213333e-03
-4.084195340332675839e-01,-4.147030876261880161e-01,-4.146592062712306515e-01,-9.309057261317263540e-04,1.435492563002027395e-03,-1.504832933014098274e-03,7.401654031127691269e-03
-4.315107954663592316e-01,-3.601294703310237710e-01,-4.325396222406479585e-01,4.560765898970926824e-03,8.139229920805998719e-03,2.649839135319373516e-03,7.383765280246734619e-02
-4.078371564739363131e-01,-4.146684753230073239e-01,-4.151182825992867365e-01,4.754441573211463820e-05,3.277571450194926976e-04,-1.565664383475359788e-03,7.591112516820430756e-03
-4.050293688283077009e-01,-3.956566202517738939e-01,-4.309262312710921972e-01,2.043162385767551860e-03,-4.460342732185952445e-03,-9.984074805316415883e-04,3.280881792306900024e-02
-4.190647414669213533e-01,-4.126597799316993331e-01,-4.027970739661473343e-01,-7.588612777634992645e-03,5.820927288883960202e-03,-8.092574090080378868e-03,2.592965029180049896e-02
-4.204629742415271210e-01,-4.012541673744086101e-01,-4.171638645951837310e-01,9.149565007269791668e-04,-6.933763236076678077e-03,-1.623820419649878860e-03,2.170583978295326233e-02
-4.055201080410441028e-01,-4.328456681802129724e-01,-4.027974367561564240e-01,-8.474985529961372947e-04,-9.599064964465927729e-04,8.904444977322480506e-05,2.886936999857425690e-02
-4.152674733083693837e-01,-4.287561307041504732e-01,-3.964344837355716633e-01,-6.854660284138464760e-03,-2.021412961732838541e-03,1.070263050492680250e-03,3.077841736376285553e-02
-4.045167826372917386e-01,-4.309682222274483498e-01,-3.790873226047843381e-01,9.181701493609977990e-03,9.451625350520836272e-03,6.192436151829737098e-03,5.152602493762969971e-02
-4.225912623376088528e-01,-4.528808278791219277e-01,-3.436128543649180633e-01,6.713830977715966840e-03,1.748878310320600010e-02,3.977780864380125840e-03,1.031868979334831238e-01
-4.005088815339548081e-01,-4.495783903795381176e-01,-3.756000575323105162e-01,3.008153489774500425e-03,1.767231145974733700e-02,6.183501203849100895e-03,7.300215959548950195e-02
-3.993224930244051452e-01,-4.023548539777258015e-01,-4.304744811009571515e-01,-8.597487916472387791e-04,-2.658805428197649084e-04,-1.086918532803352305e-03,2.985215745866298676e-02
-3.890476282227344207e-01,-4.339445785704968417e-01,-3.944423320422897339e-01,3.060103859252090702e-03,3.517327897302978661e-03,5.425428915674274620e-03,4.422834515571594238e-02
-3.848934773541472509e-01,-4.384295609907653546e-01,-3.974516905731277361e-01,7.925107947347482390e-03,2.040476247816903552e-02,7.153582828755743195e-03,6.278941035270690918e-02
-4.031730348434784950e-01,-4.303161730697102061e-01,-3.862307761951682128e-01,6.119666433525047626e-03,3.355276469529484221e-03,2.689774035644522734e-03,4.063847288489341736e-02
-3.917996710533172555e-01,-4.378503827571212925e-01,-3.924139882992305761e-01,5.818666915964438094e-03,7.078711820494561734e-03,4.565741651197334668e-03,4.906310886144638062e-02
-4.097244444036386435e-01,-4.102108496240883251e-01,-4.169339510845576080e-01,-2.068318685062185073e-04,-2.394075855182784408e-04,-3.955029854144416066e-06,7.000511977821588516e-03
-3.806886763270225793e-01,-4.728475598419820125e-01,-4.031056555245710604e-01,5.183496734223582217e-04,-6.071759640086070442e-02,-1.906172293606274090e-02,1.381325125694274902e-01
-4.127476545662032703e-01,-4.772871063861141572e-01,-3.562982264969414836e-01,-7.577310504906813182e-02,-1.253690507714737001e-01,1.463490813569348799e-02,2.757073044776916504e-01
-3.555717091887619086e-01,-4.400786112414675766e-01,-4.292549445194289715e-01,-2.044055099053608895e-02,1.713896345845354260e-02,-1.913699305866158745e-02,9.786341339349746704e-02
-4.102053343745873382e-01,-4.027312934749555096e-01,-4.217505079119133193e-01,8.751616626802600097e-04,-3.829170168925442874e-03,-7.465332297105641175e-04,1.798328943550586700e-02
-4.420011348827220798e-01,-3.859020714066480062e-01,-3.833422935171526547e-01,8.127996238707262469e-03,8.828794070076022293e-03,1.894372434906654162e-02,6.932451575994491577e-02
-4.287295793523978049e-01,-4.001793076486954703e-01,-4.102045769092776406e-01,1.237838024439514651e-03,-5.734190176291622046e-03,-4.038158793436855305e-03,2.795638702809810638e-02
-4.267317648472753189e-01,-4.009517463142335258e-01,-4.131131825615830810e-01,2.845931592493368498e-03,-1.109519728882348011e-02,-8.206597734798221772e-03,3.308535739779472351e-02
-4.287774450838023887e-01,-4.104499858335016738e-01,-4.025370755412394641e-01,-1.657144866260405790e-03,-1.913423490291166857e-03,-4.018206021975896658e-03,2.472232468426227570e-02
-4.347320301159436351e-01,-3.995360075088540408e-01,-4.071421147670649110e-01,1.248227552441364546e-03,-4.250868979848422546e-03,-4.688817099655618464e-03,3.396685048937797546e-02
-4.339680642379020736e-01,-4.034343366968199396e-01,-4.060895560443447683e-01,3.401653146574156491e-04,-4.219409103052422852e-03,-8.140693071109204523e-03,3.332949057221412659e-02
-4.311178760673038401e-01,-4.046769856548315669e-01,-3.961317338163795054e-01,-4.726525757807626196e-03,-1.133174350311201084e-03,1.757151684260041839e-03,3.283628076314926147e-02
-4.164186643324683801e-01,-4.111105104438691482e-01,-4.097714408423320243e-01,-6.883319709854533166e-04,-1.301316468321269142e-04,-1.355009654967595414e-04,6.213282700628042221e-03
-4.260631696915633815e-01,-4.036989399704570269e-01,-4.094191954939512823e-01,2.852319462975572237e-03,-6.648468409198519079e-03,-6.891121225089133148e-03,2.654104866087436676e-02
-4.579133435597423918e-01,-4.401895568933688052e-01,-3.328279529090726330e-01,-1.164016355880297636e-02,-2.307735950663024750e-04,-2.689068494561124359e-02,1.277476698160171509e-01
-4.384152466795637193e-01,-4.050881762080280057e-01,-4.049347670010063349e-01,6.210169029403469869e-03,-2.780167662085542349e-02,-4.170606492019704459e-02,9.364034980535507202e-02
-4.440707786821431746e-01,-3.936799756375432002e-01,-4.146280328688993211e-01,-3.408621738436561164e-03,-1.036910850224023566e-02,-2.588715462126323780e-02,6.550046056509017944e-02
-3.888957531421977087e-01,-4.280019006165023399e-01,-4.230007235746930938e-01,-1.104943566295516280e-02,-4.952598574838480532e-03,3.231021014020768641e-03,4.277731850743293762e-02
-4.408400231788662249e-01,-3.785515882914493035e-01,-4.159716733423353685e-01,1.713144592394625319e-03,-6.484905489269336860e-03,-1.260668150929827869e-02,5.967432633042335510e-02
-4.141551780295461005e-01,-4.140000427723569132e-01,-4.100748688673631626e-01,-1.259014564593365039e-03,-4.894108209250065938e-04,1.008290442648476695e-03,4.956194199621677399e-03
-4.386823901436176509e-01,-3.986584518216763073e-01,-3.999426854242750795e-01,-3.463028406420223804e-03,-3.593391391139063879e-03,-1.824763449116503441e-02,5.124264210462570190e-02
-4.345314106511752317e-01,-4.472493669917854131e-01,-3.486086263500445814e-01,-9.721288624700376302e-03,7.441418008364240715e-03,-8.028444768815653099e-04,9.533520787954330444e-02
-4.402872834907621824e-01,-3.864703597245741085e-01,-4.113953946015729279e-01,-2.345494801066090682e-03,-2.828510820849046078e-03,-9.939684344740780039e-03,5.013010278344154358e-02
-4.303001195413129754e-01,-4.195201590887186471e-01,-3.875359252293271162e-01,-1.059201840593328343e-02,-2.238012520743302806e-03,2.663998275672964811e-03,4.309149459004402161e-02
-4.336664993836528703e-01,-3.959570002371226582e-01,-4.147524403491530398e-01,2.639629209074742435e-03,-7.755874624687743649e-03,-2.004738209518846723e-02,4.973494261503219604e-02
-4.030372522111115297e-01,-3.962757123718420038e-01,-4.376095562506970849e-01,-1.622065851312595036e-02,-7.057802987395943826e-03,1.096978311685731531e-04,4.912766814231872559e-02
-3.880606418917054157e-01,-4.181229609729249508e-01,-4.366680797773744294e-01,-6.776911171041040752e-03,-2.547471839130864557e-03,-2.406552866064862791e-03,4.449490457773208618e-02
-4.215065316904265669e-01,-4.096443369693180125e-01,-4.043114244350107245e-01,-3.829994774024661833e-03,-9.017852540064760086e-04,8.764288410420944262e-04,1.676789484918117523e-02
-4.036118005640206841e-01,-4.066978180229134932e-01,-4.338587748749528905e-01,-6.835549256843292086e-03,-3.641383030970183222e-03,-1.725241443920644139e-03,3.193654492497444153e-02
-4.219810780840913544e-01,-4.055566736076396950e-01,-4.075820789686676604e-01,-4.225673348703224926e-04,-6.545109974151583528e-04,-7.710642646018274439e-04,1.562695391476154327e-02
-3.850351024107565023e-01,-4.120968086396916141e-01,-4.404561215583254752e-01,-1.218634915401949417e-02,-1.854901253911037974e-03,-4.630661905694707925e-03,5.314330011606216431e-02
-4.045936093565435931e-01,-4.042043117304361943e-01,-4.350663900248830096e-01,-6.879523478098089999e-03,-4.893426115698010399e-03,-3.166319078774637759e-03,3.441659361124038696e-02
-4.075001320088444956e-01,-3.997040193945481934e-01,-4.309198091340292192e-01,-3.656930608748329165e-03,-2.541904079851560038e-03,7.692086026914913980e-04,2.920824103057384491e-02
-4.048990077931295395e-01,-4.037404008235853659e-01,-4.362558600310980639e-01,-7.715933740898178218e-03,-3.832974903489415504e-03,-1.634072420717686035e-03,3.537820652127265930e-02
-4.371897580658965499e-01,-3.424604373251410316e-01,-4.357579907230682004e-01,1.482116221262247402e-02,1.232308657574696098e-02,6.567475314223390065e-03,1.004192978143692017e-01
-4.094522577096101901e-01,-4.031070985426448705e-01,-4.314955243174308785e-01,-6.698565486433868087e-03,-5.963608142098427226e-03,1.006755431347608910e-03,3.017253056168556213e-02
-4.125185481663289910e-01,-3.943717998487764054e-01,-4.367404812925981261e-01,-3.145267999764583388e-03,-5.280591204154158266e-03,-1.718051097375366187e-03,3.844142332673072815e-02
-4.141369246785528979e-01,-3.894244356658769224e-01,-4.437196089918746256e-01,-1.483942421214712835e-02,-1.108025322990850020e-02,-6.063263343921994992e-04,5.698200315237045288e-02
-4.161052274052368660e-01,-3.821089122480070266e-01,-4.443999705798514777e-01,-7.935426565121118936e-03,-5.255358217070435316e-03,-1.135619137063057584e-04,5.648067966103553772e-02
-4.616108179434308956e-01,-4.634400872636484925e-01,-3.182897633095818080e-01,-1.156532218102802011e-02,2.836098262011796703e-04,-5.444901929206606012e-03,1.459345668554306030e-01
-4.375148745497332015e-01,-4.144251572477047896e-01,-3.977384223215718606e-01,-2.356378822360467602e-03,-1.249807484578997763e-02,-2.086739654302488881e-02,5.466701090335845947e-02
-4.448629528252717180e-01,-4.357382912974494538e-01,-3.640334975498096814e-01,-3.854358549557351452e-03,-3.156147764103370192e-03,-8.732730991018520031e-03,7.862793654203414917e-02
-4.155199641132005794e-01,-3.499002115168737270e-01,-4.643462508974188219e-01,3.865219940499194096e-02,-7.270429537962287692e-03,-6.658878769795327328e-03,1.211094707250595093e-01
-3.343671778104460035e-01,-4.358518583309813899e-01,-4.504206420078470385e-01,9.177203039699073986e-03,7.071245785536036700e-03,2.933202922331059823e-03,1.114377826452255249e-01
-4.305357723014651694e-01,-4.168044603421330874e-01,-3.882161178171928961e-01,-8.688821010933598862e-03,-2.224590486397635958e-03,2.759417198434041887e-03,4.077467322349548340e-02
-3.912873009390569479e-01,-4.338303176010970819e-01,-3.926383203897425012e-01,1.837717016695768679e-03,1.538437707468486926e-03,2.952512874190470031e-03,4.239859804511070251e-02
-4.377410635334478828e-01,-4.101871363190295328e-01,-3.875030094299257155e-01,-1.241387631881171391e-02,-1.145181978855465237e-02,1.336772773696390075e-02,5.736426636576652527e-02
-3.968334805749154648e-01,-4.213934378248830881e-01,-4.001303870914366678e-01,1.831439876947026091e-03,1.462596753669176798e-03,1.352485345231975011e-03,2.355964668095111847e-02
-4.028391053641119934e-01,-3.790681740806239319e-01,-4.445954955280901899e-01,8.236181938177711270e-03,-6.567707342961675437e-03,-1.079951938018029788e-03,6.031292304396629333e-02
-4.028862268466159025e-01,-4.013303530747590053e-01,-4.111218092254124712e-01,1.098005423538570740e-03,1.764648708343308659e-03,3.695174227998532235e-03,1.170388050377368927e-02
-3.609590977910139276e-01,-3.866290713948868918e-01,-4.769905885779532895e-01,3.806525735845218278e-02,-1.228352193693367685e-02,-9.068792513125841295e-03,1.272399425506591797e-01
-4.021751597733064787e-01,-3.711928611074605810e-01,-4.527902899500312328e-01,1.082959083327514858e-02,-7.385063215571451185e-03,-3.553566371524471534e-03,7.512195408344268799e-02
-3.854782085062338215e-01,-3.974327444054531755e-01,-4.453559164987808128e-01,5.150691862954610324e-03,-3.064955208331319493e-03,-5.529219757331940363e-03,5.667387694120407104e-02
-4.276100950813344626e-01,-4.285958051857168827e-01,-3.876962837241687554e-01,-1.971430349039974064e-02,2.935635242346561202e-02,-4.707013620949299787e-02,1.096885055303573608e-01
-3.874948626828884635e-01,-4.431518585815357736e-01,-3.923245634421184125e-01,9.225597965537053616e-04,1.158187273752168912e-03,-2.196030823740853814e-04,5.346908420324325562e-02
-4.352393298648918885e-01,-4.032592307325596481e-01,-4.096629966889181462e-01,-9.942363412023483976e-03,1.742044443526507506e-03,-1.293033974972076887e-02,4.081885516643524170e-02
-4.000820810236300762e-01,-4.158863067999765128e-01,-4.007333768316044820e-01,5.654042893815148136e-05,4.160408363849613512e-04,2.385898168746718867e-03,1.604714617133140564e-02
-4.393287860993221328e-01,-3.903052976707446220e-01,-3.997115718709783883e-01,-5.996207983323501326e-04,-3.433185803091385062e-05,4.580188946996666642e-03,4.576754942536354065e-02
-4.360924673753137637e-01,-4.179723732822316351e-01,-3.815974560223975853e-01,-1.215773385976725261e-02,3.662479949815415723e-03,-1.055907002768825646e-02,5.593517795205116272e-02
-4.329779748044695342e-01,-4.016879613127204984e-01,-4.052055866516708349e-01,-1.633920962006745392e-03,-8.812388680206956941e-04,-5.702665836357317594e-03,3.145269677042961121e-02
-4.338462363432872837e-01,-4.012363876754135861e-01,-4.051885717667200182e-01,-2.957879912282460576e-03,-2.076203038847641619e-04,-4.023502937715321172e-03,3.201693296432495117e-02
-4.251494759875546481e-01,-4.175413664321956375e-01,-4.003411359287179505e-01,-1.020214463595213103e-02,2.829572807443012875e-03,-1.389231710224371821e-02,3.741460293531417847e-02
-4.358428673586353108e-01,-4.112230067000349765e-01,-3.916727088707998572e-01,-7.654668437267607428e-03,2.170295019793347553e-03,-1.376844096885235409e-02,4.720486700534820557e-02
-4.245597209197459754e-01,-4.236148197747397481e-01,-3.614777816940969446e-01,2.184927649259073290e-02,2.677442474792709678e-02,3.162580080473365030e-02,1.024888977408409119e-01
-3.964505279237585667e-01,-3.967083647913950406e-01,-4.219564475110690882e-01,1.279634788215493939e-03,1.779835323545972143e-03,4.167662506890114880e-03,2.665644697844982147e-02
-4.331019372565857450e-01,-3.937758253819162446e-01,-4.122499984315105004e-01,-3.342369437907502343e-03,1.604718661349719550e-03,-8.145252696814436408e-03,3.743789345026016235e-02
-4.472544762429502829e-01,-3.574908714142896460e-01,-4.146585516346037448e-01,4.721351583822208826e-03,2.777029513786668461e-03,8.368921493786546026e-03,8.058658242225646973e-02
-4.262196897455931555e-01,-4.096218160218782489e-01,-4.042719976161697204e-01,-6.152435762841993068e-03,2.370999164188571963e-03,-6.267159937066660823e-03,2.532113343477249146e-02
-3.853929480602660829e-01,-4.328769252059208594e-01,-4.021487524409207426e-01,2.744817581955139984e-03,3.465413717610545292e-03,6.026488709634198609e-03,4.367422312498092651e-02
-4.519049812289449020e-01,-3.835129546610770435e-01,-3.838114061314281122e-01,-3.450557366072573768e-04,5.737666273070585014e-03,1.893841900555271254e-02,7.636921852827072144e-02
-4.527204130774070134e-01,-4.427267152584966059e-01,-3.287184900739563154e-01,-1.730022845492732147e-03,1.546223620629985814e-02,1.856217589463549436e-02,1.264792382717132568e-01
-3.905352311539847521e-01,-4.422779072719009164e-01,-3.855452866717243299e-01,4.041595956264863558e-03,3.626379749186474464e-03,1.984806084029435303e-03,5.532332882285118103e-02
-3.780971589904811303e-01,-4.467499867249764001e-01,-3.982623522651492221e-01,9.179354571623633439e-04,3.919622614573100086e-03,1.300339957019285616e-03,6.155598163604736328e-02
-4.243024360259516903e-01,-4.119339228999914226e-01,-4.055086502311774921e-01,-5.896111675871671017e-03,2.038870530243366928e-03,-4.462305425466187199e-03,2.121874690055847168e-02
-4.264164776056730277e-01,-3.964897235388107344e-01,-4.131308682258575393e-01,-3.764442546110115684e-03,3.235231725151273968e-03,-7.864021354764872546e-03,3.056083433330059052e-02
-3.941813765157531901e-01,-4.127299959697187659e-01,-4.368504323349454155e-01,-2.917212865980654563e-03,-2.110811033286304032e-03,-5.879911270134273275e-03,3.893410414457321167e-02
-3.983218559839325490e-01,-4.077246748090466166e-01,-4.371010702713991614e-01,-5.746932025973703825e-03,-1.720415055558506892e-03,-5.313637974531775117e-03,3.768649697303771973e-02
-4.028472897658488261e-01,-3.980284052144807960e-01,-4.359830093277841101e-01,-1.580421212380009668e-02,2.363751177797422166e-04,-5.447088712062290311e-03,4.603666067123413086e-02
-3.835860119222859188e-01,-4.188675488850303053e-01,-4.335770120719851795e-01,-8.303524760872779339e-03,3.673042166282691669e-03,-7.846321956341712270e-03,4.911355301737785339e-02
-3.835893456768362242e-01,-4.173889194474952324e-01,-4.389780032814182831e-01,-8.278288701796811602e-03,-7.880524421687201458e-05,-9.199166404665073959e-03,5.289313942193984985e-02
-4.358528631639400630e-01,-4.035600157629336548e-01,-3.758124166783203823e-01,9.099856101163402225e-03,4.101122834582353327e-03,6.910113436782371402e-03,5.613318830728530884e-02
-4.411783414918251656e-01,-4.013607665868277885e-01,-3.799615017742814516e-01,9.378284831560638676e-03,1.073336368411239271e-02,1.789613237489243516e-02,6.682605296373367310e-02
-4.334207914913337789e-01,-4.026244687594295879e-01,-3.842064946349187937e-01,5.541377532377728815e-03,2.675684201628456774e-03,3.260195778596933474e-03,4.472500830888748169e-02
-4.429079918440407271e-01,-3.990049789076445252e-01,-3.801808960401285020e-01,3.577382046535169859e-03,1.602264399018304237e-03,4.343727448942151168e-03,5.666527524590492249e-02
-4.421173361158310944e-01,-3.915038467380445031e-01,-3.872970978936715047e-01,1.568385518019124172e-03,8.847701511481014143e-04,1.565413886896605076e-03,5.300395935773849487e-02
-4.307491637680924690e-01,-3.976538219778246730e-01,-4.049565582689785281e-01,-1.234754718783796605e-03,-7.977727994688330396e-03,3.666029112209417441e-03,3.380488976836204529e-02
-3.797306316602785392e-01,-4.181235888589248106e-01,-4.179054592992788586e-01,4.510335693829323721e-03,4.549080746706029091e-03,1.133846566618630300e-02,4.443519189953804016e-02
-4.381874870371644248e-01,-4.564396053038893286e-01,-3.261594730786767649e-01,-1.253471709741322930e-03,1.153444053830429521e-02,7.865630991888953108e-03,1.245697066187858582e-01
-4.283075915148230051e-01,-4.028287041580101424e-01,-3.871603285728810739e-01,7.086087187960663121e-03,3.368142328108733076e-03,2.365448664000857799e-03,3.866964578628540039e-02
-4.061954841279753481e-01,-4.052198320162718193e-01,-4.051049157285145363e-01,1.235165212769130205e-04,6.749527958564895819e-04,1.316010659536484290e-04,1.594249159097671509e-03
-4.533162669914747589e-01,-4.364696318005311659e-01,-3.338893449854482554e-01,5.017886670968282718e-04,7.249352782869069624e-03,1.058797063212678358e-02,1.141463443636894226e-01
-4.154815825568198284e-01,-4.008060776363449040e-01,-4.001912419054060588e-01,5.233591003742353760e-03,6.401094333072087673e-03,5.506940742089093399e-03,2.282200939953327179e-02
-4.090092497869916577e-01,-4.106031475529190455e-01,-3.944812479525038329e-01,1.326175754470666941e-02,1.160841822467860961e-02,1.284777293990016327e-02,4.079024493694305420e-02
-4.073054048136610650e-01,-4.125155000573806352e-01,-3.984861183620446168e-01,8.651035123639296345e-03,8.291765877506938193e-03,7.772399099710056332e-03,2.762039378285408020e-02
-4.178379738240623475e-01,-3.993432241548504624e-01,-3.939333737009265146e-01,1.054694211204854765e-02,1.215601546587799509e-02,1.079454644129883810e-02,3.997452929615974426e-02
-3.793489782229085283e-01,-3.911317563893674798e-01,-4.588007140152656205e-01,4.493290516343095842e-02,1.338248058311181446e-02,1.511586595440744633e-02,1.131144911050796509e-01
-4.265009027901519589e-01,-4.241330409279794322e-01,-3.636904678579879757e-01,1.348407129249791850e-02,1.004453090432578209e-02,6.612693447957412700e-03,6.914732605218887329e-02
-3.954130234851322978e-01,-3.899278352883349674e-01,-4.338136415896453046e-01,2.113836985315482430e-03,1.047735612786171574e-03,2.300755159328930505e-03,4.180799052119255066e-02
-4.110970644654039496e-01,-4.243145899694481527e-01,-4.054289176489379587e-01,-5.137226725266653103e-03,-6.819214188908657472e-03,2.128250276393451029e-03,2.267193049192428589e-02
-3.955392454702828520e-01,-4.326533523804612091e-01,-4.109348317157135999e-01,-3.634261613231111031e-03,-8.158141505366372712e-03,1.894045476739803250e-03,3.596024587750434875e-02
-4.148686991589654594e-01,-3.999845046576685492e-01,-4.032418611696617083e-01,6.240988975682977384e-03,4.797725140387603532e-03,5.343180939449944378e-03,2.133587561547756195e-02
-4.337896617610176309e-01,-3.916208701877492704e-01,-3.924977559725716381e-01,1.827477625259348298e-03,1.786876751821390259e-03,5.741831430604921920e-04,4.198315739631652832e-02
-3.980820426915721577e-01,-4.331756272666348884e-01,-4.117083108446527029e-01,-2.137164409818554951e-03,-2.637723326547883589e-03,-9.046293351391482057e-04,3.124212659895420074e-02
-3.914851307842583394e-01,-3.925063827947168349e-01,-4.341694618508024628e-01,1.122991112986013824e-03,2.163097810811671386e-03,1.202773562165862769e-03,4.244483262300491333e-02
-4.181999416714509143e-01,-4.221537891682842769e-01,-4.032534209173408435e-01,-1.120083775520035185e-02,-1.317563192565243506e-02,3.341045774345367727e-03,3.505400940775871277e-02
-3.941325091126091085e-01,-4.245494484367673960e-01,-4.256271970719130993e-01,-1.383524313134073397e-02,-2.524156764070946066e-02,4.074236757723580238e-03,5.911500379443168640e-02
-4.131832072509856180e-01,-4.240265084803850337e-01,-4.013369957817867761e-01,-4.737212237940973542e-03,-2.845442846169170866e-03,1.480024543792116077e-03,2.201241813600063324e-02
-3.980533952609645043e-01,-4.326571605922870378e-01,-4.117560919729050251e-01,-1.216384828761704617e-02,-1.826326186365462290e-02,1.099780170725153270e-03,4.857124760746955872e-02
-4.277567994298591136e-01,-3.941587982154227676e-01,-3.960173380481551431e-01,1.071860683306700285e-03,3.254063665972012961e-03,1.228696787317207781e-03,3.331034630537033081e-02
-4.044894024833312618e-01,-4.348138670271692874e-01,-3.972172948747531573e-01,-1.084009130269769985e-02,-1.689472837136258426e-02,3.373883672666490481e-03,4.935531318187713623e-02
-3.611732314416695178e-01,-4.496625480996217505e-01,-4.131945719434753084e-01,-2.563794525653762327e-02,2.810866953491185025e-02,-2.217885687227827071e-02,1.084027513861656189e-01
-4.015012823929827723e-01,-4.239274869934583356e-01,-3.793242020793682889e-01,1.835131488980712780e-02,2.554587959586875415e-02,1.796139161972775192e-02,7.367515563964843750e-02
-4.102836297396678655e-01,-4.103919401143490964e-01,-3.946002097730994529e-01,6.355266362288485710e-03,4.177527268415420422e-03,2.799508672181946420e-03,2.108827233314514160e-02
-3.952560510831855667e-01,-4.421528099848488491e-01,-3.903918186330676554e-01,-3.290170694552640909e-03,3.048263500653193656e-03,-1.220032050461212917e-03,5.015875026583671570e-02
-4.191666495585503194e-01,-4.418578827376512530e-01,-3.696246504963334178e-01,-1.389180975171658457e-02,1.260492610415485208e-02,-8.475302137955184265e-03,7.324317842721939087e-02
-4.050529708947220309e-01,-4.054906226264377578e-01,-4.051537179322923787e-01,1.583617049288075628e-03,4.377934904286815126e-04,3.877680211312647387e-04,2.950797788798809052e-03
-4.206877724350317482e-01,-4.458925485419740764e-01,-3.656821193218410815e-01,-1.078123687520300515e-02,7.800685124909567843e-03,-1.490783923121910808e-03,7.473441213369369507e-02
-3.986492635737445278e-01,-4.440327803711709986e-01,-3.842545409662971312e-01,-3.688990136563291555e-03,1.619009284120634731e-02,-2.993357987468839645e-03,6.143467128276824951e-02
-3.868153624452655981e-01,-4.426013928581720158e-01,-3.975961347809571778e-01,-2.098537790015758686e-03,3.865463204717916202e-03,-3.127437663724052987e-03,5.209865048527717590e-02
-4.067991594912651609e-01,-4.510700056988806717e-01,-3.744985757316574015e-01,-4.713006262149563828e-03,1.918120774226063016e-02,-4.251418996011896087e-03,7.521852850914001465e-02
-4.226874366972394048e-01,-4.537528469892547212e-01,-3.495513134327331017e-01,-7.672465586267995796e-03,1.547858923207534598e-02,-1.944508766256622346e-03,9.743028134107589722e-02
-3.517621132857742250e-01,-4.464177530691952889e-01,-4.532538421641035820e-01,-2.211415445723709933e-02,-2.402005918340184218e-02,-9.891391181579242339e-03,1.146517023444175720e-01
-3.318038215653841827e-01,-4.622729753877187209e-01,-4.351374727217936500e-01,-2.433728606839161840e-03,6.378425245707630524e-03,-1.328478376360781726e-02,1.220142096281051636e-01
-4.220370036812921555e-01,-3.945257668507995974e-01,-3.985931231817536058e-01,2.782860811102523535e-03,5.743367301665557208e-03,4.984811878614047419e-03,2.929591014981269836e-02
-4.073573804961761469e-01,-4.029968732522307695e-01,-4.061632605943325536e-01,1.332393703305481420e-03,2.465539080538671751e-03,1.552224720922608554e-03,6.784073077142238617e-03
-3.200030778542315435e-01,-4.586867032427767721e-01,-4.477464639812392955e-01,2.964156492483406395e-03,1.584591418957820991e-02,-4.355948002382517038e-03,1.366461366415023804e-01
-2.892326601614110260e-01,-4.661541967153199906e-01,-4.455326504392718712e-01,3.075633226029934192e-02,5.022275635800624999e-02,5.365620872722223246e-03,1.963906437158584595e-01
-2.980504457584516320e-01,-4.554713003503820801e-01,-4.675474341081012897e-01,6.128767184315124517e-02,7.461242264350397002e-02,1.993750593654763231e-02,2.366226613521575928e-01
-3.029494911935107226e-01,-4.612957437430894037e-01,-4.562691510437819620e-01,8.711012085223889326e-03,1.485483087010324062e-02,-3.173748376017027193e-04,1.587224155664443970e-01
-4.017634561195391196e-01,-4.118957481220589245e-01,-4.021953823749782608e-01,2.814363697140015701e-03,8.579131036747973411e-04,1.201215244724297953e-03,1.134778466075658798e-02
-3.029541558991364902e-01,-4.704626383019800961e-01,-4.440967876882331855e-01,-2.062941510191843627e-03,4.064677410839580979e-02,-7.774527667537061912e-03,1.717216521501541138e-01
-4.058718827963724296e-01,-4.296884222622521787e-01,-3.794565090154591869e-01,9.721853765675513362e-03,6.649410636840662366e-03,9.653479965741562641e-03,5.089085176587104797e-02
-3.701553540164487233e-01,-4.042333825483797050e-01,-4.408421897121171940e-01,7.976392284723481454e-03,4.786750853917921822e-03,1.019349817038783974e-02,6.572976708412170410e-02
-3.920359263191812715e-01,-3.927768162370147698e-01,-4.373979237748373827e-01,6.972117849772474507e-03,6.137431134522122224e-03,5.918314608965901183e-03,4.887296259403228760e-02
-3.945445583757644092e-01,-3.916279378766990282e-01,-4.304068435759107469e-01,4.302652951017437236e-03,5.907461195294129094e-03,2.785304499580782290e-03,3.978332877159118652e-02
-3.759664379994570038e-01,-4.039707049507453296e-01,-4.356765087235106026e-01,7.153312993040999469e-03,4.059585225818641667e-03,9.061189581937235255e-03,5.591655150055885315e-02
-3.807057640416861566e-01,-3.999309116878394521e-01,-4.385028494803842603e-01,3.088603067453349858e-03,2.345076324061560764e-03,7.008029666373027759e-03,5.283375829458236694e-02
-3.708028859871416172e-01,-4.022434461428769370e-01,-4.405073165563604398e-01,8.963810664047007493e-03,3.778621610959839380e-03,8.421967741199758509e-03,6.443867087364196777e-02
-3.843794326650993853e-01,-3.807699569370698867e-01,-4.569633283323281114e-01,1.821452665943132029e-02,-1.986376177699469055e-03,1.208951406980227506e-03,8.096276223659515381e-02
-4.025482984097422667e-01,-3.818617991808375134e-01,-4.384282823600128554e-01,1.755258753306538147e-02,8.976442845887040375e-03,1.098116520802049426e-02,6.312926113605499268e-02
-3.938048939531566539e-01,-3.948792338802080693e-01,-4.296232427966545364e-01,7.435900903645693491e-03,6.042545786250099610e-03,6.175096031603976091e-03,4.044054448604583740e-02
-4.105699341021394333e-01,-4.021159944506588757e-01,-4.281275429072110006e-01,-1.491464581630220620e-03,-1.958340776655895232e-03,7.433867294761482023e-05,2.337445132434368134e-02
-4.381597694881780303e-01,-2.944305793723633879e-01,-4.723020273960765736e-01,6.695606576660384501e-02,3.596903141386711272e-02,4.579218447018054694e-02,2.243935018777847290e-01
-4.591990325341231971e-01,-3.343611038638105715e-01,-4.322369170531212834e-01,-3.079616257362908951e-04,2.349631438063379436e-03,1.245881659279090940e-02,1.158796027302742004e-01
-4.612480517097741206e-01,-3.163494891894105265e-01,-4.499077226504409333e-01,7.095497999304239273e-03,1.107668170863694524e-03,1.470184371113666261e-02,1.424224376678466797e-01
-4.424635696034456278e-01,-3.473665886187518037e-01,-4.267823006736778946e-01,9.986216090949649737e-03,9.283392723413596073e-03,1.496893656937908941e-02,9.501589834690093994e-02
-4.128549859787234433e-01,-4.266967016874725349e-01,-4.117576601313057139e-01,-4.203351544643476462e-02,-6.055860938530398946e-02,1.088002880779212998e-02,1.298676133155822754e-01
-4.048927195368710596e-01,-4.269460693364787729e-01,-4.108584605081822549e-01,-2.634702795820305539e-03,-2.490983696841008940e-03,2.563026174145225083e-03,2.120195701718330383e-02
-4.098749452422009720e-01,-4.273223392660395192e-01,-4.044824429784835695e-01,-6.198896997623827912e-03,-5.300967788029816059e-03,1.745797627683051256e-03,2.522496692836284637e-02
-4.181182634121547448e-01,-4.204866765722893862e-01,-4.004314832788922196e-01,-6.882868319143855759e-03,-9.787571514774788019e-04,5.250709228505196207e-04,2.249763906002044678e-02
-4.036993380145112442e-01,-4.685595020239098352e-01,-3.768638980948748607e-01,-2.089761552620531676e-02,-3.952185451621670342e-02,-9.855183510880976411e-03,1.138198971748352051e-01
-4.422522550007137454e-01,-4.044188423022693768e-01,-3.860257265660978487e-01,-7.515892184833216152e-03,-1.129033031011898117e-03,1.759817066343561612e-03,5.145997554063796997e-02
-3.843426654955843236e-01,-4.412248600675269805e-01,-4.110400765071022255e-01,-2.121357598990145175e-03,-1.061780356434819696e-02,-3.326444004493071295e-03,5.305316299200057983e-02
-4.791746256294716066e-01,-4.565462881545613305e-01,-2.982638146665023693e-01,-1.869219534000592965e-03,6.449546380243366753e-03,4.856080903002862187e-02,1.906745433807373047e-01
-4.102774963187733048e-01,-4.328495534881642293e-01,-3.974856268328506026e-01,-6.793672207677023747e-03,-4.989105732576095027e-03,7.917143075128243437e-04,3.430574759840965271e-02
-4.379406074966988860e-01,-3.655466306302748714e-01,-4.008345864892255417e-01,2.334156615508280533e-02,2.198133829657369226e-02,3.336014120091599505e-02,1.017556563019752502e-01
-4.128994161253146666e-01,-4.061081317543838720e-01,-4.229746450852456263e-01,-4.089711479469662105e-03,-6.031938737550218525e-03,2.942381084656793717e-03,2.003393135964870453e-02
-3.494823805782917292e-01,-4.448854542257573152e-01,-4.477959005995634234e-01,-3.278621041583086593e-03,-6.126768220778493028e-03,-1.037108200909661951e-02,9.927447140216827393e-02
-4.495899214541476674e-01,-3.967823720079197147e-01,-3.772480046505648499e-01,-2.138492070634329199e-03,1.462744647017481022e-03,8.629157069792095860e-03,6.667320430278778076e-02
-4.338164072604502874e-01,-4.149117033493057161e-01,-3.720416489011937888e-01,9.017916009924744139e-03,3.804879023277609601e-03,5.718786679920027406e-03,5.823390930891036987e-02
-4.205751946606623437e-01,-4.086940111343430049e-01,-3.906841352649739196e-01,5.395383498265626798e-03,3.072084595965673178e-03,3.136351463010657054e-03,2.871672809123992920e-02
-4.087694745783778671e-01,-4.034099285911216248e-01,-4.305985539396579576e-01,-5.632065650566116070e-03,-5.934530645677831874e-03,7.599705644483331288e-04,2.871892228722572327e-02
-4.098694821429526569e-01,-3.984297161375484619e-01,-4.316424129660318965e-01,-5.143501979854800572e-03,-5.945024875227858212e-03,6.282743164334969816e-04,3.225813060998916626e-02
-4.113531241102919567e-01,-4.008741357540716033e-01,-4.257830410693246859e-01,-4.568199452974134982e-03,-5.770947101167062804e-03,8.649798747097233679e-04,2.517943643033504486e-02
-4.205455183425499954e-01,-3.887694128166582774e-01,-4.255970394559057679e-01,-6.630414872903685371e-03,-1.030804116774014685e-02,3.384455953411386053e-03,4.099724814295768738e-02
-3.721262601557746574e-01,-4.273665702687586276e-01,-4.404307407837134147e-01,-3.155900089831419758e-02,-1.726998889819822067e-02,2.011667573527254737e-03,8.853611350059509277e-02
-4.339092427656637829e-01,-4.001846462622370426e-01,-3.847399760095028265e-01,7.026799475796862218e-03,2.678538437965908171e-03,3.854697351656075598e-03,4.594539105892181396e-02
-4.191732865587303181e-01,-3.884250515474444998e-01,-4.302917225736349605e-01,2.871011738582597127e-03,-1.057504137769620274e-02,-1.508904582317692261e-03,4.216632246971130371e-02
-4.080205928522525061e-01,-4.047119554804778918e-01,-4.272101078904901872e-01,-2.942289803524189302e-03,-2.202451826748018371e-03,1.396190585309414712e-03,2.211441472172737122e-02
-3.867549624896020055e-01,-4.094286910384013489e-01,-4.382749931506109142e-01,-1.423536030807951054e-02,-2.326236766666426280e-03,-2.265866035952617680e-03,5.137930810451507568e-02
-4.035485189651155102e-01,-4.040407550328710129e-01,-4.352537736189509010e-01,-4.989788989403345920e-03,-3.611336486381101774e-03,-2.350115831009509746e-03,3.347009792923927307e-02
-4.454156211707003266e-01,-4.482725123760102903e-01,-3.409056193329926820e-01,-4.831463456682286856e-03,-3.876305252360215652e-03,1.068830742678078755e-03,1.065251603722572327e-01
-4.685672298685626402e-01,-2.989109238254550882e-01,-4.476352643798739983e-01,2.001397919819997845e-02,-4.837373516632930727e-03,3.943431109802025131e-02,1.777842640876770020e-01
-4.244343550501412654e-01,-3.986396358956018071e-01,-3.966578851077383616e-01,6.068273004938964064e-03,5.746288511014145499e-03,5.588401833366661055e-03,3.199430555105209351e-02
-4.329125958143582031e-01,-4.170790693841819330e-01,-3.716930870796681941e-01,8.059734685659321676e-03,4.063377306592156138e-03,4.602792755743843889e-03,5.776829645037651062e-02
-4.743730098303642340e-01,-2.857523616076823592e-01,-4.703468665694652828e-01,-2.293561664511660058e-03,-1.653351418692420444e-02,-3.541645108192625056e-04,1.888670772314071655e-01
-4.880338103684918050e-01,-2.831369662171273616e-01,-4.668390597684632937e-01,3.586425470870788224e-02,6.994465673075039337e-03,6.908696288319494949e-02,2.375157326459884644e-01
-4.146049103214705656e-01,-3.707292056170868877e-01,-4.348480878494412893e-01,5.689934691747366644e-03,9.035322916032009072e-03,4.387131758299145541e-03,6.018991023302078247e-02
-4.531664176967171720e-01,-3.116488869312614152e-01,-4.661996056803967003e-01,6.747565828402258756e-03,-7.405199908947226843e-03,1.831835490467508161e-03,1.495080888271331787e-01
-4.160110036276392087e-01,-3.918830008388328734e-01,-4.094279211989324541e-01,9.774370776776071523e-03,9.515961609824626424e-03,1.250980994104814586e-02,3.865776211023330688e-02
-4.478043561929663796e-01,-3.279381576577976021e-01,-4.474734781479066115e-01,1.514527665124699302e-02,3.381160382508159937e-03,1.354704757269702999e-02,1.249053925275802612e-01
-4.200590547805343467e-01,-4.199186487907310972e-01,-3.744264639399527139e-01,1.020517041579014836e-02,4.869421236034904808e-03,4.842334714453880827e-03,5.029772222042083740e-02
-4.059441472248926930e-01,-4.066624239674284658e-01,-4.046008285556538242e-01,1.284977194371114616e-07,7.936352014661579926e-04,8.126479085089536149e-04,2.675081603229045868e-03
-4.047069113539335516e-01,-4.078702050888555197e-01,-4.027472645257280659e-01,2.966922370564127436e-03,1.653013982917689133e-03,1.977255740853095696e-03,8.147358894348144531e-03
-4.391799228159513624e-01,-3.937312507071822343e-01,-3.857202789758673589e-01,6.185187184442957412e-03,3.467579379480746019e-03,6.986925527626548955e-03,5.283122882246971130e-02
-3.961936398680472871e-01,-4.213581675253198489e-01,-3.984995134676264095e-01,4.383191294660590022e-03,1.961778742140972767e-03,1.927480318454482698e-03,2.570744417607784271e-02
-3.981866813360737112e-01,-3.809444489432651793e-01,-4.429532794753168745e-01,3.062944255340298988e-03,5.671802904793006236e-03,8.179285038659019026e-04,5.656747147440910339e-02
-4.078496386362435722e-01,-4.097453470023758593e-01,-3.994463071998319847e-01,5.585414301693801369e-03,1.773979079788083873e-03,2.127205763486659813e-03,1.437868364155292511e-02
-4.077735261541464151e-01,-4.209165956770515860e-01,-3.885969995934711596e-01,5.563806061613118387e-03,4.817662828805018872e-03,4.083722449008737876e-03,3.170245513319969177e-02
-4.056667190945414392e-01,-3.966494564696826930e-01,-4.141221359674797653e-01,3.535752691044413178e-03,6.032327388071713307e-03,3.101888683989932963e-03,2.011433616280555725e-02
-4.043387359506768197e-01,-4.066522337071629134e-01,-4.062443741210615689e-01,8.168447199886603267e-04,8.312771523180239198e-04,1.352793171315074916e-07,2.941055921837687492e-03
-4.254714030109196798e-01,-4.078214196607840014e-01,-4.031015316552372663e-01,-4.217868947991127923e-03,-4.360301787235121296e-03,2.646167037072466675e-03,2.342049777507781982e-02
-3.992575186788487884e-01,-4.008740241561337125e-01,-4.164613434468922848e-01,5.954806435023054893e-04,1.026200994885995968e-03,3.121496437699638332e-03,1.744215749204158783e-02
-4.008434331757818603e-01,-4.030494144690484060e-01,-4.121909829770840084e-01,-8.931300878530150193e-04,1.424438211858804898e-03,1.071607522717656080e-03,1.097842864692211151e-02
-4.050303147667489445e-01,-4.051062108882818036e-01,-4.303727489287926256e-01,-5.278094478033001739e-03,-2.168526581282807526e-03,2.211236317141443419e-03,2.743487618863582611e-02
-4.170664826218539734e-01,-4.289370025825181010e-01,-3.958918986818077412e-01,-8.376272857755575479e-03,-2.068723110117719807e-03,1.056738631884658088e-03,3.266956284642219543e-02
-4.054095934553055280e-01,-4.049912713381205731e-01,-4.290358571152705913e-01,-4.616524918635264534e-03,-2.719380686785754543e-03,9.402355231612876058e-04,2.563265152275562286e-02
-3.485632159224530957e-01,-4.526005089958575200e-01,-4.433397075161887302e-01,-3.478137042475445105e-03,-6.215034782898594401e-03,-7.911810594817712469e-03,1.014199927449226379e-01
-3.994590340878353407e-01,-4.127280225793513169e-01,-4.040801189241980396e-01,2.472439982112431198e-03,2.628198288090927408e-03,4.708351950962385603e-03,1.554574724286794662e-02
-4.094242333818853274e-01,-4.060034327945117871e-01,-4.240656200123071318e-01,-5.825831707436368015e-04,-1.281360135759192784e-03,1.031649049838616241e-03,1.689065061509609222e-02
-4.104492403223753971e-01,-3.986496695930758505e-01,-4.324223451626861281e-01,-4.885102399637179793e-03,-5.950146371017413748e-03,-1.937667164455603229e-04,3.254594281315803528e-02
-4.114653962013695154e-01,-3.993670688127474167e-01,-4.288850163958849993e-01,-4.305858928409522085e-03,-5.846885327517778973e-03,1.608513037393500189e-03,2.874895371496677399e-02
-3.956933714985764183e-01,-4.290281341738007570e-01,-4.793053076176229110e-01,2.451119693293450294e-02,-1.814694719386057697e-01,-1.478344173216294688e-01,4.140965044498443604e-01
-4.248006858586613199e-01,-4.243997057876648382e-01,-3.912323659782186436e-01,2.354313616115482656e-03,-3.374894579739177915e-03,-4.488207995840698232e-03,3.499661013484001160e-02
-2.908515214238444058e-01,-3.386836557492116651e-01,-5.338205806906759499e-01,1.769766833767997261e-01,3.453997854732120121e-02,2.818985678705926423e-02,3.868144452571868896e-01
-3.868845224900736013e-01,-4.090745922096420406e-01,-4.294634020836350374e-01,1.649799933332805543e-02,-1.559020655464841282e-02,-1.410906395963115040e-02,5.918990075588226318e-02
-3.568867332476767795e-01,-4.451004365686987430e-01,-4.352033207463326669e-01,-3.495577271917440967e-03,5.586117411813799026e-03,-1.086858877178871127e-02,8.655171096324920654e-02
-4.221041835128658271e-01,-3.978448368123153611e-01,-4.208269732581109701e-01,6.505783746328214733e-03,-1.013860201175911628e-02,-1.061347082286954145e-02,3.650273382663726807e-02
-3.995851443560050065e-01,-4.213008991456603791e-01,-4.223580430433999111e-01,1.957000881413545421e-03,-1.317041177713511833e-02,-1.241797698627181146e-02,3.860227391123771667e-02
-4.305283450848743643e-01,-4.307964310699906596e-01,-3.756221580421915673e-01,-1.102869072097694032e-02,-3.154649581436062746e-03,2.174357306270626074e-03,5.863800644874572754e-02
-4.137990825421384300e-01,-4.301018315134192416e-01,-3.977275783512619345e-01,1.943561352827674962e-03,-8.870257784991600683e-03,-7.009737923879199098e-03,3.436376899480819702e-02
-3.973612210372588494e-01,-4.343688280513922084e-01,-4.075195841976365085e-01,1.421156501133323232e-03,-6.849819935751578701e-03,-4.310387212886555332e-03,3.604685887694358826e-02
-3.746032427476254645e-01,-4.252891118956519390e-01,-4.447909687730223771e-01,-6.250066043203289338e-03,-2.023195307369620409e-03,-1.066619710366293119e-02,6.639745086431503296e-02
-1.591387871484399308e-01,-5.748544682696434815e-01,-5.890205060155665473e-01,-8.021534253219127220e-02,-6.894082309705695799e-02,-8.188704254848756803e-02,4.822734892368316650e-01
-4.054745387934550194e-01,-4.275923920138192114e-01,-4.065991835918573161e-01,2.877854353222829460e-03,-2.898631565821897186e-03,-2.943870857924536875e-03,2.327318117022514343e-02
-4.102113833822524924e-01,-4.206010023431808742e-01,-4.071257215704169319e-01,4.136530200695559371e-03,-4.127929067283286381e-03,-4.153768822064092536e-03,1.742807403206825256e-02
-4.091662065053706110e-01,-4.292284161226273542e-01,-4.045545055981711324e-01,-8.847253158491047344e-04,-2.826249066280591121e-03,-2.725776911173813117e-03,2.376724220812320709e-02
-3.976536531501465577e-01,-4.304662504003044510e-01,-4.108992953702282902e-01,2.665310846961214432e-03,-5.092959866230839863e-03,-5.824455783542588534e-03,3.191220387816429138e-02
-4.266339447058590806e-01,-4.074308305839797750e-01,-3.797837076146374780e-01,1.037130841533897077e-02,5.690163578619272973e-03,6.190560866272848059e-03,4.689167439937591553e-02
-4.259050908149512038e-01,-4.448957799210663810e-01,-3.727219607939979418e-01,-7.153532325035545127e-03,-7.252460807330034925e-03,-1.923932863406870031e-03,6.724205613136291504e-02
-4.211471779987742692e-01,-4.098353213387133098e-01,-3.874008533034100088e-01,1.247437585489196386e-02,8.624634575657420116e-03,1.210520083809913348e-02,4.488462582230567932e-02
-4.346048420194234541e-01,-3.953917049283770524e-01,-4.116097094093607023e-01,-1.050109791316881621e-03,-1.449267487732337767e-03,-3.266257263597452300e-03,3.473254293203353882e-02
-4.172647187686931991e-01,-4.329460346649256497e-01,-3.693417568982230725e-01,9.274375308375880020e-03,6.419407616157850674e-03,4.747704677049237147e-03,6.118251010775566101e-02
-4.588814804242127288e-01,-4.357588742365865464e-01,-3.335661664329505616e-01,-6.693613117794779306e-03,2.331421991320241360e-03,9.970256775162769300e-03,1.174304261803627014e-01
-4.219327188223960245e-01,-3.999087710668844386e-01,-3.943492343164120006e-01,6.110782471338184994e-03,2.715112694756671458e-03,2.949633874292276279e-03,2.826034650206565857e-02
-4.094634151616269313e-01,-4.107635715903745210e-01,-3.987368636300194780e-01,3.570010861286065668e-03,1.400870666428150968e-03,1.850695975735033643e-03,1.360488869249820709e-02
-4.259072332675647998e-01,-4.037170673788655351e-01,-3.876119665408672699e-01,7.302293297534875709e-03,2.411285791314372959e-03,2.288427273768789752e-03,3.608706966042518616e-02
-3.983713827471510593e-01,-4.220582462413314251e-01,-3.936797992381562139e-01,6.194336811127320631e-03,4.184380749024690926e-03,3.652975706163825911e-03,3.003126010298728943e-02
-4.163045537040298005e-01,-4.004718449601964436e-01,-3.993545706486579250e-01,6.911646595663797389e-03,6.265335153544319101e-03,6.538889852300704825e-03,2.567020803689956665e-02
-3.447205996206234024e-01,-4.209405960698359705e-01,-4.565519695152830959e-01,1.531500223558577602e-02,2.275398205120935519e-03,4.594041376265380928e-03,1.028321534395217896e-01
-4.032765503063444612e-01,-4.330650508960624534e-01,-3.831199982620852595e-01,5.533798724584685150e-03,3.935976135758773899e-03,2.378690897467249099e-03,4.527023062109947205e-02
-3.974305938101734825e-01,-3.833146207782280324e-01,-4.470875441984540899e-01,2.066065159975682269e-02,3.808418833725474555e-03,1.899251034363204143e-03,6.856348365545272827e-02
-4.034332367435197186e-01,-3.902166648467100818e-01,-4.220696918030187317e-01,2.423779477679196583e-03,6.766223396248164518e-03,2.544134489564235917e-03,3.070329874753952026e-02
-3.749017458001464576e-01,-3.991453497229198732e-01,-4.533106533145829786e-01,2.208909430567615115e-02,3.327933307181744384e-03,2.179824349155841737e-03,7.966215908527374268e-02
-3.981919754029623615e-01,-3.844205432970920766e-01,-4.392676101718508419e-01,1.936651634281825367e-03,3.047540644783741648e-03,-2.187740615700071523e-04,4.981755092740058899e-02
-3.868973557346215286e-01,-4.460918991931801525e-01,-3.937964791505259576e-01,-3.318501122940539869e-03,5.135120714979279737e-03,-3.301397912175897936e-03,5.734147503972053528e-02
-3.696385187241498782e-01,-4.023734598538596385e-01,-4.487313944126162801e-01,8.218770243137300466e-03,6.677265770120527419e-06,-8.029688523477430994e-04,7.030460983514785767e-02
-3.667806109101687806e-01,-4.005567063140275663e-01,-4.492307452527146139e-01,1.276406877527075379e-02,4.280623505222728130e-03,4.754972521804203683e-03,7.593135535717010498e-02
-3.914104707675845618e-01,-3.586240230802645312e-01,-4.606885947305734974e-01,4.218584341242025137e-02,-1.654853141472642378e-03,-1.308474304194237516e-03,1.161812469363212585e-01
-4.006340611427204323e-01,-3.746552419269681411e-01,-4.508210202036862513e-01,2.260478286298207504e-02,2.574242431411909691e-03,6.387075555716274951e-03,7.856602966785430908e-02
-4.053175220896023112e-01,-3.740704736477769576e-01,-4.486766693406939455e-01,1.276171006689165444e-02,-1.128231476229117278e-02,1.261468129856135141e-03,7.131948322057723999e-02
-5.782734010401333613e-01,-5.679295220246526332e-01,-1.897150356758859346e-01,-5.671062483076087790e-02,-8.899045045251433028e-02,-5.691870663084720727e-02,4.361087083816528320e-01
-3.820410405940750653e-01,-3.834639808860274557e-01,-4.502286367556323499e-01,1.944915312991899944e-02,4.652319185743218795e-03,3.524707112242986794e-03,7.610228657722473145e-02
-3.847648562818803963e-01,-3.944539307934062933e-01,-4.388743037692600657e-01,5.285506904894820245e-03,2.956554968385489979e-03,5.788450653859958037e-03,5.203836783766746521e-02
-3.935295441451994725e-01,-4.314892348145073497e-01,-3.918955772169230856e-01,6.081735590838078555e-03,3.825651221879449067e-03,3.568646797646480087e-03,4.121538251638412476e-02
-4.192011794988115825e-01,-4.219824859570218689e-01,-3.755478095359729429e-01,1.308317454371586003e-02,1.653340119794862936e-02,1.604308514453049034e-02,6.434652954339981079e-02
-4.050581189080903477e-01,-4.198459069866450899e-01,-3.896222887650575561e-01,8.450854733619278872e-03,4.406696626814842963e-03,3.854060227646545142e-03,3.165871649980545044e-02
-4.350480124491085121e-01,-4.229570304177240336e-01,-3.872048377229796445e-01,-2.260701226679776455e-03,-3.352666128923893502e-03,-5.740892989850242614e-03,4.477295279502868652e-02
-3.996284396284648932e-01,-3.795252556395208310e-01,-4.475287163592547302e-01,8.212804803148182273e-03,-2.627718513196921832e-03,-6.730092539271464742e-04,6.233736127614974976e-02
-3.747110602577068406e-01,-3.993065234177727296e-01,-4.481601958484181525e-01,1.141952577627078358e-02,-1.029895037350074495e-03,-3.026927150756985999e-04,6.773382425308227539e-02
-4.409675387732431839e-01,-4.131961397058317997e-01,-3.680366508650852464e-01,7.424336490444828976e-03,2.170933339463104218e-03,4.836581820600410059e-03,6.568448245525360107e-02
-3.675877339829721202e-01,-4.012477499371294720e-01,-4.479646499377739621e-01,1.047784347421509311e-02,3.721737434520488736e-03,5.057422264599538246e-03,7.304518669843673706e-02
-4.882005172492008827e-01,-2.864383655859177313e-01,-4.685695383685917204e-01,9.855436787865412204e-03,-8.028419777675072089e-03,-4.365233583421190312e-03,1.940991282463073730e-01
-3.966241942312446755e-01,-4.230534703222132986e-01,-3.994420010525273068e-01,5.990204615138344617e-03,5.299844500061323682e-03,5.507112978167512038e-03,3.024684637784957886e-02
-3.966267222210817511e-01,-4.286546246352075373e-01,-3.938918141999082634e-01,5.535302634131241198e-03,5.725740971285091414e-03,6.069504800343278501e-03,3.770473971962928772e-02
-4.013377769814818197e-01,-4.157741666809385839e-01,-3.999097943830667856e-01,2.507860518553768712e-03,5.832384316604159909e-04,3.063939666966380678e-04,1.585035026073455811e-02
-4.074993195051687667e-01,-4.288534233088316383e-01,-4.033383295308710093e-01,-1.723872502565174797e-03,2.188673994737104890e-04,5.204742424276765029e-04,2.391730248928070068e-02
-3.946960869895761448e-01,-4.216124892816162095e-01,-3.996016951981201659e-01,2.482288097271424018e-03,1.375356454204040586e-03,4.750054173323766879e-03,2.661513723433017731e-02
-3.975003318100631677e-01,-4.185520125927331136e-01,-4.002508819322018185e-01,5.005012158252106387e-03,5.105811422019922510e-03,6.640694720067327750e-03,2.604783885180950165e-02
-4.379746372010896449e-01,-4.783766167088350230e-01,-2.986786185328993426e-01,2.111058215117817688e-02,4.514886583463093711e-02,3.489735662066555111e-02,1.943431049585342407e-01
-3.933001968727103947e-01,-4.374589822218626911e-01,-4.129831411038785705e-01,-2.146544920152297468e-03,-2.334097630451267835e-03,-3.276582645250534099e-03,3.912309557199478149e-02
-4.530936293662580217e-01,-4.175496367821172061e-01,-3.443052194015289169e-01,7.746975388460062423e-03,7.074998613109935962e-03,2.018272547013569285e-02,1.038448810577392578e-01
-3.886648089457904187e-01,-4.417021199397335174e-01,-3.911515617963253200e-01,5.223244257827295038e-04,1.188061611120058442e-03,1.171135469533922824e-03,5.192703753709793091e-02
-3.893534983575162034e-01,-4.413692944187700973e-01,-3.902417277380428318e-01,-3.190508715274629125e-04,7.667695895491238650e-04,1.722117190824154010e-03,5.168361589312553406e-02
-4.487944244336835031e-01,-4.448691847718322379e-01,-3.286997512005810917e-01,2.903367454126209307e-03,1.684381467182580888e-02,1.813913878996514448e-02,1.258183419704437256e-01
-4.166293344786455299e-01,-4.392837183871377005e-01,-3.691939076372178219e-01,5.514146630429595831e-03,1.708339311029934832e-02,9.567754874096712908e-03,7.126943022012710571e-02
-3.968433913746852171e-01,-4.290235008568422659e-01,-4.112820927459674425e-01,-1.052345323673029021e-02,8.921270462238358942e-03,-1.315428801296154339e-02,4.323770105838775635e-02
-4.138441571111792228e-01,-4.965944073683367654e-01,-2.793169099558066026e-01,-4.546226229731502311e-02,1.065524043466681559e-01,-7.497734105441258845e-02,3.052914142608642578e-01
-4.378739183011836622e-01,-4.373948663216016830e-01,-3.410892036830946994e-01,1.161869010893468168e-02,1.271198651812234862e-02,1.053401790086687904e-02,1.026830449700355530e-01
-4.491722682360262398e-01,-4.469729111567573021e-01,-3.362313615611394746e-01,-8.929401548451471743e-03,-2.080490163257154267e-03,6.486116128819796947e-03,1.135362759232521057e-01
-3.609311170244677291e-01,-4.497468440333238782e-01,-4.334110977513879193e-01,-2.126016285485309368e-02,1.409365751922265347e-02,-1.527455365956813943e-02,9.672658145427703857e-02
-3.565580956862998696e-01,-5.693751578892447540e-01,-3.127747452413112694e-01,-1.968816001886658507e-02,1.357093507007948174e-01,-8.072570153166597207e-02,3.639914691448211670e-01
-4.106666574774297529e-01,-4.527056304573268686e-01,-3.714425671890819181e-01,-1.239330629285603606e-02,5.987339730523952991e-02,-4.403043922658483184e-02,1.482768952846527100e-01
-4.118089302162376564e-01,-5.903509043252291866e-01,-2.910949214310694089e-01,-9.174555997461850132e-02,1.483185413753525528e-01,-6.855382705622639627e-02,4.163501262664794922e-01
-4.086826061203435168e-01,-4.146681919469019650e-01,-4.079488864027874806e-01,-1.911502250279914147e-02,1.537430178536615052e-02,-1.849844334288143835e-02,5.359658971428871155e-02
-3.970610374452367974e-01,-4.165621632094646531e-01,-4.287377417931886314e-01,-2.000145736035788789e-03,6.884560741065273888e-04,-8.396204479589735106e-03,3.147838264703750610e-02
-4.122206666330771041e-01,-4.451705442089744502e-01,-3.665508155341359320e-01,-1.125414712805650544e-02,1.710571569280945267e-02,-8.382011762103264152e-03,7.838880270719528198e-02
-4.158034011696821741e-01,-4.341573311918963674e-01,-3.694116038406098923e-01,9.463033953496709574e-03,6.772893853204320011e-03,4.481724971015324001e-03,6.170136481523513794e-02
-4.152366621679003389e-01,-4.457640782332736307e-01,-3.600578542333562337e-01,4.720820161709994058e-03,8.337481906115516705e-03,3.880359083963360028e-03,7.734119892120361328e-02
-4.497856935126356981e-01,-3.689643737496923204e-01,-4.016242034422732310e-01,2.212473774732229715e-03,-1.727738586987855604e-03,1.343675143168276444e-02,7.432643324136734009e-02
-3.308429916140306903e-01,-4.380725095570495164e-01,-4.413003160591276730e-01,4.488896070509231645e-02,4.214397862094824282e-02,1.443409295776773051e-02,1.544446051120758057e-01
-2.952989177145613486e-01,-4.702828284833348582e-01,-4.599754086408436859e-01,2.599574824493790931e-02,2.446090126697541764e-02,-4.619743460967992016e-03,1.811307519674301147e-01
-4.347007104821833390e-01,-3.871957970100688429e-01,-4.095524325069089810e-01,-4.364389608207931703e-03,-8.414679411627816463e-03,3.192074094599279405e-03,4.466114938259124756e-02
-4.309991493106852256e-01,-4.100281317523907232e-01,-3.922156781966852912e-01,-8.559724907796358376e-03,-1.830653779145747714e-03,2.331055171882287762e-03,3.710490837693214417e-02
-3.727152616487348635e-01,-4.485926588421227934e-01,-4.027564037501033534e-01,4.046022754813229203e-04,5.743566817339859285e-03,-3.361246681541911908e-03,6.718450039625167847e-02
-4.210475378057810802e-01,-4.113583201378921972e-01,-4.062245942606632076e-01,-2.123378751864216703e-03,1.441649457245484239e-03,-1.010600034439286879e-03,1.388535462319850922e-02
-3.855364773828208746e-01,-4.226506295050456719e-01,-4.250746965159412083e-01,-1.254120030180862211e-02,1.222230474547704969e-02,-1.041308957938825129e-02,5.214019864797592163e-02
-3.121034301866171257e-01,-4.549416641470504508e-01,-4.557832710170625079e-01,9.561314944369781604e-03,1.167827728980641577e-02,5.514522982540299311e-05,1.456265598535537720e-01
-3.025599716607826339e-01,-4.674184850352916532e-01,-4.438638282512654132e-01,3.033352640996453409e-02,3.201677657426952456e-02,7.125111276012772478e-03,1.727363765239715576e-01
-3.923437029849021207e-01,-4.337960555399709150e-01,-3.912677201601615362e-01,3.155618585076608047e-03,1.469962718450355419e-03,1.875588113297232571e-03,4.255545884370803833e-02
-3.153950493393127830e-01,-4.522853364138645915e-01,-4.459376361477219164e-01,1.448801115787917877e-02,2.132675758207203121e-02,9.126854716928789121e-03,1.419662088155746460e-01
-4.244128755805047781e-01,-4.305339897555032769e-01,-4.120738158830967168e-01,-5.324916282079193708e-02,3.559847353337890208e-02,-6.260815584100980213e-02,1.559896320104598999e-01
-4.052035478738361673e-01,-4.213543431756436863e-01,-4.089515658464728531e-01,-1.135332644184541395e-03,8.389056503740078283e-04,-3.454125331513318263e-03,1.600417308509349823e-02
-3.988063108693306047e-01,-4.411482643543239157e-01,-3.815302079658171031e-01,5.700436036380852022e-03,3.063144587997951394e-03,1.144913024223542884e-03,5.433575809001922607e-02
-4.002105904929614266e-01,-4.336059161420072749e-01,-3.838097478568406884e-01,7.454897854494060838e-03,3.897429073929975420e-03,2.376040630889055243e-03,4.648849368095397949e-02
-3.987683626962020833e-01,-4.433218640200733418e-01,-3.795143760613350903e-01,4.090599817159932920e-03,4.855293409274062666e-03,1.482621952753103347e-03,5.780205875635147095e-02
-3.912158671692128609e-01,-4.312309351985601502e-01,-4.114403834957307549e-01,-2.122359388689792035e-03,5.492118819049702887e-03,-8.470580065300714612e-03,3.898983076214790344e-02
-4.345306904778290513e-01,-3.915046976288468761e-01,-4.058640608743003253e-01,-3.042222437464300704e-03,-7.096667618140273422e-03,2.712436608324576403e-03,4.050341993570327759e-02
-3.857676011247468395e-01,-4.438853318965326755e-01,-4.015806151691033166e-01,-9.063550541658766529e-03,1.291447857038361020e-02,-5.935821078243626835e-03,5.967581272125244141e-02
-4.087407599321187246e-01,-4.260805292341628414e-01,-4.079505350834298771e-01,-1.223963107488297911e-02,1.108634101605521227e-02,-1.281351850908583195e-02,4.031996801495552063e-02
-4.061231790774328387e-01,-4.281399836724547048e-01,-4.061253994740975370e-01,4.769016323912465805e-04,-1.437044856673891065e-03,-1.119306203090027034e-03,2.225594222545623779e-02
-3.609395781776491563e-01,-4.123295333775281457e-01,-4.552290501071181161e-01,8.842008170811306231e-03,3.188859209199090827e-03,-2.228960270271388485e-03,8.346169441938400269e-02
-3.972896210471962286e-01,-4.351535724786916859e-01,-3.992672548448741865e-01,-1.391671038837456395e-03,9.447297980574246700e-04,-3.014276322629899554e-03,3.739591315388679504e-02
-3.990601323238951448e-01,-4.311019147158203224e-01,-4.018835418687655703e-01,-4.056833121475474460e-04,-1.051247982050745140e-03,-9.538484948136625704e-04,3.083373047411441803e-02
-4.055400285269620264e-01,-4.296465527898835624e-01,-4.005117305770199976e-01,-4.263705015033217305e-03,2.784069689997668504e-04,-9.756020944888217162e-04,2.802228741347789764e-02
-4.334501573584581546e-01,-4.751695754235901736e-01,-3.372637312922158737e-01,-3.758300579846260425e-02,2.520056914343376392e-02,-4.379940686546013318e-02,1.640213280916213989e-01
-4.395255080297669759e-01,-4.371841230522250932e-01,-3.572907109364175660e-01,-1.876000460065637560e-02,2.768491368027431107e-03,-1.755634844823244708e-02,9.262280166149139404e-02
-4.782954774011100030e-01,-4.905657970978519744e-01,-2.093043960702224149e-01,-3.716377582817351199e-02,6.018149266078878790e-02,-7.182873997038226321e-02,3.260281383991241455e-01
-4.802851833871918386e-01,-3.918653907186372964e-01,-3.657996838799797423e-01,-6.979696738480609119e-02,2.664100432516116473e-02,-9.731556409228597770e-02,2.365528345108032227e-01
-4.721671132630871348e-01,-4.166543080648963393e-01,-3.705165549460948671e-01,-3.160593140137906570e-02,-1.128765467162138811e-02,-8.694294369875085748e-02,1.839235275983810425e-01
-4.143574191751042135e-01,-4.099240877234307523e-01,-4.146195210041522250e-01,4.561847067202397786e-04,-1.367219631374106022e-03,-7.580671209275887616e-04,5.370408762246370316e-03
-4.492779208690509396e-01,-4.503248757042184747e-01,-3.352596840929713551e-01,-1.154125918356125290e-02,-2.226132966301329341e-03,5.870420784311778176e-03,1.167839094996452332e-01
-4.438077036953948507e-01,-4.244799189940978157e-01,-3.638647702401647255e-01,-1.241702125150916276e-02,-1.460771529979854391e-02,2.537852804419768807e-02,9.085278213024139404e-02
-4.420457711866676576e-01,-4.015919803951178979e-01,-3.932018470824114598e-01,-2.668104069841137349e-02,-3.281420679476849955e-02,3.399563221170730926e-02,1.043042466044425964e-01
-4.578103089924743241e-01,-4.381406431551173042e-01,-3.612144358690725365e-01,-5.905169837710348008e-02,-6.242951748845396165e-02,1.343243018385392729e-02,1.746785193681716919e-01
-4.004097853341662128e-01,-4.378668622762061924e-01,-4.121124569400833049e-01,-1.393663625244874298e-02,-1.924554461534242616e-02,-2.619360539284684556e-04,5.287443101406097412e-02
-4.376904119170861307e-01,-3.927415665360712849e-01,-4.134831988345005760e-01,9.876966952808300185e-04,-5.787378268336848541e-03,-3.536658104063434335e-03,4.073368757963180542e-02
-4.272474336575566856e-01,-4.393428506561704583e-01,-3.732729179557524035e-01,-6.877883361536194645e-03,-5.544326284751471129e-03,2.433077188307847683e-03,6.296257674694061279e-02
-3.920375749914337682e-01,-4.185046332321565865e-01,-4.324801775513092972e-01,-1.439299676634690252e-02,1.586059221168937888e-03,-1.201514835877648575e-02,4.824754595756530762e-02
-4.059929439992547850e-01,-4.087713285705715238e-01,-4.250450379675675405e-01,-8.629181040108145628e-04,1.032151844587044214e-03,-1.743152811115618230e-03,1.822946220636367798e-02
-3.981262883115475049e-01,-4.073779910684452443e-01,-4.322994793189031681e-01,-1.104633822197726746e-02,4.482065028632672109e-03,-8.662815330775173669e-03,3.985856845974922180e-02
-4.046660718119053368e-01,-4.053443973758394936e-01,-4.296317578183890262e-01,-3.530738297608350135e-03,1.298893401159890862e-03,-2.154936612517204149e-03,2.575270272791385651e-02
-4.133226389033842763e-01,-3.943995939225563574e-01,-4.323074101306991768e-01,-7.465456541082264585e-03,1.193808464522927481e-03,-3.095733540706848471e-03,3.574882075190544128e-02
-4.589187793888799272e-01,-4.526686317525684400e-01,-3.170898403985099034e-01,-6.947258966398880617e-03,1.774899125782656347e-03,6.368251371788063997e-03,1.397997438907623291e-01
-4.528662025429059934e-01,-4.392390149962694945e-01,-3.639273913226504509e-01,-1.351354571337291463e-02,-2.699987249401308506e-02,-6.761193928527338762e-03,9.877143055200576782e-02
-5.811427795551359354e-01,-4.100267652041242328e-01,-3.535353947034792776e-01,-8.257125227285676272e-02,-6.742168304343476581e-02,-2.381705944567650002e-01,4.963923096656799316e-01
-4.555606832780984550e-01,-4.357109123278165019e-01,-3.345086984444228251e-01,-4.154721255154443689e-03,3.196665698029935946e-03,1.015007751760842354e-02,1.141764223575592041e-01
-4.020283664835039850e-01,-4.075073218887046433e-01,-4.262477904835593745e-01,1.614297371885791907e-03,-2.018017598363485918e-03,-4.340158131446414727e-03,2.367378957569599152e-02
-4.042397707433039167e-01,-4.038927967806812958e-01,-4.267350312975470850e-01,3.976707392281619521e-04,-2.667761859499944137e-03,-1.807715707826190125e-03,2.335789427161216736e-02
-4.012926345967046116e-01,-3.941989413221080873e-01,-4.360110818520024356e-01,3.415421999141707386e-03,-5.979686744618498487e-03,-3.251667461968322289e-03,4.093847051262855530e-02
-3.986569335989387786e-01,-3.970248270069631769e-01,-4.359219151909526913e-01,6.547961969219091415e-04,-3.050851603828275398e-03,-2.340371387483047329e-03,3.870147839188575745e-02
-4.046693983310292730e-01,-3.991348815223397239e-01,-4.299292720146972169e-01,2.671376533502611058e-03,-3.985781084532627732e-04,-6.090724444194644442e-04,2.883559465408325195e-02
-4.447664946836362154e-01,-3.452662568713750213e-01,-4.223289343524717632e-01,2.082758141655332434e-02,8.729510797883179019e-03,3.339363269462973516e-02,1.142216324806213379e-01
-4.442984712581116158e-01,-4.288410356758876052e-01,-3.675436491711104314e-01,-1.143479077581095217e-02,1.576755571432397708e-03,-5.482088250184007604e-03,7.371352612972259521e-02
-4.526245187534501668e-01,-4.490172359724793893e-01,-3.328929348382237419e-01,-9.622107352348035700e-03,6.028727797376347676e-04,-1.836494335629197758e-03,1.191877573728561401e-01
-4.137604362190052121e-01,-4.492836481413814420e-01,-3.594976789242292914e-01,3.170826329953425112e-03,8.531168510290081455e-03,3.071070907779920207e-03,8.006704598665237427e-02
-4.331521709062041703e-01,-3.976161438606417575e-01,-4.113969530865415059e-01,-3.171225497433904569e-03,-6.287482873018531435e-04,-2.854141589503060225e-03,3.191863372921943665e-02
-3.904770471556646139e-01,-4.444445610568728000e-01,-3.835231749924419842e-01,2.421674096655543340e-03,5.442301003458884304e-03,2.293205076476365154e-03,5.880780518054962158e-02
-4.547898083551010773e-01,-3.203915543570142743e-01,-4.477258495710150776e-01,7.264752527034493493e-03,1.544432231725100576e-03,1.402528347827979374e-02,1.338619291782379150e-01
-4.411584474448469462e-01,-3.487093258594293199e-01,-4.246497374846786022e-01,6.481817291584765842e-03,9.443586432184025020e-03,1.331257998482191993e-02,9.065551310777664185e-02
-4.279055079677099305e-01,-3.957261973535498578e-01,-4.142964065905102022e-01,-6.960686449464193078e-03,5.259137110805437408e-03,-4.696076659567535554e-03,3.282183036208152771e-02
-4.368080584657464960e-01,-3.256140731364455809e-01,-4.452345742276699880e-01,3.671953580270903572e-02,1.493440799979253546e-02,3.296407672348770218e-02,1.461029052734375000e-01
-4.156316316453214088e-01,-3.707268778683431298e-01,-4.338262889052136861e-01,5.448709805112005207e-03,9.032194589476951960e-03,4.626517812917288301e-03,5.968693271279335022e-02
-3.898100358017627109e-01,-4.158669842338381661e-01,-4.355901271475233760e-01,-1.938611161002381719e-02,6.605107849615049140e-03,-1.063402650650947107e-02,5.638692900538444519e-02
-4.042195423090080841e-01,-4.258211798882396426e-01,-4.080946905169815508e-01,-1.808482092533265223e-02,-1.881141238931167275e-02,1.724175075109418004e-02,5.772834643721580505e-02
-4.229611550345904192e-01,-4.115477322596683418e-01,-4.058873747287777278e-01,-1.287441419425613617e-02,-9.619229218816334817e-03,2.570787691825629495e-03,3.196211904287338257e-02
-3.905353580828212490e-01,-4.433951820668692312e-01,-3.874542311008362105e-01,9.465791839041397650e-04,2.040578329422764164e-03,1.009424667186535922e-03,5.463294684886932373e-02
-3.993347168658945012e-01,-4.261631224661263095e-01,-4.122282575527527748e-01,-5.049675977132630014e-03,-6.136560432769136604e-03,4.637421230129990662e-03,2.817943319678306580e-02
-4.971056701280727186e-01,-4.678987099022043905e-01,-2.257458061600218502e-01,3.465849247638650484e-03,4.669856534740846055e-02,9.202715050310038281e-02,3.139250278472900391e-01
-3.948791837259009174e-01,-4.247015526476637937e-01,-4.224737850626072988e-01,-5.319389234166391027e-03,-5.014868256427965250e-03,3.166181997529314909e-03,3.191093727946281433e-02
-3.813409705696963470e-01,-4.278462292712920667e-01,-4.244716092833967780e-01,-8.068224204475915942e-03,-1.496632719248341091e-02,6.305391964032612019e-03,5.480625107884407043e-02
-3.951629518017085729e-01,-4.449058055448204541e-01,-3.880055721155931114e-01,-3.564958551467821944e-03,2.911923787073883354e-03,4.020017921285411210e-04,5.427391082048416138e-02
-4.148812936370033788e-01,-4.043127277084525573e-01,-4.220439871540064836e-01,-1.134063340031373109e-02,-9.229862284226739502e-03,4.886354608677393081e-03,3.085009753704071045e-02
-4.152631592340606526e-01,-4.076029231483070392e-01,-4.140533753095905212e-01,-6.371201151570586758e-03,5.048621100383555299e-03,-5.213998424069108892e-03,1.818447746336460114e-02
-3.989125327642246144e-01,-4.123137075733722123e-01,-4.344282211885017175e-01,-1.108319645207198403e-02,-1.130788616362990787e-02,-3.953094963895470264e-03,4.200001433491706848e-02
-3.993976486092651879e-01,-4.449428399469497752e-01,-3.789005994343298545e-01,2.375929161481143709e-03,4.920152359292177292e-03,1.594660331632843497e-03,5.937359109520912170e-02
-3.927294813604143009e-01,-4.399408730511469301e-01,-3.856713542380623139e-01,4.438246002654150195e-03,4.507521980155556988e-03,2.564938760388278064e-03,5.245703831315040588e-02
-3.982318839763551166e-01,-4.138332723075163200e-01,-4.041256845451786095e-01,7.458549620690589285e-03,5.315652685632445487e-03,6.909688437455553320e-03,2.410556934773921967e-02
-4.334248712203161435e-01,-4.101916950166533682e-01,-4.110612881299372523e-01,3.774497601145587657e-03,-1.953231076115497650e-02,-3.097034850419494098e-02,6.771332770586013794e-02
-4.171586956008428992e-01,-3.991166297922582595e-01,-4.249994117267312799e-01,-3.453691348652387222e-02,-4.143974629303016216e-02,3.449853116920830604e-02,1.132654175162315369e-01
-4.147379777529986433e-01,-4.087804713302231607e-01,-4.143594382866461201e-01,3.466587105586558192e-04,-1.475280192121453332e-03,3.224822199465436374e-04,6.370390765368938446e-03
-4.135028890666195833e-01,-4.022488656557887121e-01,-4.229719178515951583e-01,-5.397594319102576310e-03,-6.335619101100743895e-03,5.646790278424415957e-03,2.502720989286899567e-02
-4.095876481085091725e-01,-4.057381357899363938e-01,-4.250199276298494699e-01,-1.067314551500644394e-03,-1.517583203303414984e-03,1.287092964097161360e-03,1.810185797512531281e-02
-3.906693355813714574e-01,-4.183001516467520497e-01,-4.294824617331878813e-01,1.810134620921834267e-03,-2.464353845133381536e-03,-8.821107771496321595e-03,3.819642961025238037e-02
-4.145385358481825655e-01,-4.034580129108222279e-01,-4.207703802951355265e-01,-2.297871139219482238e-03,-5.465941881697284829e-03,1.614950755569242351e-03,1.854616776108741760e-02
-3.997199356537870507e-01,-4.398508015494894119e-01,-3.909143753360836415e-01,-4.951741595522068246e-03,6.128619996070834401e-03,-2.952039843231481220e-04,4.720063135027885437e-02
-4.047070100434142503e-01,-3.854483125856401071e-01,-4.424052382582326914e-01,1.830458084082780537e-03,-6.854802883456413178e-03,-1.355074220364991611e-03,5.171651393175125122e-02
-3.248719564700450202e-01,-3.290807828253423661e-01,-6.097617559167782808e-01,1.897876762741374512e-01,-4.327329595987335423e-03,-1.844810895519424787e-02,4.348748326301574707e-01
-3.945760993918838166e-01,-4.355557057545789146e-01,-4.017126208202410620e-01,-5.867473221071280859e-03,6.528770382608284177e-03,-5.680510678965711505e-03,4.202103242278099060e-02
-4.101029096661941153e-01,-3.943861061920247435e-01,-4.305040795480639115e-01,4.589370723749682424e-04,-8.030641144183552071e-03,-1.202033280971223639e-03,3.438469022512435913e-02
-3.841274938274784612e-01,-3.921016064762758990e-01,-4.430463039188560215e-01,5.550995129426530665e-03,2.138471174306658812e-03,2.821888564946404589e-03,5.652642250061035156e-02
-4.011212587598872448e-01,-3.869824400279527898e-01,-4.403837629128685149e-01,3.103964291480812432e-03,-2.564114026021393090e-03,-4.796323672841639298e-04,4.843442887067794800e-02
-3.832048915647717213e-01,-4.491272254059882063e-01,-4.028650275712652995e-01,-6.011248533708934971e-03,1.557770885473834174e-02,-7.619057442700664581e-03,6.668420881032943726e-02
-4.533850817969686808e-01,-4.554394374795307510e-01,-3.150723819082927868e-01,-1.940803350671457860e-03,8.392801585390335245e-03,9.225907119541855786e-03,1.410557925701141357e-01
-3.804781490395715005e-01,-4.433514878571380713e-01,-4.038992989904918729e-01,-1.331479629220785063e-03,7.051220788961407027e-03,-6.517761985681647802e-03,5.754096433520317078e-02
-4.235281827583988745e-01,-4.348263231826471342e-01,-3.869877099087897787e-01,-1.801420980423888317e-03,-7.274103476108306071e-03,-2.199771184960777701e-03,4.537271708250045776e-02
-3.864009565674600966e-01,-4.395826326237703419e-01,-4.043593473292330653e-01,-8.419089067320700490e-03,1.152582710513014308e-02,-5.763068117641261846e-03,5.391246080398559570e-02
-4.548985344265659703e-01,-4.577740247652274386e-01,-3.144750240163216026e-01,-6.872954325968439436e-03,7.612556902687524912e-03,1.217657348193984307e-03,1.430063992738723755e-01
-5.782163160267136393e-01,-4.836767494178775828e-01,-2.141886843147920438e-01,-5.736261806916924388e-02,-3.711088766730707977e-02,-8.056861277028640189e-02,3.748543858528137207e-01
-4.071179623543955128e-01,-4.073298639470764870e-01,-4.220359931717164170e-01,2.703444808543181786e-03,-4.609098527720512095e-03,-4.588936493976917587e-03,1.919019594788551331e-02
-4.384469808070690089e-01,-4.227008200072712163e-01,-3.847793271721812736e-01,-2.797337703623197901e-03,-4.585830099725615727e-03,-5.474434395957980190e-03,4.959407448768615723e-02
-4.256999326498542291e-01,-4.396385348097894274e-01,-3.742349419952918366e-01,-2.981385837026076947e-03,-6.959197009534479408e-03,-7.703250234070257562e-04,6.110660731792449951e-02
-4.027929366769326669e-01,-4.073769217524312869e-01,-4.260788316015308164e-01,3.218923581629287104e-03,-4.276011894898627992e-03,-4.310620614045131832e-03,2.445782534778118134e-02
-4.077812648633367676e-01,-4.076751316524482860e-01,-4.194881835645993817e-01,2.389097750242576146e-03,-1.555579091525187245e-03,-2.994875173952844024e-03,1.376940030604600906e-02
-4.109412093119294562e-01,-4.069888650699577948e-01,-4.188209753008250158e-01,1.983079277528593861e-03,-2.594685242872901264e-03,-2.982900969299012283e-03,1.294385455548763275e-02
-4.467468274612760859e-01,-4.532178605331951826e-01,-3.391413669696354272e-01,-9.575604498963212474e-03,-4.374462789257985325e-03,-2.844456073022776039e-05,1.124705076217651367e-01
-4.050389569971308279e-01,-4.078489302769321423e-01,-4.218747622901744543e-01,1.673267944305739273e-03,-1.088762409290463347e-03,-3.940417317083565012e-03,1.739449612796306610e-02
-4.005619239421466249e-01,-4.107754217957845233e-01,-4.237124260889177929e-01,8.520405839750232668e-04,-2.356103307059135080e-03,-5.815179647995603537e-03,2.289310470223426819e-02
-4.024672649364706700e-01,-4.267715809574816888e-01,-4.139774376654888344e-01,-9.075029934288490405e-03,-1.795993341032094473e-02,3.067774123362891625e-03,4.106600582599639893e-02
-4.397147690966564659e-01,-4.237762983242269743e-01,-3.783834780432376865e-01,-2.380080199962890039e-02,-2.528780917888705931e-02,1.331281643518338921e-02,8.477961272001266479e-02
-3.787203793330137791e-01,-4.628559264981802479e-01,-4.229796245346060801e-01,-2.218459318043741052e-02,-5.381217451048023181e-02,-7.390643660790253804e-03,1.250658929347991943e-01
-4.204359118461106770e-01,-4.179601102698117798e-01,-3.999732072746436939e-01,-6.791016599821981560e-03,8.849554869641371863e-04,-1.609459051539847410e-03,2.286185696721076965e-02
-3.809862597149512031e-01,-4.812738991781451148e-01,-3.623356889105661671e-01,-6.345420983249655533e-02,-1.148449264854052437e-01,1.723244514455735468e-02,2.545861899852752686e-01
-4.143645057570960466e-01,-4.518660780030137603e-01,-3.547007740955034349e-01,-1.546127876468365988e-03,9.590601982040100962e-03,2.725787901624206633e-03,8.665455877780914307e-02
-4.884225397470366437e-01,-3.530545568726926597e-01,-4.178526311584370712e-01,-6.056143646326232061e-02,4.884818882092645947e-02,-1.535711275208147819e-01,3.204145133495330811e-01
-3.464095103864929803e-01,-4.575603647569612686e-01,-4.132257363694754604e-01,2.682009016034180883e-03,1.663965262827549890e-02,-2.712945914866540624e-03,1.013239026069641113e-01
-4.761901654899681757e-01,-4.019227556031193527e-01,-3.177921805057136728e-01,-7.933000300996294329e-02,-1.095557229156775975e-01,1.097368247133267971e-01,3.314444124698638916e-01
-5.259160981600311535e-01,-4.662166409588196503e-01,-2.542808292161050643e-01,-4.390511011771718042e-02,-9.247795571416904392e-02,1.343997575271600742e-01,3.830961287021636963e-01
-4.830717086987105224e-01,-4.470524125391970305e-01,-2.869943010309633502e-01,-4.628456937668869176e-02,-7.202297362436035910e-02,7.137567205432013284e-02,2.644869387149810791e-01
-4.792795401136006328e-01,-3.956318070206930604e-01,-4.085862952996935915e-01,-1.229297684223465137e-01,-1.835597310778841196e-01,5.204782956234919877e-02,4.007814824581146240e-01
-3.895782197323716112e-01,-4.448157810869157736e-01,-3.895570641489251584e-01,7.702002738658017458e-04,7.938411115226452763e-04,-6.338427975936862676e-05,5.528145655989646912e-02
-3.385754842045894386e-01,-4.584704807022013662e-01,-4.324804726424790191e-01,1.147536584343289582e-05,8.051928452763498431e-03,1.424206076289218775e-04,1.101307421922683716e-01
-3.490647392637278856e-01,-5.060730775216233379e-01,-4.016161753966601689e-01,-7.647806441501486807e-02,-1.167068338089776308e-01,6.487336950205474517e-02,3.003265857696533203e-01
-4.350323282240073919e-01,-4.023132204423472968e-01,-3.946698326477031671e-01,-4.408333067812814782e-03,-2.123848800297989566e-03,1.983745657595687838e-03,3.824505582451820374e-02
-4.399497612925613588e-01,-4.041675233173265824e-01,-3.827339793622314135e-01,-6.981845090164717250e-03,-3.192328680862786643e-03,1.011884446517681731e-02,5.468720197677612305e-02
-4.379314922429695667e-01,-3.927074181570854305e-01,-3.920490287142534003e-01,5.240681259337119126e-03,5.924447407218581124e-03,6.933378671564480698e-03,4.906456917524337769e-02
-4.295842226132444153e-01,-3.943720881188208516e-01,-3.943238802431608403e-01,6.315370577540446728e-03,5.638458774007358912e-03,7.219775343588871221e-03,4.016214609146118164e-02
-4.342940900701543483e-01,-3.949987422801378711e-01,-3.885140430131202027e-01,5.172649446528027745e-03,2.873813598525269079e-03,4.061727981444679218e-03,4.467138275504112244e-02
-4.002304878903623631e-01,-4.495753135300983860e-01,-3.774084231740533757e-01,-4.056477592971859288e-03,2.118542929088444802e-03,-1.767448895224023623e-03,6.445238739252090454e-02
-4.391585227650304235e-01,-3.897653197088266075e-01,-3.915553878930498333e-01,3.308370271188564807e-04,2.705687543079299436e-03,1.207113050870853429e-03,4.879690334200859070e-02
-4.427023447766632036e-01,-4.288131318150265048e-01,-3.656716630581552385e-01,-4.719761811260404609e-03,-7.936251818643436096e-03,-1.776999791050218672e-02,7.911914587020874023e-02
-3.732915299938607823e-01,-4.480896359023455733e-01,-4.031261800865821865e-01,-2.273654205945236945e-03,1.211458465920892645e-02,-6.226399801570892643e-03,6.946502625942230225e-02
-4.112380203218895525e-01,-4.160713012549168144e-01,-4.096478001938158031e-01,-6.754329679410638965e-04,2.367864216074152455e-04,-5.129828995792477244e-04,5.991800222545862198e-03
-4.581972472235020799e-01,-3.084393305430402354e-01,-4.656540007694385808e-01,6.030038441457445837e-03,-6.571079523909573346e-03,2.798131334086397578e-03,1.544728279113769531e-01
-4.174191101731323239e-01,-4.056569111253566229e-01,-4.135264583903628943e-01,1.326363046661055119e-03,-4.261931704583275457e-03,-2.579243591376138324e-03,1.369099412113428116e-02
-4.562124251523480556e-01,-2.773016480147788010e-01,-4.718972071517514855e-01,6.273504548239086653e-02,8.497932025720460192e-03,2.631442944859450211e-02,2.217257469892501831e-01
-4.463084237828475187e-01,-3.157713745080848455e-01,-4.489242073050725423e-01,3.819942131705979238e-02,1.682863717047263993e-02,3.028179410121185217e-02,1.592682600021362305e-01
-4.791118963351035376e-01,-2.672370378196738949e-01,-5.013545967330412800e-01,1.850548784968615926e-02,-3.387581847559088810e-02,2.223504051239577530e-03,2.336306273937225342e-01
-4.502801544464297145e-01,-3.244363653444727880e-01,-4.598930293880485465e-01,5.981850726275147155e-03,-1.144403623888631989e-02,-8.583401779996065184e-03,1.336415261030197144e-01
-4.425910167289859309e-01,-3.184178205359334823e-01,-4.673478844676035582e-01,1.108931105709925341e-02,-4.153873285647415210e-03,8.289871932393741514e-05,1.397380679845809937e-01
-3.785149900241570609e-01,-4.266146361635487771e-01,-4.074753400756960797e-01,9.211430554986450511e-03,7.225721811945289702e-03,1.297911124033472238e-02,5.172863602638244629e-02
-4.584085495469306104e-01,-3.039898255196071264e-01,-4.832631280906709570e-01,4.436759414643901694e-02,-2.507092334178925158e-02,2.908659456574840940e-03,1.900457590818405151e-01
-4.433980277592608488e-01,-3.307104129966937922e-01,-4.599871980676735195e-01,1.116748144663544731e-02,-1.038508418885228032e-02,-8.878374012581995850e-03,1.256075501441955566e-01
-2.369013374377190728e-01,-3.634351019666203220e-01,-6.297162668820271980e-01,1.293253674177337331e-01,-9.465706677365284469e-03,4.279423130919823154e-02,4.201761484146118164e-01
-3.283708312694565978e-01,-4.228841100877365200e-01,-4.825445216370939927e-01,1.009763395170223260e-01,5.040027995593420601e-02,1.988236596155439073e-02,2.398457378149032593e-01
-2.796286167113400389e-01,-4.624690187760500670e-01,-5.090516244575657989e-01,6.605342138067653301e-02,2.031000167701729059e-02,-1.093764829123727161e-02,2.424938827753067017e-01
-2.868981621330995990e-01,-4.539170402881328448e-01,-4.896343692911229173e-01,6.044450765217469768e-02,2.593217054819205517e-02,-3.519475363617333846e-02,2.276632636785507202e-01
-4.233287089318120144e-01,-4.363629510088083974e-01,-3.862054096412439463e-01,-3.963046305123154624e-03,-5.517861548063475452e-03,-1.844383042837299466e-03,4.669655114412307739e-02
-4.060880836108416436e-01,-4.273759601388960605e-01,-4.056800126395138095e-01,1.402432213939022645e-03,-1.021824798574917127e-02,-7.566153341883706182e-03,3.086916543543338776e-02
-3.910309295332581314e-01,-4.019354697241758201e-01,-4.498630814971514846e-01,2.928751273420357112e-02,-2.071925714370294325e-02,-2.476599317719497748e-02,9.295049309730529785e-02
-4.126336907658131881e-01,-4.309840048036653326e-01,-3.994278737866479023e-01,-1.128682009760198501e-03,-2.885556025534829951e-03,-1.959548999085214491e-03,2.817408554255962372e-02
-3.204984910551297306e-01,-4.036157976702670069e-01,-5.077811739802906565e-01,6.720675378281837364e-02,-8.047884463784300835e-03,-3.101927475570405088e-02,2.074801027774810791e-01
-4.228924559448452025e-01,-4.313940141111605175e-01,-3.876973631656411845e-01,1.799838188202150155e-04,-5.859123976793403042e-03,-3.031071597624800107e-03,4.172327369451522827e-02
-3.746267450680402233e-01,-4.462259427278219559e-01,-4.091711574174095034e-01,3.859168197850322557e-03,-4.383556372341549517e-02,-1.558125342734933451e-02,1.019023284316062927e-01
-3.630215304796491904e-01,-4.415402860567341214e-01,-4.389453395315168760e-01,1.414253207999343525e-03,-3.513913239838801356e-02,-1.633219293966072655e-02,1.023653969168663025e-01
-4.058934407414028778e-01,-4.371004019381671268e-01,-3.984194799894819061e-01,-1.253239448110688705e-03,-5.244636917937278708e-03,-1.882319707469059383e-03,3.688948228955268860e-02
-4.171514518278155448e-01,-4.527399871253791064e-01,-3.454650815362722005e-01,8.726939620609233672e-03,1.821023424248986722e-02,6.682006446821399208e-03,1.015576496720314026e-01
-4.427782434798904765e-01,-3.686384375246054002e-01,-4.293243444942614895e-01,1.977275923727937149e-03,-1.014355460861624328e-02,-6.325828793829111306e-03,7.155907154083251953e-02
-4.083226813961977619e-01,-4.297474401733684113e-01,-4.015653684026395109e-01,2.008675467193035691e-03,-4.147494973490010658e-03,-4.006764312323844203e-03,2.759215980768203735e-02
-3.986806447456366920e-01,-4.333209791389167065e-01,-4.122871369607419845e-01,8.165774525312846600e-04,-1.429764711095961316e-02,-9.191215888303960746e-03,4.221918806433677673e-02
-4.537747913619674667e-01,-3.823510208110588726e-01,-3.982290227771170810e-01,-2.198963135588802298e-02,5.262339142224812215e-03,-4.901847709504607992e-02,1.138487607240676880e-01
-3.999566761421546324e-01,-4.361090677275612504e-01,-4.062000073603647121e-01,-3.796874061838455359e-04,-4.743031005898411950e-03,-1.839340500943921833e-03,3.461696580052375793e-02
-4.359429500480646591e-01,-3.966773313663681244e-01,-4.165054054360031177e-01,-7.074995667711296565e-03,-8.757855359674779697e-03,-2.481402600853722940e-02,5.817090347409248352e-02
-4.337706338542121620e-01,-3.665317862965574158e-01,-4.356311529012646955e-01,3.130741419233403888e-03,-1.599796768233455874e-02,-1.091615815214935260e-02,7.618609070777893066e-02
-4.358620533856036317e-01,-4.056266700562939920e-01,-3.989156551900966408e-01,-2.287842101334387063e-03,-1.869580824602149176e-03,-5.887084734289802467e-03,3.594841063022613525e-02
-4.403334645719718665e-01,-3.813870914867122930e-01,-4.147358915264862667e-01,-6.552339952453773960e-04,-6.634978511026658199e-03,-1.099685351088951560e-02,5.583167448639869690e-02
-3.153142502393721514e-01,-4.617228519929885144e-01,-4.445986030463193739e-01,-3.039799977168013839e-02,4.014784406690689172e-02,-2.595407364352144558e-02,1.698531359434127808e-01
-4.348320033856870603e-01,-4.023939601744927486e-01,-4.053346287535644632e-01,-1.825687348555281309e-03,-1.819685913084358913e-03,-1.482515326041264304e-03,3.149621188640594482e-02
-4.310361222725292984e-01,-4.227496020085853567e-01,-3.883688256068197342e-01,9.729382239701243624e-04,-3.555160039753018936e-03,-5.788296060072331724e-03,4.094962403178215027e-02
-4.401671936317489986e-01,-3.804532365282116135e-01,-4.155549368937249688e-01,6.011934008243420080e-04,-7.123851245437009747e-03,-1.050036196799143152e-02,5.644403770565986633e-02
-4.349732614724452495e-01,-4.044959221293125684e-01,-4.039598565881294956e-01,-2.034536695462598518e-03,-4.162263363174480320e-03,-5.962704808590641586e-03,3.341476246714591980e-02
-4.313669815250782413e-01,-4.405588688043118872e-01,-3.636516045153944110e-01,-1.288687742306952877e-02,-4.699574044060396590e-03,1.473693902581046412e-02,8.067403733730316162e-02
-4.960854380031890498e-01,-4.539900528430088067e-01,-2.464369032624157685e-01,9.861414594693905869e-03,4.077644753730090554e-02,1.046413673430477698e-01,3.028476536273956299e-01
-4.071777192943347723e-01,-4.253510681136514204e-01,-4.028163013273151627e-01,-3.738933954938303186e-03,3.665074640180291960e-03,-3.472756184721793437e-03,2.338742092251777649e-02
-4.293668603521201832e-01,-4.290918582494759881e-01,-3.813884422228853155e-01,-1.028371486690987831e-02,2.216003053690468114e-03,-3.697026660421361653e-03,5.159273743629455566e-02
-4.348421049303232699e-01,-4.047434072089800550e-01,-4.031291043513335337e-01,-1.539626469311144519e-03,-1.771594375373838600e-03,-1.298516172015291544e-03,3.128436207771301270e-02
-4.827917272545382277e-01,-3.999917940074542710e-01,-3.273853946182443408e-01,1.676051874401764813e-02,2.576590834103455532e-02,8.657439074058399797e-02,2.084684371948242188e-01
-4.059880706350569857e-01,-4.184206162524423678e-01,-4.115240776106968701e-01,-5.910153242640991088e-03,5.796825178805744758e-03,-8.423528591549656053e-03,2.312694676220417023e-02
-4.158161714924824559e-01,-3.641721250097842977e-01,-4.369239030174726368e-01,6.972215840572690802e-03,1.067516908677722080e-02,9.089164523771613158e-03,7.027292996644973755e-02
-4.114065708163007762e-01,-4.045835149493194338e-01,-3.999280795614396644e-01,3.804180613477985314e-03,1.891777215893206609e-03,7.184055327900302785e-04,1.247764471918344498e-02
-4.833819324105840254e-01,-4.581496353856552850e-01,-2.953269865470901645e-01,3.213190656548489069e-03,2.975650799031033522e-02,6.199350492662134005e-02,2.132444083690643311e-01
-4.351753940010661403e-01,-3.876728011247219663e-01,-4.228190917093703760e-01,-2.321567152756083899e-03,-1.872246569483042907e-03,-5.054455720714769347e-03,4.388104006648063660e-02
-3.992961143267235724e-01,-4.385297645753133966e-01,-3.936374693165325400e-01,-3.108021603195891113e-03,6.559196866224484930e-04,-3.017726405746991433e-04,4.270658269524574280e-02
-4.907713001264590313e-01,-4.353976020595289875e-01,-2.956884287360845853e-01,1.155456592868470654e-02,1.994372585050108518e-02,4.495832058351931920e-02,1.948811113834381104e-01
-4.356629147509976652e-01,-4.238847380939489429e-01,-3.936288626749994135e-01,5.729018309892565386e-03,-3.341838065951598796e-02,-2.799909721433963342e-02,8.491867035627365112e-02
-4.055202703681848320e-01,-4.825086308884104502e-01,-3.610698812946248060e-01,-2.007740394157486383e-02,5.958830566749603874e-02,-2.304040495705445349e-02,1.574147194623947144e-01
-4.043120341589677702e-01,-4.400897368882745742e-01,-3.903700779662347964e-01,-6.913155209385549518e-03,3.127007609567461401e-03,-1.076851297287641967e-03,4.636185616254806519e-02
-4.099055516939162924e-01,-4.317987674882760585e-01,-3.910987126395688018e-01,-7.628784888579478660e-03,1.230233431345953594e-03,-1.227801895020607693e-03,3.779431432485580444e-02
-4.036430514865111396e-01,-3.792088968382985037e-01,-4.288598386957216402e-01,9.024375845574824848e-03,1.114830976678591289e-02,4.527048051221027082e-03,5.027643591165542603e-02
-4.215870353083061017e-01,-4.421505410534292135e-01,-3.670059269729463725e-01,-1.544377059737580236e-02,2.417949432754995867e-02,-7.460487036538665344e-03,8.462142199277877808e-02
-4.085701260728194506e-01,-4.145104490758498850e-01,-4.144047154391146681e-01,1.561502206193602325e-03,-6.795320370719308643e-04,-1.081209825838231860e-03,6.846731062978506088e-03
-4.133263489335333163e-01,-5.207840705613901999e-01,-3.117239971379073271e-01,4.215313118473806853e-02,-1.599759449947372458e-01,-5.333910512729312520e-02,3.513273596763610840e-01
-3.359927559641130990e-01,-2.968147390997808999e-01,-6.375818559773881455e-01,1.995323467038501164e-01,-4.591262623333672299e-02,-5.113012438684217537e-02,4.877630770206451416e-01
-4.099905594424048116e-01,-4.340181226473114329e-01,-3.999349923109453142e-01,2.056235295328765356e-03,-2.234206386119648793e-02,-1.574650711722783494e-02,5.633910000324249268e-02
-4.156086519936940116e-01,-4.648747603240031001e-01,-3.683516659444115993e-01,-5.432844573063947032e-03,-5.560076923981265018e-02,-8.398004479822203383e-03,1.286973357200622559e-01
-4.078470500285049094e-01,-4.208200015592242216e-01,-4.107576167444892956e-01,7.459237721233572286e-04,-1.356442693885067264e-03,-1.639303476597291954e-03,1.242019329220056534e-02
-3.407024157776927797e-01,-4.887606092034755823e-01,-3.695228975081700784e-01,-2.283833788144760263e-02,-1.246357398663279492e-01,-5.509237668533384195e-03,2.583462297916412354e-01
-3.955426591012362603e-01,-3.907347527385294783e-01,-4.404041124732851475e-01,1.078852056676663645e-02,-6.238206973452510920e-03,-8.032482746072341570e-03,5.395220220088958740e-02
-3.965304927462276474e-01,-4.253844014728917489e-01,-4.173355388644587882e-01,6.115330999699653339e-03,-2.838008246583223829e-02,-2.236299615384490860e-02,6.851190328598022461e-02
-3.529906272958412972e-01,-3.272675672362344579e-01,-5.207948889825804173e-01,1.949661201318200476e-01,9.580283399948298639e-03,3.552429456680010478e-02,3.888868987560272217e-01
-3.499184956146776382e-01,-3.326447465073150700e-01,-4.748757671968558136e-01,1.669730279297587938e-01,7.677858109428098432e-02,9.378889110130884943e-02,3.818181157112121582e-01
-3.604447182591323795e-01,-3.917903023601573831e-01,-4.593935849588057230e-01,6.268694623580781111e-02,3.905964446460287454e-02,1.581736471634774543e-02,1.574430316686630249e-01
-4.336869115751025294e-01,-4.391110541838665338e-01,-4.843056109183364044e-01,5.350349049316384387e-02,-1.996369092884446861e-01,-1.660490958615308821e-01,4.617213308811187744e-01
-4.123254783487395048e-01,-4.206264105909217621e-01,-4.084451542404766156e-01,2.100770591138082562e-03,-2.458329776509618741e-03,-2.492370590839742411e-03,1.289101596921682358e-02
-4.142081090977046132e-01,-4.283589023926616113e-01,-3.960326518897482884e-01,4.157332779635296120e-03,-5.169830776442145212e-03,-5.177207334141053878e-03,3.162643685936927795e-02
-3.949181976065648247e-01,-3.986193537012748811e-01,-4.223036338446637949e-01,4.262141409399263295e-03,3.082271429497001041e-03,5.562933947923823577e-03,2.895065397024154663e-02
-4.114814930895933642e-01,-4.216336256723652864e-01,-4.084010319652585652e-01,1.974641679518752101e-03,-2.652156513002769736e-03,-2.237794688128717183e-03,1.384380366653203964e-02
-3.453640141406701392e-01,-3.897347919200978006e-01,-5.093569563496221919e-01,9.462492901917227139e-02,4.038878729299756956e-03,-7.239950681200569681e-04,2.202228307723999023e-01
-3.323332575369269959e-01,-4.050774317125996893e-01,-4.549862274185178523e-01,8.944745199683598602e-02,6.086551830564744525e-02,4.149459976786105259e-02,2.273652553558349609e-01
-3.348329321912684176e-01,-4.243226672883735895e-01,-4.608042030785962084e-01,4.028119089083979920e-02,2.137904203776733875e-02,1.631322803958875321e-03,1.372987031936645508e-01
-3.902880723295319432e-01,-3.696361945837030039e-01,-4.597277831260399017e-01,4.338828083043197448e-02,1.832370846387743751e-02,1.760451789155958666e-02,1.194449439644813538e-01
-3.096362893723909604e-01,-4.560736396900962886e-01,-4.450702987097278629e-01,4.397203334739856195e-02,3.980450035964859523e-02,1.281205568249741376e-02,1.760679781436920166e-01
-4.168396421708703281e-01,-3.493038378225800100e-01,-4.463769829928567190e-01,3.415131480664502367e-02,9.984870118445518875e-03,2.109442819422852750e-02,1.120773032307624817e-01
-4.413348356096072345e-01,-3.977994200214001741e-01,-4.007398133490764902e-01,-2.518506681911602055e-02,-3.016550817784756020e-02,1.810138658055423025e-02,8.597490191459655762e-02
-4.378338762782972293e-01,-4.232148442077585115e-01,-3.834970184163198903e-01,-3.207942731810848984e-03,-2.199498821093938752e-03,-5.647161447558602526e-03,5.012898519635200500e-02
-3.571099232384439270e-01,-3.843951367439715217e-01,-4.714518213436551530e-01,4.840379897135204529e-02,1.019542808044669908e-02,1.546981750206835766e-02,1.369572132825851440e-01
-4.839359287200242221e-01,-3.549013986278197752e-01,-3.899744607922193684e-01,-7.739101805576503734e-02,2.297879572244493351e-02,-1.128166000656216639e-01,2.666258215904235840e-01
-4.346195345683205868e-01,-4.126102018096466928e-01,-3.935772631109409336e-01,-3.913523345724658452e-03,3.188575761332627608e-04,-2.559371486574416564e-03,3.648930042982101440e-02
-4.155034422863302379e-01,-4.071226127034698883e-01,-4.140794121078791301e-01,-5.477973533922405984e-03,-5.751953473108688264e-03,3.667735359648669445e-03,1.702844537794589996e-02
-4.142677650844040493e-01,-4.107243449724114481e-01,-4.135800111285778402e-01,-1.945901870864942757e-03,3.581153426187468243e-03,-1.841589285352611145e-03,8.402367122471332550e-03
-4.162951104871074892e-01,-4.095956624156125159e-01,-4.132184023880897672e-01,-2.863772334438828299e-03,-3.771536638144870959e-03,1.846401828529285012e-03,1.054709125310182571e-02
-4.186201817304424644e-01,-4.077059914269491880e-01,-4.096594832423213761e-01,-1.521917542189010070e-03,-2.120031383142645300e-03,1.509174504505056283e-03,1.135253347456455231e-02
-4.174655953429632915e-01,-4.074231000272492964e-01,-4.117739918799682153e-01,-2.139773751556724168e-03,-2.823898078565536488e-03,9.212587550048048721e-04,1.078394241631031036e-02
-4.172505886856668345e-01,-4.050602381339307168e-01,-4.141988632995290409e-01,-2.550587194336597155e-03,-3.769298790595118805e-03,1.580005679296505325e-03,1.379654463380575180e-02
-4.166472719192046426e-01,-4.113649052648382098e-01,-4.109115343583971125e-01,-2.770462093952932251e-03,-2.841549022650210771e-03,1.117788601379660247e-03,9.027832187712192535e-03
-4.368750366022000620e-01,-4.557788656671673544e-01,-3.316957491036452432e-01,-5.657696621968097937e-03,1.086260513849202775e-02,2.946389894787960085e-03,1.178320422768592834e-01
-4.257711461963203381e-01,-4.092477991635710133e-01,-4.055144833064075471e-01,-2.135078204287550307e-03,1.196362793977136718e-03,-8.872667704488857322e-04,1.920876838266849518e-02
-4.266867835677502496e-01,-4.101965787225270166e-01,-4.019615312663839535e-01,-6.133432495648694256e-03,1.601068292298732940e-03,-3.870460857840868265e-03,2.531855367124080658e-02
-4.195136944590591166e-01,-4.303937536337181236e-01,-3.874451822354255115e-01,-1.056780595344136188e-02,2.612707931411115039e-03,-2.699949211926481671e-03,4.327881708741188049e-02
-4.168203450833020685e-01,-4.103125114975069709e-01,-4.110809750870327295e-01,-3.174066367134581110e-03,-3.244573482485303174e-03,2.010592476831627850e-03,1.057708449661731720e-02
-4.060590525485004987e-01,-4.257233127610068335e-01,-4.025265041148381462e-01,-4.270655008644861673e-03,2.288528030185603759e-03,-2.660876269190399091e-03,2.367055788636207581e-02
-4.171425922374675799e-01,-4.064760803358792862e-01,-4.135951952306474166e-01,-1.812962924891101850e-03,-3.095425611184367178e-03,8.208633699988230475e-04,1.136428955942392349e-02
-4.395668060336362926e-01,-3.561215879496033576e-01,-4.572448273263428620e-01,-4.104519278539820598e-02,-3.626660438679807407e-04,-3.679700189407383859e-02,1.336687654256820679e-01
-3.749910368903974223e-01,-4.122413987574961580e-01,-4.487801259476101867e-01,-3.842959333768347641e-02,-3.202765519281704112e-04,-1.376282412735552532e-02,9.530374407768249512e-02
-3.645521040489823061e-01,-4.261512700661704844e-01,-4.215066728171131816e-01,1.093190332591490420e-02,1.165054592133059862e-02,1.298967489685774052e-02,6.929535418748855591e-02
-4.248372861824044611e-01,-4.380474414550413198e-01,-3.691367084568724088e-01,-1.506870433495252626e-02,9.638197609544449027e-03,-1.126130059841174043e-02,7.316562533378601074e-02
-3.936783649855542522e-01,-4.252599593724340488e-01,-4.142873524395724871e-01,-1.520827085209254352e-02,1.429267200469759060e-02,-1.774292399601759204e-02,5.497647449374198914e-02
-4.002683395170340552e-01,-4.002666117750357522e-01,-4.432795321721439419e-01,-2.487075444859193282e-02,2.259925758889957254e-03,-1.225436374031414061e-02,6.458738446235656738e-02
-4.096496789339684752e-01,-4.195465532314167634e-01,-4.067778389858933696e-01,-4.604264477110804610e-02,3.227452236784023043e-02,-4.033570452811931911e-02,1.204169243574142456e-01
-3.770121318447073322e-01,-4.456182531524298107e-01,-4.123474748939783829e-01,-3.370035583652980504e-02,3.792578542105940614e-02,-2.065438962026122649e-02,1.119518429040908813e-01
-4.088966337555992037e-01,-4.215064957079626695e-01,-4.050636027084815183e-01,-3.696056884895901427e-03,-6.317728751319199015e-04,-7.979979482021664662e-04,1.631334051489830017e-02
-4.006193003942875031e-01,-4.242279675808213191e-01,-4.093373862608334357e-01,-3.066802824915165673e-03,3.170137179218140717e-03,-6.061428000050650237e-03,2.441597171127796173e-02
-4.111436411877876229e-01,-4.100095255473689138e-01,-4.162553324926831499e-01,-2.133904650718446844e-04,-8.098955526640973582e-04,-2.029495927646578316e-06,5.942833144217729568e-03
-4.344179302240173124e-01,-3.806234077294871065e-01,-4.665841534735314378e-01,-8.525989154011162641e-02,-1.074627549689659463e-02,-5.534973462492513013e-02,1.923638731241226196e-01
-4.723528727797690618e-01,-3.386233688961775012e-01,-4.671443670040423823e-01,-8.679271299064096612e-02,2.411479112310125836e-02,-9.309925252497135151e-02,2.599232196807861328e-01
-3.700187093003671213e-01,-3.772563729675778021e-01,-4.909637454713382532e-01,-1.109287796629557510e-01,1.731084130672830290e-02,-7.382148634480249771e-02,2.607069909572601318e-01
-4.210200691267535489e-01,-4.076483642158108545e-01,-4.111819460706427898e-01,5.856584612352921156e-04,-1.920923776206720588e-03,-1.044845159626083377e-03,1.262587122619152069e-02
-3.950938850215452436e-01,-3.985886284980889593e-01,-4.361782822619144073e-01,3.698732439072704124e-03,-2.264139871394986632e-03,-4.089409146613869062e-03,4.078176245093345642e-02
-4.102848582431460334e-01,-4.097649189011378645e-01,-4.163880369243947999e-01,1.719195394072148904e-04,-7.027718900929427759e-05,-1.328086109650480559e-03,6.788765080273151398e-03
-4.100640033140064422e-01,-4.123304205796720079e-01,-4.154645329022818578e-01,1.062729606272908934e-03,-4.751202109935575234e-04,-5.207124840393422428e-04,5.190504714846611023e-03
-4.189664683545725188e-01,-4.359939558173580032e-01,-3.796868481107360527e-01,-1.300097288268715033e-02,1.584542374132669879e-02,-1.122157171725083474e-02,6.434078514575958252e-02
-4.086181554119443504e-01,-4.317098453998050589e-01,-3.913304280586952233e-01,-8.773551917999750094e-03,4.120304789553158077e-03,-1.960487583609511319e-03,3.904717043042182922e-02
-4.029715827765900649e-01,-4.272968338613218342e-01,-4.007405865124963329e-01,-7.482401282966297598e-03,7.510896342669210260e-03,-6.375715005312950281e-03,3.331836685538291931e-02
-4.003233853526503849e-01,-4.481573140456583393e-01,-3.795396959684446681e-01,-1.362700424964863148e-02,1.859921021052531043e-02,-1.042924241285820251e-02,7.506927847862243652e-02
-3.986265438060028754e-01,-4.320113244865730895e-01,-4.086522902287688108e-01,-7.505761482447127070e-03,7.786037658957746001e-03,-7.762745253500633394e-03,3.757670894265174866e-02
-4.144828144662849323e-01,-4.083864201816274631e-01,-4.150025891253119048e-01,1.545677944892790822e-03,-1.352877998410383390e-03,-6.545614310275262894e-04,7.385694887489080429e-03
-4.202582602699984626e-01,-4.053912627802849222e-01,-4.137837801338336563e-01,5.976705759934594327e-04,-2.849456093639301819e-03,8.687565040382689012e-05,1.386156212538480759e-02
-4.011990896099477122e-01,-4.366140325307515391e-01,-3.967290492016413150e-01,-1.925743869168651057e-03,7.667539242504399499e-03,-6.168626581439859771e-03,4.164325073361396790e-02
-4.067166858494397075e-01,-4.494433645823728840e-01,-3.773598425431801129e-01,-8.388815323064950646e-03,1.765905815969029749e-02,-9.778854723095685778e-03,7.331600040197372437e-02
-4.214948731232704970e-01,-4.057158250654474552e-01,-4.113581432813718242e-01,5.680250444275648141e-04,-1.934908716749521437e-03,1.750894195986539353e-04,1.428549084812402725e-02
-3.990687934011336035e-01,-4.370745814403902418e-01,-3.956636900431561021e-01,-4.706549281980577752e-03,4.983144978391930956e-03,-4.574170724312916735e-03,4.229855164885520935e-02
-3.962207949258260697e-01,-4.063704249281766545e-01,-4.146902216556331844e-01,2.632999558348130768e-03,1.610700599654665182e-03,7.510285793865673944e-03,2.131832949817180634e-02
-3.842979752552094785e-01,-4.333021042636150399e-01,-4.522624858681754678e-01,3.019885023634946361e-02,-5.766914060908095996e-02,-4.914958976351228859e-02,1.537861675024032593e-01
-4.086142479056301124e-01,-4.267180451967925170e-01,-4.006725008503063679e-01,6.797595648628571886e-03,-2.188337077638556269e-02,-1.544003662597758647e-02,5.315116792917251587e-02
-4.303486580475130996e-01,-4.096030679047683032e-01,-4.040117439590426573e-01,-2.993857698599039019e-04,-9.849131186264023421e-04,-1.102002657427294174e-03,2.417560853064060211e-02
-4.283152101764716169e-01,-3.970903850754051723e-01,-4.148380365458040342e-01,7.603977375804703374e-04,-6.684730685751223873e-03,-2.642414409758661077e-03,2.987540885806083679e-02
-3.822678875498241036e-01,-3.569770953639636035e-01,-4.629965932811949125e-01,1.033726520760408357e-01,-8.884486803288825507e-02,-1.059174744462800660e-01,3.139935135841369629e-01
-4.363142136383360015e-01,-3.934088913550563560e-01,-4.139890196582918236e-01,-1.503936425553147613e-03,-4.105480263846127999e-03,-3.609629355428591990e-03,3.844281286001205444e-02
-3.504373544004285024e-01,-3.915792935901927230e-01,-4.871396810677409706e-01,6.511259585487698398e-02,-5.275379621777728095e-02,-2.189267593262430103e-02,1.930328756570816040e-01
-4.455222962272256670e-01,-4.436154232397646613e-01,-3.381707684948266346e-01,2.057853034573128848e-02,-9.742096729859467397e-02,-1.212501530177053227e-01,2.918407917022705078e-01
-4.353100798633036117e-01,-4.072735434737527194e-01,-3.986814651227938433e-01,-3.957176418322806699e-03,-7.697518225707998280e-04,-5.553115728131013777e-03,3.524244576692581177e-02
-3.078855561302966670e-01,-4.444275917425427602e-01,-4.494050172337782367e-01,7.727589201773059358e-02,-1.255678072695195213e-01,-8.633527086503901826e-02,3.269953727722167969e-01
-4.378862334464179717e-01,-4.112893375267028251e-01,-3.951655234944753126e-01,-3.955870206922741314e-03,-9.936122853656556390e-04,-3.404288083638202372e-03,3.848235681653022766e-02
-4.339009617350477743e-01,-4.062481903202891931e-01,-4.049473029497085430e-01,-4.131132581258691386e-03,-3.376144439525722001e-03,-9.035634558176590739e-03,3.365506231784820557e-02
-4.339221610590028866e-01,-4.073878501263311636e-01,-4.013793579234374853e-01,-3.006633651490568833e-03,-4.817686618014380183e-04,-1.195109568757613460e-03,3.052381984889507294e-02
-4.406470992457247604e-01,-4.352558291889847553e-01,-3.245540183185434691e-01,2.014605013192572944e-02,4.689590633081448801e-02,5.511090142689630683e-02,1.726490110158920288e-01
-4.033317781263139890e-01,-4.113730983546243780e-01,-4.000358583444003635e-01,1.197503931681104423e-02,1.168291279393665096e-02,1.520407879971667243e-02,4.043757542967796326e-02
-4.014552741025362859e-01,-4.139392990351845603e-01,-3.994739800037601096e-01,5.813985163807173367e-03,4.946957313592882655e-03,4.040393639934266798e-03,2.020667493343353271e-02
-4.382686471744113299e-01,-4.138860153219565685e-01,-3.922256142989526961e-01,-7.698485737336900440e-03,1.478610390639600305e-03,-1.954542549965017188e-03,4.228052496910095215e-02
-4.289661153424313977e-01,-4.170452167987011016e-01,-3.948533647898254118e-01,-7.859007456701115613e-03,7.885022112302578472e-04,-2.347226758132185068e-03,3.320871293544769287e-02
-3.950628198523922219e-01,-4.070442500632868721e-01,-4.159517963390251816e-01,1.557611220921919191e-03,3.456557299722936433e-03,6.521050308593978953e-03,2.236779592931270599e-02
-4.608922804621899960e-01,-4.655609908161009169e-01,-3.292774595058587384e-01,-3.217364550193121259e-02,2.015549093464807234e-02,-5.139049461340693820e-02,1.737982779741287231e-01
-4.190993097469288275e-01,-4.193708093339498233e-01,-3.999528535862548750e-01,-6.846725245810396029e-03,5.547966954281293404e-04,-1.251086538783429325e-03,2.276204526424407959e-02
-3.809233937842275708e-01,-4.249666165191668399e-01,-4.050173309318919612e-01,5.253242430962273661e-03,7.473068789642598950e-03,1.259727398594184290e-02,4.674989357590675354e-02
-4.286841775937925147e-01,-4.156382126950627365e-01,-3.953162417166631304e-01,-6.561658950742606765e-03,6.047984333707777729e-04,-2.812335754671619042e-03,3.165897354483604431e-02
-4.224484987375750067e-01,-4.030239611282079304e-01,-4.134534857170960587e-01,-3.670751933675146187e-03,3.719245279581045310e-03,-5.381696725951515964e-03,2.126754634082317352e-02
-4.116962501606160618e-01,-4.161162653403782108e-01,-4.108623658803387535e-01,-3.538833162022772712e-03,2.016268628860910680e-05,-3.510219933798251150e-03,9.922391735017299652e-03
-3.889088693123550211e-01,-4.242128173958440995e-01,-4.035202158796906136e-01,2.146719486754012588e-03,2.219218697630621472e-03,8.390481313677458988e-03,3.440672159194946289e-02
-3.733922378165270284e-01,-4.064281768763272629e-01,-4.474555540763060502e-01,-4.214430326254479248e-02,-1.315181304957849240e-02,1.184219934469033647e-03,9.990766644477844238e-02
-4.201799845033121761e-01,-4.137739099594626158e-01,-4.051037153499870702e-01,-2.499750222801805886e-03,5.710085906029353916e-04,-1.703837353909458906e-04,1.384064555168151855e-02
-4.067755458091178444e-01,-3.975306300630656042e-01,-4.657710596547794402e-01,-6.046396957952115958e-02,-1.390134280327919719e-02,-2.107677587551440301e-02,1.303512752056121826e-01
-4.173178906423612444e-01,-4.191654387784057301e-01,-4.024869492454064002e-01,-6.584476581024676853e-03,1.135125842752581111e-03,-1.515473195106174526e-03,1.978869922459125519e-02
-3.746769041462948979e-01,-4.251265942976945600e-01,-4.165799701817732292e-01,8.348609664579672435e-03,5.267396500316859700e-03,1.225421453482973023e-02,5.412830039858818054e-02
-4.143194005760573173e-01,-4.142190079238126099e-01,-4.093137305753650201e-01,-1.307105851402195519e-03,-1.509094300796035034e-05,2.900916286628744956e-04,5.472019780427217484e-03
-3.506854137024582041e-01,-4.421442215424812305e-01,-4.466395504537268302e-01,-4.515631849048933576e-03,-1.526932002105819801e-03,-5.481852269642067954e-03,9.462757408618927002e-02
-4.776615721305625395e-01,-3.208071471856504542e-01,-4.611404234152426396e-01,-3.766699535981996722e-02,-3.428706335310492681e-02,3.892048665213149183e-02,1.860442757606506348e-01
-4.090950791173066925e-01,-4.188403788039005149e-01,-4.093518675652677019e-01,-1.475855416098781825e-03,4.235586520622272241e-04,-1.640311412026245353e-03,1.037684176117181778e-02
-4.173284433260089354e-01,-3.825736751693413207e-01,-4.406618605211270467e-01,-8.396049078919547159e-03,-4.118430607051713765e-03,-1.356839265788472703e-03,5.320881679654121399e-02
-4.130407470506500811e-01,-4.124927804490258199e-01,-4.142255629211247792e-01,-9.411459754296445240e-03,4.403728946662813226e-03,-1.045313957389869784e-02,2.557465247809886932e-02
-4.110617592151332156e-01,-4.164361852883581294e-01,-4.102173905790656994e-01,-7.615185522867334725e-04,-3.701931634076207115e-04,-1.142960534355268144e-04,6.027061026543378830e-03
-4.042229982628717244e-01,-3.959253172595680326e-01,-4.438387055303915085e-01,-4.073354359040898265e-02,7.918501450327351462e-04,-1.901404927938969355e-02,8.961652964353561401e-02
-4.186832742514423611e-01,-3.831044255275094512e-01,-4.379620624519802163e-01,-6.991035196270822122e-03,-7.554755293726959225e-03,8.450043529909420344e-04,5.141431838274002075e-02
-4.580748016908624543e-01,-3.182246756639862673e-01,-4.708108388584817394e-01,-5.023693844850955076e-02,-2.399111054352668498e-02,-6.911692661770298812e-03,1.759053319692611694e-01
-4.702714035409722992e-01,-3.887994098809900434e-01,-3.926716121964223261e-01,1.954267653877224918e-03,-3.919570083133174648e-02,-7.987205975743159880e-02,1.734825819730758667e-01
-4.343892789740098626e-01,-4.050596119696094899e-01,-4.032778144574731827e-01,-1.392397531899084101e-03,-1.268734133510255897e-03,-1.687275062291461285e-03,3.057531267404556274e-02
-4.323708917978684174e-01,-4.048882822621153177e-01,-4.043696491720366604e-01,-2.494552659414000216e-04,-1.418566108223941538e-03,-1.769128461249073895e-03,2.802551165223121643e-02
-4.327224367741941413e-01,-4.049594973379851415e-01,-4.037598147511086699e-01,-3.144037743597175613e-05,-1.020404067343972125e-03,-1.619246374578450255e-03,2.857480198144912720e-02
-4.352235413900809591e-01,-4.045682925168586630e-01,-4.006704913967950588e-01,-8.215981455342361277e-04,-1.526674548450416159e-03,-5.803682185866789085e-03,3.441642969846725464e-02
-4.345660979465204576e-01,-3.983813098369364258e-01,-4.071704871158943750e-01,-4.298899389464847282e-06,-3.465618894134927727e-03,-5.583757130242301275e-03,3.461387753486633301e-02
-4.247451534529503303e-01,-4.100470475512484336e-01,-4.117055283430951507e-01,-1.158474283241302076e-02,4.364891008718120927e-03,-1.044844184698801373e-02,3.133199363946914673e-02
-3.738559273847857911e-01,-4.264929032344187410e-01,-4.410745650862279432e-01,-4.891375541256634887e-03,1.286748880833998290e-03,-9.145119841713452574e-03,6.386277824640274048e-02
-4.004679040201395424e-01,-4.118276749376686419e-01,-4.259893911898425811e-01,-5.257983382829035761e-03,1.211343986795059870e-03,-6.786057398669817498e-03,2.675753086805343628e-02
-4.212168368107844230e-01,-4.115171890928737697e-01,-4.076907160403356323e-01,-1.749777658727338404e-03,1.581671564723290254e-03,-6.676669713459316676e-04,1.280109584331512451e-02
-4.054326700913787884e-01,-4.214547263110934305e-01,-4.130281721078012391e-01,-7.697571931840207701e-03,4.330256174227990751e-03,-8.629220683222795993e-03,2.549713477492332458e-02
-4.091509006127293513e-01,-4.175528618167244077e-01,-4.108984841379142439e-01,-1.954421635665737084e-03,1.016947062577786302e-03,-1.187522393329202425e-03,8.817954920232295990e-03
-4.167694934249309702e-01,-4.060843390385096008e-01,-4.133038542685144590e-01,-3.338604800539203294e-03,3.695107776628724430e-03,-4.899036201118341441e-03,1.534777693450450897e-02
-4.080898331035477389e-01,-4.114738429695718458e-01,-4.205847125480385862e-01,-7.445765527208670622e-04,1.416177716017177207e-03,-1.884320992153229891e-03,1.198426447808742523e-02
-4.156529708324706029e-01,-4.108238854315709454e-01,-4.126853792561741008e-01,-1.974838841034801725e-03,2.333927811160958245e-03,-1.718968910299486586e-03,7.396086584776639938e-03
-4.078242497574403602e-01,-4.175581002130254737e-01,-4.115490301313214361e-01,-1.485861495477983074e-03,4.553920517275988683e-04,-2.701385328582306920e-03,1.007488556206226349e-02
-4.172673956022481812e-01,-4.192328958009818307e-01,-4.023434450653219363e-01,-6.436538375671700674e-03,1.266378002491390636e-03,-1.412169813197335219e-03,1.977375522255897522e-02
-3.697884647787134660e-01,-4.469018026256591503e-01,-4.178817188961339579e-01,-4.000562026208758643e-02,3.431200626123014769e-02,-2.554103732311405889e-02,1.218241378664970398e-01
-4.022030739093533924e-01,-4.267591072785306139e-01,-4.038093956890107528e-01,-2.207534945826641112e-03,3.058543409153015227e-03,-4.216848731862558007e-03,2.573253400623798370e-02
-4.008412037156018903e-01,-4.240699476031400961e-01,-4.098217822682546641e-01,-3.621655272532534834e-03,1.960372339656339669e-03,-4.992818308159510492e-03,2.317931875586509705e-02
-4.082273746983998697e-01,-4.181356880138580312e-01,-4.094885810318391606e-01,-6.325589052836348095e-04,1.308223740189811204e-03,-1.559155255040446881e-03,1.004472654312849045e-02
-4.134919303945145397e-01,-4.163356160630543590e-01,-4.081599553512063605e-01,-1.582211128576437725e-03,1.165831374645395394e-04,1.462629820141140994e-04,7.700265850871801376e-03
-4.688448873267976880e-01,-4.876189481167262918e-01,-2.919023771147738477e-01,-1.207316603089925340e-02,-1.155931745909945935e-01,-7.151552491956525426e-02,3.014118373394012451e-01
-4.085741678918089481e-01,-4.223644264837856377e-01,-4.081771945363151799e-01,-4.477503558673674895e-03,2.142806118248545208e-03,-4.946626824579753411e-03,1.852375455200672150e-02
-4.140141880250619577e-01,-4.163407065789305195e-01,-4.062268761297457842e-01,-3.200485565277716438e-03,1.737730095598202578e-03,-1.341277753243222664e-03,1.137355528771877289e-02
-4.204598485000498043e-01,-4.218035739936214501e-01,-3.906409582849843520e-01,-1.984683712004425837e-02,1.495164572656058032e-02,-2.396773257263689824e-02,6.713227927684783936e-02
-4.179149056223059877e-01,-4.131504277032327921e-01,-4.048318012480167649e-01,-6.957668893584742845e-03,5.562075072943117350e-03,-7.666018486210065402e-03,2.336396276950836182e-02
-4.098335764893431543e-01,-4.256263446558406494e-01,-4.002382044992788823e-01,-6.391718328016830070e-03,1.708175091008642824e-03,-1.859257115861196298e-03,2.519338205456733704e-02
-4.137803470564133668e-01,-4.134373656595488611e-01,-4.124839187917653249e-01,-1.403581551939762657e-03,2.033572672613291870e-03,-1.417328637591851962e-03,5.069176666438579559e-03
-4.148830533472061544e-01,-4.148840384606746201e-01,-4.084972234880591690e-01,-1.026186783270301162e-03,5.997611756891797633e-04,-2.203990618580174894e-04,6.720800418406724930e-03
-4.218205098932646391e-01,-4.053137921679573208e-01,-4.128623931335014818e-01,-5.070061973073097632e-03,-5.988805111160861588e-03,3.646299129647783809e-03,2.072319760918617249e-02
-4.104659785829083418e-01,-4.142269895933144985e-01,-4.173005081099234737e-01,-1.206690658588408308e-02,-9.289185864249907901e-03,3.381581958872654278e-03,2.766142040491104126e-02
-4.226144530258846288e-01,-4.143730085582210121e-01,-4.027997798249691175e-01,-1.110644152487341371e-02,-1.029734950974761296e-02,5.351811075845113765e-03,3.273120895028114319e-02
-4.172125367585625133e-01,-4.154967601664524834e-01,-4.050810541255271402e-01,-4.645937204220260651e-03,-4.014414006944588137e-03,4.526164777980476103e-03,1.743161305785179138e-02
-4.198745929596855997e-01,-3.863354270121547307e-01,-4.306903240348332607e-01,-6.980091948137883209e-03,-9.367521889268573890e-03,2.960465353473282994e-03,4.516985639929771423e-02
-4.102017512659466014e-01,-4.058932229543935066e-01,-4.247602763302256168e-01,-5.713562309336296316e-03,-5.812441474253579772e-03,2.295039668197053264e-03,2.254615910351276398e-02
-4.277006254742816704e-01,-3.824497567958198285e-01,-4.269747303821167517e-01,-7.955881895511026161e-03,4.380824756711848740e-03,-1.325874971982414843e-02,5.282203108072280884e-02
-4.234403577971514454e-01,-3.886522646015725391e-01,-4.232668518051532769e-01,-5.446231280401894574e-03,-1.069445275428678593e-02,4.483344943463857604e-03,4.118986427783966064e-02
-4.133631874187979616e-01,-4.084242712735774439e-01,-4.165581221095835951e-01,-8.368659229063290551e-04,-1.100931781316507891e-03,1.242180155306701807e-03,7.793987169861793518e-03
-4.285920287481289059e-01,-4.203875480913484286e-01,-3.889434470770769536e-01,-1.142442282022658982e-02,2.232976338404589305e-03,-6.602551468364766148e-03,4.302696138620376587e-02
-4.217659754299490915e-01,-4.115709288778739428e-01,-4.056986914688972545e-01,-1.878352174176748128e-03,4.702318779326183592e-04,2.506673597235631020e-04,1.448193192481994629e-02
-4.226646192676301039e-01,-3.931707504777401940e-01,-4.195567715949041765e-01,-4.792307000775951342e-03,-8.603475270454984114e-03,2.997280539544437510e-03,3.325347602367401123e-02
-4.051874121041574295e-01,-4.118220717421408605e-01,-4.264954473486184394e-01,-1.417067724140120590e-02,-8.520653272325871483e-03,2.091925701800177121e-03,3.449691087007522583e-02
-4.075094951171955859e-01,-3.987725193407296032e-01,-4.342526611181058427e-01,-4.423313938299112784e-03,-3.947453096614787424e-03,5.308431676241813805e-04,3.363741561770439148e-02
-3.966770724141089888e-01,-4.114154708390470039e-01,-4.319653476975700568e-01,-7.325553765284976288e-03,-3.249616550315414208e-03,1.344354899753825994e-03,3.377104178071022034e-02
-4.028312485111947838e-01,-4.125467248651424890e-01,-4.229763565560840655e-01,-4.902331882961695302e-03,-3.676426307175587917e-03,3.601025981362709297e-03,2.135522477328777313e-02
-4.114868767346506750e-01,-4.077340022950984855e-01,-4.209742122698780231e-01,-6.922242579114140865e-04,-1.941879340200239812e-03,1.457841509844694542e-03,1.260255929082632065e-02
-4.293125699869602685e-01,-4.056145843470860823e-01,-4.056693610510204717e-01,-1.643468610063657936e-03,1.146474448238001594e-03,-2.280620340831652527e-03,2.424766495823860168e-02
-4.292089663273406797e-01,-4.080043471228080310e-01,-4.025540990477742276e-01,-1.849082758659475242e-03,4.027795922201618810e-04,-6.896553851518492798e-04,2.463904209434986115e-02
-4.128468827824658960e-01,-4.137303836154563319e-01,-4.139114537884189260e-01,-8.473349338357806862e-03,-1.312693398725938744e-02,6.649355845377939549e-03,2.942715212702751160e-02
-4.228036931626781292e-01,-4.000315134327450117e-01,-4.199067553528088026e-01,-1.153136369128742247e-02,-1.098148412626913373e-02,5.228083573092537524e-03,3.610663861036300659e-02
-4.118551560897511510e-01,-4.061615738420844002e-01,-4.211933560716315528e-01,-3.919208677472855139e-04,-1.963775715997945464e-03,4.145207682330512115e-04,1.361367665231227875e-02
-4.348663991709409982e-01,-4.045757006807116363e-01,-4.036859346933498460e-01,-2.157775640684137484e-03,-1.567127540964594057e-03,-7.238935811418198418e-03,3.352330625057220459e-02
-4.141645668637443101e-01,-4.003044490437772662e-01,-4.242020996292296675e-01,-3.521123335974675733e-03,-6.003453827156538317e-03,1.903332205178292092e-03,2.425208501517772675e-02
-3.242431439005148963e-01,-4.583363446100926497e-01,-4.601605402931352451e-01,3.361309814404138396e-02,-2.489663966574417672e-02,-1.527912601632166328e-02,1.554938256740570068e-01
-2.858588053459231171e-01,-4.822862708028359258e-01,-4.912195031463085781e-01,3.318132806111855071e-02,-2.217228700648480808e-02,-2.643106378919882898e-02,2.174670547246932983e-01
-2.272145273874309757e-01,-4.695722139421112384e-01,-5.000371735532327389e-01,8.350834498656045657e-02,-4.602547408091438308e-02,-3.763216387460020101e-02,3.139638304710388184e-01
-4.464771210914402766e-01,-3.712454357466917765e-01,-4.248684883653693345e-01,-2.363652743000227690e-03,-4.085659563404432648e-03,-5.689037496403547695e-03,6.830094754695892334e-02
-4.037225275848305150e-01,-4.026280817571522008e-01,-4.271772392060798063e-01,2.464952066817763417e-03,-4.419101581189692658e-03,-2.681205907648467109e-03,2.598790451884269714e-02
-4.003431327860656475e-01,-3.997767414633943139e-01,-4.309139346917464364e-01,-1.859298438063439315e-04,-7.911427650176920939e-04,-2.154170766992404657e-04,3.089223802089691162e-02
-2.892454301159037566e-01,-4.540375057558949656e-01,-5.007657774981667531e-01,5.438550254855384347e-02,-8.592309905443590301e-02,-5.619366510644206031e-02,2.784515619277954102e-01
-3.196255130455543658e-01,-4.527275939666111082e-01,-4.760580658157275713e-01,4.781030665096217165e-03,-5.888333170681704642e-02,-2.693064752190261341e-02,1.844231635332107544e-01
-3.030606254743071770e-01,-4.617743027682572055e-01,-4.618585825732005601e-01,8.125517177214089393e-03,-2.171568572736884417e-02,-1.402632419724280169e-02,1.655488312244415283e-01
-3.504973972587834830e-01,-4.491417900983971090e-01,-4.419074286426054043e-01,-1.649470050833152721e-02,-5.362287747085357423e-03,-6.621683562214120480e-03,1.005159243941307068e-01
-2.060113808636999111e-01,-5.133820536644532195e-01,-4.862527454201827637e-01,-2.354927256081416637e-03,-8.701512392163175680e-02,-2.944300972682978995e-02,3.349719047546386719e-01
-4.234182501357998119e-01,-4.198894371915564139e-01,-3.995826694415091640e-01,-1.064700363440488663e-02,5.740551495931458213e-03,-1.149617423967696887e-02,3.649520501494407654e-02
-4.384928738332423692e-01,-4.380680732811242373e-01,-3.603500710702850496e-01,-1.627686500787665393e-03,-4.059543176235234398e-03,-3.823905417891157715e-03,7.857822626829147339e-02
-3.941131329037072528e-01,-3.938493212505998486e-01,-4.395422476500295828e-01,8.657604869408265329e-06,-8.391017286427713108e-04,2.442166657739269905e-04,4.558673128485679626e-02
-4.244357901131703970e-01,-4.390150138627401666e-01,-3.790594912085842871e-01,-1.769899548579873926e-03,-5.622530455156793047e-03,-6.428946348535592367e-03,5.622582882642745972e-02
-3.880352923436515278e-01,-4.376327700846966429e-01,-4.131862189454319489e-01,-1.490703421613344057e-02,1.241884564187390599e-02,-1.257013835523951469e-02,5.872328206896781921e-02
-4.082387964435029715e-01,-4.134389219970464602e-01,-4.159087023055406118e-01,6.140536643079500770e-05,-8.824138746496261866e-05,-1.919265172346160640e-03,7.554448675364255905e-03
-4.228180853201410350e-01,-4.096103390807059874e-01,-4.140625277631334034e-01,-1.105894745672005193e-02,4.583074774695882446e-03,-1.235347473265900956e-02,3.198754042387008667e-02
-4.179134938421298351e-01,-4.135290797125985018e-01,-4.057674845947485398e-01,-5.389692435535457272e-03,1.599714349282498017e-03,-2.776677075417670337e-03,1.521344482898712158e-02
-2.086368097830994806e-01,-5.197736189662152118e-01,-4.947892395928299436e-01,-1.478494503637045598e-02,-3.427507359995589364e-02,-2.266488452846039670e-02,3.088332712650299072e-01
-4.200076046922255335e-01,-4.137582567085090757e-01,-4.048920264230757571e-01,-3.103043314415292620e-03,1.295661749410334821e-03,-1.841656420165293292e-03,1.473670545965433121e-02
-4.329742715929950081e-01,-3.972145201677101389e-01,-4.095186905240670860e-01,5.761017150882172429e-04,-5.706527544917042345e-03,-5.221488726537739516e-03,3.421460464596748352e-02
-4.324465785584633570e-01,-4.047185269576569766e-01,-4.043121248898290387e-01,-1.049916258218731900e-04,-9.104434486919210038e-04,-1.319297305782561472e-03,2.807169780135154724e-02
-4.260071732269438138e-01,-4.125449055695539213e-01,-4.013505507138742656e-01,-5.312078677780024405e-03,9.650153938239552746e-04,-3.223195107372795864e-03,2.399714291095733643e-02
-3.471797526324366112e-01,-3.039540466131966379e-01,-4.835798674154306309e-01,1.747966006294826569e-01,8.426786764199949153e-02,1.026346219871882709e-01,4.134438633918762207e-01
-4.286489606811517694e-01,-4.036870237185829491e-01,-4.080882542336460861e-01,1.274472324364594989e-04,-2.552924550566502363e-03,-8.603184109715091010e-04,2.354628033936023712e-02
-4.243235298635048558e-01,-4.054068572410796101e-01,-4.119799104899259934e-01,-7.081497195631584682e-03,2.862309018069891017e-03,-1.269787390731431931e-02,3.058487363159656525e-02
-4.054094860018259694e-01,-4.295333262521837669e-01,-3.998057370568660063e-01,-3.869201486209511952e-03,-4.193481941677538126e-04,-5.682451398076555698e-04,2.819492854177951813e-02
-4.309186639526588203e-01,-4.190428544617491036e-01,-3.856205099268497083e-01,-9.455731227500581079e-03,2.411802255926123826e-03,-7.944660691363148244e-03,4.615236818790435791e-02
-3.806938095494321050e-01,-4.204865655979343475e-01,-4.324466288315568230e-01,2.475913830639150503e-03,-2.393640078337313029e-03,-1.113880723295703964e-02,5.109039694070816040e-02
-4.290883396274394745e-01,-4.098385673092749815e-01,-3.996064081154671044e-01,-5.326848734321889232e-03,1.225763569365314384e-03,-5.129550981174338907e-03,2.899634279310703278e-02
-3.790557247508287708e-01,-3.980482778372592123e-01,-4.465961008799551601e-01,3.284957797378918343e-03,-6.178939803789715822e-04,8.178151211233787446e-04,6.062326207756996155e-02
-4.378177317396935719e-01,-4.313655091597000113e-01,-3.430697783934347767e-01,5.739796269238261334e-02,8.405128891783167355e-02,8.054127503306159064e-02,2.427871376276016235e-01
-4.485711092892776253e-01,-4.571123052222560434e-01,-3.116606187397480410e-01,3.695219088480070080e-02,8.814643810741366881e-02,7.314428560476377017e-02,2.518786489963531494e-01
-3.888276244849031005e-01,-3.919221925210344404e-01,-4.440296904332206585e-01,8.774642773443074376e-03,1.872445450964057906e-03,3.844902794318484011e-04,5.592819303274154663e-02
-4.771950435259796341e-01,-4.777797674069472755e-01,-2.872108758009798701e-01,-4.942062817559060919e-03,4.089537919996143189e-02,4.295576594042967156e-02,2.164060473442077637e-01
-3.347287197059485298e-01,-4.355616072749011747e-01,-4.547773964091621490e-01,1.003623721962472980e-02,3.634215531534942464e-03,-2.838638908687566697e-03,1.133140549063682556e-01
-4.457635912857195182e-01,-4.423924606026925499e-01,-3.063870254727671938e-01,1.929297101754905847e-02,4.349810301993429357e-02,4.267227440157666390e-02,1.767003536224365234e-01
-4.684802078647439250e-01,-4.590642180167540665e-01,-3.047242538195857886e-01,1.412221439195235871e-02,4.587563949548906922e-02,6.474469620153128213e-02,2.117791473865509033e-01
-3.720756368749592036e-01,-4.384193222442963056e-01,-4.389139820057695318e-01,-4.710083060862912258e-03,-5.787223121214725950e-03,-6.139025382339269830e-03,6.866323947906494141e-02
-3.906510426945555281e-01,-3.876687281590537881e-01,-4.425488432864986277e-01,1.644386853153016184e-03,1.234042836913635697e-03,1.438205349110303075e-03,5.362776666879653931e-02
-4.014439485835629151e-01,-4.149055307065168674e-01,-4.206502046768026970e-01,9.988029278537306657e-05,-1.947908327963632311e-03,-6.112810792806826037e-03,2.037302590906620026e-02
-4.401237057617344295e-01,-3.532037768129838162e-01,-4.489293263164452208e-01,9.287220349588908713e-03,-1.222878659876449302e-02,-1.232950589333339439e-02,9.778258949518203735e-02
-4.207788514110057387e-01,-3.977804816862872683e-01,-4.193930546544214488e-01,2.454769497093148203e-03,-6.099840018528913249e-03,-2.220678225802248228e-03,2.536671981215476990e-02
-4.514587574419570704e-01,-3.376962401917879553e-01,-4.419273311720873787e-01,1.403399574768605246e-02,-1.706354113969871245e-02,-2.829937444331628513e-02,1.257591098546981812e-01
-4.199153549467640745e-01,-4.104243191857137596e-01,-4.140960672460008429e-01,1.238577832778947965e-02,-1.498760486541910603e-02,-2.812598179390836048e-02,5.979993939399719238e-02
-3.998443120344268853e-01,-3.875862700029342744e-01,-4.262344240215877322e-01,7.715240387725408322e-02,5.036412446170401153e-02,5.852715581293985170e-02,1.921290904283523560e-01
-4.255483338669157067e-01,-3.991651927104428732e-01,-4.163555398517994055e-01,5.407551693281180101e-04,-7.967407519063189267e-03,-2.174009644603809317e-03,2.726788818836212158e-02
-4.595753263591810800e-01,-3.723786380364734194e-01,-4.404229421299423186e-01,2.770690366837932905e-02,-4.509226369539262591e-02,-6.395782831169907756e-02,1.642401218414306641e-01
-4.123979651396074697e-01,-4.071639250705580415e-01,-4.260442875045724609e-01,7.299490985053676273e-03,-2.564497172696469929e-02,-2.636232535379747985e-02,6.710290908813476562e-02
-4.204220120457115573e-01,-4.081409263775981899e-01,-4.110295607918941774e-01,5.414318362479872936e-04,-1.801726759460991079e-03,-1.419914850758814510e-03,1.184737496078014374e-02
-4.145025668557110743e-01,-4.063991218723569943e-01,-4.164604540371441566e-01,1.005560247416236114e-03,-1.304591807034879807e-03,-7.548864879666015559e-04,9.757748804986476898e-03
-4.089998737135804863e-01,-4.102323513576583980e-01,-4.169111338387067045e-01,1.750689336768365949e-04,-1.473139281790421121e-03,-2.867929525457884633e-04,7.823407649993896484e-03
-4.179919869121622167e-01,-3.887844542502806866e-01,-4.296165886343787932e-01,3.187987923357188218e-03,-8.150029673418927867e-03,-1.745987074770112904e-03,3.958082199096679688e-02
-4.554562013987336067e-01,-3.772491502556241660e-01,-4.045942563407748382e-01,-2.130867807772182307e-03,-2.076285165791809384e-02,-4.540098683759956344e-02,1.105268150568008423e-01
-4.403848048293490525e-01,-3.334176595665183096e-01,-4.511038350806106378e-01,2.739166118024350879e-02,-1.780347037689985687e-02,-2.376184121377410835e-02,1.326617002487182617e-01
-3.908478680856793952e-01,-4.697418210450973741e-01,-3.866588412841605038e-01,-1.456148211079168892e-02,-4.039816851777684736e-02,-4.627443204366058112e-03,1.103117316961288452e-01
-4.045748023064744681e-01,-4.345821373952276634e-01,-4.054640296815865685e-01,-5.239138718702301620e-03,-8.143130026610741548e-03,-2.927502321065031995e-03,3.437347337603569031e-02
-4.046217170324706291e-01,-4.072951515657011745e-01,-4.219123010937373408e-01,5.990720569822623057e-04,-3.016182462544262505e-03,-7.336892082395551993e-04,1.702556759119033813e-02
-4.035926857121429068e-01,-4.101049888413063060e-01,-4.216569854189742284e-01,9.582832165917538501e-04,-1.298815498963290429e-03,-3.495465777939124694e-03,1.719184033572673798e-02
-4.029009647561193619e-01,-3.850928099463781784e-01,-4.468140727487422970e-01,1.595759372438763576e-02,-7.625887273656228350e-03,-7.232738287739596747e-03,6.420932710170745850e-02
-4.125705852431147402e-01,-4.422532792253499601e-01,-3.888259051591610449e-01,-7.448335553872330317e-03,-1.575151168329325113e-02,-7.458618339983708045e-03,5.680963397026062012e-02
-3.435100559179088409e-01,-4.484698276871110778e-01,-4.439555945576139084e-01,-1.099394127322990975e-03,-4.692663682656943690e-03,-4.429861671926903222e-03,1.034005805850028992e-01
-4.123275114239553507e-01,-4.338129468914188602e-01,-3.977358870052112860e-01,-4.258049030109761117e-04,-3.257020306815444372e-03,-2.450201334921717038e-03,3.222461417317390442e-02
-3.911717456959449279e-01,-3.873522127335191634e-01,-4.431947951887406090e-01,1.741675278014330561e-03,2.125975476751795594e-03,1.328534266498380143e-03,5.429221689701080322e-02
-4.157488188624441916e-01,-4.218439851801101259e-01,-4.039924182889987891e-01,-1.013612996809100560e-02,4.632720274363287191e-03,-1.144902771384443026e-02,3.182564303278923035e-02
-4.039865008801026280e-01,-4.365811150795447237e-01,-4.055878806008530457e-01,-2.856413871450050497e-03,-9.042439992351764336e-03,-2.882181368491215558e-03,3.615898638963699341e-02
-4.198776419775412938e-01,-4.424266344624087077e-01,-3.815548712283014510e-01,-1.338732741037865432e-03,-2.553814126402935078e-02,-9.257239786531187842e-03,7.113569974899291992e-02
-4.092967213295544138e-01,-4.147729595991179741e-01,-4.133827687818769081e-01,-4.973752041486142333e-04,4.800945458749113280e-04,-2.535430614680202546e-03,6.710263900458812714e-03
-4.051915461976485777e-01,-4.127319205177877315e-01,-4.190218971742803444e-01,-5.520625243434504684e-03,-4.213503256080842682e-03,5.008383679708407546e-03,1.907339133322238922e-02
-4.100738916789812838e-01,-4.122160050858291180e-01,-4.180668810981550410e-01,-1.862138171303968567e-03,-1.873070972136541739e-03,2.716989365685507866e-03,9.717437438666820526e-03
-4.182152115328144903e-01,-4.099456679355665267e-01,-4.085715809917964125e-01,-1.719259313205493116e-03,-1.014608720047765296e-03,6.378417322954351137e-04,9.737192653119564056e-03
-4.079698803515326433e-01,-4.126534813894607856e-01,-4.244364751033406491e-01,-1.196718712590385571e-02,-1.066954788506840890e-02,3.202844929264041414e-03,3.190446645021438599e-02
-4.163347183188999545e-01,-4.094139931837554869e-01,-4.114672335015894800e-01,-2.644346888532460608e-04,-1.350406868223594107e-03,2.356070120530041390e-04,6.614334881305694580e-03
-4.149731209346089744e-01,-4.085049964719584814e-01,-4.146511897047779338e-01,-1.810638784115578450e-04,-1.082376843070920061e-03,4.871682010638911310e-04,6.647025700658559799e-03
-4.126648089139686171e-01,-4.134101006141157608e-01,-4.136999066274636982e-01,-1.403617517026851903e-03,2.111129393409850487e-03,-1.417364954931456776e-03,5.115000996738672256e-03
-3.724509752411289121e-01,-3.773911653411918810e-01,-5.071383919868319712e-01,-1.282470067121919133e-01,-3.075764570221047739e-02,3.152536490200694153e-02,2.695575058460235596e-01
-4.209810399954316829e-01,-4.087086089943938738e-01,-4.113699559221469793e-01,-2.318745003814163923e-03,1.762163014503456780e-03,-1.613634716591587793e-03,1.258137449622154236e-02
-4.144049617017931397e-01,-4.068687432556890027e-01,-4.167299405692538872e-01,-4.600854931093926710e-04,-2.549854577440928676e-03,-1.967948891827340889e-04,9.998908266425132751e-03
-4.329575690450616632e-01,-4.015085014107456218e-01,-4.017377494283946859e-01,-4.963312728142682539e-03,-6.383241628169913223e-03,3.323579019496816171e-03,3.480181097984313965e-02
-4.452054189496343906e-01,-4.408671835102768166e-01,-3.576922111111834335e-01,-5.276937262672194533e-03,-4.092260039459528868e-03,-5.156251569802752441e-03,8.666756749153137207e-02
-4.238108260000043592e-01,-4.109159232714588161e-01,-4.108715226885072402e-01,-1.144107940200475744e-02,1.283706982525933569e-03,-1.666018156647068940e-02,3.737882524728775024e-02
-4.304086694062465024e-01,-4.264290584856857413e-01,-3.867856139404903248e-01,-1.131203936669670715e-02,2.271408017181367808e-03,-2.541512462484452756e-03,4.651825502514839172e-02
-4.105800138951875566e-01,-4.005981080574124720e-01,-4.319100266199323856e-01,-2.559236477515217361e-03,1.138604172707328565e-03,-2.767171202631860203e-03,2.853124774992465973e-02
-4.373598254251067630e-01,-3.887566462731294470e-01,-4.197413691837116878e-01,-4.895233199161240153e-03,-4.141120520544083186e-04,-6.481810319062460655e-03,4.488665610551834106e-02
-4.382062364401690946e-01,-3.978330407518824718e-01,-3.955986783304486498e-01,-4.965782739536565848e-03,-3.554562136766090466e-03,5.313002958168029990e-03,4.383789747953414917e-02
-4.260814893276675397e-01,-4.020093766599878160e-01,-4.047715493306246470e-01,-1.604732422437165967e-03,-3.177300745640181633e-03,3.021821603507387783e-03,2.420764975249767303e-02
-4.311312734111061307e-01,-3.892710404725063800e-01,-4.240961690174064325e-01,-4.580387389752769121e-03,-1.854325432538679770e-03,-6.299706706477822826e-03,4.122614488005638123e-02
-4.234831888683889822e-01,-4.090858268049999968e-01,-4.031870191665911096e-01,-4.375902127028597800e-03,-2.207529053030225785e-03,1.087112989345767958e-03,2.006533741950988770e-02
-4.342330590278541957e-01,-3.970404109118789715e-01,-4.124941359730808221e-01,-2.288571783851856781e-03,-4.221502549055156615e-03,-4.050446755937316297e-03,3.414293378591537476e-02
-4.304268170900132917e-01,-3.995348409392454614e-01,-4.032639688997106120e-01,-1.343161397274758063e-03,-4.490995578595794770e-03,1.057340824526483043e-03,3.036928921937942505e-02
-4.346985903442634469e-01,-3.927936563553634519e-01,-4.039421053197952416e-01,-3.231749811766240939e-03,-6.716648119714484395e-03,3.300527599980503362e-03,4.015581682324409485e-02
-4.373142651302942552e-01,-3.901421381446783521e-01,-4.053411845187788742e-01,-9.269995537925174514e-03,-1.018830693549831017e-02,1.582857367908424226e-02,5.531802400946617126e-02
-4.341309911929044363e-01,-3.867541328764885766e-01,-4.121624680413679687e-01,-4.297370558001072441e-03,-8.431711687801131741e-03,1.252809601195116300e-02,4.925369098782539368e-02
-4.116030677878775856e-01,-4.254035820848374172e-01,-4.041973515517089943e-01,1.715503671010473914e-03,-2.399990269226579681e-03,-2.642472299121258021e-03,1.986349001526832581e-02
-4.321282956712892420e-01,-3.823469027862279601e-01,-4.196121824644025722e-01,3.016834562446963058e-03,-6.936117677906850770e-03,-2.474307725615743081e-03,4.692302644252777100e-02
-4.133642474194715311e-01,-4.141120959721487638e-01,-4.121908284245535126e-01,1.464069250649827200e-03,-1.858464139591591967e-03,-1.768438900757257626e-03,5.384052637964487076e-03
-4.016244151599542844e-01,-4.600944942739782495e-01,-3.829453635518964560e-01,5.596996708092347476e-04,-4.392645493612790109e-02,-8.929432554243632927e-03,1.043482944369316101e-01
-3.884174431704592312e-01,-3.940806593633245369e-01,-4.444323582006264872e-01,4.542764266126641257e-04,-1.212459913078581697e-04,-2.042752523152893511e-03,5.353223159909248352e-02
-4.095894812851387790e-01,-4.351118617781419839e-01,-4.006772989219182235e-01,2.606989485104660095e-03,-1.492708209552899221e-02,-1.117926989344355734e-02,4.496720805764198303e-02
-4.246160085073545365e-01,-3.545174625934308099e-01,-4.593113240844030054e-01,5.518600675892011004e-02,-2.364148854831339339e-02,-3.496838530845268467e-02,1.517605781555175781e-01
-3.980217014560458177e-01,-4.329396938475001955e-01,-4.074010122580911109e-01,1.049395004015068718e-03,-6.671197998406581606e-03,-5.195414106865580382e-03,3.460529446601867676e-02
-4.116603943947139133e-01,-4.252118627421494490e-01,-4.050592769682669902e-01,2.013311140859751647e-03,-1.328780423023361718e-02,-8.452386230526531125e-03,3.275451064109802246e-02
-4.131795105867545614e-01,-4.326319811165646456e-01,-3.927733774729214589e-01,3.787907550989858040e-05,-7.732530343339511815e-03,-3.089132656244393971e-03,3.741346299648284912e-02
-4.067844603005040804e-01,-4.373129037482756942e-01,-4.002363263699821316e-01,8.097589642350197861e-03,-2.691234644913231486e-02,-1.416708373433189783e-02,6.439272314310073853e-02
-4.043417251212101937e-01,-4.339527655539296425e-01,-4.047623835763214384e-01,-2.865970741897135542e-03,-8.109061644011743980e-03,-3.313666646759009030e-03,3.345725312829017639e-02
-4.048445570640763491e-01,-4.322181683543748210e-01,-4.053802121117951462e-01,6.576497971123393014e-04,-9.941780638077366006e-03,-5.192429340216676154e-03,3.337120264768600464e-02
-3.981216856749340005e-01,-4.281941552081744984e-01,-4.159823475312961483e-01,1.300806483593141551e-04,-8.378056397600428321e-03,-1.079492858224033978e-02,3.530524298548698425e-02
-3.779206513400087397e-01,-3.992825241049698937e-01,-4.437312245964058488e-01,4.788475195342672963e-03,1.704749581431349659e-03,3.637286041986467246e-03,5.914998427033424377e-02
-4.067255328159115058e-01,-4.274482852552807799e-01,-4.059258077936520048e-01,3.060497676100892850e-04,-1.761395992248413010e-03,-1.425207037925988471e-03,2.150178514420986176e-02
-4.129734565905797128e-01,-4.058381908468602361e-01,-4.200535107103615107e-01,5.358184530729601970e-04,-3.451584236573417269e-03,-4.945313885576235616e-04,1.374381780624389648e-02
-3.897763373190050729e-01,-5.002433024902133152e-01,-3.701798591618616352e-01,-4.012916625483665262e-02,6.777106429132161158e-02,-4.150246365521444158e-02,1.962877959012985229e-01
-4.001858330790808993e-01,-3.681405105794156585e-01,-4.477819920380638474e-01,1.326560097425534719e-02,6.489669450945579482e-03,3.008308031560820699e-03,7.415495067834854126e-02
-3.787840353737899068e-01,-4.000470394223380466e-01,-4.483241521481850511e-01,2.815419176278711241e-03,-5.844375296464879516e-04,-3.212373882602318192e-03,6.216971948742866516e-02
-3.862131601692445626e-01,-4.654620468156456248e-01,-3.799822530656703501e-01,5.083147194590628866e-03,4.723100478128502283e-02,8.736760598433094410e-03,1.175236776471138000e-01
-2.102235327387644015e-01,-5.189524274237538037e-01,-4.561944270855461947e-01,-5.668971124341196099e-02,1.075580760710414946e-01,-4.199280663550097881e-02,3.598811924457550049e-01
-4.133972446481996021e-01,-3.636218258846105056e-01,-4.489040925645271241e-01,8.049244109391808649e-03,-7.735574487586075083e-03,2.477137045951601489e-04,7.667965441942214966e-02
-3.218869187655828967e-01,-4.959303606523571273e-01,-4.508764746938028756e-01,-5.296348121656514751e-02,4.319544819825273108e-02,-3.991727138852539658e-02,2.080210000276565552e-01
-5.485422532143606755e-01,-2.919828629697103772e-01,-4.031805352521998786e-01,-3.584047547776018916e-02,-9.328292511489430505e-02,1.504302048554654048e-01,3.840641975402832031e-01
-3.577787736616530601e-01,-4.507224909953729819e-01,-4.151854681285665483e-01,1.372622014737319646e-03,7.545512499808367315e-03,-3.702338786818618402e-03,8.255936950445175171e-02
-4.115910581780460875e-01,-3.977207815454241735e-01,-4.340675149131263955e-01,-2.885073265804408149e-03,1.129015470135643663e-03,-3.720829538755406757e-03,3.285816684365272522e-02
-2.839093309659815878e-01,-5.275058566591084297e-01,-4.329876449576993136e-01,-1.282970615112636048e-01,1.249065435044045269e-01,-4.014786573894880278e-02,3.824520111083984375e-01
-3.000110653270470773e-01,-6.056107170377574844e-01,-3.221708482247213068e-01,-7.562744969477215584e-02,1.716750615849159667e-01,-2.028071796572069457e-02,4.403630495071411133e-01
-4.340708775371764361e-01,-3.635291419301774907e-01,-4.461689595975918410e-01,-1.740893757304635969e-02,-5.230044637564474838e-03,-1.047323616731567035e-02,8.541814237833023071e-02
-4.169090915418147691e-01,-4.483567441234531104e-01,-3.735045283530690208e-01,-1.163214595435469595e-02,1.759342207784786796e-02,-1.018453438470648745e-02,7.670438289642333984e-02
-4.056058394706018033e-01,-4.074953082784925629e-01,-4.285823363869731284e-01,-8.414161150191341865e-04,1.274585300870133883e-03,-1.736180011959139119e-03,2.245254442095756531e-02
-4.064954494710401045e-01,-4.117927049207692480e-01,-4.210078862157551338e-01,-5.359198851003393101e-04,5.133873239265150830e-04,-1.872090350013263247e-03,1.318947132676839828e-02
-3.061449449603658168e-01,-4.793634540668945121e-01,-4.278051465288280619e-01,-1.170400577024505520e-02,4.924840251198840668e-02,-1.297791289493848386e-02,1.786742955446243286e-01
-2.618379070848410040e-01,-5.262033540306362278e-01,-3.739639949607407310e-01,1.005202345752314458e-02,1.684328803378064843e-01,1.739710339330209762e-03,3.718066811561584473e-01
-3.712697066061667051e-01,-4.216852122446060336e-01,-4.222212925396580108e-01,2.284689128573212311e-02,2.238507613205424629e-02,1.373230672765160532e-02,7.876536250114440918e-02
-3.414479665796796848e-01,-4.492454409343377697e-01,-4.437506288559496803e-01,-3.274639193206689992e-03,2.888689153875131227e-03,-1.427525573554262218e-02,1.082899495959281921e-01
-3.742811422985497516e-01,-3.589598654910466369e-01,-4.865342095074859929e-01,7.549999214422357940e-02,3.834982806269106315e-02,2.052762367762514181e-02,1.932158768177032471e-01
-4.000786592070124104e-01,-4.193123463511668758e-01,-4.204684051825121061e-01,-9.705721786414773199e-04,9.736880684077130936e-04,-6.284224016063277157e-03,2.275194786489009857e-02
-4.115827704341847304e-01,-3.921837751976217090e-01,-4.396673953367503107e-01,-6.033160185701105620e-03,-2.497050285812142407e-03,-2.958908844208845736e-03,4.317463189363479614e-02
-3.948272832764044837e-01,-4.101118450373018587e-01,-4.392338586193214600e-01,-4.095405351473188106e-03,-2.854906592613908403e-03,-2.781690401344000425e-03,4.030891507863998413e-02
-3.934647686793769639e-01,-4.308252597854813071e-01,-3.936691370467907958e-01,6.112499670882213902e-03,7.315425300498890060e-03,6.510496347981830148e-03,4.228482767939567566e-02
-3.910697629060373437e-01,-4.289186273787096160e-01,-3.952146815481091813e-01,1.821549019537933986e-03,3.777410268926077730e-03,6.528100841349629077e-03,3.838548436760902405e-02
-3.908785569612587274e-01,-4.244194923839427203e-01,-4.000109240615019601e-01,3.050118206517761325e-03,2.718482161968011849e-03,6.228808813726405443e-03,3.268884494900703430e-02
-4.272943778273321502e-01,-3.922643101960929246e-01,-3.906054500386653694e-01,9.845461518520394820e-03,9.576137212005146268e-03,1.533889862739269867e-02,5.059367045760154724e-02
-4.215240561243421835e-01,-4.000528244938812983e-01,-4.207194252478181351e-01,-3.857707393039996966e-03,2.517127969668995352e-03,-4.139823972663990090e-03,2.365275286138057709e-02
-4.061256475524218645e-01,-4.087727816348966092e-01,-3.921579989210154382e-01,1.733244488940556896e-02,9.211765755033669498e-03,6.824464334303871615e-03,3.917406871914863586e-02
-4.348006667944356862e-01,-4.034061354048440462e-01,-4.040096209978797925e-01,-1.505123133334997695e-03,-3.688730638327259196e-04,-1.519740488463853026e-03,3.132360056042671204e-02
-4.066908852995278489e-01,-4.204431659854747649e-01,-3.857415889069437664e-01,1.089873539756863741e-02,7.363357156984945071e-03,5.528313581121493785e-03,3.907416015863418579e-02
-4.303594995593941763e-01,-3.805704924642344111e-01,-4.278329237484569392e-01,2.412797459389820834e-03,-1.024314712346566757e-02,-4.560311810156708265e-03,5.248002707958221436e-02
-3.986005675861246655e-01,-4.165735320726255964e-01,-3.956246626656326204e-01,9.573402342759865583e-03,9.570544563550633516e-03,1.089514028969908177e-02,3.593351691961288452e-02
-4.499469054211920893e-01,-3.634767273139606902e-01,-4.291342500252086078e-01,-2.066856240161254327e-02,-4.750977148359072401e-03,-3.875804513197034923e-02,1.093911603093147278e-01
-4.067791482250740498e-01,-3.938822626769242219e-01,-4.125221739877742433e-01,2.724536621103601855e-02,2.050731206281014227e-02,2.607739114244195244e-02,7.617118954658508301e-02
-3.911891721255289500e-01,-3.920780012657158475e-01,-4.343517250968916277e-01,1.466500153191652210e-03,1.868396269429751112e-03,3.500715537350311980e-03,4.334883391857147217e-02
-4.073505956024554564e-01,-4.040039854527752716e-01,-4.051212479594161753e-01,1.112459130848585977e-03,1.940733679993659078e-03,7.480484057300287480e-04,5.039821378886699677e-03
-4.301026247051342177e-01,-3.802299479747749400e-01,-4.293181740479178332e-01,2.393996868009367739e-03,-9.305938285175965885e-03,-4.042043338781065205e-03,5.267623811960220337e-02
-4.450199229534533840e-01,-4.624498658896908920e-01,-3.174642749825280497e-01,-7.076893789001007656e-03,1.611437578789802830e-02,3.051943835509753067e-03,1.405515670776367188e-01
-3.971579062734156285e-01,-4.163556497198451778e-01,-4.010353406717422908e-01,2.024889409815396665e-03,2.775725103331902217e-03,4.490118965046417318e-03,2.012580074369907379e-02
-3.856082083480111278e-01,-4.002187694607556856e-01,-4.407859413376888358e-01,3.204702308942920970e-03,-1.171251254924459849e-04,-2.910186318731943986e-03,5.008125677704811096e-02
-4.040466441119822116e-01,-4.065377569042402661e-01,-4.311411159404813787e-01,-5.880508642652954726e-03,1.301253421022117822e-03,-4.822929390171308561e-03,2.917916327714920044e-02
-4.146931031470244555e-01,-3.893138201667449838e-01,-4.309963198654382377e-01,3.674773939037871001e-03,-9.612137333725371754e-03,-1.633441113458218097e-03,4.061234742403030396e-02
-4.031053915588592162e-01,-4.269423899829122848e-01,-4.107408899692410187e-01,-2.956643942797314837e-04,-1.525130646004514614e-03,-3.031538722455552701e-03,2.189308032393455505e-02
-4.047916197765334956e-01,-4.026227628728734631e-01,-4.341859973854860222e-01,-4.860680521379035467e-03,-1.084762405388106296e-03,-2.926929995405125502e-03,3.213401883840560913e-02
-3.942430299107390068e-01,-4.130022616111442835e-01,-4.378084751492796189e-01,-2.052181700762503030e-02,-3.211013513939459108e-03,-5.176099937346386251e-03,5.298438668251037598e-02
-4.024533623883871924e-01,-4.263003075444303236e-01,-4.137674035847230813e-01,8.737856053797493378e-04,-8.432262110417156585e-04,-6.178603622966363784e-03,2.336296252906322479e-02
-4.025264884012805799e-01,-4.041060160133216339e-01,-4.375294258165319805e-01,-8.697693107841547588e-03,-3.057004612877503840e-03,-2.662840733326168972e-03,3.806139901280403137e-02
-3.834314719928018089e-01,-4.131974830121636910e-01,-4.473643344096300822e-01,-1.451680595326698860e-02,-4.989549446718053415e-03,-1.056980309031126282e-02,6.412848085165023804e-02
-3.990109861119726653e-01,-4.003020452701798182e-01,-4.313157162104584441e-01,9.635015918508813091e-04,-3.670935480437268698e-03,-6.717768937357919846e-04,3.237470239400863647e-02
-3.807121054349243972e-01,-4.149094995131766273e-01,-4.414047751301418132e-01,-1.208921547134115225e-02,1.764200437022222286e-03,-7.519087861735417218e-03,5.826598778367042542e-02
-4.000190172986518578e-01,-4.064909223546715467e-01,-4.354539720119599000e-01,-4.372044570746981204e-03,-9.770729493078279294e-04,-4.186532676905971133e-03,3.436538204550743103e-02
-4.769333348247217774e-01,-3.039629739747262693e-01,-4.868669461549988142e-01,1.804510717564816388e-02,-9.112476683437371883e-02,-1.351238377479277719e-01,3.352596759796142578e-01
-4.034473009077121364e-01,-4.275288135444040849e-01,-4.089054770973664099e-01,-3.120349289368084308e-04,-1.382879166814453796e-03,-2.071582104416007288e-03,2.229738421738147736e-02
-3.994747186697322761e-01,-4.209136241713920534e-01,-4.102316710976206537e-01,-4.258438118138389156e-02,3.207193605024758615e-02,-2.695520277869200079e-02,1.051217690110206604e-01
-4.029301230338195317e-01,-4.189640169482202747e-01,-4.288944798652286061e-01,-2.767662929153431178e-02,-2.468147693648300653e-02,7.016220310988892503e-04,6.813159584999084473e-02
-4.029424050463017992e-01,-4.004348246117341859e-01,-4.291703432118191275e-01,7.147863744569893547e-03,-5.956518765775345101e-03,-5.581775299112865310e-03,3.336384519934654236e-02
-3.912253107065049029e-01,-3.937344230899144093e-01,-4.428784078952298642e-01,1.070222611420005134e-03,-1.614730162127711414e-03,-1.271304014205240727e-03,5.060475692152976990e-02
-4.427815180874161705e-01,-3.894871616446625162e-01,-3.907198080795002970e-01,3.973246317415101737e-03,3.243539329641507377e-03,8.044451468446534373e-03,5.521934479475021362e-02
-4.407557590271273251e-01,-4.021764206482690840e-01,-3.708889758312730045e-01,8.706654381608143825e-03,3.940138773759881835e-03,1.006612534795118738e-02,6.520958989858627319e-02
-4.627506685850317214e-01,-3.613815533755356246e-01,-3.649472176727119876e-01,3.236307554086102073e-02,3.207166367895439296e-02,8.391488046946657398e-02,1.930802017450332642e-01
-2.733441675148209904e-01,-5.731111689566450451e-01,-3.582851645887868419e-01,5.225053159078027476e-02,1.735750722288049719e-01,-4.902596189820973994e-04,4.125393331050872803e-01
-3.959296842679987938e-01,-4.718699347110420494e-01,-3.599861718434250180e-01,-1.026882177243705271e-02,3.513592873213708390e-02,-1.813605476488578880e-02,1.216351613402366638e-01
-3.130390624063632554e-01,-5.015195520900661563e-01,-4.282366126362017189e-01,-8.106307345016544944e-03,7.912408882295392243e-02,-1.644885479336014381e-02,2.165030539035797119e-01
-4.038060475810703598e-01,-4.041442325488579512e-01,-4.344873184395616206e-01,-1.723513555040264919e-03,-2.007597062058134527e-04,-1.592424874851362413e-03,3.078503906726837158e-02
-4.065124530247137824e-01,-4.350342896053556174e-01,-3.984391232825563733e-01,-4.045649692896930924e-03,-6.702344660647988409e-03,3.997969979131662773e-04,3.596227988600730896e-02
-3.858212695679227866e-01,-4.500190561821532098e-01,-4.102704308591832993e-01,-1.183222853598420166e-02,-5.733337409930000517e-02,-1.441511032451950683e-02,1.185507252812385559e-01
-4.059482853447441975e-01,-4.079322419795882171e-01,-4.275673383510791292e-01,-3.592894834345551104e-03,2.770174674006746496e-04,-3.087289562140276607e-03,2.227059192955493927e-02
-3.612257024132333183e-01,-4.732225415958256631e-01,-4.199706663558730457e-01,1.578728312635301490e-03,-4.228637753859734033e-02,-3.345888869678805694e-02,1.347048431634902954e-01
-4.200149277966940264e-01,-4.133912301498670061e-01,-4.036971121343529978e-01,-5.566270085702306261e-03,-6.800755728479106373e-04,-2.141571850980245842e-04,1.722020283341407776e-02
-4.011993670783404742e-01,-4.056861993248124243e-01,-4.342323461490475434e-01,-1.377143763348174328e-03,-2.895322748380555855e-04,-1.944563479569841368e-03,3.131103515625000000e-02
-4.131891933157862407e-01,-4.367822820001435180e-01,-3.940085351734541330e-01,-3.602632077752256166e-03,-3.469719970168157197e-03,-2.243735504671639288e-03,3.830429911613464355e-02
-4.193772364889840065e-01,-4.189537355061062063e-01,-4.005061463148739120e-01,-6.670984091173547473e-03,-9.786885060061017300e-04,5.250338011113971082e-04,2.203433774411678314e-02
-4.282645344222206774e-01,-4.428999499923993444e-01,-3.720055635234544855e-01,-1.037285074777708101e-02,-6.087177598872109928e-03,1.287727898990040408e-03,6.812903285026550293e-02
-4.140066559858175399e-01,-4.492623298886868621e-01,-3.705583316555219886e-01,-1.276881304593403647e-02,-3.328077401877178182e-02,7.471000912720101965e-03,9.296195209026336670e-02
-4.006748439820284058e-01,-4.179991616492266249e-01,-4.196048159164673663e-01,-1.445335861431412596e-03,1.335566574736602547e-03,-7.954471221909059989e-03,2.306438796222209930e-02
-3.680264976910977981e-01,-4.527003235984019547e-01,-3.972866412658352386e-01,1.723733431152886042e-03,1.393710121988373657e-02,-9.477565814284933613e-04,7.837462425231933594e-02
-4.374309805579804089e-01,-1.969619086881519709e-01,-6.104000173752378577e-01,1.757633309124869425e-01,-4.119490086488394182e-02,5.488511064318400169e-03,4.766519069671630859e-01
-4.354616040235594343e-01,-3.039200178279976017e-01,-5.086082522217716395e-01,6.588268873511039792e-02,-4.884277058617776668e-03,1.275192125909172490e-03,2.130105197429656982e-01
-4.186946259673798298e-01,-4.479674141670483833e-01,-3.699108393146098850e-01,-1.223163331859846922e-02,1.744230530983911440e-02,-7.614773715723018206e-03,7.874190062284469604e-02
-2.972910162649670673e-01,-4.925495007706779393e-01,-4.576716116042762184e-01,5.379366495520636685e-03,5.469129213692643099e-02,-1.414431388033380622e-02,2.054082453250885010e-01
-4.006881578389781540e-01,-4.508649838482146621e-01,-3.752836476214602146e-01,3.533279548190902675e-03,2.053591383748775562e-02,6.878696850363671088e-03,7.669676095247268677e-02
-3.597328685960997086e-01,-4.513477154666958313e-01,-4.139209455705613050e-01,-1.013377868133156817e-04,8.200493014557573568e-03,1.963815102032772687e-03,8.110819756984710693e-02
-3.568960353277217945e-01,-4.481794498402595917e-01,-4.320989361332407408e-01,-2.541118735154775793e-03,6.550662655296592661e-03,-1.087967377365895230e-02,8.733022212982177734e-02
-3.884361034534682400e-01,-4.341879351567435874e-01,-3.930569204998293209e-01,1.073341548170005794e-02,2.235730780315858465e-02,1.521030615443104417e-02,6.665131449699401855e-02
-3.662127974841672962e-01,-4.688437266360325761e-01,-3.841316001823830151e-01,9.041197777462663099e-05,4.122050192891009435e-02,1.001674477835815501e-02,1.200565993785858154e-01
-3.454295609285225055e-01,-5.336190260266038266e-01,-2.989678155027040152e-01,-2.919058837828562500e-02,1.558080188105242514e-01,-3.212547163522935095e-02,3.532681763172149658e-01
-4.371734098818569336e-01,-3.987939698118507792e-01,-4.053935227814979836e-01,-8.661775899707807634e-04,-2.837047638475938445e-03,-5.725813818889665015e-03,3.725587949156761169e-02
-4.385711561051149898e-01,-4.838471792781292580e-01,-3.181793668958558530e-01,-2.354943542988201938e-02,3.111664386328889809e-02,-3.366504286613773017e-02,1.730994880199432373e-01
-3.092544459229347176e-01,-4.113308206748307327e-01,-4.718510523318203420e-01,7.496407122266375567e-02,2.825721838891478641e-02,1.190488406664066620e-02,1.998484283685684204e-01
-3.086457000467529577e-01,-4.337621467027594768e-01,-5.208773120075295138e-01,6.776361434453612165e-02,-1.289390388641130022e-02,-2.733228421159326210e-02,2.250741124153137207e-01
-3.351103666115059498e-01,-4.200917288223206536e-01,-4.668218978030071464e-01,4.416070196571655199e-02,1.400982268786534618e-02,4.880036022136092578e-04,1.407720744609832764e-01
-3.450106407418384036e-01,-4.154875705567784294e-01,-4.574790452059102064e-01,1.742721458265406032e-02,8.752038596172245864e-04,-8.948182122666326803e-04,1.029831767082214355e-01
-4.316660312998820692e-01,-3.582282774854924634e-01,-4.455329744791085012e-01,5.958471480078419633e-03,-1.079317553157118151e-02,-2.656795100056643516e-03,8.414818346500396729e-02
-4.530953861589404053e-01,-3.476920394009798132e-01,-4.422299114664410280e-01,-1.562258155581099182e-03,-7.244707153130910265e-03,-6.461093661865847937e-03,1.018463671207427979e-01
-4.222317343480961327e-01,-3.599950876845240400e-01,-4.526046738525631996e-01,2.851309993545411703e-02,-1.412483437280957418e-02,-8.894663653457285379e-03,9.980528056621551514e-02
-3.249343142456797562e-01,-4.333184235683343877e-01,-4.670596381472876257e-01,1.244627212570070286e-02,-3.597791220757711947e-03,-5.224912212238087307e-03,1.308742016553878784e-01
-3.152293026812466037e-01,-4.430172794594727237e-01,-4.678909185448721919e-01,2.156013373609191874e-02,2.932839239844490831e-05,-8.439316632289825190e-03,1.474286466836929321e-01
-2.881588116869152616e-01,-4.567569985861292259e-01,-4.709387318720931748e-01,4.419124925896578820e-02,7.319492432240305539e-03,-9.217629889331864414e-04,1.924561262130737305e-01
-4.184873032668949278e-01,-3.779317992949610683e-01,-4.357871170930378568e-01,5.629028158513172536e-03,-1.232838754697047901e-02,-7.682470351800931539e-03,5.808374658226966858e-02
-4.451214693217531160e-01,-3.185048415211241823e-01,-4.910502370386414794e-01,5.087093695979747615e-02,-2.468962094342098262e-02,-2.549121324880584613e-02,1.884098201990127563e-01
-3.158933070023287049e-01,-4.527560201006430862e-01,-4.587841626915746818e-01,1.795919634504231782e-02,7.907725337592241485e-03,1.702639339034998684e-04,1.440418362617492676e-01
-4.032059584429620869e-01,-4.413808714188882099e-01,-4.024856007479185593e-01,8.442801013419503134e-03,-6.747260567003490750e-02,-3.029413686771090242e-02,1.345735788345336914e-01
-4.021754805540453392e-01,-3.857652306796804931e-01,-4.423938290463676482e-01,4.690307327850684431e-03,-6.051026201331612987e-03,-5.197051046432883637e-04,5.218674987554550171e-02
-4.074403461659829029e-01,-4.207636293711946029e-01,-4.077846348395094411e-01,2.476995281828884080e-03,-3.047869015290260303e-03,-4.415959604070622199e-03,1.666788756847381592e-02
-4.064824998999631567e-01,-4.231051724316996498e-01,-4.082273117187110167e-01,-3.023028014065202648e-03,-3.068033554515894965e-03,2.178686591974007998e-03,1.789549551904201508e-02
-4.017125593076325552e-01,-4.338225273116019798e-01,-4.056534688371224995e-01,-1.990677677597418437e-03,-3.876594570166611974e-03,-5.490097179779117580e-04,3.127163276076316833e-02
-3.899903139135328933e-01,-4.393324701643533947e-01,-4.105056436000578124e-01,-7.133563152882357698e-03,-1.027940237440786928e-02,-7.384905660828342119e-04,4.810981452465057373e-02
-4.018951908061321743e-01,-4.320041611933862491e-01,-4.067965704543892724e-01,-1.423343180086978407e-03,-4.443793754468219372e-03,-1.070277874161022335e-03,2.918482944369316101e-02
-4.362620203802062280e-01,-3.737256422031036696e-01,-4.296918105345138295e-01,5.414683649893664054e-03,-1.120198321664404167e-02,-5.829348870906431862e-03,6.410493701696395874e-02
-3.868792628503810449e-01,-3.960046689196443093e-01,-4.451318740097816029e-01,4.891342122027551170e-03,-1.932415148561283328e-03,-3.688952910491009960e-03,5.539733171463012695e-02
-4.066952997637304223e-01,-3.853319030297056580e-01,-4.394300130623685074e-01,4.547248466066535454e-03,-4.873524690262946366e-03,-5.950257669135043843e-04,4.859659448266029358e-02
-5.042816995494742160e-01,-2.492561642794465793e-01,-5.010209523234049334e-01,1.281482849322184911e-02,-1.956952532593747573e-02,5.556690557507585650e-03,2.568098008632659912e-01
-4.818209098386139200e-01,-2.382490291151448114e-01,-4.885788699470022256e-01,6.096921671828461203e-02,-2.995973582506476773e-02,-6.513489318067486322e-02,2.959580123424530029e-01
-4.107585991503706624e-01,-4.218069057857932735e-01,-4.061121079652457166e-01,2.985638075995803928e-03,-3.292171140908324491e-03,-3.441562439567111883e-03,1.702295988798141479e-02
-3.889991578486275414e-01,-3.911655466498465961e-01,-4.451258360244476631e-01,2.301921505371194287e-03,-1.028594748918012754e-03,5.509722812056572260e-04,5.525654926896095276e-02
-3.825310656396859743e-01,-4.212177160849324697e-01,-4.275748871759886827e-01,1.771964170128547192e-02,-1.665981900864906690e-02,-1.801944049224276159e-02,6.731801480054855347e-02
-4.129067263680906708e-01,-3.529285731389614766e-01,-4.573533625676097780e-01,1.039134770615283455e-02,-2.705830868824935388e-03,2.475769862030626628e-03,9.275237470865249634e-02
-4.539677156328215668e-01,-3.505190925561604276e-01,-4.348180780908216803e-01,-1.506705444655793036e-04,-1.422782742465789584e-02,-3.436205313026928498e-02,1.150518804788589478e-01
-4.935153172124596699e-01,-3.537761201689977875e-01,-3.463287064215974098e-01,-3.529207080387279649e-02,2.396535850159801223e-02,-1.413589783312929060e-01,2.933085262775421143e-01
-4.046202984767957034e-01,-4.043775696410305542e-01,-4.328134202703500244e-01,-1.812920375947218868e-03,-8.638849071059406933e-04,-1.886644641037831796e-03,2.871465682983398438e-02
-5.027967186204507222e-01,-1.744233803526907822e-01,-6.113628950624203640e-01,1.893895213488330787e-02,-9.766283924449380149e-02,-7.854423961790303610e-02,4.510694444179534912e-01
-4.876371389385892319e-01,-2.821556324760439716e-01,-5.034653849376102830e-01,-1.582963650904124385e-03,-3.633518237477227630e-02,-3.358776305983461608e-02,2.303871959447860718e-01
-4.043737888773472622e-01,-4.030181776287425910e-01,-4.350848635965782196e-01,-1.138442612736242096e-03,-1.735630433055579186e-03,-1.632403316832003711e-03,3.174208104610443115e-02
-4.208223459658270160e-01,-4.097301938137822286e-01,-4.067614847693470925e-01,-2.743007859739694798e-03,-7.069994772070036610e-04,-2.880426929060949257e-05,1.374237053096294403e-02
-4.488796754142856948e-01,-2.050506672558904397e-01,-5.807335741856034517e-01,9.824454311506156112e-02,-8.144008528831072138e-03,-5.032529391807607361e-02,3.817600011825561523e-01
-4.809365531747443745e-01,-2.973058326710960597e-01,-4.505131130994439181e-01,-3.820244000395735251e-02,-5.651543710041374846e-03,-9.830654236174825311e-02,2.500515580177307129e-01
-4.017647009233140665e-01,-4.099979879615214262e-01,-4.238106632966549547e-01,1.726723304863315468e-03,-2.995574314879593299e-03,-5.442182535936382348e-03,2.229389920830726624e-02
-3.819394847741338639e-01,-4.120616036620346478e-01,-4.386642080740870697e-01,3.806955557766364233e-03,-6.418679862226151639e-03,-1.211122605495483159e-02,5.498626828193664551e-02
-3.893054740737221242e-01,-4.055828050661032802e-01,-4.355770814108642641e-01,1.484582795662211553e-02,-4.587064419623819271e-03,-6.017310238616958330e-03,4.985757917165756226e-02
-4.477961045802196227e-01,-3.486249590420442690e-01,-4.454635313979819489e-01,-6.290572032455821368e-03,-9.327405154305225266e-03,-2.716007786897437284e-03,1.000543758273124695e-01
-4.001654053040376580e-01,-4.030073922626158933e-01,-4.333514989964954434e-01,3.542963839560057428e-03,-4.740635257955101711e-03,-6.435244045198087147e-03,3.527598455548286438e-02
-4.310003839820025218e-01,-3.996308129221274319e-01,-4.002275879032827777e-01,-1.700012664869803242e-04,-9.874621746014601749e-04,-4.153646034077666674e-04,3.113221935927867889e-02
-3.919838384298000578e-01,-4.057659560790910502e-01,-4.348026248209456712e-01,1.540015242235709837e-03,-3.099391510623643580e-03,-6.441767236788296588e-03,3.992097824811935425e-02
-3.976410086273222677e-01,-4.114960630862158908e-01,-4.237646222576735844e-01,3.158647225068686015e-03,-4.015692790232727738e-03,-6.848910385580978324e-03,2.704612538218498230e-02
-4.140191271446456711e-01,-4.139762455008142994e-01,-4.109438790005531805e-01,4.165159331493771544e-03,-8.593844823970296296e-03,-7.394899686849080132e-03,2.114211209118366241e-02
-4.146829581947965027e-01,-4.146505155608395943e-01,-4.080783973956720878e-01,4.053206876323953677e-03,-2.904882000663016207e-03,-2.412218208792770661e-03,1.163889467716217041e-02
-4.368480458119728405e-01,-4.392084428634424609e-01,-3.570581084230615154e-01,-1.373202665862984645e-02,1.900472650894732829e-02,-2.260625149433719006e-02,9.870518743991851807e-02
-4.028684885584070119e-01,-4.213407036046257215e-01,-4.134152856566283840e-01,2.100158859282100741e-03,-3.203789480007445539e-03,-5.815925208115496625e-03,2.007821574807167053e-02
-4.123168905726801170e-01,-4.241073069470413515e-01,-4.099504013345847686e-01,3.569019003368194276e-03,-1.101925980300732730e-02,-1.138806838978967742e-02,3.104941733181476593e-02
-4.078166290104816571e-01,-4.263385604342873059e-01,-4.047486026952427096e-01,9.390083632050522620e-04,-9.460548882024303469e-03,-8.663125573138950181e-03,3.009320423007011414e-02
-4.138133878017398737e-01,-4.224408297483089880e-01,-4.030879076050416510e-01,3.334826006334413832e-03,-5.070169843006139959e-03,-3.562553326128964967e-03,2.074995264410972595e-02
-4.065878121104747889e-01,-4.260711743902840243e-01,-4.067500843068824756e-01,1.435123505785853258e-03,-2.926037902976998551e-03,-2.805355868689326897e-03,2.078316733241081238e-02
-4.058660439679761534e-01,-4.070638698975477809e-01,-4.331005780961563745e-01,-2.439957877173388676e-02,-1.032668311566076885e-02,-1.358445243348649399e-03,5.312257632613182068e-02
-3.928981434872856893e-01,-3.958111401545925112e-01,-4.603502910435107176e-01,-6.452438931694320923e-02,-5.306362752017346196e-02,1.881287431659164205e-02,1.623607128858566284e-01
-4.520090663339270676e-01,-3.172068791723696712e-01,-4.606809369227899409e-01,7.195174372572710891e-03,-8.625972196925181870e-03,2.027235737978234573e-03,1.407362073659896851e-01
-4.118447644384892192e-01,-3.656275165651432513e-01,-4.545812380963277777e-01,-3.696432253841201027e-02,-1.115052407287954461e-02,-3.823486197595136939e-03,1.022425815463066101e-01
-4.145342543109045153e-01,-3.650001371165568220e-01,-4.514219488792264867e-01,-3.958480347966261692e-02,-7.448873062648377757e-03,-5.805242332633762069e-03,1.030046567320823669e-01
-4.001667333028469109e-01,-4.138798655786695146e-01,-4.233919607338141322e-01,-9.323673902110026640e-03,-7.385315979264494950e-03,4.329458223686796954e-03,2.982657402753829956e-02
-3.796077612198664464e-01,-4.001942158173959485e-01,-4.514497193341078241e-01,2.043098411036968140e-02,-3.871409501062361876e-03,-3.948185431764055821e-03,7.382480055093765259e-02
-4.185452067087931383e-01,-3.876750479130358085e-01,-4.255455407183970085e-01,-9.092835283983378980e-03,-9.561637381161147350e-03,3.401842403972951418e-03,4.213198274374008179e-02
-4.121059916548988622e-01,-3.883677699376301140e-01,-4.367325819148691890e-01,-2.589407122990298321e-02,-2.047917339301271594e-02,1.270134421393521312e-02,7.421748340129852295e-02
-4.506005413146466632e-01,-2.325878614310517567e-01,-4.889283331543163857e-01,1.315883831880118315e-01,3.256954160721294705e-02,1.093841873246541446e-01,3.851986825466156006e-01
-4.178523697697834605e-01,-3.979563887160220692e-01,-4.229577125505651902e-01,-1.687790548310687429e-03,-7.666380887167046840e-03,1.478650002696906690e-03,2.673790790140628815e-02
-4.144655909378914260e-01,-4.014321981162602970e-01,-4.229337134455040670e-01,-4.348553736876989775e-03,-5.131777934320509542e-03,2.751280018288872631e-03,2.259182557463645935e-02
-3.849939421484480095e-01,-3.779507323024491328e-01,-4.478116978020018069e-01,9.210494883671813127e-02,2.435289410219350359e-02,4.862610104208663769e-02,1.968775391578674316e-01
-3.901775971917707531e-01,-3.846044374126592058e-01,-4.456008059006819622e-01,5.504327622108591035e-03,1.713874201632865565e-03,5.876812921167209490e-04,5.926563590764999390e-02
-4.001247520546099556e-01,-4.222899170120169576e-01,-3.937584419279840930e-01,4.704293012127108362e-03,2.038221998407102435e-03,2.494280145613056530e-03,2.775703929364681244e-02
-4.065134933368182435e-01,-4.134954793000206741e-01,-4.174255327741063226e-01,1.097531831113590607e-03,-1.713112670342970293e-03,-4.189978665003316755e-03,1.251873746514320374e-02
-4.031851246759886598e-01,-4.013876146325620620e-01,-4.289658465954889199e-01,2.332839773899233072e-03,-2.956828864777180307e-03,-5.034260521484744746e-03,2.885834500193595886e-02
-5.474859097187064760e-01,-1.655378388996926464e-01,-5.684458790217857826e-01,2.270143473559783215e-02,-1.002951913137439116e-01,-2.305302050693168112e-02,4.331824481487274170e-01
-3.844053787955805657e-01,-3.900095763006946048e-01,-4.472983429838688907e-01,5.603231074727142193e-03,-5.286321131786060439e-04,5.692685245853627233e-04,6.107754632830619812e-02
-4.081607912895410806e-01,-4.025190546906701194e-01,-4.229927233255076358e-01,2.498103353139472307e-03,-4.658070071678024893e-03,-3.135168993485197130e-03,2.118479460477828979e-02
-3.931082407703523351e-01,-3.884689976844469816e-01,-4.447535562933891962e-01,1.720151186092192495e-03,-2.046183138168430286e-03,-3.194814569255442619e-04,5.431482195854187012e-02
-4.109694746114242458e-01,-4.005469119770535547e-01,-4.226696404044687494e-01,1.736631433220655945e-03,-5.803683512996919702e-03,-2.363198020804871662e-03,2.223329432308673859e-02
-3.976100931851429543e-01,-3.764375515817090512e-01,-4.510565157889782073e-01,4.702423907376333638e-03,-2.443727969397560193e-03,7.991973657498149548e-04,6.725000590085983276e-02
-4.108115487249900943e-01,-4.087034713854450496e-01,-4.168348216951972551e-01,1.263247161231409845e-03,-1.801512556759883544e-03,-4.423022734445311729e-04,8.278402499854564667e-03
-4.114600365679705885e-01,-3.978068362023298166e-01,-4.253544833603780106e-01,2.366908907589505753e-03,-1.015629875895908592e-02,-5.085264575357440441e-03,3.119305893778800964e-02
-3.643563530260917060e-01,-4.232640763597186329e-01,-4.292192754046890713e-01,4.455439697294494988e-02,4.859029077199389368e-02,2.584463046192048141e-02,1.374720335006713867e-01
-3.983172745378464885e-01,-3.776873491083181378e-01,-4.457566831140091779e-01,4.758560982564448427e-03,4.516675417598900281e-03,1.622905234644277973e-03,6.157756969332695007e-02
-4.262216935026698073e-01,-2.701898194001249864e-01,-5.144619706006825499e-01,1.733847599279772778e-01,6.809722559309160095e-02,1.199846609196097702e-01,4.395316541194915771e-01
-3.907639932023387330e-01,-4.195746377240816560e-01,-4.257006695800120144e-01,4.093578432923588965e-03,-4.304290488746103163e-03,-9.666188046818341775e-03,3.781844675540924072e-02
-3.939746815870166508e-01,-3.882526985594396129e-01,-4.344377339690152495e-01,5.813377205722011255e-03,5.146675857680616493e-03,2.709783195068708912e-03,4.587382823228836060e-02
-4.050532866503278595e-01,-4.093770395098397796e-01,-4.220346475153997634e-01,3.218187570956770535e-03,-5.523668449646914128e-03,-5.738805325130180192e-03,2.133173309266567230e-02
-4.084191768315860727e-01,-4.161649886133191312e-01,-4.143142519698231885e-01,2.800099096277174938e-03,-5.050861872549760115e-03,-6.749418488427035880e-03,1.690581627190113068e-02
-4.037150484339493417e-01,-4.054056572517980017e-01,-4.327335492633365144e-01,-1.617091582625494045e-03,-1.819795132608812522e-03,-8.707029195567816309e-04,2.856443449854850769e-02
-4.095560377414128594e-01,-4.173863003886532086e-01,-4.141935809457905626e-01,3.241450617988979972e-04,-7.548650996718787864e-03,-8.276504743172279424e-03,2.057352289557456970e-02
-4.176727556954020759e-01,-4.079136286479143614e-01,-4.124004183196713913e-01,1.976884535155429452e-03,-2.837250957478314010e-03,-3.042949081063609472e-03,1.162916608154773712e-02
-4.151103904156256963e-01,-4.084708766632778598e-01,-4.142196972227691898e-01,2.469040552168241288e-03,-5.582479450322510618e-03,-5.187936964717951120e-03,1.521471329033374786e-02
-4.176562920201016826e-01,-4.040953777783030110e-01,-4.144465364335783719e-01,4.261934355810802037e-03,-8.703106575007923604e-03,-8.287815925029766786e-03,2.526780217885971069e-02
-3.654108815103523922e-01,-4.245247571579534585e-01,-4.463803764248095440e-01,2.483729391247293389e-02,-7.182650985085959477e-03,-1.256715633592254446e-02,8.799621462821960449e-02
-3.082502571293326277e-01,-4.039562812238229883e-01,-5.089630632336223925e-01,9.930009528252002615e-02,-8.322971374423746016e-02,-6.910967787527627637e-02,3.081028759479522705e-01
-2.988275775642399990e-01,-4.161253942690935625e-01,-5.351828584114315390e-01,1.074929219222225119e-01,-9.397761891915058785e-02,-3.608943196950965826e-02,3.270558714866638184e-01
-2.357093881796513135e-01,-4.345817780601653468e-01,-5.219168595306119540e-01,1.181141270427150530e-01,-1.866047804886932643e-02,-2.956075328029242680e-02,3.317607343196868896e-01
-4.572358019825750741e-01,-3.298740322354494214e-01,-4.363161307146301016e-01,4.135563525072378892e-03,-6.537812598700403974e-03,1.172399551135664721e-02,1.207732632756233215e-01
-3.582877042315668614e-01,-4.172067576340283690e-01,-4.604334625855601715e-01,3.478568843635277547e-02,-1.251494441209417656e-02,-9.576607099714865706e-03,1.107339933514595032e-01
-4.039950909288038683e-01,-3.995339147980762062e-01,-4.361193817539499307e-01,-6.430157605470489431e-03,-2.296027437504027761e-03,-1.345310899180903515e-03,3.661242872476577759e-02
-4.239081848071670766e-01,-3.970311273429526500e-01,-4.110941074973865073e-01,-5.027533916256868816e-03,-8.759717585121132299e-03,3.823271711221345754e-03,2.986721508204936981e-02
-4.113238469365829153e-01,-4.212162618892154597e-01,-4.061296809315099177e-01,-1.813334532122309536e-03,2.904687211000048469e-04,3.539842173267785394e-04,1.366439368575811386e-02
-2.637042072705690909e-01,-3.406163011095074689e-01,-6.228142223261992072e-01,1.706197181241863592e-01,1.879646704125943410e-02,-2.467902145617368453e-02,4.443826377391815186e-01
-4.287120800161004497e-01,-3.692669438968859685e-01,-4.392317611358168006e-01,-6.841454514152634815e-03,-1.025280393407143956e-02,-7.387239699261935553e-04,6.875424087047576904e-02
-6.419024419261667447e-01,-2.616632626773498504e-01,-3.868630063180407697e-01,-6.266789864596974957e-02,-7.704343524245867159e-02,1.640335276954129340e-01,4.721872806549072266e-01
-3.316229276201120846e-01,-4.882264201710945217e-01,-3.731449354633418203e-01,-3.027335284114356789e-02,-1.311669323021858180e-01,6.338983258857605781e-04,2.722336649894714355e-01
-3.309308611800912403e-01,-4.341429665336074550e-01,-4.637440618323683816e-01,6.857579150524616141e-02,-1.445695972634052605e-02,5.370412447680550372e-04,1.712306886911392212e-01
-4.124124022610467510e-01,-4.210802347898622289e-01,-4.081886135119099368e-01,1.405690289436737402e-03,-8.962881874092639648e-04,-2.003100835051658743e-03,1.224573142826557159e-02
-4.077481279720455154e-01,-4.277441459038353599e-01,-4.050442332092539788e-01,-3.083756752393551105e-03,-2.873929601644892220e-03,1.658975579739315181e-03,2.286443859338760376e-02
-4.031018123241345563e-01,-4.222016297585617917e-01,-4.127653078656123298e-01,-3.740562142212910078e-03,-4.987334203584917539e-03,3.704097327838452944e-03,2.076949924230575562e-02
-4.138787375832877480e-01,-3.922095136783597669e-01,-4.377505399015200194e-01,-4.340601944326305875e-03,-6.269819457776437677e-03,-1.085108658239175182e-03,4.164959117770195007e-02
-4.060218231185898641e-01,-4.163492707837924134e-01,-4.134955684107449736e-01,-3.923832415979286968e-03,-5.851322417893715239e-03,5.347755266112611157e-03,1.788930036127567291e-02
-4.129568150429782092e-01,-4.173159852298735650e-01,-4.084460955439741525e-01,-1.157454866134149463e-03,-7.602886495441073256e-04,1.253776352418528237e-03,8.335528895258903503e-03
-4.618235246724196053e-01,-3.136862557212112268e-01,-4.541536439157892180e-01,3.949808759131734869e-03,-7.454752984402027161e-03,9.191828089805136395e-03,1.460625678300857544e-01
-4.610174618632574273e-01,-4.190060750602841999e-01,-3.490331539680100459e-01,-6.085243061558595623e-03,-5.060981669423000526e-03,1.633191610237045080e-02,1.029026284813880920e-01
-4.450147116911715717e-01,-3.566543411035144606e-01,-4.333454336437031484e-01,-1.553347543144180951e-03,-1.105904735274450268e-02,5.998845122809965368e-03,8.599261939525604248e-02
-4.134759947234075139e-01,-4.183645490547588386e-01,-4.089276953966132777e-01,-8.937332278653148387e-03,-9.214042109344736803e-03,4.395143537464079111e-03,2.488161809742450714e-02
-4.518512664184589633e-01,-3.312469377585244290e-01,-4.360855095613522803e-01,8.372365114985619652e-03,1.131430436352987056e-03,1.108606653851406700e-02,1.160834953188896179e-01
-4.595925270856000555e-01,-4.357922302384126811e-01,-3.746729270237332265e-01,-5.452566634711192989e-02,-7.391932263908677914e-02,2.269481196667863521e-02,1.805912107229232788e-01
-4.218338215727363005e-01,-4.006765305865099269e-01,-3.957011811885138841e-01,1.483741289334738469e-03,2.015405902180813190e-03,2.091304779933324514e-03,2.468928322196006775e-02
-4.297805025128347278e-01,-4.250812818645766655e-01,-3.818604978374972592e-01,-2.113846612736461697e-02,-2.040628579531741579e-02,1.403430727894713036e-02,7.262136042118072510e-02
-4.062399430144050250e-01,-4.242213724096469685e-01,-4.144442375004331325e-01,-1.114610597254493338e-02,-1.572995411754706321e-02,3.819366230369348417e-03,3.744170814752578735e-02
-4.370488033472315070e-01,-3.320118823407253172e-01,-4.504834920346002525e-01,1.093921418782104957e-02,1.552664055232149841e-03,7.018474822786320219e-03,1.146228238940238953e-01
-3.774693051546394451e-01,-3.986255059545372181e-01,-4.460516738028005856e-01,4.844267877174915360e-03,1.015428675289663024e-03,2.367998192111225864e-03,6.156703829765319824e-02
-4.146813858220678717e-01,-3.867842005409259376e-01,-4.345482038698684768e-01,-1.015206839293235526e-02,3.991594545371620478e-03,-7.779067392191250582e-03,4.759942740201950073e-02
-4.322890239598106699e-01,-3.554177559515434570e-01,-4.416112899723432794e-01,-1.627026583997129641e-02,-1.642697603911874582e-02,9.000792250460638855e-03,9.251732379198074341e-02
-4.175276084785404240e-01,-3.847565231677533282e-01,-4.321455868201807826e-01,-8.790801836873311098e-03,-9.773838863990953404e-03,2.926629871153266747e-03,4.807068035006523132e-02
-3.921882756113013735e-01,-3.885490403285144501e-01,-4.395515937324264155e-01,8.951434550032404472e-03,5.080321573650913719e-03,4.819386715256713388e-03,5.306964367628097534e-02
-4.169633868171172542e-01,-3.842499130779833405e-01,-4.345338135348627562e-01,-8.664292964623138832e-03,-9.953017299442720386e-03,1.841317815977276283e-03,4.986231029033660889e-02
-4.360964908288038067e-01,-4.168070908825843857e-01,-3.627265033816002293e-01,9.872531874578942615e-03,7.397887816816900268e-03,6.980876813160403170e-03,7.030475139617919922e-02
-3.749124982802297668e-01,-4.007158474701415507e-01,-4.371746574615442138e-01,2.676383489677119226e-02,1.953961526725792389e-02,2.174593446792237247e-02,8.745726197957992554e-02
-4.060096042848398423e-01,-3.985673377166906173e-01,-4.373552670466088199e-01,-4.970567635321822449e-03,-3.852819615936223848e-03,-1.021463665120108093e-03,3.732295706868171692e-02
-4.054898210621041832e-01,-4.209275846583869218e-01,-4.132084544709123675e-01,-4.835658550622162045e-05,1.938716532762891850e-04,-2.885852297331708248e-03,1.427752152085304260e-02
-4.098156305092774399e-01,-3.281545424621534202e-01,-4.538475087597619861e-01,7.722629315826902430e-02,3.427039036168839231e-02,5.098003076483748758e-02,2.035067528486251831e-01
-4.214584568436242629e-01,-3.936995988461249318e-01,-4.196843035886272943e-01,-5.396285222342965017e-03,-9.132616751465349667e-03,3.406847418694106903e-03,3.311868011951446533e-02
-4.221603758250717098e-01,-4.103346344163339432e-01,-4.211410324114984727e-01,-2.834529794416027967e-02,-2.415558199356047930e-02,1.612300364497523675e-02,7.120063900947570801e-02
-3.998038169313187229e-01,-3.837513331549943230e-01,-4.340888878995969868e-01,3.228266502422539371e-03,6.005786478937440859e-03,2.278783450478959628e-03,4.624457657337188721e-02
-4.074729871182752317e-01,-4.055546791680637586e-01,-4.267712287710869190e-01,-9.200481635669742475e-03,-6.958341045892161431e-03,2.893210643295977044e-03,2.893848903477191925e-02
-3.199231227316955417e-01,-4.562206003934513587e-01,-4.588058995088495906e-01,-4.812476126835794031e-04,1.145624504726162592e-03,-8.933003860055509573e-03,1.384921818971633911e-01
-4.098159472617382559e-01,-4.194992243634939055e-01,-4.070225843377670571e-01,7.235512183095583333e-03,-6.733236682919882185e-03,-5.805222061254166309e-03,2.286453172564506531e-02
-4.158188171884636963e-01,-4.141040363676612990e-01,-4.091405472552062661e-01,2.814052414964792609e-03,-2.788442403992639172e-03,-2.746773359288823182e-03,1.028616540133953094e-02
-4.256879019329228853e-01,-4.132045175669665782e-01,-3.917720521666905320e-01,-1.666303277826711865e-02,-1.771696863024301710e-02,1.389485406442585863e-02,5.689093843102455139e-02
-3.874905207066403623e-01,-4.069406269139838050e-01,-4.236135579257626071e-01,1.416741413946379612e-02,1.121207670455441618e-02,1.073991405933276237e-02,4.801978543400764465e-02
-3.422585213601549992e-01,-4.459733665521793400e-01,-4.482835323998777266e-01,4.373675475139136848e-03,-2.545171122407673993e-03,-1.305641699681577006e-02,1.076565608382225037e-01
-4.212563692924833347e-01,-4.078220909923148674e-01,-4.091903787818996219e-01,2.428466728538356597e-03,-2.524992231345897075e-03,-2.713299947463233049e-03,1.492900494486093521e-02
-4.239172955813831356e-01,-4.016304329865196254e-01,-4.122495946001565881e-01,5.104828416806267075e-03,-1.135350703252235686e-02,-1.025264910739942005e-02,3.395640850067138672e-02
-4.273177684865726578e-01,-3.923866939122610531e-01,-3.935393193601018358e-01,9.923247560520482083e-03,9.470142993260516340e-03,1.207524835630915602e-02,4.672412946820259094e-02
-4.231559398409377448e-01,-4.152790613310643475e-01,-3.981116347083498708e-01,3.201195840927420141e-03,-3.715015366332465561e-03,-9.928929430332626704e-03,2.932387031614780426e-02
-4.232328792750890134e-01,-4.067644504674042261e-01,-4.121103807698400234e-01,1.960826582733605442e-03,-6.118128717852988445e-03,-5.480970441661422651e-03,2.063252776861190796e-02
-4.107366548358312719e-01,-4.004775674123068341e-01,-4.246299265622649477e-01,7.457696978652730672e-03,-1.044324015616999654e-02,-9.320543729064630425e-03,3.457538411021232605e-02
-2.992001787502431842e-01,-4.620918257981163069e-01,-4.716779518799400495e-01,6.249968512223072828e-03,-3.636643166440879475e-03,-1.327451330820756531e-02,1.699193418025970459e-01
-3.842825902370711200e-01,-4.283634385468504391e-01,-4.269986356961890106e-01,-1.072701709204207376e-02,-8.174273902792126775e-03,4.307056569999661265e-03,4.986118152737617493e-02
-4.419218763307057318e-01,-4.145772883203557302e-01,-3.825592550752977550e-01,8.012867060485499328e-04,-1.461730445601872215e-02,-3.340870468054084330e-02,8.148465305566787720e-02
-4.478092202098928332e-01,-3.977509209409649804e-01,-3.773015748077219178e-01,-1.973071278998377639e-03,-1.848766949058714597e-03,6.451115408862875301e-03,6.398790329694747925e-02
-4.568721136595785270e-01,-3.479567266183761776e-01,-4.168062011200159289e-01,1.380294115893466599e-04,-4.127709974895251571e-03,4.069355934265401348e-02,1.188407018780708313e-01
-4.213190316111811717e-01,-4.065133473247266593e-01,-4.090820461175908584e-01,-7.913985274312574291e-04,-3.058855487216570771e-04,1.146041486104367032e-03,1.392390113323926926e-02
-4.195996782495529653e-01,-3.991522471347914158e-01,-4.240883102152087081e-01,-9.781679057039251515e-03,-1.169510369027459799e-02,5.572179902651142221e-03,3.633929044008255005e-02
-4.294155588368509524e-01,-3.808955389109228706e-01,-4.296006653326621127e-01,-4.168045319365022705e-03,-1.004335916086314395e-02,2.670848748308086475e-03,5.233864113688468933e-02
-4.184206772636359095e-01,-4.087905379388990790e-01,-4.092492278608801937e-01,-1.274628556215095989e-03,-1.560181020301471336e-03,2.843292963327787850e-04,1.004747673869132996e-02
-4.423974045419465928e-01,-3.725164353395614136e-01,-4.172627134094555323e-01,-8.827456277178274979e-05,-8.358507975273325036e-03,5.760375305834479140e-03,6.377953290939331055e-02
-3.873550456296535049e-01,-3.420890866823648180e-01,-4.880951173081032879e-01,-1.305506032205373534e-01,-2.741961902062139272e-02,-1.005308077228033239e-02,2.654180526733398438e-01
-4.419858818256329758e-01,-3.459936137187653582e-01,-4.456251790502420151e-01,-2.144462137743526411e-03,-5.229477210428738407e-03,-4.671871488472281037e-03,9.868344664573669434e-02
-4.147046001016815864e-01,-4.167821098550988923e-01,-4.075315929515870295e-01,-4.500235342720452711e-03,-4.093943336682942871e-03,1.504853675512557573e-03,1.372957695275545120e-02
-4.413739530546128553e-01,-4.323793746846881780e-01,-3.676832666509452507e-01,7.299759222826812189e-04,-7.246200847877437914e-03,-1.249705707344202742e-02,7.400035858154296875e-02
-4.179451503613698660e-01,-4.131509713612898094e-01,-4.066506559596373416e-01,-3.888710129692244007e-03,-1.361701559578369853e-03,1.468320649578620232e-03,1.240156125277280807e-02
-4.265797022879196376e-01,-4.020804479423090716e-01,-4.043704214343884495e-01,-2.260337022321189018e-03,-4.314841138732803706e-03,2.557893440551598126e-03,2.530146576464176178e-02
-4.342031404275256690e-01,-3.925443756569640952e-01,-3.913132655753585598e-01,3.047541726301509785e-03,1.885676678675420742e-03,1.484481865730843085e-03,4.281817004084587097e-02
-4.278667692471482265e-01,-4.015905902560049090e-01,-4.036127267846583710e-01,-5.782890473695172229e-03,-4.765405376897150977e-03,5.002220748686011555e-03,2.974746935069561005e-02
-4.412918399298938477e-01,-4.298938841223427509e-01,-3.414365801603904682e-01,9.383392870402311806e-03,3.068962773710719183e-02,3.912595003269132843e-02,1.290157586336135864e-01
-3.493816102772044907e-01,-4.354891164549326565e-01,-4.347633513959972551e-01,6.873998327765267272e-03,6.996014344863356674e-03,9.175978541586920709e-03,8.884660899639129639e-02
-4.448242610700784971e-01,-2.100828526151833076e-01,-5.955303708866328538e-01,8.306687470858413469e-02,-1.706974277355381361e-02,-5.140645247018785918e-02,3.777500987052917480e-01
-4.082780234572623290e-01,-4.122965262444051593e-01,-4.114582532296636175e-01,-1.793674225114163731e-02,-1.997014516188304334e-02,1.240252983104778162e-02,5.134735628962516785e-02
-4.295226620606378831e-01,-3.877287464673391248e-01,-4.020655532274233779e-01,2.292552241037797579e-03,7.227348901854520509e-03,2.855048536327689512e-03,3.937015682458877563e-02
-3.740101801100556012e-01,-4.179368822637202774e-01,-4.555731922234673714e-01,-4.711300977717318428e-02,-2.369719384517067484e-02,6.707810963722401175e-03,1.160941347479820251e-01
-3.979366569895947947e-01,-4.083478642134315550e-01,-4.081867329187716664e-01,1.972298847638762499e-03,2.406890882358392152e-03,7.847541353001443593e-03,1.790370419621467590e-02
-4.219172027260336688e-01,-3.922892851139228032e-01,-4.221740060478608725e-01,-1.846424414760200819e-02,-1.634157862530152133e-02,2.449653144647202449e-02,6.715396046638488770e-02
-3.936640577566030696e-01,-3.956582646772736078e-01,-4.286691165295636319e-01,8.594223225160208196e-04,1.499020640589892759e-03,3.344189339490101411e-03,3.467032685875892639e-02
-4.027078951162650911e-01,-4.080777901366263727e-01,-4.060603320824273665e-01,9.985065270946172182e-04,1.528277605712851815e-03,2.435013331392360363e-03,7.061033044010400772e-03
-4.728004519486314616e-01,-4.180929439175063433e-01,-3.858520930393967707e-01,-1.816622366783124942e-01,-1.169720103028240171e-01,7.037231658094800224e-02,4.008788466453552246e-01
-4.055715877086987220e-01,-4.106979513944089555e-01,-4.003851686684453681e-01,3.936375275635683318e-03,1.411156100215503863e-03,1.775930962604749816e-03,1.190323662012815475e-02
-4.021468646655853019e-01,-3.831345457421377887e-01,-4.340134197451187559e-01,2.491047957093952409e-03,7.735561361931062550e-03,2.408974794577015219e-03,4.688651114702224731e-02
-4.006041697736518192e-01,-3.995803171538218068e-01,-4.165599296001775698e-01,7.305369819268801379e-04,3.253982425508360633e-03,8.491423956688519533e-04,1.753568649291992188e-02
-3.955718439386472496e-01,-4.189335766124450688e-01,-4.367300611473016181e-01,-3.716724391857286619e-02,-2.929767358653438680e-02,2.335968755735684434e-03,8.952030539512634277e-02
-3.883598812871358885e-01,-3.952579833058096348e-01,-4.342592414820576896e-01,3.657669001680977517e-03,2.795469345305231102e-03,5.494006726598823706e-03,4.463012889027595520e-02
-4.044465366755709002e-01,-4.043492840834070345e-01,-4.327202921948659076e-01,-1.200890817963033924e-03,-1.230833227971087291e-03,-5.127246969153666624e-04,2.849253080785274506e-02
-3.939245797954443185e-01,-4.207007166131369047e-01,-4.364860583528901161e-01,-6.871976488289056884e-02,-5.428570544069524773e-02,1.935444597793979649e-02,1.597517579793930054e-01
-3.667539054618135785e-01,-4.335057159440157126e-01,-4.291264904651328482e-01,-1.086755051482875961e-01,-1.113075749549530813e-01,3.868927140048820934e-02,2.850832641124725342e-01
-4.767392789221921445e-01,-3.129347694183977624e-01,-4.067038978477249822e-01,-1.235164724455408009e-01,-8.817226076488600406e-02,1.051507091222993184e-01,3.500382602214813232e-01
-4.317276805257468375e-01,-4.078199250055628000e-01,-4.037216280013866676e-01,-5.474658043996212357e-03,-7.352352880330652709e-04,-8.261310098783804928e-03,3.134713694453239441e-02
-4.309437196241725498e-01,-3.888243551575948920e-01,-4.159151755615577151e-01,-1.737496686328125241e-03,-1.018744198907823792e-02,3.221372695571542762e-03,4.145414009690284729e-02
-3.995267066578555570e-01,-4.206494538148378148e-01,-4.220970949454510013e-01,-4.340565863375117281e-03,-4.173238835231320859e-03,2.053382273438801413e-03,2.450026012957096100e-02
-4.344765558240621384e-01,-4.077918733999045253e-01,-3.987152081475541787e-01,-4.582811946555678459e-03,4.426269208264066619e-04,-5.295128810233033084e-03,3.441475704312324524e-02
-4.179041260608260533e-01,-4.117624814927375865e-01,-4.078373302803471323e-01,-2.098377514507530558e-03,-1.228761528728443712e-03,5.879582561391618256e-04,9.798454120755195618e-03
-4.294776213053376757e-01,-3.883713810690619939e-01,-4.190219781803116161e-01,-1.849513162766175433e-03,-8.938393208713157206e-03,2.840465988367927783e-03,4.053890332579612732e-02
-4.322862121744517339e-01,-4.052344230338887354e-01,-4.042261554259111711e-01,-1.943240736368579769e-03,-2.176739902676285733e-04,-1.177094379370941185e-03,2.785172685980796814e-02
-4.476772143182810026e-01,-4.129176577900536271e-01,-3.785931287732738348e-01,-1.709885479677151002e-02,1.248560361295108318e-03,-3.580748710897933840e-02,9.114725887775421143e-02
-4.286377445990695034e-01,-4.084748701556577544e-01,-4.026598677099961221e-01,-1.850953408256557050e-03,2.413309489367273684e-04,-5.488322944984220337e-04,2.385286986827850342e-02
-4.177227879324378335e-01,-4.116640276639205731e-01,-4.088437814499258360e-01,-1.975802555057797495e-03,-2.113488004998925057e-03,1.885171716535945750e-03,9.875376708805561066e-03
-4.211500567375436321e-01,-4.213633893136786712e-01,-4.011315552616064872e-01,-1.034993741585226758e-02,-1.039777218597152421e-02,3.346006379699826595e-03,3.292944654822349548e-02
-4.211688796040071736e-01,-4.371476586963558564e-01,-3.789298390513535786e-01,-1.517387513555396028e-02,1.729174886349975349e-02,-1.833217205274260617e-02,7.287211716175079346e-02
-4.281707271291744221e-01,-4.106619833502305195e-01,-4.021889378589602049e-01,-3.173043085771819292e-03,2.423013463966643328e-04,-8.565556135597891850e-04,2.364915981888771057e-02
-4.257536507661365821e-01,-3.923956515681638613e-01,-3.995689978248505025e-01,1.424014118656999730e-03,4.493849307896040542e-03,1.029862313447313556e-03,3.154003620147705078e-02
-4.460386850665656877e-01,-3.725980939440967643e-01,-4.133471706538273116e-01,7.153939968310113300e-04,-8.554528527392864234e-03,6.656210610583230755e-03,6.644818931818008423e-02
-6.039330367301134483e-01,-1.398335541766874135e-01,-5.013809003726932279e-01,-4.081830791364042532e-02,-2.570631187342800605e-02,3.294195507048075511e-02,4.342202544212341309e-01
-4.306368158419773828e-01,-4.097340163559347048e-01,-3.948818565912897149e-01,-8.239717767906936524e-03,-1.317222987222737857e-03,1.816146408814412047e-04,3.430668264627456665e-02
-4.602299838610755534e-01,-3.051535836583506578e-01,-4.634501048021204550e-01,1.296564554044342399e-02,-6.257599492117367664e-03,5.007283754900381315e-03,1.589196026325225830e-01
-4.755928961766572871e-01,-4.574799390345049566e-01,-2.746248188501138054e-01,-5.955873261911562300e-03,1.255801055182454926e-02,3.794398654640852853e-02,2.048777341842651367e-01
-4.586889490793057966e-01,-4.566132543493164331e-01,-3.249463916359054405e-01,-1.082511696227522746e-02,-8.163329339051188585e-03,9.072417759821586880e-03,1.356914341449737549e-01
-4.641492532283043593e-01,-4.520544168961107556e-01,-3.128751966424553888e-01,-8.603791342102984352e-03,4.027492140686367642e-03,6.578728749504951859e-03,1.469730138778686523e-01
-4.644221278002040321e-01,-4.488014178483110128e-01,-3.100675638192590400e-01,-1.871918412630080297e-02,-2.193923218184405666e-02,2.367488676215605617e-02,1.607324630022048950e-01
-4.594016766914972294e-01,-4.474693659255630784e-01,-3.271161102906319229e-01,-1.742503347745866238e-02,-1.443982386597890064e-02,1.526782473253022673e-02,1.352742314338684082e-01
-4.438216562824021660e-01,-3.967402274398987849e-01,-3.881636051795224751e-01,-2.992920856113836115e-03,-2.947858245446656304e-03,6.039177391289852689e-03,5.344507843255996704e-02
-4.457934134992440622e-01,-3.812814281030679764e-01,-3.875395199515885292e-01,6.445039665397799857e-03,5.713759707952644970e-03,1.685723508089557315e-02,6.980182230472564697e-02
-4.596803044142461769e-01,-4.339437429209477282e-01,-3.326934216570948677e-01,-1.284077561852463474e-02,-2.114994897479289399e-02,9.111586225065700095e-03,1.249220296740531921e-01
-4.562881406322011335e-01,-4.246827889070742823e-01,-3.484985580569069930e-01,-5.261516519849063038e-03,-1.238197343969692048e-03,1.764665315181082259e-02,1.011564508080482483e-01
-4.780718465748377555e-01,-4.510346630291578451e-01,-2.875382639817264385e-01,-1.222256673434558849e-02,1.825488320813018275e-02,3.362710452182719051e-02,1.916319578886032104e-01
-4.518206708727643406e-01,-4.010121337747631354e-01,-3.666852983494354734e-01,5.968731295098822671e-03,2.312385278099108113e-03,1.084407606971189188e-02,7.732810825109481812e-02
-4.460386862225693139e-01,-3.782244746503979349e-01,-4.008196745376508829e-01,1.495801523398650320e-03,-2.445310803995073227e-03,4.155670015250060093e-03,6.044414266943931580e-02
-4.474444585661741525e-01,-4.016691185806434139e-01,-3.686832524151862356e-01,5.742609886069604055e-03,4.003810885101944002e-03,1.044719085675964616e-02,7.188771665096282959e-02
-4.501110792100697089e-01,-3.586856262396381778e-01,-4.160327165185521703e-01,3.441813075686424306e-03,-3.869158104004250236e-03,9.147996096913050754e-03,8.207207173109054565e-02
-4.395398766874553109e-01,-3.917105446943437985e-01,-3.890914545019442117e-01,2.312448316321438595e-03,8.305605163591586000e-04,9.871113901771056201e-04,4.940454289317131042e-02
-4.487082699952040787e-01,-3.893883980317151550e-01,-3.835383497989660051e-01,-3.836688509583003931e-04,5.575163548717967498e-04,7.976047946877812267e-03,6.397124379873275757e-02
-4.172927527396660397e-01,-3.809000551927350653e-01,-4.194070503692624574e-01,3.564701285751301074e-03,9.469607427219233625e-03,3.984625874690226818e-03,4.195970669388771057e-02
-4.212881737716290820e-01,-4.367885426213790612e-01,-3.685274202312192049e-01,9.399730103699908274e-03,2.333097074793441875e-02,1.538634186591441612e-02,8.031223714351654053e-02
-4.340356539730223506e-01,-3.831783291265392077e-01,-4.020862048591727356e-01,2.511530707777111758e-03,8.152852481493154738e-03,1.874728379896569049e-03,4.702388122677803040e-02
-4.354455891547992508e-01,-3.634418399665944044e-01,-4.165863671481929709e-01,5.109852261951743080e-03,9.028282911296651309e-03,6.064225612426548187e-03,6.793718785047531128e-02
-3.928089169208095477e-01,-3.862425882518837894e-01,-4.399945502196100366e-01,5.175744738551669825e-03,5.011496430168957579e-03,1.741233203511406745e-03,5.238552391529083252e-02
-4.027125120104007583e-01,-4.041419011097734382e-01,-4.081170990706482482e-01,1.923142295675598886e-03,1.755171488774901010e-03,2.868450252247907277e-03,8.279419504106044769e-03
-4.060595227357574610e-01,-4.056720116572896662e-01,-4.040353016422525423e-01,4.143551655660657369e-03,4.365034481068664346e-03,3.732488431256938098e-03,1.240666303783655167e-02
-4.332057555141182181e-01,-3.909880733369135997e-01,-3.954106720029299527e-01,1.825775256680875740e-03,3.565466322357488567e-03,9.848629289615328918e-04,4.081945866346359253e-02
-4.480866478875808467e-01,-4.027312533458087818e-01,-3.680363325868644120e-01,5.142122888596328302e-03,-3.513079295071633475e-03,1.605200580917523143e-02,7.565581053495407104e-02
-4.403928834775526213e-01,-3.909068104040294700e-01,-3.864711838320000759e-01,4.349638653317977263e-03,1.854833247553834379e-03,5.182760538441781410e-03,5.325138568878173828e-02
-4.015688838604079547e-01,-4.109437138863914485e-01,-4.040933500370529341e-01,1.988986788192474708e-03,1.492642515892893913e-03,3.585616422074814572e-03,1.130115054547786713e-02
-4.073610706222388078e-01,-3.898021281638238689e-01,-4.196697372015584793e-01,1.652310365280492636e-03,7.932157083999453670e-03,2.188619636099896001e-03,2.978699095547199249e-02
-4.055200228477245372e-01,-4.011684614372315605e-01,-4.103840344335380474e-01,1.851430075528837571e-03,4.274381735855228154e-03,2.021018032134844558e-03,1.187891699373722076e-02
-4.560398767013152943e-01,-3.927248880814835919e-01,-3.580166153035759247e-01,8.878524460006751926e-03,1.138059453159899655e-02,4.303751123650444155e-02,1.165878474712371826e-01
-4.420645686841853661e-01,-3.886296376671175001e-01,-3.903709854536128177e-01,1.216942997154399570e-03,1.275271944030171222e-03,1.409572928992606361e-03,5.273099616169929504e-02
-3.827985120935334384e-01,-4.205116864589589776e-01,-4.086112832708651554e-01,1.319045761200495805e-02,1.902207832554475217e-02,1.718910967791227248e-02,6.007479131221771240e-02
-4.443524829704028067e-01,-3.915067122173286895e-01,-3.877368038119525795e-01,5.383242385495023812e-04,-6.301539758693886027e-04,1.767072404194960228e-03,5.493213608860969543e-02
-3.851428117198854029e-01,-3.842465484620841698e-01,-4.500497207585958392e-01,1.879455682985389439e-02,-1.827464262040532500e-03,-1.318958469857719855e-03,7.312200218439102173e-02
-4.010798848957936036e-01,-4.158555272255924917e-01,-3.971303169447500947e-01,4.003097077098335260e-03,2.513163681929776651e-03,7.061585118910684682e-03,2.255873195827007294e-02
-4.479611446696383226e-01,-3.447557961577318864e-01,-4.481713738526437729e-01,4.301635467118066630e-02,-2.411229370449691906e-02,-1.650291737719072199e-02,1.370603889226913452e-01
-4.038716689747187116e-01,-3.293842324411405120e-01,-5.034953436616104172e-01,5.261546905200809726e-02,-3.211214916650223516e-02,-3.159927089429936248e-02,1.931016296148300171e-01
-3.766810629863874826e-01,-3.828200057396534683e-01,-4.729023078066550978e-01,-1.231564290323471228e-01,-6.783598050881542441e-02,1.220484096418760281e-02,2.616487443447113037e-01
-4.158798173862939263e-01,-4.080282825289434090e-01,-4.145349093358819403e-01,-5.081175169016822514e-04,-9.635093998451575064e-04,6.053552242183089793e-04,7.586484774947166443e-03
-4.207898508689958406e-01,-4.041918172672673282e-01,-4.132273886378079464e-01,-7.431456230144339479e-04,-3.471518785232204172e-03,6.422824148780702539e-04,1.569115184247493744e-02
-4.395355936939257524e-01,-3.560319223744046191e-01,-4.367352009542748159e-01,-1.226180282888854507e-02,-1.509525465214232171e-02,9.096474920274700421e-03,9.016515314579010010e-02
-3.671337264543939605e-01,-4.476227002472042416e-01,-4.139783927661588869e-01,2.756550522362839588e-03,6.591015170366741963e-03,-1.119508786549273374e-03,7.112874835729598999e-02
-3.660183093915082564e-01,-4.681770833858867054e-01,-3.993696693684719579e-01,-7.584644816096288399e-03,6.121969396054170731e-02,2.807591737011684661e-03,1.399334669113159180e-01
-4.166425267258130893e-01,-4.104667102570852544e-01,-4.092762352152040650e-01,-2.231430147507271710e-04,-1.268409778678529281e-03,1.272027172902536753e-04,7.206566631793975830e-03
-3.838593892078945302e-01,-4.459018346847044012e-01,-3.941100082455447629e-01,9.588385609713734629e-04,7.082482259138021992e-03,-6.073815254832205671e-04,5.892975628376007080e-02
-3.911940138703999259e-01,-4.371635204518201090e-01,-3.932632860099929961e-01,1.776529780717472570e-02,3.351481809303898107e-02,1.727541660059546402e-02,8.505421876907348633e-02
-4.222008274920014403e-01,-4.074605461388653982e-01,-4.047213624426958534e-01,-7.852335794269416297e-04,-2.980179140231734546e-03,5.915773826899814068e-04,1.716681197285652161e-02
-4.387062363948159849e-01,-3.781458227145689244e-01,-4.167246556463469198e-01,-8.690155780912879255e-03,-1.215979730486987931e-02,4.492910609397811859e-03,5.958386510610580444e-02
-3.250869939239763307e-01,-4.952609692208063130e-01,-4.026723834753406783e-01,6.329036800624153469e-03,6.530292983110434768e-02,1.349185468257021840e-02,1.877107918262481689e-01
-4.207338968488731346e-01,-4.049318370092997998e-01,-4.105714881662405058e-01,-9.375151355876008103e-04,-5.554416411602747933e-03,1.482691260705651902e-03,1.715165376663208008e-02
-4.295390606795711497e-01,-3.964677905521816204e-01,-4.104895607039746874e-01,-1.251255132999681960e-03,-4.671882605449287525e-03,1.992708688690924320e-03,3.014449030160903931e-02
-4.308776029887236292e-01,-3.860793148506754258e-01,-4.182961367127865926e-01,2.357483920620212069e-03,-9.345898939813123210e-03,-8.746191037991877387e-03,4.593201354146003723e-02
-4.375373145007452336e-01,-3.803846144991580025e-01,-4.158805647484911105e-01,1.475228718714599640e-03,-8.085539157059382087e-03,-1.240124018417315677e-02,5.622928962111473083e-02
-4.315501690668237522e-01,-4.003578123336120065e-01,-3.990774012789061187e-01,-9.048564530066291684e-04,-3.486801088039678288e-03,1.253436033818827646e-03,3.252974897623062134e-02
-4.407373983406346896e-01,-3.913477504439765720e-01,-3.945004716940405110e-01,-7.625460907374453489e-04,-2.935945729815386644e-03,2.116301776241628387e-03,4.831775277853012085e-02
-4.393213445265614081e-01,-3.993414522954538692e-01,-3.930187811681989940e-01,-3.828615704352787089e-03,-4.914584025806229819e-04,1.537782854082420797e-03,4.407880827784538269e-02
-3.443525675103630834e-01,-4.595171832333983519e-01,-4.183747355674996005e-01,2.005477556816758367e-03,1.668256878427503559e-02,5.217434991915883592e-03,1.055750474333763123e-01
-4.427355580998751372e-01,-3.793504625376291628e-01,-3.999937958016819839e-01,8.187363578576642128e-04,3.091180619867186889e-03,4.118521256007384550e-03,5.671773850917816162e-02
-4.443601929102033443e-01,-3.935477769162675776e-01,-3.896928110233485731e-01,-2.593698594763418387e-03,-4.319443015987954083e-03,2.249356963835445582e-03,5.370266363024711609e-02
-3.078974753452479174e-01,-4.260957982694256740e-01,-4.675206738802805129e-01,9.591206459711892895e-02,-1.027236301544663527e-01,-7.770350913304231721e-02,3.129704892635345459e-01
-4.627225502525315615e-01,-4.872617403166760175e-01,-3.136207228738518982e-01,-4.324991701977003861e-02,-5.672706437335868490e-02,3.174913480485194077e-04,2.043482661247253418e-01
-5.535764871571118295e-01,-4.573711490619911113e-01,-2.656442821916883967e-01,-3.471518194816131803e-02,-1.632525256321417373e-01,1.263210961786261771e-02,3.853675127029418945e-01
-4.540769550148943123e-01,-3.731679607332363813e-01,-4.005776102683426543e-01,-2.931168451852083582e-03,-4.492668890266957385e-03,1.702479073399752740e-02,7.768993079662322998e-02
-4.624682576543930890e-01,-4.669007326194800078e-01,-3.060737834757614184e-01,-1.792084396940711935e-02,-1.965551989004986691e-02,7.653621758147904040e-03,1.657417118549346924e-01
-4.417903291335744109e-01,-4.588159679971921534e-01,-3.358680011605129079e-01,-8.027480268431095092e-03,-3.594038827547281489e-02,-8.449443323606788125e-03,1.326478123664855957e-01
-4.448349145017155282e-01,-3.883218752508889593e-01,-3.897068230108894915e-01,-2.927010253060532887e-04,4.987362830483310335e-04,8.297059514347757169e-04,5.586092174053192139e-02
-4.427502655700071288e-01,-3.882750888190451555e-01,-3.909922442557136057e-01,1.111821937280756730e-03,2.274695917258371444e-03,1.510155932100381909e-03,5.341332405805587769e-02
-4.496262656146350900e-01,-3.778721863523357705e-01,-3.985416564523150407e-01,3.247269829004212176e-04,-1.438718628095926252e-03,3.581887350547814479e-03,6.432551890611648560e-02
-4.257417499837264918e-01,-3.838080289172980386e-01,-4.297766252112157348e-01,3.384296388954618692e-03,-1.292542795880648882e-02,-3.134778805950139049e-03,5.008947476744651794e-02
-4.437063824954400326e-01,-3.845525908540657345e-01,-3.910885409744899177e-01,1.163438559124356118e-03,2.366602507334060815e-03,6.144017821672374986e-03,5.735306069254875183e-02
-4.388199873325352995e-01,-4.714420428696442511e-01,-3.290120575629486011e-01,-1.380100913919403947e-02,-1.178171473582800138e-01,-1.664465594482566341e-02,2.444367408752441406e-01
-4.754993790008905652e-01,-4.682169740127842816e-01,-3.113022177877161623e-01,-6.934877598059574835e-03,-5.192308714327009689e-02,-2.068680160496915235e-02,1.879737228155136108e-01
-4.340113823294305395e-01,-3.839004596882218401e-01,-3.994542168842101226e-01,2.314010396438704806e-03,6.126141835435945995e-03,2.788434072098432484e-03,4.610411822795867920e-02
-3.879110498443931743e-01,-4.234745377426398782e-01,-4.044236845658720769e-01,1.073478747299159812e-02,1.582315335139293164e-02,1.202824024442522913e-02,4.981005191802978516e-02
-4.558225859262695079e-01,-3.096677145171629064e-01,-4.562303541967747678e-01,4.536659050046829705e-03,-2.109620517986551640e-03,3.845617104586220285e-03,1.467667222023010254e-01
-4.792626845315866579e-01,-2.703938087166100068e-01,-4.753462809201011163e-01,1.319061428198005891e-02,-1.859664825531963037e-02,3.254648270317010011e-02,2.180844694375991821e-01
-4.209461438373268138e-01,-3.965781682751072235e-01,-4.006479629941495091e-01,1.836646832672399286e-03,3.706756089355838987e-03,8.311869402131920586e-04,2.376134134829044342e-02
-4.194927470423681637e-01,-4.041965189448308293e-01,-3.921972393536424240e-01,9.654255490762939443e-03,3.687313295111909091e-03,4.582055588259982201e-03,3.073905594646930695e-02
-4.569062754717588271e-01,-3.311588742128424023e-01,-4.651100760773619336e-01,-6.967276901027241211e-03,-1.365128197029958496e-02,-1.144669757002461478e-02,1.341979801654815674e-01
-4.445441138728114527e-01,-2.960767235978398193e-01,-4.990158569349564255e-01,3.014002481001363393e-02,-3.062393689255172441e-02,-2.359005810299190375e-02,2.007616162300109863e-01
-4.263396370769518273e-01,-3.964225218060022926e-01,-3.935930871487098859e-01,3.029217569795539591e-03,2.617895903266020106e-04,8.092182037989573140e-04,3.189649805426597595e-02
-4.191223271472007683e-01,-4.406008261433135842e-01,-3.557112208148709986e-01,1.212638313309394311e-02,1.133278447894369052e-02,7.571144472340195740e-03,8.272049576044082642e-02
-4.192258253259442125e-01,-3.905471989234446384e-01,-4.071138020734124674e-01,1.645015415216618789e-03,8.062073582937033175e-03,1.855509814700128084e-03,2.890063263475894928e-02
-4.217533293472319200e-01,-3.908989578566153811e-01,-4.032909806762336458e-01,2.132401969218847022e-03,7.073958762897266175e-03,2.783918504842980597e-03,3.016987070441246033e-02
-4.045321949579583354e-01,-4.025735084502864436e-01,-4.102724727057919796e-01,1.220308911832661893e-04,2.782381551629691582e-03,1.425067097108063041e-03,8.797313086688518524e-03
-4.106888175859643164e-01,-3.980119213172474968e-01,-4.073934896215039014e-01,1.458182360692936814e-03,5.546139606573684787e-03,1.484194903422425505e-03,1.533149462193250656e-02
-4.208537410187591088e-01,-3.862384286101684938e-01,-4.071712810881586986e-01,4.484123537436992060e-03,1.007212241340013636e-02,7.338705848583948824e-03,3.792152181267738342e-02
-4.069286104475552945e-01,-4.051907087796024487e-01,-4.033627376975340573e-01,4.065141895127435262e-03,3.177092697121538731e-03,3.631657233145749609e-03,1.135620102286338806e-02
-4.114860412750964702e-01,-4.048031792459053091e-01,-4.012903640153607232e-01,7.226552834245118318e-04,1.567740007146504501e-03,1.570347944769528385e-03,9.839423932135105133e-03
-3.964938919923672866e-01,-4.049405301912269439e-01,-4.158450844510663269e-01,1.817383939274827510e-03,3.428092372954561536e-03,7.502596956052350399e-03,2.227987535297870636e-02
-4.072881476773415610e-01,-4.015699485864438478e-01,-4.335592214017566226e-01,-5.975860502331516166e-04,-2.478275725340759947e-03,-1.673230462692570182e-04,2.987760305404663086e-02
-4.259933049864045862e-01,-3.969012026319952424e-01,-3.941194094028884209e-01,6.865004459168039599e-03,6.537297541637983669e-03,8.202939438763200489e-03,3.750300407409667969e-02
-4.256267816857097208e-01,-3.877757448806463669e-01,-4.036782340134744129e-01,1.600557106723517241e-03,8.267759272229642867e-03,3.181251752546011575e-03,3.642496839165687561e-02
-3.970387988731842732e-01,-4.365513232314893188e-01,-4.027734200850922042e-01,1.222221994600164062e-03,-1.777118475631973490e-02,-7.236454714995594652e-03,4.976506158709526062e-02
-3.563221900746002535e-01,-4.414826226375044294e-01,-4.366023722379781535e-01,8.141921250168779670e-03,-9.628530106427370117e-03,-1.277533228815430286e-02,8.847111463546752930e-02
-4.298384242878183770e-01,-3.803014520069971094e-01,-4.298832303960184453e-01,-3.546561024869972559e-03,-1.132392009018156481e-02,2.693602636188311902e-03,5.385468900203704834e-02
-4.306767590713885263e-01,-4.001235943390296090e-01,-4.012255398821619190e-01,-2.716794536761116372e-04,-9.899222415967823610e-04,-1.043838904497304803e-03,3.012428060173988342e-02
-4.076388352931994974e-01,-4.288659204531755642e-01,-4.052036559275045136e-01,-1.876067340272209640e-03,-1.437770806143254471e-03,-2.122962557100467260e-04,2.291520498692989349e-02
-3.201277913227706939e-01,-4.618165221453449654e-01,-4.817357785287925687e-01,4.111685199118497031e-02,-3.738316730794025156e-02,-3.464651040884021704e-02,1.901584565639495850e-01
-2.966179989360837044e-01,-4.394964533457654809e-01,-4.699031773403072876e-01,4.710964225929511334e-02,-6.436599006835007483e-04,-1.040084763167617790e-02,1.807401925325393677e-01
-4.136905849928533274e-01,-4.177737273787414107e-01,-4.074914234995580253e-01,-2.160110113326193289e-03,-5.534852442750943374e-04,-1.254878669480750421e-04,9.766177274286746979e-03
-6.456850183839573099e-01,-4.375724934269966671e-01,-2.089557758342178440e-01,-5.645714158425752666e-02,-2.658925528001141250e-02,1.725684301498345563e-01,4.941428899765014648e-01
-4.132283610048172462e-01,-3.946747788629942355e-01,-4.338193472000103634e-01,-2.231457124253666009e-03,-4.377305967065605284e-03,3.173401298491425001e-04,3.497118130326271057e-02
-3.445733342619572981e-01,-4.039292207060771189e-01,-5.041640609615103408e-01,8.435945450801762835e-02,-2.156890311893788076e-02,-2.348509668042846749e-02,2.095698565244674683e-01
-4.593961204853636571e-01,-3.231762980685875530e-01,-4.595936547364780633e-01,-7.073451522602738992e-04,-1.942011464115814268e-02,-1.391801145684709584e-02,1.424669921398162842e-01
-5.082550195388261249e-01,-4.573978442208613271e-01,-2.712397086658493994e-01,-2.681596858153773716e-02,-1.252593982030558890e-02,2.704678760214444116e-02,2.270051836967468262e-01
-4.299700112392980111e-01,-4.161488850142644469e-01,-3.899523604218275152e-01,-8.349992557840467053e-03,-1.915336367215899087e-03,2.140385054800593607e-03,3.838311135768890381e-02
-3.825128170525021187e-01,-4.198469815989167020e-01,-4.368248627809865337e-01,1.632300985890881156e-02,-1.790304086465424951e-02,-1.355057278644916131e-02,6.802702695131301880e-02
-4.498430368827794901e-01,-3.548826389561644534e-01,-4.323621054276314268e-01,-2.605172592737319080e-03,-1.060448813066309712e-02,-1.779205604512633376e-02,9.471252560615539551e-02
-4.538906337616206432e-01,-4.358979088958807591e-01,-3.349838557985206355e-01,-2.695025513800661503e-03,2.039092638324073448e-03,8.079017895281929290e-03,1.120409667491912842e-01
-4.239095471030033813e-01,-4.012197776399701321e-01,-4.097477817323374460e-01,-3.185515476459633340e-03,-5.250388100985517621e-03,1.447295936285114678e-03,2.266010269522666931e-02
-4.132081073595607612e-01,-4.169328639116304802e-01,-4.091459455731587536e-01,-4.368682147750045305e-03,-3.749084130608188944e-03,2.145957442354557484e-03,1.259936392307281494e-02
-4.029641559082245417e-01,-4.338731014184768475e-01,-4.055789480594098606e-01,-1.345593764626808447e-03,-1.388365329537973210e-03,-1.600645232754939603e-03,3.000467084348201752e-02
-4.502377485220350195e-01,-3.573574723926343233e-01,-4.336115698652272532e-01,-7.804441290131149643e-03,-1.546075151371152125e-02,-4.290954561148962315e-02,1.173986867070198059e-01
-3.956728761351605006e-01,-4.381158785671589451e-01,-4.114877574224261592e-01,5.982639031797299268e-04,-2.431532001356903009e-03,-3.771988549974091432e-03,3.797081112861633301e-02
-4.520507754154041158e-01,-3.459206418772027281e-01,-4.454788526906297563e-01,-1.759038988248746386e-03,-1.066583923779861921e-02,-4.954644221541760866e-03,1.050405874848365784e-01
-4.063028906762283232e-01,-4.338996632536515907e-01,-4.013194015493754541e-01,-4.324321624700430168e-04,-3.803677896096352602e-03,-1.760787777570399981e-03,3.126037865877151489e-02
-4.536040984515635199e-01,-3.286240081047118178e-01,-4.579693311652025534e-01,2.000576981583847139e-05,-1.349757197621695957e-02,-1.048755732900924845e-02,1.306183934211730957e-01
-4.653868301774592431e-01,-3.712226050026896096e-01,-4.400416312693917198e-01,-4.972259813254852924e-03,-3.436287466978816402e-02,-6.883775706648710691e-02,1.579720526933670044e-01
-4.449317806730371805e-01,-3.135879711724496310e-01,-4.604301527486998058e-01,3.437727060113168059e-02,-9.944885567092522777e-03,-1.456196135558614777e-03,1.528903692960739136e-01
-6.278274874041399611e-01,-4.376206953730796823e-01,-2.339914144747697600e-01,-8.895329559995177049e-02,-6.184447176636779370e-02,1.546579933182723465e-01,4.725936353206634521e-01
-4.668891699141866636e-01,-3.027174971418571392e-01,-4.616641035933756743e-01,3.772610445560890119e-02,-1.852476716140290247e-02,-9.384304555397326650e-03,1.780036687850952148e-01
-4.590634001173818368e-01,-3.157371655992227688e-01,-4.722057346615256002e-01,3.533317151685527041e-02,-2.637330030344882739e-02,-3.156466850469326346e-02,1.772560477256774902e-01
-4.449019770676066465e-01,-3.883845136045158686e-01,-3.937513252762326332e-01,2.904196896541487156e-04,-1.671596243685842574e-03,1.804014383557397050e-03,5.420430749654769897e-02
-4.993496454315358157e-01,-2.017976030143951161e-01,-5.208397076454347463e-01,1.371104266656121562e-01,-2.957275453329484549e-02,4.459743692099252255e-02,4.004768431186676025e-01
-4.011883566709085192e-01,-3.944456303775918382e-01,-4.256942392184646651e-01,1.414316434638418669e-02,1.048901757784938098e-02,8.662461267060292056e-03,4.434522986412048340e-02
-4.553185023212382720e-01,-4.900488307841925906e-01,-2.919043438837778393e-01,7.935695392320243902e-02,1.564853682886211128e-01,1.185162748171108421e-01,4.099752604961395264e-01
-4.029890126198457656e-01,-3.805011569832064677e-01,-4.372248560987503363e-01,2.025265728547744060e-02,8.539329485405049505e-03,1.404460330015786483e-02,6.699784100055694580e-02
-4.020083675954063684e-01,-4.330148775834413155e-01,-4.078069699575925799e-01,-4.746143852726213619e-04,-1.186644501191578193e-03,-3.263172959816360019e-03,2.919037640094757080e-02
-4.054091950259492427e-01,-4.316896265360483098e-01,-4.050443980084940110e-01,-2.373686453353372923e-03,-1.290484518574861600e-03,-4.289694799729397217e-04,2.688554301857948303e-02
-4.139500763934027550e-01,-4.370700620276332105e-01,-3.919511449157965233e-01,-7.128802103766429532e-03,-3.269285399897012886e-03,4.232416620255295388e-04,4.137829318642616272e-02
-4.045948754607038289e-01,-4.357235615768587644e-01,-4.044233198918079086e-01,-1.175227427402839074e-03,-6.858235422589368732e-03,-4.595686550780831402e-03,3.439440950751304626e-02
-3.946476849731187508e-01,-3.795319203635194594e-01,-4.409258054525320158e-01,8.763090682304087650e-03,6.007114458515662968e-03,2.706376023327027296e-03,5.856863409280776978e-02
-4.122918951013496702e-01,-4.313640858974487902e-01,-3.973872890791451118e-01,-1.299761944086299777e-03,-3.100423556388610252e-03,-2.142343901385547044e-03,3.029577806591987610e-02
-3.869627450763459819e-01,-4.301875577147256657e-01,-4.185116500988563804e-01,2.560518405237674055e-03,-9.887675289613456764e-03,-1.102202512916386663e-02,4.666309803724288940e-02
-5.954560955183961779e-01,-2.254105759207925552e-01,-4.359365993592084210e-01,-5.610397126687572539e-02,-2.252501797464036976e-02,-8.891431223228292435e-02,3.715279698371887207e-01
-4.027121095033034948e-01,-4.321261602328809182e-01,-4.061236487526178607e-01,-3.508069825750157107e-04,-9.991698010607548940e-04,-1.284418070729604310e-03,2.801412530243396759e-02
-4.082214348851539443e-01,-4.224449952202372072e-01,-4.084471012278673707e-01,5.476237752830974978e-04,-1.903203020086304377e-03,-1.646491286393042021e-03,1.480033248662948608e-02
-3.995084638121016440e-01,-3.696515069665006203e-01,-4.444403014139043373e-01,1.524743748356659732e-02,9.949942482245935707e-03,4.951372850491301192e-04,7.243637740612030029e-02
-3.911543413132556601e-01,-3.914328969110866252e-01,-4.392055166248447495e-01,6.388494622962602280e-03,5.745454609649144201e-03,3.043761485068068907e-03,5.044671520590782166e-02
-3.887871844554311451e-01,-4.085814677492428104e-01,-4.161005703289289426e-01,6.993367329742836667e-03,4.739106894715730198e-03,1.086365361992464897e-02,3.413709998130798340e-02
-3.328397020036380494e-01,-4.502123302388055248e-01,-4.065428871924877119e-01,4.642582436958311159e-02,6.852056825995600509e-02,3.651671114479308061e-02,1.873751431703567505e-01
-4.056282007660035882e-01,-4.218818734761161648e-01,-4.129117384810999658e-01,9.844172865606688749e-04,-1.369175667723957759e-03,-1.774216275267645601e-03,1.472488511353731155e-02
-4.094823988053500896e-01,-4.274513821775782763e-01,-4.051712502454768439e-01,1.657778219793562199e-03,-6.236952372833420204e-04,-1.996251481160577629e-03,2.098342403769493103e-02
-4.207706797046185665e-01,-4.058168000166126888e-01,-4.113733538799874134e-01,5.207727053460830483e-04,-3.523032558248882611e-03,-1.147867573674939048e-03,1.460833568125963211e-02
-4.100594325008226626e-01,-4.066807223495749746e-01,-4.198783578463135546e-01,1.754673248113400915e-03,-5.825692003927477637e-03,-8.217735460734999298e-04,1.593991555273532867e-02
-4.560242159166049691e-01,-4.083594123013912225e-01,-4.154270713839896545e-01,-5.291945343571730076e-02,6.137648664072689088e-03,-7.399739448175916834e-02,1.640922576189041138e-01
-3.995985855393570096e-01,-4.186867509226533945e-01,-4.201298808434477117e-01,1.205924152157264581e-03,-1.465731416318469130e-03,-6.673040416786900006e-03,2.320309542119503021e-02
-3.813943961796708582e-01,-4.175403619419515988e-01,-4.328419624561267720e-01,3.532757017360629945e-03,-2.312582855303887269e-03,-9.186560137941453263e-03,4.899413138628005981e-02
-4.069391703411401884e-01,-4.222839681767004416e-01,-4.092092975073343686e-01,1.477257306410201297e-03,-2.050642650711798336e-03,-2.014666165301970489e-03,1.539871934801340103e-02
-4.092258777975346651e-01,-4.122975819707089817e-01,-4.171353758599782302e-01,1.736075856883115796e-03,-2.744603490334886382e-03,-4.114184140276807428e-03,1.140700839459896088e-02
-4.104536729651346305e-01,-4.105175576348257249e-01,-4.161227668941084312e-01,8.918522598947196218e-04,-6.159357403857917013e-04,-5.818550708903821519e-04,6.026652175933122635e-03
-4.139924282617932771e-01,-4.068633099267615627e-01,-4.152640020900457696e-01,6.395313910058459056e-04,-2.617673364093563940e-03,-1.306258674747259668e-04,9.129143320024013519e-03
-3.858419191290179961e-01,-4.078074219331909722e-01,-4.204900403754781024e-01,5.763388695312721827e-03,3.969353802603330268e-03,1.086731943873190873e-02,3.772433474659919739e-02
-4.139932371697258584e-01,-4.087424293888768934e-01,-4.152436060479997582e-01,1.263269323875576338e-03,-1.679659697003573361e-03,-1.208487843179701683e-03,7.302910089492797852e-03
-4.101856236757109309e-01,-4.124166836207128761e-01,-4.152099534276930681e-01,8.758517189553277540e-04,-6.090870955480622104e-04,-8.354843490615577063e-04,4.951802548021078110e-03
-3.832015175038164800e-01,-4.220576093112485272e-01,-4.313530035477819435e-01,-8.006592296512767340e-04,-3.362737986488206418e-03,-1.228151583830621243e-02,4.945439472794532776e-02
-3.754954400925478719e-01,-4.055092685838964095e-01,-4.352352936412314799e-01,1.292059794156477474e-02,4.458266771659721156e-03,1.120072050668347724e-02,6.011223420500755310e-02
-4.003149136423416743e-01,-4.259514446149219036e-01,-3.897022066329672851e-01,6.120344739467395954e-03,3.261827061848629646e-03,2.890683813653053148e-03,3.480368852615356445e-02
-3.913897019918604614e-01,-4.235784819124744915e-01,-4.064529247962040959e-01,1.258643055106922586e-02,1.477715320627866896e-02,1.230714507148769100e-02,4.860963299870491028e-02
-4.003282692497199813e-01,-4.188965607683594605e-01,-3.975037637199997920e-01,7.168165555458705721e-03,5.499664852926778279e-03,4.447422308581733437e-03,2.663514576852321625e-02
-3.835791848313866437e-01,-4.253389949280741988e-01,-3.992767061211056068e-01,1.992811423022744152e-02,3.145935847258729545e-02,2.515928743856921460e-02,8.598953485488891602e-02
-4.162023465656662369e-01,-3.988821934023430993e-01,-3.995315132656127033e-01,7.417819513937577366e-03,8.482149875875727441e-03,7.456857400252286938e-03,2.892904914915561676e-02
-4.958965134821948229e-01,-5.337278577813150404e-01,-3.147871048997533672e-01,-1.028829606327522628e-01,-1.670782965191728031e-01,9.761673797928537488e-04,3.957101106643676758e-01
-4.238277177759499081e-01,-3.999052914048394358e-01,-4.110994093662640458e-01,-2.480911943379468867e-03,-5.595492746545694708e-03,1.529973523530851059e-03,2.343536168336868286e-02
-4.303086806026809041e-01,-4.101851544480163425e-01,-3.946326592517175880e-01,-8.220818580830435360e-03,-1.485995375014613051e-03,3.369180205832523491e-04,3.419821709394454956e-02
-2.710339513383951404e-01,-4.532824257339067575e-01,-4.872837215710221770e-01,7.297484814632242134e-02,-7.455233066167028799e-02,-4.342214181295971781e-02,2.808448970317840576e-01
-4.217875093697992517e-01,-4.123728188151699614e-01,-4.040724140605048698e-01,-8.293927241025103939e-03,-7.845395361970016260e-03,6.354917121890607708e-03,2.734688483178615570e-02
-4.203936675651789856e-01,-4.027343345387649487e-01,-4.140338431928558549e-01,-1.260372783744600740e-03,-5.887298022267994750e-03,5.919719152948346632e-04,1.870259083807468414e-02
-4.010329630254114708e-01,-4.310236579328559081e-01,-4.114861463522473395e-01,-1.601696491197603101e-03,-3.237604712763833027e-03,-3.235741231019654456e-04,2.710478194057941437e-02
-4.307505115308926658e-01,-3.920107805537215717e-01,-4.106079367164896521e-01,-1.947615232948182208e-03,-8.686319375654262542e-03,3.657696279282652337e-03,3.747057914733886719e-02
-4.290705544031057639e-01,-3.952703981579229753e-01,-3.915452176010217333e-01,5.904685309827881028e-03,3.696380432904813537e-03,3.451963967811476092e-03,3.825667127966880798e-02
-4.173741375492830419e-01,-4.381322016554502485e-01,-3.799187226455749133e-01,-8.477769427054889298e-03,-1.037800338438666509e-02,4.677286019049244395e-04,5.613100901246070862e-02
-4.206916620378040594e-01,-4.068270600990220309e-01,-4.092116480421956748e-01,-6.237141053338343590e-04,-4.112615549411620386e-03,-3.534645038508478195e-04,1.473549380898475647e-02
-4.112351362414282119e-01,-4.287464212074316161e-01,-3.990981122410903748e-01,-5.886728812119723826e-03,-3.631290506260820717e-03,1.737296108493562594e-03,2.861925028264522552e-02
-4.364156950937540524e-01,-4.012499364920121825e-01,-3.962390080616079446e-01,-2.218928327856223293e-03,-5.127847445694506956e-03,7.895841963782330650e-03,4.145650193095207214e-02
-3.716832703035881647e-01,-4.454359896458720547e-01,-4.268388457760458055e-01,-4.549114282760408881e-04,-5.462776683566824588e-03,-7.292388542710177488e-03,6.828916817903518677e-02
-4.317953025673054168e-01,-3.990140407039340364e-01,-4.100808513442254499e-01,-8.919948867025084133e-03,-8.845448898826211923e-03,8.955199642207140390e-03,3.934857621788978577e-02
-4.139748084584129462e-01,-4.353499435676548290e-01,-3.935691033673899275e-01,-8.094323212137939649e-03,-2.303741462329644395e-03,3.477899770636197767e-04,3.901669755578041077e-02
-3.976996535838200342e-01,-3.963835678134670637e-01,-4.222824085773556058e-01,-2.838159443011109714e-04,1.835158947732217286e-03,1.117392473411050200e-03,2.554383873939514160e-02
-4.401708434889093358e-01,-4.005889436187347608e-01,-3.879107488219100119e-01,-3.094921138596213976e-03,-5.955677268839302966e-04,2.823017304639906331e-03,4.778073355555534363e-02
-4.278453929078286921e-01,-4.013563163260466249e-01,-4.039217752052134958e-01,-5.841995934149770558e-03,-2.928007640306421432e-03,1.731012207206078990e-03,2.788174524903297424e-02
-4.138560249070794561e-01,-4.099836403425668463e-01,-4.141638658439034670e-01,-1.755789103182044944e-03,-1.604486088146468226e-03,1.938084711522883004e-03,6.672498770058155060e-03
-4.258163780933616471e-01,-4.394182498072844445e-01,-3.735672549848936264e-01,-2.306491244713792122e-03,-5.992055646411182865e-03,-1.082323780603427653e-03,6.126055866479873657e-02
-4.265863205342814712e-01,-4.092403609936048348e-01,-4.007314629975620712e-01,-6.311258280789075296e-03,-2.699337008476105672e-03,2.124117957195202459e-03,2.599556744098663330e-02
-4.127858881844354011e-01,-4.344907688989748662e-01,-3.929784445443265106e-01,-4.252830034879802150e-03,-3.758900618421450682e-03,-3.885129542709087492e-04,3.728881105780601501e-02
-4.317333925512688575e-01,-4.092044148581793772e-01,-3.913204761695645573e-01,-9.006035074712944941e-03,-2.093164344493774875e-03,3.351550754923730314e-03,3.899314999580383301e-02
-4.404633336546702749e-01,-4.042754370130206554e-01,-3.822173675377268376e-01,-7.169329316062934832e-03,-3.019079130214070029e-03,1.014126778565132420e-02,5.553769692778587341e-02
-4.049886745281868761e-01,-4.336091785410338129e-01,-4.037105002633498696e-01,-1.223416381576618349e-03,-1.231557330946315802e-03,-1.383382753188037821e-03,2.953185886144638062e-02
-4.276979336194298709e-01,-4.453466426026730929e-01,-3.703434990589505871e-01,-8.834782690669187866e-03,-5.940990866436114855e-03,-3.417753130671732052e-03,7.062810659408569336e-02
-4.430713368097602967e-01,-3.743909174889213931e-01,-4.258915140081797057e-01,-3.956073312120731442e-04,-8.076174395163332811e-03,-4.786340835942887867e-03,6.400858610868453979e-02
-4.378423298487694737e-01,-3.916586423625983415e-01,-4.129860923956382157e-01,-3.744213143199556955e-04,-6.105807453702645320e-03,-3.338124946375926883e-03,4.181513190269470215e-02
-4.386865703865229782e-01,-3.979691856723353016e-01,-3.948638546836935603e-01,-4.875338846319461454e-03,-3.450301024518097424e-03,2.873344731536607664e-03,4.388369247317314148e-02
-4.174493107503113309e-01,-4.158413207625809571e-01,-4.051541293452632919e-01,-4.173927008106625633e-03,6.417328438313035528e-04,-1.439937822110398278e-03,1.391787733882665634e-02
-4.132377731859789294e-01,-4.139557692714067594e-01,-4.122676911310418357e-01,1.682116467999310956e-03,-1.876035312597270624e-03,-1.788613875068248427e-03,5.549557041376829147e-03
-3.050139268722178443e-01,-4.700418580417472514e-01,-4.589610291899996475e-01,-6.731888977264420320e-04,9.677937887278661305e-03,-1.260626643200553863e-02,1.621340662240982056e-01
-3.197447904044053990e-01,-4.578082587916750268e-01,-4.564417445100040216e-01,5.267516001072019942e-04,8.130731418522801901e-03,-6.925876625788283253e-03,1.386282294988632202e-01
-4.379140371122884345e-01,-3.587250157079625024e-01,-4.397126482483423304e-01,8.655974511034095556e-03,-1.163667872744595690e-02,-1.453342951209376892e-02,8.764269948005676270e-02
-3.309859985988944375e-01,-4.572215073228182991e-01,-4.396830771766260249e-01,-8.365657491842251256e-03,1.614847152848220696e-02,-1.575361797869491431e-02,1.255620568990707397e-01
-4.128882993678977265e-01,-4.172427415209159496e-01,-4.102699671010895388e-01,8.882457073707986182e-04,-1.276454692637241182e-03,-1.502384164490316821e-03,7.158535532653331757e-03
-4.268020971432940347e-01,-4.131084910477199612e-01,-3.973460506804202819e-01,3.464224026620017945e-03,-5.696001626144742841e-03,-8.095392588647483054e-03,3.133298456668853760e-02
-4.069749943532437464e-01,-4.036975667706768078e-01,-4.325699391683008321e-01,-3.835071186337229978e-07,-3.069737757897011109e-03,6.935488723019639454e-04,2.791847474873065948e-02
-3.148745367056295374e-01,-4.749063325740223163e-01,-4.336031246691856023e-01,-7.100051187928533647e-04,2.217442194349001847e-02,-3.829812805075263112e-03,1.490869969129562378e-01
-4.210466115380533947e-01,-4.064777708409498258e-01,-4.113125698788012152e-01,1.341162049989682008e-03,-1.834497293498679174e-03,-1.231667687971481091e-03,1.361000724136829376e-02
-4.058347468543478387e-01,-4.021367586637337177e-01,-4.329421747756450056e-01,-5.898928949562922981e-04,-8.860407308901441367e-04,-1.629543534143553559e-04,2.919262833893299103e-02
-4.181543066372960249e-01,-3.985533859476709795e-01,-4.191933457762276882e-01,1.890466884373150384e-03,-8.263672211626773081e-03,-2.059728711017936621e-03,2.517847716808319092e-02
-4.246654139776772086e-01,-4.246749068258212634e-01,-3.903550180342148512e-01,1.120069534895452379e-03,-4.284373764723733297e-03,-3.538458261934078562e-03,3.569204732775688171e-02
-3.230668872406828318e-01,-4.519806825193976030e-01,-4.599934976550624222e-01,-9.231820948379449582e-03,3.143180091159331578e-03,-1.080078717277078645e-02,1.354666948318481445e-01
-3.521117968968433543e-01,-4.471521193151219986e-01,-4.631874557639000245e-01,-4.557036159030676548e-02,-2.967714194097377869e-02,-1.145100917547590448e-02,1.417016088962554932e-01
-3.613295057539220867e-01,-4.467648266105005983e-01,-4.316101491951062630e-01,-2.006098808200651798e-02,-3.087455300923499027e-02,-5.945324300945959220e-03,1.020156741142272949e-01
-5.909830938338617168e-01,-5.602617429249372449e-01,-1.477958239812339758e-01,-6.483071335727216833e-02,1.898176032737444729e-02,7.278265865258262690e-02,4.618715941905975342e-01
-4.140883679954821539e-01,-4.154037127244769589e-01,-4.083918800474913846e-01,-1.601648692890696429e-03,-2.690152149386754719e-04,8.821068599556102625e-05,7.043382618576288223e-03
-3.288843913097789784e-01,-4.667364103736839076e-01,-4.612887774044792666e-01,-1.540947741703845540e-02,-6.158672998386881259e-02,-1.564463599698861368e-02,1.763725727796554565e-01
-4.770586221286214346e-01,-3.240912074313181401e-01,-3.923997534365917805e-01,1.886315220688560002e-02,1.570556528823887493e-02,8.266622297983836076e-02,1.998115777969360352e-01
-5.165348185577480766e-01,-4.338629051375343382e-01,-2.450421754049696144e-01,3.287833739715592674e-02,1.297985477323673476e-01,1.343360816236982280e-01,4.074586927890777588e-01
-3.548030814599659744e-01,-4.475720240367354608e-01,-4.328606599439634994e-01,-2.686129377764879156e-04,-3.476673253590591151e-02,-5.187534877902314802e-03,1.056639403104782104e-01
-3.526971592465397709e-01,-4.497919926119416378e-01,-4.514201635360367559e-01,-2.487372464877238114e-03,-2.137450543209851173e-02,-1.522435928263320311e-02,1.080400720238685608e-01
-4.294237291378760202e-01,-4.386962611353861230e-01,-3.705458758399935437e-01,-8.448169973204314176e-03,-5.744594375507229046e-03,2.919754173015252398e-04,6.642213463783264160e-02
-3.220308230577326181e-01,-4.556823447378501313e-01,-4.587391220042108531e-01,2.646967172522408755e-03,-1.848967774955867158e-02,-1.501495405539953788e-02,1.414340287446975708e-01
-5.540873639497513325e-01,-3.291014401990242089e-01,-3.359294991979583922e-01,7.105706003689390982e-02,7.149111471953008279e-02,1.911800967266312212e-01,4.350388646125793457e-01
-3.462192249284862244e-01,-4.227095473371433876e-01,-4.447920613698573833e-01,3.156590753423773460e-02,2.247441436333167536e-02,1.002877729297741577e-02,1.132861524820327759e-01
-6.479734291654192235e-01,-3.279963575343055604e-01,-3.094176784109881062e-01,-7.021429463753230127e-02,-8.920868006654102123e-02,1.738210262299908770e-01,4.878331720829010010e-01
-4.542585181375167203e-01,-3.589728277980761550e-01,-3.908292910047261870e-01,1.704390277379877472e-02,1.435976489138528385e-02,4.049818525200238328e-02,1.160565987229347229e-01
-4.473625686315597649e-01,-4.011597961197312379e-01,-3.690338071220722882e-01,2.801665130525242582e-03,2.862110995518456040e-03,6.605089444458716978e-03,6.949884444475173950e-02
-2.677151161419010217e-01,-3.721179307155252358e-01,-5.441241393000626481e-01,1.570923849551071894e-01,1.745490115437543354e-03,-1.848774351899128403e-03,3.640020191669464111e-01
-3.145644499259019344e-01,-3.404260671908073688e-01,-5.181849832741270978e-01,1.774013391479503099e-01,1.029064082278766251e-01,4.733204781315856341e-02,4.120291769504547119e-01
-3.673670759704428246e-01,-4.633096428237817865e-01,-4.434621682841496382e-01,-1.769391918428889557e-02,-7.189694733424308037e-02,-2.023861931539782180e-02,1.592803299427032471e-01
-4.476453897934484227e-01,-4.322438138288762222e-01,-3.553865571388051814e-01,-1.205174804712702552e-02,-1.911505500036984450e-03,6.954885182475462752e-03,8.899312466382980347e-02
-3.145309445380329860e-01,-4.568616149054380848e-01,-4.551867209650156121e-01,5.804502908503008513e-02,6.068130774358402452e-02,1.913521826064666642e-02,2.056094557046890259e-01
-4.503317169992281377e-01,-4.464615298032666990e-01,-3.402375819140555091e-01,-1.130458946852675763e-02,3.983030893570092303e-03,-4.139836882377182642e-03,1.104173958301544189e-01
-3.081923141529849253e-01,-4.499078455976154300e-01,-4.904222960988592339e-01,5.584869817380059415e-02,-1.025781888120003886e-03,-8.064665161283218059e-03,1.924103498458862305e-01
-2.543434338592169830e-01,-4.709701417584865046e-01,-4.554975603866149858e-01,9.802544734147544681e-02,9.761673452785517291e-02,4.329857787536278008e-02,3.268839418888092041e-01
-1.668403991286724897e-01,-5.721564781432229019e-01,-5.690246482369444303e-01,4.086283742060171226e-02,3.021073430065943782e-02,-5.680764176996064285e-02,4.247943758964538574e-01
-4.448845974490115429e-01,-4.167984446810361066e-01,-3.804958198049374074e-01,-1.017082228077213074e-02,-2.396036439663159004e-03,-1.219057225545508091e-02,6.244760751724243164e-02
-2.701462548539920183e-01,-4.892175286345285534e-01,-4.693499210904971686e-01,2.718383537525748475e-02,4.184600549266097314e-02,-6.939982632156393126e-04,2.269495874643325806e-01
-3.275590259812867222e-01,-4.395873642645246049e-01,-4.597524951194514875e-01,3.614412796290090990e-02,2.469834158358493945e-02,6.290847208670860558e-03,1.452032774686813354e-01
-4.414677270390003905e-01,-4.785258215073420751e-01,-3.319851946996735803e-01,-2.890268818116658797e-02,6.667532957591364162e-02,-3.366437048487139205e-02,1.914672404527664185e-01
-4.474640509995117532e-01,-4.933086200308080538e-01,-2.683414582076233401e-01,-3.698859308346737207e-02,9.830764089045293530e-02,-4.864188908079724455e-02,2.873920202255249023e-01
-2.612312652445749617e-01,-4.703820718325710248e-01,-4.784092572762557172e-01,1.986169177303665628e-02,3.195242900205848280e-03,-1.231074612029117721e-02,2.171546518802642822e-01
-3.270108839219825203e-01,-4.434131843562076347e-01,-4.527406587670851357e-01,1.339602179168246712e-02,1.282514994129498563e-02,1.696969115693033924e-03,1.255495548248291016e-01
-2.877055576277739446e-01,-4.630007204452877279e-01,-4.723974423094544073e-01,2.426104930997618689e-02,3.537893379554457596e-02,-7.808928687597363298e-03,1.953653842210769653e-01
-2.929411104723687043e-01,-4.395444725576779232e-01,-4.747397638308172851e-01,4.746933312433694596e-02,3.674145614981508615e-03,-7.711375751917966606e-03,1.867348700761795044e-01
-3.231016061714001575e-01,-4.619536540168559524e-01,-4.504097805350204542e-01,-1.552094470010302422e-02,-1.036009904964114558e-03,-1.661425292563834671e-02,1.391555964946746826e-01
-4.444211269337602355e-01,-4.706652632356636556e-01,-2.992731889927223721e-01,-8.133530241876673348e-04,4.473066194767932185e-02,2.334264868304350427e-02,1.822226047515869141e-01
-4.331593972924933644e-01,-3.349625843285224391e-01,-4.568196940172480347e-01,9.145836054181431113e-03,2.188900991043853453e-03,3.640252187040207178e-03,1.132733672857284546e-01
-3.229060344827883178e-01,-4.612911213802264321e-01,-4.566816365720074433e-01,-1.906756514674935602e-03,-8.694759433423582002e-04,-1.079456564704399553e-02,1.374646872282028198e-01
-4.154881761734603995e-01,-4.579298482732651054e-01,-3.474213552550680095e-01,-3.412078041738643604e-03,3.767621739993751162e-02,2.036118935463501376e-04,1.166910454630851746e-01
-3.248502036868941012e-01,-4.444890515657851093e-01,-4.592677929257530378e-01,1.635215636792236235e-02,2.012805394886217365e-03,-6.599316768770490012e-03,1.313200742006301880e-01
-4.336147296173384902e-01,-3.918124651948043935e-01,-4.166406098983434503e-01,7.633543016616691108e-04,-6.547446302008290073e-03,-2.428035569443292262e-03,3.839316219091415405e-02
-4.337804005040288846e-01,-4.020090954805243255e-01,-4.058099300062102954e-01,-2.385355658095960946e-04,-1.599755788568194047e-03,-1.269369459450114031e-03,3.026197105646133423e-02
-3.423227428919315973e-01,-4.164444389928562695e-01,-4.627355156620696075e-01,2.078227863808768811e-02,-3.827191954309223194e-04,4.905881926826389898e-03,1.115186735987663269e-01
-4.093817541181759556e-01,-4.148480656313383030e-01,-4.134592517054485050e-01,1.881731623482763016e-03,-9.404909463576561829e-04,-1.523568021712797026e-03,6.667665671557188034e-03
-4.064183044090527996e-01,-4.108680310895467258e-01,-4.161078621702218872e-01,3.506917549044914588e-03,-6.700023041392290900e-03,-4.841933971313790337e-03,1.767685078084468842e-02
-4.442095549798659171e-01,-3.913481493863392169e-01,-3.884598266155556701e-01,9.649729164079834907e-04,2.388365973896618556e-04,1.550106810305041261e-03,5.445662885904312134e-02
-3.276887422229577962e-01,-4.415495554576787107e-01,-4.621118945571162651e-01,1.665632639299942375e-02,-1.082879626606568155e-02,-1.436694845389794271e-02,1.324071586132049561e-01
-3.142441201050026334e-01,-4.513235533368529229e-01,-4.662110313094913194e-01,1.790405950087568462e-02,1.104729190756032538e-03,-4.888931934777325863e-03,1.486277431249618530e-01
-4.056848749649830665e-01,-4.041056401472373216e-01,-4.287064981343127745e-01,5.620921188645921444e-04,-8.888463945048526507e-03,-9.475654519758097694e-03,3.280505910515785217e-02
-4.242147868968683122e-01,-3.781942455379735391e-01,-4.390419450049432015e-01,-5.866446061249319839e-03,-9.078281450961421962e-04,-1.009527856406442110e-02,5.857943743467330933e-02
-4.260596209921820310e-01,-3.779680998456500518e-01,-4.382039843668067980e-01,-1.149191482928551417e-02,4.869641777317537884e-04,-4.715154046977348273e-03,5.922771990299224854e-02
-4.220698648490968097e-01,-4.116849702858234594e-01,-4.057052098649806537e-01,2.326013032988968367e-03,-3.196059138705504340e-03,-3.300336375429725137e-03,1.688948832452297211e-02
-4.135566098743274077e-01,-3.536983107835539597e-01,-4.786285371268306221e-01,4.136809326716874707e-02,-2.616038616108383799e-02,-3.920060060981341715e-02,1.533283442258834839e-01
-4.138333405719410996e-01,-3.694313643859011287e-01,-4.630216899179441237e-01,-4.754625787187262420e-02,9.367887422808418574e-03,-2.036161065768558528e-02,1.219183579087257385e-01
-4.631637409266382011e-01,-3.514502385577993326e-01,-4.196441011852266589e-01,-8.264057928294876731e-02,2.079111856853381457e-02,-1.254012334538248119e-01,2.801316678524017334e-01
-4.369850739269074413e-01,-3.984067822458258190e-01,-4.052959516390133299e-01,1.262139898204626574e-03,-1.116191216713300315e-02,-1.567649776244570484e-02,4.884438961744308472e-02
-4.179426946549295030e-01,-4.283320138556256929e-01,-3.913691814730018703e-01,-2.064578493201137468e-02,1.742307625912044647e-02,-1.500198002151457120e-02,6.288708001375198364e-02
-4.118512998846206030e-01,-3.862921351018057115e-01,-4.415123484960918332e-01,-7.480711135423021886e-03,-1.552462949638274596e-03,-6.234829948178278840e-03,5.082217231392860413e-02
-4.116138868412675955e-01,-3.941442993080003232e-01,-4.423318687560357509e-01,-2.352686726995132163e-02,-6.297863792205494842e-05,-1.425237420877528000e-02,6.368166208267211914e-02
-4.014527623494857367e-01,-4.101259805094356059e-01,-4.286967804176825547e-01,-1.062547215720136516e-02,3.148540619085322956e-03,-9.380344284848771835e-03,3.483650833368301392e-02
-4.930541603159697139e-01,-4.076453358105287528e-01,-3.334850671057393301e-01,1.566792009696502813e-02,3.645795013857552891e-02,9.467915134569170055e-02,2.252660095691680908e-01
-4.332258171058034346e-01,-3.957264809694260865e-01,-3.893277015798550789e-01,1.781772853070897819e-03,1.960626715417342156e-03,1.994181888159818946e-03,4.147386178374290466e-02
-4.129366242463567982e-01,-4.093510456000652442e-01,-4.241194019748927291e-01,-1.296677749845826476e-02,3.565186477660967773e-03,-1.237920861427682998e-02,3.435528650879859924e-02
-4.490683256734749884e-01,-4.446991149206024341e-01,-3.418492677086203968e-01,-9.897219364438488570e-03,-3.166374625992197326e-03,3.413763760455863425e-03,1.067963391542434692e-01
-4.644324803520898381e-01,-4.609069944189438939e-01,-3.085972007819194340e-01,-9.665900657106788960e-03,3.115955714208871845e-03,3.832640397287275999e-03,1.552454531192779541e-01
-4.442580746855645524e-01,-4.166476871285520467e-01,-3.739466698407321044e-01,-1.058161048487343651e-02,-1.331433154977782699e-03,5.468109181759275676e-03,6.477370113134384155e-02
-4.202700403067956003e-01,-4.038905556503333827e-01,-3.911971498467732844e-01,8.807669639710117085e-03,2.316651062863648181e-03,3.164884261693779247e-03,3.026874177157878876e-02
-4.491626530251215943e-01,-4.009818817584795414e-01,-3.775721560469358917e-01,-3.941596463076963396e-03,-5.574675042251894276e-05,3.262970584594634006e-03,6.384246051311492920e-02
-4.470204130353609973e-01,-3.838799544524986729e-01,-3.914157584034596571e-01,8.431330000068524080e-04,-1.070967571394069139e-03,6.517652760270547553e-03,6.083341687917709351e-02
-4.402622627248139464e-01,-4.016860560383038181e-01,-3.823232675156746918e-01,-1.335029484721067007e-02,-1.309355801096590693e-02,2.425685435918326777e-02,7.364906370639801025e-02
-4.212386584137201573e-01,-3.964736289863308172e-01,-3.984773083128474447e-01,4.169831884250583057e-03,1.683495759011872581e-03,2.268722068444918062e-03,2.537334151566028595e-02
-4.348423934856534001e-01,-4.226896833934237208e-01,-3.891076119387892884e-01,-2.795974884221703784e-03,-3.020193734531865896e-03,-4.656045510280350241e-03,4.241945967078208923e-02
-4.287788735975998078e-01,-4.377725210079075890e-01,-3.707016997691261473e-01,4.616033751697267221e-03,-3.353982202990976602e-02,-2.330871585553213887e-02,9.510383754968643188e-02
-4.377877458066579131e-01,-4.609106160752934889e-01,-3.039901044916639150e-01,1.132053984421923891e-02,4.845179438499633978e-02,2.724399123491586666e-02,1.765903681516647339e-01
-4.464413168937800824e-01,-3.881792857478364445e-01,-3.893100499712451867e-01,4.682489989421224279e-04,-1.808891506658735771e-03,2.046339085270380918e-03,5.790422111749649048e-02
-4.374032173864023654e-01,-4.043862311957727163e-01,-3.920632920658633780e-01,-6.213688962020342925e-03,-2.412629571094023970e-03,2.716098581332765903e-03,4.247665405273437500e-02
-4.333639452760807420e-01,-4.601972445713421456e-01,-3.402396281787448684e-01,-1.097466030160184659e-02,8.044615221373369041e-03,-5.397404913072547002e-03,1.119547709822654724e-01
-5.291804543553498830e-01,-4.435641879696999301e-01,-2.331991114375465135e-01,2.212154071289789553e-02,2.202629587532548353e-02,1.640739562651463701e-01,3.915081620216369629e-01
-5.417454470737961270e-01,-4.926991927339002264e-01,-2.965778123860390858e-01,-1.123424074280451740e-01,2.922816307316902437e-02,-1.717030776034051132e-01,4.235083162784576416e-01
-4.384630561292838791e-01,-3.753420149038314557e-01,-4.270760604455557385e-01,-2.190209263646970828e-04,-1.068216870600619157e-02,-4.773293573644021674e-03,6.169273704290390015e-02
-4.627621036952269118e-01,-4.193437244896637828e-01,-3.419896569675047182e-01,-6.283038757944312035e-04,3.120643431808155406e-03,1.756505771101709787e-02,1.103783920407295227e-01
-4.640377882072687088e-01,-4.457812457015503105e-01,-3.015842333534820563e-01,1.698650622981860443e-03,1.797786728937656939e-02,4.095913382154947602e-02,1.725393831729888916e-01
-4.537563363258739768e-01,-4.523099929928246499e-01,-3.157821808834924693e-01,-1.573584759181732504e-03,9.390067315314528165e-03,1.148639918212414693e-02,1.396680474281311035e-01
-4.611395010500862202e-01,-4.347221974726759308e-01,-3.327495373141695634e-01,-2.075615169261379057e-03,3.958447016021353869e-03,9.217693442176034396e-03,1.187643483281135559e-01
-4.470136225165060040e-01,-4.544313723914734648e-01,-3.399467368336788198e-01,-1.167999727711968236e-02,-4.653223806455853220e-03,-9.423776444222048279e-04,1.130903437733650208e-01
-4.061545352201174075e-01,-3.982513298150441861e-01,-4.381508618082101125e-01,-6.137769675378840911e-03,-5.540815503004187063e-03,-1.224424324831204034e-03,3.935372084379196167e-02
-4.157490649532136207e-01,-4.040225276390995157e-01,-3.976864569925863679e-01,3.728602505740269673e-03,5.540025107345596242e-04,6.501955070509225212e-04,1.720041036605834961e-02
-4.477808352348169874e-01,-4.692329128671605121e-01,-2.992750069649565137e-01,2.230939063258796304e-02,4.806746662502169032e-02,4.139388400157657105e-02,1.981536298990249634e-01
-4.509180318410468402e-01,-4.551884400337903314e-01,-3.184512056973117788e-01,1.882976785451670519e-04,1.436368478529909988e-02,8.605122823784871686e-03,1.377409994602203369e-01
-4.348740117996435783e-01,-3.923815120204734441e-01,-4.109076285138961171e-01,-4.562440725049072936e-03,2.190516565027843081e-03,-8.347442151167118810e-03,4.058929160237312317e-02
-4.376112024696539038e-01,-3.940259555210210984e-01,-4.124020913308937275e-01,-2.001838537781143543e-03,-5.525480110278382061e-03,-2.743447496433841070e-03,3.953001648187637329e-02
-4.160210263418302468e-01,-3.976611594238148029e-01,-4.220578705379761653e-01,9.306249331706244448e-04,-6.964861006988850613e-03,-3.358063145546314257e-03,2.581316791474819183e-02
-4.312903875894793515e-01,-4.026798863054705802e-01,-4.076451525716121016e-01,-7.546243669548114439e-04,-2.384493007906048762e-03,-7.253682532181840491e-04,2.686075493693351746e-02
-4.790717020659300829e-01,-4.102826042371820470e-01,-3.855677944064172524e-01,-2.781841011789714865e-02,-1.230168885613268197e-02,-6.108617555248316983e-02,1.449586898088455200e-01
-4.516750779777444769e-01,-3.686068541430731482e-01,-4.074059454598022434e-01,-1.106756131014264427e-02,-4.371535554881808214e-03,-4.665525876781539266e-02,1.101711019873619080e-01
-4.408169610446846520e-01,-3.721996611483708861e-01,-4.270910294166294086e-01,-3.770750537398696953e-03,-6.701630669498526149e-03,-5.966848035450145714e-03,6.510836631059646606e-02
-4.453477826582138976e-01,-4.268527116979787261e-01,-3.710057612788931758e-01,-7.579473365413947131e-03,-8.249226396812413134e-04,-6.520628816622595601e-03,6.925161182880401611e-02
-4.340508669325199298e-01,-4.069051561015583074e-01,-4.017574273123043493e-01,-2.929095290671735428e-03,-1.525714580505569025e-04,-1.160391737932739637e-03,3.054464980959892273e-02
-4.282376006536206536e-01,-4.048503582345246432e-01,-4.080220265422258019e-01,2.848817746785459876e-04,-1.688787450030129452e-03,-1.107225555924080083e-03,2.225586026906967163e-02
-4.303752133377857225e-01,-4.116174720863011727e-01,-4.018207291641204826e-01,-1.735714850331065940e-03,-2.542584837687606857e-03,-3.198293223947040222e-03,2.628142572939395905e-02
-4.340884846426384391e-01,-3.973509029765676659e-01,-4.093270947229748491e-01,1.483873917597149225e-03,-5.106970073890632934e-03,-5.565312870685871702e-03,3.508375585079193115e-02
-4.412078960495237068e-01,-3.684944896643962409e-01,-4.041083650468858535e-01,6.910008730330505743e-03,1.278735033006693327e-02,1.022772277120801224e-02,7.009702920913696289e-02
-4.512387235727981505e-01,-3.585590724842667720e-01,-4.133124713163425223e-01,8.979414737617694804e-04,2.024363812968697513e-03,7.659283786776503559e-03,8.187571913003921509e-02
-4.319861207193918529e-01,-4.041725440496138910e-01,-4.042548447750661245e-01,1.464780513125697693e-03,-1.889774867343246801e-03,-3.204331571953010927e-03,2.862283028662204742e-02
-4.711321066936041135e-01,-3.398405769227503814e-01,-3.716485667258898062e-01,1.327827220715486756e-01,1.160541264647489551e-01,1.757028529913644277e-01,4.471990764141082764e-01
-4.719263462045169555e-01,-3.221859359896198649e-01,-4.206270476086338417e-01,1.300911846107932583e-02,6.836529940496794203e-03,5.406447975473537698e-02,1.636736392974853516e-01
-4.387889833902587355e-01,-3.290935790311204645e-01,-4.508323160138031360e-01,1.458205375385228722e-02,7.700590905493318560e-03,1.460218416325522427e-02,1.222894117236137390e-01
-4.338909722702883887e-01,-3.479884548856551074e-01,-4.500685080539297833e-01,6.107141058370797737e-03,-1.191743019592876422e-02,-1.310023521098507230e-03,9.784559905529022217e-02
-4.649615578179164821e-01,-4.155855852549079077e-01,-3.317579769337425932e-01,5.316182952790862726e-03,1.082275486115285255e-02,5.090560837466549110e-02,1.476971507072448730e-01
-4.457235175287029283e-01,-3.988709091457340317e-01,-3.790900153798828498e-01,2.925765035051010148e-04,1.166278534518243879e-03,4.159608286916222086e-03,5.974514037370681763e-02
-4.430845370906933423e-01,-3.909554920583399040e-01,-3.935407511312268292e-01,-2.040822064082514330e-03,-2.144500041348455614e-03,1.565360466449017447e-03,5.121519789099693298e-02
-4.352512444792021040e-01,-3.909934813708470513e-01,-3.951244873414881398e-01,5.967349074540496262e-02,6.210614388420016702e-02,8.677795066163475346e-02,2.159595340490341187e-01
-4.456976210520439130e-01,-3.844105258571858252e-01,-3.840531787324634738e-01,4.438131647344792027e-03,8.481697044570538080e-03,1.972272821693617575e-02,7.224959135055541992e-02
-4.603481673642678129e-01,-3.294826521597069013e-01,-4.343355378882924334e-01,3.645583749045239446e-03,-7.444010129428021072e-04,9.406186600120443331e-03,1.212651878595352173e-01
-4.613405570096997255e-01,-4.531454047899062809e-01,-3.133331074435645180e-01,-7.225128310918162676e-03,2.880903674800601444e-03,5.045636752029023300e-03,1.449769139289855957e-01
-4.507533418890559140e-01,-2.900349121270140440e-01,-4.860415363155408119e-01,7.135174115018649843e-02,1.302801408465199123e-02,3.916905569796103742e-02,2.305041849613189697e-01
-4.541642746293000910e-01,-3.843454058953122421e-01,-3.895440585273524658e-01,-2.379272819730156026e-04,2.064648257730162444e-04,4.120544917569599064e-02,9.814632683992385864e-02
-4.507712277321728189e-01,-4.138339023626695923e-01,-3.587340481795208702e-01,-2.747728278401865860e-03,2.565011575823301655e-03,1.055988664032359373e-02,8.253800868988037109e-02
-4.339628725263978137e-01,-4.026526377757568276e-01,-3.822021151291157270e-01,6.029883361618098951e-03,2.400487600953454294e-03,3.163820642628280798e-03,4.685360193252563477e-02
-4.597976874987380613e-01,-3.443547182923847316e-01,-4.206615647237896827e-01,4.397166529721767414e-03,1.111903109735105357e-03,1.768548024487195947e-02,1.064930409193038940e-01
-4.524955283816824991e-01,-3.474881576858319665e-01,-4.212185104644360356e-01,2.048272416224771950e-03,5.376091718416613902e-03,1.463915076140413947e-02,9.727635979652404785e-02
-4.845974099738357133e-01,-2.887513397333620335e-01,-4.418681540023974841e-01,4.972863544456108259e-02,2.646351952992638881e-02,9.406859414204908620e-02,2.605371177196502686e-01
-5.719018552033459102e-01,-1.477086616396243723e-01,-5.723481127277286751e-01,8.698725844918604733e-02,-3.840892633822706737e-02,7.622859868141183826e-02,4.740124940872192383e-01
-4.240773608048063470e-01,-3.336120837736086253e-01,-4.610885389114617317e-01,5.150215101196086581e-02,-7.713123168860643898e-03,-5.120525388045322340e-03,1.453154236078262329e-01
-4.219043354505689347e-01,-3.511382791713690832e-01,-4.544995634961805919e-01,3.496811778248140601e-02,-5.156729749458326649e-03,-7.782958090929764563e-04,1.101218387484550476e-01
-4.562631348982698620e-01,-4.396494962960769137e-01,-3.186365351910631083e-01,1.457295446193805806e-03,7.979837985178452747e-03,7.987944217130591579e-03,1.316033452749252319e-01
-4.242169297469476907e-01,-3.474578374991046381e-01,-4.578781315250035622e-01,1.283621088619662023e-02,-1.245638064916932027e-02,-8.786230870560029355e-03,1.039241105318069458e-01
-4.254860645038654465e-01,-3.449293438671845458e-01,-4.562001333902722111e-01,1.628251457719744749e-02,-5.780741292348773493e-03,1.282242337552427693e-03,1.039591655135154724e-01
-4.548117271542708173e-01,-2.850197352375163362e-01,-5.087840534083689636e-01,4.623799054530383645e-02,-1.967392144944006549e-02,-9.990146905254302170e-03,2.208638787269592285e-01
-4.374257236129412418e-01,-3.106447355319598147e-01,-4.827571327710127869e-01,3.761986510879481577e-02,-1.177769787175723774e-02,-2.045255032106765326e-03,1.689673662185668945e-01
-4.600839126524216005e-01,-4.528768352887817539e-01,-3.137644657628252398e-01,-6.083487217012574846e-03,2.294953400817309648e-03,4.811883689952170355e-03,1.435377150774002075e-01
-4.024626416242514937e-01,-4.053787152776416880e-01,-4.260232863348445420e-01,1.998992545101763423e-03,-2.551696805892058380e-03,-4.055698294667435359e-03,2.399521507322788239e-02
-5.604880232177731347e-01,-4.311329760058090765e-01,-2.534356602666196778e-01,1.377111356461377910e-02,6.405826411307255497e-02,1.758971534579993057e-01,4.207063615322113037e-01
-4.605303209643305529e-01,-4.880823385332950792e-01,-3.272152364971794292e-01,-3.585888866777488942e-02,2.306895100437003979e-02,-1.909308183757657540e-01,3.701661229133605957e-01
-4.097295121597983591e-01,-4.087910888415702271e-01,-4.183363604877443631e-01,6.058219350708170942e-04,-1.884960854561806278e-03,-1.102966631451610113e-03,9.921957738697528839e-03
-4.070532093091480674e-01,-4.088782510637774537e-01,-4.226498818297405036e-01,2.814411986155103493e-03,-3.686684535693872909e-03,-5.480616799076771552e-03,1.930729299783706665e-02
-4.083059031677208073e-01,-4.051121846375155822e-01,-4.216204816022582902e-01,2.389794097510633455e-03,-3.340040377289276493e-03,-1.046284241904269158e-03,1.684891432523727417e-02
-4.502866277383311688e-01,-3.756700490152657390e-01,-3.973133030150935996e-01,-3.459802924052078881e-03,6.869547123845681476e-04,1.630495415869167436e-02,7.249827682971954346e-02
-4.681638653622259838e-01,-3.946886716747793900e-01,-3.571690798609685746e-01,-2.021024487506600797e-03,8.377065927434679347e-04,3.348756747182914800e-02,1.137615665793418884e-01
-4.367273346433722669e-01,-4.802816602599256357e-01,-3.338207972691753511e-01,-1.951873356196793738e-02,-3.211283215275532316e-02,-1.893342920839151053e-02,1.492676436901092529e-01
-4.556047588589665631e-01,-3.495801580901668482e-01,-4.191863335056890683e-01,-1.957538059778920515e-03,-3.306553830842977586e-03,2.040077404459091776e-02,9.999569505453109741e-02
-4.279039747544941541e-01,-4.022150243309742246e-01,-3.903844362739706808e-01,9.272481202105945647e-03,8.866614013293567728e-03,1.341419714907172468e-02,4.623212665319442749e-02
-6.098400330587038232e-01,-2.880452701319732856e-01,-3.289054507003694172e-01,-5.702205499189724747e-02,6.096946214422884619e-03,1.686955784203207354e-01,4.327972829341888428e-01
-4.339084400066750558e-01,-4.047880217373924228e-01,-4.038945883389185587e-01,-1.284678005342315818e-03,-1.345600738258627155e-03,-1.432786186553400244e-03,2.985558286309242249e-02
-4.713531290692709042e-01,-4.471910775716004260e-01,-3.389375382709793327e-01,-3.633980054573607288e-02,-3.518159589886023578e-03,-3.513289566178371542e-02,1.503997892141342163e-01
-4.179739852654458243e-01,-4.463319337121005592e-01,-3.705976630969030072e-01,-9.505633949332183488e-03,1.136556193884411155e-02,-1.038209171609640220e-02,7.330857217311859131e-02
-4.684341443262599602e-01,-3.188174472007036520e-01,-4.319539477291401419e-01,-1.291400858229595217e-02,-1.198703889119382207e-02,4.628045223832234073e-02,1.600466668605804443e-01
-4.428495500460637446e-01,-4.289441517087803635e-01,-3.684547920010758371e-01,-1.049455423591295726e-02,1.390176758674678548e-03,-5.516287476024972838e-03,7.156077772378921509e-02
-4.546831659816081839e-01,-4.159769565340487585e-01,-3.576367588220046301e-01,-3.099899714673293779e-03,-7.336962041395321185e-05,3.232887848439646578e-02,1.016080230474472046e-01
-3.732941330421220005e-01,-4.381012407257153241e-01,-4.283685572378937989e-01,-6.531976690344952041e-05,-5.472944686917012407e-03,-7.490246587026089947e-03,6.262685358524322510e-02
-4.260595398498924768e-01,-3.601328330055654781e-01,-4.465034389183335506e-01,5.367792233157055865e-03,-1.232919023363794435e-02,-1.946126456661970670e-03,8.164503425359725952e-02
-5.113091312539935762e-01,-3.169314325241464614e-01,-4.168309946357923179e-01,-1.562645977908431322e-02,-1.653125514786105144e-02,8.670749671110751511e-02,2.290225774049758911e-01
-4.377417632591944496e-01,-4.119207328492011655e-01,-3.942133999497021701e-01,-3.900406926923105470e-03,-7.417082522855422775e-04,-3.251402072965359474e-03,3.894228488206863403e-02
-4.357678746158693550e-01,-4.003237139132790334e-01,-4.042724538339853568e-01,-9.324741512242484863e-04,-1.331991280213797946e-03,-4.133219150874891182e-03,3.451235964894294739e-02
-5.159753006896794503e-01,-5.277719351979331952e-01,-1.402085541785856315e-01,-2.408453018309385588e-02,4.276089320659184900e-02,1.163912222127858921e-02,3.916690945625305176e-01
-4.387603365215581031e-01,-3.963501870615254719e-01,-4.104886992657079681e-01,-2.290044540693213053e-03,-2.282544520670846781e-03,-4.053048587651894227e-03,3.846487402915954590e-02
-4.316960549008443948e-01,-3.999779896368944598e-01,-4.114176604248785396e-01,-2.969389608105093420e-03,1.049641825649141750e-04,-2.850997137525981134e-03,2.872154116630554199e-02
-4.604041431747968871e-01,-4.536171075187536150e-01,-3.351336084341747790e-01,-1.385690400689562791e-02,-1.042325855250078245e-02,-6.262176992455292801e-03,1.261276155710220337e-01
-3.977481472765524995e-01,-3.441770576644422319e-01,-4.581951503982334972e-01,7.772804596668024535e-02,5.634969133874721120e-02,6.559495253732959552e-02,2.243230193853378296e-01
-4.546952828858418227e-01,-4.550022181882334982e-01,-3.306124533944277966e-01,-9.167957779772977975e-03,1.366156799337745831e-03,-1.018691089157793055e-04,1.252697557210922241e-01
-4.485120453840438781e-01,-4.518320294636642420e-01,-3.248331613089312508e-01,-1.572691363515770283e-02,-3.266016534178125402e-02,1.121785646573791179e-02,1.415545344352722168e-01
-4.459878027949809032e-01,-3.857404438364497867e-01,-3.922856244390904856e-01,6.001807171448633130e-04,-1.003528983644463033e-03,6.486193050613825971e-03,5.838293954730033875e-02
-5.772948595936591154e-01,-1.840836861141529335e-01,-5.730717319305181912e-01,-5.246061234722995681e-02,-7.747608954473922394e-02,-1.027279725020897871e-01,4.592334628105163574e-01
-4.654927983081194043e-01,-4.655460855619960592e-01,-3.303543293310221562e-01,-3.593298417719176935e-02,2.871972352957261054e-02,-4.626017561145019663e-02,1.761749833822250366e-01
-4.110355299580822352e-01,-3.942662792566047347e-01,-4.103210408632914641e-01,2.248130150697677521e-03,4.842819707231355020e-03,2.598432440118867478e-03,1.937816664576530457e-02
-4.619719872291526697e-01,-5.086071593487028197e-01,-2.713248059438450599e-01,-1.611530797610014748e-02,4.115285084583879260e-02,-1.448867425815968460e-02,2.321671694517135620e-01
-4.437959213102751210e-01,-3.903646043475634819e-01,-3.939421612451217136e-01,-1.345182548851309992e-03,-1.105151127387596745e-03,2.330248168509453828e-03,5.198013037443161011e-02
-4.387737324466193245e-01,-3.887647745456361825e-01,-3.916223402781264240e-01,2.280355697511922321e-03,2.828676411343619343e-03,2.083748444889133630e-03,4.918117448687553406e-02
-4.511914793122315248e-01,-4.596321310577585195e-01,-3.278583715986054803e-01,-1.119038964801250848e-02,1.205964983913216867e-02,-1.173920489260300501e-02,1.324715763330459595e-01
-4.476591275589323349e-01,-4.517483207698981262e-01,-3.239022068220597239e-01,3.462408062533511941e-03,1.742462946984420225e-02,9.119656973529238417e-03,1.305177658796310425e-01
-4.497167518189399971e-01,-4.123456377778913495e-01,-3.653031591190186722e-01,1.041993081985320398e-03,9.181842248220717156e-04,6.229140236883441879e-03,7.409330457448959351e-02
-3.725282279481285097e-01,-4.179115423691183162e-01,-4.246027607149312488e-01,5.580754439920534299e-03,1.004067542998132896e-02,1.256401605286911090e-02,5.724972113966941833e-02
-4.609299968245585966e-01,-4.581700595706382773e-01,-3.151713705270530186e-01,-1.695950874520946519e-02,4.770453064058320647e-02,-2.075090499020098081e-02,1.727215945720672607e-01
-4.934546732499911492e-01,-4.597959424200231959e-01,-2.981265087680065040e-01,-2.374996200130959426e-02,-1.352336876013423943e-02,-2.078664097945088704e-02,1.903906017541885376e-01
-4.218716092063366507e-01,-4.990285972272825443e-01,-3.385278848559696852e-01,-4.453819317805647604e-02,6.523083577841667924e-02,-5.110559877459268374e-02,2.141994684934616089e-01
-4.488306908973298537e-01,-3.860010168707059264e-01,-3.060129036392207902e-01,8.126396426325993572e-02,1.085236846029468682e-01,1.531494259299100436e-01,3.753387928009033203e-01
-4.447828554122234546e-01,-3.923326859550985701e-01,-3.880018024323421688e-01,-2.125513299862941000e-04,1.585853101425252227e-03,2.900815765837512061e-03,5.504413694143295288e-02
-4.116055365970855973e-01,-3.984102211988817532e-01,-4.040301101094393443e-01,2.180543831976303019e-03,4.948408612813271108e-03,3.328983449686363436e-03,1.589069701731204987e-02
-4.374689973820030109e-01,-4.091125484665595335e-01,-4.105956693572671568e-01,-4.060209957542702808e-02,1.275555157130690148e-02,-5.287662281267083153e-02,1.207714676856994629e-01
-4.351320296703029000e-01,-4.355597488533833328e-01,-3.507014409769586560e-01,7.057856387554492343e-03,6.682479149997693803e-03,6.401071300924670096e-03,8.701234310865402222e-02
-4.173458132482451011e-01,-3.815048385920153384e-01,-4.164892885375470755e-01,5.255258392292640711e-03,1.216861678097395233e-02,5.711837477358224988e-03,4.335394501686096191e-02
-4.169210349178972264e-01,-4.540030667885092686e-01,-3.643690987745375476e-01,-2.295314758917722103e-02,2.220123386090962214e-02,-2.648514832633068819e-02,1.060619205236434937e-01
-4.312958235201675983e-01,-4.465528402803493613e-01,-3.654030687888519813e-01,-2.424347335155009261e-02,5.251917735074915217e-02,-4.130414451609576432e-02,1.440002918243408203e-01
-3.301012366081305660e-01,-4.592584173206805676e-01,-4.351916185915963853e-01,3.277489390304786070e-03,1.094139022347698220e-02,-3.768482535847762945e-03,1.207740083336830139e-01
-4.060223082193168964e-01,-4.367001726054363653e-01,-3.788450861802352132e-01,-3.883121638152270405e-02,4.618462671026096755e-02,-3.957970917741222144e-02,1.346691548824310303e-01
-4.297315408962522065e-01,-4.102208374990801154e-01,-4.094511886413585433e-01,-8.360880558481581515e-03,1.601549825000575739e-03,-1.679956241891367164e-02,3.821465745568275452e-02
-5.080553895889691196e-01,-2.117891624026423947e-01,-4.667652112804160369e-01,5.619565988164049869e-02,1.717376025644849757e-02,1.065519304401276318e-01,3.488040864467620850e-01
-4.509404457744391470e-01,-4.222375459865291281e-01,-3.654963560198578043e-01,-1.713632647217395652e-02,2.516621758361678798e-02,-5.109296062564724211e-02,1.276107579469680786e-01
-3.493165065979448869e-01,-4.340691774884157250e-01,-4.367549911515763439e-01,7.777765336026506819e-03,8.204500879446548559e-03,6.964673237209905582e-03,8.914483338594436646e-02
-4.225801029790379193e-01,-4.088666112225767257e-01,-4.074179485812847723e-01,-1.797421460467128751e-02,1.028968100272087405e-02,-2.244090054189984765e-02,5.484210699796676636e-02
-4.352379499104140348e-01,-4.506905465731091964e-01,-3.354229785459429403e-01,3.227198704549017350e-03,1.182383788817532692e-02,8.776101189457820653e-03,1.114716380834579468e-01
-3.836218302269911451e-01,-4.612936932707868420e-01,-3.842770218297709151e-01,-1.540642397171334242e-02,3.236212535820802427e-02,-7.466421245612386327e-03,1.000184714794158936e-01
-4.270766615679873479e-01,-4.124838792543309429e-01,-3.981794507448061515e-01,-6.632579283544608358e-03,5.140689680632586252e-03,-1.013635597628734231e-02,3.384963795542716980e-02
-4.287047254491999637e-01,-4.297373895189780524e-01,-3.800921135409023321e-01,5.194221330191266424e-03,-6.512474083280503888e-03,-1.228990936163689741e-02,5.545949190855026245e-02
-3.958051877062041535e-01,-4.298250628130734219e-01,-4.100809264286056077e-01,-1.036205407494695000e-03,1.741981172177688207e-03,-4.824811878745949301e-03,3.094593435525894165e-02
-3.994825324668979105e-01,-4.505935798756993682e-01,-3.721807324403689776e-01,-5.964203094846887675e-03,1.338309628996335598e-02,-6.108950092047113131e-03,7.422362267971038818e-02
-4.429073426616481068e-01,-4.610715042387919516e-01,-3.274607451320757923e-01,-1.116489624453518778e-02,1.222618133618953370e-02,-4.366212963428929041e-03,1.289745718240737915e-01
-5.036490135757283326e-01,-5.854337653059411561e-01,-2.168847393636674226e-01,-9.153636193378245078e-02,-1.255164490986647174e-01,-8.794303728515576180e-02,4.560452103614807129e-01
-4.566224914102727794e-01,-4.500764781978544016e-01,-3.376438468592416475e-01,-7.074038618432534724e-03,-1.315393690146545932e-02,-1.166783019141152088e-02,1.204057782888412476e-01
-4.371941262392611272e-01,-4.139693695646037841e-01,-3.932816079000003850e-01,-7.598279205193303638e-03,5.027412877816208161e-04,-2.899268825080774086e-03,4.058346897363662720e-02
-4.331764060782014036e-01,-4.083233355207910309e-01,-4.139233280908978241e-01,-5.629099740843963862e-02,2.757292953612788811e-02,-6.209244646600461937e-02,1.544768661260604858e-01
-4.576134316296399107e-01,-4.532826381485757228e-01,-3.338512530736315598e-01,-9.023922185640891741e-03,-8.282265157344656861e-03,-2.006759703710264860e-03,1.235394924879074097e-01
-5.025458960621933535e-01,-4.949436877141923929e-01,-1.989819234325990172e-01,4.100461475098123032e-02,1.195447390725130066e-01,9.013157418076830907e-02,4.027271866798400879e-01
-4.286881787693350709e-01,-4.134111728466315916e-01,-3.992525295679230646e-01,-6.940877626218683490e-03,1.412610532015249904e-03,-5.316756660971692916e-03,2.975690178573131561e-02
-4.610775687166328018e-01,-4.599846021166425492e-01,-3.224791078522821763e-01,-1.810937314666402620e-02,-1.028568026408623916e-02,-3.052847303599798105e-03,1.427880823612213135e-01
-5.262690589838484589e-01,-5.208763619000491563e-01,-1.740642456866600130e-01,-1.779258238539610862e-02,8.507873235035708082e-02,-5.870334735865968129e-02,3.939303457736968994e-01
-4.032699955479105425e-01,-3.932829808706280739e-01,-4.197387140256925719e-01,3.594268884963721083e-03,9.641358347607683135e-03,3.541181880934391856e-03,2.984419651329517365e-02
-4.026514686971423007e-01,-4.076471930321364234e-01,-4.048110965593555433e-01,1.547175732193346778e-03,2.126128462711469099e-03,2.544777310126815958e-03,7.681311573833227158e-03
-4.075834636072874773e-01,-4.064971483801571028e-01,-4.021783697807017055e-01,2.208368520800392445e-03,4.152339682416585488e-04,3.128117142838172308e-04,6.321785505861043930e-03
-4.055151687211508982e-01,-4.050425595244945831e-01,-4.050011249185568318e-01,1.696978423873280687e-03,4.851187763910695845e-04,6.573020738309753126e-04,3.299397649243474007e-03
-4.069372270033019268e-01,-3.965706471459433113e-01,-4.131012915520629325e-01,2.690967037839508275e-03,7.099395501408213224e-03,2.795524424979426836e-03,2.014286443591117859e-02
-4.351273804512893473e-01,-4.520328793965910363e-01,-3.350788959396401312e-01,2.300588178999848910e-03,1.178379064371865709e-02,8.422232063998197349e-03,1.123926937580108643e-01
-4.328529695207496419e-01,-3.382112819818749450e-01,-4.666334629992058280e-01,-3.498734067485954891e-02,-2.440705432846373979e-02,3.028466527331667713e-02,1.466497629880905151e-01
-4.341258094840356740e-01,-4.160079875979716957e-01,-3.699742619317940573e-01,8.180200574757212628e-03,4.511258281352980605e-03,5.453544285029581808e-03,6.026951968669891357e-02
-4.076132112679189401e-01,-4.036723430838348170e-01,-4.053981774140343886e-01,5.264054036624108964e-05,1.607969553093763606e-03,1.126983197793062332e-03,4.825240466743707657e-03
-4.115601630829304747e-01,-4.043904746876959000e-01,-4.013939087829552221e-01,9.321907578907777554e-04,1.268485759352083568e-03,1.126370201544363465e-03,9.649275802075862885e-03
-4.116218077448756119e-01,-4.015696460639096022e-01,-4.021354977401396247e-01,3.046908155432022803e-03,1.236424305760366101e-03,9.607687195025976660e-04,1.144047733396291733e-02
-3.551147946073472395e-01,-4.446505939265088525e-01,-4.213697319713891054e-01,2.619656066652055124e-02,3.818646285103024368e-02,1.618577143372729524e-02,1.170193254947662354e-01
-4.236330301615691130e-01,-4.556755456610389055e-01,-3.481317788278669445e-01,6.286717944144384028e-03,3.363119247982764015e-02,1.296316591997810110e-02,1.147269904613494873e-01
-4.359171902732211779e-01,-4.616613450786749007e-01,-3.293309452130938619e-01,-7.340195897494238529e-03,1.119735231401553996e-02,2.848460827181121917e-03,1.238122805953025818e-01
-4.186152669029390982e-01,-4.197351890962417453e-01,-3.816295357653031184e-01,8.440523821116674777e-03,4.197279511390180143e-03,4.531024707032983191e-03,4.169878736138343811e-02
-3.569006647067204940e-01,-4.242219063947185176e-01,-4.359973730843754725e-01,1.167239506139652362e-02,6.346134434871869220e-03,1.105691907301205659e-02,7.974880188703536987e-02
-4.126049685452924942e-01,-3.600523853959287091e-01,-4.524297774818588080e-01,7.920510194446459332e-03,2.456824915864479555e-03,2.087659239317535796e-03,8.160926401615142822e-02
-4.085649029926780584e-01,-3.788140170255707706e-01,-4.264342315736452393e-01,5.698613869750185010e-03,1.278499967016415682e-02,7.312049095484036629e-03,4.984220862388610840e-02
-3.890988795372422593e-01,-4.149394527403177380e-01,-4.085802084285531932e-01,5.272089617298070935e-03,6.568262513401598203e-03,1.039632798713380733e-02,3.287720307707786560e-02
-4.056556932525672288e-01,-4.011215177975109292e-01,-4.025892571225575534e-01,9.333620393445280633e-03,6.537951671210266366e-03,8.091169685624758842e-03,2.453656308352947235e-02
-4.046691895696387653e-01,-4.122690061080132029e-01,-4.028141928891799117e-01,5.219206657090942961e-03,2.935647080018532595e-03,4.596443899902067330e-03,1.569242402911186218e-02
-4.347000857810375263e-01,-4.497228817949574520e-01,-3.478732232977172489e-01,-1.172344519751915108e-02,7.250530638729773755e-03,-1.530774338809157750e-03,9.821419417858123779e-02
-3.311556415359310224e-01,-4.476539922570120233e-01,-3.817596726399574703e-01,8.743095971366296459e-02,1.485539682752057833e-01,8.787377095332157828e-02,3.500573039054870605e-01
-3.659091882446496857e-01,-4.584622337348158161e-01,-3.820457842549087046e-01,6.462632726092570890e-02,1.056787408870616257e-01,6.253251568001695626e-02,2.551423013210296631e-01
-3.109149232566045251e-01,-4.589701768271737259e-01,-4.622763993029613827e-01,7.383348380411967893e-02,6.967670130413883278e-02,2.179861777785328802e-02,2.340192496776580811e-01
-3.543866233193024295e-01,-4.211164759607545216e-01,-4.293940302517361141e-01,4.131528192120250548e-02,3.686064340771715020e-02,2.573284362015833271e-02,1.275039911270141602e-01
-3.850609411658482695e-01,-4.437410729970213685e-01,-3.905620331972060044e-01,2.328366287285658920e-03,5.353933166667450630e-03,3.849766131916060666e-03,5.742416530847549438e-02
-3.552918463785381120e-01,-4.277833862736117321e-01,-4.285697119550042622e-01,7.727369044694175348e-02,5.080314780019258569e-02,4.021586428456189188e-02,1.892647296190261841e-01
-2.547810665969387767e-01,-5.446837374980031399e-01,-4.279080830989773210e-01,7.457595087562714220e-02,1.715144346668698860e-01,3.087861088848362426e-02,4.142744541168212891e-01
-4.451871334918733325e-01,-3.560595052333633825e-01,-4.370465918285227347e-01,5.784745069613007190e-03,-1.096303415888270731e-02,-1.675686358220803904e-02,9.267031401395797729e-02
-4.214409348413998835e-01,-4.000016377065976347e-01,-4.209894598111647013e-01,-3.858929239437852449e-03,2.660889835042088477e-03,-4.150111516977571594e-03,2.382757328450679779e-02
-4.641482924410956223e-01,-2.955111076799797343e-01,-4.671268690128300149e-01,-7.112410107669572476e-04,-1.486825002219306982e-02,-1.426109883791803166e-02,1.738520115613937378e-01
-4.392824281601587222e-01,-3.933354745184911572e-01,-3.975441042114016277e-01,-5.472814147798806504e-03,-4.856110602639904412e-03,6.852463631816540536e-03,4.729619994759559631e-02
-4.712439030642732729e-01,-3.753140351050054946e-01,-3.938720745155713798e-01,3.941700971631125622e-03,-1.312829565490558105e-02,-4.348347220196896457e-02,1.183333173394203186e-01
-4.326404715112103783e-01,-4.195015801028529334e-01,-3.827803944992829166e-01,-9.257442683749240661e-03,3.563916125105616277e-03,-1.137944685820201432e-02,5.183852091431617737e-02
-4.405296232615529828e-01,-3.836262054084113582e-01,-4.166717107288811506e-01,-1.119661031677966984e-03,-3.442938954508666105e-03,-9.121626972585771334e-03,5.233103036880493164e-02
-4.300702425733867740e-01,-4.188848961509510360e-01,-3.889557013915788120e-01,-8.317560032231448297e-03,1.244729512488963567e-03,-2.828807709121169359e-03,3.989783301949501038e-02
-4.457296983838539006e-01,-3.786281463456975249e-01,-4.139133254273555940e-01,2.038519466774889061e-03,-6.519393641945600039e-03,-1.177961064888359381e-02,6.273933500051498413e-02
-4.439770758875221102e-01,-3.735363407098751254e-01,-4.260849152226139358e-01,1.740124311516920343e-03,-9.400732338371372773e-03,-5.759280519430129419e-03,6.629783660173416138e-02
-4.239521642442585780e-01,-4.013869232066677450e-01,-4.091207844313421438e-01,-2.871094903438650096e-03,-4.782300576171717721e-03,2.355568113638379247e-03,2.246047928929328918e-02
-3.791221120470636974e-01,-4.062712873242919631e-01,-4.550095570719813742e-01,-7.655457085832398367e-02,2.828146084287928505e-02,-4.867792476457577511e-02,1.775546371936798096e-01
-4.286862141482863375e-01,-4.107122756894244220e-01,-4.019557587716229841e-01,-3.528752940253326170e-03,3.943642887230338376e-04,-1.158640960024639056e-03,2.447403408586978912e-02
-4.107369290051238186e-01,-4.048044291869672962e-01,-4.271070484643709197e-01,-2.202158405171193972e-03,1.504648841404117527e-03,-2.452795669074759807e-03,2.096855081617832184e-02
-4.141441458857177960e-01,-4.147121096008191676e-01,-4.098695856337570276e-01,-1.026352999937509437e-03,1.088456968207694806e-03,-2.204358281105837675e-04,5.280381999909877777e-03
-4.450085954095952534e-01,-3.884098371429512975e-01,-3.907960152962915990e-01,-2.422723017456592919e-03,-3.581879189728223202e-03,7.227889406621501589e-03,5.733135342597961426e-02
-4.162717028901313232e-01,-4.000763245736662088e-01,-4.278721993004711011e-01,-4.164819829296868142e-02,1.130270075320592531e-02,-2.451553200411128036e-02,8.930139988660812378e-02
-4.190801180573137108e-01,-4.219814268177932703e-01,-3.936419055073837603e-01,-9.408771135328959645e-03,3.894084574209053483e-03,-5.940458744986643579e-03,3.385643288493156433e-02
-4.017632921815821878e-01,-4.263080386499690233e-01,-4.040288768907098205e-01,-2.034861907009659441e-03,3.408294220947470903e-03,-3.572897971661762560e-03,2.524950355291366577e-02
-3.967366590923759873e-01,-4.316127671566879487e-01,-4.049021075111578494e-01,-8.037316934378401553e-04,3.330060121465149275e-03,-7.415429647014651349e-03,3.461806103587150574e-02
-4.261755446146135995e-01,-4.198371092304685748e-01,-3.961853407531449323e-01,-1.098335019238972157e-02,4.644581012751236755e-03,-9.816812350379856486e-03,3.827825561165809631e-02
-3.858896286367413109e-01,-4.451952979635396823e-01,-4.043858875852323065e-01,-6.602409792753787150e-03,1.664553328600366228e-02,-9.651829969473224580e-03,6.327567994594573975e-02
-5.008727166009467879e-01,-4.698188525992699205e-01,-2.628658598986515216e-01,-4.292392289146633455e-02,-2.055135290302671780e-02,9.174277168409934735e-02,2.868191897869110107e-01
-4.206403348064136072e-01,-4.069435360082280795e-01,-3.902696312323169492e-01,6.196157109287400190e-03,2.342193655312260411e-03,3.240928708567504708e-03,2.927705645561218262e-02
-4.359197487821332428e-01,-4.302770773972139362e-01,-3.767321238136455697e-01,7.395127105889494476e-04,-5.345105610130204341e-03,-1.217732189175272511e-02,6.110033392906188965e-02
-3.897587491747628863e-01,-4.222385749024952228e-01,-4.029929134287651427e-01,3.032814240212286690e-03,2.638631299798250250e-03,6.978175173705447251e-03,3.154052421450614929e-02
-4.523884133373055061e-01,-4.031339062754574765e-01,-3.686182684938666965e-01,-1.000709488165437387e-02,-6.826848861865009860e-03,1.216265616820551287e-02,7.874909788370132446e-02
-4.543636056609549612e-01,-4.839028414320855620e-01,-2.706361872546516611e-01,-2.926228620121838764e-02,-8.208426866954120216e-02,1.833396298233450419e-02,2.526780962944030762e-01
-4.690794357154078886e-01,-4.691600439958811819e-01,-3.141626208804699782e-01,-2.698670394072162290e-02,-1.747705020980480292e-02,1.918352529623732969e-02,1.679789423942565918e-01
-3.800264948797792419e-01,-4.430872829727174333e-01,-3.980961445859407255e-01,3.029548227503477392e-03,3.875470243786888029e-03,2.616460253343218939e-03,5.706854537129402161e-02
-4.522707566881217223e-01,-4.729202879755920463e-01,-3.229862878502691714e-01,-2.139216940048490473e-02,-3.724634896145775920e-02,-8.677692096137968117e-03,1.599099487066268921e-01
-4.599776084754236827e-01,-4.427322566249038971e-01,-3.306183637099424644e-01,-5.666806858317055377e-03,-5.486089469321908142e-03,1.342675152567927507e-02,1.246107295155525208e-01
-4.473708718390539962e-01,-3.997271288978451742e-01,-3.827092771026633922e-01,-3.365651560074791986e-03,-7.062891600194100760e-04,1.751323747963275676e-03,5.843807384371757507e-02
-3.884782206560812856e-01,-4.298687989315818081e-01,-4.197083183083454849e-01,-1.487194213660367453e-03,3.241918839774616916e-03,-9.091246225298282510e-03,4.101200774312019348e-02
-4.618643663812957989e-01,-4.451821213634038488e-01,-3.294821556158126774e-01,-9.153461899855318620e-03,-6.493014661744712923e-03,1.197638881407134259e-02,1.280743926763534546e-01
-4.170102740825488707e-01,-4.347009594873650906e-01,-3.663060724777372212e-01,8.227875884314235500e-03,7.362342245582117160e-03,5.541445720790420283e-03,6.510528177022933960e-02
-3.976862060051200021e-01,-4.225838200654379317e-01,-3.964142823034520480e-01,1.766964392159545497e-03,2.217251601124154141e-04,1.666317856565499361e-03,2.590406686067581177e-02
-5.082442840010171770e-01,-5.066972019170910002e-01,-2.157809254585393022e-01,-3.574188045022260590e-02,-6.100138576256802087e-02,3.281538928495975060e-03,3.164063990116119385e-01
-4.771912491894121922e-01,-4.786746344202713055e-01,-2.883897672557754754e-01,-7.852517561140484603e-03,1.531453626458945637e-02,3.524558832212729836e-02,2.013544440269470215e-01
-2.238350390153109326e-01,-5.239287030652184374e-01,-4.477352266874989883e-01,-7.722064704081502140e-02,1.058481974568537543e-01,-5.348659340250815075e-02,3.648006618022918701e-01
-3.441992721842064284e-01,-4.576102603355546306e-01,-4.284170115508597054e-01,-5.887731954888844425e-03,3.181171462059580873e-02,-7.202355929116180389e-03,1.170428842306137085e-01
-4.537253299426259323e-01,-4.636173105123893023e-01,-3.088357362886048341e-01,-9.646034794798198989e-03,1.058682824248025588e-02,3.816903726363916460e-03,1.522602289915084839e-01
-4.811144654619411987e-01,-2.337798425807773584e-01,-5.001544582637319492e-01,7.088138162080498406e-02,-3.597658317218346835e-02,-5.252064531895816318e-02,3.057399094104766846e-01
-4.020936744777214855e-01,-4.338597573574541899e-01,-3.843130352304426900e-01,5.748124369634304356e-03,3.893293485109442127e-03,2.317640643894562386e-03,4.528539255261421204e-02
-4.589736476962644751e-01,-3.240519817483367149e-01,-4.626316262504756027e-01,-2.159820738226444700e-02,-1.010905847139014629e-02,4.233931983794554849e-04,1.428892612457275391e-01
-2.876549873291821546e-01,-4.711033894189783355e-01,-4.507343785982798057e-01,-9.955295690130441799e-02,9.764508445272185311e-02,-5.813479038070681892e-02,3.143351376056671143e-01
-4.174739557079000241e-01,-4.581368998478649313e-01,-3.433581682281358627e-01,-1.455042738397518617e-03,1.999912745421408497e-02,3.515771880381036302e-03,1.067882031202316284e-01
-4.281872466212187645e-01,-4.278518514305644227e-01,-3.870051233780337774e-01,-1.069593605374499247e-02,1.534576567974354133e-03,-2.174928573922824647e-03,4.524082690477371216e-02
-3.685793880908641018e-01,-4.477833348122011725e-01,-3.937533710135465714e-01,2.327981826299280188e-02,4.000344466909683261e-02,2.383298491314261858e-02,1.142095699906349182e-01
-4.493997734817143930e-01,-3.216170222420831060e-01,-4.632383183026378970e-01,7.304281196234580810e-03,-1.478167189356817575e-02,-1.016531892135562505e-02,1.393334716558456421e-01
-4.449901339899554609e-01,-3.966344706304031908e-01,-3.842068398418617137e-01,8.150271444832942131e-04,3.562864964703838845e-04,3.023183143674677224e-03,5.588787794113159180e-02
-4.229835066889250372e-01,-3.903406567820834616e-01,-4.313425889187601503e-01,-5.280379429406906709e-03,-1.631709905055235684e-03,-4.371612413156486000e-03,3.946215659379959106e-02
-4.454007846555003147e-01,-3.946450859553197743e-01,-3.846405051644608553e-01,-1.512659713673783881e-03,5.306784416887129789e-04,2.931319019973293791e-03,5.672309175133705139e-02
-4.163786180631094958e-01,-4.132294031571524529e-01,-4.085405444512887341e-01,-1.148781528682153155e-03,1.226743826498674162e-03,-8.477305822122749085e-04,7.569604553282260895e-03
-4.216682276769734283e-01,-4.084308699392010800e-01,-4.117025915329525221e-01,-2.319348328603441055e-03,2.548498111924158045e-03,-1.614053807376444839e-03,1.364041864871978760e-02
-4.391780527545215973e-01,-3.295245376843793927e-01,-4.642875522266323163e-01,1.382874363813671979e-02,-1.295663725857348035e-02,-1.237474983007175872e-02,1.301708668470382690e-01
-4.476038640169835992e-01,-3.154851541955021599e-01,-4.635652049967592392e-01,6.141356347793309328e-02,-3.282934848964745665e-03,-7.753945816397173974e-04,1.765443980693817139e-01
-4.653967654876550730e-01,-2.755587665205946335e-01,-4.930928604021232453e-01,6.783227167028238469e-02,-9.141680524932754501e-03,2.158547420776029541e-02,2.398238331079483032e-01
-4.054018225589956503e-01,-4.205052056341455624e-01,-4.128864388177737044e-01,-6.674311325483811390e-04,5.818554944477681481e-04,-3.624974384241744316e-03,1.458979118615388870e-02
-4.432475399852602305e-01,-2.965877626665334166e-01,-4.742377059687604146e-01,4.285993132510092923e-02,-1.928883133515737472e-03,7.210940663727338600e-03,1.808108538389205933e-01
-4.687721508911751878e-01,-2.817528097701992307e-01,-4.859039583305798660e-01,6.169687394209248665e-02,-1.639101613979759842e-03,3.816175283803335122e-02,2.329597473144531250e-01
-4.814764191358107404e-01,-4.595551607679991823e-01,-3.131690255475302331e-01,-2.711174234055761453e-02,-3.514151575019313495e-02,-3.092539215250219783e-02,1.841126531362533569e-01
-4.093241600161173777e-01,-4.211274536403544211e-01,-4.065409498508415487e-01,-3.571795510146788966e-03,5.472048102282435749e-04,-1.229980464303620383e-03,1.495409850031137466e-02
-4.201578404608738437e-01,-4.193886178895152583e-01,-3.988874670429226610e-01,-6.608458559458143221e-03,8.315500113971493025e-04,-1.238639473874281541e-03,2.396562322974205017e-02
-4.727204115651174599e-01,-4.710758669930448783e-01,-2.976105552399808118e-01,-1.730881081897869128e-02,-2.534715137676406401e-04,-1.425682544135447368e-03,1.768707633018493652e-01
-4.162277524144330498e-01,-4.117048967899060163e-01,-4.096821614874340267e-01,-2.162918524265007927e-03,1.954738978360615748e-03,-1.126822979842096546e-03,7.937447167932987213e-03
-4.433465226176920293e-01,-3.974737243598589487e-01,-3.992881969857230429e-01,-1.236597874617085223e-03,1.564907807005005719e-04,-2.119317506601372386e-02,5.810752138495445251e-02
-4.450151224427572050e-01,-4.409392654782451348e-01,-3.529729429092136606e-01,-1.198687571613642720e-02,1.936584827341295825e-03,-1.509190867781431966e-02,9.611882269382476807e-02
-4.395732709160171114e-01,-4.129859159014063752e-01,-3.885212564756371778e-01,-3.122818180344693034e-03,-5.303853915736993913e-03,-2.047387413718274735e-02,5.768053978681564331e-02
-4.121754298509199277e-01,-4.165345519224440407e-01,-4.075437136782134040e-01,-2.778805654417419637e-03,1.473944609705110653e-03,-1.846381395105348199e-03,1.002771873027086258e-02
-4.752269812781396152e-01,-4.266682821946781168e-01,-3.581796775618164008e-01,-1.790064000185803000e-02,-3.256496630241922235e-02,-3.608137919910047592e-02,1.357301771640777588e-01
-3.859924563687310295e-01,-4.369013466464105599e-01,-3.976959734497598209e-01,1.169454273215795106e-02,2.323638276429667096e-02,9.818060019103857367e-03,6.672430038452148438e-02
-4.459607450516130389e-01,-3.846446639946807800e-01,-3.893009618447163533e-01,3.022341325293398449e-04,1.844776702332163792e-03,5.836311644096794406e-03,6.007086113095283508e-02
-4.766115914251974339e-01,-4.296126704629807391e-01,-3.673509704919780128e-01,3.154300829431921915e-02,-7.792638694731360283e-02,-1.464603427617738041e-01,3.075158596038818359e-01
-4.976869647000708996e-01,-3.931671458790628737e-01,-3.233640812654695607e-01,-5.758232502921483385e-03,-2.851907200201811432e-02,-1.437003549815374093e-01,2.959417700767517090e-01
-3.673987733764640384e-01,-4.315375953803564646e-01,-4.362528143945364478e-01,-3.707445183768049574e-03,1.060377365442914145e-02,-1.092609543321315831e-02,7.193847745656967163e-02
-4.155302549214060504e-01,-4.000475174781832344e-01,-3.986210871440948322e-01,6.742031554599712401e-03,1.936689232031950630e-03,2.421219062962379730e-03,2.071325853466987610e-02
-3.949128110650656498e-01,-4.137073133012273973e-01,-4.070677098141095573e-01,2.837531226254592660e-03,2.706641059556549010e-03,7.490933824325672792e-03,2.206817455589771271e-02
-3.799027564840427029e-01,-4.062311192437661478e-01,-4.256760640370305659e-01,2.490339188854987992e-02,1.953097849869690067e-02,2.008814556105092616e-02,7.614956796169281006e-02
-3.970153651125192806e-01,-4.209710559021644927e-01,-4.005076592511313538e-01,1.802776795836466247e-03,3.941109091544599198e-04,3.564366210396930582e-03,2.346787229180335999e-02
-5.007565478329345510e-01,-3.806708503740718341e-01,-2.716290331096001820e-01,5.588785371066607582e-02,9.831358854217671361e-02,1.697806915688722940e-01,4.052758812904357910e-01
-3.916760196697729457e-01,-4.068608667854756167e-01,-4.221376465526182065e-01,1.422482491121693747e-02,1.283878972085055262e-02,1.189932059639594621e-02,4.714082181453704834e-02
-4.027763113313251875e-01,-3.883246675900129952e-01,-4.265737953387168102e-01,2.379757895066844132e-03,8.428443632740463196e-03,2.074995974579053794e-03,3.690671548247337341e-02
-4.284805705487512717e-01,-3.499701867607138972e-01,-4.055730051920725665e-01,6.794156800748536729e-02,5.114614563580818785e-02,7.538295283634235955e-02,2.088872343301773071e-01
-4.203931419396635949e-01,-3.532031925835338870e-01,-4.394515221490279400e-01,1.521101751955808608e-02,1.317681643884486414e-02,8.066319034853604991e-03,8.699683845043182373e-02
-4.212446680669262866e-01,-3.640792240624707299e-01,-4.265871757722626834e-01,1.242359806809434017e-02,1.222132610979014856e-02,1.083132888828378972e-02,6.974890828132629395e-02
-4.028654500984571452e-01,-3.759742238909409839e-01,-4.357949537784359673e-01,8.410396273564640229e-03,9.250003410636399581e-03,4.553192546285774606e-03,5.678108707070350647e-02
-3.932178697909920473e-01,-4.286567415734220954e-01,-3.971158734455150774e-01,5.830708054478493316e-03,6.529551772769473170e-03,6.273487661359725999e-03,3.848290070891380310e-02
-4.030102862129000263e-01,-3.701493406811832143e-01,-4.387211688338788496e-01,1.089276713934173371e-02,1.098813192509380532e-02,8.741564724890503804e-03,6.690307706594467163e-02
-4.098383093701818969e-01,-4.020276212406673211e-01,-4.265008629240593097e-01,-8.930628741963103287e-03,-9.623468311325135416e-03,6.905434757350691934e-03,3.359985724091529846e-02
-4.054753199044541234e-01,-4.051772051970615185e-01,-4.055676613889678261e-01,5.297001853664578879e-04,1.223863190659827934e-03,7.442267246385134323e-04,2.668673405423760414e-03
-1.681036120114436927e-01,-5.120304171764795687e-01,-5.310856703760529207e-01,1.489304882163172694e-02,5.920750555103808203e-03,-3.567652770816777397e-02,3.602657020092010498e-01
-4.071390971054076324e-01,-4.436419494034659072e-01,-3.758853259590703710e-01,-7.176074999094857361e-03,4.834334153035644947e-03,-3.612244938761873924e-04,6.062260642647743225e-02
-2.967167918037969532e-01,-4.514027961902872810e-01,-4.728458754606442160e-01,-8.596445991987841651e-02,-8.579531633097124688e-02,-1.114139262251879223e-04,2.682474851608276367e-01
-3.715233186742941673e-01,-4.327959453190694528e-01,-4.515273724012304202e-01,-2.811764510121985902e-02,-2.012827292482101491e-03,-1.731660821510837972e-02,9.239307045936584473e-02
-3.996533601087899346e-01,-4.064377362479822953e-01,-4.510052481344997144e-01,-2.522610826136936074e-02,-1.354118018340979938e-02,-1.065889017921085175e-02,7.165647298097610474e-02
-4.054597213169914283e-01,-4.067909538334919528e-01,-4.034602371538947296e-01,1.846916670725695349e-03,6.191593324795201378e-04,6.872347111930577875e-04,4.607835318893194199e-03
-3.289149852021974740e-01,-4.533906633373186446e-01,-4.536171793927259999e-01,-6.772700501621440987e-03,6.567828408684681096e-03,-6.874135205902651667e-03,1.262189447879791260e-01
-3.886401446236865675e-01,-4.429452481275062969e-01,-3.900105332997784169e-01,8.225998505066883272e-04,1.451301549008201641e-03,1.252923367371064963e-03,5.375464260578155518e-02
-3.806170618392039073e-01,-4.296930364053433427e-01,-4.357787943350655002e-01,-1.200408010438555606e-02,-1.009299500805098566e-02,-2.105841627962551539e-03,5.912153050303459167e-02
-4.663635142748600582e-01,-3.652796981790863429e-01,-4.365220043508085679e-01,-7.212204213737297143e-02,-5.099314417348453643e-02,3.587637773520450241e-02,1.880398094654083252e-01
-3.922496487930586806e-01,-4.027232807309246154e-01,-4.219227373380655122e-01,2.795232559410351300e-03,2.141601144560101658e-03,7.621509211535608744e-03,2.984737418591976166e-02
-3.572021701994990139e-01,-4.541486880431567785e-01,-4.138581933667158097e-01,1.775602692955887589e-03,7.628573028305070565e-03,-2.105243906959622987e-03,8.551764488220214844e-02
-4.104820023316825828e-01,-4.334445738855584040e-01,-4.173336680907316354e-01,-5.636202652479047753e-02,3.194935964069768597e-02,-5.690715282890658477e-02,1.507464200258255005e-01
-3.692376780213486032e-01,-4.527889370420662418e-01,-3.968445252070206819e-01,-4.573873054044091360e-04,1.649756889351019357e-02,6.971599012883500021e-03,7.999569177627563477e-02
-3.501091128163369981e-01,-4.585214105499570980e-01,-4.207285262151351790e-01,-8.749501260850757467e-03,1.482330341974839177e-02,-9.064725115653307283e-03,1.010924056172370911e-01
-3.274999687510105062e-01,-4.603453968376365890e-01,-4.491148902530385234e-01,-6.759341123342712220e-03,7.771368686071222255e-03,-1.635161494137044383e-02,1.319184750318527222e-01
-3.785297978248872708e-01,-4.294651424103914650e-01,-4.381079494987191181e-01,-1.709777745950584460e-02,9.410899961387978472e-04,-1.150950288342437490e-02,6.622987985610961914e-02
-3.876417052181158618e-01,-4.027363671561165481e-01,-4.265134753637715992e-01,3.617851664912692233e-03,6.135039937082703218e-03,9.402458044520405414e-03,3.961702063679695129e-02
-4.099823593545796618e-01,-4.303696943125415175e-01,-3.949681585738863965e-01,-7.982830837568065038e-03,1.882589822919478000e-04,-1.194806184458518852e-03,3.380436450242996216e-02
-4.152753483684343272e-01,-3.918261902205206204e-01,-4.359590858177342376e-01,-1.441532549517568831e-02,-8.697742859042494751e-03,-5.311528901791545774e-04,4.810301214456558228e-02
-3.897477118481916802e-01,-3.353792743282866251e-01,-4.695090321948459655e-01,6.757756479461644872e-02,2.704125444108576581e-02,2.630030643939142501e-02,1.778293550014495850e-01
-4.169389665549037005e-01,-4.146133506484420139e-01,-4.078964192472532835e-01,-4.632056911637739971e-03,3.090418718532371781e-03,-4.105944992972139669e-03,1.448250468820333481e-02
-4.426541009924386261e-01,-4.392134089612014236e-01,-3.469996387394522763e-01,1.007598219061475731e-02,2.734343746823423779e-02,2.747699904620878181e-02,1.168119013309478760e-01
-4.097425382666688431e-01,-4.171354903790736590e-01,-4.113071641504149611e-01,-2.240866924373931344e-03,1.462037419815113677e-03,-2.582030491554241237e-03,9.328148327767848969e-03
-4.097228044925190216e-01,-4.170955384022208556e-01,-4.104021875626701621e-01,-2.379820152811697751e-04,-3.897722616929848085e-04,-1.081405627161737654e-04,7.104267366230487823e-03
-4.443047061054371527e-01,-4.408849759732529905e-01,-3.363051867129295824e-01,1.105363937784561122e-02,2.330996629443432555e-02,2.359014383364339829e-02,1.223615929484367371e-01
-4.266508970881006668e-01,-4.364062967712770136e-01,-3.479443714240292862e-01,1.484444295505813263e-02,1.649055057611109945e-02,1.412408908624730730e-02,9.556701779365539551e-02
-4.424395515795229716e-01,-4.173597472134850106e-01,-3.643795669257295922e-01,1.009500432593747089e-02,2.796296265676765855e-02,2.939391658266251803e-02,1.000407189130783081e-01
-4.096407737599879750e-01,-4.214186922484748354e-01,-4.051453256634290900e-01,-4.049056656021263884e-03,-3.936750103100295915e-04,-8.042079872571123583e-04,1.623161137104034424e-02
-4.092261065233398498e-01,-4.178352212278536593e-01,-4.093779606360241075e-01,-7.976728527748489211e-04,2.752092101340347934e-04,-1.415276365336173457e-03,8.998760022222995758e-03
-4.392976054318314949e-01,-4.229134668169036715e-01,-3.478542879946602273e-01,1.533613379782982657e-02,1.307779411075959963e-02,1.517731998596528499e-02,9.508854150772094727e-02
-3.144219715538662530e-01,-3.733465980454474531e-01,-4.569625158964442657e-01,1.636273928581700732e-01,1.063870715150383173e-01,9.886011473503136804e-02,3.987319171428680420e-01
-3.944254648978637867e-01,-3.936977083046125370e-01,-4.280645184078758492e-01,9.046103993789040426e-03,7.945298154895788847e-03,7.427369398957060602e-03,4.191626608371734619e-02
-3.757833742121071130e-01,-4.460190310909802336e-01,-3.903996003169207807e-01,5.673905215844871758e-02,6.436043965106010012e-02,4.444206467646685810e-02,1.792488545179367065e-01
-3.533762827540802287e-01,-4.154360164324976679e-01,-4.378080848622224464e-01,9.973588200513919255e-02,7.428088011821909475e-02,5.863086946840208313e-02,2.498954683542251587e-01
-4.400187604170922029e-01,-4.003003740236342201e-01,-3.950030590828361166e-01,-5.483922120255083250e-03,-6.249574550718398980e-04,-1.769941762846069869e-02,5.335927754640579224e-02
-4.114967296134980912e-01,-3.755317189820188140e-01,-4.470552502065500144e-01,-3.129119004699151829e-02,7.425084917752153985e-03,-2.521551171656575066e-02,9.405865520238876343e-02
-3.965336030141025092e-01,-4.225651848568434121e-01,-3.963104403925459263e-01,4.005846594699415120e-03,1.302014897202735059e-03,2.073995039836990829e-03,2.737942337989807129e-02
-4.030135015940461418e-01,-4.120618915589475684e-01,-4.012842588690299639e-01,1.171788746337947603e-03,-3.469346234254196007e-04,1.185597042651574803e-03,1.045025233179330826e-02
-3.269905035235155522e-01,-4.067613676423672553e-01,-4.951171899177671532e-01,9.970765374635366662e-02,3.074274665940697829e-02,1.451082597501420109e-02,2.334743142127990723e-01
-4.013617423539227458e-01,-4.112406575179282098e-01,-4.025610527594902233e-01,3.543010044930731527e-03,9.969822030972965658e-04,1.576163561369908891e-03,1.163086295127868652e-02
-5.600459384834151066e-01,-2.387751228092133970e-01,-5.111847774807231071e-01,-1.187753533162247133e-01,-8.819919953091262532e-02,-7.731237056882010739e-02,4.165289103984832764e-01
-4.012531768659015063e-01,-4.422771552677222662e-01,-3.790774656354583549e-01,3.489230101454181710e-03,5.324208114766416401e-03,2.406079574592996217e-03,5.677497759461402893e-02
-4.603986401031644471e-01,-3.376545477193535483e-01,-4.344399629589275058e-01,1.252447308869111299e-02,-1.420596277362033873e-02,-2.292221217782525189e-02,1.233125701546669006e-01
-4.395253317217344691e-01,-4.182943838503456191e-01,-3.803219914575962091e-01,-8.977828604053921663e-03,1.709733952889881756e-03,-1.106019682677555037e-02,5.758822336792945862e-02
-4.648393552101012793e-01,-3.974104313129174781e-01,-4.033833743806950478e-01,-4.481349861390598183e-02,-5.705020349243699815e-03,-6.662719705619028765e-02,1.536864638328552246e-01
-4.412936556369607688e-01,-3.714193637163277217e-01,-4.253439327957814764e-01,-1.761610904179076315e-02,2.317159626737036026e-03,-3.188262389303352790e-02,8.954847604036331177e-02
-4.412966987090790050e-01,-3.872215099989895770e-01,-4.156896184179397769e-01,-7.187038549997823954e-03,-5.596042459093737709e-03,-1.041309487877466709e-02,5.262457951903343201e-02
-3.913469927349041422e-01,-4.416503348661538486e-01,-3.886656876636514490e-01,1.617416341817014356e-03,1.400895540979331085e-03,5.001629890569790578e-05,5.182892456650733948e-02
-3.996207698911768413e-01,-4.297516140354332159e-01,-4.046650143257427001e-01,-5.091373462291399771e-04,2.404614422184596541e-03,-4.097388020993213012e-04,2.828343398869037628e-02
-4.310502903960954368e-01,-4.445340710502098114e-01,-3.665069975764516652e-01,-1.361984198255431974e-02,5.560142434480946569e-03,-1.292812725893197935e-02,7.980345934629440308e-02
-4.452406481199667754e-01,-4.478293721329126287e-01,-3.445800441475972420e-01,-1.352474236389868828e-02,2.223330370410344248e-03,-3.169358224111240574e-03,1.048501878976821899e-01
-4.396587914551057796e-01,-4.315940731586647150e-01,-3.644408523845078518e-01,-1.750617986095129308e-02,5.067593883060351849e-03,-1.156411163004538584e-02,8.070807158946990967e-02
-4.505060675489243049e-01,-4.681062646597290433e-01,-3.049600143219237114e-01,-1.526613304507416953e-02,3.080991793497462120e-02,-7.640158893643574263e-03,1.666646152734756470e-01
-4.085816624313319267e-01,-4.339115993729145138e-01,-3.776681568078229523e-01,9.130879047299807899e-03,1.284996628901832923e-02,4.891873827543329577e-03,5.654699727892875671e-02
-3.461313281463465064e-01,-4.543893386482523722e-01,-4.593157485441859422e-01,-6.695077177092646770e-02,3.295558945357447700e-02,-4.881950990243608124e-02,1.900864392518997192e-01
-4.020647146889237966e-01,-4.368951738191549361e-01,-3.814127585837401857e-01,5.930117161282761826e-03,4.073258444144620995e-03,2.312411358883768950e-03,5.030205100774765015e-02
-4.738979241568400669e-01,-4.531638443373496306e-01,-3.199870388304110191e-01,-1.707799999492653001e-02,-4.878056026652879268e-02,-2.088356287019469196e-02,1.739230751991271973e-01
-3.302098040898256981e-01,-4.611732568580373948e-01,-4.452470224344343142e-01,-4.515184742112632321e-02,5.912478985621134886e-02,-2.076770852516813051e-02,1.822539418935775757e-01
-4.194018672989752172e-01,-4.538628534851368856e-01,-3.436535418182021240e-01,2.686879911100525844e-03,1.881846219500950962e-02,1.957098135333085881e-03,1.031081080436706543e-01
-4.490710334954896576e-01,-4.467462462898673659e-01,-3.312538197010175267e-01,-1.653036519295560114e-02,2.385785227268786071e-02,-1.938523472110210630e-02,1.314043849706649780e-01
-4.102405880210135414e-01,-3.950607440994192698e-01,-4.339240522891862351e-01,-1.605319550971331249e-02,-8.985345767691417865e-03,4.330810782025731540e-03,4.714273661375045776e-02
-3.931469523531614385e-01,-4.416507012691928136e-01,-3.930473578739898111e-01,-4.725978454432907898e-04,2.924449059925572793e-07,-9.428962562535070542e-04,4.858797788619995117e-02
-4.249157275103196962e-01,-3.692620986816986806e-01,-4.479003153310483487e-01,-5.873198648254003909e-03,-6.845158003952887121e-03,-2.177747455999307167e-03,7.185452431440353394e-02
-4.016729102854003086e-01,-3.967097724403802483e-01,-4.396947576677835978e-01,-1.643284548284422095e-02,-3.226718947302610000e-03,-4.073053086085878967e-03,5.049872398376464844e-02
-4.111804889283871556e-01,-3.609210678141480666e-01,-4.676669251324161447e-01,-1.266455827864131356e-01,1.551187475947707339e-02,-6.640231127453306847e-02,2.657492458820343018e-01
-4.342109897360919013e-01,-3.469511909571020292e-01,-4.681916555518629286e-01,-5.020078984721353110e-02,-3.672383538773116990e-02,-7.820589952428238026e-03,1.533749252557754517e-01
-4.356789206643933432e-01,-4.017746812302732118e-01,-3.946195537075289361e-01,-4.805819433819276745e-03,-3.164947602255725745e-03,2.818118098725658389e-03,3.957835584878921509e-02
-4.265058709653395952e-01,-3.815583152746733209e-01,-4.437368269030424472e-01,-1.750034150373877551e-02,-9.349738139326121619e-03,-3.550124169449132665e-03,6.565460562705993652e-02
-5.175692142900448767e-01,-3.947236765461968888e-01,-3.268194936074100831e-01,-3.428183132875241290e-02,-3.764025428369487808e-02,9.828397592301423014e-02,2.545565664768218994e-01
-4.016682160119028899e-01,-4.266442653098856397e-01,-4.121840047311579047e-01,-1.783615171519969955e-02,-2.081039917787638055e-02,1.058512447508014320e-02,5.533063784241676331e-02
-4.104630928658126177e-01,-4.162406473725601685e-01,-4.109225437001261527e-01,-6.764692313153445279e-05,3.212047872171862502e-04,-6.551295988290614163e-06,5.591073539108037949e-03
-4.158296153248307037e-01,-4.432570485815361394e-01,-3.741548621885780745e-01,-2.569396414825212902e-02,-3.558232879326458931e-02,1.246805760511320894e-02,9.938452392816543579e-02
-3.523843871615489620e-01,-4.462064810856142261e-01,-4.440068760011796622e-01,-5.907613290283437839e-03,-5.242740578685703597e-03,-5.511718115173798102e-03,9.423029422760009766e-02
-4.226744164187737907e-01,-4.056815464966235796e-01,-4.088785545775265318e-01,2.572885161831234193e-03,-5.331870543130192569e-03,-7.022042939260994543e-03,2.230975404381752014e-02
-3.035276307087138581e-01,-4.731180641513330065e-01,-4.758524465214627464e-01,-2.891598377411864693e-02,-1.257435593299080501e-01,-2.496287053836623859e-02,2.846827805042266846e-01
-4.007408755103877285e-01,-3.996964909385042897e-01,-4.153122204101225012e-01,3.961847939035445000e-03,5.674164381995929450e-03,5.066445282747067229e-03,2.119709178805351257e-02
-3.720633393716200610e-01,-4.367339747341451028e-01,-4.362006093035624144e-01,-3.555709713322966880e-03,-1.020451644638720873e-02,-2.139127053851102613e-03,6.717243045568466187e-02
-4.426770943227370525e-01,-4.032998148824446516e-01,-3.763497063209697013e-01,-1.353435890070667919e-02,-1.168564456263590859e-02,2.979067132734442014e-02,8.342512696981430054e-02
-4.385151359886678701e-01,-3.890192944921618823e-01,-4.052122337328584178e-01,-6.346295831317950737e-04,-4.297514249962447984e-03,2.743593592437283592e-03,4.460675269365310669e-02
-4.720209615749467735e-01,-3.006198817009357316e-01,-4.608666647844912312e-01,-1.219424874303817741e-02,-2.252035455943162193e-02,2.717970856416846576e-02,1.782545894384384155e-01
-4.440875702250799417e-01,-3.833789880751759527e-01,-3.999367428715982498e-01,4.163121740366984721e-04,-6.090589294090929980e-03,5.249907041526231943e-03,5.611580610275268555e-02
-3.987392761093502269e-01,-3.688700225115399967e-01,-4.536835391573855736e-01,1.728298772743954922e-02,4.670835612200305124e-03,1.662087756501008781e-03,8.075909316539764404e-02
-4.047890540643534485e-01,-3.958704709834088842e-01,-4.346999570408470182e-01,-1.595375110071276664e-02,-6.964506616391605807e-03,1.997209069789763602e-03,4.649744182825088501e-02
-3.906455578012137941e-01,-4.295241719956011672e-01,-3.973519673406409880e-01,2.568052550980019777e-03,4.368612684508422182e-03,6.417397016390753370e-03,3.868300095200538635e-02
-4.484765830309037082e-01,-3.808779843917667884e-01,-4.426129265470393759e-01,-7.156526084932517129e-02,-4.427257317985436313e-02,1.801210150969969823e-02,1.625602245330810547e-01
-4.313329347540248437e-01,-3.254419033565012498e-01,-4.851571754074786580e-01,-1.220634655782048827e-01,-2.317400105019310971e-02,-4.277585512027427123e-02,2.675973773002624512e-01
-6.501491846033096156e-01,-3.895092578289113261e-01,-2.383367722033481462e-01,-5.466776380754128500e-02,-2.723853739910460370e-02,1.857939584804796096e-01,4.949116706848144531e-01
-3.892844716644950909e-01,-4.411953942537623075e-01,-3.904323620081384671e-01,5.010162392836376571e-03,9.154578947574914388e-03,4.733667372810179859e-03,5.504925549030303955e-02
-4.205331567030177742e-01,-4.079224805839516965e-01,-3.861844082631888941e-01,1.003500209319858026e-02,3.465763200810653873e-03,4.261113643689142319e-03,3.603212907910346985e-02
-3.968437104677876026e-01,-4.005580122253172837e-01,-4.212773383568488295e-01,8.761968928929780723e-04,1.875681108945970654e-03,3.544109596901468505e-03,2.388690412044525146e-02
-4.456301459955632205e-01,-4.009831356321369444e-01,-3.695541492125000160e-01,4.251063756524842141e-03,2.225198105937873771e-03,6.407014746206677984e-03,6.765031814575195312e-02
-4.335500459841990506e-01,-3.679908485688754838e-01,-4.344902170121516249e-01,-1.185810920697819536e-02,-1.717894492636411544e-02,1.399344255433510910e-02,7.908964157104492188e-02
-3.877339529968906739e-01,-4.460817625295759870e-01,-3.902220861185787260e-01,2.402899115639794676e-04,9.612063402713336103e-04,-9.506273422241713145e-04,5.719385296106338501e-02
-4.462464343806269440e-01,-3.647813933975245781e-01,-4.321517114794991565e-01,-1.064549518671810066e-02,-1.514531948326034751e-02,1.373517192993611684e-02,8.532920479774475098e-02
-4.052036435912357848e-01,-4.032068565606697352e-01,-4.341831031819650688e-01,-1.450319956858863672e-03,-1.334493597004425894e-03,-1.216127342790758025e-03,3.029442019760608673e-02
-4.013970480480102410e-01,-4.480917571725586690e-01,-3.798702291040320644e-01,-4.298702604006154719e-03,3.635870482465296261e-03,-3.733873757148495126e-04,6.119233369827270508e-02
-4.277434596701639724e-01,-3.765528405674124501e-01,-4.384033055946088275e-01,-3.924134259726259726e-03,-1.120259270445116487e-02,1.297223085608047903e-03,6.088953092694282532e-02
-3.768022822732942645e-01,-4.000299377715864635e-01,-4.430808456096403947e-01,2.910779864669874040e-02,-8.542757848370366794e-03,-1.118225578769220345e-02,8.080057054758071899e-02
-5.092919522837454638e-01,-3.456880788137202121e-01,-4.002486996735846736e-01,-2.418792550830108426e-02,2.437558848168502879e-02,-1.448116249711482451e-01,2.954076230525970459e-01
-3.834785289356566484e-01,-4.020094017985432200e-01,-4.384488253480403608e-01,1.593801555795681946e-02,1.215543040200745169e-02,1.024343374772796085e-02,6.218189001083374023e-02
-4.195676073810126194e-01,-3.446671194098966939e-01,-4.550969284042863938e-01,1.952570739228500982e-02,9.474190434289250784e-03,1.645147480102000272e-03,1.046648919582366943e-01
-4.007849536310887362e-01,-4.315635626045918882e-01,-3.985944691865178080e-01,-6.502148088350755009e-04,9.017554962445611380e-04,-3.671482922450065335e-03,3.261423483490943909e-02
-4.138199968596081302e-01,-3.549619180851834033e-01,-4.518790600109598432e-01,9.014651668983401922e-03,5.186880675619576393e-03,5.047667792343579242e-03,8.691253513097763062e-02
-3.799271435186053480e-01,-4.169630630568631480e-01,-4.378783130593757456e-01,3.744176318636725613e-03,-6.695231471106423242e-03,-1.167734140612326603e-02,5.629687756299972534e-02
-4.093374683634817823e-01,-3.798496562099181739e-01,-4.233038557480097164e-01,6.369288849586907629e-03,1.203742027329482780e-02,7.637885875870303008e-03,4.698769003152847290e-02
-4.142910596425655734e-01,-3.503934752990973678e-01,-4.431352631686441002e-01,1.965903937601413964e-02,1.458269251781017795e-02,1.061400512467036358e-02,9.430447220802307129e-02
-3.916323244717495045e-01,-4.423509717284825893e-01,-3.883984039186729187e-01,8.636170898988026036e-04,1.653729720159632932e-03,4.886937554852056496e-04,5.251683294773101807e-02
-4.086592130657999422e-01,-3.942170990840999645e-01,-4.035840543436886030e-01,2.813678892282981542e-02,2.834858805028917655e-02,3.358475965261559226e-02,9.127326309680938721e-02
-4.041162938859436671e-01,-4.041490039010088298e-01,-4.124308755286071881e-01,4.139055566389665194e-03,6.013805429466186243e-03,6.179812529382920985e-03,1.852901838719844818e-02
-3.996239325490948402e-01,-3.661962190606575795e-01,-4.528360501724646991e-01,1.390537129751007704e-02,4.098942921503884000e-03,2.606868004763137833e-03,7.986595481634140015e-02
-4.207243033028790768e-01,-3.491874013082848505e-01,-4.405523499546512567e-01,1.685579269307940081e-02,1.632787526961543625e-02,1.291091345383564397e-02,9.529608488082885742e-02
-4.159675077566212797e-01,-4.142277026819825569e-01,-4.081194809316686101e-01,-5.751006326769278650e-03,3.126031752014780344e-03,-4.208586486814978357e-03,1.525252312421798706e-02
-3.992858142739566518e-01,-4.046732723028248491e-01,-4.142910865608814275e-01,2.564029634979343632e-03,5.435774148746932294e-03,6.568846668798897052e-03,2.027701959013938904e-02
-4.167401102223839970e-01,-3.986724356033111705e-01,-3.994713583595766448e-01,3.148333201149390668e-03,6.457973633325680626e-03,3.136999372757074030e-03,2.229392342269420624e-02
-4.047604343768982371e-01,-4.036631764234467901e-01,-4.329552466528898691e-01,-1.374941979344286840e-03,-4.797079151770598874e-05,-1.076199524225729138e-03,2.891783788800239563e-02
-4.052352404730312219e-01,-4.021532031299551169e-01,-4.351271599493697351e-01,-1.039713888927882961e-03,-1.819831122278547150e-03,-1.471119909716424919e-03,3.185631334781646729e-02
-3.532864249304478177e-01,-3.579771005716775312e-01,-5.054694395841643484e-01,8.619918877671639557e-02,-4.623641941829046125e-04,-8.110653686916826158e-03,2.120299935340881348e-01
-4.035862628448706468e-01,-4.427530198362647496e-01,-3.771020489891563354e-01,-3.788623801893260638e-03,2.243149965573019381e-03,-1.471292674924169416e-03,5.777022987604141235e-02
-3.873883463543207339e-01,-4.426194591151678681e-01,-3.997284501541948920e-01,-4.959944266473537665e-04,4.712310296473114224e-03,-5.654918573645373488e-03,5.181202664971351624e-02
-3.579291385856975261e-01,-4.500475108349417108e-01,-4.153198420617753017e-01,1.492376279822550883e-03,6.262927496258987627e-03,-8.043967792324262581e-03,8.253011107444763184e-02
-3.908409616679914267e-01,-4.452273976689474777e-01,-3.868995174683275695e-01,-6.242872141248148382e-04,6.069327674108048257e-03,-4.153093044853831866e-04,5.744542926549911499e-02
-4.153098358358842113e-01,-3.978736295731897799e-01,-4.034241191666358972e-01,2.358406485772261783e-03,5.077023779118030461e-03,2.424989278286342979e-03,1.870043389499187469e-02
-4.109822550304302879e-01,-4.004038503749536848e-01,-4.039008899726360124e-01,1.955460401560307152e-03,4.476881511112219651e-03,2.858605471061523729e-03,1.353708188980817795e-02
-4.106882181800629583e-01,-4.166893494548521426e-01,-4.092916529554377902e-01,-2.975331355145139972e-04,1.784455892742465623e-04,-1.298564839334659165e-03,7.194780278950929642e-03
-3.962959533153523339e-01,-4.170732490571479878e-01,-4.032533943817626643e-01,3.308646003339821631e-03,1.119233586652904284e-03,6.591481744680780311e-03,2.241623401641845703e-02
-4.116098759373409965e-01,-4.159553686292608021e-01,-4.101750289501210900e-01,-2.731718091647059900e-03,1.602687360712403948e-03,-2.208216593436204515e-03,8.479300886392593384e-03
-4.087581681199689010e-01,-4.150947322977677212e-01,-4.145043315428642572e-01,1.102755972768141180e-04,4.593364500474989638e-04,-9.605477322744084999e-04,6.340103689581155777e-03
-4.099863917134245472e-01,-4.148915695595980502e-01,-4.140250996671983597e-01,-2.641064136509371882e-04,1.037419839337908132e-03,-1.032878696664153760e-03,5.215346813201904297e-03
-4.099972214848725538e-01,-4.034631096447905962e-01,-4.029598264008250053e-01,5.052036078820575267e-03,5.555815095879924198e-03,4.788348571754232931e-03,1.685798726975917816e-02
-4.001183777004562181e-01,-4.106938505543787921e-01,-4.064784521318944854e-01,8.789355471994026109e-04,1.032237491664939315e-03,5.711062503400247091e-03,1.372564025223255157e-02
-4.569885911693143399e-01,-3.320820690322472402e-01,-4.584589801714482604e-01,-6.934947641420173385e-03,-1.454776905327374859e-02,-1.573990474642973994e-02,1.315670460462570190e-01
-5.060622797723491884e-01,-2.735405657322447781e-01,-4.382208943528826395e-01,1.990417985305317425e-02,-2.168206617308108403e-02,8.757652673745035254e-02,2.617288827896118164e-01
-4.667744078140063646e-01,-3.161954014701977567e-01,-4.387443687160059724e-01,4.127294403255985997e-03,-8.501917310984909160e-03,2.698860758966018306e-02,1.472823470830917358e-01
-5.373932190628780692e-01,-2.967915330428984033e-01,-3.748144314058521887e-01,-5.698561926931550864e-02,-2.583341554830188500e-02,1.299588444614082627e-01,3.280493617057800293e-01
-4.401540136034333139e-01,-3.216570635733882466e-01,-4.536442061395387082e-01,3.650337304976299102e-02,6.765957368766941857e-03,3.256145574543563986e-02,1.521105766296386719e-01
-4.054770873856394786e-01,-4.103355561466817680e-01,-4.273465701046826326e-01,-8.033838910140658762e-03,-8.857353424270071081e-06,-7.567662024350448914e-03,2.758737467229366302e-02
-4.140110667718578941e-01,-4.509167520630177339e-01,-3.566487989587583396e-01,-1.038476886320412011e-03,8.002598187486175546e-03,2.502528566300888952e-03,8.356793969869613647e-02
-4.071512783763528986e-01,-4.149033965598886708e-01,-4.169309490516031058e-01,-4.596425846687387205e-03,2.093819940151829886e-03,-5.669451266643730364e-03,1.590238325297832489e-02
-4.072333720781098898e-01,-4.144679551901838122e-01,-4.165749435305488024e-01,-4.929284039869747400e-04,-3.367743470680913597e-04,-2.530792098621362837e-03,9.607585147023200989e-03
-3.818867845298042907e-01,-4.344153638350832791e-01,-3.998978210510656384e-01,1.268765475396812451e-03,3.450051881161927698e-03,7.234749898659580299e-03,4.832305386662483215e-02
-3.956216915365709519e-01,-4.232550794424074225e-01,-4.152304014104502561e-01,-4.371328680515734755e-03,3.487366147508820253e-03,-8.606659837148131209e-03,3.036914579570293427e-02
-4.308636228740788110e-01,-3.964640285092888017e-01,-3.778171877707021675e-01,2.599326860527767860e-02,2.255277735427817232e-02,3.015566071674228438e-02,9.194239974021911621e-02
-4.043458441080823862e-01,-4.096008701661130180e-01,-4.315206327791197838e-01,-8.035356892331717640e-03,4.723164867992923595e-04,-6.693401365207934071e-03,3.085539117455482483e-02
-4.030722042506557079e-01,-4.149579736077767533e-01,-4.208343876038570519e-01,-2.408387927215478556e-03,1.504713732237464643e-03,-5.225935260914103819e-03,1.875564269721508026e-02
-4.129337117003676894e-01,-4.424502834917770078e-01,-3.746146760626157257e-01,-6.039092268081202447e-03,5.941601103792008322e-03,-7.206282850634122871e-04,6.072479486465454102e-02
-3.985787712739525257e-01,-3.785768404167585977e-01,-4.453827666978539268e-01,5.376911783118538610e-03,2.285667022518080189e-03,2.721370631045192529e-03,6.042752042412757874e-02
-4.318545280123603503e-01,-4.098695889590309172e-01,-4.001171054547120187e-01,-6.326165512330695143e-03,5.119569376113686232e-03,-1.478288431831011052e-02,4.058507457375526428e-02
-4.017890407831403721e-01,-4.142234453755114787e-01,-3.989117446282726687e-01,8.617490601668616190e-03,6.779443699622667539e-03,8.439961590942407152e-03,2.780351787805557251e-02
-4.416076200216745851e-01,-4.271556708362483912e-01,-3.764078573592867794e-01,-1.084074716718519231e-02,6.750033860396843950e-03,-6.063961488438911369e-03,6.416520476341247559e-02
-3.644531796361705211e-01,-4.170896149985003909e-01,-4.358624034369535383e-01,6.833450622329822685e-03,5.757146545266499799e-03,1.004530634827730320e-02,6.821577250957489014e-02
-4.709287302316695900e-01,-4.697188938582030904e-01,-2.924120888437969912e-01,-1.514359427289327202e-02,-1.140589761733195109e-02,-8.353587489643309397e-03,1.814973652362823486e-01
-4.342284130364024164e-01,-4.288808203010929798e-01,-3.773472339377001994e-01,-1.311509969891108511e-02,3.109761999907878667e-03,-5.714762773806155403e-03,6.002410128712654114e-02
-4.314224894776571007e-01,-3.875277556162711190e-01,-3.889228945806699755e-01,1.358841704309726901e-02,1.411303813460867453e-02,1.766247838450023255e-02,6.288730353116989136e-02
-3.794035729291214132e-01,-4.460255498251897155e-01,-3.974570439533877675e-01,2.277335842602203845e-03,3.872043432086878356e-03,4.375741016907569794e-03,6.066000461578369141e-02
-4.559476778855350299e-01,-4.503396936595925881e-01,-3.303188222683163255e-01,-1.019585975436732538e-02,1.340633143722072421e-04,-2.798149998418592022e-02,1.333054751157760620e-01
-4.366170631465373098e-01,-4.602570187336419427e-01,-3.334488600271918735e-01,-1.750405590799604047e-02,1.204072007274834682e-02,-1.154596526843258524e-02,1.240784376859664917e-01
-3.925869333724406052e-01,-3.949797867611756774e-01,-4.438690267999459982e-01,6.438799480058011830e-03,-3.784767863561916065e-03,-3.482572457220924934e-03,5.212102457880973816e-02
-2.790734648152133346e-01,-4.556011324610755309e-01,-4.853051359679240173e-01,1.527265307584487197e-01,1.393621548585702585e-01,6.863444801105358928e-02,4.238650798797607422e-01
-3.962869233192969909e-01,-3.954947060106761003e-01,-4.397718907167065261e-01,4.961920014717664459e-03,-4.390347409226107167e-03,-4.995292279935367556e-03,4.617971181869506836e-02
-4.887263190491548115e-01,-3.516775453471404633e-01,-3.730813648435649665e-01,-4.860691837876516749e-03,-3.367241482143339126e-02,-1.324330222903353227e-01,2.690632045269012451e-01
-4.471721369722899131e-01,-2.782330615761124948e-01,-5.101459318761485395e-01,1.308352428506998899e-01,-8.227186301520963974e-02,-4.511936846212907803e-02,3.477235734462738037e-01
-4.350752150613099167e-01,-2.797603748892617537e-01,-4.903302641111172422e-01,9.158424798135565703e-02,-4.012563918412592745e-02,-6.395486653472767791e-02,2.793235480785369873e-01
-4.243101703038125172e-01,-3.527472929955755010e-01,-4.561087701506767456e-01,2.914570093862569808e-02,-9.525924410383976651e-03,-8.067549241543334193e-03,1.068826317787170410e-01
-3.942940932028410339e-01,-4.354992504917211127e-01,-4.015999116186528828e-01,-2.173844903444872162e-03,3.858382522099422767e-03,-5.950292009006752196e-03,4.019027948379516602e-02
-4.121740578853491654e-01,-4.010814555089916578e-01,-4.285421486000433600e-01,-2.292255784813176673e-03,-2.283330810956636289e-04,-1.849276691165054401e-03,2.446843124926090240e-02
-3.277444966131209392e-01,-4.454477986127250988e-01,-4.441600372651057227e-01,3.760937953214797680e-02,3.307306330282343276e-02,8.249322493982665441e-03,1.464007645845413208e-01
-3.859946093800202260e-01,-2.956033115713968540e-01,-5.102505499757714613e-01,1.313035846148896402e-01,-3.965365491036781237e-02,-4.183123517488471221e-02,3.106935322284698486e-01
-3.584764334127960028e-01,-3.073382345977264674e-01,-5.286148305908161538e-01,1.956713698348203356e-01,1.947924151699078135e-02,4.622455736341518628e-02,4.033274948596954346e-01
-4.069961903896154309e-01,-4.225188097255835329e-01,-4.086578904776597687e-01,-5.926157922216367981e-03,3.548147764467176387e-03,-7.009333507701043936e-03,2.254855632781982422e-02
-3.999856572097289509e-01,-4.241261302007873213e-01,-4.104854696522516333e-01,-3.201863835362853215e-03,1.244811246095620843e-03,-5.808122956535491203e-03,2.400302886962890625e-02
-4.051349247025052835e-01,-4.305623865627942193e-01,-3.962391752289692870e-01,-4.409137359975292235e-03,1.721785827467856370e-03,-9.323748223399087615e-04,3.196419402956962585e-02
-3.398604985231047926e-01,-5.870015439031252003e-01,-3.301792909024886535e-01,7.273343675015905190e-04,1.802633367231735728e-01,2.942178282975220233e-03,4.013442695140838623e-01
-3.883579608374401193e-01,-3.473098013352511892e-01,-4.911629376177429895e-01,7.239039591343549018e-02,-3.464307031504676448e-02,-2.326661804023772914e-02,1.934407204389572144e-01
-3.449160874386789088e-01,-4.753986572731328519e-01,-4.332204770628919066e-01,2.940913096051893730e-03,-2.942195597879466995e-02,-2.567719528422077527e-02,1.337984949350357056e-01
-4.116776696096469124e-01,-4.078434450185051685e-01,-4.205963603021775632e-01,-2.392142934673658662e-03,1.889403099030864674e-03,-2.225209267919749882e-03,1.308326516300439835e-02
-4.392365547786655777e-01,-4.225618462515821627e-01,-4.041934094497559027e-01,-5.622137742814138639e-02,3.077450436062332054e-02,-6.759075026909250328e-02,1.641675978899002075e-01
-3.233513602936018971e-01,-4.013227645705331748e-01,-4.914150636629516233e-01,-1.290078669108252751e-01,-1.816243495237507624e-02,-2.763313471781761108e-02,2.728191018104553223e-01
-3.937690223744017004e-01,-3.701731622499552232e-01,-4.435349743987930249e-01,3.494941836368897076e-02,1.928021628486480121e-02,1.936878062433695924e-02,1.005619168281555176e-01
-4.245912051772581242e-01,-4.010209346694018628e-01,-4.128226170059102751e-01,1.766473851083762018e-03,-6.144121728359605052e-03,-2.798693703284686231e-03,2.372295409440994263e-02
-4.097346821952170814e-01,-4.126637785915412970e-01,-4.148111979432908547e-01,1.807684130051515721e-03,-1.407216721721788865e-03,-1.289140663576168657e-03,6.341183558106422424e-03
-3.963826231511612952e-01,-4.249747638856996579e-01,-4.107232077835232253e-01,-3.975448404909882015e-03,3.874122999414023136e-03,-6.461945740390871197e-03,2.882436662912368774e-02
-4.155963314368877337e-01,-3.765628263409066534e-01,-4.404965509449377259e-01,5.468435613934757855e-03,-1.183677680028823176e-02,-6.880236244857658098e-03,6.138102710247039795e-02
-3.961432589494732759e-01,-4.379668478174671420e-01,-3.980698730986952927e-01,-3.830489128236676342e-03,8.931778429741630762e-03,-7.458394622700086941e-03,4.607143625617027283e-02
-4.225709525636870967e-01,-3.841577782698133436e-01,-4.302759855517767629e-01,2.481082152368973247e-03,-1.115084339200684074e-02,-2.969974649631563612e-03,4.742223024368286133e-02
-4.105023584600647757e-01,-4.173490839377487216e-01,-4.089612229954678324e-01,3.111153800787859382e-03,-4.853216976347316837e-03,-3.354980484399422945e-03,1.390219945460557938e-02
-3.201041820942870930e-01,-4.151873999552625483e-01,-4.600679033982995603e-01,9.636208514785976620e-02,-1.082699214298422918e-01,-8.163263558603994774e-02,3.135892152786254883e-01
-4.000243907846069980e-01,-4.148492749714439154e-01,-4.220437802797788462e-01,-4.217873745644095534e-03,3.556656375631341623e-03,-6.423580722265211963e-03,2.435782738029956818e-02
-4.462414586654976922e-01,-3.666281218960254495e-01,-4.238520024632659311e-01,-1.065393297293427965e-01,3.760211188144077510e-02,-8.916961055061670138e-02,2.592380642890930176e-01
-4.062476911223693032e-01,-4.205352366345131432e-01,-4.097559883276933324e-01,-8.375807179328179997e-04,1.423076304909289989e-03,-6.006934121213135247e-03,1.681508123874664307e-02
-4.130115882496039892e-01,-4.156940945401436660e-01,-4.092683909008479892e-01,-1.435994936736928592e-03,4.985246660749305348e-04,-3.282968470940880192e-04,6.205133162438869476e-03
-3.948095215460066254e-01,-4.245320827093387872e-01,-4.124451958373082094e-01,-3.817411825851780346e-03,6.309947577675121926e-03,-7.828488830651693028e-03,3.189498558640480042e-02
-3.896978752309779304e-01,-4.359970328028550668e-01,-4.065577114152006399e-01,-2.819992558575520371e-03,3.819181964027703203e-03,-6.706529237708342729e-03,4.300951212644577026e-02
-4.132413914650502895e-01,-4.197602250993863193e-01,-4.043560532940112529e-01,-5.697671202615104021e-03,8.448220088700935260e-04,-1.105617889028992712e-03,1.680967584252357483e-02
-3.791349469907528413e-01,-3.971749964174323688e-01,-4.468633201605474725e-01,4.875786200118213676e-03,3.370879090205591063e-03,3.756891409898073433e-03,6.195566058158874512e-02
-3.786730730872990836e-01,-3.985241312397916902e-01,-4.488757587650645253e-01,5.134467479334303350e-03,1.930613550855232816e-03,-1.403878723331947404e-03,6.344341486692428589e-02
-4.620399149054588706e-01,-3.234091350788451669e-01,-4.199941532673627242e-01,1.384738061031808298e-01,9.655800021887915585e-02,1.645314456087575983e-01,4.264558851718902588e-01
-3.575972923043899132e-01,-4.470151273966777583e-01,-4.156491143684385436e-01,4.794909433993234556e-03,8.434986898714844084e-03,2.237150436321454477e-03,8.044955134391784668e-02
-4.034726757759556359e-01,-4.253698535313304441e-01,-4.052128880829085622e-01,-1.697311662812190291e-03,7.177332859111648818e-04,-2.672898075742916220e-03,2.181811630725860596e-02
-4.058348357648857707e-01,-4.219675397882807766e-01,-4.070828683166787809e-01,-3.453150645678682604e-04,-5.412322198677479209e-04,-7.233654490122013456e-04,1.563630066812038422e-02
-4.098544183990508460e-01,-4.209219330328342612e-01,-4.062733998949309422e-01,-2.633914330650517603e-03,-3.881384901061698438e-04,-7.317857179183233016e-04,1.406476274132728577e-02
-3.569214889871876184e-01,-4.510360436796713168e-01,-4.140949157034052308e-01,4.479720087488709389e-03,8.377797315125031299e-03,4.112815459076961909e-03,8.406551182270050049e-02
-3.938874664218748323e-01,-3.909880077497970841e-01,-4.436216418426213171e-01,1.640597067912974655e-03,-2.328171221763704161e-03,-2.011985472040736349e-03,5.160016939043998718e-02
-4.431387996950503227e-01,-3.848611753212263786e-01,-3.915076437550187305e-01,1.599475268297260652e-03,1.357207670478865818e-03,3.234029911375212521e-03,5.565693601965904236e-02
-4.325933140190111881e-01,-4.311539733163283761e-01,-3.690289975090809138e-01,5.869734189175249833e-03,-4.130419901952250838e-02,-3.548208937226370041e-02,1.137954816222190857e-01
-4.256310060998224620e-01,-4.479038615285776403e-01,-3.645345753139524470e-01,-8.153075793195138339e-04,-2.386018751507701374e-02,-1.101817522634672072e-02,8.754293620586395264e-02
-4.402767251678944560e-01,-4.007526071214152497e-01,-3.757074180189191037e-01,8.252819796344314923e-03,6.233339190590448005e-03,4.081709074229836892e-03,5.958336964249610901e-02
-3.699157041338898555e-01,-4.341886641543287184e-01,-4.154503074845949384e-01,4.609216794823932546e-03,6.073302889239325444e-03,9.828524844977119465e-03,6.117155402898788452e-02
-4.512941632073594889e-01,-3.960721367959835759e-01,-3.678036120436221079e-01,2.216153447410977410e-03,3.351533014650194542e-03,1.421761557715039287e-02,7.787477970123291016e-02
-4.388022682012041598e-01,-3.948560023321393553e-01,-3.850741788574333357e-01,6.013861203128711454e-03,1.279117634636751325e-03,3.974597139705323551e-03,5.116281285881996155e-02
-2.513018988212071259e-01,-4.217353207812841731e-01,-5.579899408283759410e-01,1.787666177019668068e-01,9.545945549205564484e-02,4.970103356132597044e-02,4.488382935523986816e-01
-4.461127151542621516e-01,-3.905151144820844245e-01,-3.866205675900827310e-01,-9.773906754669567463e-04,-5.996463133343167291e-04,1.943936017330347285e-03,5.777602642774581909e-02
-4.533313505902739071e-01,-3.695512686184673212e-01,-4.017022823208254989e-01,5.526344608824604321e-03,-4.816247943776818911e-03,1.544799574003200872e-02,7.897029072046279907e-02
-4.419225267179632821e-01,-3.771329101383330551e-01,-3.938802508504986033e-01,4.970824793987227083e-03,7.214314993344805166e-03,1.251458301464537098e-02,6.397831439971923828e-02
-4.052794305474193837e-01,-4.323366710333169660e-01,-4.036174867143411116e-01,-3.452240534365342284e-06,-1.601327149765315863e-03,-7.275111061076777871e-04,2.809100411832332611e-02
-3.777420065261085091e-01,-4.358008365192900246e-01,-4.284795847725170193e-01,1.298653582388934044e-03,-4.857765455115509515e-03,-1.028872705747912661e-02,5.824767798185348511e-02
-4.404889053301420665e-01,-3.824398869770885279e-01,-3.998847737221081777e-01,6.109639141604079199e-04,2.698104241173227436e-03,2.990005180037504009e-03,5.206854641437530518e-02
-4.051567496875592145e-01,-4.336927990737814986e-01,-4.032813456084960446e-01,-9.535793114858953168e-04,-1.654329820948084858e-03,-1.143887969700423590e-03,2.976917289197444916e-02
-3.791558809554557707e-01,-4.013707779474315340e-01,-4.460034433768078621e-01,1.869556616335012536e-02,-1.031882565598843610e-03,-4.681837320417867911e-03,6.778357177972793579e-02
-4.462957364999065035e-01,-3.838369052805383763e-01,-3.927177931926332799e-01,-6.518460948283669263e-04,-1.174417570294701086e-03,6.669886928769197705e-03,5.970058962702751160e-02
-1.709226422348535668e-01,-6.237143783811247566e-01,-4.625803727290052070e-01,3.522554701170272241e-03,9.329981728872069335e-02,-7.925429624875403312e-02,4.505772888660430908e-01
-3.377889015765171976e-01,-4.858331368078770973e-01,-3.527784698522087314e-01,1.372807731033715006e-01,1.975165205580942662e-01,1.248819041474600600e-01,4.901892542839050293e-01
-3.388423894225277566e-01,-4.203987843925908741e-01,-4.585735460721829249e-01,1.732891268947722718e-02,7.394349314007164602e-03,5.339189310988497368e-03,1.112320870161056519e-01
-4.077003266157583905e-01,-4.108451304598084719e-01,-4.184099614584168014e-01,8.976535286347070734e-04,-1.743269761659168009e-03,-2.943958369453827332e-03,1.133319735527038574e-02
-4.079819358047050981e-01,-4.104676207944515376e-01,-4.178904214948581108e-01,3.079726613701436536e-03,-4.000489804285266293e-03,-4.445428718996918827e-03,1.467919442802667618e-02
-4.076985945955844959e-01,-4.111667882763841431e-01,-4.180540397024761767e-01,2.679318882749465516e-03,-3.714872941860891935e-03,-3.855241887426747241e-03,1.381574012339115143e-02
-4.110993345469504678e-01,-4.113273775837030244e-01,-4.146653220175372523e-01,1.131962068745508013e-03,-7.584138473418376367e-04,-1.506293683564684585e-03,4.932689014822244644e-03
-4.103104184352915351e-01,-4.105593826699073245e-01,-4.163291736345941518e-01,8.925035166237704591e-04,-3.875092808598946600e-04,-4.357864638346664403e-04,6.180522032082080841e-03
-4.109073852358066659e-01,-4.111184758697551400e-01,-4.160162531781003703e-01,7.751990526917171301e-08,-6.055443154080573801e-04,-6.447710423196471733e-04,5.235828459262847900e-03
-4.086108756468719849e-01,-4.096693884077640679e-01,-4.184164863925459721e-01,3.988981469921157601e-04,-1.218616256511297936e-03,-1.802766799216897441e-03,1.007836405187845230e-02
-4.098166118080938114e-01,-4.112486499979143284e-01,-4.166283318961755411e-01,6.501123402338974781e-04,-2.432902813154474552e-04,-3.136768329372799896e-08,6.335702724754810333e-03
-3.891828083017743745e-01,-4.319771675497174335e-01,-4.150505825232928547e-01,-1.158138852769381982e-03,4.461737360064183672e-03,-1.103192100764965357e-02,4.268909990787506104e-02
-3.079967523704217336e-01,-4.745894271251530072e-01,-4.857022652047817690e-01,-4.106832829254927070e-02,-1.359193118391323080e-03,-2.908699383057887500e-02,1.932134926319122314e-01
-4.254708109412224104e-01,-3.742484558367453196e-01,-4.407777391862963134e-01,-6.837936989642279771e-03,-5.875792602924899584e-03,-3.857973537076827240e-03,6.269440054893493652e-02
-4.496465013204805627e-01,-4.412111673157378400e-01,-3.536266330784865186e-01,-7.085389740956899232e-03,-4.586490416394691546e-04,-1.538168414603769719e-02,9.665422141551971436e-02
-4.042655658647149042e-01,-4.107860439861281132e-01,-4.251337831585921267e-01,-5.240623798014130280e-04,-3.973952846354408537e-04,-3.151484443464470844e-03,1.931376755237579346e-02
-4.463726024446046936e-01,-4.578255624660854117e-01,-3.389989035083801339e-01,-1.244929202467128654e-02,-4.113493088550653973e-03,3.222265906464472801e-04,1.157845258712768555e-01
-4.618057759882184810e-01,-4.631587126508482366e-01,-3.206715949091063500e-01,-1.573031614296323266e-02,-1.013223949176515239e-02,-3.230916157763942011e-03,1.455790698528289795e-01
-3.836050582421616229e-01,-4.280593545632645491e-01,-4.298760344284128787e-01,-8.349232066724648210e-03,3.676647397507853791e-03,-1.193392407323533473e-02,5.231808498501777649e-02
-4.133379034274721753e-01,-3.976873715719167479e-01,-4.272163525426642128e-01,-5.722238214715624771e-03,4.842221518128224204e-03,-6.960063409480891743e-03,3.112324513494968414e-02
-3.812227481362682191e-01,-4.272618842506103465e-01,-4.349837495539235488e-01,-1.084020012603236979e-02,2.058266170403420976e-03,-1.468307405712127381e-02,5.955463275313377380e-02
-2.848296552549349769e-01,-4.917963321304916757e-01,-4.729881634218797704e-01,2.424281422865499642e-04,3.924369865148747555e-02,-1.774363072786412990e-02,2.118045687675476074e-01
-3.739744320917434139e-01,-4.303696266789303060e-01,-4.367639970554195727e-01,-4.023335493982704847e-03,2.306267917766830280e-03,-9.475325996519850733e-03,6.257620453834533691e-02
-3.925106643993146460e-01,-4.161584134671174606e-01,-4.306694487042982411e-01,-2.839444414778347081e-03,1.296416542733973103e-03,-6.963156691099188153e-03,3.588350117206573486e-02
-4.078428019049175068e-01,-4.066555289104864523e-01,-4.400899969374359455e-01,-3.222349611694382693e-02,4.993456873325105658e-04,-1.279154821149149773e-02,6.845624744892120361e-02
-4.598784527464077065e-01,-3.328774586030668337e-01,-4.577049803226971303e-01,-5.797146224622775484e-02,-2.249399754244779323e-02,-2.133223809964567008e-02,1.697738170623779297e-01
-3.375580398514731462e-01,-4.023262010160131852e-01,-4.700273109963973295e-01,6.288619230825269468e-02,-1.278476307899237621e-02,-1.043424515803570429e-02,1.607613861560821533e-01
-3.689443424759917267e-01,-4.022005460245307584e-01,-4.504793120820215768e-01,9.833044736397025809e-03,8.037789840565593303e-04,-2.527036848017735326e-03,7.316792011260986328e-02
-4.585089607807582568e-01,-3.269605797915895451e-01,-4.720869062776765768e-01,-5.729719986069924803e-02,-1.719202858594634509e-02,-1.980277151409124553e-02,1.765999644994735718e-01
-4.203061663923988167e-01,-3.571496666554093702e-01,-4.369520110256847056e-01,1.316381001550873120e-02,1.122531918610129680e-02,6.334743201305430976e-03,7.959515601396560669e-02
-3.898983422585254321e-01,-4.325316453274508643e-01,-3.985914897776768329e-01,9.442535799738667815e-03,1.469415443197530195e-02,1.095160902163292392e-02,5.289237946271896362e-02
-4.713684430703646289e-01,-2.376740470254642690e-01,-4.952218104834186230e-01,-8.439685016953832331e-02,-2.319799008711013327e-02,1.055715501485298032e-02,2.899547219276428223e-01
-3.557618842867115716e-01,-4.141244180977186606e-01,-4.521316217619816280e-01,8.829338250477068717e-03,5.484963930852628303e-03,4.221120639730333891e-03,8.629316091537475586e-02
-4.013102154618388151e-01,-3.778232716069543917e-01,-4.489396256255747675e-01,3.550855198286708130e-03,-3.615137551634730120e-03,1.415329708942006338e-04,6.337160617113113403e-02
-4.276090698247032029e-01,-4.272234868051763002e-01,-3.931269507084364512e-01,3.415251112617915218e-03,-1.782547442575728447e-02,-2.485643703695179091e-02,6.338478624820709229e-02
-3.319561032109137888e-01,-4.535017023067083319e-01,-4.362931319238749772e-01,8.509591511372116904e-03,1.199226696938377780e-02,2.108884456513409212e-03,1.167898401618003845e-01
-3.648785303848192108e-01,-4.161514458596157762e-01,-4.352448280760617405e-01,6.775330074569298200e-03,5.796859749336805839e-03,8.862901147427448140e-03,6.668299436569213867e-02
-4.063888819798331942e-01,-4.340464617806857328e-01,-4.022317569324990738e-01,-2.440227872890329570e-03,-1.318944836453410071e-03,-3.501418279786272232e-04,3.034221753478050232e-02
-3.565215388556978171e-01,-4.154408376264427383e-01,-4.480455816361577637e-01,8.851913508173573850e-03,5.712080206145001698e-03,2.116083115103331753e-03,8.247416466474533081e-02
-3.899991398979119062e-01,-3.897833408514558839e-01,-4.445548106534500943e-01,8.636617082323275879e-03,1.634315979174270862e-03,2.256114591775795937e-03,5.687879770994186401e-02
-4.327390023430610633e-01,-4.089951200212488258e-01,-3.987853324010178779e-01,-5.484618828407930059e-03,-2.020227300379535558e-05,-4.957928438516781382e-03,3.277833387255668640e-02
-3.939766539572971960e-01,-3.948816695616998995e-01,-4.393680616878701817e-01,-1.641500090228112851e-04,2.877910427110329217e-04,-7.454573167306252765e-04,4.496793821454048157e-02
-4.517571635387080953e-01,-3.536441562537589456e-01,-4.403644764734800932e-01,-2.092482775422583891e-03,-1.299141612060571507e-02,-1.788916975111933330e-02,1.005868688225746155e-01
-4.700551530634978215e-01,-4.181034762983501518e-01,-3.782906245894686048e-01,-2.209936930799087304e-02,-2.447540225976683331e-02,-4.829814899617559942e-02,1.288906484842300415e-01
-4.085920542587150317e-01,-4.123065125797619745e-01,-4.248001918211204431e-01,-1.260369617722379570e-02,-9.678073653038953353e-03,3.375767941264535502e-03,3.174962475895881653e-02
-4.747469176285799008e-01,-3.922629819901913839e-01,-4.013922013417630108e-01,-1.320694738106411269e-02,-1.562531366663356958e-02,-5.483256468802637229e-02,1.280995011329650879e-01
-4.459030067070172687e-01,-4.366326010515419465e-01,-3.556688390819973677e-01,-1.556143315024527234e-02,6.859951795996910295e-03,-1.838349131318726959e-02,9.629718214273452759e-02
-4.381062007576643214e-01,-3.738342180146737026e-01,-4.283696447571893051e-01,-7.094220332329905822e-03,3.254513025718065809e-03,-1.157026268757716837e-02,6.468595564365386963e-02
-4.497563105116171300e-01,-3.650706748075838171e-01,-4.197905166542249544e-01,-1.009207775323800850e-03,-1.328614159309780308e-02,-4.578267651147025635e-02,1.111427620053291321e-01
-4.012512483463981927e-01,-4.492532126846890961e-01,-3.673851394294198602e-01,2.370932268621082049e-03,1.096497186326434413e-02,1.019984835286692716e-03,7.387433946132659912e-02
-4.646384546563995799e-01,-3.469646477823282726e-01,-4.279513538836272057e-01,-2.239288579894012365e-02,-1.599909972123536583e-02,3.499285139380604176e-02,1.296984702348709106e-01
-3.195674981334215570e-01,-4.518158511013283252e-01,-4.587602006083304484e-01,8.262198239543891778e-03,2.374637372307621119e-03,-7.983397180397039036e-03,1.373649984598159790e-01
-4.638741819820297874e-01,-3.226257819961502182e-01,-4.271995201333655956e-01,2.755483075263328099e-02,1.222108454152644186e-02,5.014038339657218152e-02,1.624313741922378540e-01
-3.195047772139130160e-01,-4.615320568301852777e-01,-4.469531948181089120e-01,3.870240546505408687e-03,1.489137992584450843e-02,-2.348392771769071755e-03,1.379870921373367310e-01
-4.115275580887624574e-01,-4.057326395231004579e-01,-4.209691522454954704e-01,-7.458799867802513341e-04,-3.353392976359161667e-03,6.519714084238243789e-04,1.463277172297239304e-02
-4.912356701246388679e-01,-2.956927974583620777e-01,-4.510975243060730278e-01,-1.493514861849748725e-03,-4.412312365212346307e-03,3.625898034152291727e-02,1.897593140602111816e-01
-1.758838009898082144e-01,-5.117314896439516536e-01,-6.054849183589914308e-01,1.202823490144487723e-01,2.251898098173922558e-02,-3.614479682741101457e-02,4.493488967418670654e-01
-5.670866937105030203e-01,-2.482133568782383670e-01,-4.180751014159850842e-01,-3.270850247353984577e-03,1.824770342056026423e-02,1.279460253895408350e-01,3.556830286979675293e-01
-3.925632858311475792e-01,-4.133153489262921254e-01,-4.363223359151018332e-01,-2.696062369795312365e-03,-4.555484917448980662e-04,-5.657556946556995328e-03,3.944445028901100159e-02
-3.820291083019796141e-01,-4.388401741776057352e-01,-4.496564326733385464e-01,3.047116564007597631e-02,-6.025049323573562765e-02,-5.166352426637531997e-02,1.601317375898361206e-01
-3.535270740117453236e-01,-4.454147090266653564e-01,-4.389649244765502778e-01,4.046489043213704652e-03,-1.400473324059414194e-02,-1.386507453885013445e-02,9.542810171842575073e-02
-4.165577912565669449e-01,-3.927627738640808719e-01,-4.337739086638295327e-01,-3.898365774438015009e-03,-6.800431479510130398e-03,1.197160963182156073e-05,3.816523402929306030e-02
-3.548426524555272632e-01,-4.659169269079873055e-01,-4.281239935134574792e-01,-1.307714240606689358e-02,-3.380212236628734462e-02,-2.727361084710114118e-03,1.163231655955314636e-01
-3.662208279332607175e-01,-4.302274744660502526e-01,-4.491797123232663669e-01,-3.105980388216107377e-02,-1.552858451521898879e-02,9.924346619140740969e-03,9.788835793733596802e-02
-4.247302891873958597e-01,-4.361077776315993026e-01,-3.797204961592712813e-01,-1.880688130192792809e-02,-2.204173373862533536e-02,1.234777393981836835e-02,7.512283325195312500e-02
-5.136621246746154723e-01,-2.554192581126182304e-01,-4.503743012618021124e-01,-8.393954634025076189e-02,-1.737513010930890819e-02,1.218194006753473002e-01,3.477272391319274902e-01
-4.022412727682743161e-01,-4.054461369620593891e-01,-4.331532298233685685e-01,-7.823311617615346563e-04,-7.207108965462903898e-05,-1.099845781052296309e-03,2.953357994556427002e-02
-3.925319835561178472e-01,-4.154747739881731738e-01,-4.331774760219297971e-01,-2.158586830609012658e-03,-5.062989183375119070e-04,-6.185423874671255352e-03,3.708682581782341003e-02
-4.053311467707195193e-01,-4.078884662224445679e-01,-4.306046919644147541e-01,-7.415413630945684627e-03,8.864107428462369076e-04,-4.801588081199225158e-03,2.858579158782958984e-02
-4.072275873288295767e-01,-3.985839015991335388e-01,-4.347131956075808712e-01,-5.529925940875138855e-03,-5.241590631430211901e-03,8.656843230058782574e-04,3.527265414595603943e-02
-3.599974289410659001e-01,-4.346432279059154191e-01,-4.344756056371527064e-01,-1.493113123600572391e-03,4.604137762961035829e-03,-1.131584230115645871e-02,7.754958420991897583e-02
-4.041436682507169587e-01,-4.038012685131080470e-01,-4.323563115369725152e-01,-3.419010447422156720e-03,-2.054402866941643351e-03,3.808186225628601494e-04,2.922150120139122009e-02
-3.945369032333929660e-01,-4.421746663858248105e-01,-4.158071312772563255e-01,-3.949931935859179316e-02,-3.746900543855483101e-02,1.529786367852928666e-03,1.029946655035018921e-01
-4.016406195356563846e-01,-4.068484185400802478e-01,-4.339460510977366514e-01,-1.103232941135782151e-03,-2.931291046463562421e-04,-2.788248942883213462e-03,3.049186803400516510e-02
-4.065269339175599517e-01,-4.547453572606784955e-01,-4.054144928746101773e-01,-3.712104925299812563e-02,-6.149967954726090480e-02,-9.862208526852027195e-04,1.336538791656494141e-01
-4.732365575858799578e-01,-5.501619614702177863e-01,-2.465422820123998604e-01,-7.788787208406737494e-02,-8.014130789530794774e-02,3.224225497146197134e-02,3.396063745021820068e-01
-2.974668847570332009e-01,-5.268240474570230480e-01,-4.975757547104561196e-01,-1.827892989450150690e-02,-1.520427476915763298e-01,-1.226092072533216948e-01,4.027459025382995605e-01
-3.924597922585164045e-01,-4.175729309050560945e-01,-4.294367830353750803e-01,-2.749899749522805026e-03,1.369003231576921198e-03,-6.823941939990960971e-03,3.517621755599975586e-02
-4.060083860548696078e-01,-4.211970091099769276e-01,-4.108072042875193230e-01,7.990320496191181433e-04,-5.462573179286915907e-04,-3.230785996102988628e-03,1.466151326894760132e-02
-1.586975931052627964e-01,-5.159123230945871219e-01,-5.053436202018926071e-01,-5.384094946437517626e-02,4.738844328639460479e-02,-3.368924031279681847e-02,3.778586983680725098e-01
-2.921302623868486936e-01,-4.679062126520863729e-01,-4.769735873326958475e-01,-3.644108746022613980e-03,4.021807896918114245e-02,-2.135827243660554098e-02,1.970636397600173950e-01
-3.822622795454154176e-01,-4.098916251143219780e-01,-4.472264770428998060e-01,-1.176877465264955167e-02,-2.964787000911557049e-04,-9.185095245292951641e-03,6.211024895310401917e-02
-3.912354084045076008e-01,-3.841193385947638816e-01,-4.456857219683301730e-01,7.400794891553920569e-03,1.649359565569693056e-03,2.578108579137702709e-04,5.979651585221290588e-02
-4.055158204174775793e-01,-4.290250210044317947e-01,-4.060504801004569675e-01,2.622991068035798864e-04,-1.315577416537734492e-03,-1.338698907722377226e-03,2.347709424793720245e-02
-4.534577861264547649e-01,-3.753577325395046627e-01,-4.000665054580997970e-01,-2.168829726321089280e-02,-1.494665425105337446e-02,2.742230984745488293e-02,9.548658877611160278e-02
-3.998583024316988421e-01,-4.103897409835907117e-01,-4.370225255545998055e-01,-1.650859636891446880e-02,-1.243671109071623447e-02,-1.735581923114827725e-04,4.880988597869873047e-02
-4.013483477749335004e-01,-4.031818145884934479e-01,-4.112557421256954893e-01,8.509369524165449894e-04,2.008216136247355579e-03,3.818900647266064603e-03,1.189017482101917267e-02
-2.697911231813882038e-01,-4.507267547748973202e-01,-5.135889441600172134e-01,4.808450267697151476e-02,1.556864773665228747e-02,-6.256010331160994677e-03,2.363139539957046509e-01
-4.461597637856175580e-01,-4.924653291824190315e-01,-2.276928130406118689e-01,3.145399875394275929e-02,1.108405203541900641e-01,8.594417189623690390e-02,3.492454290390014648e-01
-4.295693874232617837e-01,-5.068391670489427181e-01,-2.956276975133512730e-01,-9.133078146547613657e-03,6.897188652527447283e-02,1.578803566003060890e-02,2.225534319877624512e-01
-3.493258230208953763e-01,-4.358238671642642448e-01,-4.349668829614114496e-01,7.878918813960881715e-03,8.308554756681818879e-03,6.939814258474030252e-03,8.914218842983245850e-02
-4.025153546001272731e-01,-4.073231722837253876e-01,-4.313222880509257617e-01,-1.102001169107594920e-03,-1.034484079604293871e-03,-2.788208095067182344e-03,2.728794701397418976e-02
-2.870350118830220509e-01,-3.704726044063760271e-01,-5.064080462293677476e-01,1.671728844993193852e-01,8.580273822764339364e-02,5.758328258608221700e-02,3.907128870487213135e-01
-4.523973284024506158e-01,-5.845695737683094251e-01,-1.888774364552646412e-01,2.414980431344685916e-02,1.227327469392712200e-01,7.005034368713801418e-02,4.282557964324951172e-01
-4.956544056490403971e-01,-5.493085972874766076e-01,-2.232670715860598509e-01,-5.755521022164432343e-02,-5.059854646551602969e-02,4.077694097680564095e-02,3.380755484104156494e-01
-3.122229374989059503e-01,-4.558680936087493585e-01,-4.544795433391716211e-01,8.273315898598591206e-03,8.581926587354576572e-03,-2.388263413915697134e-03,1.444984525442123413e-01
-4.554104532185754839e-01,-4.841777243538044062e-01,-3.044491216800948030e-01,-1.580242928924704623e-02,-4.029076636634890130e-02,-1.455961747898966777e-02,1.849723160266876221e-01
-4.510793462157983713e-01,-4.611823312838609912e-01,-3.183828739846326084e-01,-8.183384171831831894e-03,1.218981133443231696e-02,1.945752014293625340e-03,1.403890699148178101e-01
-3.928980167506119781e-01,-4.152944669540859501e-01,-4.382577937504457122e-01,-4.445986140164778083e-02,-2.035879941181260519e-02,-1.531011735235699887e-03,9.340088069438934326e-02
-4.174730724549465810e-01,-3.949048174226078567e-01,-4.287255548439509178e-01,-2.364109519460834245e-03,-6.957755421988154852e-03,5.126591924204558157e-04,3.244502842426300049e-02
-4.421245383384815320e-01,-4.739230206072707063e-01,-3.163392906373055369e-01,-6.502006965608153610e-03,1.941845302108443846e-02,-4.711125425310047632e-03,1.488539278507232666e-01
-3.738927455196189853e-01,-4.175120467659396151e-01,-4.419362464849302397e-01,4.877849503832496630e-03,-3.354638505800050128e-04,-9.181428119548747796e-03,6.236317381262779236e-02
-4.131452222283203968e-01,-4.270815732814687848e-01,-3.964486135806054579e-01,2.259398029672063987e-03,-7.341673551256039029e-03,-3.166647257696624754e-03,3.021235764026641846e-02
-4.185227977290437718e-01,-3.848045115651995696e-01,-4.349649929787788305e-01,2.030653419881110408e-02,-1.276509181437558357e-02,-1.586807473205489177e-02,6.665559113025665283e-02
-1.887801069618313954e-01,-5.797782014308469067e-01,-5.842768287270706518e-01,-8.055218541534102383e-02,-1.040463634822641620e-01,-6.207802333258774508e-02,4.670788347721099854e-01
-3.956812415188022403e-01,-3.340474139590068337e-01,-4.801370299374561057e-01,1.061003884664597774e-01,-9.198495943798852548e-02,-9.627916897225846649e-02,3.210941553115844727e-01
-4.259115258645971847e-01,-3.684385354231450860e-01,-4.450172386277644887e-01,-6.363029529848194914e-03,-7.987329758060757873e-03,8.341971808947352355e-04,7.128239423036575317e-02
-3.797376672333326875e-01,-3.929859145405769638e-01,-4.556075922850332249e-01,-5.014174477832256116e-02,-1.527954843127495542e-02,-3.080280094597486872e-03,1.148828119039535522e-01
-3.876586977987540594e-01,-3.594240185103059759e-01,-4.746130954295265658e-01,4.040519047734863339e-02,-5.606139888514185404e-03,-1.903021003529825053e-03,1.257628053426742554e-01
-3.123736886633473597e-01,-4.605806350916899494e-01,-4.538728462303895927e-01,4.991436884673782284e-03,8.486233747127836305e-03,-7.443776531158539066e-03,1.465372741222381592e-01
-1.968505894750884333e-01,-5.114991828275267105e-01,-5.096075548935972144e-01,-5.862749056693244976e-02,1.135459850607304921e-01,-1.556239697221605336e-02,3.848744034767150879e-01
-4.230862665550594870e-01,-4.335818397543501623e-01,-3.809998112454655583e-01,-1.421704616220363475e-02,-1.007586305360184259e-02,3.715512001230500318e-03,5.723203346133232117e-02
-4.047674439770896915e-01,-4.022821500986962784e-01,-4.343794208286374525e-01,-1.565888267656372849e-03,-2.277925903056997325e-03,-4.855281736603007025e-04,3.130926936864852905e-02
-3.810856634926513276e-01,-4.182651025354107710e-01,-4.380825547224467820e-01,-7.753225616291280035e-03,2.635679142887097266e-03,-8.718632291525908046e-03,5.423159152269363403e-02
-5.081308947656640873e-01,-5.604756282271321499e-01,-1.814863249049093186e-01,-5.293235357958012144e-02,-3.463235558647516366e-02,6.378647168381305910e-02,3.882584273815155029e-01
-3.906051131839785584e-01,-5.652632937653827572e-01,-3.314842276649178632e-01,-1.032077668041892909e-01,-1.309510240447958607e-01,-2.950418485462273036e-03,3.574253320693969727e-01
-4.073620973735725403e-01,-4.020402689569108068e-01,-4.326582097618945077e-01,-1.894438123579043941e-03,-1.609084363963538553e-03,-6.580906166926739874e-04,2.868222631514072418e-02
-3.760090639721058170e-01,-4.440431442966455977e-01,-4.241057366463987788e-01,-3.174808040358797351e-03,-6.701039739979972043e-03,-4.004910519221489135e-03,6.231196597218513489e-02
-4.081870873887162854e-01,-4.024806790566614612e-01,-4.291824743411161158e-01,-1.066452918384840683e-03,-2.977714170233486824e-03,1.826038789536742343e-04,2.496577613055706024e-02
-4.443854996755782216e-01,-4.812210375786012406e-01,-3.457462196656152509e-01,1.714594516123381721e-02,-9.572271824523491401e-02,-6.424618756563049704e-02,2.355274558067321777e-01
-4.137286131223959496e-01,-4.051328874581724970e-01,-4.209656119544301633e-01,-1.070150630566406563e-03,-1.663302539496953371e-03,7.204089975080350122e-04,1.420423388481140137e-02
-3.695134741716420423e-01,-4.527272453413581088e-01,-4.118619591595688578e-01,-1.193360158605389102e-03,-4.105135134076520753e-02,-8.750123386122379138e-03,1.023892313241958618e-01
-3.884982330502069758e-01,-3.900049195913962152e-01,-4.459101692691486707e-01,2.210947215884326907e-03,6.939760705079642787e-04,-7.929949467685128628e-04,5.683216452598571777e-02
-4.613573033781370181e-01,-4.510745478845217260e-01,-3.206854187847155147e-01,-1.091755356615609941e-02,-1.089434293570893525e-02,5.516954003655451938e-03,1.387543529272079468e-01
-3.787102685612306341e-01,-4.018619927418787818e-01,-4.453720038778175017e-01,4.307938428566703698e-03,1.039654835414750931e-03,-1.542917781125354923e-03,5.918204784393310547e-02
-2.833096523386316457e-01,-4.894091639422881168e-01,-4.897232518747862140e-01,-1.728357577127699173e-03,-3.368661297296542817e-02,-2.858979452935114796e-02,2.200165838003158569e-01
-4.092937296438675654e-01,-4.445485756932820998e-01,-3.980209972703538934e-01,-2.264971633375802151e-02,-6.715156297587272782e-02,2.127912169252448461e-03,1.297998726367950439e-01
-4.021981864412992880e-01,-4.323929718625550978e-01,-4.064895399300109680e-01,-5.134693845636602262e-04,-1.380012595568139416e-03,-1.246874022006297855e-03,2.849092148244380951e-02
-3.589041537036383733e-01,-4.295167159797156353e-01,-4.481630346854315050e-01,6.932797679823544772e-03,-2.039177593781193575e-03,-1.002353215617295297e-02,8.431229740381240845e-02
-3.615783648190817323e-01,-4.165465181142986584e-01,-4.486667088896592603e-01,7.997033513900674365e-03,1.514571623912034379e-03,-4.027611998929119495e-03,7.788579165935516357e-02
-4.129160060730653892e-01,-4.336330663601226654e-01,-3.957592386421228681e-01,-6.468266440741973810e-04,-3.472815015364262136e-03,-7.656208502188975151e-04,3.343925997614860535e-02
-4.086302679727215614e-01,-4.292682562886301345e-01,-4.060069900527446540e-01,3.935348584551523476e-02,-6.408900266682888980e-02,-4.485360728338875363e-02,1.532670110464096069e-01
-2.420492277305799356e-01,-5.479526990621896854e-01,-5.244781952088076737e-01,-8.548254629714333030e-02,-1.703682378696489974e-01,-1.064444899362796682e-01,4.795165657997131348e-01
-4.382652973711190225e-01,-4.397261962431409654e-01,-3.666419455964991525e-01,-3.960073243456585339e-03,-3.154745234917080005e-02,-2.339531806503631142e-02,9.955635666847229004e-02
-3.982536593959093985e-01,-4.160152499238906620e-01,-4.006241459251009274e-01,6.203672550856129293e-03,2.337064988937923981e-03,3.455067750005116640e-03,2.113396488130092621e-02
-4.184963693122478179e-01,-4.013493485219766232e-01,-4.184670263577802141e-01,-1.703336407556339110e-03,-7.717024050530489794e-03,2.092258846811946137e-03,2.222638390958309174e-02
-4.076694424029068120e-01,-4.057347469904359349e-01,-4.025237623087641881e-01,3.335566239021164284e-03,1.713717499229933886e-03,1.887245173884173621e-03,8.552152663469314575e-03
-3.759608396780251272e-01,-4.375968971581875033e-01,-4.284797543153676669e-01,-1.559515409855979104e-04,-5.359753606053439291e-03,-9.229644264755478347e-03,6.051441282033920288e-02
-3.760273366797164396e-01,-4.413035644388191292e-01,-4.161175332681837924e-01,-8.211226294169675236e-04,5.129270101715035710e-03,-8.324136952064404085e-03,5.949871987104415894e-02
-4.039989804467528645e-01,-4.117339026731880458e-01,-4.005657071198907571e-01,3.590770622566073853e-03,7.713922351400390350e-04,1.838108451916182183e-03,1.219731383025646210e-02
-3.378737561791806954e-01,-4.331391028550561351e-01,-4.559053371132032462e-01,1.132090376986896740e-02,3.053714676515910040e-03,-5.495695993403559160e-03,1.107505857944488525e-01
-4.041567983885523407e-01,-4.128831343781076413e-01,-3.994103760553862070e-01,5.000478026744466058e-03,1.856499652785109124e-03,1.997511238129255455e-03,1.540845911949872971e-02
-4.055648080393474686e-01,-4.178145201695064315e-01,-3.927602658883406206e-01,1.551896620150975542e-02,1.339613953601078919e-02,9.798427955909167972e-03,4.494191706180572510e-02
-4.477089058364881469e-01,-3.563607229485458716e-01,-4.317063127816750390e-01,-7.280522485494751381e-04,-1.025540602176401236e-02,6.379628292322643557e-03,8.705156296491622925e-02
-3.489581558379831749e-01,-4.416894644189692798e-01,-4.211367804428028938e-01,7.156988273516376627e-03,1.479405119425182893e-02,1.089506733037824866e-02,9.100548177957534790e-02
-4.463180113218126466e-01,-4.304576025022777142e-01,-3.645612154110566827e-01,-6.048757040382337974e-04,-9.964578370004539137e-03,-1.594730663077965904e-02,8.185936510562896729e-02
-4.498555969308249414e-01,-4.337719312052298326e-01,-3.486649795430783461e-01,-5.641117369529295147e-04,-2.755686272560678440e-02,-3.001885849088856834e-02,1.176996231079101562e-01
-3.221020445427026369e-01,-4.493012438877535542e-01,-4.580434343224237814e-01,1.478605819870958474e-03,1.999474311843764569e-03,-9.029209372499786071e-03,1.327825039625167847e-01
-2.089935185782482163e-01,-5.570238216661838049e-01,-5.327243517224991010e-01,-1.549585239627484512e-01,-3.474123849390857444e-02,-1.117218615141593041e-01,4.757743477821350098e-01
-3.953565339047402372e-01,-4.130989332631004873e-01,-4.343048774679774682e-01,-3.497032448645697594e-03,-1.534791980146640693e-03,-4.276989673448375329e-03,3.520456701517105103e-02
-4.117754280117745247e-01,-4.064269489168767513e-01,-4.201611400632016546e-01,-1.427758516906579064e-03,-3.613525813737915402e-03,1.097547456192792892e-03,1.388089451938867569e-02
-3.755665041828426531e-01,-4.230077403809944792e-01,-4.467654064710855910e-01,-8.393445473096734777e-03,-3.265319501013384459e-03,-4.173404595438505275e-03,6.509822607040405273e-02
-4.303351882204395906e-01,-4.315531210954615116e-01,-3.754667428958718411e-01,-1.145994513435230622e-02,-3.145891612420590854e-03,1.991863789407637749e-03,5.928270518779754639e-02
-4.263276994888617888e-01,-4.384977136994240854e-01,-3.730872067471729947e-01,1.920248365789559066e-03,-1.730591531197590502e-02,-4.083228400341418381e-03,6.775072962045669556e-02
-4.396608023595947046e-01,-4.511456896732927713e-01,-3.552410908255934086e-01,-1.770667801787014980e-02,-2.469042689773029778e-02,-3.495542646283301969e-03,1.050439327955245972e-01
-4.354538859618978797e-01,-3.210692723927081049e-01,-4.982963328505093381e-01,5.674490875750837909e-02,-2.351869494253916101e-02,-3.149790224080540463e-02,1.962572783231735229e-01
-4.474807309149059220e-01,-4.514760672683826859e-01,-3.409807423108847657e-01,-5.135301558647998622e-03,-1.304142953213836137e-02,-1.340867737274827401e-02,1.136329248547554016e-01
-3.076163642847786761e-01,-4.659834119365007243e-01,-4.600328883420275461e-01,-7.867297500868746310e-03,-2.429265316349125611e-02,-1.041976583172860016e-02,1.626498103141784668e-01
-4.703410443579680855e-01,-4.687859986296430415e-01,-3.398846137437109283e-01,-2.216907091671938348e-02,-2.583848069767199010e-02,-5.788237226567512911e-02,1.742033958435058594e-01
-4.107472659724507591e-01,-3.992489470934796891e-01,-4.293640550127819089e-01,-4.202190157199038253e-03,-5.384757525601862813e-03,1.302352677651186577e-03,2.894664742052555084e-02
-4.632451642685116999e-01,-4.541678803568147682e-01,-2.999493278080819225e-01,2.215139403951240597e-03,1.320994606684513031e-02,1.943656592874840744e-02,1.641256064176559448e-01
-4.335200400734883219e-01,-2.701365593206319637e-01,-5.083674414704656419e-01,9.321083585282548267e-02,-3.787558012302965488e-02,-5.431567270272025238e-02,2.893858253955841064e-01
-3.615019477426785199e-01,-4.196137829970656430e-01,-4.859303245543979966e-01,-1.226912785679717260e-01,-6.906133090527000196e-02,4.833301792479971493e-02,2.794722616672515869e-01
-3.970834663794199915e-01,-3.990926633104407983e-01,-4.355211940807739990e-01,5.040234543377507259e-04,-1.812218145511243885e-03,-3.138359980769709658e-03,3.800564631819725037e-02
-4.101026148915801750e-01,-3.815381928151785340e-01,-4.372580832654999750e-01,7.224028593673201271e-03,-1.259888548684856210e-02,-8.592155813032001724e-03,5.642035976052284241e-02
-4.435728051293603702e-01,-4.551192223811223458e-01,-3.410372616457530981e-01,-7.390775601016931137e-03,-6.196866091514769380e-03,-4.047981611574227000e-03,1.102678924798965454e-01
-4.480880074249055101e-01,-4.438185958435519884e-01,-3.591396465440783725e-01,-5.715583580482996515e-03,-2.215717782170367744e-02,-1.110597367299338140e-02,9.742245823144912720e-02
-4.592602001106180776e-01,-4.649701460317773316e-01,-3.177173991740936398e-01,-1.515589325475858069e-02,-9.283469438158319445e-03,-4.099429167112738498e-03,1.478960365056991577e-01
-3.889520132428342380e-01,-3.998094808938129630e-01,-4.426150607969628892e-01,3.918073880267615092e-03,2.255057835947059169e-05,-6.596403717219201379e-03,5.090732127428054810e-02
-4.311021167390659548e-01,-4.693255146831460944e-01,-3.461821523036535675e-01,-4.376445641884257193e-02,3.078244741393345446e-02,-4.278606768680959238e-02,1.612419337034225464e-01
-3.982981023963520495e-01,-4.050798554455946610e-01,-4.309743237882274203e-01,2.729682967804344679e-03,-1.201340621660239956e-03,-7.637981846105534878e-03,3.307302668690681458e-02
-4.080113173868529231e-01,-4.697755856289629883e-01,-3.171533481905695617e-01,-7.515116005565895818e-02,9.569670203103300410e-02,-1.098547537758007703e-01,3.135325312614440918e-01
-3.816065954753585787e-01,-4.299576028468758415e-01,-4.289142403820495053e-01,2.131592816030267092e-03,-4.444359297407771310e-03,-1.005480932062529156e-02,5.162021517753601074e-02
-4.369729394654821575e-01,-4.916197664888268815e-01,-3.129616990726102332e-01,-7.394957948552447272e-03,5.680412229834106569e-02,-1.356735056670207822e-02,1.885160058736801147e-01
-3.413231527457475933e-01,-4.485377310046179677e-01,-4.490291505357137392e-01,3.615922533232569357e-03,-2.191445031005802291e-03,-1.056552139869212752e-02,1.092539131641387939e-01
-3.754356163675518498e-01,-4.433291519511121104e-01,-4.246478191817126824e-01,-1.475360707311418199e-03,-6.067413473162984287e-03,-7.780791200999595883e-03,6.315675377845764160e-02
-4.433115184631892247e-01,-4.612237736294024781e-01,-3.213881325023653646e-01,-2.001367672458220434e-02,3.266806026542185687e-02,-1.521570020965696927e-02,1.498929113149642944e-01
-3.958402046743768610e-01,-4.394222760380942505e-01,-4.030732254771126621e-01,-3.750193685352734064e-04,-1.721350204233542888e-02,-5.229510178568197269e-03,5.106723681092262268e-02
-4.404442838296069307e-01,-4.421540387372656644e-01,-3.653526750749362950e-01,-8.160962432179527312e-03,-5.381517257291871560e-03,-4.218406483848618355e-03,7.816733419895172119e-02
-2.361253892105951990e-01,-4.150433771482911482e-01,-6.122687305019411941e-01,1.827365980989098526e-01,1.817327136892218226e-02,-3.165046540633700139e-02,4.586618542671203613e-01
-5.002545509761511244e-01,-2.888383574196285442e-01,-4.577028771633341875e-01,-4.929220870257913084e-02,-2.476831990208924056e-02,-1.098521904959283008e-01,2.878253459930419922e-01
-3.591773511025593835e-01,-4.321453217421852844e-01,-4.445484315341124426e-01,6.410002023342529012e-03,-2.890505983549380639e-03,-1.077845525027434047e-02,8.294604718685150146e-02
-4.722122108238561156e-01,-2.088431726192617188e-01,-5.262882618705909676e-01,1.667048853376572881e-01,-6.248198051789388696e-02,2.472310741206482781e-02,4.283067584037780762e-01
-6.055277620441066322e-01,-2.224809564457437827e-01,-4.461264014077737095e-01,-1.099243513221086557e-02,-3.575783788591758300e-02,-9.111909796507031145e-02,3.744087517261505127e-01
-4.627767730240486821e-01,-4.103688943333949624e-01,-3.922364851823759713e-01,-7.538148637454636543e-03,-1.776848738725267732e-02,-6.279880599984656586e-02,1.302856504917144775e-01
-3.596762416144460572e-01,-4.379333422608667759e-01,-4.442360833552896904e-01,-5.932018007595611479e-03,-5.984843048747505272e-03,-4.689078770710367224e-03,8.328334987163543701e-02
-4.013063495204312048e-01,-4.290962463574880537e-01,-4.110503905917830547e-01,-2.332239408261989593e-03,-3.582171248821073434e-03,-3.486261972688953301e-04,2.552679553627967834e-02
-4.445179981328113983e-01,-4.549105012969649198e-01,-3.617598453640440415e-01,-4.691711796826241593e-02,8.831259534908148315e-03,-6.036813384870905186e-02,1.599610447883605957e-01
-4.043122194739341424e-01,-3.916382530570234333e-01,-4.376219402487317445e-01,2.780062584569926564e-03,-5.916333696199352690e-03,-2.425017964138982424e-03,4.287389293313026428e-02
-4.696800887912682132e-01,-3.208216351053835846e-01,-4.764425291315407818e-01,-3.347852427555314189e-03,-4.067553238287482248e-02,-6.839810915600368080e-02,2.055316120386123657e-01
-5.056898247595565943e-01,-3.406187433921587515e-01,-5.006688541606559850e-01,2.621839712531638666e-02,-1.286923412045145043e-01,-1.984166842053406710e-01,4.430572986602783203e-01
-3.937783169512904524e-01,-4.105251878999162107e-01,-4.307290497731836032e-01,2.011417780317464009e-03,-2.436886861221582417e-03,-8.870280198520227519e-03,3.595835715532302856e-02
-4.784512106762252581e-01,-3.493171677901036332e-01,-4.032661623916290461e-01,-4.923815313939228222e-02,4.499559937963216842e-03,-1.238073879207493566e-01,2.567842900753021240e-01
-3.963758224993674251e-01,-4.127570677312288328e-01,-4.269972741650015502e-01,-1.488227337732002560e-02,1.002672620877499005e-02,-9.938019698854395553e-03,4.434800520539283752e-02
-3.926516360908774428e-01,-3.252984981033438250e-01,-4.682051005866091353e-01,1.133317423439930832e-01,-8.409095612284954446e-02,-9.874976731465053004e-02,3.230080604553222656e-01
-4.161049252345833671e-01,-4.104964164207353661e-01,-4.108177624316869947e-01,-2.310204113796990983e-04,-3.202169347403226456e-04,2.200818244202458658e-04,5.510843824595212936e-03
-4.192806405750906795e-01,-4.006461942651704522e-01,-4.202508161738309767e-01,-1.334921554824659070e-03,-5.746374493415139749e-03,1.474275272452932545e-03,2.184471301734447479e-02
-3.820061250117388063e-01,-4.131401864678722058e-01,-4.436209620072611992e-01,1.353166224490902625e-01,-1.004364417307503782e-01,-8.410441026653792118e-02,3.305484056472778320e-01
-4.853488566703350604e-01,-3.496749157566573785e-01,-4.784566530330872092e-01,9.591387099639307051e-03,-1.644824667082934455e-01,-1.817804711137746831e-01,4.450749158859252930e-01
-4.109264796098505146e-01,-4.037906722405902871e-01,-4.251334314079734944e-01,-5.767596339572427519e-04,-3.138582912724206548e-03,-3.705592655187415021e-04,1.962389610707759857e-02
-4.252379581266918507e-01,-3.791349303326084774e-01,-4.422106082123919979e-01,-6.386239257933211400e-03,-1.079541189449040837e-02,9.506959007912884480e-03,6.276282668113708496e-02
-4.020920652195041356e-01,-4.105374748864640266e-01,-4.307402204938425849e-01,-3.520113671488651636e-03,-2.949698829594601512e-03,1.017295826913302463e-03,2.676708437502384186e-02
-4.072567085631776940e-01,-4.003057968019562152e-01,-4.290435232750623440e-01,-1.136079272690973183e-02,-8.158668735964762220e-03,3.509430458974648233e-03,3.603139519691467285e-02
-4.368202643355788006e-01,-4.274433288174198653e-01,-3.889048043681708200e-01,1.272738856166424383e-02,-2.125082076031498124e-02,-4.820458748669216587e-02,1.036644428968429565e-01
-4.124180283634391597e-01,-4.096936540828768902e-01,-4.164994026682297124e-01,-1.399090202564957832e-03,-1.569551357157119176e-03,2.275250654292886726e-03,7.999509572982788086e-03
-4.071972902630259794e-01,-4.117813383231460622e-01,-4.210399822798719383e-01,-2.336052094439977026e-03,-2.126630007232372700e-03,1.443131247922361951e-03,1.361488271504640579e-02
-4.904760629910962511e-01,-3.679961340270536674e-01,-3.747633154920557708e-01,2.494594745629112251e-02,-7.879406293038647424e-02,-1.195906267024591935e-01,2.785972952842712402e-01
-4.618033667833366662e-01,-4.631215102112145043e-01,-3.092934100364204131e-01,-5.357496179371952841e-03,2.687529598546352805e-03,6.042176902036296149e-03,1.538809835910797119e-01
-4.068286417398031540e-01,-4.177363740714191698e-01,-4.149528548526029148e-01,3.363458146072795946e-03,-3.358262836523673561e-03,-3.557783046577588267e-03,1.421655807644128799e-02
-4.643339672235343163e-01,-4.384406577215860801e-01,-3.200899325809714036e-01,-1.609517794694978465e-02,-1.793912422877234902e-02,3.701275699658860413e-02,1.536043137311935425e-01
-4.005325267229407071e-01,-4.286230743442002167e-01,-4.119391341507718240e-01,1.395457344820231951e-03,-2.376503277493165894e-03,-5.426980657803843165e-03,2.664419822394847870e-02
-3.936921266499127103e-01,-4.044234501714217833e-01,-4.347044309683186780e-01,3.038173878351952718e-03,-3.124651967372047041e-03,-6.393461663548356474e-03,3.920032083988189697e-02
-4.025475649249357635e-01,-4.033591855037524376e-01,-4.276011511101104334e-01,2.445252057020431101e-03,-5.475412178342718879e-03,-2.956789311952065773e-03,2.724174968898296356e-02
-3.815089706626059174e-01,-4.302844378635596323e-01,-4.289395933274964823e-01,2.027025621825356404e-03,-4.415120350626677674e-03,-9.786374024155981496e-03,5.170478671789169312e-02
-3.987992036069304413e-01,-4.189709132293524818e-01,-4.188240536991262308e-01,1.169711198040573885e-03,-1.768444170544039486e-03,-8.190530405900019878e-03,2.487364597618579865e-02
-4.943419336092499949e-01,-4.489168259489145218e-01,-2.518756428951663962e-01,2.645714230702690337e-02,1.076069560286038312e-01,1.816315108291171598e-01,4.308677315711975098e-01
-4.049405727814817113e-01,-4.105177282598601041e-01,-4.202698377542128938e-01,1.029137370495989637e-03,-1.280084490772609310e-03,-6.014597188475074956e-03,1.723997294902801514e-02
-4.210728200102953900e-01,-4.064549499091218432e-01,-4.118034033393890847e-01,2.328961646995507569e-03,-2.128215379206601157e-03,-2.827964137295688359e-03,1.476337760686874390e-02
-6.195781791397452221e-01,-4.570015479844224959e-01,-1.666756320881535580e-01,-6.320159540834111023e-02,1.409637824735546566e-02,1.140646613461154674e-01,4.577468633651733398e-01
-4.017039627997231466e-01,-3.892380134998032482e-01,-4.501067309644032899e-01,6.078233624295756310e-02,-2.961259632512226042e-02,-3.247437324998427022e-02,1.413490921258926392e-01
-5.287350822851237808e-01,-4.486656977724632900e-01,-1.886396964124864295e-01,9.038957684311109755e-03,5.018154401611846921e-02,1.305846070298590234e-01,3.921752572059631348e-01
-3.908644219440556844e-01,-4.375615338277724087e-01,-4.136202319571937736e-01,-2.639069563139580395e-04,-3.779761557609679756e-03,-4.806495929888002575e-03,4.181139171123504639e-02
-3.810194840068535926e-01,-4.332079182184609412e-01,-4.256578611211862539e-01,-5.771004315749873881e-03,-6.940959586458538867e-03,-1.268855622345868355e-03,5.134086683392524719e-02
-4.354940673230855430e-01,-4.207242166017560181e-01,-3.787908140173542604e-01,-2.963664382027509162e-02,-3.901435223620661197e-02,2.952535218671981793e-02,1.114113926887512207e-01
-4.055569769318603801e-01,-4.372906242516905739e-01,-3.997404576236345264e-01,-3.793498035286082832e-03,-6.485418630491308206e-03,-2.345253726793300290e-03,3.756714239716529846e-02
-4.817637918897511029e-01,-4.210817470418021236e-01,-3.524642343944582867e-01,-6.548444459392592509e-02,-7.168656617014010357e-02,5.539098737830921299e-02,2.236974239349365234e-01
-3.929849345324651355e-01,-3.265219384116640478e-01,-4.818659664893972794e-01,7.544249181991302677e-02,-5.135207374721547334e-03,9.639715540642699318e-04,1.880985796451568604e-01
-4.387259907415749227e-01,-3.294732449996642387e-01,-4.633563631980490705e-01,1.599880726356737309e-02,-1.158580708911965962e-02,-7.800555240502718250e-03,1.287900507450103760e-01
-4.380433980659038662e-01,-3.294548127094983903e-01,-4.652072099697284191e-01,2.828821154559493442e-02,-1.295048067373635349e-02,-2.329384750366831833e-02,1.414590328931808472e-01
-3.912075066282515445e-01,-4.336823868842217267e-01,-4.162422145192800627e-01,7.335319355628703870e-04,-3.237497278392190148e-03,-5.770874793152512908e-03,3.873594105243682861e-02
-4.051071961503054930e-01,-4.317233427495299480e-01,-4.048574000499297054e-01,2.823495695420752210e-04,-1.327018945289012118e-03,-1.249762437253824042e-03,2.693210169672966003e-02
-4.253918002295880574e-01,-4.461699220127168797e-01,-3.633314079182248801e-01,-3.758407489615918189e-03,-2.569419890468842282e-02,-6.835773422450692333e-03,8.795371651649475098e-02
-3.947863662645809679e-01,-4.386320905295485462e-01,-4.102428116649423639e-01,-2.614057396729274358e-03,-2.706919591112367292e-03,-2.810506115263105426e-03,3.936786949634552002e-02
-4.140670441424317283e-01,-4.378908295780580828e-01,-3.917601503561748966e-01,-6.238011896227706535e-03,-3.630776669589162384e-03,4.499851545526694046e-04,4.187479242682456970e-02
-4.394892505315692866e-01,-3.346070037292981914e-01,-4.486038113110510928e-01,2.817167518810193005e-02,-1.245382075892361058e-02,-1.789713670350173008e-02,1.258827298879623413e-01
-4.006346431445219070e-01,-4.319430893221521406e-01,-4.106626874084067236e-01,-3.211800042459488948e-03,-3.514888546018327207e-03,1.544663103102020350e-03,2.901699952781200409e-02
-3.769689305791140144e-01,-4.394016373225982375e-01,-4.252863206568021637e-01,-3.415151344850883043e-03,-6.706687137477582508e-03,-6.644551435766817005e-03,5.931447073817253113e-02
-4.374913950627286607e-01,-3.807437972066476384e-01,-4.179329711278121917e-01,5.360648850980519534e-03,-1.056136051511262844e-02,-9.507130600769511317e-03,5.643510818481445312e-02
-4.111382961333521768e-01,-4.236788819780230586e-01,-4.043565062769001184e-01,-3.039215583283092458e-03,-8.965383719866270489e-04,-1.073988460716766581e-04,1.784553192555904388e-02
-4.222523700390078960e-01,-4.203214108484205069e-01,-3.925801388976836725e-01,-9.352342439673661662e-03,-4.875721374897578654e-03,3.230185027759472239e-03,3.452380746603012085e-02
-4.108455867945372542e-01,-4.062371088581142597e-01,-4.214055275458956085e-01,-1.279768974020217918e-03,-2.848719202737685138e-03,2.093429094264717075e-03,1.496068295091390610e-02
-4.622749371492430037e-01,-3.789051528471850672e-01,-3.680665066419271936e-01,2.468074401000569344e-03,3.702853976945677441e-03,4.420763186839975906e-02,1.178726628422737122e-01
-3.942085823737755956e-01,-4.718982968474874085e-01,-3.923421000005667403e-01,-5.501564531813615128e-02,-7.103365391334513779e-02,8.587499060890881053e-03,1.749940663576126099e-01
-4.147735870309457451e-01,-4.085642628702806367e-01,-4.136704471508635406e-01,-4.005724060115329601e-04,-2.480784540734995176e-03,5.135777100871649365e-04,7.256611250340938568e-03
-4.477579273210905431e-01,-4.597865377246356799e-01,-3.173655997801826945e-01,1.839198645369099420e-04,1.533147282187959787e-02,8.779723314050512720e-03,1.401848793029785156e-01
-4.289289061711524798e-01,-4.635078707708856216e-01,-3.177586648644448175e-01,2.645364857958428309e-02,5.823689366597443323e-02,6.684588781755335107e-02,2.075518965721130371e-01
-4.004800676707442331e-01,-5.343007721425527823e-01,-2.488132364559276222e-01,6.813532702018386400e-02,1.614637679337473930e-01,1.256994807111951329e-01,4.480479359626770020e-01
-4.078659163330504711e-01,-4.205083854297403390e-01,-4.117977180266351178e-01,-2.451109027226147912e-03,-2.114670453808877981e-03,1.817746545405905844e-03,1.292034517973661423e-02
-4.068645701498184164e-01,-4.120130424682144632e-01,-4.220302113360995810e-01,-2.195963082989893598e-03,-2.457554153650738215e-03,2.384907850946497206e-03,1.510206609964370728e-02
-4.214796573212936659e-01,-4.082071755514561917e-01,-4.058478003507919873e-01,-3.477146608096920877e-03,-1.078558534037096089e-03,2.087484541941230301e-03,1.630565710365772247e-02
-4.664129733134415035e-01,-4.951797458630626814e-01,-2.216540794547297855e-01,2.177109172756074018e-02,9.414004341771399498e-02,8.742909546376224916e-02,3.445517122745513916e-01
-5.222980976100755068e-01,-5.271409980804355744e-01,-1.220107189608840570e-01,-3.295712689111449795e-02,3.152896522963821030e-02,-2.882808724804575631e-02,4.134318828582763672e-01
-4.388373756092556199e-01,-4.051595261205555576e-01,-3.877345097384801709e-01,-6.485515062544567472e-03,-5.806868129585401189e-03,1.703062099515343167e-02,5.587608367204666138e-02
-4.672287265304065906e-01,-4.575305317956078199e-01,-2.566011094274701643e-01,3.384330689193448122e-02,8.553402919231663237e-02,1.030068654850251481e-01,3.156436383724212646e-01
-4.121590109426173099e-01,-4.127910345768288636e-01,-4.138625751968156852e-01,-1.497913944465328450e-03,-1.571336881280277053e-03,1.995285808085462981e-03,5.320425145328044891e-03
-4.040315869657955528e-01,-4.137486743287324686e-01,-4.203710347540257630e-01,1.091186371288220720e-03,-1.295941828673391515e-03,-3.455552950212624919e-03,1.571815833449363708e-02
-4.054647631504941230e-01,-4.322686673572221361e-01,-4.025681869233103671e-01,1.439848713140750745e-03,-4.305872153968958761e-03,-1.761191654067237712e-03,2.959096990525722504e-02
-4.083371276429473840e-01,-4.141898163352748519e-01,-4.144285695560669947e-01,4.454464299197677586e-04,-3.775205134900101733e-04,-2.425933177719155707e-03,7.374727632850408554e-03
-4.065030742873972924e-01,-4.142759943166722247e-01,-4.159456305498633877e-01,1.033303743469852045e-03,-1.878432400483817308e-03,-3.566787644041751436e-03,1.131982821971178055e-02
-4.035694910925594070e-01,-4.053117757467618598e-01,-4.257279910009407198e-01,4.435626739693960727e-04,-1.979828076452075456e-03,-2.787071822511968597e-03,2.216034755110740662e-02
-4.019652862169137419e-01,-3.991262937201803251e-01,-4.308177333265729714e-01,4.886759279351220175e-03,-4.162355364083060970e-03,-1.147933550662619305e-03,3.240378946065902710e-02
-4.098068860078333264e-01,-4.147312836631358302e-01,-4.140094639091983497e-01,4.372386569894048318e-04,-1.097741318660772633e-03,-1.239254995996330513e-03,5.478329025208950043e-03
-4.284634743690627912e-01,-2.708094874759080506e-01,-6.103429792260520736e-01,1.280168331140150995e-01,-9.064572126990587397e-02,-1.012420707829960048e-01,4.372341632843017578e-01
-4.665868133774989657e-01,-4.820538997608694309e-01,-2.918175587187090692e-01,-6.553036323059840962e-03,-2.062275879118303720e-02,9.483102912300193270e-04,1.867996603250503540e-01
-4.607404747233398434e-01,-4.504072743288561886e-01,-3.241544653116094632e-01,-9.996096479783325370e-03,-7.969446635547357619e-03,3.175529461373031211e-03,1.336850672960281372e-01
-4.822740290606972735e-01,-4.775911554642008339e-01,-2.791720153101004409e-01,-1.863186180396823096e-03,3.042154683099027382e-02,3.933026098818200034e-02,2.185147404670715332e-01
-4.058307759507862045e-01,-4.268428457027736433e-01,-4.066003142709457840e-01,1.762896143316838773e-03,-4.015218083206262278e-03,-2.207791028762054551e-03,2.232133597135543823e-02
-2.847004985501009333e-01,-3.591976423532714513e-01,-5.324848268261029860e-01,1.649687400232189294e-01,-2.356938743318087726e-02,-2.650411404879831831e-02,3.659312427043914795e-01
-4.043589269252045870e-01,-4.266005744358265517e-01,-4.097896230768010017e-01,-2.992698656600110507e-05,-4.921565581752864772e-04,-3.115482920068173272e-03,2.081450819969177246e-02
-3.574819898072034707e-01,-3.600553992404396109e-01,-4.845189276450467819e-01,8.241715845432985577e-02,-6.912109270616820234e-03,-5.393636199387628199e-03,1.908571720123291016e-01
-3.042911375470873647e-01,-4.483688162621523032e-01,-4.939909029611702085e-01,1.543248269276028053e-02,-3.795845499877296969e-02,-4.082519075001692088e-02,1.986202001571655273e-01
-4.034915172483312107e-01,-4.291510612494852106e-01,-4.070177304118053896e-01,1.478168598696488409e-04,-1.168942690712735993e-03,-2.834586934406591648e-03,2.467052638530731201e-02
-4.109810066816383389e-01,-4.101444669946723853e-01,-4.177148768152926239e-01,1.042098245388957834e-03,-1.891050972505634638e-03,-2.942449375642803948e-03,9.572779759764671326e-03
-3.838392061322221105e-01,-4.320967964184607157e-01,-4.186723872841273675e-01,3.071621448295199647e-03,-2.123679669612748774e-03,-7.512851309252911551e-03,4.552299901843070984e-02
-2.626538042744146484e-01,-4.416063231882670359e-01,-5.138391751470963165e-01,1.632536933983649019e-01,-1.858182947112255526e-02,-2.739966638861372067e-02,3.652549982070922852e-01
-4.022938061809047672e-01,-3.815944644094995120e-01,-4.500191000936024643e-01,1.787994394332955567e-02,-6.956443490322934686e-03,-5.039760450960140657e-03,6.981761753559112549e-02
-3.233939355332068333e-01,-4.080999760420922495e-01,-4.821393544640785178e-01,8.807745231502275840e-02,8.711140565135278013e-03,2.294497299905311552e-02,2.097820490598678589e-01
-4.054096334164249971e-01,-4.207530767372945624e-01,-4.134450570817056470e-01,8.292384852387899496e-04,-1.203764409586745776e-03,-1.543571202067346238e-03,1.379333529621362686e-02
-3.578176076470327427e-01,-4.133677946637752676e-01,-4.545296488655631850e-01,6.991634467027498315e-03,1.668709499007566650e-04,-2.753028217122328717e-04,8.493309468030929565e-02
-4.020709883322257094e-01,-4.335686287455202126e-01,-4.057831615994032526e-01,-2.114466466065271458e-04,-1.245711044476154571e-03,-8.850372736849850246e-04,2.993486635386943817e-02
-3.398084030130011368e-01,-4.327818055025801081e-01,-4.628516456392864908e-01,2.707940064270742547e-02,-2.298074503973698487e-02,-1.496346353437184168e-02,1.296143680810928345e-01
-3.951910803660173555e-01,-4.339741987986555638e-01,-4.134119220319686372e-01,-1.377507872644561249e-03,-2.029380290895701090e-03,-3.957777471150268102e-03,3.456165641546249390e-02
-4.180308389570349115e-01,-4.346932786894728840e-01,-3.825604411569518692e-01,-1.009905325777764838e-02,-9.431532503009982041e-03,2.648902095195632481e-03,5.216026678681373596e-02
-4.156781609813343659e-01,-4.339364259272549540e-01,-4.100942686000780824e-01,-5.494639959015493180e-02,-5.535049014569657505e-02,3.031463899416647623e-02,1.465325206518173218e-01
-4.033182022446567538e-01,-4.342026223851651601e-01,-4.044237605744792630e-01,-1.124290556768163052e-03,-1.247186292526885698e-03,-3.530141857078451708e-04,3.049192577600479126e-02
-3.657945067833204833e-01,-4.393557950334169293e-01,-4.332428432251107520e-01,1.015448648091752878e-02,-3.882803795334850011e-02,-2.576043543253288964e-02,1.087287664413452148e-01
-4.071815861932878144e-01,-4.290046546340564038e-01,-4.055099349410499765e-01,-1.797763698632177031e-03,-1.204704406093135048e-03,1.172620370290812638e-03,2.310186624526977539e-02
-4.075162901906300705e-01,-4.284430503273353175e-01,-4.048443283370657397e-01,-2.016669186512038466e-03,-9.579018717573188277e-04,2.272074103461346165e-04,2.271767146885395050e-02
-1.681507858540820521e-01,-5.187929863296140143e-01,-5.240330836981597074e-01,1.987756170163619204e-02,3.140179258366143471e-03,-4.045850658749036710e-02,3.618569076061248779e-01
-4.342089352429950866e-01,-4.073662035973507622e-01,-3.977638963346171730e-01,7.448842405895771427e-04,-4.866492972180064790e-03,-6.174513289731362563e-03,3.546230867505073547e-02
-4.161283949545688254e-01,-4.016867692259279421e-01,-4.197818786207400676e-01,-9.283260001088471103e-04,-6.707414458681200745e-03,-1.543259496732219543e-03,2.047850750386714935e-02
-4.075729492268093668e-01,-4.211315306340920328e-01,-4.122504277825111973e-01,-2.680348769973593930e-03,-1.929017767705942105e-03,2.646980112683828580e-03,1.400105748325586319e-02
-4.145777586372010326e-01,-4.230097878988677840e-01,-4.009626744161101097e-01,-5.896561936273580183e-03,-3.758358915323880764e-03,1.528375796422066753e-03,2.291209995746612549e-02
-4.151018621710737544e-01,-4.436959540026965687e-01,-3.816401584505931810e-01,6.256403103124464271e-04,-1.280950029388651205e-02,-1.569889738317278448e-04,5.820320174098014832e-02
-4.199133224996250968e-01,-3.929937830996509396e-01,-4.229502841563014259e-01,3.180293746707467395e-03,-9.815559783412636588e-03,-4.606686422422786448e-03,3.462198004126548767e-02
-4.114217871519225689e-01,-4.205803863210806348e-01,-4.079761772036666345e-01,-1.520492747658013649e-03,-5.965549039080624482e-04,1.510149604277766407e-03,1.192284002900123596e-02
-4.166002747108409898e-01,-4.074026064391833568e-01,-4.136478265644110697e-01,2.639864372820126780e-03,-3.917777342574018523e-03,-3.727131300991240893e-03,1.322068553417921066e-02
-4.147635003326894387e-01,-4.100211065160284107e-01,-4.139077647293503692e-01,-5.042456543785493479e-04,-1.182497536101483971e-03,1.083475513037558376e-03,5.257736891508102417e-03
-4.187190736252884848e-01,-4.087405702147772213e-01,-4.086267053267360061e-01,-4.098472034851767011e-03,-1.828373013698999941e-03,5.783557062521342638e-04,1.273359544575214386e-02
-4.140514259146340081e-01,-4.013717136365408944e-01,-4.233349637502717422e-01,5.718435173944453470e-03,-9.165997258160345912e-03,-9.583617612078659462e-03,3.146993741393089294e-02
-4.111257350538030653e-01,-4.062875644014668497e-01,-4.213164324652254877e-01,-9.962458070103528442e-04,-2.287589355875747736e-03,1.410912367429792815e-03,1.418489590287208557e-02
-4.251760828649103763e-01,-4.005566651916459553e-01,-4.161013398092995863e-01,3.390605409189343094e-03,-9.532652301151750204e-03,-1.107023305461760955e-02,3.376099839806556702e-02
-4.150124912342073036e-01,-4.116339392626586768e-01,-4.111253322874434679e-01,-8.726486250224243981e-04,-7.599517101914528760e-04,1.302382010000075569e-03,4.743139725178480148e-03
-4.154925668231287950e-01,-4.116597539755316171e-01,-4.103473819386558308e-01,-7.039105066599775102e-04,-6.171021051218490662e-04,8.637763097194745866e-04,5.129336845129728317e-03
-4.493744984934514020e-01,-4.327770910528005999e-01,-3.521363928566406121e-01,-1.170408500599885715e-02,-1.339108890787373864e-03,5.783736650737378304e-03,9.291670471429824829e-02
-4.461097971613897095e-01,-4.339780719688071109e-01,-3.527096085724879537e-01,-1.014034162095675887e-02,-1.982827410345003576e-03,5.894745021891286373e-03,9.034482389688491821e-02
-3.017367903690782449e-01,-4.698732036041469717e-01,-4.827466931956605478e-01,-2.937024603328364236e-02,-1.125383331268294158e-02,-3.789697068066817665e-02,1.946186125278472900e-01
-4.995161268772126961e-01,-4.190246120171491895e-01,-3.111715341262021872e-01,-4.111656928973462383e-02,-4.176577582376378439e-02,7.977526352432083578e-02,2.370433807373046875e-01
-4.592497128983910604e-01,-4.560309096619222791e-01,-3.123534151971606998e-01,-8.376704073502980186e-03,4.791713339660200535e-03,8.600483438036781239e-03,1.470283865928649902e-01
-4.204772798270441370e-01,-3.338755945910539258e-01,-4.453318954761837922e-01,5.728295626021291664e-02,3.416559790722299705e-02,3.679149052016839755e-02,1.663633733987808228e-01
-5.173492037397156018e-01,-4.479113395935468978e-01,-2.560567271355481678e-01,5.284474066161954503e-02,1.039396605346766395e-01,1.679265943595001365e-01,4.246620535850524902e-01
-4.516418104897297892e-01,-4.539055101635597889e-01,-3.317862468843673085e-01,-6.038831844703634877e-03,-3.945444869170045823e-04,-1.020808039196876432e-03,1.214693114161491394e-01
-4.316114230179324829e-01,-4.101543074968456715e-01,-3.953341721616693283e-01,4.464085991104029157e-03,-1.744911757899515053e-02,-1.843611452931701380e-02,5.468922853469848633e-02
-4.115829892242451882e-01,-4.068889555140110525e-01,-4.207714175080035091e-01,-1.876896047183984010e-04,-1.827742235511788712e-03,2.478631896744631154e-04,1.264531072229146957e-02
-3.766329077721112251e-01,-4.260597073383916578e-01,-4.398641404974183988e-01,-8.176583258263390996e-03,-2.449210458351868454e-03,-7.113080314210699050e-03,6.071435660123825073e-02
-4.069086978644511077e-01,-4.316154680169200231e-01,-4.027510242689937847e-01,-3.013657709839008634e-03,-1.027324111340664585e-03,-1.096492131245517185e-03,2.764874137938022614e-02
-3.854027728706294620e-01,-5.105432834779901619e-01,-2.681351975936833165e-01,-5.058259994446640765e-04,1.621492752352240163e-01,5.858076145967934176e-03,3.508099615573883057e-01
-5.229091034714998809e-01,-4.205993087220458726e-01,-3.799187124232871193e-01,-1.766922059363855158e-01,-1.494133460811763736e-01,1.011576431159304096e-01,4.556492865085601807e-01
-3.296255375708076474e-01,-4.506970533584407912e-01,-4.513595960896013559e-01,-8.306498760871191189e-04,7.091747431780951079e-03,-1.234347543751990531e-02,1.238910779356956482e-01
-5.692611692375610932e-01,-3.513256339177593390e-01,-4.469842734676710005e-01,-4.835610787146093353e-02,-1.059889356391158083e-01,-2.250193407193769313e-01,4.779289364814758301e-01
-3.925763065508292016e-01,-4.229069446992610448e-01,-4.299801137304748444e-01,-5.601014771774036685e-03,-3.863347962926446093e-03,-8.064064059805107825e-04,3.640538826584815979e-02
-4.414003533859433559e-01,-4.132626773337721438e-01,-3.862869935525045650e-01,-1.215340955661509646e-03,-5.258513435206263638e-03,-8.890198814554712073e-03,5.101905018091201782e-02
-3.153438578189344810e-01,-4.575257531485885654e-01,-4.625857303611270455e-01,1.283705852716991854e-03,-2.611374364008170034e-04,-1.202173601106943344e-02,1.462855041027069092e-01
-4.172521232902215993e-01,-3.948637968848616175e-01,-4.290962552773172622e-01,-2.409473858953399376e-03,-6.843041149300460244e-03,4.098404594909674844e-04,3.263576328754425049e-02
-4.617775898842183535e-01,-4.314735842557230749e-01,-3.280407912628566236e-01,6.165924786016997727e-03,1.101645055886063887e-02,5.149159991910961381e-02,1.522609591484069824e-01
-3.994536563587611222e-01,-4.215544093747938814e-01,-4.214587017822598591e-01,-4.344543118831715491e-03,-4.175659797403813954e-03,2.258309057574721043e-03,2.470972761511802673e-02
-1.831658783295808113e-01,-5.411719132604858595e-01,-5.977053412558598344e-01,4.119048391149360278e-02,-8.520048743784441880e-02,-6.516395990835180396e-02,4.372756779193878174e-01
-3.189855839757651523e-01,-4.526337008430975639e-01,-4.599908440308462798e-01,7.744670487191259931e-03,3.060017457148025977e-03,-6.450273285734332319e-03,1.386797130107879639e-01
-4.494720192658233082e-01,-4.358928077086023922e-01,-3.351250623486891622e-01,3.826068801555999703e-03,7.775100277071715464e-03,1.075927814926976901e-02,1.108126342296600342e-01
-3.946327191496855069e-01,-4.887899468703558736e-01,-3.265200700345189944e-01,1.036218949034669740e-01,1.686866425123881297e-01,1.181693037499164101e-01,4.235424399375915527e-01
-4.422777355789456188e-01,-3.953081386460188251e-01,-4.140527640879656524e-01,-3.606043568859844829e-03,-9.269694377250557379e-03,-2.265573878290674109e-02,5.927661061286926270e-02
-4.531767459329267278e-01,-3.969400104107347338e-01,-3.663535909897172038e-01,-1.664048101851405568e-03,2.214006850615516959e-03,1.512284542378961733e-02,8.079166710376739502e-02
-2.413151518661534045e-01,-5.490640221066995785e-01,-5.507737882394573292e-01,-1.584733766280453093e-01,2.545185326372640527e-02,-1.061321425533176682e-01,4.542195498943328857e-01
-4.440776324122332475e-01,-3.676351771185303319e-01,-4.453912312387758310e-01,6.951178118091917019e-03,-4.569423371656205352e-02,-6.684090363813487146e-02,1.604916006326675415e-01
-4.257198336498268509e-01,-4.055340306852727172e-01,-4.032554233792753906e-01,-4.094616399621013071e-03,-3.254521160572968787e-03,3.288166804191578266e-03,2.394083701074123383e-02
-3.125279897585420685e-01,-4.536398608224797013e-01,-4.556307487673560974e-01,8.564819108749234869e-03,8.683851312631132163e-03,-3.191172487117961351e-03,1.437856405973434448e-01
-4.075538969637199083e-01,-3.573565130511726085e-01,-4.568629490266131743e-01,4.632921275122148241e-02,-3.121983121061195840e-02,-2.927116353202004542e-02,1.391401141881942749e-01
-4.109174869397909657e-01,-4.044009775358414216e-01,-4.251615482205993723e-01,-1.113114242333418857e-03,-3.868170353800895900e-03,9.741888659541900457e-04,1.973910257220268250e-02
-4.157520166416919238e-01,-4.309837193889572982e-01,-3.883151853064256143e-01,-8.133940691106802956e-03,2.545257229150169314e-03,-2.701259012558688156e-03,4.052779823541641235e-02
-4.040360725897677585e-01,-3.818926488570359434e-01,-4.402938578253664526e-01,1.055002496637814403e-02,-6.916606024015671018e-03,-3.436919917988030728e-03,5.586317554116249084e-02
-4.138219948612593679e-01,-3.745816188661965640e-01,-4.428857088163843381e-01,5.873233669623143666e-03,-6.109353856277298725e-03,-1.225977376993827705e-03,6.119594722986221313e-02
-4.000709243945679283e-01,-4.052414116138994271e-01,-4.295016375243693174e-01,1.976273769228047324e-03,-8.064970984874764073e-04,-5.567383920067691489e-04,2.748322859406471252e-02
-4.413926957025438025e-01,-3.452866823358713422e-01,-4.488186358816244059e-01,4.262273359555587143e-03,-1.406979806484336994e-02,-2.713868885687131631e-03,1.033230945467948914e-01
-4.814079189658505564e-01,-2.905317298297951933e-01,-4.484010972742693557e-01,-7.497919900302993379e-02,2.815898726571755724e-03,-1.088357701587147619e-01,2.892197370529174805e-01
-3.672810904383424502e-01,-3.992721143726144506e-01,-4.556116324810624563e-01,1.100644857801977121e-02,-4.784408806312288073e-04,1.907733897844343576e-03,7.984332740306854248e-02
-4.424714860189510879e-01,-3.962287661272247963e-01,-3.903493891531998328e-01,-3.122281481095035092e-03,-1.445864802780741452e-03,6.489587784602511220e-03,5.105581507086753845e-02
-4.435995446679755760e-01,-4.237603327349204196e-01,-3.817497484368542748e-01,-8.047358877422420426e-03,-1.348606766546430900e-04,-5.036981405780532710e-03,5.711732059717178345e-02
-5.172612259361119014e-01,-1.515254370849253851e-01,-5.269972443878128132e-01,8.473216975524278105e-02,-3.084438754730751270e-02,1.972641969241330576e-02,4.037058353424072266e-01
-4.660406554919664934e-01,-3.163509130235335198e-01,-4.571304204170700825e-01,-4.903198243377184830e-03,-8.692007669189479729e-03,5.417690859207068520e-03,1.467633247375488281e-01
-4.875030553441394021e-01,-4.609526127167613563e-01,-3.023920533185358028e-01,1.812398183653154624e-02,-4.325105055475496341e-02,-1.222112753374874905e-01,2.854126989841461182e-01
-4.440112537276892923e-01,-4.028447494617982128e-01,-3.798717867801429948e-01,-7.246656838584685824e-03,-1.113577676451046579e-03,7.891694956326758548e-03,5.929800495505332947e-02
-4.402505702637669049e-01,-4.354205990167365758e-01,-3.408476002762726997e-01,1.427191603985890865e-02,3.210081188792637819e-02,3.657445721233489044e-02,1.309186220169067383e-01
-4.446837365043861956e-01,-3.865563207108568822e-01,-3.968174508709240156e-01,-1.884530613547288642e-03,-4.901502068470726774e-03,6.187806683054140715e-03,5.554484203457832336e-02
-5.477335785757504460e-01,-1.830035424041163705e-01,-5.876598384888329640e-01,5.517590187766491933e-02,-9.629670398751614957e-02,-8.029899423486901167e-02,4.532995820045471191e-01
-3.830734499634117496e-01,-4.284687340964542512e-01,-4.288356387047798091e-01,2.732811978322027477e-03,-3.635286219378754471e-03,-9.808020109269548897e-03,4.927641153335571289e-02
-4.494097851733907523e-01,-4.011795314662259249e-01,-3.858934526926752762e-01,-8.721328733387370344e-03,-6.256021360106308986e-03,1.820843647340257554e-02,6.809781491756439209e-02
-4.546677339770653914e-01,-3.315294174066464317e-01,-4.487333520823237887e-01,1.074528359464649654e-02,-9.197897649126469607e-03,-2.735751699103557404e-03,1.228419840335845947e-01
-4.855130178537774843e-01,-4.754272752308198458e-01,-3.006487443537591009e-01,-1.617919809231844683e-02,-3.739028183435844088e-02,-2.801486875551243566e-02,1.993637979030609131e-01
-4.152082310883563054e-01,-4.556749959521095850e-01,-3.534166366641364188e-01,-5.070397122957190361e-03,9.320022916916961483e-03,2.045062096814534523e-03,9.114015847444534302e-02
-4.237637887486013222e-01,-3.592718007664636448e-01,-4.470902622328610243e-01,1.512744547366433323e-02,-9.457119359794211727e-03,-3.510820303750587616e-04,8.463398367166519165e-02
-5.197942582924484078e-01,-2.098376874182642793e-01,-4.800332887978937535e-01,1.249637099529997061e-02,-3.930656478134918197e-02,-8.061019450810720521e-02,3.315529227256774902e-01
-4.025612502008907856e-01,-4.195445443967251165e-01,-4.143562116771305481e-01,-8.875816715566846359e-04,1.246322946415575695e-03,-5.189613221582852799e-03,1.774980872869491577e-02
-4.076629066048540473e-01,-4.604082563100796999e-01,-3.557277979542002311e-01,-1.938549674620028418e-02,4.713663353147212742e-02,-2.594207019748010976e-02,1.342781186103820801e-01
-4.333315877573246100e-01,-3.339969142347273268e-01,-4.603644649972113423e-01,1.082651129851284512e-02,-7.379829921502312901e-03,2.873036886401210063e-03,1.175722926855087280e-01
-4.136759109592563211e-01,-4.066401239889589347e-01,-4.195900970314179190e-01,1.251653917899625318e-04,-2.529068754746212778e-03,1.227151844965443644e-04,1.205701380968093872e-02
-4.405852934218233985e-01,-3.932661767020955712e-01,-3.912213714346234883e-01,-6.044757226883032755e-03,-4.636682773671455503e-03,1.224757372201707405e-02,5.444411188364028931e-02
-5.977334339639375216e-01,-2.969877661148752068e-01,-4.254759201720394457e-01,-2.967217362893798116e-02,-1.150765587513618848e-01,-1.365042151973263618e-01,4.081473648548126221e-01
-2.937872008606858820e-01,-5.425912943482799067e-01,-5.095545489940861428e-01,-4.920884556769562247e-03,-1.661771756964531277e-01,-1.006269239125207327e-01,4.099631309509277344e-01
-3.524372126557249185e-01,-4.416192171080905449e-01,-4.533930214336331921e-01,4.511795712458739442e-03,-1.820293395524345825e-02,-1.705700234159270717e-02,1.052140519022941589e-01
-4.275406205105816704e-01,-3.801641464138791893e-01,-4.325949102907788446e-01,-6.262098209247318054e-03,-1.183955616430190302e-02,1.981519625923983379e-03,5.531253665685653687e-02
-4.672314484482958385e-01,-2.856199529079562760e-01,-4.960249910684029206e-01,4.207164106696816702e-02,-3.143223729342550093e-02,-2.356099909261586897e-02,2.213152199983596802e-01
-3.302992547259717693e-01,-4.404108169425255404e-01,-4.538279983591412270e-01,2.452700307703546342e-02,1.096586195666185166e-03,-8.230336200272841268e-03,1.256722211837768555e-01
-3.346877944870213506e-01,-4.964571893566447347e-01,-3.845400829860228797e-01,1.251905850858855279e-02,9.849863140711967446e-02,8.512507745223623799e-04,2.239828258752822876e-01
-3.189342047635192468e-01,-4.455054723754203749e-01,-4.647917282279745987e-01,9.509447786103729719e-03,-1.704186560932206395e-03,-2.407967545738715943e-03,1.383138746023178101e-01
-1.941422053205312803e-01,-5.882202554130220307e-01,-5.424248594424379011e-01,-7.034964783845530645e-02,-1.686682640708284386e-01,-7.364182698099425162e-02,5.057778954505920410e-01
-4.103420015709464130e-01,-4.143727146131633288e-01,-3.901367968438335110e-01,8.171368535487033222e-03,5.791779903786948430e-03,4.051371309116958384e-03,2.925965003669261932e-02
-4.452771653646904748e-01,-3.015754828087595096e-01,-4.847670878674925632e-01,1.203489572127317830e-01,-4.697328989072188654e-02,-1.128581683519095380e-01,3.408319056034088135e-01
-4.111528785715564682e-01,-4.047525820253671247e-01,-4.244988517643866199e-01,-8.080226924272051288e-04,-2.809754512427370746e-03,2.855076413013640118e-04,1.817647926509380341e-02
-3.041198943256768206e-01,-4.545629960824381088e-01,-4.746124713803479001e-01,5.224402396961447259e-02,-1.629512827811650452e-02,-2.402956684812735094e-03,1.872261911630630493e-01
-1.898045797293199666e-01,-4.967014672573720757e-01,-5.164359536219538249e-01,6.045177285181738136e-02,9.433558597399043302e-03,-1.737907994391359526e-02,3.358093500137329102e-01
-3.907429877821416708e-01,-3.896765669971857804e-01,-4.302294115124061791e-01,1.871425866293966594e-02,1.393560069973225762e-02,1.355608068694308041e-02,6.153859943151473999e-02
-3.782405983423325346e-01,-3.884370804264470345e-01,-4.560315699128841826e-01,5.270337128640370516e-02,1.128658181038147239e-02,6.348850406692556000e-03,1.191563233733177185e-01
-3.488034183142873501e-01,-4.317182458541386492e-01,-4.573918593791122533e-01,1.962525325350427882e-02,-2.678708805560935362e-03,-1.059998961221005585e-02,1.057203114032745361e-01
-5.443037549393360264e-01,-5.861578398038786997e-01,-1.584954421482498987e-01,-3.252272171336895168e-02,1.034157670943237906e-01,5.429650293888809570e-02,4.591834545135498047e-01
-4.481448212637035855e-01,-3.468664928705373907e-01,-4.515353899531392989e-01,-8.314561722038827860e-03,-4.459645491925378832e-03,-6.501563920512872007e-04,1.043097153306007385e-01
-3.301813316721564640e-01,-4.348757394176644420e-01,-4.631177214718642521e-01,7.461184690196167625e-03,2.951834648316235734e-03,-8.927656824212657286e-03,1.230754330754280090e-01
-4.338916255409573375e-01,-4.148543894766048012e-01,-3.976952536728469156e-01,-4.919087608146234698e-03,-9.752788546473581746e-03,-2.270045964233047969e-02,5.373444408178329468e-02
-3.099157735834364713e-01,-4.783225246020885724e-01,-4.263639777948399212e-01,-1.200272198601716987e-02,5.469667805986323100e-02,-1.484453085396382835e-02,1.799411326646804810e-01
-4.018864182172189325e-01,-4.381955856232330193e-01,-3.811317028914675831e-01,8.665323601526581099e-03,1.657162489024181437e-02,8.604748852260462461e-03,6.143244355916976929e-02
-3.350138078254482621e-01,-4.599204380936284808e-01,-4.557297503821255980e-01,-1.081484346545156724e-02,-9.764863889265893923e-03,-9.374163015955967043e-03,1.264766752719879150e-01
-3.390558654090107815e-01,-4.349347575712380065e-01,-4.500216820243277960e-01,-5.983974889848131529e-02,1.448447989585450318e-02,-1.855358157946091630e-02,1.525496244430541992e-01
-3.979332904984095864e-01,-4.454278961557365801e-01,-3.899176294177597590e-01,-4.588397157897954395e-03,1.137018714531308093e-03,-3.857942808034487466e-03,5.303186550736427307e-02
-4.437987975239830463e-01,-3.680070382489371572e-01,-4.280048753935102313e-01,-9.107459747938121200e-03,-1.590198472917613405e-03,-1.543080796013821150e-02,7.594434171915054321e-02
-3.433089938989283274e-01,-4.579208468597741888e-01,-4.364913061083712797e-01,-1.402531865519023903e-02,1.995154835655214148e-02,-1.165896647889551156e-02,1.154605522751808167e-01
-3.852779053704070145e-01,-3.539510249919926022e-01,-5.193882654867434390e-01,-8.645498746590679628e-02,2.284497797131273752e-02,-9.639325256495356875e-02,2.739202082157135010e-01
-4.609591017530878521e-01,-3.088285081661009679e-01,-4.580176284955288502e-01,-8.684953558609675994e-02,2.605222745597057538e-03,-7.479896130731150672e-02,2.492758035659790039e-01
-4.060765474690206100e-01,-4.317630158053838985e-01,-4.030421668881002950e-01,-4.713624029161766343e-03,-7.566941096722758914e-03,1.092155315244021895e-03,3.144763410091400146e-02
-4.350420213632273381e-01,-3.567108050990408508e-01,-4.486410395559308761e-01,-1.767604758940240911e-02,-5.920378421780887572e-03,-1.929486191205716196e-03,9.186723828315734863e-02
-4.223898032402940150e-01,-4.223115296460330237e-01,-3.985845442322373811e-01,1.317556623787175451e-03,-3.872581211693622641e-03,-3.719159579392825477e-03,2.562280558049678802e-02
-3.509091802095469226e-01,-4.375325473782043506e-01,-4.443141783965945391e-01,-1.611005768257522952e-02,3.673395365401402584e-03,-1.174589599783598497e-02,9.679890424013137817e-02
-3.921715935475186821e-01,-4.200594511656614016e-01,-4.343010295446484426e-01,-5.624405103804289673e-03,-3.905715910919462398e-03,3.258554861403294926e-04,3.897058591246604919e-02
-3.599379142743550086e-01,-4.448523403062867310e-01,-4.363784744993877696e-01,-4.379518815436844563e-03,-4.100211027896680932e-03,-5.405192407514457578e-03,8.220910280942916870e-02
-4.121280293470776512e-01,-4.137521023011173082e-01,-4.130154668709649091e-01,-1.302291165818339654e-03,-1.410368267610519850e-03,2.083084580570788297e-03,5.104598123580217361e-03
-3.222665578634066330e-01,-4.814724346085783035e-01,-4.662738480862588797e-01,-1.743318903485397905e-02,-6.285107359900178603e-02,-2.944540774039593536e-02,1.962687522172927856e-01
-4.349630068486275425e-01,-4.568665688934278046e-01,-3.309412829593696426e-01,-3.014016957265996943e-03,1.170695371511634372e-02,4.201915163227171006e-03,1.186174973845481873e-01
-4.341959740443587235e-01,-3.576086292219632368e-01,-4.662422338392845367e-01,-3.577581400124849736e-02,-4.758186451107091972e-03,-1.638659341004121070e-02,1.185754239559173584e-01
-3.702942493436540139e-01,-4.329515711243697718e-01,-4.152988889308800724e-01,4.553151198096410009e-03,6.088688704840224467e-03,8.770340073063841169e-03,5.946136638522148132e-02
-1.502037891685469861e-01,-5.833981734574562594e-01,-5.577937804276902334e-01,2.521422399455752056e-02,6.855611782299692036e-02,-6.605107060617668169e-02,4.542208909988403320e-01
-1.903135575516795852e-01,-6.045776773838658080e-01,-4.858024934474140522e-01,1.903190996796585890e-04,1.392311158754682143e-01,-5.522621555538755750e-02,4.514685273170471191e-01
-1.912791588195171533e-01,-5.055729453396238249e-01,-4.944217982150649338e-01,5.681050441389943334e-02,1.025586831699832335e-01,-6.557622271566172474e-04,3.696466386318206787e-01
-4.143018577163500860e-01,-4.507822269054075348e-01,-3.557157381789313733e-01,3.332589718867033559e-03,8.210685618691784121e-03,3.403149326614342621e-03,8.468000590801239014e-02
-3.332461604152807677e-01,-4.409765958200236313e-01,-4.360133833124862912e-01,1.533064719241882534e-01,1.448193156683174332e-01,1.002649192874571910e-01,4.179491400718688965e-01
-3.860526355953161071e-01,-4.421149113665093222e-01,-3.899035402256241789e-01,1.825867167787097265e-03,5.327090357995215540e-03,5.533595688562297117e-03,5.593670532107353210e-02
-3.910213914214318853e-01,-3.503776345875464493e-01,-5.276421235794697129e-01,-1.410656765779921273e-01,3.351326799347033314e-02,-4.767482909879403041e-02,3.094455897808074951e-01
-4.118911910914846430e-01,-4.233159616854839657e-01,-4.027620662925676664e-01,-7.302785927446276033e-03,-7.579866680296492958e-03,4.439438231692045302e-03,2.663917280733585358e-02
-3.218055279478142516e-01,-4.587175691291604518e-01,-4.585244830544830674e-01,1.366255153763983347e-03,-1.290763138581811631e-02,-1.791131409477345754e-02,1.420787572860717773e-01
-1.742823105002191397e-01,-4.913195318148784185e-01,-6.132181619146259699e-01,-3.375860756995458130e-03,-9.282076035104258604e-02,-4.960273671904828069e-02,4.327595531940460205e-01
-2.079598940827169229e-01,-4.426972461224191746e-01,-6.048898193570980686e-01,1.804229093091647418e-01,6.052469221401333282e-02,-2.393359788451778977e-03,4.776451587677001953e-01
-4.495484125506715722e-01,-3.346035604479453140e-01,-4.501193376251720335e-01,-2.392425309899357325e-02,6.007746578836597583e-04,-2.269304971659922773e-02,1.286133229732513428e-01
-4.532414552246383788e-01,-3.628482663615851256e-01,-4.338549772086650602e-01,-1.033984591608335876e-02,-3.893060920347767451e-03,-1.449153477650073386e-02,8.826424926519393921e-02
-3.382969933363665915e-01,-4.337935061156711347e-01,-4.516245889006152425e-01,9.213103099410599808e-03,7.268148487215140077e-03,4.849674721072076504e-04,1.074903011322021484e-01
-3.377274698341077297e-01,-4.340936737389296529e-01,-4.533651581613223347e-01,9.251826580744967193e-03,7.178389670662720101e-03,2.023148341250291266e-03,1.092639490962028503e-01
-4.396599069911666380e-01,-4.288207106509293598e-01,-3.693725157553507388e-01,-7.965820434875706818e-03,2.321405846324417141e-03,-5.283685619704147143e-03,6.772169470787048340e-02
-3.945298864208214296e-01,-4.101233616305384744e-01,-4.418341346790048418e-01,-2.405269479442526115e-02,-5.365155282318433312e-03,-1.760299003945067775e-02,6.704295426607131958e-02
-4.597074732269504915e-01,-4.613665099180024876e-01,-3.114630932162328336e-01,-1.153821448638913359e-02,2.960363186682176805e-03,5.139511058226589602e-03,1.507647782564163208e-01
-4.618405997602885171e-01,-3.192393447700727638e-01,-4.615003581709806180e-01,-1.099087846119840318e-02,-1.198770705332211604e-02,-3.356695829816825315e-03,1.453066766262054443e-01
-4.161025981144940156e-01,-4.389652826523485207e-01,-3.635541212063138072e-01,9.229862938237611003e-03,6.567796481178281992e-03,5.698305831756468251e-03,7.048287242650985718e-02
-4.542416187487311463e-01,-4.559618918202005267e-01,-3.271659945886099541e-01,-7.971667604829231826e-03,1.514433939905196187e-04,-1.171228822921252478e-03,1.287035495042800903e-01
-4.023219254607205420e-01,-4.356162341718497477e-01,-3.930125445453941380e-01,-4.490996086192998622e-03,3.855972235347675421e-03,-2.753080507335844973e-03,4.041009768843650818e-02
-5.451161939920347033e-01,-5.708946465128281744e-01,-1.696787937849519312e-01,-4.597268916934878213e-02,9.385860591173386669e-02,5.741979648750555887e-02,4.404041767120361328e-01
-4.351585545511755249e-01,-4.344042970596607711e-01,-3.510148878947188522e-01,7.909721795736278718e-03,6.740523780143963320e-03,6.728678508397829133e-03,8.647011220455169678e-02
-4.024375213952864905e-01,-4.489890808513011811e-01,-3.702748883386650092e-01,-8.541951156897920321e-04,1.484007203692602750e-02,9.471645271997121765e-03,7.503806799650192261e-02
-3.843167102137710067e-01,-4.484152117598319554e-01,-3.955231064349469805e-01,-1.003197650427615703e-02,2.725554026304024755e-02,-6.789253377510170995e-03,7.864277064800262451e-02
-3.996369488008378323e-01,-4.307113310456954780e-01,-4.010596675078205164e-01,-3.427010921448998891e-04,-4.638910614417719389e-04,-5.678469346706934871e-04,3.042033128440380096e-02
-4.397871003948704005e-01,-4.257777441636189097e-01,-3.728450901803089246e-01,-2.514539029840241052e-03,-2.662437499965755849e-05,-6.201321997738587152e-03,6.224162876605987549e-02
-3.890299696766654769e-01,-4.453543740751819136e-01,-3.907593218150821057e-01,-1.139361610574529064e-03,8.867832766486278065e-03,1.959343950189877843e-03,5.770053341984748840e-02
-2.570584695010829090e-01,-5.637723330764214946e-01,-4.222161034746251818e-01,5.512462337789029998e-02,1.680344243981953534e-01,1.544667759339796512e-02,4.064885973930358887e-01
-4.441748007010664079e-01,-4.488690578503210515e-01,-3.423089930278987447e-01,-5.325050662710400021e-03,-4.672754432251530893e-03,-9.857672965415576090e-04,1.050254777073860168e-01
-3.858496640289186264e-01,-4.369638143621865090e-01,-4.082332109457550429e-01,-7.424576245172370692e-03,1.104229479339334692e-02,-9.876749562011857830e-03,5.285247415304183960e-02
-3.921433184213989342e-01,-4.314739543137302014e-01,-4.100257489246604270e-01,-1.805136839779146766e-03,2.784438524094749127e-03,-8.387115561848717399e-03,3.751558065414428711e-02
-3.882385457998612233e-01,-4.292901317772502834e-01,-4.203657161587021629e-01,-8.437153467190866910e-03,5.937326283671234654e-03,-1.075386182821612413e-02,4.543969035148620605e-02
-4.539457368352689537e-01,-4.843682398014539370e-01,-3.755030430885182846e-01,-1.831265401640159995e-01,1.832896492354552098e-02,-2.237391883741860765e-01,5.111327767372131348e-01
-3.593081939763801969e-01,-4.341427653717705448e-01,-4.374565731257249457e-01,-1.548262886988707862e-03,5.989349031969859634e-03,-9.441079806346180589e-03,7.900248467922210693e-02
-5.190788889184315691e-01,-5.738350577660189522e-01,-2.599274573423123735e-01,-7.443110255889870408e-02,-1.760085583173133517e-01,-5.810981685399031066e-02,4.517024457454681396e-01
-4.142406934905234484e-01,-4.167164097204681394e-01,-4.120031255713914042e-01,-5.750124275440376791e-03,3.143492711748776570e-03,-9.092515652922935135e-03,1.983767747879028320e-02
-4.022370090811114296e-01,-4.460733454983180635e-01,-3.787812209238772265e-01,-5.074804981508726325e-03,3.245076673308227699e-03,2.287930023320223008e-03,6.020440533757209778e-02
-3.566845304971622554e-01,-4.469914624252058211e-01,-4.361987172460301543e-01,-1.731236204416036761e-03,-1.450037736585661416e-02,-5.457413817615080175e-03,8.958956599235534668e-02
-4.362803377165613283e-01,-3.972728213184821833e-01,-4.036606536927448419e-01,2.748135870162666389e-03,-7.235468541918464204e-03,-1.540861752056392475e-02,4.695962741971015930e-02
-3.380863506071095648e-01,-4.505898013447712236e-01,-4.490668725301670272e-01,7.219268309600346267e-03,-1.146703352642315741e-03,-1.213076265961788788e-02,1.144105568528175354e-01
-4.589228413359697223e-01,-2.888177263997940281e-01,-5.056042374933648054e-01,-1.348095183461436863e-02,-2.115098380944754539e-02,-3.642594321805593671e-02,2.119516283273696899e-01
-4.304049927137888476e-01,-4.231694920988368636e-01,-3.901996887296478866e-01,2.406208534048633345e-04,-4.668225234974497997e-03,-4.825376229856226211e-03,3.890137374401092529e-02
-4.341435101145568187e-01,-3.950577884697635267e-01,-4.138130909067871954e-01,3.152095542248993287e-05,-6.676945954648567765e-03,-2.639315089157482763e-03,3.606988117098808289e-02
-4.480916202727595055e-01,-4.167727799453562754e-01,-3.658282669688740496e-01,-1.428584675009865641e-02,4.082471254189627523e-03,-3.811189280497410264e-02,1.009531617164611816e-01
-4.353941200446213577e-01,-3.988962999973419410e-01,-4.067463322251886892e-01,-1.048004950551368686e-03,-3.489751929229576669e-03,-5.684020388385011349e-03,3.526980429887771606e-02
-4.433891036538620822e-01,-3.529825516087663484e-01,-4.429220676695192482e-01,3.825130831697799109e-03,-1.350676736271329802e-02,-1.802533826709017822e-02,9.847472608089447021e-02
-4.165206281178127634e-01,-4.304654870639332276e-01,-3.881005226729448698e-01,-8.736872829585601297e-03,3.189566968585859537e-03,-1.978972110099949840e-03,4.086249694228172302e-02
-4.274024600992311074e-01,-3.944531050373805137e-01,-3.969086716449975460e-01,6.133710366496108318e-03,5.831055312224468420e-03,6.315097387724372992e-03,3.667823225259780884e-02
-4.469931137292350587e-01,-3.482984901103286512e-01,-4.461759452776190016e-01,4.474423657727253571e-04,-8.875691596850978152e-03,-5.434427375524041905e-03,9.993087500333786011e-02
-4.095781536365561415e-01,-4.041237100619398115e-01,-4.038338163130738567e-01,5.284693922264029932e-03,5.823821235524139980e-03,3.616538504321612987e-03,1.600590161979198456e-02
-4.273690565410186992e-01,-4.209880775139714926e-01,-3.994946946148809630e-01,-3.441413262176186427e-02,2.846645158244188664e-02,-3.905753387183650421e-02,1.058315560221672058e-01
-3.181021088805872088e-01,-5.016340193909513134e-01,-5.218868641693688026e-01,-2.052309022759113977e-01,4.894159553107071264e-02,-1.444642030905743946e-01,4.837002158164978027e-01
-4.222123133725806388e-01,-3.964683425742467904e-01,-3.967359991066483071e-01,4.411574931210205004e-03,1.940284862041935683e-03,1.483224567519147996e-03,2.705943584442138672e-02
-4.155799955845365656e-01,-4.014238540684878509e-01,-3.991558417659205604e-01,3.272425591606721324e-03,1.581880084272562804e-03,8.600743527942741060e-04,1.671822555363178253e-02
-4.231635845665818185e-01,-4.347006337435297962e-01,-3.880065821719255736e-01,-3.011033932553367626e-03,-4.355478074706551142e-03,-2.977961053176140030e-03,4.342166334390640259e-02
-3.936998116107848222e-01,-4.187348085208547621e-01,-4.391423293958340301e-01,2.659009570604109821e-02,-7.060849881120374871e-02,-2.637988842421845614e-02,1.439430266618728638e-01
-4.225057495162177768e-01,-3.972529222538061511e-01,-3.965926186848410806e-01,1.695951746484951773e-03,1.797113754883058329e-03,9.963244508792887223e-05,2.594538964331150055e-02
-3.839369542382444211e-01,-4.471386979797465355e-01,-3.938455546816365116e-01,1.919371409243969887e-03,7.456036573298989965e-03,-1.119896551503376603e-03,6.039860844612121582e-02
-3.823092955803311099e-01,-4.055957391475630280e-01,-4.481150792259496751e-01,1.741361748042161497e-02,-1.543416237283404616e-02,-1.983061752865935418e-02,7.838609069585800171e-02
-4.234140954975144089e-01,-4.306209790207840560e-01,-3.890632448265817778e-01,-7.442558144342745598e-05,-4.560879510860529548e-03,-4.358880273793517245e-03,3.998629376292228699e-02
-4.440528911929564893e-01,-3.422060167226917970e-01,-4.509715862609020576e-01,-3.854334748491201369e-03,-7.025665170830624334e-03,-1.742123095528321300e-02,1.105823069810867310e-01
-3.440464859497706085e-01,-4.295141529338627473e-01,-5.358743161789555343e-01,1.106569325460179595e-02,-1.885140393103834078e-01,-8.213013990496263739e-02,3.936033844947814941e-01
-4.458227508510508308e-01,-3.817990304688723135e-01,-3.984585336683716950e-01,9.197199709020990009e-04,1.069306311498353272e-03,2.924110016510592970e-03,5.780650302767753601e-02
-4.665226568077760483e-01,-3.818227243898952294e-01,-3.795249235833889623e-01,1.731512425767792185e-02,1.582607417630186100e-02,4.943672893905204369e-02,1.278936564922332764e-01
-4.141002337928750276e-01,-4.072552588380418115e-01,-3.978872498565690363e-01,9.652180808342274848e-03,7.701981670362148709e-03,9.101603942115723753e-03,3.007839806377887726e-02
-4.515967580737160203e-01,-4.352716474684041881e-01,-3.355758480608488914e-01,3.092944494911046855e-03,8.260120723432042705e-03,1.266902573508485626e-02,1.120187789201736450e-01
-4.093803177989816522e-01,-4.056055231623970081e-01,-4.245236883785828419e-01,-7.345928033679811377e-04,-2.016469863658820576e-03,2.203613027370095873e-03,1.814163476228713989e-02
-4.498775100812423267e-01,-3.480705342915187961e-01,-4.372442070342321130e-01,-5.865479503997037512e-03,-1.388951306679545722e-02,4.501156866232499873e-03,9.990420937538146973e-02
-4.874238469680097774e-01,-4.647766250415154010e-01,-2.938350784725923814e-01,-8.276972057387461598e-03,-2.912249083603129021e-02,-7.250916587511541632e-03,1.910834163427352905e-01
-2.724270240566406542e-01,-4.935041690152943694e-01,-4.808253758955876589e-01,-1.465035037893106483e-02,-9.116689092643455450e-02,-4.452034030451385016e-02,2.788496911525726318e-01
-3.772028251673621990e-01,-4.268526147270931270e-01,-4.420174247634931497e-01,-8.269411660526115523e-03,-2.690270171619131914e-03,-7.051171477394683855e-03,6.183867529034614563e-02
-4.302575431427462238e-01,-3.982462900719389576e-01,-4.051867681715887737e-01,-1.153548925497845145e-03,-4.871159947021619016e-03,4.678876344364570387e-04,3.043929301202297211e-02
-4.187819261688093819e-01,-4.018964232220648691e-01,-3.637715236160945498e-01,5.243317145599901696e-02,6.658815404606290012e-02,7.246930694220148073e-02,1.992170810699462891e-01
-4.339762770715613893e-01,-3.563003670319191407e-01,-4.352471817724118397e-01,-1.938915854270104044e-02,-1.345724006256639182e-02,4.844670191027820871e-03,8.874347060918807983e-02
-5.527090560578288292e-01,-3.472251808083710034e-01,-3.219273416533003918e-01,5.927857211061032111e-02,6.501048224075629822e-02,1.843763012036077620e-01,4.162531793117523193e-01
-4.343630947085113658e-01,-3.631855873652151123e-01,-4.186031648590011200e-01,5.303096684980653994e-03,9.737526923588942993e-03,6.579949246722270086e-03,6.849506497383117676e-02
-5.015756600196992210e-01,-4.246419862366039299e-01,-2.591205926140144333e-01,3.209022198457272407e-02,6.211176464075924414e-02,1.211197441834614003e-01,3.236096799373626709e-01
-3.988603202484337085e-01,-4.385826162473623335e-01,-3.982312916022914262e-01,-2.399676954142968954e-03,-1.736728266569140602e-02,-2.336827276955861545e-03,5.041595175862312317e-02
-4.000809392745768855e-01,-4.216615690603342514e-01,-4.218847187330945769e-01,-3.483780885746353122e-03,-2.971634146036150528e-03,1.048405653885843124e-03,2.316869795322418213e-02
-4.625467847806912225e-01,-3.059427314706149037e-01,-4.626352645794176155e-01,5.106463029871308873e-03,-1.164609217960254663e-02,4.411678461082630884e-03,1.583736240863800049e-01
-4.414368318483629650e-01,-2.478813647174954726e-01,-5.237076940454804541e-01,1.709276094236197030e-01,-9.545737240247313682e-03,4.340772987833620145e-02,3.920854330062866211e-01
-5.422489073856014974e-01,-4.748521201238835587e-01,-2.081062239134204572e-01,2.359628074911943041e-02,9.710508088661180814e-02,1.777781631545205521e-01,4.673834443092346191e-01
-4.436550917345730705e-01,-3.786972732904758665e-01,-4.055093087198001212e-01,-9.746482752194906944e-04,-6.366100654975997454e-03,9.191341905443680543e-03,5.978817492723464966e-02
-6.356667579456518613e-01,-3.939633773953295504e-01,-2.910599410099667939e-01,-8.732963861861249566e-02,-9.606733126998152905e-02,1.663648994767611966e-01,4.769484102725982666e-01
-4.651918141446325095e-01,-3.306939631779787780e-01,-4.074145315042062010e-01,-9.974117307698734947e-02,-8.032957702753866502e-02,9.529635141796155562e-02,3.001742362976074219e-01
-4.242835234287518631e-01,-4.022849653564508632e-01,-4.056785873805214271e-01,-6.272045934984838214e-03,-6.781182599064966218e-03,9.138210339441977040e-03,3.045140579342842102e-02
-4.119882326855565657e-01,-4.370419929501450640e-01,-3.933697019672585116e-01,-3.124598587902063969e-03,-3.196520891586659106e-03,-2.427578397006569660e-03,3.896699473261833191e-02
-4.022132448393129223e-01,-4.470443371496738427e-01,-3.681229776333751480e-01,4.663050691170517702e-03,1.106512540093729235e-02,3.908485262341646407e-03,7.196283340454101562e-02
-4.307218787386893344e-01,-4.029225390268902363e-01,-3.978182885359477505e-01,-4.275447743525949938e-03,-1.425173426056011933e-03,3.132445346760616076e-03,3.211105614900588989e-02
-4.120281830678447221e-01,-4.014765822479265389e-01,-4.255158314346053627e-01,-5.059363370853988025e-03,-5.667328348357871318e-03,1.961286205510126297e-03,2.490494772791862488e-02
-5.611004310279597007e-01,-2.908525143729456808e-01,-4.752260477542691874e-01,-1.582409118296524142e-01,-1.155884502366152644e-01,7.322144732180274618e-02,4.341517388820648193e-01
-3.961799280293977210e-01,-4.355670017138829619e-01,-4.120411930689592550e-01,-9.803292591637692739e-04,-3.089493808163369572e-03,-3.112699647931555218e-03,3.519626706838607788e-02
-4.429523941324615133e-01,-3.966300265507225475e-01,-3.881882154315064448e-01,-3.234786916601921011e-03,-1.670589090236199691e-03,3.447572496452000913e-03,5.180243402719497681e-02
-3.361440590416569507e-01,-4.504862154699754151e-01,-4.352002505812872513e-01,7.054011141106115296e-03,9.182157917772600791e-03,3.477556488066291945e-03,1.095374524593353271e-01
-4.155546901750573618e-01,-3.740672432396360270e-01,-4.463786273641610070e-01,-3.965225353977207962e-02,-2.112452765796727153e-02,1.395573950697774970e-02,1.029080078005790710e-01
-4.021937953672453103e-01,-4.146923437017605019e-01,-4.231669173822180663e-01,-3.947295282064325860e-03,-2.034886009163220169e-03,1.352436879061932450e-03,1.996509358286857605e-02
-6.001568200415923204e-01,-2.432315176433689496e-01,-4.154784894089000313e-01,4.392052659270042486e-02,-2.095584905916210786e-02,1.901057827171493964e-01,4.594676196575164795e-01
-4.181388343803104091e-01,-3.636440236202101439e-01,-4.440598135783144218e-01,9.042953981377705938e-03,-7.824632237296735848e-03,1.275585908409160047e-03,7.408118247985839844e-02
-4.034840525387662358e-01,-4.092913506049100092e-01,-4.303787554885696309e-01,-5.316688767492612835e-03,1.724717289261347907e-03,-5.813182089102886599e-03,2.821292169392108917e-02
-4.629152557110237098e-01,-3.194140269797588472e-01,-4.354405096772784867e-01,4.908531681064436450e-03,-3.422200292245210912e-03,2.843884198344908895e-02,1.412038356065750122e-01
-4.459115554489948008e-01,-3.925646681471550714e-01,-3.846772327094747923e-01,-5.402143499465485339e-04,1.585388298609848945e-03,7.916293345667983414e-03,5.937416106462478638e-02
-6.059424585427093390e-01,-2.322596119086839384e-01,-4.250542867291883797e-01,5.258920982033182118e-02,-9.932645281454129463e-03,1.681318561314276150e-01,4.451543688774108887e-01
-3.894694126903553433e-01,-4.394393458781553075e-01,-3.916214643771830928e-01,7.529894781613716325e-04,9.618293301185836018e-04,1.903384221672274005e-03,4.908597096800804138e-02
-3.868913743930030846e-01,-3.446932737051223161e-01,-4.754263107903916596e-01,8.532779448143165690e-02,3.239108700692786696e-02,2.418663875410811959e-02,2.002502083778381348e-01
-4.567740717745704115e-01,-3.159874399238440379e-01,-4.644051831995426038e-01,4.178023563662583428e-02,-8.975594566799511773e-03,-2.397674921409191640e-02,1.677991896867752075e-01
-6.069835494014834687e-01,-1.370616179413980396e-01,-5.592372802360785489e-01,-1.477935308925289008e-02,-6.664741689988133710e-02,8.649124078094218293e-02,4.869213998317718506e-01
-4.132878638078624767e-01,-4.269646242517521340e-01,-4.263972963598430255e-01,3.104289204765934770e-02,-5.912450728773327446e-02,-6.765072302355874811e-02,1.651895344257354736e-01
-4.255599851389514909e-01,-4.396856182089492471e-01,-3.716824610851018340e-01,-1.255721245163335875e-04,-1.566340537418197190e-02,-5.419385106385662954e-03,6.846574693918228149e-02
-4.003460339392711509e-01,-4.339614657094372774e-01,-4.059517379665182890e-01,-1.305531405712476980e-04,-4.735519917956174281e-03,-4.016136522528301021e-03,3.299541771411895752e-02
-4.139527333781141683e-01,-4.395996852716442249e-01,-3.874130690992020343e-01,-1.916216117667418010e-03,-9.618709426081633110e-03,-5.768152592446084727e-03,4.930690303444862366e-02
-3.724824921545153433e-01,-4.018558740499822424e-01,-4.476255967940305225e-01,9.150385546935067144e-03,-2.652605478559744503e-03,-4.572292427968601899e-03,6.809618324041366577e-02
-4.692960898567696271e-01,-2.881550661583475170e-01,-4.625436351787936551e-01,1.913111963080039654e-02,-5.190328470839133436e-03,3.438278354525164948e-02,1.906826347112655640e-01
-4.191936761936624900e-01,-2.275585243282860493e-01,-5.942621318596306157e-01,1.088040522359321888e-01,-2.235101770498658033e-02,-2.981612378355866927e-02,3.749705851078033447e-01
-2.658455211673380614e-01,-5.357566049226696325e-01,-5.307723406374061925e-01,6.594329659011277656e-02,-1.560164442674673579e-01,-1.110511079815027780e-01,4.411320984363555908e-01
-4.454377960498677735e-01,-2.050075634739051689e-01,-5.669074949929162610e-01,1.178001204993339296e-01,1.635436242051887742e-02,9.001982491693125144e-02,4.105000495910644531e-01
-4.335175358127729695e-01,-4.333529010566823381e-01,-3.549159569767593725e-01,8.531339472342391525e-03,7.825927516852796556e-03,7.393495429508718450e-03,8.204494416713714600e-02
-3.891336043851564286e-01,-3.930103447996918797e-01,-4.390081673999390866e-01,9.922907209695859543e-03,6.872628240076263974e-03,5.746336528992509844e-03,5.334138125181198120e-02
-4.373428637428595223e-01,-4.104355138860330543e-01,-3.986534678530058162e-01,-2.684979896381772075e-04,-8.824744952284148056e-03,-1.916607585288415336e-02,5.015681311488151550e-02
-4.534815628981763158e-01,-3.229734321355159921e-01,-4.682933287922798060e-01,1.875525131171597087e-03,-1.393693725995177185e-02,-1.205507200558158035e-02,1.421761512756347656e-01
-4.155145714505820709e-01,-4.391196009234618058e-01,-3.818093892052172866e-01,-2.755144277965388289e-03,-1.043876496628496839e-02,-3.866497869160193460e-03,5.369705706834793091e-02
-4.418419532413464523e-01,-2.307707136121045222e-01,-5.663749250696828996e-01,1.557790493532921761e-01,1.325933373737542970e-02,7.082036992286071253e-02,4.179954528808593750e-01
-5.271252390879022087e-01,-1.444424011528633867e-01,-5.195534160699649684e-01,3.796447595790211973e-03,-2.176541142414493285e-02,3.252223717296994637e-02,3.850238919258117676e-01
-3.486517286899983303e-01,-4.401462470236849334e-01,-4.481070142641059295e-01,9.980589524030010137e-03,-3.222803366047966456e-03,-1.163303180038222952e-02,9.949354827404022217e-02
-3.537722014559425698e-01,-3.858613024423347415e-01,-5.727632540171925246e-01,1.320364696875316601e-01,-1.218645304763161935e-01,-1.153951049381924804e-01,4.228018820285797119e-01
-4.244674692274488237e-01,-4.144797792645745771e-01,-4.009977934229645991e-01,-6.630860953037017065e-03,1.028643468025648711e-03,-3.965336290759185686e-03,2.446268126368522644e-02
-3.880536905225396849e-01,-3.936225426838302899e-01,-4.438994646749126471e-01,2.681850788485118722e-03,8.792074271251049383e-04,4.271822550248223493e-04,5.350896343588829041e-02
-4.014306020978258283e-01,-4.162357531829297130e-01,-4.229562308005458404e-01,-3.380873516014909139e-03,-2.900517389412623701e-03,2.244471444768640373e-03,2.094034105539321899e-02
-4.597433785466868983e-01,-4.639840922178420923e-01,-3.233193807602244285e-01,-1.697842658809246841e-02,-1.634355516691744087e-02,-6.851902709441764876e-03,1.449655443429946899e-01
-3.973657631011480729e-01,-4.101268702579159986e-01,-4.293227832064209215e-01,1.239028481601460625e-03,-1.389750724859962344e-03,-5.041876536741010835e-03,2.937603369355201721e-02
-3.129441372827839185e-01,-4.591027214053764460e-01,-4.533420556360450160e-01,4.998903561477727880e-03,8.476775057098135877e-03,-8.942665616214514127e-03,1.452032923698425293e-01
-4.249467080542060349e-01,-4.075520568719769310e-01,-4.077121899698444851e-01,-1.743544055932534946e-03,3.031660160438030306e-03,-2.919135382748621645e-03,1.902815885841846466e-02
-4.150552844754962778e-01,-4.044861310571257751e-01,-4.197994778946371186e-01,-2.675515005687835457e-03,-5.091725950343390858e-03,1.689641601861638625e-03,1.709307730197906494e-02
-4.110533782320705543e-01,-4.096486240266807299e-01,-4.163774214673618412e-01,3.225704469319578562e-04,-1.306400036521468020e-03,-2.509823671217583578e-04,6.589303258806467056e-03
-4.212464832493422184e-01,-4.147104479632334195e-01,-4.024960989396804689e-01,-5.347417213692675676e-03,1.836950817048026196e-03,-4.045670963363963597e-03,2.041454426944255829e-02
-4.536198519320593370e-01,-4.652061642005963504e-01,-3.096278291671922811e-01,-4.439930698107971523e-03,8.309602672085148953e-03,6.944501838797659428e-03,1.514834910631179810e-01
-3.978468209801662714e-01,-4.468249227257283240e-01,-3.800015787714321469e-01,9.664707950526175810e-04,3.466077426840134985e-03,-3.536065502995931818e-04,6.025405973196029663e-02
-4.551494693221262433e-01,-4.538334942747858092e-01,-3.149580414004451989e-01,-3.756951644037392988e-03,8.913423612352920286e-03,1.098128895531588246e-02,1.418215036392211914e-01
-4.133857717060976933e-01,-4.131191541968873837e-01,-4.157243997935761159e-01,-8.950930035378340185e-03,4.076020675351690881e-03,-7.048774246095337523e-03,2.110494486987590790e-02
-4.023099647016169511e-01,-5.288853069241438165e-01,-2.797514257516207636e-01,7.757212818773463747e-02,1.875771842549824320e-01,1.142233719716204965e-01,4.574971497058868408e-01
-4.105764143844431446e-01,-4.101358738614920285e-01,-3.974895854505724468e-01,3.931332874630163489e-03,1.806642446562974113e-03,1.781693375799705365e-03,1.521102152764797211e-02
-2.582887784046208335e-01,-4.954291350115334058e-01,-4.872076799445973494e-01,1.692504737828500957e-02,3.017991042775923158e-02,-1.164093160248535867e-02,2.415613532066345215e-01
-4.201971533439654016e-01,-4.681875882911857301e-01,-3.774289064787262893e-01,-5.319922396888324134e-02,-8.082584330023323549e-02,4.873479410764111099e-03,1.853236258029937744e-01
-4.252394037707165064e-01,-4.106697460335849703e-01,-4.012700527556827823e-01,-8.849327774536685370e-03,6.020682474276307754e-03,-9.966046697382059324e-03,3.285153582692146301e-02
-4.379340942253662217e-01,-4.562661926461590856e-01,-3.516376952175983006e-01,-1.044021346671027486e-02,-1.641759303884317636e-02,-3.360755351409399835e-03,1.026382893323898315e-01
-3.783947666036784341e-01,-3.592359627462927141e-01,-5.029494690007633162e-01,-1.431281695370160145e-01,2.014824359297093248e-02,-7.252356478148222138e-03,2.847804725170135498e-01
-2.550024540879706203e-01,-5.343486299214913471e-01,-5.262354493988946613e-01,-1.464447091292341019e-01,3.807116320360222437e-03,-1.367748922931527888e-01,4.430998563766479492e-01
-4.175663976616175166e-01,-4.150356037666498299e-01,-4.054230401223130054e-01,-4.639430903020093540e-03,2.161407624009574653e-03,-3.068003539024586387e-03,1.516442093998193741e-02
-4.098854768474247678e-01,-4.044406789477868469e-01,-4.269946497480702208e-01,-6.157356602919480948e-03,-5.583494823407096457e-03,1.131002679078759246e-03,2.503254823386669159e-02
-3.393801860155935546e-01,-5.133050783616190937e-01,-2.984210481009174076e-01,5.428180184026986516e-02,1.797630737387370670e-01,6.437962732438416713e-02,3.965720236301422119e-01
-3.376228084234948468e-01,-4.520545071749838550e-01,-4.369602629733460031e-01,-4.497750783366540267e-04,1.891239839700249725e-02,-8.566241832957339000e-03,1.135296225547790527e-01
-3.522789220437435032e-01,-4.841575925634117872e-01,-4.324815897859825564e-01,-6.015669460139511787e-02,4.888881849053489798e-02,-5.437399778334435496e-02,2.003593295812606812e-01
-4.446520830128515289e-01,-4.132294060422333493e-01,-3.490736909391765064e-01,1.168058280979579824e-02,8.924578374930419028e-03,1.906822852133921095e-02,9.411869943141937256e-02
-2.301833709834399666e-01,-6.271524155614205398e-01,-4.377899538199674367e-01,-7.319160344959879660e-02,1.639243351589968478e-01,-9.350721519984273034e-02,4.911078512668609619e-01
-3.825840098315378413e-01,-4.471407453819196132e-01,-3.998222939247512708e-01,-3.792239722047651036e-03,3.787713288693686856e-03,-3.937114926041740057e-03,5.903024226427078247e-02
-4.964424903554504054e-01,-3.011786383812077861e-01,-5.215689279193675976e-01,-1.812684146567837828e-01,-1.290723046882292779e-01,4.521189292301124735e-02,4.453668594360351562e-01
-5.262755015436394457e-01,-3.919658300966707976e-01,-4.069207239235011486e-01,-1.660379162463805069e-01,-1.723066804213273795e-01,8.615223703726195004e-02,4.585796892642974854e-01
-4.466415045270377693e-01,-3.913968915869957543e-01,-3.835533262893951467e-01,4.839360526146052957e-03,4.042015990592564938e-03,1.830721547729428217e-02,6.834864616394042969e-02
-4.324932749220790629e-01,-4.348884957753271219e-01,-3.489225617145486069e-01,1.026746348451909943e-02,1.671400189695068650e-02,1.563922665120863822e-02,9.527887403964996338e-02
-4.443025641859775776e-01,-3.826573629800581466e-01,-4.021735943616711051e-01,-2.320434006136446944e-03,-4.013523881189902907e-03,4.125760434658086451e-03,5.561902746558189392e-02
-4.428003221322857064e-01,-4.210629989071071888e-01,-3.515196540620473264e-01,1.063395908947667966e-02,1.231393683075520176e-02,1.683196676232294464e-02,9.200305491685867310e-02
-2.228480633602597238e-01,-5.517362996843006018e-01,-5.519665404586869828e-01,-1.704700110706157956e-01,-4.310015430093139428e-03,-1.006859528989988567e-01,4.752810001373291016e-01
-4.223899659242147386e-01,-3.873331185401291954e-01,-4.249626764145070235e-01,-6.495195175216877947e-03,-1.189076990767759523e-02,5.251864655657401820e-03,4.426367208361625671e-02
-4.045017810002639047e-01,-4.158307251868131327e-01,-4.171875284084066160e-01,-3.032587990744351793e-03,8.831383782031274532e-04,-5.182014390820444995e-03,1.600145176053047180e-02
-4.506835607198991234e-01,-3.218954094579195568e-01,-4.757512044063414436e-01,-3.130051529888521616e-02,-1.442980791445640405e-02,1.157708661015265615e-02,1.562341302633285522e-01
-3.972918824311637009e-01,-4.098305473785977537e-01,-4.600933268476392612e-01,-7.333350170474708940e-02,1.054998159734678483e-02,-4.732753617456450512e-02,1.627906411886215210e-01
-5.090765721825687429e-01,-1.906185652641317341e-01,-5.090233156863497310e-01,-2.653270094015296524e-02,-2.525898769283965034e-02,7.406224587441300779e-03,3.249447643756866455e-01
-4.098571666944293423e-01,-4.261593565804442929e-01,-3.955579609173826561e-01,-8.572683250529084670e-03,6.567138822166490413e-03,-4.365329132900857244e-03,3.332206606864929199e-02
-3.707482775669212471e-01,-4.570035188569011031e-01,-4.053781692698027461e-01,-2.810818380596994889e-02,4.328240550493733796e-02,-2.081581052388337821e-02,1.222390681505203247e-01
-4.445580337045571540e-01,-4.471132184375675722e-01,-3.441938081631200630e-01,-9.419299078787081794e-03,2.281095990633286250e-03,-3.976467678960585693e-03,1.032723188400268555e-01
-4.373668510900974304e-01,-4.098009173109435355e-01,-3.826761635273285833e-01,-1.202833592736575995e-02,-7.890624289827615628e-03,6.580016816501423928e-03,5.471809953451156616e-02
-4.344665939873567084e-01,-4.127697588262899120e-01,-3.943593345733576450e-01,-4.579559492307886705e-03,6.471098876210071727e-04,-2.809697744208037098e-03,3.601389750838279724e-02
-4.367338932131205054e-01,-3.939184978936776660e-01,-3.951931582508605434e-01,-5.053639294122699681e-03,-6.468236037498665235e-03,1.426831449271441857e-02,5.092243477702140808e-02
-4.502754726133903485e-01,-3.678780845592839466e-01,-4.110819404943577005e-01,4.359273728660188925e-03,-4.494009758361572414e-04,1.702242048333647145e-02,7.760748267173767090e-02
-5.310943622421864241e-01,-4.803422749489830168e-01,-3.486370982809336994e-01,-1.442738846798651831e-01,8.359813663656758681e-03,-2.181494844921863796e-01,4.816933274269104004e-01
-4.245247295405774057e-01,-3.886845942523103892e-01,-4.076700234906436293e-01,9.700094857666740830e-03,9.842632440016232248e-03,1.316483348335158350e-02,4.535821452736854553e-02
-3.337102331636143671e-01,-4.703070502196616820e-01,-4.166853824314026289e-01,2.743572751462834691e-02,9.522243182589212873e-02,-2.432285885063530453e-03,2.090149819850921631e-01
-4.194607066816081753e-01,-4.392701317604574829e-01,-3.791645775308742916e-01,-1.588957392098184346e-02,1.455143689899127471e-02,-1.386382032244689970e-02,6.916444003582000732e-02
-4.458533227197640225e-01,-3.432691596406085566e-01,-4.469330003904546933e-01,4.555969880277836725e-03,-1.145103379465422719e-02,-3.673234101392943568e-03,1.055062115192413330e-01
-4.391325244674583184e-01,-3.619343519485330729e-01,-3.905227005157363429e-01,8.316527699676153074e-02,6.411992783275953511e-02,8.906668538945537728e-02,2.478951215744018555e-01
-4.309641712266908953e-01,-4.039941279844926347e-01,-4.099403268748597617e-01,-2.565489446106569878e-03,9.141451653607718386e-04,-2.689716267187654795e-03,2.542296610772609711e-02
-4.161020466608221779e-01,-4.490031324088665787e-01,-4.683513882672818429e-01,6.460445096765582429e-02,-1.718675864909269546e-01,-1.721146868552080877e-01,4.382926225662231445e-01
-4.450207230677510339e-01,-3.698485544334432773e-01,-4.104237604340185142e-01,5.263158644729310290e-03,4.616122031496530491e-03,1.666025306121353758e-02,7.229658961296081543e-02
-4.302227436856615461e-01,-4.041576750542477670e-01,-3.795147233282450405e-01,9.455911567156615946e-03,5.162818284943135501e-03,7.679551466967228512e-03,4.953904077410697937e-02
-3.714427978856428836e-01,-4.496369197384475491e-01,-4.080205831739298072e-01,-1.973716746234371286e-05,-4.345430415803636787e-02,-6.959184403128962706e-03,1.019912213087081909e-01
-5.466092078014963551e-01,-5.468851257477923555e-01,-2.368984009487067888e-01,-8.149908868169312981e-02,6.013060358646631250e-03,-1.512542161403238328e-01,4.297378361225128174e-01
-4.620191330937865604e-01,-3.826578664178162392e-01,-3.717935877922249888e-01,1.361854436360020182e-02,1.378181844152897260e-02,3.779647114816871156e-02,1.126515641808509827e-01
-4.450570474547149158e-01,-4.314289019928377322e-01,-3.563322197025494686e-01,-9.466625083605911470e-03,-1.592743962674546829e-03,7.104435906513583039e-03,8.530268073081970215e-02
-4.134938716141657866e-01,-3.591972021560065342e-01,-4.494309647857931966e-01,7.888637868851250054e-03,5.727820236433308482e-03,4.135763997111860726e-03,8.079168945550918579e-02
-4.616775281159413713e-01,-4.549077852026492952e-01,-3.194296657385342075e-01,-7.042135047785257236e-03,1.251628922773074821e-03,1.398923394863740496e-02,1.416258215904235840e-01
-4.086728492379431699e-01,-4.037504044234879186e-01,-4.030330486108663068e-01,2.635528488205745624e-03,3.868370575596823992e-03,2.930719533156670754e-03,1.094415225088596344e-02
-4.217360801684595373e-01,-3.952956249213964157e-01,-3.998589094369709440e-01,2.839984620172232837e-03,5.015388842999912028e-03,7.905850816364355747e-04,2.647262625396251678e-02
-4.074471339470810416e-01,-4.641999962612013420e-01,-3.749142747770864981e-01,-8.930547848422905333e-03,-3.633814367609531498e-02,-1.524976539114511996e-02,1.049948558211326599e-01
-4.383967163924328281e-01,-4.520382500478405952e-01,-3.589871420655946777e-01,-1.157228695163206936e-02,-3.638103939295075223e-02,-2.553089861022272630e-02,1.179118901491165161e-01
-4.677870049115551154e-01,-4.007311871899006395e-01,-3.273953503597343273e-01,2.872874503549268169e-02,3.501602138314379581e-02,7.025930940237229416e-02,1.890918314456939697e-01
-4.610885306181247145e-01,-4.397227189109056966e-01,-3.288499643667961991e-01,-1.760259443563270965e-02,-1.434409150721630000e-02,1.555428099369031945e-02,1.318740695714950562e-01
-4.267650642970121644e-01,-3.925328493976787403e-01,-3.950387014791584828e-01,2.762488221498239031e-03,6.663173390320178621e-03,3.752498746556119820e-03,3.592595830559730530e-02
-3.462408995984833648e-01,-4.323373116189981324e-01,-4.690654367098116562e-01,1.326548205281012360e-01,-8.627130116730660769e-02,-1.154113211804356498e-01,3.563750088214874268e-01
-5.255467033658203224e-01,-4.612595801339259838e-01,-1.970902217949434543e-01,-1.890452317394755721e-02,-2.499595326133722747e-02,1.034708694865397738e-01,3.549171388149261475e-01
-4.345802890772391125e-01,-5.692565974823080577e-01,-2.953437465462822598e-01,-8.305337396961857965e-02,-1.066367165576866671e-01,-1.031724429435589875e-02,3.337715864181518555e-01
-4.345025297254370145e-01,-3.960444843150767169e-01,-4.154111308580953899e-01,9.078395783659085061e-03,-9.153659386556170507e-03,-1.553007105235748066e-02,4.828513786196708679e-02
-4.508731981827703295e-01,-4.593183254176119723e-01,-4.259052223650340863e-01,-1.523386854651259115e-01,-1.602809122826873156e-01,4.454495047041412588e-03,3.842606544494628906e-01
-4.049862155255260499e-01,-4.346664178473383933e-01,-4.047510940053641870e-01,-5.996740722891795439e-03,-9.020255177529698867e-03,-1.020541904556390971e-03,3.525691851973533630e-02
-4.273545787010810670e-01,-4.454950091818905000e-01,-3.714557594032574239e-01,-8.120554058486516291e-03,-6.269071121717040285e-03,-1.688604085704658664e-03,6.922477483749389648e-02
-3.621341800931655031e-01,-4.476155563519365610e-01,-4.354817114324922023e-01,-7.338026087165693163e-03,-1.895303842453042661e-02,-7.291161395777520128e-03,8.840675652027130127e-02
-4.042725049026378858e-01,-4.056923702865792292e-01,-4.334487921819308864e-01,-7.254904019313436654e-03,-1.149353611721389999e-03,-5.609979866440684138e-03,3.268218040466308594e-02
-1.711338201907612877e-01,-5.075438208286742192e-01,-5.221429971186175578e-01,-2.715664204472621052e-02,1.209468531898595829e-02,-3.436551428449054202e-02,3.528319597244262695e-01
-4.693255249189153266e-01,-4.864685954731303719e-01,-3.980641889140680845e-01,-1.334948377126692620e-01,-1.890130066513284746e-01,5.024235482751560067e-02,4.180991947650909424e-01
-4.282344839829908545e-01,-3.965449205689633994e-01,-3.933363158036518592e-01,5.208218187444239519e-03,5.906289766244751140e-03,7.082299079676431484e-03,3.811442106962203979e-02
-3.214976087454615161e-01,-4.615312011127912784e-01,-4.457725676073867604e-01,-7.171533259055479226e-03,-2.840966702167342997e-02,-1.236763703417585909e-02,1.438245475292205811e-01
-4.700977965502914913e-01,-4.226721852584170436e-01,-3.493103692533014448e-01,-8.584634483786431070e-02,-9.353541543336917063e-02,1.017373599834136139e-01,3.008608520030975342e-01
-4.154413805229763001e-01,-4.457858160877098963e-01,-3.798904248613718670e-01,-6.660496503297664087e-03,-1.085885055719595406e-02,-4.357816359275572433e-03,6.170276552438735962e-02
-4.087957565207330779e-01,-5.457862009898274414e-01,-3.885710862204309057e-01,-1.048057527402314337e-01,-2.315215589248668659e-01,-1.753166349068042973e-02,4.654326140880584717e-01
-4.343833308542490168e-01,-3.880842823371998263e-01,-3.936424091167384232e-01,3.631326208370973512e-03,5.346792336230340829e-03,5.841851784682455632e-03,4.631268233060836792e-02
-4.145289650807835735e-01,-3.975158053355452026e-01,-4.278430160430377049e-01,-6.372020285080342086e-03,3.235260271451370715e-03,-6.063752322862509675e-03,3.093123994767665863e-02
-4.165037124184475803e-01,-4.455513856701510123e-01,-3.711049299085559250e-01,-1.025829570456001684e-02,6.643150964663794601e-03,-9.812993732258600867e-04,6.837051361799240112e-02
-4.052218581956117394e-01,-4.138717164638221480e-01,-4.207907727388783825e-01,-1.129437315159348984e-03,6.591511943130917315e-04,-1.723862176391751950e-03,1.402097288519144058e-02
-5.262408076038663785e-01,-2.505445272795955303e-01,-5.714329034618416125e-01,-1.767079035620901240e-01,-6.016901169375711567e-02,-1.012621144941480283e-01,4.751947820186614990e-01
-5.703598434774412862e-01,-2.696663875940157884e-01,-4.600959051109274056e-01,-1.505327873396034577e-01,-1.191828799322415811e-01,4.305489018614375163e-02,4.307833015918731689e-01
-3.284271377532503311e-01,-4.637910976776410399e-01,-4.127249525260122676e-01,-1.198432723291330965e-01,8.923038390913701212e-02,-9.332437449887115433e-02,3.272924721240997314e-01
-3.440289708198204233e-01,-4.547870331030244850e-01,-4.315343274031565590e-01,-8.404089920434494251e-03,9.192545750782760497e-03,-1.184356036165014163e-02,1.054458022117614746e-01
-5.111485204989344444e-01,-3.192160168369778672e-01,-3.957926306881598411e-01,-9.659454533903209794e-02,-8.514581989316925836e-02,9.989301857116898720e-02,3.281483054161071777e-01
-4.023030631035241500e-01,-3.869762511520473680e-01,-4.295550142357461576e-01,2.801972411966381811e-03,7.424738488991331972e-03,1.925524815580794162e-03,3.994147852063179016e-02
-3.699467276213876388e-01,-4.140479719325114161e-01,-4.349301551289078693e-01,6.028213071533655015e-03,4.017790519017703198e-03,1.022173256267635937e-02,6.142322719097137451e-02
-4.225226333266696166e-01,-3.931529492131979886e-01,-4.268066688183137503e-01,-4.418441846166054274e-03,2.279165260558437336e-03,-6.708176568068897200e-03,3.486979380249977112e-02
-4.591703538588209343e-01,-4.563837102450709060e-01,-2.912069211050744011e-01,6.017776021223374822e-02,1.676332279946320947e-01,9.131336780522890384e-02,3.846200704574584961e-01
-4.149632204152839954e-01,-4.619622060717358814e-01,-3.376113498984085748e-01,-9.137934495111065328e-03,4.938327694239603299e-02,-6.475944367775772481e-03,1.397144198417663574e-01
-3.090999151238040810e-01,-5.181067364600645542e-01,-3.640822728624070748e-01,1.120873477882296937e-02,1.309201016803236695e-01,-3.268486655507060225e-03,2.950328886508941650e-01
-4.058086654620163825e-01,-4.114782019208016450e-01,-4.210345448159713011e-01,-6.779229453368645257e-04,6.080704243328914670e-04,-3.377194601100146683e-03,1.464075408875942230e-02
-4.073421085248546403e-01,-4.172234135863385207e-01,-4.132489991832047904e-01,-1.256979349162122908e-03,8.362704307662633318e-04,-3.131885712308080192e-03,1.050846930593252182e-02
-3.798191211617009677e-01,-5.419342411399106219e-01,-2.708724069575841331e-01,-2.638117310989101377e-02,1.427857157533979626e-01,-8.090464330332853421e-03,3.453406393527984619e-01
-5.974307169133548090e-01,-1.549287947015821065e-01,-5.801504126221016522e-01,-8.570657567210048650e-03,-8.869279276019316482e-02,-8.704377595417459035e-02,4.847777485847473145e-01
-5.907904218769187699e-01,-1.635529356931335054e-01,-5.842972918276514438e-01,-7.925247165374489644e-02,-7.204417926429362851e-02,-6.820127389962671316e-02,4.776694774627685547e-01
-4.402266697980615207e-01,-5.282010245101103063e-01,-2.343172175927569767e-01,-1.999042014462045977e-02,1.073392990471563196e-01,-3.112280213233529613e-03,3.225616514682769775e-01
-4.601312796866930399e-01,-3.188353019857644854e-01,-4.553834296703912488e-01,8.191167498459083970e-04,-9.833956877559420565e-03,6.059185325466703853e-04,1.400338411331176758e-01
-4.669812141622196044e-01,-2.812439672065349949e-01,-4.630404022855671986e-01,3.264721668764408724e-02,9.428124678275846479e-03,4.802981745683745224e-02,2.101587057113647461e-01
-5.345818330622176262e-01,-1.808795832251678393e-01,-5.546872087629646231e-01,1.133913190752997430e-01,-3.507872191768498637e-03,9.369505193606296467e-02,4.444848597049713135e-01
-4.214317254092430631e-01,-4.104368044935603477e-01,-4.079759864938732883e-01,-2.082017935207525379e-03,2.232882182961509060e-03,-1.923366083911805160e-03,1.389460731297731400e-02
-3.948639203745424320e-01,-4.636509216207294060e-01,-3.849693973997385665e-01,-2.777263401208262747e-02,3.803530686318561116e-02,-3.269869209407173100e-02,1.239830330014228821e-01
-4.427479514345236122e-01,-3.947582944826378837e-01,-4.155859042095693678e-01,-2.006130647982367048e-03,-1.163171644671032179e-02,-2.187334159280171844e-02,5.992144718766212463e-02
-4.591936125369989741e-01,-3.236750382420856553e-01,-4.777206093676501508e-01,-4.216597576186540547e-02,-1.031601925150940451e-02,-2.746456500155427735e-02,1.706908345222473145e-01
-4.603550975348409402e-01,-3.142975009767943195e-01,-4.534725583190014619e-01,4.023648799765239606e-03,-9.059777078759772770e-03,9.140738798516387376e-03,1.446388959884643555e-01
-3.249052888572202535e-01,-4.808829321856249450e-01,-4.213033324477952202e-01,-1.573438847443190888e-02,3.820213356906921459e-02,-1.737715283444124861e-02,1.568836718797683716e-01
-2.918090338790516047e-01,-4.680023017225609094e-01,-4.469725628371900017e-01,3.101239924661404121e-02,5.433406635333837276e-02,-2.289064258009133206e-04,1.988040655851364136e-01
-4.396810980814348513e-01,-4.147853459728751968e-01,-3.821397244728481635e-01,-4.657163506601762898e-03,-3.535768708505976116e-04,-1.049104488354555241e-02,5.379499122500419617e-02
-3.440233484553978371e-01,-4.549874809454115265e-01,-4.314896996056674094e-01,-4.747678774406492350e-04,9.153997541133957611e-03,-5.603743875372648939e-03,1.029759347438812256e-01
-5.617033824387689389e-01,-2.227940253063268872e-01,-5.546141540390547853e-01,-1.162693803813115712e-01,-5.665278727581014862e-02,-9.992623808321332568e-02,4.389160275459289551e-01
-4.307804647114030772e-01,-2.210850337804960708e-01,-5.623101758457825783e-01,1.366573636790580915e-01,3.368295811277312313e-02,8.592437903039447378e-02,4.128338098526000977e-01
-4.565602913601898849e-01,-2.966593626389865124e-01,-4.842998352183598421e-01,-9.092596544151347604e-02,-3.430118833793377887e-03,-7.097410271375889645e-02,2.659384012222290039e-01
-3.642110634247646139e-01,-4.472849825474360941e-01,-4.178355450376846081e-01,-1.220890959601823216e-05,5.343124015614618416e-03,-1.186785865980393394e-02,7.635607570409774780e-02
-4.304120528123486777e-01,-4.168558659718334947e-01,-3.894185441289707006e-01,-7.024291494738897634e-03,1.285373087452262907e-03,-1.841833885501128554e-03,3.836245462298393250e-02
-3.217720901091889463e-01,-4.586486512177433417e-01,-4.529692756272113430e-01,7.086631682196761241e-03,-9.375272493482860944e-03,-1.194067651112872344e-02,1.372303217649459839e-01
-3.699974348477340635e-01,-4.427769845281525063e-01,-4.309615374640756724e-01,-1.609892920223551793e-02,-3.254240835996938946e-02,-5.884177766726860805e-03,9.292452037334442139e-02
-4.092207039127054857e-01,-4.167001138226765211e-01,-4.134860930898570097e-01,-2.259465882131267769e-03,2.791005019678991124e-03,-3.739059648485224159e-03,1.108417380601167679e-02
-3.405616365530834133e-01,-4.951133212612671697e-01,-4.111896705908522631e-01,9.128444713113760198e-03,-1.199355024199895564e-01,-6.646138082812132197e-02,2.731552124023437500e-01
-4.509625002470796229e-01,-3.692410436112057992e-01,-4.179586788159347366e-01,-2.318654478685841860e-02,-2.058574395360541695e-02,2.708271157489218137e-02,1.007725894451141357e-01
-3.931063682906961176e-01,-4.390714368089874697e-01,-3.957544488078939549e-01,6.870332042965938361e-04,-1.263286427245367089e-03,-1.066159833661047864e-03,4.480730369687080383e-02
-4.013298765890863096e-01,-4.134580312502453281e-01,-4.206088787795100314e-01,3.671563883409901304e-03,-2.663143156561041669e-03,-1.071972172977214352e-02,2.629465237259864807e-02
-3.996413415736523866e-01,-4.046616206878608235e-01,-4.381800673493077558e-01,-5.110477896455817987e-03,-8.683687596876961097e-04,-2.667664135187105580e-03,3.766860440373420715e-02
-3.917222650126005457e-01,-4.402138039612755183e-01,-3.949703764846280718e-01,-6.750945927135620396e-04,4.792433392155240161e-03,-3.907525351259873853e-03,4.817208275198936462e-02
-3.642485677722793747e-01,-4.472228079075480922e-01,-4.193424875289085141e-01,-1.228759122956369102e-03,6.787564824616346831e-03,-1.062863149478686549e-02,7.635662704706192017e-02
-4.317492044771624737e-01,-3.897762104875273081e-01,-3.897639524185502191e-01,1.006568222396471250e-02,9.327982403389646626e-03,1.438782648657426465e-02,5.429791286587715149e-02
-4.421478629484700829e-01,-4.190425842772442788e-01,-3.730564432993978552e-01,-1.400636514205001737e-02,-1.852644084513243791e-02,2.533939236984556961e-02,8.517967909574508667e-02
-4.184053058852509333e-01,-4.512223757504556509e-01,-3.664304107549937739e-01,-6.127930169233872758e-03,2.608618336230465740e-02,-7.095593924823750433e-03,8.825631439685821533e-02
-4.333087516714501652e-01,-3.950733361111070652e-01,-3.908675920833976081e-01,1.801528000265792970e-03,1.814062701683639110e-03,1.944901256224095942e-03,4.088276624679565430e-02
-3.516215881195473014e-01,-4.574974147933583701e-01,-4.155312995578244739e-01,-2.278575602334188734e-03,1.985668390498415356e-02,-4.386577437691040540e-03,9.891316294670104980e-02
-4.066991583187180015e-01,-4.155389107725732667e-01,-4.175579696149269715e-01,-4.729087189852451342e-03,2.844933401617030441e-03,-5.048360068743855227e-03,1.636756956577301025e-02
-4.050063136420246623e-01,-5.313457878114721256e-01,-4.127189992465801760e-01,-1.632021781273126360e-01,7.755367461816259356e-02,-1.869662039057283787e-01,4.667594432830810547e-01
-3.845200792871705242e-01,-4.202104825393354615e-01,-4.311406950275754046e-01,-9.498660127847726245e-03,2.861474162027332659e-03,-1.069598460001900710e-02,4.921207204461097717e-02
-3.349543381344730064e-01,-4.468002591050230232e-01,-4.474780204086325486e-01,-3.576351741899291142e-02,-2.746926147017917860e-02,1.714066949846959967e-03,1.367309689521789551e-01
-4.013644663693521908e-01,-4.075849113220533781e-01,-4.284720074927230171e-01,-7.759577513960210469e-03,-4.363330550562277525e-03,5.018236476787084344e-03,3.030163235962390900e-02
-4.112561130251178865e-01,-3.378172335316157460e-01,-5.312426416019359054e-01,-1.257035139978329163e-01,-2.918725663846851587e-02,2.118591098074800415e-03,2.803122997283935547e-01
-4.454528252035570568e-01,-3.378364786859138769e-01,-4.500682288886861948e-01,-1.414207894071210737e-03,-4.787255460060192876e-03,4.215420845011150566e-03,1.105772852897644043e-01
-3.526769154256764183e-01,-4.531475228603805694e-01,-4.150348197373160408e-01,1.195498235649393969e-02,3.608270736645904225e-02,-1.522942812968081047e-05,1.097832694649696350e-01
-4.377609777803849189e-01,-3.184395937129155807e-01,-4.606127443181949332e-01,2.125276173828096957e-02,6.403372205982338014e-03,5.603980831901274155e-03,1.380534768104553223e-01
-4.438027092014925068e-01,-3.233612423224346277e-01,-4.604683884029026064e-01,1.409724102934821303e-02,-7.820064475780963073e-03,2.545216098322103816e-03,1.326281279325485229e-01
-3.774762712953267374e-01,-3.924497963003783507e-01,-4.556865505797584315e-01,4.746876101913051482e-02,-2.778261364483147755e-02,-3.218931876184640689e-02,1.317341923713684082e-01
-3.171300595821088253e-01,-4.565791966276542824e-01,-4.574478764269729880e-01,1.882781977400078011e-03,3.634104286629302738e-03,-8.630473314949007463e-03,1.408604383468627930e-01
-3.892089676828716094e-01,-4.417633032199125842e-01,-3.941222820937761440e-01,-2.557630280028377629e-03,2.464457489261400250e-03,-1.969420439645807545e-03,5.076774209737777710e-02
-4.168299079833999166e-01,-3.496890177386715592e-01,-4.591552611918329196e-01,4.060082304432240108e-02,4.442813488595268620e-04,1.265292506014081830e-02,1.206948980689048767e-01
-4.369886888244812750e-01,-4.152414924480806180e-01,-3.912888045136464488e-01,-5.737793644859785942e-03,-4.248154794545739069e-04,-2.069639096657898206e-02,5.433144420385360718e-02
-4.428185637732649504e-01,-4.509729450915724858e-01,-3.479727748144433863e-01,-6.861420790616070894e-03,-6.062434635714847309e-03,-2.078354337807107946e-02,1.066910997033119202e-01
-4.064022091762979905e-01,-4.206433584637428447e-01,-4.210733691215161056e-01,6.001755921783554978e-03,-3.222680748411597268e-02,-2.559405413666436882e-02,7.347142696380615234e-02
-5.465815057260750010e-01,-4.387955003968623258e-01,-2.350804751725767416e-01,1.045351256690494300e-02,8.501883182990793708e-02,1.220319264024388312e-01,3.765143752098083496e-01
-3.941937305556432736e-01,-4.380152102879963927e-01,-3.986451690999798236e-01,-1.779659951212811213e-04,1.728952023987644299e-03,-6.812915315745611631e-05,4.188252240419387817e-02
-4.075824803454661249e-01,-4.129809080842126723e-01,-4.173347426605896748e-01,-2.269530910755338839e-03,2.068609938483280137e-03,-1.688878755809031457e-03,1.041390653699636459e-02
-4.217388265405863090e-01,-4.214038921193242193e-01,-3.990124474244226560e-01,2.514823861701057095e-03,-4.066445263137681912e-03,-3.959968008203830318e-03,2.499227225780487061e-02
-4.264940707619706561e-01,-3.887488305265247579e-01,-4.219498593343423143e-01,3.815774335543319334e-03,-1.172829002643691401e-02,-6.427327931607290483e-03,4.305927455425262451e-02
-4.439298273638895287e-01,-4.677423966185588755e-01,-3.188200143283288490e-01,2.313115322235496582e-02,-1.076658159158324773e-01,-8.211170090867779547e-02,2.753300070762634277e-01
-2.524949576939148344e-01,-4.485213030624812802e-01,-5.821462015922878042e-01,1.440642405950733618e-01,-6.682434413095560133e-02,-8.740874414755692157e-02,4.255076944828033447e-01
-3.030971650676959062e-01,-5.919037755660830902e-01,-3.580446400837821175e-01,-9.167048745455945447e-02,1.443319732993510740e-01,-3.905773198487943326e-02,4.035361111164093018e-01
-4.837063860164831919e-01,-3.228169435514943730e-01,-4.738879770461800200e-01,-2.023897398313612844e-02,-3.353286636892705008e-02,-6.051175223143068910e-02,1.999734044075012207e-01
-4.967210000869246578e-01,-2.562096788390742508e-01,-4.999862729965418584e-01,1.802715848984883310e-02,-2.796639782223645995e-02,6.133452463392701122e-03,2.491502463817596436e-01
-2.669064052978156187e-01,-5.516463537136533368e-01,-5.021348377994973022e-01,2.267568880334960499e-02,-1.807797716096364027e-01,-1.124170424379148936e-01,4.548951983451843262e-01
-4.800393255773669487e-01,-4.813123909434886549e-01,-2.808355111241286894e-01,-1.873843526392193412e-02,-6.532845462712268125e-02,-9.365849826094348185e-02,2.830369770526885986e-01
-4.464081822743952710e-01,-4.149597670365761659e-01,-3.594301299602429833e-01,4.806956056375964043e-03,4.560729770603230877e-03,7.871505130601572087e-03,7.833559811115264893e-02
-6.377649308349329083e-01,-3.201091897042523393e-01,-2.869427139886821521e-01,2.310268970340070751e-03,-5.082520091896213822e-03,1.731140126213399633e-01,4.500440061092376709e-01
-4.255919153688534906e-01,-4.465105437083269346e-01,-3.722800184152031955e-01,-8.457556987806315665e-03,-7.064140873053176631e-03,-2.171189849879783754e-03,6.908978521823883057e-02
-4.541943607375196756e-01,-5.730890585319208252e-01,-2.279706131783452161e-01,1.949459514031629676e-02,1.514032116744394030e-01,7.614623543909077030e-02,4.236904382705688477e-01
-3.637768602333577017e-01,-3.646789468920589861e-01,-4.762215149390471858e-01,8.079618044054591441e-02,3.047779483819978031e-03,2.522120406603904283e-03,1.793716698884963989e-01
-4.682884094706131761e-01,-1.900131772686050324e-01,-5.236933951027435974e-01,8.990915332877671973e-02,-9.184811514257984477e-03,2.464017823161106235e-02,3.496428430080413818e-01
-4.081817228670723829e-01,-4.238987633897638996e-01,-4.071996509836152134e-01,-2.132065630115123102e-03,-1.939738597075514994e-03,3.081158127527663416e-03,1.779973506927490234e-02
-4.166524979423168462e-01,-3.307125720027596083e-01,-4.606334669873755061e-01,3.872373562873492048e-02,1.121104156292559301e-02,1.731872556077639069e-02,1.373869627714157104e-01
-4.886070304064784042e-01,-3.069828815124286958e-01,-4.735528020049357134e-01,-1.307839071848061058e-02,-2.294497059137102016e-02,-4.452728055382140088e-02,1.962659806013107300e-01
-4.137748607879072060e-01,-4.108416781942393348e-01,-4.155729289725383357e-01,-1.181521981212013510e-02,7.612328947005191949e-03,-9.342664764628466970e-03,2.952300384640693665e-02
-3.252591798774132070e-01,-5.462712622403366192e-01,-4.796443114918308992e-01,-2.867766622987686503e-03,-2.105371330839675703e-01,-1.325559262527976623e-01,4.735775291919708252e-01
-4.463429630899590217e-01,-3.920536428529323714e-01,-3.834527677077744223e-01,5.157815850640855987e-04,4.155420854311633644e-04,6.583727260948641323e-03,6.016305834054946899e-02
-5.551406104577030209e-01,-2.009296489368776473e-01,-4.957223703391562264e-01,-7.763078791623169439e-02,1.256912203523169805e-02,2.195937579658438152e-02,3.577003479003906250e-01
-3.518319184017386081e-01,-4.540830723896038257e-01,-4.370380154750248547e-01,-8.473451770588777583e-04,-3.524893709885849186e-02,-1.413769421013426342e-02,1.154651269316673279e-01
-5.227058329046946339e-01,-1.866662624445474539e-01,-5.492725459316796233e-01,1.107751927473810544e-01,7.150015570552798599e-03,8.822210332555088796e-02,4.276354312896728516e-01
-5.415431128878375189e-01,-2.364698362664449660e-01,-4.472237744816068283e-01,9.076414500033905264e-02,2.883809988572183514e-02,1.709991323111826611e-01,4.337314069271087646e-01
-4.798541888110579023e-01,-3.324382868745700548e-01,-3.577447426818066711e-01,1.215395141401760942e-01,1.188235512307664193e-01,1.556413978629553607e-01,4.218846857547760010e-01
-4.221813637699844413e-01,-3.459142762381067771e-01,-4.509581068215641753e-01,1.837579105877777674e-02,4.955995331604774387e-03,5.425802353636461663e-03,1.000724807381629944e-01
-2.912482913019776021e-01,-5.046565830467684144e-01,-5.536946217318051700e-01,-1.732919698134449682e-01,-7.011350210254696513e-02,-6.966159016433184914e-02,4.216742813587188721e-01
-3.770887835385560716e-01,-4.363578687647615140e-01,-4.551349130815954824e-01,-6.740790434097718165e-02,-3.106363853335206843e-02,-1.529511459080363459e-03,1.466684788465499878e-01
-4.238947661491446750e-01,-4.130280816866052085e-01,-4.064313130816925579e-01,-6.561575227051893826e-03,3.216193078654670454e-03,-4.029138816450052347e-03,2.102816104888916016e-02
-3.149344408747927204e-01,-4.300902894168050494e-01,-4.515735368221309720e-01,-1.216933421697345280e-01,-8.264322277411527418e-02,3.091408961320127324e-02,2.897945344448089600e-01
-2.921157183177084948e-01,-3.545125736078753587e-01,-5.251132692395364954e-01,1.659984371456813268e-01,-3.059207012532902045e-02,-3.567635702429473171e-02,3.646030426025390625e-01
-3.415627441901500916e-01,-4.307452457319467798e-01,-4.611845101845817307e-01,9.456096628042840596e-03,-1.097824573290268751e-02,-1.348780964510563549e-02,1.130057498812675476e-01
-4.162222142468203767e-01,-3.714715648194741870e-01,-4.329469712699577366e-01,5.803487078665856350e-03,9.398466559865160594e-03,4.636855634807756331e-03,5.883296579122543335e-02
-4.611030589933362567e-01,-3.838391795413229612e-01,-4.941046247025471794e-01,-1.813382874095018360e-01,-1.295837169360836982e-01,3.073131455227707046e-02,4.018313288688659668e-01
-2.934147303347444113e-01,-4.676955814260433941e-01,-4.897684362813663483e-01,3.989902283561123225e-02,-3.056287457386229825e-02,-3.746531462059847495e-02,2.156314402818679810e-01
-3.780595770262405453e-01,-4.260918756317970124e-01,-4.408152918530114928e-01,1.578050316264769520e-02,-1.854031439029524275e-02,-2.070356046204672659e-02,7.934289425611495972e-02
-3.681221343572684268e-01,-4.255393375935085931e-01,-4.387285660172864366e-01,2.463553153572568127e-02,-7.941785499365550463e-03,-1.467694384519641938e-02,8.297085016965866089e-02
-3.992002758962362452e-01,-4.394323081884500271e-01,-3.939915070858642232e-01,-4.257802323898452097e-03,8.770168923217881761e-04,-5.063549625294121691e-04,4.373522847890853882e-02
-4.629989647092243588e-01,-6.203277314434305634e-01,-2.099413775256687154e-01,-6.048317302993551359e-02,1.443680761657531730e-01,-2.498664839399553431e-02,4.516389966011047363e-01
-4.425987474639703767e-01,-6.043935570572912530e-01,-2.438972202239222398e-01,-9.267391313789923035e-02,1.500998599022852209e-01,-6.723775940630033476e-02,4.524674117565155029e-01
-3.693218249940284914e-01,-4.234851111123609235e-01,-4.377299156366107891e-01,8.136372801208475655e-03,-1.143516098355013347e-02,-1.560804166988866669e-02,7.231766730546951294e-02
-4.333485674256447595e-01,-4.071214487346739297e-01,-4.032379053984659900e-01,-4.462182622425679875e-03,-6.092101002342750933e-04,-8.940190744176892620e-03,3.324794024229049683e-02
-4.281454905708462211e-01,-4.191807212419664808e-01,-3.875896720762808112e-01,-1.016511171180516961e-02,2.869729976485968156e-03,-8.392841821095996593e-03,4.367587342858314514e-02
-4.329679619367189924e-01,-4.038077340697163731e-01,-4.044309791138887555e-01,-1.076586089884487476e-03,-2.812658507372267028e-04,-1.226381503072938471e-03,2.899585850536823273e-02
-4.556246842013770282e-01,-4.293269835724352612e-01,-3.648078128171187706e-01,-1.519921967518799225e-02,2.519557619386230199e-03,-4.623850788676482637e-02,1.169490963220596313e-01
-4.458291586099595305e-01,-4.369331196358586800e-01,-3.530378971428589363e-01,-1.526827568434115968e-02,1.214623475995405509e-02,-2.717579029454130976e-02,1.059311479330062866e-01
-4.324318741185588788e-01,-4.081459043891270122e-01,-4.035366211420672866e-01,-6.975253038918286831e-03,-5.419123308297276652e-05,-6.544938901094836912e-03,3.158282116055488586e-02
-4.458645691229418673e-01,-3.731037993875390701e-01,-4.254909667600742518e-01,6.084464794885853468e-04,-8.067100292335080414e-03,-4.786226594728554794e-03,6.702151149511337280e-02
-4.449387808328572613e-01,-4.271390343047471450e-01,-3.703596281450488026e-01,-8.845629021589366398e-03,-2.404965867840442532e-03,-6.109636815338367888e-03,7.011035084724426270e-02
-4.934126198439369726e-01,-2.825628716525167006e-01,-4.791901185582571610e-01,-3.810271054668465385e-02,-3.000266004590318447e-02,1.082056222666766959e-02,2.215135842561721802e-01
-4.574409776105639591e-01,-3.571952729216282818e-01,-4.422316053307742134e-01,-1.888503795241961228e-02,-9.843554973024532494e-04,-3.327618394273911678e-02,1.146760955452919006e-01
-4.149192602277794739e-01,-4.348346681203819619e-01,-3.946408137617073431e-01,-8.687014544673963765e-03,-1.857413466543692340e-02,-2.851312451952407300e-03,4.997469857335090637e-02
-3.971517861782543068e-01,-4.352772396957468315e-01,-3.985795566839054338e-01,-2.320319170286668821e-03,3.135827225072019284e-04,-2.739414480718368235e-03,3.794883564114570618e-02
-4.210438559155751936e-01,-4.021428672073249500e-01,-4.140354287084494489e-01,2.289839936097754543e-03,-6.357991976081253487e-03,-3.582204731305159082e-03,2.119901217520236969e-02
-6.074106625545194760e-01,-1.710942432652153844e-01,-4.865353220170077209e-01,7.898234658817405648e-03,-3.513345049685199367e-02,2.354430490139780563e-02,3.972356915473937988e-01
-4.714907934131258860e-01,-4.193053096831209636e-01,-3.395349639252473462e-01,-1.609760734757102177e-03,-3.067454025696263881e-02,-1.262362721335704430e-01,2.527584433555603027e-01
-4.107784039635200557e-01,-4.023829136023192032e-01,-4.282570712631020293e-01,-3.818891335543300866e-04,-3.387509821031604602e-03,4.604191231014591454e-04,2.362687513232231140e-02
-5.765153114189339734e-01,-5.770691328063269898e-01,-1.853675289910368118e-01,-9.860532739421186410e-02,-9.846997926862921524e-02,-1.202424977254300115e-01,5.048230886459350586e-01
-5.819656839921348856e-01,-5.491689876803018677e-01,-2.229085940892102102e-01,-1.099804117504650375e-01,-3.398322548413838795e-02,-1.603674955435748783e-01,4.848985373973846436e-01
-4.816375284298383130e-01,-1.967486644365896431e-01,-6.149124551359703705e-01,1.268779893539261905e-01,-5.916907638827928473e-02,-1.132610520694499537e-02,4.428027272224426270e-01
-4.471479148547332083e-01,-2.212238519866515374e-01,-5.048065147309079848e-01,1.446448837422036615e-01,1.673008916779640184e-02,5.057735316713729556e-02,3.723882138729095459e-01
-5.283909449003374448e-01,-3.478658719028751567e-01,-4.644155302922751138e-01,2.238451857512045035e-02,-1.300631469863015865e-01,-1.832518697554650078e-01,4.220535457134246826e-01
-4.891280792240982889e-01,-2.887460192783278812e-01,-4.719984807127157178e-01,-3.239938611494467408e-02,-2.069520017340290702e-02,2.647746095743412284e-02,2.086890786886215210e-01
-4.679157713917327932e-01,-3.464235667563180243e-01,-4.153067391316176415e-01,5.270835240835452032e-03,6.922260789586093949e-04,3.870004014774579976e-02,1.253568530082702637e-01
-4.566016228732498461e-01,-3.968417477344992617e-01,-4.788750285447075927e-01,-1.942440705264722456e-01,-1.442416778042889258e-01,4.112065758876325833e-02,4.313703775405883789e-01
-4.500098872400657424e-01,-4.138825451817151890e-01,-3.586652543043855057e-01,-6.335512683651804396e-04,2.525955914173766068e-03,8.563507070811339147e-03,8.117471635341644287e-02
-4.560603157968837196e-01,-3.581249843552865575e-01,-4.121402708085574185e-01,3.101641947131690384e-03,-2.296548613571067904e-03,8.975756575645957649e-03,8.663342893123626709e-02
-5.051061798205335185e-01,-2.262872885308834792e-01,-4.720235301722993104e-01,3.309640720021165411e-02,1.898767939406173152e-02,1.426529466800763313e-01,3.674611151218414307e-01
-5.061964300738133193e-01,-1.979551672465065526e-01,-5.713615361903506829e-01,-6.512497578765871764e-02,-8.023551643931976785e-02,4.649867866209985573e-02,3.973274827003479004e-01
-4.062693248959748371e-01,-4.358086727743434863e-01,-3.992581806915928011e-01,-6.040683163105419612e-03,-5.128786907147677050e-03,1.206243267728536028e-03,3.635356575250625610e-02
-4.606111021669644368e-01,-5.017804440440051250e-01,-3.762811641994134870e-01,-1.423972493704072084e-01,-1.866519963184286590e-01,4.737708333009869877e-02,4.293714761734008789e-01
-3.052005022734240458e-01,-4.503844545142469680e-01,-5.056191190532250967e-01,-1.075256410411056240e-01,-4.854218254398181415e-02,2.511616624543831777e-02,2.753093242645263672e-01
-5.418279952621226636e-01,-5.179066396332857591e-01,-2.592316143479388990e-01,-1.123893478141783780e-01,-1.588868586645318104e-01,7.834232519004914741e-02,4.535577297210693359e-01
-4.115684608170313008e-01,-4.253777494118003433e-01,-4.012258862710682550e-01,-5.239080242565426204e-03,-4.277966665682320264e-03,7.764360912730509977e-04,2.407372742891311646e-02
-4.460350102852083665e-01,-3.791325698414732548e-01,-3.975188930572261525e-01,2.286475494846634642e-03,3.731224898459917574e-03,5.060606946898323251e-03,6.097690388560295105e-02
-3.196709286038212361e-01,-4.218080987591824593e-01,-4.621326993954091855e-01,5.840486330197262183e-02,2.077882700038659672e-02,1.338317371139446758e-02,1.680556684732437134e-01
-4.500107827016607276e-01,-4.480927948716114662e-01,-3.338882334584675760e-01,-6.953517228496191790e-03,1.594208936123582467e-03,-1.320733497338718102e-03,1.158590316772460938e-01
-4.078328707597255187e-01,-4.275236827329101930e-01,-4.058303613865411608e-01,-1.666367579000255271e-03,-1.496423700533430290e-03,3.400853147792769790e-04,2.113206870853900909e-02
-4.205816993681207872e-01,-4.257458644544295789e-01,-3.875754828505391103e-01,-1.095356918693882534e-02,-8.169751893788903402e-03,4.010165216274242869e-03,4.353101551532745361e-02
-4.188819360789388657e-01,-4.321235271797706501e-01,-3.848862144830655363e-01,-1.058266563004293948e-02,-6.796227236928246290e-03,4.356905364145533498e-03,4.809052497148513794e-02
-4.126266301780548984e-01,-4.106519339020148207e-01,-4.165990343315918443e-01,-2.126097370410784913e-03,2.831817510090124147e-03,-1.308726841781887107e-03,8.383343927562236786e-03
-4.540820112993829705e-01,-4.274111372983135371e-01,-3.480599686277242588e-01,-1.694356943618048963e-02,-8.296093670894273339e-03,1.640709752929547099e-02,1.048790514469146729e-01
-4.174334002909960706e-01,-4.156440225441095371e-01,-4.045357510187273520e-01,-4.496877309341612908e-03,-2.491529103551675187e-03,2.131184363620881612e-03,1.547214202582836151e-02
-4.147384430644174280e-01,-4.116821380069671243e-01,-4.078661561281846093e-01,-6.249321027429781059e-03,-7.486362125347792787e-03,3.372314856639895258e-03,1.884096488356590271e-02
-4.379122586702831610e-01,-3.903393036411935690e-01,-4.050153750873520808e-01,-1.585247184560014755e-03,-2.907183337839112404e-03,3.710817413416156278e-03,4.306499287486076355e-02
-4.082549108264462712e-01,-4.491470828938711746e-01,-3.772167618862261040e-01,-1.492567021509866136e-02,-3.968138779750163270e-02,8.610547937594860771e-03,9.756711870431900024e-02
-4.697185450076633018e-01,-4.677318149752586196e-01,-2.916347280508400086e-01,-9.541621918462698387e-03,-5.711116043922952320e-04,-4.303489956324172382e-03,1.780271232128143311e-01
-4.983738755742171400e-01,-5.503037279733469234e-01,-2.876545514363640366e-01,-2.445758260086853403e-02,-1.904406863274556438e-01,-1.048040048978036987e-01,4.489889740943908691e-01
-4.042089113193505501e-01,-4.210134860482648289e-01,-4.148915349426004484e-01,-3.101936024179707298e-03,-4.171010692229491779e-03,3.947434170418756029e-03,1.856878958642482758e-02
-3.314929099042365213e-01,-4.358044630789820184e-01,-4.582851331911517723e-01,7.487319273184383193e-03,-1.616591683406551697e-02,-8.549149236194359888e-03,1.220767349004745483e-01
-2.573930239488060323e-01,-5.165354143497148387e-01,-5.475271668858650020e-01,-7.881774630290330763e-02,-1.257398778900891689e-01,-8.711358578415050180e-02,4.061787128448486328e-01
-2.310210041536766012e-01,-5.280461505603384342e-01,-4.753553312835243627e-01,6.849762395520439529e-02,-5.993428202817583511e-02,-3.091991264777117776e-02,3.210451900959014893e-01
-4.109090196781841064e-01,-4.278874796507792233e-01,-4.026119660003045220e-01,-3.540614727632990840e-03,-1.536126434373783487e-04,1.673723989251294170e-04,2.314612455666065216e-02
-4.384860226532744099e-01,-3.996829952195079527e-01,-3.820616133459849295e-01,6.129510322898904136e-03,1.416155373177540406e-03,3.005247428996275956e-03,5.143709480762481689e-02
-3.526813545657801474e-01,-4.398125932095076074e-01,-3.709196609456149596e-01,1.181756333347960819e-01,1.843197684092892363e-01,1.181935536111542034e-01,4.382491111755371094e-01
-4.064835262605241972e-01,-4.083025572623762423e-01,-4.251596865944394787e-01,-2.524992333509015318e-03,2.094010850481277733e-03,-2.052889256187192570e-03,1.905412785708904266e-02
-3.954801991022491303e-01,-4.185518984547627053e-01,-4.227724060172254328e-01,-2.116229990710814021e-03,2.896183172834916175e-03,-8.616601685141288963e-03,3.014675155282020569e-02
-4.369167824468375150e-01,-4.747700942590544204e-01,-2.613172433888229507e-01,4.220878888923173394e-02,1.250288798299760695e-01,1.003951262212412626e-01,3.484164774417877197e-01
-4.207140568624777588e-01,-4.535527020588676628e-01,-3.482429729520026829e-01,6.093298042212045088e-03,1.545136927384126689e-02,1.123202656175906720e-02,9.958102554082870483e-02
-4.343752063364952898e-01,-4.518001632001138468e-01,-3.375279827281317813e-01,4.822258749171454313e-03,9.667591080252214281e-03,1.507824451593606403e-02,1.113677769899368286e-01
-5.558785764386436901e-01,-4.333057686940650632e-01,-2.191971482512621028e-01,3.329973805190135361e-02,7.225116601138914518e-02,1.015381450554965204e-01,3.701726496219635010e-01
-4.508099066053928294e-01,-3.565983001373035921e-01,-4.143527497507804580e-01,4.220814427382131237e-03,5.243733840593698368e-03,8.437806256933844812e-03,8.437884598970413208e-02
-3.749765531571391808e-01,-4.788327412126192062e-01,-3.070152260407197353e-01,6.985759406772464042e-02,1.516062008501757041e-01,8.762356994133721488e-02,3.592913746833801270e-01
-4.649229564329642739e-01,-4.704970648500088615e-01,-2.886620180950417724e-01,-1.263393705723644912e-03,3.426602833477396942e-02,9.797674267604290430e-03,1.894643455743789673e-01
-4.251444262232426663e-01,-4.621233705727782470e-01,-3.403496848671744845e-01,-2.000079236749992967e-03,1.630696526893337869e-02,1.495735967201864162e-03,1.118466556072235107e-01
-4.408016900912565816e-01,-4.334198184991920333e-01,-3.475901012577544136e-01,1.294870624657018694e-02,1.201898441651802658e-02,1.635721014089229139e-02,9.896396100521087646e-02
-4.176938373614509370e-01,-4.398525954065965471e-01,-3.808580700259693308e-01,-7.755685124326043393e-03,-9.393254671666255787e-03,1.967913617135063492e-03,5.586491525173187256e-02
-4.454707981624931867e-01,-4.172973505795856131e-01,-3.715956287852353879e-01,-1.096757467270415530e-02,-1.085010114027154223e-03,6.297709934533966998e-03,6.821542233228683472e-02
-6.321973768268489557e-01,-3.028160869623336415e-01,-3.290518797895652381e-01,-1.955992958265434165e-02,-1.671513101392441483e-02,1.936667954664111346e-01,4.637296795845031738e-01
-4.232285660702573837e-01,-4.023058445293705709e-01,-4.108852529164967460e-01,-7.881899004087531899e-03,-7.597449813578295921e-03,7.762129500860599947e-03,2.953219600021839142e-02
-3.943905484588163257e-01,-4.287083255846709795e-01,-4.148472192937620040e-01,-3.430460035314123347e-03,-7.527129715077595686e-03,3.354369925348819111e-03,3.366289287805557251e-02
-4.241474714954842073e-01,-4.452085243806374604e-01,-3.788587001868332638e-01,-7.298522216841097157e-03,-1.522366579577592340e-02,-1.233047291027656320e-03,6.563623994588851929e-02
-4.658392226910073042e-01,-3.631533366516088157e-01,-4.019618659997526433e-01,-1.379117174653932132e-02,-2.199420238913045098e-02,6.923666494899989587e-02,1.564237028360366821e-01
-5.763544081507170347e-01,-2.200619879290312830e-01,-4.506720693181184290e-01,6.610267725637594682e-02,8.612006630298428209e-03,1.509941405737566800e-01,4.238980412483215332e-01
-4.055463033601633960e-01,-4.344367735246066897e-01,-4.021364672195033019e-01,-1.025652118639054037e-03,-5.221423173358020857e-03,-2.632498144989248081e-03,3.241194039583206177e-02
-3.846857550207501419e-01,-4.341461305583390606e-01,-4.152945423492368504e-01,-8.546760595182103723e-03,1.332790756552393319e-02,-1.021866456091494006e-02,5.417202785611152649e-02
-4.590381808452881907e-01,-4.661876459415715268e-01,-2.921889605085993824e-01,-8.730708556418781061e-03,3.575960036550315801e-02,8.920172077922394749e-03,1.827191561460494995e-01
-4.145021513441289884e-01,-4.403718795966841126e-01,-3.826310402578460002e-01,-3.399173788243455441e-03,-1.181846039683166066e-02,-9.686407426117047640e-04,5.446111783385276794e-02
-4.840982449385632380e-01,-4.852793791382945532e-01,-2.846710946446116552e-01,-1.826525279322779166e-02,1.324235886552864970e-02,3.346971108865810091e-02,2.118861377239227295e-01
-4.409172232060675212e-01,-4.456219603312780997e-01,-3.530151027956812682e-01,2.355808500012506317e-06,-4.974321521386167871e-02,-3.419538834135847638e-02,1.381796300411224365e-01
-3.857615214732460496e-01,-4.396263348111737468e-01,-3.919331906200413940e-01,2.931401720244140082e-03,4.909311694279974193e-03,3.519346227610758819e-03,5.236709490418434143e-02
-4.364652203333128644e-01,-4.629080821969214221e-01,-3.262717432757697988e-01,-4.907804351008129666e-03,1.020293220650440175e-02,3.631316203464806953e-03,1.271997541189193726e-01
-4.859057415473316821e-01,-4.752183349252636635e-01,-3.831074307130775125e-01,-1.477372121377018288e-01,4.284936296108541459e-02,-2.040504592273287010e-01,4.532988965511322021e-01
-4.451675346973878455e-01,-4.459118581506042456e-01,-3.521987282693930243e-01,-1.404226672519019031e-02,-2.013385682117176112e-02,3.043107358394967106e-03,1.027054339647293091e-01
-3.931068580272368274e-01,-4.224924253941136354e-01,-4.204400374095077497e-01,-3.814591717886284261e-03,3.006111459705391488e-03,-9.605273586556951557e-03,3.398470953106880188e-02
-4.554302264303029535e-01,-4.570394953152913664e-01,-2.821707893398348599e-01,5.047039764145065666e-02,1.342821725744657857e-01,1.553261241664118109e-01,4.054821133613586426e-01
-6.336371054507687894e-01,-5.195627097059800636e-01,-1.541946662338284924e-01,-7.561669866100438619e-02,-3.032578217784164670e-02,7.768237830989511983e-02,4.756071865558624268e-01
-4.523514662358607552e-01,-4.606781162368449589e-01,-3.187979950098815962e-01,-1.333852352571691588e-02,5.938267194148262249e-03,-1.120119364311300547e-02,1.415409892797470093e-01
-5.658609819578326317e-01,-5.793091660645888208e-01,-1.715454735573413991e-01,-7.413730557157721668e-02,-3.032680985905171836e-02,-7.995527476552756474e-02,4.465367794036865234e-01
-4.869868509515504207e-01,-2.770051696943907071e-01,-4.660026622597864265e-01,4.217128696488830347e-02,-6.658173105151859311e-03,5.393507177936390784e-02,2.330698817968368530e-01
-4.864593141463671166e-01,-4.605046268020025479e-01,-2.779463617278477572e-01,-1.044314478463679099e-02,-1.576142970092083220e-02,3.554844343496987163e-02,2.088131457567214966e-01
-3.992723479493255900e-01,-4.250132460560511194e-01,-4.190328323416013245e-01,4.903926073360750926e-03,-9.805431192784314423e-03,-1.218143916886431886e-02,3.674459457397460938e-02
-4.007183536786212974e-01,-4.492028529418151672e-01,-4.143122526478959511e-01,2.594375359166076981e-03,-8.085449640718757325e-02,-2.575362533315237595e-02,1.532929688692092896e-01
-4.688633114132361723e-01,-3.180136036069377559e-01,-4.711315163188301569e-01,1.641320667709176423e-02,-2.726385594854418074e-02,-5.653713778550222696e-02,1.890249103307723999e-01
-4.828167013518259720e-01,-3.358680030842911002e-01,-4.322391708479478289e-01,-1.193748821521223996e-03,-2.444378712673707724e-02,-3.075591231903356676e-02,1.461309492588043213e-01
-4.441971228623134427e-01,-5.330770898010367409e-01,-2.672227944848166170e-01,4.398374945604120040e-02,1.625469626116129440e-01,8.942116075870262804e-02,4.049761891365051270e-01
-4.310233876007484866e-01,-4.439245492339862764e-01,-3.628165156718112239e-01,-9.871451917780636048e-03,5.573800995480915864e-03,-1.607377089748097086e-03,7.805033773183822632e-02
-4.565539740792323165e-01,-2.796533441058188796e-01,-4.794058332429185221e-01,5.916246094318804855e-02,-5.712189091151866072e-02,-9.661613462654514151e-02,2.900894880294799805e-01
-4.267127650632083768e-01,-3.917293202130046059e-01,-4.211438350031735389e-01,4.096658907790143994e-02,-5.860255904392232262e-02,-3.297456471689635266e-02,1.402125656604766846e-01
-5.131650558034853704e-01,-3.114869970197918225e-01,-3.880097890351794643e-01,-3.230070910582249349e-02,-1.149115603355614461e-02,-1.358286710465229086e-01,2.999520599842071533e-01
-4.569600523552547755e-01,-3.516628472742356903e-01,-5.029040719982494911e-01,7.538437098717105066e-03,-8.543111962293323258e-02,-2.133016014062926180e-01,4.202317893505096436e-01
-4.077756468608911833e-01,-3.872800745228451857e-01,-4.138127272586585859e-01,2.091111110361270481e-02,2.091746594679348356e-02,1.787851598460886773e-02,6.452609598636627197e-02
-4.725219437442832460e-01,-2.987581262859063669e-01,-4.510952561449393383e-01,-4.364222290009796626e-03,-1.496937599476422937e-02,3.485254806464138655e-02,1.769272983074188232e-01
-5.561696060041710910e-01,-5.324776386148465379e-01,-2.461472449777610816e-01,-8.451375244119001262e-02,-5.475609246839870797e-02,-1.493684776310650608e-01,4.320710301399230957e-01
-6.224913605946816864e-01,-4.204011085808145864e-01,-2.629010371804474389e-01,-1.117829940681837608e-01,-4.134316916880807768e-02,-1.397097885764513048e-01,4.456978142261505127e-01
-3.178030632029262836e-01,-4.606826102162259184e-01,-4.630948956376809145e-01,2.607549820595435157e-03,-5.424245649414460857e-03,-9.409689351683415623e-03,1.453937441110610962e-01
-3.194401293735479319e-01,-4.565787281453273505e-01,-4.634188666256459088e-01,7.031897824226603262e-03,-7.517949080752206470e-03,-1.098154655051746670e-02,1.430786997079849243e-01
-3.913073532437757462e-01,-4.158978767170015689e-01,-4.323517837533341068e-01,-7.217114949341805856e-03,-3.015006882803001470e-03,-1.980720695616836806e-04,3.825812041759490967e-02
-3.121218986946688867e-01,-4.941295987409601298e-01,-4.548480959614147334e-01,-2.519264633185019225e-02,-2.330626058334805961e-02,-1.327918133032352649e-02,1.777156889438629150e-01
-2.225166197583972327e-01,-5.974384912144783399e-01,-4.771189139924467693e-01,-4.370100616446684350e-02,1.371872981083734067e-01,-7.881985310261811761e-02,4.367617964744567871e-01
-3.867805105814390298e-01,-4.329590230065715195e-01,-4.131343081334283851e-01,-4.558469218782358438e-03,7.960317274756899264e-03,-1.227857199703017918e-02,4.811161383986473083e-02
-3.099599598388323995e-01,-4.703677507873345598e-01,-4.523481831449144286e-01,7.156416921672068389e-04,1.047251522416114619e-02,-1.091017819267811606e-02,1.544426679611206055e-01
-3.781370594505315541e-01,-3.534556498049615247e-01,-4.840264050703241838e-01,-1.174642573476750163e-01,2.893229622911479108e-03,-3.709260632420316450e-02,2.449111640453338623e-01
-4.933552624063685665e-01,-5.938293138071101263e-01,-1.649946999022615102e-01,-4.247781235812429779e-02,2.891596955613118247e-02,-5.858126833703714703e-02,4.112471342086791992e-01
-2.711174596221995747e-01,-4.728326205359093537e-01,-4.683894783412112517e-01,8.463966105746709850e-03,2.170135098128424950e-02,-9.016471801273941156e-03,2.041669636964797974e-01
-3.154142785388818759e-01,-4.640125060332242479e-01,-4.360580321829221617e-01,5.125543733692460718e-03,4.469098580398384729e-02,-1.066745098133848636e-02,1.584959030151367188e-01
-4.171705612642522265e-01,-4.623715609876055121e-01,-3.356546686382351763e-01,7.589118391210927100e-03,4.549338539109626378e-02,1.916948899303543008e-02,1.409138292074203491e-01
-3.949855653148447443e-01,-3.510836235647951664e-01,-4.931669704229891815e-01,8.427920717508065318e-02,1.929125140046697787e-02,2.648072983391491081e-02,2.010134905576705933e-01
-3.286811149536120191e-01,-4.525901164107007379e-01,-4.608709964057697839e-01,2.105927429792529696e-04,-9.110989559972847499e-03,-1.069521466757314583e-02,1.305389404296875000e-01
-3.344098795198036100e-01,-4.529485215556794397e-01,-4.591309796787838571e-01,-1.171183583113747338e-02,-9.970079848952788024e-03,-1.414417288275878967e-02,1.270132809877395630e-01
-3.295250028242616147e-01,-4.573549760553685117e-01,-4.597336789633675314e-01,-3.101753891190336260e-02,-2.240879445119062577e-02,-1.593521619588277385e-02,1.476643085479736328e-01
-3.157420400638584201e-01,-4.692069964552085803e-01,-4.602841192189489061e-01,-1.055468184243667056e-02,-2.389577238134943729e-02,-1.672909415971153557e-02,1.585830301046371460e-01
-3.214760489716080860e-01,-4.574329229374082817e-01,-4.561461841293590336e-01,-1.088437163365551900e-02,-1.392058845853607263e-03,-1.412512017897760153e-02,1.388191878795623779e-01
-4.252819825435735224e-01,-5.315071959675220503e-01,-3.907622859559047868e-01,-1.777238706105815913e-01,7.975887626472463743e-02,-1.691979145076260294e-01,4.646157920360565186e-01
-3.729309406075282940e-01,-4.253766354046775722e-01,-4.518677293465550582e-01,-7.690869306637854348e-03,-1.614164675687122449e-02,-1.304718619690322344e-02,7.944473624229431152e-02
-4.140975525047438932e-01,-4.070039271157637750e-01,-4.184361459905122649e-01,-4.294600320651330121e-03,-5.855611732159484231e-03,2.093781449823288281e-03,1.647016592323780060e-02
-3.779136243733730027e-01,-4.303063063778557185e-01,-4.302183940768792847e-01,-3.371158361576798851e-03,2.948204252584723378e-03,-1.042412568008864449e-02,5.591557919979095459e-02
-3.991041745725510959e-01,-4.142439240603488226e-01,-4.333729309504727456e-01,-1.817925387057161418e-02,-7.566921730114419334e-03,3.020192354514164980e-04,4.525752738118171692e-02
-3.709841365668061774e-01,-4.469792829051961736e-01,-4.106293645658795066e-01,8.862755408771450004e-04,4.852272747270020524e-03,-8.159144192888906572e-04,6.640142202377319336e-02
-3.984474935300681420e-01,-4.027330220265670224e-01,-4.153713583631888362e-01,1.550420243972893374e-03,1.850749326264889728e-03,4.034410015658385605e-03,1.727923192083835602e-02
-3.998670284166754851e-01,-4.013803400152703427e-01,-4.151782521840109985e-01,1.067326197802349105e-03,1.541692056560473425e-03,3.231386686068904099e-03,1.598207093775272369e-02
-3.965014287873179777e-01,-3.969939658583054864e-01,-4.226519444545182025e-01,1.580052205727508572e-03,3.250114036278602212e-03,1.709453961395077364e-03,2.681712247431278229e-02
-3.814027471160978955e-01,-4.267388086186062468e-01,-4.449257254924660065e-01,-1.955630420350745052e-02,-6.287539152128091349e-03,-1.482989351926647034e-02,7.166846841573715210e-02
-4.484970426726374582e-01,-3.024036007050039387e-01,-5.056835920343539792e-01,-1.449024992334995432e-01,4.345376740921762931e-02,-7.803067790908765899e-02,3.462505340576171875e-01
-4.282188057724947150e-01,-4.063026691437175986e-01,-4.054966207064339967e-01,-3.678775589224767163e-05,-2.188776618670270312e-03,-2.331522493783831900e-03,2.300687879323959351e-02
-4.180750479728330693e-01,-4.419378172238229152e-01,-4.912277161842055206e-01,-1.910818352268245091e-01,3.397866782456257506e-02,-1.468892694989054060e-01,4.265031516551971436e-01
-4.001949957077294284e-01,-3.962654537626665308e-01,-4.216513719543314442e-01,1.462522209244595563e-03,1.191521929454153689e-03,1.718411078213748179e-03,2.407625317573547363e-02
-3.220975015183623058e-01,-4.547787305335832531e-01,-4.443484652284888092e-01,6.828616912580481695e-03,1.486148601369902122e-02,2.413134870277743906e-03,1.309547573328018188e-01
-3.883911029048268126e-01,-4.405347328547992714e-01,-3.862535661722685254e-01,9.406235841297213088e-03,1.326979489704516006e-02,1.048091404967529082e-02,6.291446089744567871e-02
-3.779386704466883296e-01,-4.296992204306911978e-01,-4.307349028179260908e-01,-3.478275141540538695e-03,3.031978942347145906e-03,-1.035568949963338280e-02,5.585185438394546509e-02
-4.074736571705498411e-01,-4.041971889180017707e-01,-4.302376333731250946e-01,2.025680791940960512e-08,-1.547724252541933651e-03,-1.849734488205476276e-03,2.491927333176136017e-02
-4.151804076060432447e-01,-5.934550287054441986e-01,-2.507902109380123479e-01,-1.020120352406616443e-01,1.231198615705535182e-01,-4.335734185776281974e-02,4.128522872924804688e-01
-3.874303312969410995e-01,-4.302278833217288434e-01,-4.191981426646494979e-01,-2.182388820700968506e-03,3.209165857093538004e-03,-1.047369207197095149e-02,4.307573661208152771e-02
-3.507600510561595941e-01,-4.588339934274341392e-01,-4.162112630246736500e-01,1.241737149453551493e-02,3.599596450731542413e-02,4.980050535236531933e-03,1.153879165649414062e-01
-3.116249938148678011e-01,-4.732491932146268288e-01,-4.391235238191657508e-01,5.618646098119863506e-03,4.505784899137298127e-02,-1.620596383319967537e-03,1.672262698411941528e-01
-2.920858138186013253e-01,-6.041248877334699507e-01,-4.239975233117633246e-01,-1.169950579928200618e-01,1.334787386581450241e-01,-1.211722045407982729e-01,4.606178998947143555e-01
-4.213365428154722814e-01,-3.993743127814356475e-01,-4.212289723228569427e-01,-3.978837625483786986e-03,2.924769306298932205e-03,-3.783389804620648604e-03,2.441489323973655701e-02
-4.044108387984920450e-01,-4.503257272740904260e-01,-3.671517464164477107e-01,3.062416433764095225e-02,5.366519113408080993e-02,2.832011591007938672e-02,1.380819529294967651e-01
-4.273223118064813364e-01,-3.838859805430646088e-01,-4.283868949722127173e-01,-9.324810265380484298e-03,2.600928465922307860e-03,-8.631104705473230734e-03,4.938348382711410522e-02
-5.299650469647571027e-01,-5.193824938873794483e-01,-2.871045812785375517e-01,-1.160117229267146333e-01,4.109613109043067786e-02,-1.635895443332155974e-01,4.269081354141235352e-01
-3.316910955347138201e-01,-4.538414630936261629e-01,-4.431232964323939538e-01,-5.453514236409735122e-03,1.405833420487695093e-02,-7.496085843902650439e-03,1.207355409860610962e-01
-4.305603137497434618e-01,-3.427673838942970619e-01,-4.618868205088150769e-01,7.380877134215047160e-03,-1.234820937728239518e-02,-6.993637800766771065e-03,1.104843616485595703e-01
-3.216228508201603442e-01,-4.280125149981235944e-01,-4.594423777086629190e-01,5.568633967013315172e-02,5.991152215676129322e-02,2.684265822743594349e-02,1.946357339620590210e-01
-2.869220050487260032e-01,-4.635451678046111357e-01,-4.664040810144607918e-01,3.744344303312470423e-02,4.991085033512777241e-02,1.225941687862308095e-02,2.093777954578399658e-01
-4.135379819624799835e-01,-4.101528812754820508e-01,-4.156235283473398434e-01,-7.798709501819409834e-03,4.226963147290414488e-03,-9.157083315357954917e-03,2.259393595159053802e-02
-4.139531172212128074e-01,-4.119997002166037037e-01,-4.138913957028073076e-01,-1.214781505361237730e-03,1.763334475051907399e-03,-9.392710682630376782e-04,4.483402706682682037e-03
-3.472309016781459090e-01,-4.307062057651925846e-01,-4.313351043052691680e-01,1.668482012337922926e-01,1.468492301921178467e-01,1.118670721366476911e-01,4.390589892864227295e-01
-3.494259087671259811e-01,-4.084061155497562545e-01,-4.935865794512129812e-01,7.509140008267629895e-02,-2.926715120641089005e-02,-3.276418889003736290e-02,1.961241066455841064e-01
-4.140284660435306074e-01,-4.144771605373875345e-01,-4.101288205574307733e-01,-9.632750201455268302e-04,3.485872281253242153e-04,-5.241152511856713488e-04,4.596807062625885010e-03
-5.601805710922833637e-01,-3.154250730969698213e-01,-4.766760650935506494e-01,-5.397809298896804470e-02,-7.531955689947375521e-02,-1.843112034240945440e-01,4.172672331333160400e-01
-4.342438154143951068e-01,-3.382074690164866837e-01,-4.556910089655586971e-01,9.397383113595499798e-03,-7.746733874385522758e-03,1.990538480708908473e-03,1.104514673352241516e-01
-4.634231545405645969e-01,-3.020217145105743017e-01,-4.454194170049548540e-01,5.182642065321809571e-02,2.787884387395822214e-02,8.878320865600541900e-02,2.398035228252410889e-01
-4.259856353570060095e-01,-4.170815560230799468e-01,-3.976839736878617360e-01,-7.993167684512548013e-03,6.683840451911704159e-04,-2.212290684070093109e-03,2.891299873590469360e-02
-4.254431866239297699e-01,-4.119986359589869473e-01,-4.041246837623757027e-01,-5.241375305661084491e-03,1.854773796287080860e-03,-5.122830857529047863e-03,2.280534245073795319e-02
-4.011758115837966154e-01,-4.276241350240181371e-01,-4.113819741790828988e-01,2.579937342133299259e-04,-3.015369849670128909e-03,-5.630602952253644169e-03,2.561897411942481995e-02
-4.793500908746995415e-01,-3.617759577740166099e-01,-4.839137469706837336e-01,4.195106109660457633e-02,-1.291939417699889958e-01,-1.679068423605225568e-01,3.928257822990417480e-01
-4.030124898488031682e-01,-4.294448606606502405e-01,-4.027869146155895197e-01,-6.225205813721689137e-03,4.453758350371993073e-03,-4.567830019626509773e-03,3.070905804634094238e-02
-4.280570882585135184e-01,-4.108913694951919493e-01,-4.026533772149487045e-01,6.070390760150844991e-04,-2.540614467946079955e-03,-3.195815576457789776e-03,2.355943247675895691e-02
-4.560389154167518999e-01,-3.114987977397351560e-01,-4.552730493496082165e-01,9.630369501704557841e-03,-2.709446766656990833e-03,8.862626868603531299e-03,1.460055708885192871e-01
-5.025503635880017583e-01,-1.866278798178177822e-01,-5.482648875402669209e-01,-2.592986411687203327e-02,1.574905164647582775e-02,-2.883497831277633677e-02,3.487041890621185303e-01
-4.209649216506834990e-01,-4.109061147334455710e-01,-4.079689328712828855e-01,-2.204893945106747508e-03,1.615485483999639954e-04,-1.495267780113732504e-03,1.267760340124368668e-02
-4.189490057938215495e-01,-4.133618547696208401e-01,-4.078483977155906715e-01,-2.671457543257040393e-03,1.743407990164713879e-03,-4.283443327400643598e-07,1.108816731721162796e-02
-4.680190251036380755e-01,-3.509462588377472714e-01,-4.495249763267762932e-01,-7.214563656875663811e-02,4.989722473802417346e-02,-1.176447969977362229e-01,2.765646278858184814e-01
-5.640372695257508395e-01,-2.157041902509094777e-01,-5.666801503157473663e-01,-1.298143299665597827e-01,-5.515151095177783097e-02,-6.176701847967261405e-02,4.397605657577514648e-01
-4.953448185435882500e-01,-2.872220461333427899e-01,-4.600419598959358813e-01,9.474109610103581352e-05,-9.085461314599226415e-03,-1.672261684788292971e-02,1.957055330276489258e-01
-4.600980762273215730e-01,-3.170077946923285928e-01,-4.591568048947043401e-01,1.539282811320746370e-03,-8.360660857114596972e-03,1.450693956487444447e-03,1.434020698070526123e-01
-4.609992123088327287e-01,-3.425550408721650397e-01,-4.207162363774678560e-01,-1.058483849994481391e-02,-8.910804552943581147e-03,2.981000298553058286e-02,1.188305020332336426e-01
-6.403362918500619116e-01,-2.155731189411992654e-01,-4.401567499807184647e-01,-5.323414222561749509e-02,-6.946963485800239368e-02,1.407843588670764090e-01,4.668052196502685547e-01
-6.145751249857915877e-01,-3.907965814092748680e-01,-2.981072627822652921e-01,-1.035765056076827506e-01,-8.363728251747547249e-02,1.619174061041663282e-01,4.595994353294372559e-01
-4.850852646078150920e-01,-2.554720385350159884e-01,-4.256099861587899214e-01,1.011766879815392817e-01,5.624070703430158330e-02,1.402995923398208389e-01,3.766356110572814941e-01
-4.536116022789165036e-01,-3.977731307715318132e-01,-3.926601760714755751e-01,-2.432590297803745652e-02,-2.654169830539845551e-02,3.202195799357997891e-02,1.019530668854713440e-01
-4.294029567862743813e-01,-2.703361085622042470e-01,-4.651213914568913532e-01,1.343282289860252832e-01,5.723420180913215555e-02,1.076829808602224881e-01,3.619475662708282471e-01
-5.228053641710853627e-01,-2.613567144205513060e-01,-5.551945496433370320e-01,-1.453848334524088792e-01,-1.030965788513870524e-01,2.394232832715266837e-02,4.181976020336151123e-01
-4.177254933304044293e-01,-3.958157477692773596e-01,-3.990249210393239099e-01,9.724671711195698523e-03,9.411356928377455702e-03,1.056709075607481334e-02,3.611706569790840149e-02
-5.839772426646410164e-01,-1.301722740888066054e-01,-5.816467208518154575e-01,5.164315187530289786e-02,-5.232458282156029344e-02,8.502032061217831838e-02,4.927339851856231689e-01
-4.276597866663130465e-01,-3.808720329952557382e-01,-4.314421387133314800e-01,-4.582078496551506355e-03,-9.979822025002039673e-03,2.226157827871341234e-03,5.250725522637367249e-02
-4.676097177389343384e-01,-3.205605598488702745e-01,-4.746314642593285060e-01,-3.405625763662695898e-02,-3.067385080822372309e-02,-3.499013163735609222e-02,1.807771325111389160e-01
-4.467228036127753321e-01,-3.465929964724150936e-01,-4.453654000380179445e-01,-3.638245352857699243e-03,-1.304399116988691661e-02,5.206300143046890816e-03,1.025834679603576660e-01
-4.797409069430113582e-01,-3.645541088043769418e-01,-3.703771931478880841e-01,3.392275821526249849e-04,-7.714732849735308345e-03,6.759585408564006137e-02,1.628424376249313354e-01
-4.427229921482361830e-01,-3.813470256064210862e-01,-3.969514886056164649e-01,-1.289576577233646736e-02,-1.364765100524181242e-02,3.256634184126353665e-02,8.539406955242156982e-02
-5.341594140393024492e-01,-2.538047623397594599e-01,-3.609473265171710965e-01,2.407403558579026409e-02,2.372967904306282072e-02,1.814125534798617101e-01,4.027404487133026123e-01
-4.816626458570256175e-01,-2.720447765877758162e-01,-4.320403823742552940e-01,9.370878347072830739e-02,6.494230646309070987e-02,1.634254879316194564e-01,3.938533961772918701e-01
-5.023855542246155048e-01,-2.947547900080056404e-01,-3.545275642656914306e-01,8.280239748090782725e-02,6.496122412068874863e-02,1.677872520735936845e-01,3.898190855979919434e-01
-3.173719880617527078e-01,-4.663259882019159530e-01,-4.260969778752835557e-01,4.772566987460589646e-03,4.269631344662896955e-02,-9.437397872169153018e-03,1.536809951066970825e-01
-6.145050351368431807e-01,-1.499107703991231499e-01,-5.738307435369314202e-01,-4.860257033653132136e-02,-8.862627283791219002e-02,4.415855521449828930e-02,4.848769009113311768e-01
-4.719761666491892882e-01,-3.933418443237132744e-01,-3.382565368136419282e-01,-8.243929470964349304e-02,-1.076858862667667560e-01,1.065460816828813495e-01,3.205978870391845703e-01
-6.269388581735370058e-01,-2.025453819536120748e-01,-4.632365165917889938e-01,-1.508693103672994508e-02,-5.200233647481049964e-02,1.269434514136323078e-01,4.411049485206604004e-01
-4.233708534595498341e-01,-4.072989128152326721e-01,-4.051265311236662559e-01,-5.096606644441803793e-03,-5.788760973286917640e-03,3.830749118362950130e-03,2.281272225081920624e-02
-4.225840841211754850e-01,-4.511133085177317370e-01,-3.438662383639974340e-01,5.536817889688746587e-03,1.690154889248208711e-02,4.964376394555960331e-03,1.013857275247573853e-01
-4.361732388464357735e-01,-3.958072555117241875e-01,-3.990657249946631402e-01,-4.152296705624104051e-03,-4.255612043418745792e-03,1.652224456809101710e-03,4.028329625725746155e-02
-5.115157878380266476e-01,-4.763538524055951351e-01,-3.042762394195285824e-01,-1.609429726372798020e-01,3.015445689018272923e-02,-1.457964246998546542e-01,4.255622625350952148e-01
-4.222483507755152021e-01,-4.567829095361076730e-01,-3.487666414165122575e-01,-8.731152202477297786e-03,1.291506536402538610e-02,-7.644450990409235210e-03,1.001711785793304443e-01
-4.761424763476213018e-01,-5.983484876177211920e-01,-2.084404461784410967e-01,-7.605645727502609310e-02,1.338856344523089437e-01,-2.864610201736243755e-02,4.392096698284149170e-01
-4.699595651085584636e-01,-5.895699270696546090e-01,-2.368711456983274288e-01,-7.867924213837096392e-02,1.381611949022996944e-01,-4.861987698336343172e-02,4.236096441745758057e-01
-3.835295445404529047e-01,-4.142646222596271799e-01,-4.418071761928429320e-01,-1.238522325491116412e-02,-3.267985141398531933e-03,-5.127484015921400127e-04,5.516130104660987854e-02
-4.248108695519889899e-01,-4.071688435285705787e-01,-4.075955189547290081e-01,2.125982507704732641e-03,-1.953889289346965978e-03,-2.196405029980676160e-03,1.853053644299507141e-02
-3.296515003454202897e-01,-4.889527449190400055e-01,-4.117857737836752019e-01,1.779188691254666999e-02,9.214429099215329377e-02,1.515173995981895609e-02,2.148230075836181641e-01
-4.286413398457920021e-01,-4.383162038303604069e-01,-4.647550727221743672e-01,4.599984249414906801e-02,-1.583096511827543351e-01,-1.787662459092858869e-01,4.224385321140289307e-01
-4.141948657575632020e-01,-3.577889240843813989e-01,-4.612033572709440810e-01,2.922551567062995834e-02,-1.867347034499383662e-02,-1.632853781750651101e-02,1.115855649113655090e-01
-3.524044311131704355e-01,-4.501033862586317214e-01,-3.583351123071343292e-01,1.173001178210183043e-01,1.913098303159245783e-01,9.493215155132041227e-02,4.325661659240722656e-01
-3.196640843968774348e-01,-4.603521956230083867e-01,-4.546545857102363697e-01,-6.107922330293301828e-05,-1.376240560358456440e-02,-1.429473844127549312e-02,1.421452164649963379e-01
-4.064071682342956238e-01,-3.736886459003470051e-01,-4.535164100520706065e-01,1.770644955003915569e-02,-6.682892010894715858e-03,-6.274773272315885102e-03,7.761304080486297607e-02
-4.108933094867737723e-01,-3.930130611826337939e-01,-4.303800749182599694e-01,4.326478255837725925e-03,-8.080880253454495593e-03,-1.779438801121091063e-03,3.618593513965606689e-02
-4.342424826127075366e-01,-4.124206316513878146e-01,-3.950351141899546836e-01,-1.593829042873577467e-03,-7.411410419263148074e-04,-3.248922298122642466e-03,3.462323918938636780e-02
-4.795075068888990377e-01,-2.670141993331711650e-01,-5.060876009725734370e-01,-4.601405509603248740e-03,-4.527664172295916417e-02,6.082083625848187791e-03,2.404837161302566528e-01
-3.962535107482882957e-01,-3.485272782762832144e-01,-4.758670071081207986e-01,9.131837240940381129e-02,5.559256310334831884e-03,1.007819534397787209e-02,1.945001631975173950e-01
-3.842829314607936753e-01,-3.883506111432581398e-01,-4.481608431557608796e-01,1.828205108724002131e-02,-2.438650592739044151e-03,-2.871563806455875324e-03,6.987401098012924194e-02
-3.594518131859287813e-01,-3.102091782459276970e-01,-5.475712290750869293e-01,1.862664012322299834e-01,4.370442542517450485e-02,6.887344958981961307e-02,4.136709570884704590e-01
-4.315300921322648975e-01,-3.894198988031575270e-01,-4.154486229972340627e-01,1.045891884214568586e-02,-1.091308077065735599e-02,-1.956630669390558089e-02,5.646824091672897339e-02
-4.948800474148354889e-01,-2.026738908148486284e-01,-5.637098339562581772e-01,1.249120968303908119e-01,-7.727117205188370995e-03,8.004664062851284123e-02,4.200536608695983887e-01
-4.443943546735421024e-01,-3.185543075992161022e-01,-4.564179755101626101e-01,1.424215567668623769e-02,1.731105106395280100e-03,7.072068749445916715e-03,1.351328492164611816e-01
-4.447270519759378704e-01,-3.316975199100397065e-01,-4.393520290405535933e-01,1.519275617571727403e-02,1.115587657840190830e-02,1.369341409344572782e-02,1.175813674926757812e-01
-3.015902624836946933e-01,-4.515552944946933933e-01,-4.467880363618382256e-01,1.554840029103344012e-01,1.296658218651651762e-01,7.143117725091899239e-02,4.000875651836395264e-01
-4.235469508209407929e-01,-4.659757699926762586e-01,-3.278857954644229245e-01,-1.320292767730387980e-03,4.360719559520782190e-02,9.690550899490895861e-03,1.449198573827743530e-01
-4.372559447276875289e-01,-3.674008842967796395e-01,-4.653430014435566697e-01,2.865401484743606425e-02,-5.539687439454109991e-02,-5.983379320571802218e-02,1.733219027519226074e-01
-3.739421678155062101e-01,-5.175646522384309556e-01,-4.581343252815233136e-01,3.496287926996498319e-02,-1.900383143325879431e-01,-1.372324300373724826e-01,4.291071593761444092e-01
-4.316686606792832226e-01,-4.412374121449060826e-01,-3.658655664031540411e-01,-1.650100793442735997e-02,-2.725019115613790815e-02,7.256040755311827899e-03,9.085032343864440918e-02
-3.954764933469964161e-01,-3.955912701865564873e-01,-4.399068494964182841e-01,3.009034716693839966e-03,-4.030180900131626748e-03,-5.235685916136084000e-03,4.612046480178833008e-02
-4.116610854066634628e-01,-4.517883776394752693e-01,-3.728527671695948120e-01,-8.468617238536186795e-03,-3.565149591025942172e-02,-5.257019466623453346e-03,9.372676908969879150e-02
-4.023476937646385809e-01,-4.007950479102722063e-01,-4.344243586467258500e-01,6.187669642211325594e-03,-1.182718864443583866e-02,-1.084966871863832921e-02,4.437095671892166138e-02
-4.437607411085298659e-01,-3.863680174052359639e-01,-3.989649904854560281e-01,4.936930417784838807e-03,-1.789083664775142218e-02,-4.444526912190296247e-02,9.843345731496810913e-02
-4.323218819347585118e-01,-4.019243518452138564e-01,-4.075708654638694473e-01,-5.693072664596964460e-04,-1.369025399763706789e-03,-1.711954996653729938e-03,2.827791124582290649e-02
-4.358133853078539066e-01,-3.772006815127693091e-01,-4.506524358491998394e-01,2.328313103923520221e-03,-3.055647257945676154e-02,-6.383337433582728093e-02,1.398815959692001343e-01
-4.093179204988113273e-01,-4.679165875613143788e-01,-3.954728128613098637e-01,-2.878060522944275550e-03,-6.079655702509181164e-02,-1.272748852495212031e-02,1.266344189643859863e-01
-4.266301608396361744e-01,-2.330471649007362089e-01,-6.341891139848334635e-01,1.395214799677047535e-01,-6.872876892169892116e-02,-4.232775936645253451e-02,4.457348585128784180e-01
-3.722386908970548580e-01,-4.044426552257602836e-01,-4.479871429604488919e-01,1.122817838448617739e-02,-4.970384966715024437e-03,-8.725953759429297060e-03,7.082570344209671021e-02
-3.233289003114042104e-01,-4.433029960211293807e-01,-4.532849278693860118e-01,2.791139083272691987e-02,-2.445343560058436949e-02,-1.777602926642678910e-02,1.441180258989334106e-01
-5.761494384833367732e-01,-1.630578139087750511e-01,-5.663108999363959395e-01,2.104479066342017021e-02,-8.534224423811757887e-02,-1.552707998967183811e-01,5.120379924774169922e-01
-5.516641067007850285e-01,-1.815931733635487988e-01,-5.930994688659623204e-01,5.110479830355523639e-02,-7.238219461041109359e-02,-6.593291137506501753e-02,4.365747272968292236e-01
-3.242862137038228232e-01,-4.704596076947143990e-01,-4.870980707862913595e-01,-1.862831721260924112e-02,-1.726336987369339881e-01,-1.947179735390448113e-02,3.400900959968566895e-01
-4.838871133987891482e-01,-2.182055463340177859e-01,-5.735432252865034775e-01,-2.322719367090391937e-02,-7.039078812780896754e-02,-1.639847440330011452e-01,4.467672407627105713e-01
-5.613021242634393948e-01,-2.548949903314444154e-01,-5.238140111019515821e-01,-1.143891350694176828e-01,-5.719017224988021120e-02,-1.356014065221636256e-01,4.336289465427398682e-01
-4.678053624513827113e-01,-3.214162899232799186e-01,-5.608230223271708503e-01,-1.781681539312816032e-01,-4.820885208219324175e-02,-7.166171099809628964e-02,4.016328752040863037e-01
-5.883991654301845564e-01,-1.562509245387749823e-01,-5.734092456780266467e-01,1.224907550116624902e-03,-6.883121035236715313e-02,-1.087559155275450232e-02,4.416689574718475342e-01
-4.463254950853521308e-01,-3.372736319378402126e-01,-4.276642827249335643e-01,1.596032676618563614e-02,1.212633881780647745e-02,1.479163336177744502e-02,1.098509356379508972e-01
-6.258037007761969583e-01,-1.534110454155265257e-01,-5.497327324943048765e-01,-5.632628059614435551e-02,-8.971560875179040995e-02,5.843025326710224454e-02,4.867372512817382812e-01
-4.707598743077559544e-01,-4.383363551336698083e-01,-3.973365560913731387e-01,-7.712340703404618747e-02,-2.271723889749974190e-01,9.840157121635049672e-03,4.207351505756378174e-01
-4.308095304578113405e-01,-3.986779809254464291e-01,-4.035297887236203862e-01,-1.376860482792801547e-03,-4.412667155444938497e-03,8.239627238894346381e-04,3.108406811952590942e-02
-4.230265422925217345e-01,-4.224763086431380099e-01,-3.914086777969417175e-01,4.057912471210062613e-03,-3.343441622246113524e-03,-2.401241767747901417e-03,3.290636092424392700e-02
-4.298624772172983666e-01,-3.992317962550390176e-01,-4.048840270417186082e-01,-7.806540604222370755e-04,-3.321609869787406160e-04,2.710383526824181738e-03,2.865750156342983246e-02
-3.607013891052887056e-01,-4.165600792679591824e-01,-4.491020993838217290e-01,1.879540452731280620e-02,-1.082174051383394918e-03,-1.225158724041925523e-02,8.666343241930007935e-02
-3.760632144864543003e-01,-4.542766697850670887e-01,-4.418598758204022592e-01,-3.859228087632122356e-02,-7.396582240072102632e-02,-1.202102844260828120e-02,1.631404161453247070e-01
-3.290158892438025395e-01,-4.523134698157971201e-01,-4.510436390092221193e-01,1.021064051784002346e-03,8.686395690082069146e-04,-1.427371434823732077e-02,1.251556873321533203e-01
-3.918624067143721135e-01,-3.843323498837961649e-01,-4.438094010271780299e-01,5.762223017375090427e-03,2.449049194034495520e-03,1.477300174407631750e-03,5.718833953142166138e-02
-3.256629932177265152e-01,-4.564191766244274362e-01,-4.396300906839904488e-01,-1.456016573582930886e-02,-3.414146996115868804e-02,-3.947225603892109448e-03,1.391525566577911377e-01
-2.984696082124356775e-01,-5.353214249441021755e-01,-5.073146627375155759e-01,-1.178762765327153426e-02,-1.667950170876545124e-01,-8.843410294807697858e-02,3.969761431217193604e-01
-1.811873128396907784e-01,-5.777641855729127585e-01,-5.197580133950078229e-01,-5.933155848863131548e-03,9.703700217290389674e-02,-1.186636964337386135e-01,4.563237726688385010e-01
-3.906850515554464165e-01,-3.923955249822083102e-01,-4.271072043236870397e-01,1.572865558289251314e-02,1.023250569167975972e-02,9.969392634363945585e-03,5.120205506682395935e-02
-3.132829361110440747e-01,-4.546515866968436348e-01,-4.538353363902679072e-01,9.198396126333384035e-03,8.024707635971009209e-03,-2.558196938989571855e-03,1.426079273223876953e-01
-3.278271550256104949e-01,-4.518220667597850904e-01,-4.548598796378172660e-01,7.110573342600383200e-03,-5.459500089379206236e-03,-1.197648646357376417e-02,1.281875520944595337e-01
-1.944597164626614694e-01,-4.615581230196930118e-01,-5.766418839483924419e-01,5.680565554545595475e-02,9.660489516636242002e-02,-1.596610554674376611e-02,3.921318948268890381e-01
-2.394254613686670474e-01,-4.251122450495549709e-01,-5.207488561659653348e-01,1.392995993163502755e-01,4.444676910318420826e-02,1.785050534280444023e-02,3.556402623653411865e-01
-2.770720221951146756e-01,-4.399799355527495570e-01,-4.712562203896812907e-01,1.812667798976890510e-01,1.467851847887193251e-01,9.953830592391246790e-02,4.749174416065216064e-01
-3.969982727258116739e-01,-3.985688222888805754e-01,-4.239191631961702900e-01,6.034781150740951318e-03,6.285796963718517059e-03,5.809525120422009449e-03,3.184276446700096130e-02
-3.855999388056361998e-01,-3.901223206179968428e-01,-4.408706449651197956e-01,6.562272922874092321e-03,1.652748347025438441e-03,4.681840722782988455e-03,5.503173172473907471e-02
-3.975849374435720951e-01,-3.911543421710374502e-01,-4.287419786258879206e-01,3.883102952945007881e-03,5.626730505510986295e-03,2.246967013270824865e-03,3.698424622416496277e-02
-3.952582886766411452e-01,-3.909254364125194781e-01,-4.333926379641910853e-01,1.138983534207339485e-03,3.406508920452528365e-03,1.915912250684950746e-03,4.108466580510139465e-02
-3.544143963579187151e-01,-4.498928544106463034e-01,-4.361908884754919224e-01,-1.664712931639898696e-02,8.076113681939394925e-03,-1.573359767113748087e-02,9.881967306137084961e-02
-3.891172077665707718e-01,-3.912119531709303266e-01,-4.396574824957290573e-01,8.498681467232947978e-04,6.790969548635499009e-04,2.589913063420875867e-03,4.976456239819526672e-02
-2.740284061429760776e-01,-4.661918466541524753e-01,-4.839433056233746200e-01,1.249397542391720434e-02,-6.376401361559675502e-04,-1.194356518604457358e-02,2.038395106792449951e-01
-2.053281465336974920e-01,-5.685119253072128398e-01,-5.518707967942156900e-01,-1.189686655301807616e-01,1.315292842434018922e-02,-9.448030885077549068e-02,4.426000714302062988e-01
-3.537971967862721945e-01,-4.386404336258777903e-01,-4.521728842326107611e-01,-1.921859396454796837e-02,-5.146761949191320726e-03,-1.079002939816696774e-02,1.003316715359687805e-01
-4.260377961630864019e-01,-4.055450483531117811e-01,-4.035796001971345137e-01,-2.863998296307237838e-03,-1.502275821550501421e-03,1.193037322327843977e-03,2.235488966107368469e-02
-6.292463388870945806e-01,-3.157755924288414007e-01,-3.174350649476517239e-01,-5.112944548962583199e-03,-7.292314133795637320e-05,1.927370697900039898e-01,4.574578106403350830e-01
-3.925461454255612104e-01,-3.915298128632452301e-01,-4.338800985824315393e-01,7.547519087241624444e-04,1.707529066090272092e-03,1.925630636005827654e-03,4.210840538144111633e-02
-4.405128233712390928e-01,-4.002310297289797814e-01,-3.876474180148889448e-01,-2.979317291228682652e-03,-4.284387841293753156e-04,2.986539405743679401e-03,4.839213192462921143e-02
-3.952627716909118960e-01,-4.125164261945892252e-01,-3.997172548853445972e-01,1.602190286401307048e-02,1.124526006464146057e-02,1.262023438158893333e-02,4.321987554430961609e-02
-5.003389926880310590e-01,-4.212657424282142959e-01,-3.290718510836380117e-01,-1.320360447786659563e-01,-8.280119335024922755e-02,1.460547701357250983e-01,3.986314237117767334e-01
-4.048255924421312324e-01,-4.174024674907408361e-01,-4.141852082837659266e-01,1.493336786732911295e-03,-3.859089981494118193e-03,-5.324493216042315569e-03,1.626296527683734894e-02
-4.176775437288539061e-01,-4.082481515750071566e-01,-4.133775113385248501e-01,9.729868352595259437e-04,-1.974636656640140365e-03,-1.061957366203002693e-03,9.207494556903839111e-03
-4.013358746001605137e-01,-4.162575162688363917e-01,-3.967213879989086589e-01,5.334472063268094581e-03,3.162924671413317422e-03,1.938928052315529648e-03,2.096341922879219055e-02
-4.480768033052252575e-01,-3.748362410302442105e-01,-3.937237959595658032e-01,5.130607363273516006e-03,3.941976504168934713e-03,1.308604233845528202e-02,7.054718583822250366e-02
-4.018518362290220414e-01,-4.136654646665576252e-01,-3.999529785598210929e-01,8.775841023624050136e-03,7.357329027935397177e-03,8.005689335494363054e-03,2.741003595292568207e-02
-4.214733875139016206e-01,-4.086396271873408703e-01,-4.114397965097049137e-01,-2.300841460798536565e-03,2.353424157763366834e-03,-2.597062399459593683e-03,1.376013364642858505e-02
-3.993337987743926232e-01,-4.138227650927923107e-01,-4.023493400760703165e-01,4.325867028738096705e-03,5.713189521147615975e-03,4.692295151578494521e-03,1.988581009209156036e-02
-4.000114078436552423e-01,-4.154619883761900834e-01,-4.011791732262495747e-01,1.308648218527763306e-03,9.865837445663463729e-04,2.715530936892059446e-03,1.588148251175880432e-02
-4.191601046157009125e-01,-4.063000766716620693e-01,-4.126788690087060951e-01,-7.595684157497646551e-04,-5.604689701210696651e-03,1.813340083733152338e-04,1.483593508601188660e-02
-4.003673578761157148e-01,-4.221448330488443146e-01,-3.953879808673728680e-01,1.396668917331739430e-03,2.034489955065639857e-03,2.149673759195364509e-03,2.529078163206577301e-02
-3.959480345265638523e-01,-4.281856950037838949e-01,-3.928904273302326056e-01,3.366990208739879375e-03,6.678507704206737604e-04,4.204347561382441607e-04,3.439569845795631409e-02
-3.336152643066667700e-01,-4.368164201157064830e-01,-5.172955094066457038e-01,-1.276620540805986359e-01,-1.968411412539642150e-02,-1.046212811243291303e-02,2.753478884696960449e-01
-3.455987885013651617e-01,-4.418044140368896366e-01,-4.364958622864779647e-01,2.739774205337835652e-02,2.589422672269145118e-02,9.437689697767610159e-03,1.153414174914360046e-01
-4.211887267351682174e-01,-4.186051524850733507e-01,-3.988200618302364941e-01,-6.799683949548359155e-03,1.106741509260957251e-03,-1.418444869348115672e-03,2.444705739617347717e-02
-3.876779660750415135e-01,-4.113595627375153385e-01,-4.396995223734007086e-01,-1.005296158711568334e-02,-7.428596982856913028e-03,1.183877946522758021e-03,5.008043348789215088e-02
-4.014468776294828345e-01,-4.119055339703712737e-01,-4.282415111681753817e-01,-3.082532209471055759e-03,-2.171661736459113388e-03,2.111228683370966735e-03,2.455862797796726227e-02
-4.176048074935557741e-01,-3.965009501591500451e-01,-4.304628312854637540e-01,-1.148055224621214940e-02,-1.044201090431346075e-02,2.346341980736219718e-03,4.026272892951965332e-02
-4.062189081938203938e-01,-4.060609449227969292e-01,-4.343418650046269036e-01,-1.972913448186969579e-02,-8.853279587976005047e-03,-3.891809663027955869e-03,4.736733436584472656e-02
-4.392372399016431506e-01,-3.764659009551671320e-01,-4.190077136117016932e-01,-1.802263716531991855e-02,-1.509889991778796438e-02,1.582685198034872523e-02,7.409105449914932251e-02
-4.644673223676398233e-01,-2.990872470856750232e-01,-4.563213420909176810e-01,-7.290110842769846784e-03,-1.247974970681218695e-02,3.523932584966885107e-02,1.744185835123062134e-01
-4.717354578430786871e-01,-3.400079032507647425e-01,-3.973126914133057741e-01,-1.148325389045685985e-01,-9.230435243974188797e-02,1.055134961237556290e-01,3.340755701065063477e-01
-3.056908447707079590e-01,-5.687904435655517510e-01,-3.550843526033399811e-01,2.324495003594831757e-02,1.925903844352356842e-01,2.036864962659120509e-02,4.156976044178009033e-01
-4.306305916253646004e-01,-4.051701825230091814e-01,-3.959142408814804726e-01,-4.618028972203417314e-03,-1.254048974638184407e-03,1.909414004465028944e-03,3.239134326577186584e-02
-4.058781369568437714e-01,-3.995210131153911215e-01,-4.326850032617468034e-01,-1.081908260957366828e-02,-8.126865404247172672e-03,2.802906677235095234e-03,3.875951468944549561e-02
-3.759338253254562723e-01,-3.955928796426753657e-01,-4.301729519848537242e-01,5.872814941308483749e-02,4.363678486561980291e-02,3.462294027306388883e-02,1.480466425418853760e-01
-3.099397196562665435e-01,-4.799365724941541678e-01,-4.498224643636075659e-01,-3.388069257962991049e-02,3.017760535464676652e-02,-5.713008356119483183e-03,1.759550124406814575e-01
-4.224127401966023543e-01,-3.890887334338333781e-01,-4.312978981863980210e-01,-5.020562778956822771e-03,9.140250247851452407e-04,-3.226086806468078921e-03,3.993584588170051575e-02
-4.264452929592295605e-01,-3.926995999160607931e-01,-4.229378929458659231e-01,-7.740343531730360487e-03,3.046224115573419478e-03,-4.644076155916678460e-03,3.612469509243965149e-02
-3.426627103987368583e-01,-4.569769700932529988e-01,-4.216626057538747641e-01,6.874105258717472505e-04,1.980299635271713654e-02,-3.687661444362226332e-03,1.072222441434860229e-01
-2.650337267343088055e-01,-4.806516144932572732e-01,-4.801303826473338199e-01,5.873848457020830992e-03,2.482838510799297016e-02,5.547862392756864984e-03,2.200548797845840454e-01
-2.878023727217894345e-01,-4.915169237347239983e-01,-4.893920947949990108e-01,-2.755845291364335606e-02,-1.699452717596950171e-02,-2.652466088512673778e-02,2.152366042137145996e-01
-1.805894121239654260e-01,-5.151536648972351307e-01,-5.141837425649460336e-01,8.633810458784439701e-03,2.614813226687560943e-02,-2.227684660222385010e-02,3.396663963794708252e-01
-4.122429288502788558e-01,-4.218172556869306256e-01,-4.071874073537077865e-01,-5.252587146881403275e-03,-4.473869545803025281e-03,1.892379153427767259e-03,1.786583662033081055e-02
-1.723621653334056480e-01,-5.249025976408270289e-01,-5.686731332755472490e-01,3.220053411849614633e-02,6.142299701128838690e-02,-6.940816379550501791e-02,4.129321575164794922e-01
-4.310310859517962889e-01,-4.456275256206862490e-01,-3.623415798304795432e-01,-1.117374326036595436e-02,5.572913561247645232e-03,-1.623673379611398045e-03,8.005975931882858276e-02
-3.595996631498099005e-01,-4.456682626617598508e-01,-4.346272732082305801e-01,-1.731667918497224344e-03,-1.671798883054487206e-02,-6.070321556623270096e-03,8.681843429803848267e-02
-3.986174196116684110e-01,-4.448716274841673646e-01,-3.790944697536152153e-01,3.515704687356702076e-03,5.921036680264916627e-03,1.823568752933996204e-03,5.979840084910392761e-02
-2.014551157249438729e-01,-5.304256320205437136e-01,-4.502856404332503115e-01,3.735677108306963840e-02,1.191743927274874354e-01,-7.374536119680871228e-03,3.677467405796051025e-01
-2.843583999072702984e-01,-4.839069599425690482e-01,-4.747126194956933221e-01,1.042479214735347361e-02,2.804982038277873541e-02,-2.397554012750719235e-02,2.061075717210769653e-01
-4.217257714553779291e-01,-4.080343204410827873e-01,-4.052081811557871616e-01,-6.345836833315695842e-04,-3.029913899542204035e-04,-1.116940148349725593e-03,1.547136064618825912e-02
-4.204222385939228590e-01,-4.071032708744903306e-01,-4.099333278978251616e-01,-6.410013194932661371e-04,-2.937042233449335335e-03,-1.031684101336102647e-03,1.334222964942455292e-02
-4.159302434360995226e-01,-4.150348579480009903e-01,-4.060667367958348262e-01,-3.848103565686382139e-03,-2.456282319323240329e-03,1.549664168283099554e-03,1.260900031775236130e-02
-4.164397489491655779e-01,-4.133074799519119158e-01,-4.078410489748836576e-01,-3.516896958990875250e-03,-1.641034973036403820e-03,1.066959268508939395e-03,1.026719063520431519e-02
-4.385715726517492308e-01,-4.038091423304260852e-01,-4.069546254200809288e-01,-3.152601733544627138e-02,4.412256229876563782e-03,-6.014560203893302981e-02,1.224807351827621460e-01
-4.231570705242042596e-01,-4.160483657307400551e-01,-3.951117577234957712e-01,-8.783486341466350059e-03,-5.636013747763256310e-03,2.803548591001328930e-03,3.143294155597686768e-02
-4.194711897096803366e-01,-4.146545831814556493e-01,-4.039303965651387940e-01,-6.315873197920433141e-03,-1.683025972049206421e-03,3.138309531981989427e-04,1.784169301390647888e-02
-4.163728060824276600e-01,-4.079828701026408933e-01,-4.117286823060949397e-01,-1.408939139875416049e-03,-2.194073664449978055e-03,2.255791484237904595e-03,9.415837936103343964e-03
-4.257297832338698962e-01,-4.079779816865397035e-01,-4.024148756360921841e-01,-4.123044549681412554e-03,-2.093592942181149094e-03,1.328838117161581373e-03,2.267763391137123108e-02
-4.048368145973718635e-01,-4.052109182447323210e-01,-4.064969313049451860e-01,1.271085437365512166e-04,7.005845950473237787e-04,1.353293985010322806e-04,1.962333684787154198e-03
-4.211382262259011355e-01,-4.090627941361635878e-01,-4.064070504362550795e-01,-3.249235373175726055e-03,-1.283313959107221713e-03,-3.143551450123548748e-04,1.489456370472908020e-02
-4.134975353438725132e-01,-4.064093534566082799e-01,-4.177315418296827509e-01,1.706486592481545276e-03,-3.939606530072337597e-03,-2.247112679863978810e-03,1.298564113676548004e-02
-4.381586951468718905e-01,-2.868286868236951115e-01,-4.376097585975695647e-01,1.228589185583930515e-01,7.005886424268560619e-02,1.217915181165633576e-01,3.568265736103057861e-01
-4.061473270686324910e-01,-4.100117069004942660e-01,-4.256221640750020296e-01,-2.378956685726696992e-03,-2.571210690454836089e-03,4.397657016950646744e-03,2.034144476056098938e-02
-4.158726848955960897e-01,-4.096618923653718158e-01,-4.126590258186896842e-01,-3.413263217636831664e-04,-1.450616017856096434e-03,-1.463769000523244823e-04,5.972338840365409851e-03
-4.342362550898019036e-01,-3.493907630571661538e-01,-3.733077166740031982e-01,1.162893714252902083e-01,1.022038035158844005e-01,1.499745166288588838e-01,3.809528946876525879e-01
-4.143347856101791682e-01,-3.191364962206835187e-01,-4.825640399544071646e-01,8.001468997106209180e-02,1.113393914376322076e-02,5.592497754218293815e-02,2.217543870210647583e-01
-4.761993523689950214e-01,-3.039814987379683697e-01,-5.113621843802076405e-01,-1.616865733048211407e-01,-1.635057051763942060e-01,1.925181856519933912e-02,4.435008168220520020e-01
-4.151140257950876045e-01,-3.478158001296596247e-01,-4.579134048452760397e-01,2.760100844773082790e-02,8.776961102525602382e-03,8.566269037112213963e-03,1.094433888792991638e-01
-4.113769532560239695e-01,-4.208150163798522470e-01,-4.078226720720758980e-01,-1.675841495846894106e-03,-7.199363523884929651e-04,5.250518851102978918e-04,1.208564359694719315e-02
-4.241391493888954090e-01,-4.209565381481043533e-01,-3.877353611932454203e-01,-1.013297460159228239e-02,-5.689053126197655096e-03,6.799091070607677853e-03,4.199185594916343689e-02
-4.225982659342016334e-01,-4.193594192059255654e-01,-3.937830002898257131e-01,-8.840875322436343026e-03,-5.464839162811630478e-03,2.641248053632875171e-03,3.305278718471527100e-02
-3.460777413785816603e-01,-4.219545704933985730e-01,-4.509439385922441867e-01,1.550138636486314385e-02,5.492771418582012392e-03,5.843387310843088482e-03,9.854503720998764038e-02
-4.131312122368115403e-01,-4.222179580925062292e-01,-4.029510647584705341e-01,-8.429513296131278810e-03,-8.040798489311908742e-03,4.706469632335896769e-03,2.742799185216426849e-02
-4.111680229521839647e-01,-4.178075956135511859e-01,-4.092245158732077948e-01,-1.894209154276283369e-03,-1.721818212389448219e-03,2.188545030456409603e-03,9.736141189932823181e-03
-4.133635958795985332e-01,-4.200054275086121391e-01,-4.064679812415756821e-01,-2.539643546455492250e-03,-2.857151720672823766e-04,2.870397812655910131e-04,1.254210434854030609e-02
-2.378439412536988984e-01,-5.270879602280531540e-01,-4.027905314418971927e-01,6.322997735222550715e-03,1.543159867938352914e-01,-7.421020296751445859e-03,3.672670722007751465e-01
-4.859694464595708530e-01,-3.285136896273943008e-01,-4.239069329150855214e-01,-3.672046104622914142e-02,-2.739812617246221993e-02,4.504894207404978174e-02,1.767974644899368286e-01
-3.828245115844905455e-01,-4.773294414964328602e-01,-3.448194491057901545e-01,2.301021941921536310e-03,8.195393861125613300e-02,9.871187236195526696e-03,1.855391710996627808e-01
-4.663075010081373928e-01,-3.079009499360062518e-01,-4.610404694512137969e-01,2.563250688005986374e-03,-8.508680401304336352e-03,1.121399641187859238e-02,1.577980071306228638e-01
-3.846021966548837656e-01,-4.541513744507083006e-01,-3.840584427630548414e-01,-1.506753518687171554e-03,1.698490730630048545e-02,-2.191264260047747284e-03,7.590703666210174561e-02
-4.063644447766521783e-01,-4.051152403494449050e-01,-4.030418581185014060e-01,4.147248370382788756e-03,1.175489703649665492e-03,1.019878908051640711e-03,8.204529061913490295e-03
-4.001143867073818639e-01,-3.946401814383160289e-01,-4.223172225620445142e-01,1.957234685737529664e-03,5.349306922188167696e-03,3.022909495944366143e-03,2.773494645953178406e-02
-3.509899046385532850e-01,-3.848454013664223128e-01,-4.905699859932280971e-01,9.583809846444468761e-02,2.739242916009948514e-02,2.850637179636815802e-02,2.194241136312484741e-01
-4.107369637349150837e-01,-4.077727404036306513e-01,-4.186780843503195015e-01,5.298236939958304338e-04,-2.602800319431889959e-03,-1.653547864373095021e-03,1.116941310465335846e-02
-4.696350527968847777e-01,-3.129646728346964224e-01,-4.314633050350507038e-01,5.184071994620705406e-03,-1.635783755351947035e-03,4.576957445676762409e-02,1.624669879674911499e-01
-4.518076587733270699e-01,-3.412902110855643434e-01,-4.265333192052189193e-01,6.887062591173954626e-03,1.164688219080680515e-02,2.292316350038737377e-02,1.103870570659637451e-01
-4.633762649038542514e-01,-3.535213644607092531e-01,-4.169140196712079471e-01,6.634243525096632579e-03,1.161590334491802634e-03,3.949246419178690376e-02,1.180583983659744263e-01
-4.553584242073837607e-01,-3.372800983946504516e-01,-4.345974159572437157e-01,-1.390495743697798062e-02,-1.781998701687664138e-02,2.563169567158347928e-02,1.242003887891769409e-01
-4.140038736150619125e-01,-3.926128952684212470e-01,-4.368820001754707416e-01,-4.444030231240268108e-03,-6.373676932986861374e-03,-7.258079479910671278e-04,4.065793752670288086e-02
-4.145698982469591676e-01,-3.927335435194356239e-01,-4.346668668821667691e-01,-5.816607977207668631e-03,-4.044656790797104655e-03,-2.474248924239618938e-03,3.858109936118125916e-02
-1.477320713336628399e-01,-5.563604941765567524e-01,-5.113645643432005450e-01,-1.923481279902206076e-02,1.498368385974606191e-02,-6.900922580976455293e-05,3.903827369213104248e-01
-4.659206478829681641e-01,-2.855497767972238199e-01,-4.608370163441043443e-01,2.629563884970699539e-02,-5.325867664583782101e-05,3.904447134299843247e-02,1.956792175769805908e-01
-3.521063280314786770e-01,-4.574596247194726573e-01,-4.174627814022995875e-01,-1.400614082272373662e-02,3.253265003680800432e-02,-6.486340210162957511e-03,1.112435087561607361e-01
-4.013838583290611495e-01,-3.953666798021281403e-01,-4.354119700324218800e-01,3.514449874623805023e-03,-3.946259579006728552e-03,-2.496722170980490447e-03,3.874720633029937744e-02
-3.883268311002923134e-01,-4.056125037194172056e-01,-4.390602721155485444e-01,2.314791690112763447e-03,-7.212377527529821326e-04,-4.893085636336247726e-03,4.566374048590660095e-02
-2.352389711251185733e-01,-5.796580572825573707e-01,-4.555333196865590795e-01,-5.684841799435987747e-02,1.423114174829243350e-01,-1.170627571220988761e-01,4.503825604915618896e-01
-4.033982712900527901e-01,-4.059056148832106414e-01,-4.346728693254734432e-01,-7.511628672349095898e-03,-1.979543614547102284e-03,-4.156217544487400724e-03,3.374645113945007324e-02
-2.112532337396852977e-01,-5.300565425454117907e-01,-4.487388172126358099e-01,1.903583221952310361e-02,1.232925688156659566e-01,-1.508525159314978541e-02,3.601343035697937012e-01
-4.025041553054658494e-01,-4.015746477393675185e-01,-4.118115448584761529e-01,-4.347231268007150339e-04,9.659920490674976136e-04,1.032094389820790124e-03,1.013433746993541718e-02
-1.994903374722672429e-01,-5.057732583036669283e-01,-4.926010264829742136e-01,-1.256305682157544783e-02,5.613344762940931237e-02,-2.602819220283031365e-02,3.192288875579833984e-01
-2.750287096623531546e-01,-5.309272086184433359e-01,-3.855222097802050718e-01,-1.569459219825858343e-02,1.355532274718654062e-01,-3.377376601858683713e-02,3.297009766101837158e-01
-4.549040116031281555e-01,-4.093149009387658244e-01,-4.028651583150597015e-01,-6.710266963874655932e-02,-7.107709236110432149e-02,4.199183654606968019e-02,1.907042562961578369e-01
-4.415472548343523651e-01,-4.356034536059283369e-01,-3.682703144680872787e-01,-1.892486555579411117e-02,-1.963619273010724225e-02,1.302748537684243410e-02,8.780451864004135132e-02
-4.512072199315082521e-01,-4.313614757813198364e-01,-3.915512048058090167e-01,-5.602133367472660747e-02,-7.485775292138192871e-02,3.382610024558899142e-02,1.800766736268997192e-01
-4.612330297635736098e-01,-4.154063516098795983e-01,-3.404612435509977164e-01,-1.505133894258632067e-02,-1.544320826427911242e-02,4.828452581399296506e-02,1.397878080606460571e-01
-4.415173052327718284e-01,-4.257842033580058194e-01,-3.693413769311066353e-01,-1.387622365374611109e-02,-1.220794771381405498e-02,9.383474036638087684e-03,7.490155845880508423e-02
-4.526467424070690360e-01,-4.226180855233691580e-01,-3.619337414052451463e-01,-1.592068373890807506e-02,-1.403833346178838537e-02,2.582968914644549405e-02,9.879133105278015137e-02
-4.253658387002582364e-01,-4.568464754174594300e-01,-3.627839254546672554e-01,3.506015801027813870e-03,-3.908332878353784623e-02,-2.329949906844949042e-02,1.145671904087066650e-01
-2.528283085789461149e-01,-5.457747291682056856e-01,-5.523505418390526334e-01,-1.278386541960855327e-01,-1.147083475835952299e-01,-5.299028776978016025e-02,4.297828376293182373e-01
-3.164335024657980444e-01,-4.582121302598076706e-01,-4.582729452407750537e-01,1.945892090874329827e-03,3.675972855891714713e-03,-1.047517723640662909e-02,1.431463956832885742e-01
-3.809616756633913415e-01,-4.258124679680419522e-01,-4.370200484167272581e-01,-5.838407102068237861e-03,-3.628826388152860474e-03,-3.180420138065149799e-03,5.302814021706581116e-02
-4.019885370468248564e-01,-4.045983379863990481e-01,-4.107069127125708707e-01,-6.861199337401252671e-04,9.243098475913265550e-04,2.503991985904237706e-03,9.102371521294116974e-03
-3.983205739762673003e-01,-4.111359735859260178e-01,-4.343051099239237378e-01,-3.188315495870646353e-03,-4.068333674820929537e-03,-5.232849022979100531e-04,3.284716978669166565e-02
-4.612267941398606186e-01,-4.320952003379810447e-01,-3.297826900817451556e-01,-3.648246320496218928e-03,2.023864847530075853e-03,1.301419324696928038e-02,1.218907311558723450e-01
-2.587512815869047467e-01,-6.168813262235683936e-01,-4.403560183484656609e-01,-7.091470257661990073e-02,-1.415752688489041455e-01,-1.193381286252272189e-01,4.627541601657867432e-01
-3.892789287153975430e-01,-4.022121876211574021e-01,-4.400776691825020182e-01,-3.562662576389247215e-02,-1.840826204033476493e-02,8.090082596049459965e-03,8.432969450950622559e-02
-4.067852001939625262e-01,-4.253149381933546969e-01,-4.058986775133743841e-01,-1.859687217314549878e-03,-3.969832582345430953e-03,2.526688885407636555e-03,2.091340720653533936e-02
-4.015735634465342208e-01,-4.352173630377961788e-01,-3.953943404013513518e-01,-4.407515826827532526e-03,2.613659135372983170e-03,-2.329826283076522411e-03,3.838016465306282043e-02
-2.798538419805853827e-01,-4.861559098156023606e-01,-4.628063977193770939e-01,2.583989167096229986e-02,2.467860655112643492e-02,-1.258083804782476021e-02,2.063824683427810669e-01
-4.191969163284745559e-01,-3.814626150666191040e-01,-4.384940689007408854e-01,-1.001666173494529868e-02,-8.320764823489323198e-03,1.036047486796753091e-03,5.510307103395462036e-02
-4.075934898237810744e-01,-3.967858335063372821e-01,-3.964923592813495712e-01,9.430841218381465219e-02,9.530037519877136709e-02,9.510661830377073467e-02,2.849290966987609863e-01
-3.931192674838425716e-01,-4.034904624843447252e-01,-4.202768858312883604e-01,2.687790503186071600e-03,2.430920796421121802e-03,8.699925940215409714e-03,2.880812250077724457e-02
-4.389621882044916767e-01,-3.991136195169042167e-01,-3.797004504039773742e-01,1.983637378323618514e-02,2.147778747121437473e-02,3.899422225640320622e-02,9.931941330432891846e-02
-3.563141853352642108e-01,-5.412155188433902531e-01,-3.306614418166441416e-01,5.976471991242057746e-02,1.816207773929945091e-01,7.571137145894994702e-02,4.079953730106353760e-01
-4.193046159700172804e-01,-4.198953840284567196e-01,-3.746384765329296429e-01,1.079509839421466562e-02,4.639151380626763826e-03,4.787185730239755174e-03,5.004717037081718445e-02
-4.419392199236135688e-01,-3.521817668007510838e-01,-4.235194876313669865e-01,2.696556587791159188e-03,6.475980914253353683e-03,1.359021674368735694e-02,8.627913892269134521e-02
-3.688915124213505980e-01,-4.537577383141949694e-01,-3.956147758399040093e-01,3.421169655398667033e-04,1.334098284976095207e-02,4.822768928572157381e-03,7.907325774431228638e-02
-4.649440275680714607e-01,-5.230552027085836331e-01,-2.758903778691691455e-01,-1.527686874822354636e-02,-6.649906570894639768e-02,-7.291337585832406709e-02,2.828779518604278564e-01
-4.153485021102489294e-01,-4.406969264921425378e-01,-3.801527922282501026e-01,-1.198783415160891569e-02,5.139291554587501615e-03,-5.139189527750519237e-03,5.799164995551109314e-02
-4.133018735363679919e-01,-4.131251349682193430e-01,-4.123464984205472139e-01,2.653549907217620310e-03,-1.246711681748588312e-03,-1.142054596100690930e-03,5.520402453839778900e-03
-4.108805552400136007e-01,-4.123876040907513141e-01,-4.144302041795550062e-01,1.834175988443735887e-03,-1.429765219677887368e-03,-8.941694849965417307e-04,5.305244121700525284e-03
-3.985257406379450473e-01,-3.661591881283111638e-01,-4.535237496558303105e-01,1.457638399633122937e-02,-1.287107352369647574e-03,1.604721217810541230e-03,8.063857257366180420e-02
-5.278178376061263277e-01,-4.072919682375721329e-01,-3.626623181940556440e-01,-6.271465012800878092e-02,-1.868560390938965310e-01,1.903836771130114000e-02,3.735366463661193848e-01
-4.465912280376793109e-01,-4.380997968872960557e-01,-3.568038317762525224e-01,-1.525554481563806339e-02,-1.904072601994062294e-02,7.621118971381304896e-03,9.659992158412933350e-02
-4.403432921391879917e-01,-4.449449586716310301e-01,-3.583086602843247870e-01,-7.911567443245892672e-03,-1.577458147610339909e-02,-1.473047418228659936e-03,8.982846140861511230e-02
-4.052342697442522512e-01,-4.038759708099607382e-01,-4.077688550986329208e-01,8.308807488954152859e-04,1.556205171000769492e-03,2.252034701767449958e-04,4.604387562721967697e-03
-4.176301768667655678e-01,-4.241209240704137406e-01,-3.981555219374838250e-01,-1.319759998638916736e-02,-1.504143796802938880e-02,5.973574439624097267e-03,4.308262094855308533e-02
-2.025544490838467049e-01,-4.696067174911684461e-01,-5.133199523143683329e-01,9.953494336640084095e-02,-3.147488073959715110e-02,-3.827950733188462129e-02,3.492721915245056152e-01
-3.267999530142132736e-01,-4.906853535390974796e-01,-3.742425482606700493e-01,-3.461006694619430529e-02,-1.293691345104675539e-01,1.773472779611999419e-03,2.741280794143676758e-01
-3.952411571387908773e-01,-3.816806473432061697e-01,-4.467198817731191096e-01,4.827968909223417926e-02,-4.372336682636666916e-02,-4.459517369015172233e-02,1.490845233201980591e-01
-3.216436146890618297e-01,-6.038108444679293196e-01,-3.752902954355447629e-01,-1.886510279729821174e-02,-1.485933358866914078e-01,-1.829310016097742131e-01,4.848276376724243164e-01
-4.012730894974328444e-01,-3.974814116910738160e-01,-4.154086124289091408e-01,2.403610913062370538e-03,5.096241873098954732e-03,2.666447045183547183e-03,1.960520446300506592e-02
-4.072811895558182127e-01,-4.401972031285159015e-01,-3.920684734746194833e-01,6.718848864221144655e-03,-2.231009252456358019e-02,-1.500272034659783614e-02,6.418354064226150513e-02
-3.809809542821928074e-01,-4.323574736750003256e-01,-4.279260269643731518e-01,1.971393463289985645e-02,-4.364914932212111964e-02,-3.108437122951763359e-02,1.105074137449264526e-01
-4.191316968317286284e-01,-4.563977369353590108e-01,-3.992322328937898401e-01,5.255284873983644394e-04,-7.531964807519056504e-02,-4.996264914309642147e-02,1.644235253334045410e-01
-4.013230480809628076e-01,-4.031506025641933832e-01,-4.105391491126491044e-01,1.176240242805670156e-03,3.485945658403111821e-03,1.491778615967619603e-03,1.089567970484495163e-02
-4.012263592777010612e-01,-3.994136270355583829e-01,-4.146455742783767828e-01,5.268309717368681051e-04,2.824289683805795634e-03,1.271604092305278835e-03,1.540455128997564316e-02
-4.857585266604254048e-01,-3.766931906954175124e-01,-3.774702143001608667e-01,-3.129148363575313258e-02,-4.072441944604632269e-02,9.300796002986515265e-02,2.137181609869003296e-01
-4.468427843969380309e-01,-3.941307121148885928e-01,-3.872344486369356797e-01,-1.148552451236641752e-03,-2.741830260605809290e-03,2.142930932497069674e-02,6.777752935886383057e-02
-4.192938176733207456e-01,-4.135682552198021722e-01,-4.056705881282541282e-01,-5.618173379074060947e-03,-9.830690631566583321e-04,-1.912646003893068102e-04,1.542966067790985107e-02
-4.143329792925573574e-01,-4.095914029845937887e-01,-4.142101823271231997e-01,0.000000000000000000e+00,-1.358585623867792757e-03,6.584261528779229277e-04,5.362202413380146027e-03
-3.677456167789974750e-01,-4.594280490164616704e-01,-4.302297707224553291e-01,-1.167051754972876082e-01,-1.081225217551899098e-01,3.082623607867956972e-02,2.921707332134246826e-01
-4.695540213836964516e-01,-4.247304017009534971e-01,-3.253339195357890512e-01,-1.068801309917423101e-02,-3.718683294911998873e-03,4.984681636847338587e-02,1.555070132017135620e-01
-4.048381855545352681e-01,-4.020676711266329972e-01,-4.110566319843427796e-01,2.233242791638894061e-03,3.944062624415494269e-04,1.859206842033775354e-03,9.453669190406799316e-03
-4.145382079851893664e-01,-4.007979523349752826e-01,-4.318855312030526195e-01,-1.383588390637141390e-02,-1.436494635806693371e-02,7.966034214000706354e-03,4.595436900854110718e-02
-3.796856629664461802e-01,-4.457425008715333314e-01,-3.985124043471547917e-01,4.384011819052325253e-03,2.235132328958813752e-02,3.219522338766308677e-03,7.114644348621368408e-02
-3.758072146593751106e-01,-4.506733117537003452e-01,-3.972006083711057123e-01,1.459224435434874857e-03,5.717571924479846260e-03,-1.347152162948738819e-03,6.760823726654052734e-02
-3.757310586001952890e-01,-4.461640507881526330e-01,-4.019502774000864309e-01,2.220212613550950984e-03,6.540736012757069825e-03,-1.178680877747445999e-03,6.283991783857345581e-02
-2.451858336398528293e-01,-6.333159991960981561e-01,-4.100955159976142905e-01,-8.011117160849656749e-02,1.611630924837909595e-01,-9.376519685505226021e-02,4.872202575206756592e-01
-4.402422531020003249e-01,-3.878915743212463241e-01,-4.188792721562581978e-01,-4.986021503815690759e-02,-2.590317481302251840e-02,4.203004773056027293e-02,1.298045665025711060e-01
-3.125895427184247621e-01,-4.551904332668011977e-01,-4.729117075458192931e-01,3.800457849263902399e-02,-1.053746466277914393e-02,-3.077443045804547847e-02,1.751670092344284058e-01
-3.872721437774121478e-01,-4.439436595920390194e-01,-3.940303234162453871e-01,1.167307199157023145e-03,3.276359002616653811e-03,3.180334130819104294e-04,5.395305529236793518e-02
-4.680950263093219821e-01,-3.304863312155104094e-01,-4.311007472822184217e-01,-9.771608753778155548e-03,-8.305975733195017016e-03,1.676516447219312395e-02,1.286492496728897095e-01
-3.838988035881399918e-01,-4.470101590058441210e-01,-3.905312751285682782e-01,9.502232127743331317e-04,5.315670489179291462e-03,2.741634075701787350e-04,6.079598516225814819e-02
-3.611505769184616965e-01,-4.488573890695252699e-01,-4.189211335623512777e-01,3.068951029803479880e-03,1.310096784950675469e-02,-5.539987473179331344e-03,8.122983574867248535e-02
-4.092238137477068882e-01,-4.147092098852899200e-01,-4.138107051323751673e-01,-1.838015725091331079e-03,-1.776915398878230147e-03,2.253340607879962456e-03,7.797951810061931610e-03
-4.491230650119367729e-01,-3.838546671271010347e-01,-3.888122633103030523e-01,-2.991499249879825493e-03,-2.603116933307055274e-03,1.521956736608204123e-02,6.857877969741821289e-02
-4.624357905624608689e-01,-3.235271088866030764e-01,-4.479882023780129563e-01,-1.030027423627047356e-02,-1.662481086412847392e-02,4.430455150017206800e-03,1.367617845535278320e-01
-4.025406940968508374e-01,-4.519794346948705632e-01,-3.657759348671438260e-01,5.151483199475991384e-03,1.027790878216888054e-02,1.994285887855780804e-03,7.760084420442581177e-02
-4.137599611556239121e-01,-4.065155891090450058e-01,-4.175672579617272229e-01,-1.934475981229013359e-03,-3.012044423438364413e-03,7.783287554771603283e-04,1.161116361618041992e-02
-4.485021105444020328e-01,-3.547022177779516339e-01,-4.318215399307697711e-01,-3.548930731136844263e-03,-1.047118574938861110e-02,4.625049343878248793e-03,8.912306278944015503e-02
-4.481360286536202886e-01,-3.681229715045336581e-01,-4.179880483049183137e-01,-1.102011224632979715e-02,-1.033782081619584459e-02,1.221784915115006233e-02,7.766290009021759033e-02
-4.097126965391130748e-01,-4.245079422719400530e-01,-4.061382767550802964e-01,-9.027819083393602865e-04,-7.049140989612761926e-04,1.167139243082637766e-03,1.710504665970802307e-02
-4.262733021950585455e-01,-3.935860807600902733e-01,-4.070974521569856730e-01,-1.577173008282013386e-02,-1.594968672346959784e-02,1.695538259007563567e-02,5.640245974063873291e-02
-4.119721005215240539e-01,-4.153451049171154597e-01,-4.100384014383809950e-01,-1.571269560297148442e-03,-2.221314291578345076e-03,2.338280941374893274e-03,7.762137334793806076e-03
-4.159237562432638868e-01,-4.067207458850694013e-01,-4.143481146251762892e-01,-2.670422991961078369e-03,-5.009781328731192050e-03,1.504855044011015790e-03,1.327246706932783127e-02
-3.837492824151815252e-01,-4.473480591927965766e-01,-3.909538142103711200e-01,1.257697901975230945e-03,5.089536091036171196e-03,1.130078819003674413e-03,6.103111431002616882e-02
-4.027564640826040154e-01,-4.144122702998760954e-01,-4.213848539494469692e-01,-3.253797792904493912e-03,-1.040183843023678614e-04,2.936712269714697367e-03,1.798367872834205627e-02
-4.120005204933791521e-01,-4.067408782831181124e-01,-4.200732431375133746e-01,-2.341690524861924760e-03,-3.311646840967723965e-03,2.303238459614235113e-03,1.416187174618244171e-02
-4.187511038665516216e-01,-4.393344938477882211e-01,-3.721920670976814338e-01,-1.270794950527431508e-02,1.034551616839899171e-02,-8.427862249222605601e-03,6.759004294872283936e-02
-4.164176939446909698e-01,-4.139104713190188134e-01,-4.072849574423138552e-01,-3.378348674363288069e-03,-1.450137174985504599e-03,9.302758266373962765e-04,1.048522256314754486e-02
-4.125867316489629233e-01,-4.074412059408805131e-01,-4.187622057128999042e-01,-2.074063204632762680e-03,-2.495555638626112925e-03,1.956175298131721668e-03,1.180921029299497604e-02
-4.140215328676677409e-01,-4.133958677988024411e-01,-4.096695178566787110e-01,-1.310015965687803255e-03,-2.832087494165696703e-03,1.246914368774853761e-03,7.105178199708461761e-03
-4.137739624194823884e-01,-4.177437875844849935e-01,-4.059217951197846563e-01,-4.360716249777270639e-03,-2.647098676242193391e-03,1.325058410091532182e-03,1.385366544127464294e-02
-4.273726474231984152e-01,-4.102589270080028716e-01,-4.046451698318381807e-01,1.488124685290239876e-03,-2.587672165036314972e-03,-1.089890354826980124e-03,2.123113907873630524e-02
-4.137716198640532528e-01,-4.725454633483628375e-01,-3.317903682048670699e-01,-1.022197755322921259e-02,4.923019806978190527e-02,-6.115900777631715600e-03,1.506325304508209229e-01
-4.832849893945285191e-01,-3.399067859614157139e-01,-4.099829685231211052e-01,5.006011253329942234e-02,2.989395264326598009e-02,9.074390045359154167e-02,2.243277430534362793e-01
-4.248306941084892263e-01,-4.548510643009927024e-01,-3.158511289634420294e-01,2.068336467156988573e-02,6.471097017865981571e-02,3.179863598489398452e-02,1.814628541469573975e-01
-4.317231624301373083e-01,-4.124979476870951345e-01,-3.960461468643924343e-01,1.608760316911901330e-03,-3.284254735263472409e-03,-1.177229752475528538e-02,3.758250176906585693e-02
-5.073118733839552252e-01,-3.599166392020123340e-01,-3.321878923850162812e-01,2.355345999399539522e-02,6.706373547607488717e-02,1.727039655462580536e-01,3.622405827045440674e-01
-4.283503113962511266e-01,-4.056347126717688156e-01,-4.056432948122017934e-01,3.756059916284303492e-04,-2.185042083797388186e-03,-2.099823077940918704e-03,2.331904321908950806e-02
-4.315208329057723113e-01,-4.103253705028672149e-01,-4.002037514562362674e-01,1.881419127475295354e-03,-5.121360910059468904e-03,-2.264325458363349204e-03,2.951123379170894623e-02
-4.247995532806629893e-01,-4.036527148564010847e-01,-4.110231218723220392e-01,-5.159382408294928149e-04,-3.307151473509184914e-03,-1.264544964451954972e-03,1.959740929305553436e-02
-3.961444679245933465e-01,-4.566787687064085000e-01,-3.653686419054268941e-01,-1.372486321237962031e-03,4.421659543773939771e-02,9.820994422158873388e-03,1.124049574136734009e-01
-3.608813735164262404e-01,-4.547325390809163759e-01,-4.126991476826706862e-01,4.891611001473572702e-03,9.885431676447817978e-03,-4.098522216531661801e-03,8.393632620573043823e-02
-4.077332334026122496e-01,-4.398820785266961964e-01,-3.842101804806352106e-01,-1.089483672458709494e-02,6.692310432020993557e-03,-5.369820767341781237e-03,5.403776094317436218e-02
-4.166370019936725400e-01,-4.455268278467809928e-01,-3.727476259525349112e-01,-1.121451638840730534e-02,4.917897637997850797e-03,-1.630404977024194416e-03,6.698270887136459351e-02
-4.174786089899459318e-01,-5.080224601539150564e-01,-3.232801646460737865e-01,-1.356452085214295521e-02,8.750147528748640491e-02,-3.342048198310621637e-03,2.217107266187667847e-01
-3.625372141524451086e-01,-5.739168787734599819e-01,-2.778750941217437154e-01,-8.494028022035957082e-03,1.684499347832535132e-01,4.697868339835633428e-02,4.021299183368682861e-01
-4.142554501181584525e-01,-3.717673559601499811e-01,-4.338342396115065225e-01,5.507720375999079765e-03,8.577165996908813622e-03,4.555942352659811401e-03,5.826156958937644958e-02
-4.348533351737995933e-01,-3.151904957898173931e-01,-4.616341382301707985e-01,6.111571300548927776e-02,4.919241069206600932e-03,2.303923958051581206e-02,1.763844639062881470e-01
-4.165302865164204893e-01,-4.300592839668023748e-01,-3.948966110017677611e-01,-8.363709906633860422e-03,-8.674257342254871684e-04,2.106056409894337036e-03,3.419283777475357056e-02
-3.947900209162956142e-01,-4.395788563032502205e-01,-4.141583053821031313e-01,-1.606211413289389614e-02,-2.200835414096512233e-02,-5.604725589242634358e-03,6.192740797996520996e-02
-1.724163161720222437e-01,-5.130154958093218198e-01,-6.109990712773820665e-01,8.471584004766255505e-02,-8.885647502450175206e-03,-6.045770897462831445e-02,4.378519058227539062e-01
-3.030365857822424069e-01,-5.765229219845869890e-01,-4.578676165413356758e-01,-6.721421850990016988e-02,-2.154726349579462186e-01,-6.556031192811899444e-02,4.713346362113952637e-01
-3.379496625753745098e-01,-4.566872042713699953e-01,-4.473283004881890568e-01,2.498458862756256470e-04,-2.712970165222679600e-03,-1.140762611683922463e-02,1.161361709237098694e-01
-3.735429259335528163e-01,-4.464039959776660016e-01,-4.417343868406789498e-01,-6.174959527093175360e-02,-3.286597113734052167e-03,-3.127845492629952040e-02,1.392723023891448975e-01
-3.484844793014558184e-01,-4.443730460614821465e-01,-4.522487935088637112e-01,-3.456196251635353101e-03,3.887262080163764134e-04,-1.142969906685642467e-02,1.021765246987342834e-01
-3.736332672398500754e-01,-4.352918145998321275e-01,-4.364599918132288647e-01,-6.278677501201994707e-03,-7.123104115337474708e-03,-1.875917557066588337e-03,6.446865946054458618e-02
-4.717075737413791714e-01,-3.557071238532095170e-01,-3.579722533510933391e-01,3.733063667161558297e-02,3.507517791262845797e-02,9.068436275461244644e-02,2.138713896274566650e-01
-4.032518035347509300e-01,-4.112249696391337417e-01,-4.011312457060405290e-01,1.424430317615121670e-03,1.650790113645835651e-03,3.553293684697066308e-03,1.170964259654283524e-02
-4.043154227092090602e-01,-4.118899095346650885e-01,-4.015108620893624858e-01,8.626820423694302620e-04,7.795729320773403005e-04,1.185591415082391147e-03,9.734179824590682983e-03
-4.037908304475107957e-01,-4.082998094610575390e-01,-4.049964857061147949e-01,3.736952745582363951e-04,7.996843407236305665e-04,1.866663719665817350e-03,5.398050881922245026e-03
-4.109085170808161602e-01,-4.018473382464840538e-01,-4.022396194130440916e-01,3.430856587750780260e-03,1.331569100195619275e-03,9.658047379710662118e-04,1.105143502354621887e-02
-4.512476927063319709e-01,-3.746990301783663102e-01,-3.920397374963077164e-01,3.786523505291154810e-03,2.492147481343372824e-03,1.304655090613786317e-02,7.352056354284286499e-02
-4.103387246270221445e-01,-4.018041675464923412e-01,-4.049106041722683735e-01,1.103114632991460120e-03,2.604300406683165373e-03,2.265263579081985270e-04,8.951436728239059448e-03
-4.157667306849102129e-01,-3.950686475482686477e-01,-4.068247542588466770e-01,2.737847998433683237e-03,7.499613373660951599e-03,2.385643172340337972e-03,2.305605635046958923e-02
-3.989064746588192323e-01,-3.977321292022890642e-01,-4.173329647494051775e-01,4.631059497994922079e-03,6.253908712129800304e-03,2.259144757504261830e-03,2.365458011627197266e-02
-4.077837709305249803e-01,-3.941133750270955360e-01,-4.137552778956627986e-01,2.224006696790385099e-03,7.280296831560751150e-03,1.613549190663568413e-03,2.204152569174766541e-02
-4.313799531040544144e-01,-3.775375743426744868e-01,-3.967716333080343882e-01,5.770062689397861821e-02,4.842173878001386489e-02,7.320966133260688180e-02,1.879744380712509155e-01
-4.121147548511709391e-01,-4.022457645675582283e-01,-4.014920777132338636e-01,9.476925092487825534e-04,1.344779675558469131e-03,-2.201372082709776091e-04,1.066152844578027725e-02
-4.597038576997110049e-01,-4.393562732910382684e-01,-3.356975701496727749e-01,-4.132079324191646925e-03,3.292095638464684858e-03,1.630741736272041734e-02,1.189532950520515442e-01
-4.402828931885497954e-01,-3.921679886965818707e-01,-3.965981282201178071e-01,-7.469317314871949751e-04,-3.850637841445090324e-03,4.808932060162293687e-03,4.729744046926498413e-02
-5.377900153507029213e-01,-3.302639428486954243e-01,-3.435845623259223269e-01,1.069275438902262017e-02,-1.831583786819494797e-02,1.806340762703562419e-01,3.737854361534118652e-01
-4.230782946202969463e-01,-4.060697264376960658e-01,-3.904695221550080197e-01,9.964508027568725473e-03,1.058100667451428861e-02,1.254163302356998966e-02,4.363049194216728210e-02
-4.442677882868203976e-01,-3.933665931280680428e-01,-3.823302458855393215e-01,3.808729585634712447e-03,2.783625690591823385e-03,8.344036115841979226e-03,5.958296358585357666e-02
-4.450473462889995013e-01,-4.125106701569576928e-01,-3.665421957027447109e-01,4.465177782562223217e-03,2.881779822748031274e-03,6.565807512027366580e-03,6.986740231513977051e-02
-4.205981134113841446e-01,-3.926363651664306342e-01,-4.068057645151607615e-01,2.513515137070300443e-03,5.548853549954920437e-03,2.113227210332617283e-03,2.666739374399185181e-02
-6.264558166268358042e-01,-1.461431253584106194e-01,-5.095768528076156656e-01,-2.100170464397388762e-02,-6.615855624526922885e-02,1.017671243359443284e-01,4.834730923175811768e-01
-4.071312645431977573e-01,-4.102875134030016802e-01,-4.211647740418413277e-01,-2.980291396605998407e-03,2.007596910187760611e-03,-2.164354519667116040e-03,1.467648055404424667e-02
-4.150512810591416857e-01,-4.625227878810453386e-01,-3.418933295183195775e-01,7.201990715475489746e-03,1.606664593603620433e-02,3.015695063981955679e-03,1.097080186009407043e-01
-4.451245140199825423e-01,-4.400884454855141237e-01,-3.550063170831606607e-01,-1.111610660409454755e-02,9.882166489458721770e-04,-1.636733968895956806e-02,9.418127685785293579e-02
-4.494279421589202905e-01,-4.360257893006433960e-01,-3.583530747254213278e-01,-8.221455298436998764e-04,7.312257758287699951e-03,-4.446205946072402659e-02,1.155279576778411865e-01
-4.207127690544792964e-01,-4.288705831612746322e-01,-3.873877729686586169e-01,-1.073081024709643221e-02,3.165651877522433419e-03,-1.975431266262313561e-03,4.285074397921562195e-02
-4.135745910788279911e-01,-4.196298192483580158e-01,-4.045610119522999870e-01,-5.701557146446975533e-03,4.899677894657325939e-04,-1.042225211550465869e-03,1.655269972980022430e-02
-4.488683381661472405e-01,-4.473165259763433044e-01,-3.429278396036233856e-01,-1.284014103513817645e-02,3.264390228744586033e-03,-3.738548707857815290e-03,1.078420355916023254e-01
-4.621699425182406173e-01,-4.709292684242271099e-01,-3.059079713667034461e-01,6.273206604092712189e-04,-4.011294793824156033e-03,-3.819691871932839183e-02,1.740394979715347290e-01
-4.386816923372334198e-01,-4.156570808531797057e-01,-3.927263030785894116e-01,-1.450271491782849191e-02,1.905248493060930854e-03,-2.120562687984578129e-02,5.978994444012641907e-02
-4.281507769316789114e-01,-4.044267747262292323e-01,-4.111660456070915792e-01,-1.733250716964148839e-03,-3.106749910463932124e-04,-2.484713879838934287e-03,2.182170934975147247e-02
-4.242776489591709166e-01,-4.140915466134121870e-01,-4.012342993320715534e-01,-7.038661184002517959e-03,2.060009577431898969e-03,-5.101665633624587713e-03,2.528776042163372040e-02
-2.138279364605882027e-01,-5.703821910349925473e-01,-4.703562349616252636e-01,4.377837984454499565e-02,-6.484340808589574012e-02,-6.830687802610409254e-02,3.658313453197479248e-01
-3.501534299406311446e-01,-3.152723376872980099e-01,-5.711218838831239042e-01,1.912564110410160390e-01,4.356334949102205062e-02,4.586181346832363115e-02,4.236645102500915527e-01
-3.652366997943536364e-01,-4.155573424778880032e-01,-4.486515946386763765e-01,5.775441833426587374e-03,-4.159608345733036353e-03,-9.242015258909098280e-03,7.550456374883651733e-02
-3.796231046435682432e-01,-4.000800012585968846e-01,-4.421359883851707084e-01,4.414085033183474949e-03,2.381405348003720092e-03,2.353098582530477063e-03,5.603215843439102173e-02
-3.823904752231689907e-01,-3.995887149406058270e-01,-4.345795197950013677e-01,4.129902909420879280e-03,3.366727581777997653e-03,6.464496008056847855e-03,4.829552769660949707e-02
-4.028563680865209218e-01,-3.860986091872624093e-01,-4.248651396236608480e-01,3.270081000494801798e-02,2.506693120045900072e-02,3.045651817457615401e-02,9.492053091526031494e-02
-4.841150136017289829e-01,-4.310599976163986824e-01,-2.704597818067748793e-01,4.780320931628388031e-02,8.307475246012689662e-02,1.176412910657123473e-01,3.258926570415496826e-01
-2.081155790161831054e-01,-4.413958517440180196e-01,-5.342579301350608434e-01,1.258983640037652507e-01,4.371214142735403707e-02,1.735425438731946681e-03,3.714813888072967529e-01
-3.783665559767057651e-01,-4.028050969136346970e-01,-4.383786999230759873e-01,1.886738226000335764e-02,8.208955547196777891e-03,7.775910295410275695e-03,6.468059867620468140e-02
-3.840709210244563354e-01,-3.813997114765608210e-01,-4.470018256989740646e-01,1.956514979572399060e-02,5.319309174381772407e-03,7.431225344045391638e-03,7.439405471086502075e-02
-3.533054587920410050e-01,-4.210057532825857707e-01,-4.412410242921442349e-01,1.106158983191142704e-02,5.727992474466975584e-03,1.209765846148161059e-02,8.524843305349349976e-02
-3.858162136584445956e-01,-4.252205200617233394e-01,-4.031848899175982659e-01,2.913579160706440338e-02,3.507607701493638958e-02,2.272518403293553521e-02,9.464115649461746216e-02
-2.792684620411525209e-01,-4.171587761451650556e-01,-4.931495534723301377e-01,1.778325314789526435e-01,6.997661620011236261e-02,5.877327610767655447e-02,3.939454555511474609e-01
-4.020195301225252815e-01,-3.855972090252577922e-01,-4.431586585961967417e-01,2.715891720895379641e-03,-2.123530894222953706e-03,-2.874354014548760172e-04,5.170710384845733643e-02
-4.129256074198830451e-01,-3.591565789367513473e-01,-4.552119428090514175e-01,8.122565989371527406e-03,-7.869138654767859203e-03,-3.033276594937395470e-03,8.581513911485671997e-02
-4.233145519265746337e-01,-3.529707364747622922e-01,-4.304275094989805095e-01,3.845914593338805448e-02,2.559477348327856422e-02,3.103874318463131082e-02,1.216223835945129395e-01
-4.329282478560786962e-01,-3.417375817019397966e-01,-4.570655940556578867e-01,8.225888118464308452e-03,-1.246428062205783352e-02,-8.097918129779007809e-03,1.093857809901237488e-01
-5.176235214211160063e-01,-3.653293409146647353e-01,-2.925882422733413479e-01,2.864345854294364155e-02,4.985923546092343311e-02,1.584882591341968128e-01,3.533236384391784668e-01
-5.132238536650847172e-01,-2.484184191393085106e-01,-4.189729831304307983e-01,-4.695630629276326823e-02,-3.785122064077937887e-02,1.456231907232211631e-01,3.585779964923858643e-01
-6.200714876811986853e-01,-1.758360296144745316e-01,-4.662827044640706631e-01,-2.230825455137858820e-02,-4.146977743709788500e-02,1.018362491500249961e-01,4.363963305950164795e-01
-4.910301184323430101e-01,-3.031625594716199079e-01,-4.812748352794833928e-01,-5.602627781521524186e-02,-3.134191660220397857e-02,-2.118311700216486682e-02,2.174089103937149048e-01
-4.357369657880152403e-01,-3.349038430553032408e-01,-4.787070522509103143e-01,-3.424920189181033386e-02,-1.744317871249858112e-02,-2.002487878720204603e-02,1.482611149549484253e-01
-3.436437747729157444e-01,-4.531918820588407559e-01,-4.488344430064627466e-01,-4.021829987745196427e-02,1.569634406941721252e-02,-7.709168298240088625e-03,1.315765231847763062e-01
-5.250431033326976582e-01,-3.055954840921100146e-01,-4.128919982323257520e-01,-1.118603385131391841e-02,-1.866880438946057902e-02,8.503523090723609512e-02,2.433880865573883057e-01
-4.849732595539287816e-01,-2.712717713860615110e-01,-4.762245655103293229e-01,5.231795279460447340e-02,-3.717540523011180886e-03,5.121412609360866119e-02,2.449426054954528809e-01
-4.418560726875566114e-01,-3.666460219914676189e-01,-4.236820284976602902e-01,-8.519886548971927764e-02,3.313186152156837039e-02,-1.142965180025545258e-01,2.624514400959014893e-01
-4.652678390170802425e-01,-2.984473926146252731e-01,-4.648982975429351017e-01,1.351447654732179475e-02,-1.860037739017290914e-02,-1.656387422231930806e-02,1.737137883901596069e-01
-4.156711982192401456e-01,-3.850718952718049648e-01,-4.445661237598291793e-01,-1.259645794534430124e-02,-8.517347243217085126e-03,-6.300503301209440035e-03,5.889087915420532227e-02
-2.163650961228279490e-01,-5.094586349461740493e-01,-4.986115967052699993e-01,1.269625870549354052e-01,1.407652899853978345e-01,4.417272824325766539e-02,4.432821571826934814e-01
-3.210889551945948495e-01,-4.669600490433690743e-01,-4.719389564310172980e-01,1.557105201960183767e-02,-5.592612386085189097e-02,-3.320285451472060334e-02,1.882745325565338135e-01
-3.484882414796102723e-01,-4.245652843017213574e-01,-4.413657901765715708e-01,1.420324611291414602e-02,1.094774655572734040e-02,1.235566067861979152e-02,9.365281462669372559e-02
-4.078125773860870051e-01,-4.126534287801349454e-01,-4.160269184916497998e-01,8.820182829496148397e-04,-2.142500092710893957e-03,-3.274583069910337249e-03,9.970872662961483002e-03
-3.323907558170990373e-01,-4.516680247325503550e-01,-4.365694893140911748e-01,8.685587140571368603e-03,1.197810398083643674e-02,9.372033546035139296e-04,1.153841391205787659e-01
-3.215936837709775786e-01,-4.440811327885657023e-01,-4.550535794545497170e-01,1.585123140396779706e-02,6.854844365320768990e-03,1.636421717788143259e-03,1.317965984344482422e-01
-3.449747656875625790e-01,-4.203290890041266326e-01,-4.533650326114514462e-01,1.596608663515942592e-02,6.045083737088202680e-03,5.010969735509522745e-03,1.010383814573287964e-01
-2.708995336195404446e-01,-3.656934987039080487e-01,-5.472286174490555988e-01,1.813851088257001087e-01,9.752617624531419172e-02,1.056205182606450854e-01,4.688839316368103027e-01
-4.489040720908873960e-01,-4.090069704747325563e-01,-3.637805314580654370e-01,4.289089724801548043e-02,5.686638795728866935e-02,8.536250614635505773e-02,2.062089443206787109e-01
-3.372524144800495005e-01,-4.320728414617941437e-01,-4.591971635562511755e-01,1.143712821350223452e-02,3.908040079994281810e-03,-3.813357728218728666e-03,1.130506470799446106e-01
-4.490810763817489892e-01,-3.261570690220956248e-01,-4.635706339656167629e-01,-1.811706682109247724e-03,-1.502985184398738204e-02,-1.140867450643291529e-02,1.348309367895126343e-01
-4.026555488607090894e-01,-4.048556888820261657e-01,-4.350352902800446175e-01,-8.950357672835434000e-03,-2.219723609494373209e-03,-2.421146072265904087e-03,3.542234376072883606e-02
-4.041473113259362315e-01,-4.059190861360634228e-01,-4.314528240020953365e-01,-1.097670315166285456e-03,7.233613064244806806e-04,-1.513967031185544342e-03,2.669104188680648804e-02
-4.434048807443722873e-01,-3.081847586283240625e-01,-4.843864510667512113e-01,-1.051580973746805148e-01,-7.618613373722277725e-03,-6.191621574459401506e-02,2.652454674243927002e-01
-4.527607580929284836e-01,-3.420657785841910714e-01,-4.725215125855735110e-01,-5.917064206974075730e-02,-2.042978242228989105e-02,-2.357016591525927171e-03,1.631060093641281128e-01
-3.993048058624760199e-01,-4.112316323826646913e-01,-4.292965758786373986e-01,-5.093049798106877996e-03,1.776425800903730584e-03,-6.288837011085522503e-03,2.983256243169307709e-02
-4.010213648415615340e-01,-4.076623858643459997e-01,-4.328986183273942356e-01,-1.626630778515137342e-03,-4.243077419083718838e-04,-1.452775680651536335e-03,2.938323467969894409e-02
-4.061117371113965313e-01,-4.033427127113619060e-01,-4.316181616095368656e-01,-3.643083910901485836e-03,9.935881287563457561e-04,-1.639358980921756847e-03,2.792334929108619690e-02
-4.356379653597760027e-01,-2.370542406499494825e-01,-6.086874316922423755e-01,-9.081845153966987272e-02,-4.875029009736384089e-02,-6.168517067959503747e-02,3.834518790245056152e-01
-4.172975519781193521e-01,-4.170606393240448573e-01,-3.827180700741613650e-01,1.147858246303266189e-02,4.717397161277975259e-03,5.350796683550267281e-03,4.165972396731376648e-02
-3.955132760934858549e-01,-5.765685144443662979e-01,-2.609218058062169887e-01,2.813655923484430221e-02,1.904842597555156114e-01,5.130392351514723864e-02,4.408949911594390869e-01
-4.136782544589696076e-01,-4.358174958750779537e-01,-3.669163588580850455e-01,9.904920708190928860e-03,7.450067279121981925e-03,5.525552409958736644e-03,6.530330330133438110e-02
-3.929415858662765326e-01,-4.343268505623557041e-01,-3.900566975789395707e-01,3.065135920903193627e-03,1.715740094872599247e-03,1.982437618379941525e-03,4.346563294529914856e-02
-4.087473073840663385e-01,-3.940192436039162693e-01,-4.122160407460816467e-01,1.546859681465522938e-03,7.418010897761794648e-03,5.277777062020426978e-04,2.128685824573040009e-02
-4.422090772738400122e-01,-3.360111660371272735e-01,-4.374025348252357226e-01,1.285107464434514547e-02,8.414952377966383734e-03,8.583603706013341952e-03,1.082569807767868042e-01
-3.349875836989084088e-01,-4.722542939480406377e-01,-3.717840283772859133e-01,9.849369769652738249e-02,1.621291162181151824e-01,1.182664722752604924e-01,4.062839448451995850e-01
-4.173962381320312498e-01,-3.758190593108743371e-01,-4.227099043589910843e-01,2.303448466873943626e-02,1.469033385778490720e-02,2.017518193099451101e-02,7.374359667301177979e-02
-4.016077978400436899e-01,-4.472385831118417809e-01,-3.750423204480580752e-01,1.841163814040611656e-03,2.205251656777144215e-02,3.931564225376341093e-03,7.426694035530090332e-02
-3.578470202451291549e-01,-4.197602989607139845e-01,-4.408405071412737630e-01,3.159232254213144298e-02,2.071392515462764511e-02,1.124813839347113542e-02,1.012114658951759338e-01
-4.006538134659043959e-01,-4.898745980321349003e-01,-3.468238143626553027e-01,2.121426555285279777e-02,9.127903153942769354e-02,2.745162581348191064e-02,2.103978842496871948e-01
-4.571675682323983470e-01,-3.821066786122531145e-01,-3.862973611626722148e-01,-2.527010549750544240e-03,-2.439479921109229295e-03,1.457983074620440057e-02,7.753623276948928833e-02
-5.073116850040362280e-01,-4.608223759989892865e-01,-2.521304746093050997e-01,4.789191405883853198e-02,1.270106920983355703e-01,1.666380414579733404e-01,4.404500722885131836e-01
-4.978680995775984774e-01,-5.038044210347479845e-01,-2.486657649506285317e-01,-2.697029084408851182e-02,1.767533564430554677e-02,9.094155364838442043e-03,2.588125467300415039e-01
-4.147612724402083284e-01,-3.952865209711768357e-01,-4.092778502958950848e-01,1.092764042778426696e-02,1.251078652420297907e-02,1.019247772937582029e-02,3.797373548150062561e-02
-4.077881576178521983e-01,-4.032250103827123566e-01,-4.053325126112771182e-01,1.155962376835954113e-03,2.860890208292484003e-03,1.534181792712749955e-03,7.160377223044633865e-03
-3.379201063227038615e-01,-4.384199441125353758e-01,-4.386487467383355376e-01,1.601976904086263934e-02,1.050198572831179122e-02,1.006264136013199605e-02,1.073676347732543945e-01
-3.813440531836046476e-01,-4.518630464192474605e-01,-3.957749435787997205e-01,-1.203636730946218382e-03,2.040808151656060485e-02,-1.203147721653901030e-03,7.363209873437881470e-02
-4.522655050007836630e-01,-4.184951519703045131e-01,-3.568005553815425390e-01,-7.332728357594451608e-03,2.258540739592383717e-03,9.549774798348127647e-03,8.648879826068878174e-02
-4.521211374409483397e-01,-3.612659154059881805e-01,-3.771024072224785084e-01,1.042928246254963415e-01,7.277534706483292093e-02,1.545099610445192229e-01,3.566600084304809570e-01
-4.360450903063762262e-01,-3.942715430624915696e-01,-3.971899509666578232e-01,-1.049359722371119878e-03,-2.574703322294994746e-03,5.479672151096311346e-03,4.177206382155418396e-02
-4.707405041832991022e-01,-4.520131487925447833e-01,-3.213065533345939029e-01,-3.193983260333699281e-02,-5.566850862210522000e-02,3.003362600551160756e-03,1.796306967735290527e-01
-4.054769882166291972e-01,-4.326798564546947556e-01,-4.028515859443855263e-01,-1.056482719238248684e-03,-1.008634687999660504e-03,-4.046778994403458130e-04,2.872627787292003632e-02
-4.004368630648080796e-01,-4.348918595260589104e-01,-4.055085091131521713e-01,-7.239362756743726547e-04,-4.394114334465805058e-03,-3.388969637436791641e-03,3.364635258913040161e-02
-4.292425091593268793e-01,-4.425052209905216416e-01,-3.695411909915886084e-01,-1.122138450913405007e-02,-5.576621636828943233e-03,1.364938048159147462e-03,7.077140361070632935e-02
-4.025373445784509174e-01,-4.343294683511768617e-01,-4.055715924386439908e-01,-1.498816789350942936e-03,-1.285582738956880236e-03,-1.752683095048272743e-03,3.073099069297313690e-02
-3.854940314834603421e-01,-4.268280769978884948e-01,-4.417232432781942886e-01,-5.826039723237132900e-02,-8.527741937724904464e-02,1.933447366790274138e-02,1.888572126626968384e-01
-3.425492464336132858e-01,-4.970845386617714912e-01,-3.694674917227620536e-01,-1.373736223058589188e-02,-1.301926685156634123e-01,9.521525672697692989e-04,2.680768370628356934e-01
-4.073355014043491540e-01,-4.334937832278109027e-01,-4.021201934140352097e-01,-3.112309991732204774e-03,-1.308913360488518033e-03,-5.819765508388934864e-04,2.971689589321613312e-02
-4.232514346843556652e-01,-3.697112560014219063e-01,-4.256289524949376513e-01,2.753448950464571984e-02,1.810469707386019866e-02,2.632482586252508916e-02,9.130317717790603638e-02
-5.148652352355728157e-01,-3.757012808092607403e-01,-3.264122028015102872e-01,7.766410339416521258e-02,9.272227562784000898e-02,1.866722754431481834e-01,4.208114743232727051e-01
-4.834954643932443119e-01,-4.300706808911028967e-01,-3.278015466042459858e-01,-1.851673852300301723e-02,-1.540862367267704577e-02,4.950034074043932475e-02,1.669389903545379639e-01
-4.621927828318577181e-01,-4.029878943615318176e-01,-3.628418242128324533e-01,-1.944857507720188991e-02,-1.020870109480162893e-02,3.432551917284430015e-02,1.116955131292343140e-01
-5.062150243178756837e-01,-3.780439273395812538e-01,-3.554196499595261294e-01,1.047084304423125979e-02,1.419246853789456198e-02,1.102929796218801439e-01,2.393037527799606323e-01
-3.950321623147405870e-01,-4.134428056738450041e-01,-4.080199903853132803e-01,7.979237801796096666e-03,1.273812820786613016e-02,1.129980993177224190e-02,3.646042570471763611e-02
-4.509004875505918664e-01,-3.755901536578962752e-01,-4.008301197973522245e-01,6.389563553519917415e-03,1.070289825797519218e-03,2.241739234962488933e-02,7.772648334503173828e-02
-4.026293163385770701e-01,-4.109279362742302433e-01,-4.283819557179159299e-01,-3.553408700416479243e-03,-2.238025894228790665e-03,-4.982478369440051505e-04,2.391663379967212677e-02
-5.559856782224804617e-01,-1.864394404390266602e-01,-4.655333011625111816e-01,1.119591337804110437e-01,-1.751123789131362081e-03,1.416762785263388780e-01,4.573291540145874023e-01
-4.099989816838762180e-01,-4.069983269597003961e-01,-4.215755675595944107e-01,-3.263925217570662861e-03,-2.026283382680125686e-03,1.640317704447319998e-03,1.516929920762777328e-02
-4.496487734190003360e-01,-3.630544002930153891e-01,-4.149666910828003208e-01,-5.039519603512853524e-03,-1.031571264627674338e-02,8.176456010626585030e-03,7.933570444583892822e-02
-4.501841253826216471e-01,-3.735847232826889908e-01,-4.021440573850043054e-01,-5.241303993704329867e-03,-8.818724314265953546e-03,1.713013219506741291e-02,7.544218748807907104e-02
-4.503190606477332492e-01,-3.944628010775543814e-01,-3.934378609027607832e-01,-3.058100282463575154e-02,-2.203407253596694274e-02,2.461712335675613275e-02,9.622018784284591675e-02
-4.312836736026287032e-01,-4.019828019522660445e-01,-3.982036256260376161e-01,-4.627829846764563819e-03,-1.182161096838991619e-03,2.940371976856089292e-03,3.283194825053215027e-02
-3.805288927480678929e-01,-4.380948012657426283e-01,-4.225496007297353529e-01,-4.604137271411959213e-03,-6.367919760466826326e-03,8.870838296349726365e-05,5.334681272506713867e-02
-3.723658040010142112e-01,-4.323508346039537376e-01,-4.363675287001130831e-01,-1.500991581785479125e-02,-2.337783929738759467e-03,-1.609818486677529279e-03,6.749327480792999268e-02
-3.216741522219117577e-01,-4.543487279752718710e-01,-4.574748512742164430e-01,-2.725883552204766067e-02,-6.968194890395882496e-03,-1.056593527129888466e-02,1.440027356147766113e-01
-4.496377770933027707e-01,-3.873144311335695034e-01,-3.916840512791904816e-01,-3.828513095671154387e-02,-4.740958952036747331e-02,7.206222862489458647e-02,1.742128580808639526e-01
-4.145617517667782859e-01,-4.134500373804347872e-01,-4.098888681614600848e-01,3.413043689646390495e-03,-2.209388893787931317e-03,-1.887845771220933444e-03,8.840787224471569061e-03
-4.611965593466088587e-01,-4.172585885764554248e-01,-3.575086049683400269e-01,-1.354190824222633975e-02,-9.471040378386500966e-03,2.956494201791258492e-02,1.075518876314163208e-01
-4.058513378081384237e-01,-4.044342977527385918e-01,-4.292631524680954880e-01,-4.130121778951263353e-03,-1.723675248882629383e-03,5.513540454621934650e-04,2.538297511637210846e-02
-4.951830888799211294e-01,-2.312833255775633978e-01,-4.634331811082723629e-01,-4.900695160964303049e-02,-4.185716803054389396e-02,8.953253746907213761e-02,3.142955303192138672e-01
-4.202213068559983999e-01,-4.313268474591339663e-01,-3.953198006593680591e-01,-1.297234204464118787e-02,-1.443723700535641530e-02,8.367030477076702055e-03,4.858117550611495972e-02
-3.626126097862682474e-01,-4.360234390975855634e-01,-4.243929614414168605e-01,-1.136397149500907866e-01,-1.034896226497080129e-01,2.970726644931573346e-02,2.796255350112915039e-01
-4.944354341336736902e-01,-3.656584052371916749e-01,-3.933336121022824039e-01,-3.429272919300794392e-02,-2.612441642550362292e-02,6.800804457947413895e-02,1.823080331087112427e-01
-3.637106281596850232e-01,-4.304854482838287311e-01,-4.400262245596729405e-01,-2.452092838844378841e-02,-2.507919640731489513e-02,5.365141982453179277e-04,9.422619640827178955e-02
-3.757740648870164790e-01,-4.434151618245894544e-01,-4.245327424739396283e-01,-1.823529056682642036e-03,-5.941452839975664389e-03,-7.638709696544809281e-03,6.281372904777526855e-02
-4.954464926961645865e-01,-4.715797065723633108e-01,-2.737831019457478421e-01,-2.605378667628498526e-02,-2.189406138456169784e-02,2.943781295854832475e-02,2.246955633163452148e-01
-4.080625574257229493e-01,-4.178978916377353858e-01,-4.128848319570739278e-01,1.453016308756755739e-03,-6.200195199978846775e-04,-9.273923502040792508e-04,9.089920669794082642e-03
-4.604270120061883520e-01,-4.557163085498062705e-01,-3.124030579024523191e-01,-5.706133820965475674e-03,5.601892712657090267e-03,7.452460393785428905e-03,1.469504237174987793e-01
-4.532526319422475747e-01,-4.479744920224850158e-01,-3.361648522731653932e-01,-7.921921004802439867e-03,4.911821486564126905e-03,-2.829409435919472571e-03,1.157759353518486023e-01
-5.288143871170389865e-01,-5.217319631431019955e-01,-1.473430509481930550e-01,-3.210694247405775775e-02,1.213048281982822239e-02,1.058951488708945350e-02,3.830655515193939209e-01
-4.850888646052261555e-01,-5.020024081340683786e-01,-3.082624014184737193e-01,-6.661791448426393480e-02,-1.902187679305954449e-01,-9.760880393744006400e-02,4.301049113273620605e-01
-4.375600041449916322e-01,-4.450662663572918509e-01,-3.582196299707671727e-01,-1.450282606908301353e-02,7.449753568731710962e-03,-1.357837315654177382e-02,9.109005331993103027e-02
-3.380940006934557984e-01,-5.174440470661707536e-01,-3.413255361074154504e-01,-6.262971371891819239e-02,1.310860901996773187e-01,-6.121221470886046429e-02,3.258162736892700195e-01
-3.862866569689071827e-01,-4.407276944462775181e-01,-4.111647656696671427e-01,-2.159437079689037215e-03,-9.967596399163745902e-03,-1.010985665541924358e-03,5.043284222483634949e-02
-4.001127302749194481e-01,-4.468566035189284191e-01,-3.952002228223467917e-01,-6.834619887742103897e-03,-1.677495552119258326e-02,5.168257575915649257e-03,5.918798968195915222e-02
-4.003653940696192404e-01,-4.342527226705930610e-01,-4.067704523715117149e-01,-1.237974551136848374e-03,-4.425217440520151126e-03,-1.829919335484090324e-03,3.233754262328147888e-02
-4.019937679335747749e-01,-4.373077961023527083e-01,-3.978209013056656085e-01,-5.251709451582437481e-03,-1.665664318163828997e-02,-1.829089410468558987e-03,4.834214970469474792e-02
-4.250071379126748594e-01,-4.063785927882801463e-01,-4.084199876548904595e-01,9.659272707114324339e-04,-2.192661354307882341e-03,-1.398288026389573170e-03,1.833711378276348114e-02
-4.761811920030932233e-01,-4.012134308147952133e-01,-4.682653506620378936e-01,2.508343291687521043e-02,-1.626377546131883289e-01,-1.978492575251814545e-01,4.514011740684509277e-01
-4.222730861089856735e-01,-4.063668781715437106e-01,-4.111905782894410555e-01,6.066556190469882563e-04,-1.895544065363040159e-03,-1.071097360568594968e-03,1.465857587754726410e-02
-4.173274899821869943e-01,-4.080974071631798261e-01,-4.132212861324262021e-01,1.262680687927309701e-03,-8.076608210676144810e-04,-4.040777468038392285e-04,8.448941633105278015e-03
-4.638449366923378392e-01,-3.625989732998709525e-01,-4.454683595494376425e-01,2.150848506756637864e-03,-3.286319752686730350e-02,-6.465433042333629254e-02,1.565959304571151733e-01
-4.222475468059344039e-01,-4.117451239738932900e-01,-4.042952814519408800e-01,3.173940437194694604e-03,-4.907626236361998552e-03,-3.677027901374114484e-03,1.967435143887996674e-02
-4.267239021325399118e-01,-4.227022848359723306e-01,-3.928330654670708078e-01,2.672072858801935111e-03,-6.189698695936461659e-03,-4.797270374028388303e-03,3.512641042470932007e-02
-4.396969257783573393e-01,-3.233981296055913890e-01,-4.826676763081632626e-01,-5.641455056232445170e-02,-8.726058499583315767e-03,-3.877251924408157968e-02,1.861598938703536987e-01
-3.987969665818308918e-01,-4.149499259897815318e-01,-4.255790561190092025e-01,-1.648322124390665111e-02,7.661918446152951589e-03,-1.182776633058796323e-02,4.423213005065917969e-02
-4.053816591171453543e-01,-4.289989257567683456e-01,-3.919373820169397282e-01,-1.747238483613836046e-02,2.108475131091755439e-02,-1.669155391433354424e-02,6.435384601354598999e-02
-3.881979818521604231e-01,-4.308923346749400363e-01,-4.157347591686602062e-01,-2.181732392923809404e-03,3.155225598989272462e-03,-8.326162533392994503e-03,4.071287438273429871e-02
-3.845085656716894507e-01,-4.418199483430610419e-01,-4.063988353974070100e-01,-1.251476536185559341e-03,3.188327297494490328e-03,-7.614300743421041802e-03,5.213774368166923523e-02
-4.825586670081721263e-01,-4.884140513757110336e-01,-2.715428016397893884e-01,-6.643087986209396389e-02,1.266583016972648926e-02,-1.290065001087402075e-01,3.308263123035430908e-01
-4.073215770139606007e-01,-4.655548419721641795e-01,-3.301185019711234681e-01,-7.709605759634362288e-02,1.022797149380753612e-01,-1.075077018132201551e-01,3.126271963119506836e-01
-4.504205452821243849e-01,-3.562975680722490490e-01,-4.398254787923075448e-01,-1.253806004302726075e-02,-6.203576816389397633e-03,-4.139670546498477356e-03,9.280422329902648926e-02
-3.754398751672148871e-01,-4.482497618396469319e-01,-3.985823927416907164e-01,1.883498181412830231e-03,3.973564938540825528e-03,1.355694417935852112e-03,6.492592394351959229e-02
-4.002748306418844604e-01,-4.310808854748439112e-01,-3.975582741904064021e-01,-8.883956886839242811e-03,1.105602827406329362e-02,-7.194690462875738719e-03,4.241286590695381165e-02
-4.144901975663130012e-01,-4.138680135095211821e-01,-4.121889954252749844e-01,3.412395917529903108e-03,-1.100511260681480592e-02,-9.526505181016577811e-03,2.597661688923835754e-02
-4.455128056061120612e-01,-4.264373587467559235e-01,-3.624033508048706276e-01,-1.120020442163420504e-02,-1.237287001062765870e-03,1.073430510537340399e-02,8.007688075304031372e-02
-4.524013334046012580e-01,-4.470193052638593012e-01,-3.246385429840212833e-01,-1.911527202232208081e-02,-2.448003444914136073e-02,2.704191619934519578e-02,1.440571695566177368e-01
-4.378857994554453126e-01,-4.039676565222594662e-01,-3.920101417822962619e-01,-6.554277214671953670e-03,-2.656205068347245856e-03,2.680960432843834586e-03,4.325047880411148071e-02
-4.542075684630212939e-01,-4.345141250034400549e-01,-3.427215748753993374e-01,-1.427460785503801600e-02,-4.717351983272229966e-03,9.554644157902881033e-03,1.075794696807861328e-01
-4.540469314702444970e-01,-4.141034516120266629e-01,-3.606841153256524768e-01,-4.582102404240595214e-03,-1.199196023955934488e-03,8.605382616295776527e-03,8.289945870637893677e-02
-4.141445768340364375e-01,-4.174547108447458355e-01,-4.070209514587121435e-01,-2.371841118872673390e-03,-5.536400112866258138e-04,1.410835820952826376e-04,1.015575416386127472e-02
-4.117177590286343891e-01,-4.210248095656796141e-01,-4.064446302164743119e-01,-1.492042995695019338e-03,-2.573819025278343089e-04,6.722165931973521358e-04,1.310485787689685822e-02
-3.958982847082301859e-01,-4.263254554723633349e-01,-4.369725575396207207e-01,-4.319041974701985642e-02,-2.374093566415420506e-02,1.235402572062559677e-02,9.543654322624206543e-02
-4.271928002748239805e-01,-3.788239859055675951e-01,-4.366390843378687436e-01,-9.058587409461251252e-03,-1.005752036017782509e-04,-4.472416499337827922e-03,5.649683251976966858e-02
-4.392808396580569763e-01,-3.611747336497697636e-01,-4.444539985586702380e-01,-1.732892121008517555e-02,-1.270630444323715691e-02,-2.445459100981665825e-03,8.907607197761535645e-02
-4.589489291321650066e-01,-3.348384062528779181e-01,-4.495743305279091828e-01,-6.378385607582908769e-03,-8.207642716523536053e-03,-9.249368932671277882e-03,1.221008524298667908e-01
-4.135127686302144112e-01,-4.101489198378965306e-01,-4.142211795163268651e-01,-2.305864172666637416e-03,3.720011637768295704e-03,-2.357836554364742352e-03,9.399200789630413055e-03
-4.592579864888474139e-01,-3.217315410338964510e-01,-4.574604446016634074e-01,-1.043632106086324167e-02,-1.321349894109517635e-02,3.773395697315612071e-03,1.398670822381973267e-01
-4.572126579586575090e-01,-3.267326616605336076e-01,-4.502245320837119924e-01,1.559725803795837485e-03,-1.189458943520857633e-02,-1.513838241292806037e-02,1.314583867788314819e-01
-5.467389958983305265e-01,-3.293761698576915253e-01,-4.854179130491949046e-01,-1.153710281327070541e-01,-5.008435532810492224e-02,-2.161438645423398586e-01,4.746464192867279053e-01
-4.383960480536983617e-01,-3.600885923800395405e-01,-4.470523369164015604e-01,-1.735663294314696015e-02,-9.356617554014295610e-03,-1.598905117216637556e-02,9.390520304441452026e-02
-4.463474577330767135e-01,-3.595325240235480724e-01,-4.366044148714401385e-01,-8.483310421557469037e-04,-8.038134776177267155e-03,-1.797508772814697051e-02,8.916962891817092896e-02
-5.230589069071731601e-01,-1.732128985967490709e-01,-5.439907467887158399e-01,-6.574049396644571219e-02,-6.851292642447018300e-02,7.807798302164987991e-02,4.189144372940063477e-01
-4.678016866684852615e-01,-2.807938934524535357e-01,-4.758543215757887190e-01,-8.178302597443816782e-03,-1.401128781841273589e-02,-6.536579799582227512e-03,1.935470253229141235e-01
-4.522251731289535503e-01,-3.459504566247718071e-01,-4.199993878662935387e-01,5.159994935933731770e-03,6.739430341748744134e-03,1.840158380673199631e-02,1.006976738572120667e-01
-4.639207526649061775e-01,-3.335728888341262799e-01,-4.311951104335388640e-01,2.305233261038658853e-03,-7.290957870975197166e-03,1.313138848404012300e-02,1.203683167695999146e-01
-4.579846308777194563e-01,-2.298784778421481267e-01,-5.543474989088226224e-01,1.466370222633906761e-01,2.231385901403391131e-02,8.398958047277245431e-02,4.128715395927429199e-01
-5.036290457421468414e-01,-2.416314223023614538e-01,-4.392590713817389192e-01,4.864896737843620728e-02,1.363618472766801176e-02,1.287304118466360836e-01,3.365917801856994629e-01
-4.311893565648668991e-01,-4.337904668339455649e-01,-3.548657816116113084e-01,-8.267051908324093978e-02,-6.872781423798178524e-02,9.311295517232363872e-02,2.582913637161254883e-01
-4.600780435823628722e-01,-3.157797320335222757e-01,-3.854664944908057223e-01,9.372762061426602453e-02,7.383478260089641754e-02,1.425413129022808367e-01,3.453780114650726318e-01
-3.994042212079706999e-01,-3.934668959950348155e-01,-4.391155055551292374e-01,6.278383647835010690e-04,-3.674435585987581576e-03,-6.181770813041707804e-04,4.348390549421310425e-02
-3.951583042903350496e-01,-3.900951977041037799e-01,-4.435165972735468642e-01,8.753048042928151737e-03,-2.411195536353577529e-03,-1.700556968695755757e-03,5.352539196610450745e-02
-3.932570497121797848e-01,-3.993652896723613455e-01,-4.383691835788326441e-01,2.719068814484941130e-03,-1.701191183068251269e-04,-2.803415322675852366e-04,4.265398159623146057e-02
-3.868306705612696850e-01,-4.241871932082151853e-01,-3.876950599962710187e-01,3.801836256876031661e-02,5.198452281324525415e-02,3.805267837046227841e-02,1.347269266843795776e-01
-4.228216350272736013e-01,-4.236308986243098595e-01,-3.735885203537214760e-01,1.355740396868439918e-02,2.010428954179494659e-02,1.760334094878033065e-02,7.181912660598754883e-02
-4.108443391157029501e-01,-4.315696271253731120e-01,-3.728129619816487605e-01,1.574973774448133745e-02,1.811718357861442918e-02,1.072280568848556562e-02,6.883262097835540771e-02
-4.441815418845307395e-01,-3.881396837195967287e-01,-3.920961714384902930e-01,-1.599331877489108778e-03,-1.463612078937466792e-03,6.370403089190548353e-03,5.541174113750457764e-02
-4.904022610899577139e-01,-4.214158082950508755e-01,-3.119990351048152477e-01,-3.808346012910872672e-03,3.154544027264320066e-02,7.080474403610648171e-02,2.057868391275405884e-01
-4.286128276630268297e-01,-4.023078350201533815e-01,-3.849515992322308233e-01,1.452398557456972307e-02,1.407285526592402455e-02,1.800072451668988105e-02,6.040529534220695496e-02
-4.156225626240424575e-01,-4.089443293246136091e-01,-3.890044113227507649e-01,1.008743086695514969e-02,3.701293731079104404e-03,5.511348562182614812e-03,3.182538226246833801e-02
-4.236526526811867366e-01,-4.855889347784121401e-01,-2.672048014270417271e-01,3.606203379329678271e-02,1.413712928879929387e-01,9.145665970835033243e-02,3.563056588172912598e-01
-4.696932386853845398e-01,-4.143888599414393692e-01,-3.492342773298038328e-01,-5.791583659300402788e-03,1.795478923513526811e-03,3.460118743749644732e-02,1.208679154515266418e-01
-4.317607461235265509e-01,-4.525803523595117728e-01,-3.472758573949615846e-01,-2.370722617407400312e-02,3.513535185018191315e-02,-1.151429783813130367e-02,1.229528710246086121e-01
-4.033137740576197561e-01,-4.346434129501240973e-01,-4.040025587577259492e-01,-7.164553640876359731e-04,-1.115168772048360547e-02,-6.575574035617710866e-03,3.827239573001861572e-02
-4.895008118542727438e-01,-4.727740998887942636e-01,-3.069699546075826957e-01,1.952866622432471166e-02,-9.094191275083851611e-02,-1.160708199768776400e-01,3.113147318363189697e-01
-5.785566469835953241e-01,-5.750553228887361756e-01,-1.828205990169167738e-01,-7.722614689485569894e-02,-9.892289742631543703e-02,-8.499101757930546674e-02,4.734479486942291260e-01
-4.365245935516516851e-01,-4.056988889126308395e-01,-4.029261044205174613e-01,-4.440449998522361108e-03,-1.817910013396718035e-03,-7.397057935919066490e-03,3.572956845164299011e-02
-3.880835700031231017e-01,-3.637714956617373319e-01,-4.690597744488205767e-01,5.733233113820799393e-02,-2.355384293538637791e-02,-3.776277457220460904e-02,1.578617841005325317e-01
-4.557857912310643300e-01,-4.482629387344818084e-01,-3.289110595300142048e-01,-1.016932986872205909e-02,6.554155021926099918e-04,-2.226642731026659810e-03,1.246023252606391907e-01
-4.338208991053496000e-01,-4.620317481747185373e-01,-3.474375588420385852e-01,-8.956775958386649708e-03,-4.563016942178533403e-02,6.569857569507867208e-03,1.315727084875106812e-01
-3.869042196302519554e-01,-4.383058614155739829e-01,-4.215871774572326203e-01,8.467194937014524067e-03,-2.475849691122395529e-02,-1.870712579893207828e-02,7.187610864639282227e-02
-3.963458846135488045e-01,-4.068640885626051418e-01,-4.295748438113983214e-01,6.988955107654149304e-03,-4.234343751985365258e-03,-7.927891750537690435e-03,3.541422262787818909e-02
-4.403344017489421169e-01,-4.148736060511333257e-01,-3.816344384466202055e-01,-3.872982439124496388e-03,-7.535387621596212164e-04,-1.071378601773096025e-02,5.468500033020973206e-02
-4.345314229984373333e-01,-4.542369920121415161e-01,-3.606030508235387733e-01,6.297856953007732739e-02,-8.307768611399876657e-02,-1.257754017912587063e-01,2.955900430679321289e-01
-2.693082511726527795e-01,-4.977522122930420068e-01,-3.973759795402406758e-01,6.299646225887703399e-02,1.495300476807761569e-01,4.253234848122089407e-02,3.517698943614959717e-01
-3.365455457239119319e-01,-5.055662908031428593e-01,-4.287051928110325871e-01,-8.108119620245647641e-02,1.147580740299020130e-01,-1.548620883036041784e-01,3.907199203968048096e-01
-3.471504162645822067e-01,-4.448721994096453969e-01,-4.749258089371275471e-01,-5.029887888135653462e-02,-2.981113002037520665e-02,-3.800985108302109422e-02,1.672720760107040405e-01
-4.299080303969413652e-01,-4.578560162224597496e-01,-3.294143851470259232e-01,3.787337846572573496e-02,4.767609201952460740e-02,5.059574998037472821e-02,1.802516430616378784e-01
-4.060827285038879353e-01,-4.317382524171455294e-01,-3.921597365919173850e-01,-4.651837707083765483e-03,3.256269658806347587e-03,-7.750555676382515869e-04,3.616335242986679077e-02
-3.575207748717616485e-01,-4.543849617228923887e-01,-4.941388400632168443e-01,-1.674170755404575106e-01,-4.635757344128047463e-04,-1.532825526539411676e-01,4.115658700466156006e-01
-3.654505396891570279e-01,-4.224859972206785885e-01,-4.232694009932522206e-01,1.037057486814615612e-02,1.021894619403815492e-02,1.417352179142430252e-02,6.735675036907196045e-02
-3.576036956680399004e-01,-4.211514077594064043e-01,-4.363374145009241700e-01,1.120200475971655334e-02,5.744194598585700313e-03,1.211466416040026493e-02,7.842002063989639282e-02
-4.454009820743488057e-01,-4.645181430312603776e-01,-3.121031048048393264e-01,-5.988900533100176109e-03,5.460884361693058714e-02,7.532307106247831952e-03,1.729342490434646606e-01
-3.595060405522928493e-01,-4.501267859835724194e-01,-4.128975810453040518e-01,4.228435221317370686e-03,8.449454240354360018e-03,2.482185552199039132e-03,8.068889379501342773e-02
-3.576929326798279352e-01,-4.753991770472772993e-01,-4.096455882263334014e-01,-2.295554469158725755e-02,5.261137948972941653e-02,-1.119395316786885204e-02,1.438726633787155151e-01
-4.006583398772349258e-01,-4.046304437787180963e-01,-4.108354948786973049e-01,2.771078453811155924e-03,2.456971551604398511e-03,5.401079472240352328e-03,1.440795324742794037e-02
-3.927255335910804224e-01,-3.938578589973333877e-01,-4.408678808159096629e-01,1.826189858067165479e-03,-3.350159016544822926e-03,-4.896528474929967133e-04,4.805049300193786621e-02
-3.971028514814425869e-01,-3.993475448364182667e-01,-4.357549223997451149e-01,1.297510606776667305e-03,-2.274557059282254854e-03,-3.167855077674034542e-03,3.824835270643234253e-02
-3.903807691798882873e-01,-3.962223112989279317e-01,-4.405793532280272151e-01,5.831841769004417371e-03,-2.123362263424536311e-04,-2.762446050192021978e-03,4.884510114789009094e-02
-3.991235752386061431e-01,-3.927496124121043763e-01,-4.385051483183382004e-01,2.919359368412464874e-03,-2.714957728866724835e-04,-2.999298201043948159e-04,4.322743788361549377e-02
-3.906331717793014580e-01,-3.911164010216527931e-01,-4.468802823331329277e-01,7.295279970048774813e-03,-2.175061151053269987e-03,-1.676468826810704939e-03,5.761144310235977173e-02
-3.940951901171409477e-01,-3.954054538823140730e-01,-4.375682201802283955e-01,5.516491584169730920e-03,-3.033380928198125583e-03,-2.357481549898684126e-03,4.438729956746101379e-02
-3.875130508284041486e-01,-3.907389895094297017e-01,-4.453472215766878795e-01,1.095079737090173724e-03,-4.717748422243373094e-04,-3.060889826058175002e-04,5.633094161748886108e-02
-3.845406046868529715e-01,-4.213707772866767676e-01,-4.080009293661559511e-01,3.326180514321795418e-03,4.996562611203934218e-03,9.913613359526856142e-03,3.802271932363510132e-02
-3.804961335569047032e-01,-4.051233557939245555e-01,-4.213130300583257659e-01,2.406444049764542084e-02,1.375085986833629939e-02,1.750467017796032698e-02,6.701569259166717529e-02
-4.552859007566850136e-01,-4.565655654402148711e-01,-3.142155685075501692e-01,-4.207017733237584760e-03,7.685436215964105457e-03,8.728071029920580343e-03,1.433242112398147583e-01
-4.342554763640209536e-01,-4.061270450083746542e-01,-3.775089778911794869e-01,8.316371182230162737e-03,3.915446258259872199e-03,5.200321104914688852e-03,5.243846029043197632e-02
-4.398861778987460114e-01,-3.746029659024066594e-01,-3.919530036803833273e-01,7.274661368716688059e-02,7.268290616181379005e-02,1.016940653579252729e-01,2.572546005249023438e-01
-4.080936108779587568e-01,-4.136543239668664662e-01,-3.946335016803124707e-01,7.361708687552800945e-03,3.195957929898478669e-03,3.842283883081493503e-03,2.290109172463417053e-02
-3.973041974161038992e-01,-4.315664425480552624e-01,-3.769755484489730191e-01,8.496372147854015788e-02,1.077465760728077843e-01,8.405843726496738111e-02,2.827818989753723145e-01
-4.087516378221389135e-01,-3.879044129241200345e-01,-4.215229884117299153e-01,1.313529794242031604e-02,1.140496970016790027e-02,1.132457456103637926e-02,4.643842577934265137e-02
-3.912667818955095078e-01,-3.685599020656130653e-01,-4.511162306399362221e-01,9.143493354450368815e-02,6.124737879197295065e-02,7.455808587619928984e-02,2.418016642332077026e-01
-3.980027728158342937e-01,-4.420160301011050175e-01,-3.738537135926586208e-01,1.515166498432828600e-02,2.498662197163171311e-02,1.462041823496688583e-02,8.237842470407485962e-02
-4.355659199712537677e-01,-3.739205276815593115e-01,-4.055670846103235361e-01,4.261726702509442515e-03,9.958464680558542018e-03,6.632701745124158083e-03,5.774749070405960083e-02
-4.404833885410778249e-01,-3.596086434910428231e-01,-4.162803532913045834e-01,4.546073819013160544e-03,1.019272868329728667e-02,7.149130794296242562e-03,7.547252625226974487e-02
-4.570267784816370860e-01,-3.429419410128748957e-01,-4.189186940679197058e-01,1.470960381024753391e-02,3.832505505100482646e-03,3.397449000726286694e-02,1.194822192192077637e-01
-3.951794726263199720e-01,-4.329520104731389152e-01,-3.907254189007791090e-01,1.637099535642108509e-03,2.279274293685105285e-03,1.798859643456131785e-03,4.059775173664093018e-02
-5.096078288451785232e-01,-3.491232363772027725e-01,-3.667529270542732034e-01,1.788089358440115781e-02,1.500239754542079772e-02,1.096161287276190971e-01,2.468163222074508667e-01
-4.079209428187089981e-01,-3.988090686680384467e-01,-4.557888613835955893e-01,-5.607191103144309324e-02,-2.566016142335577482e-02,5.298439045741383177e-03,1.195920556783676147e-01
-4.136868173053379616e-01,-4.098197635553721407e-01,-4.168293882413793838e-01,2.594081290570744800e-03,-4.567842287186161913e-03,-3.933934874995778999e-03,1.289159432053565979e-02
-3.123432352180245952e-01,-4.376554422913083719e-01,-5.018307926274639952e-01,6.796190492631844215e-02,-8.067919508917205038e-03,-2.463228939980001420e-02,2.091304957866668701e-01
-3.912714531940256757e-01,-3.883982788262258512e-01,-4.473703104335867153e-01,5.192129599283643732e-03,-2.425725091527807138e-03,-2.743908712311285674e-03,5.863133072853088379e-02
-3.516812483013412316e-01,-2.909738142727679722e-01,-5.310387548847386174e-01,1.664205446845576364e-01,1.132577167124546556e-02,2.422816809366658969e-02,3.632850944995880127e-01
-3.961388923870228229e-01,-4.180749658522868728e-01,-4.220669682371308018e-01,2.758970965176139444e-03,-4.679077257551682474e-03,-9.163087345266414732e-03,3.041545301675796509e-02
-3.572216559001745728e-01,-4.198749219068232952e-01,-4.325208138405498004e-01,6.057887314806592594e-02,5.549674259655987957e-02,4.526502661071053063e-02,1.768431216478347778e-01
-4.029846153792817076e-01,-3.829538622051050778e-01,-4.235482147995962565e-01,2.520879863764283191e-02,2.027369878319819699e-02,1.943079839594234401e-02,7.421714067459106445e-02
-3.872908508634702041e-01,-3.918825210875834797e-01,-4.451341608049371179e-01,6.614124454830268805e-03,-1.691831860703577831e-03,-1.653652134644191659e-03,5.700320377945899963e-02
-3.721544166666511111e-01,-4.000004387684737428e-01,-4.434553285366287234e-01,1.317722387549639072e-02,6.490932002060025366e-03,7.116463209505276798e-03,6.835949420928955078e-02
-3.267305471015077845e-01,-4.504737458119174587e-01,-4.433187439340219305e-01,3.641435086600650073e-02,3.211589878691070710e-02,4.274153852899075304e-03,1.469874233007431030e-01
-4.363150805279047972e-01,-3.401745551303763659e-01,-4.431022505612028373e-01,6.969846900428572876e-03,6.339842072793870804e-03,8.335125684521329029e-03,1.020604148507118225e-01
-4.516771874783051532e-01,-3.534021195140906735e-01,-4.196329583884733649e-01,-5.471640995825254560e-03,-8.301714613731348696e-03,1.390232058572613873e-02,9.171732515096664429e-02
-3.414036071976337405e-01,-4.742392482062076642e-01,-5.341465014711496151e-01,-1.882086777926984533e-01,-1.933739584612149346e-03,-1.171536357163375092e-01,4.202923476696014404e-01
-4.253092591183416649e-01,-3.732318217607228927e-01,-4.458872252370287281e-01,-2.425028437579500665e-02,-1.673751147743469947e-02,1.583582977825857439e-03,8.257932215929031372e-02
-4.293247085992122347e-01,-3.713297537252004399e-01,-4.484819944412506421e-01,-2.276489359807907023e-02,-1.159190924243753626e-02,-1.748311629746550865e-04,8.245830237865447998e-02
-4.079384942524684754e-01,-4.045512640013533279e-01,-4.284726449495085965e-01,-1.312288675319798559e-03,-2.245280418409794764e-03,-6.059879665168197815e-05,2.286875061690807343e-02
-4.264967831372509233e-01,-3.729837732967759556e-01,-4.437027451758552288e-01,-4.609653333483507316e-03,-7.525386315914760725e-03,-2.562119032120262468e-03,6.583133339881896973e-02
-4.548970038375434455e-01,-3.770874979462342513e-01,-3.979850953564555427e-01,-8.797740408260255537e-04,-2.415036091688011095e-03,1.718688435323725838e-02,7.596699148416519165e-02
-4.058851345950988954e-01,-4.104205764297750858e-01,-4.174213499173919928e-01,5.031946017986196548e-03,-6.175082088785448751e-03,-5.979877501541043701e-03,1.997412927448749542e-02
-4.000975488718769846e-01,-4.008529209869464149e-01,-4.676734780717973772e-01,-5.790196573754653742e-02,-1.606430363883808859e-02,-1.910093865146711076e-02,1.282289624214172363e-01
-3.305700487502942764e-01,-4.631514162111828870e-01,-4.525859372683635473e-01,-5.017661701519975093e-02,4.923769090216588429e-02,-3.094452055851588598e-02,1.843569427728652954e-01
-4.541504816436597314e-01,-3.359725063859296812e-01,-4.641789625462737767e-01,-2.999625532419388993e-02,-2.093046598665483995e-02,3.143304561195062186e-02,1.490954011678695679e-01
-3.951107373936357803e-01,-4.118154012180094137e-01,-4.423697894600096547e-01,-1.954751524596095441e-02,-7.353879231018447225e-03,-3.557517010046381319e-03,5.540342628955841064e-02
-4.156285483643072376e-01,-3.870398007252561778e-01,-4.358649813916709581e-01,-8.967923827576607110e-03,1.217963674453941990e-03,-3.353181313097110955e-03,4.565979167819023132e-02
-4.070366743203899795e-01,-3.885170063813110919e-01,-4.404443988092851536e-01,-1.242288282807051114e-02,-3.405042135852790874e-03,-3.522430031870739560e-03,5.111500248312950134e-02
-4.107895166506310147e-01,-3.948473380216746542e-01,-4.334037093168687238e-01,-7.160195601603649117e-03,1.781917512564500008e-03,-3.352741304467817506e-03,3.637482225894927979e-02
-3.983235397237704922e-01,-4.013775893325779998e-01,-4.162267791879523671e-01,5.814813486185911248e-03,6.045791940475635749e-03,6.194739594405498234e-03,2.452327869832515717e-02
-4.126233810851725470e-01,-3.852302761577284240e-01,-4.351791297070333187e-01,-1.258964940238826644e-02,-1.459315960393817169e-02,4.296243919628681303e-03,5.519753322005271912e-02
-4.161260435810544833e-01,-3.890964249325327695e-01,-4.333630601151108319e-01,-1.839629765006151399e-02,-1.195601641900996027e-02,7.234638081401229340e-03,5.563052371144294739e-02
-4.116894825969211746e-01,-3.753849574016986934e-01,-4.551480029736112987e-01,-1.206974617591110022e-01,2.705110270902995329e-02,-8.250585112766187224e-02,2.666551470756530762e-01
-6.054960578385615300e-01,-4.715126819366957100e-01,-2.012559199456695758e-01,-5.170791782078999754e-02,-2.859671830762393601e-03,1.531080959069900660e-01,4.534006118774414062e-01
-4.505804559015603727e-01,-4.139651001815294884e-01,-3.687413504537543907e-01,-8.758092740041273361e-03,-4.899416500799970257e-03,1.331902324656540973e-02,7.665552943944931030e-02
-4.298072196622882424e-01,-4.186253465029718956e-01,-3.893181578647901264e-01,-1.012640172570372990e-02,-1.913653441703015061e-03,2.161053514026437319e-03,4.054976627230644226e-02
-4.534439188496950379e-01,-4.151459743199896746e-01,-3.571309243669810174e-01,-5.586949151856409300e-03,2.044599715859853409e-03,8.114827590615924027e-03,8.577919751405715942e-02
-4.716744598707728886e-01,-3.480949432845520941e-01,-4.069243588832968106e-01,-5.908403319656972338e-03,-7.388903475767275020e-03,3.950509352651334488e-02,1.281138509511947632e-01
-4.294751257211003592e-01,-4.308845414942539809e-01,-3.783796649789429867e-01,-1.053135774849444685e-02,-3.482667108664870559e-03,4.187534312530159439e-03,5.573570728302001953e-02
-4.870279560945643405e-01,-3.894490788211961152e-01,-3.626349930104071362e-01,-4.699149775581738797e-02,-8.377663601722616649e-02,1.134685051801723049e-01,2.813584804534912109e-01
-4.407795060321508251e-01,-4.410363544313111173e-01,-3.508070955819298509e-01,-1.942361068256515805e-02,-2.339373370177999512e-02,2.203218523684429692e-02,1.111219674348831177e-01
-5.577010562048940745e-01,-2.542168946255648487e-01,-4.144419504443942470e-01,1.764339832788696869e-02,-5.233793685022818110e-02,1.955881757940979293e-01,4.393913745880126953e-01
-4.765617456171108990e-01,-3.463278934141093557e-01,-3.899160119515025502e-01,-1.457141769306639391e-02,-1.618354458683262526e-02,7.278995431806577210e-02,1.746481209993362427e-01
-4.511522888077893478e-01,-3.597907035613581717e-01,-4.126862947768981105e-01,9.521019518622818225e-04,2.429675030774465071e-03,7.500121531473007315e-03,8.063152432441711426e-02
-4.821735019873877315e-01,-3.725035763577753123e-01,-3.880638709049722967e-01,-9.179406069481296782e-03,-1.219253107374542421e-02,9.042755924961128067e-02,1.891911923885345459e-01
-4.219173030144622860e-01,-4.451847025076839937e-01,-2.661772195535925256e-01,9.306213674987251494e-02,1.516587160103519683e-01,1.383347902664165963e-01,4.252203404903411865e-01
-3.974577035406724468e-01,-4.396139151788068800e-01,-4.128174154784851058e-01,-1.534768187368382034e-03,-2.439911183971522554e-02,-1.164427923966249862e-02,5.971049889922142029e-02
-4.543456789809810492e-01,-3.925745273125384460e-01,-3.852416851794844277e-01,-1.784908605983040420e-03,-1.816238704467951388e-03,2.123104019453115124e-02,7.545945048332214355e-02
-4.337624066845611193e-01,-3.832567953789203230e-01,-4.301891337111803937e-01,-2.299901091467337552e-02,-1.763178170207110179e-02,1.444558341135097554e-02,7.435484230518341064e-02
-4.375397324600266424e-01,-3.776720895598665306e-01,-4.169252434295104282e-01,-8.234015358313083108e-03,-1.090854334203919182e-02,5.613250623044890170e-03,5.856502801179885864e-02
-4.219974635392606532e-01,-3.958092301344157682e-01,-4.156575540744514852e-01,-5.666005698076615610e-03,-8.785034937797678647e-03,4.095643479628805796e-03,3.062925487756729126e-02
-4.740814213355116213e-01,-3.837334670518510182e-01,-3.629565333740144562e-01,-4.776692847030085745e-03,1.455226361475104408e-03,4.253740337971099322e-02,1.263909935951232910e-01
-4.471400726066642739e-01,-4.514756166742862065e-01,-3.264510952170414648e-01,3.940709939995511689e-03,1.856519184133034392e-02,1.554612002013634579e-02,1.300519555807113647e-01
-4.620130768070502825e-01,-4.449449002010407161e-01,-3.201388826704364421e-01,-3.597718270763420982e-03,4.602546793882577626e-03,1.368811261226255370e-02,1.366109400987625122e-01
-4.519534067162147561e-01,-3.445425119271141035e-01,-4.221898229334561381e-01,4.829093740982536194e-03,6.055537991174032332e-03,1.521575849717439477e-02,1.005015671253204346e-01
-5.040023118747524178e-01,-3.392832956498349484e-01,-3.752755159790230888e-01,8.072955788330173424e-03,2.504653333088651193e-02,9.601719990248124004e-02,2.285489141941070557e-01
-4.562629397451321012e-01,-4.190373279898490511e-01,-3.484082723638746160e-01,-2.252654248856886688e-03,-6.816132119991612486e-04,1.906114080530362659e-02,1.005485877394676208e-01
-4.598828756296973186e-01,-4.455203988350941446e-01,-3.202416767703769596e-01,-5.367458083795946175e-03,3.483179714536586459e-03,1.445818479049161033e-02,1.358318626880645752e-01
-6.247908582617663908e-01,-4.489584383200481699e-01,-1.752956359309461865e-01,-2.143231422464824884e-02,-1.631746537308913572e-02,9.919917402794364847e-02,4.308426678180694580e-01
-5.056023168642869159e-01,-5.951562673235344381e-01,-1.497731440654945234e-01,-4.444528148212795876e-02,5.654680242470214863e-02,8.871321404657094012e-02,4.534634351730346680e-01
-5.299250579720675702e-01,-4.359226048386966590e-01,-2.503956953709011168e-01,1.460673784744934665e-02,1.482362673421153479e-02,1.162637510750882397e-01,3.202307820320129395e-01
-4.918875691663152638e-01,-3.805805380825833528e-01,-3.652438458188780879e-01,-3.861478760815999223e-02,-3.470134441870966618e-02,5.609944623950380987e-02,1.784904748201370239e-01
-4.663722455978871473e-01,-3.986374867674630784e-01,-3.291579710583589224e-01,2.506848039768112824e-02,3.473377120120693662e-02,7.030248031773746187e-02,1.856165081262588501e-01
-4.403772685314069069e-01,-3.967086671863053193e-01,-3.916805778378726344e-01,-3.214893719910116680e-03,-3.051830201461458686e-04,6.111301117318447898e-03,4.790749400854110718e-02
-5.019190048582591324e-01,-4.124477577517143834e-01,-3.208472570428065884e-01,-3.036405578722321807e-02,-5.139699691087356442e-02,8.669914444875409520e-02,2.404838353395462036e-01
-5.758515323379167494e-01,-2.975929152844185577e-01,-3.803000196295509006e-01,4.909354188623451382e-03,-7.369145806679670840e-02,1.542701556751266689e-01,3.860256373882293701e-01
-4.695255026551135025e-01,-4.709019081053832934e-01,-2.919724370851279338e-01,-1.865318311344640184e-02,4.677544796341953637e-02,2.957623740149465177e-02,2.049470245838165283e-01
-4.448254706870887754e-01,-3.840546119167531636e-01,-3.474316080310119181e-01,1.002593025324242937e-01,1.123420271829870531e-01,1.899155104963634044e-01,4.283475577831268311e-01
-4.381107673224543531e-01,-4.265752008306892273e-01,-3.708044538084804831e-01,-1.517802816583847629e-02,-9.946525137624817256e-03,7.204278822139688516e-03,7.092542201280593872e-02
-4.385613321307820778e-01,-4.175212694072055752e-01,-3.775993831850180671e-01,-1.320870998107751861e-02,-9.074914703764511842e-03,5.604560532624733998e-03,6.116458028554916382e-02
-4.619905157370008952e-01,-5.514681741220597289e-01,-2.591921133586788106e-01,-1.483847479958152749e-01,-1.049656941141011157e-01,7.199988956258017436e-02,4.265428483486175537e-01
-4.471812342709557964e-01,-3.974615863813885097e-01,-3.865192512452103046e-01,-4.618784218685401295e-03,-3.713104262467999215e-03,1.580647764524257745e-02,6.317216157913208008e-02
-4.581077724869708767e-01,-3.393753908834963862e-01,-4.335327391622370019e-01,-7.583432479315095620e-03,-1.238880262628063063e-02,8.327922379819337195e-03,1.123587712645530701e-01
-4.433290211859976515e-01,-3.883830854621232453e-01,-3.987939269478445459e-01,-5.693990812301111260e-03,-6.285860715692009881e-03,8.780373359930817093e-03,5.479501560330390930e-02
-4.472154567217345167e-01,-3.963334006293345868e-01,-3.811779563203308019e-01,-2.858130623396975926e-03,-1.536743880790083150e-03,8.266442555202259748e-03,6.185794249176979065e-02
-4.207528419067881331e-01,-4.227450931874865425e-01,-3.656540767092378297e-01,1.490162792134283598e-02,1.253651300672154259e-02,1.047558001153689466e-02,6.794479489326477051e-02
-4.192601736903907583e-01,-4.356985208909370244e-01,-3.601726988836068122e-01,1.182727315375192018e-02,1.195691230547193951e-02,6.633807595192900419e-03,7.558722048997879028e-02
-3.858170911704028594e-01,-4.341646338302112551e-01,-3.993146814010564705e-01,2.551724092498104234e-03,4.169756705226190970e-03,7.202739868462433581e-03,4.576491564512252808e-02
-3.941545854585417619e-01,-4.268293131932068829e-01,-3.959518913874343071e-01,1.500526741194375914e-04,6.023416237647536602e-04,3.405783406635510754e-03,3.237430751323699951e-02
-4.059243263947007740e-01,-4.117826164659265653e-01,-3.945082811302118020e-01,1.265073939838410287e-02,1.203376612502044841e-02,1.277379756528417010e-02,4.044245555996894836e-02
-4.278565700207012101e-01,-3.957543460658921597e-01,-3.937674481607961741e-01,3.410166082501026475e-03,8.743310492397130028e-04,6.953813840007925509e-04,3.371818736195564270e-02
-4.525539308868404276e-01,-3.664662165792456627e-01,-4.000200426520083008e-01,1.024747287039044774e-03,3.304728222486306554e-03,1.199851341519802064e-02,7.820606231689453125e-02
-4.390021785337587801e-01,-3.941447179725920402e-01,-3.859381962875609307e-01,5.208351178141288132e-03,2.123839915651630668e-03,5.004835052006394863e-03,5.116366222500801086e-02
-4.405029596250127910e-01,-2.877334242344812276e-01,-4.903756311772112242e-01,6.540158957461311706e-02,1.000828862632340693e-02,7.220386425594481176e-03,2.161801159381866455e-01
-4.280721386176897791e-01,-3.918221352717797257e-01,-3.972501913468007295e-01,2.321804053384487164e-03,6.009722157809420373e-03,3.880081950093974483e-03,3.628287836909294128e-02
-4.079537513259094972e-01,-4.119854724227998144e-01,-4.013417610781573330e-01,8.148932073229661274e-03,4.449453818125039851e-03,6.798847826114135656e-03,2.199800126254558563e-02
-3.882642873296511254e-01,-4.469917567908707201e-01,-3.942933912505464100e-01,-2.883822201288650106e-03,6.559677267998002999e-03,-2.969214272939388506e-03,5.754717811942100525e-02
-3.607253661623061047e-01,-4.583035261642910974e-01,-3.884610522184109294e-01,1.208782145139207856e-02,4.255222352769384708e-02,1.186122086043915960e-02,1.178000643849372864e-01
-4.153344534523867870e-01,-4.155952914022315592e-01,-4.090892040877421865e-01,-4.329338765410520838e-03,1.523883889092294761e-03,-2.367552462061997803e-03,1.098691392689943314e-02
-4.091987376874016702e-01,-4.228397231775614662e-01,-4.157898625435312856e-01,-2.480768096613791482e-02,1.004924065573267050e-02,-1.753186820384595654e-02,5.666510388255119324e-02
-3.994487979650918619e-01,-4.371778406598557654e-01,-3.945330808383909482e-01,-4.776880886500835255e-03,5.910195119535392901e-03,-5.231501680973263402e-03,4.345645010471343994e-02
-3.996682777198877212e-01,-4.403276037355157158e-01,-3.901636051604612798e-01,-4.321026978910853800e-03,5.405386373583228460e-03,-5.426427763546642306e-04,4.769197851419448853e-02
-4.883249364825954508e-01,-2.667024718538580919e-01,-4.132540042698336080e-01,8.098436297490459179e-02,6.045214325762322122e-02,1.297510068144027973e-01,3.453397154808044434e-01
-3.737564704967856200e-01,-3.368522807543110620e-01,-4.507381816455920953e-01,1.546722078662909339e-01,8.910463673721336075e-02,1.030182027324847288e-01,3.708863556385040283e-01
-4.166213649083417847e-01,-3.753208216896476990e-01,-4.254621638788296800e-01,4.605735374517918972e-03,1.109771313286016248e-02,7.122458195787151163e-03,5.229080840945243835e-02
-3.859482923104848306e-01,-3.848896111509349516e-01,-4.496459221415751717e-01,1.645951345408516384e-02,4.766747432409388675e-03,1.598587524778513234e-03,7.081329822540283203e-02
-4.314577905929877777e-01,-3.335331568104231148e-01,-4.603969201792460497e-01,8.234814413691995960e-02,3.472556671572665787e-02,6.751429963387260702e-02,2.256021946668624878e-01
-4.153285286605379878e-01,-3.594712490303307861e-01,-4.339233256783820436e-01,5.776623166421938904e-02,3.961831620789746378e-02,5.168612404421558948e-02,1.650408059358596802e-01
-3.515894803430234528e-01,-4.725517372327927568e-01,-3.617041555417673249e-01,1.321569838750957793e-01,1.639340011472385228e-01,9.278965086639510973e-02,4.151625037193298340e-01
-3.452817207350638018e-01,-4.556178140286181732e-01,-4.203450864672157450e-01,1.730598284227698744e-03,1.995321326337775800e-02,-2.209087573767987752e-03,1.036551073193550110e-01
-4.017269729591258498e-01,-4.070059465759572337e-01,-4.363125149536442038e-01,-8.670009484036312122e-03,-1.978021769582390815e-03,-5.026542728470389208e-03,3.680345788598060608e-02
-4.544378499711406727e-01,-4.368584406156148514e-01,-3.835448017154025058e-01,-5.138801127690927062e-02,-7.390852504012436486e-02,3.093869111320204229e-02,1.768326908349990845e-01
-3.987245595043182878e-01,-4.121725081637813148e-01,-4.277304827821721833e-01,-6.025399050732747723e-03,-5.421890947040383137e-03,4.512835795123517138e-03,2.983831055462360382e-02
-4.050408501007265460e-01,-4.109318742827124948e-01,-4.263287408604261586e-01,-2.595648942914772182e-03,-1.894274351285934847e-03,1.956017893035138459e-03,2.012277394533157349e-02
-5.388519248977593490e-01,-2.663124344530127807e-01,-5.252264565218385250e-01,-1.610741625201650429e-01,-1.096375942399895609e-01,4.075570336711265701e-02,4.354639947414398193e-01
-4.094356503321934238e-01,-4.005276547132264331e-01,-4.254179761173730867e-01,-1.107960666713264652e-02,-7.582957255360724298e-03,4.503610413296172364e-03,3.284481540322303772e-02
-4.029582603245353556e-01,-4.082370954507552607e-01,-4.256339870560622018e-01,-2.084752510603225112e-02,-1.710951486288149123e-02,1.109966932758824076e-02,5.453462898731231689e-02
-4.390351055289055116e-01,-3.842831358113102946e-01,-4.094581064570866902e-01,-9.363569801916138066e-03,-1.085221459920703013e-02,1.027271862041668170e-02,5.644559487700462341e-02
-4.416388063954518883e-01,-4.263859686448900899e-01,-3.620551592259958484e-01,-2.079081337074255645e-02,-2.535000493673309277e-02,3.112517034149554426e-02,1.071601584553718567e-01
-4.347211253535794295e-01,-4.155514962694341063e-01,-3.321131684694063058e-01,4.096558573663685449e-02,5.657071334322484601e-02,6.402603641926389588e-02,1.893731355667114258e-01
-4.269696097040696081e-01,-3.979320941504972398e-01,-3.911197847669278804e-01,6.046058470056651576e-03,2.284339036200497709e-03,2.071333024140534045e-03,3.500839695334434509e-02
-4.215282274071662227e-01,-3.969256683233010619e-01,-3.997529926766433817e-01,1.495302070815723297e-03,1.410554523658114328e-03,7.609617771477903423e-04,2.362486533820629120e-02
-4.936109983547252722e-01,-2.899503244229147958e-01,-4.245416027340700449e-01,5.076984815969187714e-02,2.695725100789836751e-02,9.462798898033097927e-02,2.625980079174041748e-01
-4.370732485062970296e-01,-4.133293479240976454e-01,-3.532599833677190770e-01,3.422910824627305171e-02,7.432672617053490138e-02,7.706148266732784635e-02,2.085715234279632568e-01
-3.853949750596226687e-01,-3.949575962347227631e-01,-4.069146717147631431e-01,6.377504869843185487e-02,6.271883534034018715e-02,5.605553316458460056e-02,1.837883293628692627e-01
-4.333820728335971983e-01,-3.942886177662449643e-01,-4.106797893495399698e-01,-3.514855064733624166e-03,1.598142112731659823e-03,-8.274239954299050445e-03,3.750060126185417175e-02
-3.194332227160091575e-01,-4.503609026659237125e-01,-4.346958542547093018e-01,-1.216739991709380742e-01,8.984719785547974624e-02,-9.080215406183825277e-02,3.297010660171508789e-01
-3.684397547102268300e-01,-4.308353085449843078e-01,-4.406301880609665433e-01,-3.222987633021722788e-03,-3.879911908726008281e-03,-1.130262500948501017e-02,7.113278657197952271e-02
-3.676935144169809488e-01,-4.483825305668842631e-01,-4.208119575057784334e-01,-9.836919026961351079e-03,9.256650593708469488e-03,-1.328111671785121330e-02,7.824786007404327393e-02
-3.985632519454352374e-01,-4.310258840391527624e-01,-4.028298058136796089e-01,-1.164463039409803459e-03,9.924313950172613044e-04,-4.571307906930098877e-03,3.167389705777168274e-02
-4.159715051574682798e-01,-3.925799457302022732e-01,-4.339955146048561918e-01,-1.896874866397814038e-02,1.742611547148850562e-03,-5.662009866046357857e-03,4.978318139910697937e-02
-4.398914462794409896e-01,-3.615686669602065084e-01,-4.433194772736052114e-01,-3.657888886224889419e-02,-6.181325384501838022e-03,-2.654034545151951266e-02,1.125013083219528198e-01
-4.216428883129957894e-01,-3.943089051636508025e-01,-4.260542221922613559e-01,-4.318794276989420047e-03,3.230183176917557613e-03,-7.059603505041468947e-03,3.352548182010650635e-02
-4.480994711648440543e-01,-4.799947749079660486e-01,-4.185585047008497095e-01,-2.000884596308542263e-01,5.193227750724455777e-02,-2.038299046573306406e-01,5.056373476982116699e-01
-5.102880093204646972e-01,-3.236170830665070497e-01,-4.369489184825912087e-01,-1.717324077377656577e-01,-1.741823990548935913e-02,8.917448434030299242e-03,3.408213555812835693e-01
-4.870938341618068490e-01,-3.785726483820132660e-01,-3.860534391723917103e-01,-3.948421430820234224e-02,-3.409009886929104810e-02,7.295613401077236104e-02,1.874891817569732666e-01
-5.206606518596702537e-01,-2.961856664413126672e-01,-4.478053795153004168e-01,-6.710118763220163096e-02,2.574624444951479837e-02,-8.646740384551233893e-02,2.779727876186370850e-01
-5.344729942957311408e-01,-1.776290729064408103e-01,-4.811709743119723104e-01,2.101215343387828269e-02,-2.318125154690435855e-02,9.712255788749478425e-02,3.773502409458160400e-01
-4.598990982750866818e-01,-3.380532733385178679e-01,-4.337762720369433556e-01,-3.729214676058036082e-02,-3.240451547972881402e-02,3.343063571958636987e-02,1.517265439033508301e-01
-4.457972200171491650e-01,-3.511868942206634592e-01,-4.544484765028048989e-01,-2.015976348847560787e-02,-1.814628404238290138e-02,-3.172352480380558060e-03,1.099170520901679993e-01
-4.431928359776068360e-01,-3.729224052191854599e-01,-4.250084748497191534e-01,-1.708425516633779728e-02,-2.255522415620452026e-02,1.781035374846883304e-02,8.569852262735366821e-02
-3.504140812090608681e-01,-4.335808284326788109e-01,-4.473552168482425317e-01,8.459465007251447052e-03,-1.733514190242779014e-03,-1.019304567058365585e-02,9.374118596315383911e-02
-3.702444056170670628e-01,-4.422100578902312118e-01,-4.286247167545318981e-01,5.860298192831096256e-04,-5.961920909475609300e-03,-9.167414632215171305e-03,6.888923794031143188e-02
-3.760222216606562973e-01,-4.463428150225918212e-01,-4.263924403087758774e-01,-5.719057601620344301e-03,-1.026635492200548942e-02,-9.302707149745584325e-03,6.792657077312469482e-02
-3.114702948150956940e-01,-4.638388802188675442e-01,-4.581362764049533021e-01,1.801963260246009814e-03,3.316658419645208446e-03,-1.006222902537088487e-02,1.507524251937866211e-01
-2.829738077324495671e-01,-4.322126002807663014e-01,-4.594105341990166735e-01,1.129945679014522364e-01,8.997405808905088731e-02,4.889266101792480446e-02,3.111779391765594482e-01
-4.055665515410324384e-01,-4.282793630825735831e-01,-4.060162457042617579e-01,5.573096833006047643e-04,-1.434963112826289581e-03,-1.619408950059321060e-03,2.282184921205043793e-02
-2.030263979498991567e-01,-4.620154097795607373e-01,-6.296229286798563640e-01,1.698883750740399490e-01,-4.444878699705828023e-02,-8.304177976289853214e-02,5.017740130424499512e-01
-3.117658681414364197e-01,-4.542258869265799470e-01,-4.603393940234583037e-01,7.326309588444449884e-03,4.480964205309328173e-03,-7.217734919031192249e-03,1.469037532806396484e-01
-4.234952864516559612e-01,-3.976318532176415510e-01,-4.145799885367603133e-01,-2.818501581686559329e-03,-5.876740392734461360e-03,6.280000992412462747e-04,2.542523853480815887e-02
-4.218211812898478019e-01,-3.787966607374732009e-01,-4.396089456976292054e-01,-2.061926190856716926e-02,-2.026978858556101673e-02,1.099130416099593222e-02,7.617942988872528076e-02
-4.303694402969754917e-01,-3.844494843292043385e-01,-4.224632799626860669e-01,-3.144325470229496298e-03,-1.226842596137650218e-02,3.615919293421581727e-03,4.825481399893760681e-02
-5.904137798108561874e-01,-2.186461583818972432e-01,-4.481663376423912770e-01,-1.536811885177250502e-02,-8.782601208934810721e-02,1.255422583220300592e-01,4.203496575355529785e-01
-4.170382180960159890e-01,-3.936801921024267181e-01,-4.310766818431155389e-01,-3.427974809362394244e-03,-7.857236460399586592e-03,-2.072278272278677350e-04,3.593295067548751831e-02
-4.195840059852255499e-01,-3.856872522587053154e-01,-4.328340838173539984e-01,-7.960231257615014294e-03,-1.051817401957061936e-02,1.863604929508006196e-03,4.802186787128448486e-02
-4.507286769073556298e-01,-4.062511251402424195e-01,-4.129115915160259664e-01,-6.994530131846590781e-02,-7.058545061923497677e-02,4.379341909303832714e-02,1.926237642765045166e-01
-4.008663637945928393e-01,-3.977072696859873524e-01,-4.390901400012136024e-01,-1.612090522739759862e-02,-1.970701611330976342e-03,-4.583830702775561379e-03,4.945832118391990662e-02
-3.909333895930681146e-01,-3.959957787662511941e-01,-4.294395111591457481e-01,4.318808172881691970e-03,2.644644386146594549e-03,5.913827904515412195e-03,3.866878524422645569e-02
-4.569376425401842079e-01,-3.869025894445502489e-01,-3.678735859208948078e-01,-2.438485803789627090e-03,-2.425322205160549294e-03,4.136366211264071863e-02,1.084806546568870544e-01
-3.983752723444248800e-01,-3.809256756365831387e-01,-4.305072550326081160e-01,3.124842913677358669e-02,2.379892437832114432e-02,2.214678509243869428e-02,8.942954242229461670e-02
-4.396195750835012461e-01,-3.926496398323754966e-01,-3.881732318077475985e-01,5.872591393718568954e-03,7.638003152939433667e-03,1.078529535001669475e-02,5.535265803337097168e-02
-4.566685340705631813e-01,-4.273444242402597015e-01,-3.497760673662725917e-01,-1.081877533066451409e-02,-5.454568119178615677e-03,3.441091217892394694e-02,1.146477386355400085e-01
-5.466031075114985427e-01,-3.575112672174097228e-01,-2.545199300273197629e-01,7.211831978129802992e-03,1.512397052967965824e-02,1.766664750478934842e-01,4.003912210464477539e-01
-4.354928533887382769e-01,-3.428538856038168547e-01,-4.387730255056816464e-01,1.005911914108983257e-02,1.064930177571407968e-02,1.363622984836413386e-02,1.004899516701698303e-01
-4.555756127916030240e-01,-3.307741512337065148e-01,-4.340599982043911176e-01,7.777640051549907299e-03,2.410092773436780730e-03,1.086057620651831486e-02,1.179232969880104065e-01
-4.180394424563054767e-01,-3.753161267920773203e-01,-4.222149605644993642e-01,5.262778435283786520e-03,1.180869108982184404e-02,7.653598083951848249e-03,5.194484815001487732e-02
-4.553366676968956805e-01,-3.275510657537310522e-01,-4.507905093203481983e-01,-3.081721000078713538e-02,-1.044657230138865481e-02,1.394175455804677437e-02,1.397444307804107666e-01
-4.231848897339917648e-01,-3.710988212240592388e-01,-4.194450754535120063e-01,1.016287493630893893e-02,1.182139001573579741e-02,5.617338821950221793e-03,5.793016403913497925e-02
-4.325763014845523391e-01,-3.121720295150851587e-01,-4.676680928831103423e-01,5.772991634032285241e-02,6.917527341101290146e-03,1.463771096662994618e-02,1.753236949443817139e-01
-4.517559919533946644e-01,-4.382627440091007021e-01,-3.366648035287390650e-01,-1.785669901694811670e-02,-1.704970225933797809e-02,4.608431070408654240e-02,1.416864395141601562e-01
-3.985582630769916035e-01,-3.937763681756676903e-01,-4.224172883956545110e-01,4.128277491212630976e-03,6.200008405752912080e-03,2.840046280703974104e-03,2.994756959378719330e-02
-4.513054942314312923e-01,-4.146782970864925644e-01,-3.612410297813365978e-01,-9.896039588218052963e-03,-7.025625819442034813e-03,8.638259436717100545e-03,8.258378505706787109e-02
-4.438325646760817311e-01,-3.999508318365024850e-01,-3.853917633549491240e-01,-2.113119752860549184e-03,-1.445859552936232901e-03,2.547982309479497002e-03,5.306217074394226074e-02
-4.534185193989054841e-01,-4.432739634065122614e-01,-3.322377436300665843e-01,-1.633744143155542797e-02,-9.239060678450676176e-03,1.392221236517797271e-02,1.232747659087181091e-01
-4.423777364644512211e-01,-4.320779495434688422e-01,-3.616241342656593694e-01,-1.581857427250632150e-02,-1.403080468257422199e-02,4.299646775722312624e-03,8.480694890022277832e-02
-4.571794568843248197e-01,-4.198935037976481155e-01,-3.439711165960068762e-01,-2.963470500516815660e-03,2.783532129517484431e-03,1.815575475766717517e-02,1.049941629171371460e-01
-4.116945332804136104e-01,-3.553592754139859866e-01,-4.652462149548817760e-01,1.648632985774168072e-02,-1.091243034082068145e-02,-1.254434890555837165e-02,1.034553721547126770e-01
-4.068393736613134526e-01,-3.948573718884183514e-01,-4.350096338268959473e-01,1.157323870287942785e-02,-1.093288553999085047e-02,-1.062714742141306241e-02,4.872248321771621704e-02
-4.139785441710103209e-01,-3.659007762491184312e-01,-4.510886623284284247e-01,7.322903545074577886e-03,-7.869350633646346113e-03,-3.413619748433913484e-03,7.651416212320327759e-02
-2.049685439792174046e-01,-4.465004307190270083e-01,-5.053534242070553129e-01,1.430578735018445680e-01,9.223089449570573417e-02,3.284365554329245207e-02,4.076378345489501953e-01
-2.760786876720025540e-01,-4.784364878823103573e-01,-4.973827834133116577e-01,6.537237680875608581e-02,-1.288005180444749265e-01,-1.983369991587587838e-02,3.300167620182037354e-01
-3.719004522698828308e-01,-3.250641422936471070e-01,-5.119133168523157806e-01,1.200083142160685984e-01,-6.961801797982791751e-02,-6.411087798973223728e-02,3.137379884719848633e-01
-4.396012805687610769e-01,-3.532970395878812786e-01,-4.442758218618914068e-01,2.152501529809726279e-03,-1.683164218707780546e-02,-1.624485059546925542e-02,9.761764109134674072e-02
-3.975360621124739979e-01,-4.014203995677792514e-01,-4.165082205044986496e-01,2.912699037335208206e-03,2.578625933997000155e-03,6.219691211506154019e-03,2.151254750788211823e-02
-4.401214315631363228e-01,-4.318903388941321975e-01,-3.719143601639732233e-01,-1.418019317212946065e-02,2.571009654773805022e-03,-4.771037413005178862e-02,1.077517494559288025e-01
-4.473254804706565113e-01,-3.725651254711561111e-01,-4.237184400522854277e-01,-5.347225194387654999e-03,-7.909343322674849616e-03,-7.379400678190711424e-03,6.941433995962142944e-02
-4.080630287135456613e-01,-4.023240667926854530e-01,-4.252889430239988888e-01,2.154374034727671392e-03,-3.466480917115788343e-03,-2.159539214276048977e-03,2.219213731586933136e-02
-4.461293067447437144e-01,-2.897241607493495907e-01,-4.928804434007446611e-01,5.396171943416524369e-02,-1.562407977306037518e-02,2.345257978212210090e-02,2.123166620731353760e-01
-4.399237574495593051e-01,-4.086526497798321778e-01,-3.834014401495739466e-01,5.041880927150619619e-03,-1.641952128916700573e-02,-3.468973025476843747e-02,8.306825160980224609e-02
-4.506909735567883879e-01,-3.825997677309014855e-01,-4.104703041491938320e-01,1.917775072031705982e-02,-5.286723964864087355e-02,-5.864526756532469770e-02,1.527135819196701050e-01
-4.491181831672916847e-01,-4.180195440805865026e-01,-3.661006332784335626e-01,-1.025870464243144875e-02,-1.235419923621852711e-02,2.648361115686968456e-02,9.030532836914062500e-02
-5.101236545246533582e-01,-3.468600871821759246e-01,-3.354091057155066946e-01,-6.998476573451788141e-02,-6.492904848328164003e-02,1.363189548355479563e-01,3.342830538749694824e-01
-4.882399469948472959e-01,-4.079097706395368172e-01,-3.328029370560786626e-01,-1.234826699506425679e-02,-1.483255091800361920e-02,4.991417326323403791e-02,1.634596139192581177e-01
-4.598838523025104985e-01,-4.181158838743869732e-01,-3.558810493821082388e-01,-8.577661377850815186e-03,-2.717931786242383952e-03,3.040146277110347336e-02,1.059848964214324951e-01
-4.524646211912467519e-01,-4.207552837211957497e-01,-3.509003284327113503e-01,-1.031649282597636545e-02,-7.219683239122779914e-03,1.633925769812735046e-02,9.683401882648468018e-02
-4.434249102162421408e-01,-3.782072814221353330e-01,-4.076555857098505542e-01,-2.722392523994101492e-04,-7.889254262004085153e-03,9.465002189340673486e-03,6.046234443783760071e-02
-4.336890705838757909e-01,-3.942212716508196602e-01,-4.014217114060544822e-01,-4.641661355682655254e-03,-7.615916959962693022e-03,5.423592118210924205e-03,4.064794629812240601e-02
-4.914047102225751473e-01,-4.223932407546943102e-01,-3.083148665024763591e-01,-1.472509453917358012e-02,-7.157386257900087527e-03,7.681914305448982183e-02,2.101354002952575684e-01
-4.358834236441399557e-01,-4.180224654173587684e-01,-3.611615145969148677e-01,1.267966555775826981e-02,6.847145255552544198e-03,1.324140909946944743e-02,7.560918480157852173e-02
-4.220612233272808544e-01,-4.066464659101713397e-01,-3.872708932536943482e-01,9.315154386190849234e-03,9.118450018541003968e-03,8.703940009351464335e-03,4.060452803969383240e-02
-4.204954278485408259e-01,-3.901582259459960289e-01,-4.080600365029809495e-01,1.214344522092507088e-02,1.071919653605047686e-02,1.359527022218925615e-02,4.515879973769187927e-02
-3.762126285314518204e-01,-3.969819424319718237e-01,-4.428694980913807089e-01,5.114239290850084579e-02,3.544373232825862724e-02,2.665427891705434912e-02,1.312891691923141479e-01
-4.438807082084560429e-01,-3.909921925512464536e-01,-3.844864375221093700e-01,2.561475232939976025e-03,2.078930535131985266e-03,5.709679079209850974e-03,5.756779015064239502e-02
-4.509940792327900572e-01,-4.136791897106595894e-01,-3.584669305770732395e-01,3.075502064276906204e-03,2.745377084092075985e-03,7.433469047206151155e-03,8.196213096380233765e-02
-4.393687677964830396e-01,-3.864960926720156231e-01,-3.931047592272026159e-01,1.920346935495826713e-03,5.402252329559166164e-03,4.828595196129902879e-03,5.155907943844795227e-02
-4.470498904838628995e-01,-4.359400358262678354e-01,-3.373387270517263503e-01,8.002246400574907631e-03,9.309864530602132704e-03,8.658849604156670585e-03,1.077875196933746338e-01
-4.545075575188323169e-01,-4.736039145564124864e-01,-3.005357414335949051e-01,-9.905864964454641486e-03,1.035276121177677172e-02,8.305349917624371085e-04,1.662235856056213379e-01
-5.308630092372639275e-01,-3.347927048229259461e-01,-2.993135661349002330e-01,4.680304829337524064e-02,4.937337039638434871e-02,1.874229632670934287e-01,4.073396623134613037e-01
-4.347718870077774134e-01,-3.939328464272718322e-01,-4.032536829471479733e-01,-1.342768817687200154e-02,-1.444524297371680560e-02,1.830627801115512418e-02,5.955093726515769958e-02
-4.225416598275457125e-01,-4.303355541690303543e-01,-3.852603593151337491e-01,-1.021527530054133250e-02,-6.412167301553921457e-03,2.844656514514630648e-03,4.692425951361656189e-02
-4.149638074556084022e-01,-4.325630226873299344e-01,-3.937649721706969475e-01,-7.756768977698550414e-03,-2.925005281174241061e-03,1.993982259477008882e-04,3.658544272184371948e-02
-3.765088939053907735e-01,-4.424404140652344330e-01,-4.161667975914648543e-01,-2.019903121463931597e-02,-3.572527626000512185e-02,4.582106064315664626e-03,9.176538139581680298e-02
-4.141681314503917744e-01,-4.345357674805934711e-01,-3.926527146820877889e-01,-3.736803252043638477e-03,-3.608661282147576990e-03,5.539817426757437597e-04,3.738784417510032654e-02
-4.019346556930939451e-01,-4.350240366176053031e-01,-4.060369173504144724e-01,-2.727871987627691636e-03,-4.473632928955492347e-03,-2.799911193712017760e-03,3.289189934730529785e-02
-3.945152759443165680e-01,-4.299627194817858822e-01,-4.132213463197378367e-01,-8.519667431338391952e-03,-4.967318674235547682e-03,1.940166329049118794e-03,3.530475497245788574e-02
-4.106243769520556142e-01,-4.289852367434306979e-01,-4.002200224590955480e-01,-5.910436969226735143e-03,-4.014264837524502902e-03,1.580347109473244664e-03,2.823189459741115570e-02
-2.797127251640361134e-01,-5.102988780558850301e-01,-4.614645194591623367e-01,-8.874086630287233990e-02,-9.222778099957298914e-02,-1.709607108896780275e-02,3.071054816246032715e-01
-3.719540823514591033e-01,-4.471792781425466545e-01,-4.055496984225657742e-01,-1.019944445151689250e-01,-1.107748258822996157e-01,3.914554944836486777e-02,2.772709131240844727e-01
-2.002994478869718764e-01,-5.443952843112306317e-01,-5.858776343226982375e-01,-1.364599854804298407e-01,-6.299753288584596100e-02,-8.508249956365540601e-02,4.731635749340057373e-01
-4.063895698889088970e-01,-4.040245795717983812e-01,-4.042513370160768504e-01,1.883739180093273570e-03,4.528630817281970901e-03,2.203884284606635272e-03,9.583869017660617828e-03
-3.574167292743749003e-01,-4.473245626735165015e-01,-4.372038980528507590e-01,-2.309510293172485976e-02,-2.639110427574836715e-02,-2.876601295887033956e-03,1.048349514603614807e-01
-3.985575576896384642e-01,-4.377499193187300852e-01,-4.065805170508622335e-01,-2.058637919249341024e-03,-5.722306559191835118e-03,-2.783623521504529491e-03,3.768507018685340881e-02
-3.625267138408130307e-01,-4.416950553144267655e-01,-4.350396089252018261e-01,-4.631545956213648126e-03,-1.598071063784175377e-02,-5.237296093559442971e-03,8.184015750885009766e-02
-3.201580925070562911e-01,-4.578693429569223872e-01,-4.563322385263168801e-01,-1.042748456144757245e-04,1.845835132455565060e-03,-9.550115247392980747e-03,1.379816681146621704e-01
-4.652392455716310993e-01,-3.120692238277475439e-01,-4.537014585898056507e-01,2.018154331105051665e-03,-3.522736380111741398e-03,8.297847917433079715e-03,1.486033052206039429e-01
-4.409715410659997836e-01,-3.544609472629745572e-01,-4.447808423362205610e-01,-1.797384157556276493e-02,-1.584883559435782893e-02,4.450103891623203613e-03,9.803204983472824097e-02
-4.483380449257060585e-01,-3.494287492454679067e-01,-4.363600640196489411e-01,-3.598632672702773740e-03,-1.330563492148571607e-02,8.558293105284185687e-03,9.762935340404510498e-02
-5.044163144034263802e-01,-2.177191019214469725e-01,-4.935525096392605615e-01,-7.766726966155086676e-02,-3.370405099328994958e-02,1.711927233585360322e-02,3.187199532985687256e-01
-4.580596027469762133e-01,-3.301763441483428485e-01,-4.490865764524294979e-01,-1.057136994676371837e-02,-1.263044618342973671e-02,1.170939103036234240e-02,1.285002678632736206e-01
-4.391480793485594836e-01,-3.588455972655717474e-01,-4.466469999935661628e-01,-3.607866136674314772e-02,-5.498099314408388429e-03,-6.099712744480761950e-03,1.058972179889678955e-01
-4.138602587577098757e-01,-3.943654402054189156e-01,-4.362430942305868253e-01,-2.338126725275434942e-02,-6.874435183269919343e-04,-1.718581861551298981e-02,6.200737506151199341e-02
-4.968677456422544436e-01,-2.784683761194374774e-01,-4.076233680411908145e-01,-8.612716049788499140e-02,-5.698073421248919801e-02,1.221839778876095128e-01,3.360844850540161133e-01
-4.432653344004630069e-01,-3.272232360415181507e-01,-4.605271431945417437e-01,1.366079029139704963e-02,-6.156059229760384513e-03,-2.380184497611226562e-03,1.282863020896911621e-01
-4.813885992521153012e-01,-3.081900128300443797e-01,-4.590533284733272490e-01,-3.613555256294236073e-02,-4.753806681086472988e-03,-4.976246164438406392e-04,1.749687194824218750e-01
-5.138026403141933152e-01,-1.875644807310186957e-01,-4.987134092470575930e-01,-9.006242949957903379e-03,-2.240479626811310229e-02,-5.947511019930588200e-02,3.377831578254699707e-01
-3.977133453526985885e-01,-4.143624939903231552e-01,-4.260714189878321290e-01,8.146469590664708049e-03,-7.536388819782489056e-03,-6.866878613276388744e-03,3.346916660666465759e-02
-4.067744059019818836e-01,-4.054890709263448967e-01,-4.218573859778682600e-01,6.460064975766553015e-04,-7.122055150319546273e-04,-3.123700874078086040e-03,1.675055921077728271e-02
-4.103012713148986301e-01,-3.918330045796091787e-01,-4.311359835722962108e-01,2.283120104795234584e-03,-8.503102168311904574e-03,-1.680255624401274248e-03,3.742938861250877380e-02
-4.154168279553998033e-01,-3.952247117200952120e-01,-4.239126884401432926e-01,2.982681287154937463e-03,-9.642731268898094635e-03,-5.539549506664819857e-03,3.239053115248680115e-02
-4.013661288111621817e-01,-4.052984588854990911e-01,-4.248848113214872546e-01,9.997372678349927475e-03,-5.560719633096893044e-03,-7.108835871246325065e-03,3.194248303771018982e-02
-4.022742826870422950e-01,-4.168693577376536563e-01,-4.192769227295325418e-01,9.243200237876088863e-04,-1.576316957047081474e-03,-6.619397409444806139e-03,1.988511718809604645e-02
-4.057932730185185299e-01,-4.096540360300223171e-01,-4.212965802021236272e-01,1.626640494372602695e-03,-7.903715530221705910e-04,-3.533044108434846438e-04,1.433840487152338028e-02
-4.109868841927828420e-01,-4.081668647305525810e-01,-4.181781499447961847e-01,7.181947996611789779e-04,-2.180248638492387082e-03,-1.220417726240870292e-03,1.001111604273319244e-02
-4.078248410910209065e-01,-4.148141191903482183e-01,-4.156878471714683942e-01,6.847617503059026797e-04,-7.507691564524079757e-04,-9.758186252771462905e-04,7.853308692574501038e-03
-4.097767480651293703e-01,-3.994981629092047015e-01,-4.265748221539761853e-01,2.170459319116233455e-03,-6.330764398526041170e-03,-2.109103839406867124e-03,2.661199681460857391e-02
-4.453804881280805095e-01,-4.043190584210468730e-01,-4.085112029549975987e-01,-4.941793348977500944e-02,2.797770881865544249e-02,-5.706987381601989068e-02,1.448345333337783813e-01
-3.703545500238114574e-01,-4.563655452452454186e-01,-3.883395679164493020e-01,-1.794653229900511826e-03,3.705154038491060425e-02,-3.881077218518629544e-03,1.017238572239875793e-01
-3.557688014115930608e-01,-4.877221344721019980e-01,-3.577621299620756812e-01,-9.373874989962144300e-02,1.125168358018128478e-01,-8.934347801507228071e-02,3.247158229351043701e-01
-3.209698773809188665e-01,-4.828333235132002965e-01,-4.446342680608271758e-01,-8.785570947502675809e-02,1.192014930230998193e-01,-1.272003816235086349e-01,3.685086071491241455e-01
-3.373182595517459359e-01,-5.111013626915394958e-01,-4.566559776484360733e-01,-2.023657274978054865e-01,3.201707876511701578e-02,-1.685677060456534093e-01,4.846435189247131348e-01
-2.936881626966389991e-01,-5.123546581317405257e-01,-4.427545139397393026e-01,-6.101640982266068325e-02,1.305848342799025286e-01,-1.026422175088439054e-01,3.624534010887145996e-01
-3.534823213400334896e-01,-4.573162352263230312e-01,-4.016889431435213265e-01,-3.147928297347321602e-03,3.468395769441581789e-02,-7.995985274294167833e-03,1.092261150479316711e-01
-4.022041621238555686e-01,-4.097853616657951559e-01,-4.533871991215036035e-01,-6.764617126235578093e-02,2.133394676351864014e-02,-4.477679532267396512e-02,1.529622822999954224e-01
-4.377686193624964472e-01,-4.307641648907415965e-01,-3.741709151813236711e-01,-1.562918474910240246e-02,1.252967394203209628e-02,-1.671395884324977307e-02,7.543291896581649780e-02
-4.317190012935112620e-01,-3.625539711365091122e-01,-4.438243933143227182e-01,-1.004337750939503643e-01,2.145875022663835258e-02,-9.914786705829602143e-02,2.586518526077270508e-01
-4.100241150463874718e-01,-3.935768830866072099e-01,-4.122720498105197917e-01,1.025187920178607937e-02,9.173506348456678117e-03,1.080401781810800751e-02,3.507820144295692444e-02
-4.455658914048396535e-01,-3.546481705417412478e-01,-4.364812160139072694e-01,3.844956621431046013e-03,-1.316549127562137954e-02,-1.506793110184479617e-02,9.363799542188644409e-02
-4.227493603651139575e-01,-4.038777080559272092e-01,-4.122594273129480680e-01,-3.412509624498626624e-03,3.638501168441480964e-03,-4.704254453591697784e-03,2.023011073470115662e-02
-4.351531159680409044e-01,-3.594451620576253337e-01,-4.459187135022494308e-01,-1.838232286989279277e-02,-5.953306251973865607e-03,-1.487861710710591768e-03,8.825717866420745850e-02
-4.438386616076228641e-01,-3.792255493120997856e-01,-4.131090453089895642e-01,-1.331789441613426966e-02,1.035776719261340996e-03,-3.503079771849376689e-02,8.573456108570098877e-02
-5.096512732549630664e-01,-2.281437603037423378e-01,-4.860334818905278076e-01,3.134231597295061150e-02,-4.617179043354559254e-02,-9.576016440383391948e-02,3.316749036312103271e-01
-4.025717124253593293e-01,-4.105955300099063954e-01,-4.043940680716863190e-01,1.316772312803402879e-03,1.516546037915687535e-04,2.446264329563963870e-03,8.735197596251964569e-03
-4.046918221817163985e-01,-4.115327211283697495e-01,-4.015877358407639042e-01,7.666351495195745588e-04,1.335270744735958179e-03,1.676249171351922767e-03,9.654504247009754181e-03
-4.010822646612614006e-01,-4.158866730514472199e-01,-3.989664271099961357e-01,3.075818604948728392e-03,5.072151890616693028e-04,5.641957948685016140e-04,1.688430458307266235e-02
-4.126299751399548077e-01,-3.481360383952368243e-01,-4.492259883216861982e-01,9.737975554137759393e-02,5.928965091218243305e-02,7.195742606523385099e-02,2.497735172510147095e-01
-3.939797960314630476e-01,-4.110889461638757569e-01,-4.085102231995195177e-01,1.519449384515973202e-02,1.528188974245031466e-02,1.589465387688645398e-02,4.905506595969200134e-02
-4.159578329249702944e-01,-3.973327114754186540e-01,-4.013742615160613147e-01,3.134176621591826858e-03,4.988116404854663587e-03,1.721768665476494480e-03,2.002402208745479584e-02
-4.145090688058218897e-01,-4.074355643270110017e-01,-3.945401220095985373e-01,7.278889670108307577e-03,1.090847561494809673e-03,2.189757498681955614e-03,2.201010100543498993e-02
-3.627810242221582993e-01,-4.216893292591914477e-01,-4.265320193600160570e-01,5.611238657485661391e-02,3.868661278798329189e-02,2.771118992957468177e-02,1.414864212274551392e-01
-4.092271600742314885e-01,-3.910993395522086025e-01,-4.096243691030408973e-01,6.170994881014637938e-03,1.057846842291551570e-02,5.602669270612540414e-03,2.966650389134883881e-02
-4.086149538549535554e-01,-3.979642630689840810e-01,-4.090728971500392497e-01,1.048315319345217121e-02,9.103222048179192630e-03,1.029826902561576177e-02,3.185879439115524292e-02
-3.935191781469482009e-01,-4.223779061509441712e-01,-3.987042844780747664e-01,3.513064285845621682e-03,5.086051912535186591e-03,6.033139269358282937e-03,3.055979125201702118e-02
-4.291114801216191488e-01,-4.481585379252273071e-01,-3.254988622459236147e-01,3.402300682335186038e-02,7.005335696040301818e-02,7.748971324895990997e-02,2.219931483268737793e-01
-5.728371280742118321e-01,-2.733898884090232295e-01,-3.413704505048955062e-01,7.004516238331079392e-02,7.231971837681468174e-02,1.673734941183455949e-01,4.340327978134155273e-01
-4.590109392001412436e-01,-4.459607143637334126e-01,-2.727039311682305511e-01,5.549129696335802081e-02,1.070419258188296391e-01,1.072159256374446007e-01,3.324857950210571289e-01
-4.355826673757056677e-01,-4.242130375735547743e-01,-3.650179352517451403e-01,1.014000767551001374e-02,1.920831935024880019e-02,2.630062357314669891e-02,8.829984068870544434e-02
-4.471699901754258022e-01,-3.552116176381877044e-01,-3.648442607936437931e-01,1.478573926913051284e-01,1.221234463114915791e-01,1.516806288581862838e-01,4.324490725994110107e-01
-4.318109580863077057e-01,-3.083679930279893400e-01,-4.399053309635244102e-01,1.215008318386181230e-01,6.889827465521086713e-02,1.472776264096658239e-01,3.740364313125610352e-01
-4.847401685104544278e-01,-3.840315793102422881e-01,-2.937005814804796167e-01,6.277014531928570840e-02,9.729546728650985410e-02,1.506672384472082793e-01,3.684024512767791748e-01
-5.614393574462019920e-01,-4.530862352837685125e-01,-1.819448893606171735e-01,-4.838744937546845572e-03,6.949247688728980854e-02,2.122011269133838862e-01,5.140844583511352539e-01
-3.913356548740418717e-01,-4.082136867268485458e-01,-4.145956155585612812e-01,6.445854261795149788e-03,8.609904642529236235e-03,8.183615466109014219e-03,3.132514283061027527e-02
-5.202428641551186672e-01,-2.057335800819693195e-01,-4.587230825601887885e-01,4.450332733242755301e-02,-1.679268801095165067e-03,1.147305104360351741e-01,3.588754534721374512e-01
-4.512987391169319684e-01,-3.299979642685038628e-01,-4.465153840720191281e-01,7.329035560480837153e-02,3.547731234702682090e-02,7.301798942272196002e-02,2.237001657485961914e-01
-3.610990094907156611e-01,-4.140676989036889966e-01,-4.527594237656779597e-01,7.495842553904791782e-03,-5.291553360586298289e-04,-3.560748944518187051e-03,8.099149167537689209e-02
-4.255681347739456166e-01,-3.879986196677761567e-01,-4.021705263836922173e-01,2.736217524662642661e-02,2.448803652659929664e-02,3.241837804537855278e-02,9.098237007856369019e-02
-4.434982455758909592e-01,-3.858065456948707173e-01,-3.915295031239372503e-01,2.212659063900628345e-03,3.287816663613108304e-03,4.766653936145338367e-03,5.609097331762313843e-02
-3.949500919241000219e-01,-3.568415372065417146e-01,-3.756630454282178788e-01,1.350814218215496687e-01,1.235687896309738965e-01,1.480509136470363751e-01,4.091395735740661621e-01
-4.367901910651982300e-01,-3.625322103671885232e-01,-3.654727613712194234e-01,8.973459173553510748e-02,9.481294189887602697e-02,1.400842913384523492e-01,3.395596146583557129e-01
-2.961580932001516842e-01,-4.499887278113235967e-01,-4.352597959356752644e-01,1.425518002661591010e-01,1.181689149712487757e-01,1.022274138459734333e-01,3.947418034076690674e-01
-4.079304902772281083e-01,-4.309740962168393530e-01,-3.368304913108365883e-01,9.408717480791760346e-02,1.671855330007542273e-01,1.409425635807098620e-01,4.209860265254974365e-01
-4.243196448470623050e-01,-2.999389739738498317e-01,-4.375140538656100975e-01,1.232512288068360606e-01,7.135052127557764412e-02,1.181216958530745681e-01,3.463946580886840820e-01
-4.669420701816224262e-01,-2.064520171573828444e-01,-5.044544511125798048e-01,1.135511111977017124e-01,9.585842842014307905e-03,5.225011857375827518e-02,3.552200794219970703e-01
-4.001990779442088919e-01,-4.113431957318742227e-01,-4.037397847674222273e-01,2.436145812765249004e-03,2.689319196821154771e-03,4.836481905156486336e-03,1.438562851399183273e-02
-4.022728659936214424e-01,-3.839025927743586752e-01,-4.329087010618452025e-01,4.053751097117864501e-03,6.539623943754228029e-03,2.878166592224932433e-03,4.518030956387519836e-02
-3.920590808279585948e-01,-3.861776145867301113e-01,-4.403247840703640725e-01,4.552206089604957616e-03,5.869257325363819340e-03,1.955406736546670687e-03,5.315097421407699585e-02
-3.582617218790281610e-01,-3.518649763360413574e-01,-4.653960046879673795e-01,1.212652311694652207e-01,5.039718677589565682e-02,6.431585286012612979e-02,2.763131856918334961e-01
-4.051863117509271750e-01,-4.058537339217397899e-01,-4.044777918261378558e-01,4.446631400798563109e-03,4.102816387082527938e-03,4.524782870267299827e-03,1.313994731754064560e-02
-4.336071798001952526e-01,-2.550646228814716920e-01,-4.751745186221298933e-01,1.278711250777374020e-01,4.906485029543365683e-02,1.041004304011167308e-01,3.602952659130096436e-01
-4.654090158046366166e-01,-2.855236849551876510e-01,-4.620275772869013031e-01,2.602871932783439382e-02,-3.002097395171944550e-04,3.838455566426052235e-02,1.954859793186187744e-01
-3.491146565068852237e-01,-4.713475805056992485e-01,-4.518001531715716279e-01,7.139940147217332944e-03,-5.375672792856989179e-02,-3.572279841281066765e-02,1.599509268999099731e-01
-4.379365442215230608e-01,-3.185615103259103464e-01,-4.575543210842565323e-01,2.022386200898821165e-02,4.595282419800817385e-03,7.707384939652464628e-03,1.358149647712707520e-01
-4.533585709102004313e-01,-3.200731733932548062e-01,-4.510461895638847030e-01,8.585545041161199431e-03,1.194992850479138042e-03,1.414473678933781710e-02,1.352323144674301147e-01
-4.428016349064587409e-01,-3.150212986881454902e-01,-4.704650807692511982e-01,1.791937422921501336e-02,-5.647448274590296906e-03,4.629307735254373484e-04,1.472669690847396851e-01
-4.096397922908529554e-01,-3.277288069671506210e-01,-4.797084082642369962e-01,7.644136580689009364e-02,4.297081783197788211e-03,3.465606648456563688e-02,1.963333338499069214e-01
-4.549352571378504906e-01,-2.868777832372361725e-01,-4.759021307908769538e-01,6.084714604845921360e-02,1.118406179534745144e-02,7.874729416541869156e-03,2.094635367393493652e-01
-4.168852751454968364e-01,-3.433262253861073532e-01,-4.590655593270323576e-01,2.198082981643753597e-02,-2.709750156145429405e-03,3.394804894679497118e-03,1.086228564381599426e-01
-2.946222712936354959e-01,-3.492895261484578739e-01,-5.081314855143471698e-01,1.752208899728122105e-01,6.748402766956809740e-02,5.462358527810648456e-02,3.893883824348449707e-01
-3.181139011706557995e-01,-4.104177839413249984e-01,-4.995279960931084950e-01,4.965105070989606767e-02,8.886405287609966874e-04,-1.280761209318065537e-03,1.791335493326187134e-01
-4.188151420247976375e-01,-3.426940391448826118e-01,-4.525068381742648471e-01,4.807085491409981981e-02,2.320515037879793130e-02,2.817371930773443153e-02,1.429102420806884766e-01
-3.274825142245020304e-01,-4.458097121452526679e-01,-4.454084712952276481e-01,1.209933926867589986e-02,1.375570220077162141e-02,4.660815270212404111e-03,1.225806623697280884e-01
-3.278564845665327132e-01,-4.538469241936727294e-01,-4.512514008368545548e-01,1.113558247650854767e-02,-1.541836021255124601e-03,-9.813320371968562231e-03,1.273630857467651367e-01
-3.595689882694160233e-01,-4.133369415399353874e-01,-4.516239049328089061e-01,6.749616058283288735e-03,1.768045918616036093e-03,1.526664054273233319e-03,8.104651421308517456e-02
-2.371426062106091748e-01,-4.393309653045930352e-01,-5.089308498742984854e-01,1.192080822664328271e-01,-2.590324154183218722e-02,-2.713988104467035187e-02,3.265745341777801514e-01
-3.427322896399492280e-01,-4.539099170929448146e-01,-4.174229296852675630e-01,6.619229364150018211e-03,1.961152991010887622e-02,6.895879915968503894e-03,1.051815897226333618e-01
-3.706339460546486109e-01,-4.063375672436221331e-01,-4.496498241295474596e-01,7.948211151364893007e-03,-3.956627246158901309e-03,-9.548791383242915751e-03,7.216044515371322632e-02
-4.607419003971147675e-01,-3.195877237474473720e-01,-4.465853415511936708e-01,3.258225889726775338e-03,-6.554879822511000716e-03,1.600793816085840926e-02,1.380440592765808105e-01
-4.460702084239074883e-01,-3.684103456805463694e-01,-3.989590854509449391e-01,3.383177511218389902e-03,8.161103605267670466e-03,1.207772377300768071e-02,7.255089282989501953e-02
-4.373152273650220412e-01,-4.374357865549712843e-01,-3.316485688934940335e-01,2.556021123548022494e-02,5.881567490328232228e-02,5.856967828501178502e-02,1.838674545288085938e-01
-4.720018563306233039e-01,-3.220498385854291823e-01,-4.582941285346416316e-01,-3.556952034146613345e-02,-2.668583229346408250e-02,4.713701667694658592e-02,1.822516769170761108e-01
-3.652238158729773088e-01,-3.604911802918386865e-01,-4.532057530359556163e-01,1.688533516981338689e-01,1.307854601927478932e-01,9.768416448436192945e-02,4.167194068431854248e-01
-2.053120573745016997e-01,-4.902778228225616597e-01,-5.009158859903672933e-01,8.111714547724957480e-02,9.099306001009600797e-02,1.537097273695963405e-02,3.600529432296752930e-01
-3.782525265096234879e-01,-4.016633681864602567e-01,-4.464708255816749460e-01,1.906014900256016581e-02,2.998433951518145527e-03,-5.971043316684269834e-04,6.872165203094482422e-02
-3.509544035423712849e-01,-4.108094662521052376e-01,-4.639848772442857205e-01,1.913327360017226877e-02,-1.194443688669369168e-02,-1.058458178822426106e-02,1.070300191640853882e-01
-3.709323386016252222e-01,-4.354794035322435697e-01,-3.405539353039027661e-01,1.137929326804061614e-01,1.470944441496158661e-01,1.331599824464313464e-01,4.049710631370544434e-01
-4.353591740375027941e-01,-4.339383679231088031e-01,-3.280506085682741713e-01,2.771576920590249071e-02,5.213483054844501863e-02,5.165414063821281015e-02,1.727071106433868408e-01
-4.394266973775938223e-01,-3.590387507119429666e-01,-4.040334382220985843e-01,4.926699297313889836e-02,6.253653091483787896e-02,8.486052267478384759e-02,2.132786959409713745e-01
-4.366243638515249770e-01,-4.209098892753005972e-01,-3.588194889490224360e-01,1.021327189753334919e-02,5.706481906732338745e-03,1.038243750032169857e-02,7.623575627803802490e-02
-2.476579879399243289e-01,-4.673125691075779020e-01,-4.755986564529466332e-01,8.998991810558144844e-02,9.915775689210526433e-02,4.095644029690743287e-02,3.300916552543640137e-01
-2.959866324442976815e-01,-4.968763652553506160e-01,-4.391435868546667565e-01,2.592622917363394605e-03,4.089288858379387659e-02,-9.221550891136643877e-03,1.933488994836807251e-01
-4.181116401385956416e-01,-4.237881762030921706e-01,-3.729974070098492356e-01,1.222729515756508512e-02,5.425989703638529373e-03,8.393365825924346130e-03,5.542381852865219116e-02
-3.960718306051816961e-01,-3.968306633709863807e-01,-4.173352642947817936e-01,9.723354541533035453e-03,9.502975021136219821e-03,8.740727067835844799e-03,3.493315726518630981e-02
-3.693910379408957834e-01,-3.913389582074932038e-01,-4.366930315016315234e-01,6.600457030994191787e-02,6.001747963874815711e-02,5.242975442531942060e-02,1.888302713632583618e-01
-4.135382687116634370e-01,-4.426392068276719383e-01,-3.607132153127476371e-01,9.556174959095916147e-03,7.188449484749116249e-03,6.645013570028961494e-03,7.573679089546203613e-02
-4.251886842198242533e-01,-4.350331702748663210e-01,-3.584979969285563284e-01,1.013632393441700821e-02,1.136100064331192240e-02,5.666946924492441764e-03,7.741377502679824829e-02
-3.724052442178785172e-01,-4.329635241486983754e-01,-4.305157072531627938e-01,8.914322208529881428e-03,-5.924665080204450686e-03,-1.249885606982747630e-02,6.585913896560668945e-02
-4.730307344742185061e-01,-4.625805183300304435e-01,-3.067593913883656098e-01,-1.281090827543818547e-02,-1.077075588848064314e-01,-8.847008518050726578e-02,2.911936938762664795e-01
-4.248687854881046388e-01,-4.033195119691278530e-01,-4.130905094556217017e-01,1.496255402000943278e-02,-2.996165243459047306e-02,-1.967607955122548796e-02,6.982453912496566772e-02
-3.862801116899479692e-01,-4.499245791190870092e-01,-3.849418217944475251e-01,-2.207225567911242064e-03,1.623703414937500977e-02,-1.567383335242179820e-03,7.035974413156509399e-02
-3.708293805912487029e-01,-4.347161120880359553e-01,-4.232714557824972523e-01,-1.481198780724521900e-03,1.345069349833022225e-02,-1.134794496393559324e-02,6.646055728197097778e-02
-3.844208350965646614e-01,-4.360298165319031471e-01,-4.175306780626408254e-01,-1.156057198355913210e-02,1.433107481684160051e-02,-1.207164355923056459e-02,5.920504033565521240e-02
-4.143222570596082344e-01,-4.092471244083618065e-01,-4.162357402461826505e-01,-3.256790713696386137e-03,-5.389223036857080165e-03,2.235301890690323881e-03,1.315562706440687180e-02
-4.178535160312272234e-01,-4.110094988870825472e-01,-4.072063142270973546e-01,7.291817807252355156e-03,-5.717228167092553749e-03,-6.435014547583176904e-03,2.165950089693069458e-02
-3.904100238680172641e-01,-4.223457546254377748e-01,-4.241344381489383086e-01,-5.080499183919020244e-03,2.374928128537072154e-03,-1.113162603648833182e-02,3.932312130928039551e-02
-4.059061788483350752e-01,-4.182223021447831757e-01,-4.257142905278629152e-01,-2.806739492409113593e-02,1.283686330924007322e-02,-2.272312169083522126e-02,6.860613077878952026e-02
-4.116957470547372711e-01,-4.967881170965124382e-01,-3.090928771673148168e-01,-7.432024571880704866e-02,9.981052584322577803e-02,-9.240799181091340075e-02,3.139640390872955322e-01
-4.138061382084876061e-01,-4.476212819572345514e-01,-3.683939023103935950e-01,-1.507346449983002802e-02,3.789199847887719796e-02,-1.455813684629430477e-02,1.018145978450775146e-01
-2.031041575205521921e-01,-5.896713693107424881e-01,-4.552292872229818932e-01,-7.765829246479239063e-03,1.508379791751806309e-01,-9.652451505167961021e-02,4.603543579578399658e-01
-3.254983563911267863e-01,-5.375506300549279803e-01,-3.604106278840620292e-01,-1.131485705938371604e-02,1.685395261314930337e-01,-9.180237202245059014e-02,3.868664205074310303e-01
-4.937786790623524547e-01,-2.997876258391284354e-01,-4.280972977990553652e-01,4.446443482126611647e-03,5.208637186949659215e-03,5.133478490383985154e-02,1.930063664913177490e-01
-3.295903450733991824e-01,-4.406260010572433661e-01,-4.591386498828637364e-01,9.447593189951218606e-03,8.962515999251984217e-04,-7.797439749039847268e-03,1.232062503695487976e-01
-4.667216375025107222e-01,-3.802794294206257586e-01,-4.080629608037648071e-01,2.656160991618588402e-02,-4.349045524801462004e-02,-6.368950144460421015e-02,1.606312096118927002e-01
-3.748716687061351971e-01,-3.975691590048892055e-01,-4.509701084468595855e-01,3.021669215418663901e-02,-7.233522963499093052e-03,-1.166510771080508067e-02,8.878764510154724121e-02
-3.799794775507258082e-01,-2.634596055181679386e-01,-5.102934413573737560e-01,1.693422110807059067e-01,4.106160262638509223e-02,6.991080941233469848e-02,3.892221152782440186e-01
-3.768474638242917396e-01,-2.647062523215272245e-01,-5.062945001406777834e-01,1.725102014659472549e-01,5.823468494602219991e-02,8.721397557922203059e-02,4.075788259506225586e-01
-4.189477539988298860e-01,-3.657718840673295224e-01,-4.512413092013586313e-01,1.298514993717896082e-02,-8.760788644585019297e-03,-9.187216620832090383e-03,8.109930157661437988e-02
-4.434106405941470874e-01,-4.489490746637285756e-01,-3.576069466815862685e-01,-1.033467279251502370e-02,-2.198226004632304262e-03,-1.917077838755555652e-02,9.646572172641754150e-02
-4.419641597547942502e-01,-2.985006494489007567e-01,-4.686792658617098262e-01,4.394621067126690261e-02,-6.811930642983478855e-03,4.712100076256779853e-03,1.764305680990219116e-01
-4.171981983674275529e-01,-4.200751184496513413e-01,-4.023740031623457836e-01,-6.782178725122802766e-03,-1.573854494897192202e-03,3.156671625665469737e-04,2.040601149201393127e-02
-4.136576466986099376e-01,-4.152469536005899409e-01,-4.087159575660215260e-01,-1.236719962522745591e-03,-6.734105311142547269e-04,1.648097151956972022e-03,6.992681417614221573e-03
-4.130188133292003738e-01,-4.120369879224396459e-01,-4.152644769492145338e-01,-3.879119043155692011e-03,-2.881238559034809705e-03,2.850830218240469911e-03,1.013118121773004532e-02
-4.200670145830173730e-01,-3.854599550273192232e-01,-4.090439569976612177e-01,3.362469681248110315e-03,9.977765186589366772e-03,4.716231394647921529e-03,3.656494617462158203e-02
-4.110238427801214955e-01,-4.055673444798715277e-01,-3.969016562666487502e-01,5.357561047351904783e-03,4.805969007013095179e-03,3.043851698777367328e-03,1.831254549324512482e-02
-4.261176664935882319e-01,-3.995939072684325244e-01,-3.907459777521561928e-01,6.239768526039322048e-03,2.835881856956246148e-03,3.844729476031752934e-03,3.466630354523658752e-02
-4.284876620687482207e-01,-3.957645007111026958e-01,-3.912870898779736706e-01,6.044915460385341492e-03,2.105846240836134649e-03,4.297335788086482575e-03,3.762573003768920898e-02
-4.169002665828999699e-01,-3.886340821350209307e-01,-4.092896801503966286e-01,4.840729966966775960e-03,9.906920954240764146e-03,5.853886818040781800e-03,3.330644220113754272e-02
-4.484786354643465756e-01,-3.665422128743016095e-01,-4.008447826719201412e-01,3.598111431294111293e-03,5.091279184429981473e-03,1.266158517459751477e-02,7.534695416688919067e-02
-4.302984545438356956e-01,-3.920585916715297881e-01,-3.946853924365453792e-01,3.036201698019009871e-03,5.575610595729664325e-03,4.350753828260472099e-03,3.932484984397888184e-02
-4.237700226642178158e-01,-3.786604428910468334e-01,-4.097289215734429280e-01,8.578748159065908638e-03,1.018467324311853571e-02,6.303131469029128915e-03,4.743199795484542847e-02
-4.103227027519105174e-01,-4.326675737850086967e-01,-3.987122600223387825e-01,-6.511523994728810570e-03,-3.829113713384465524e-03,-2.154611749532114125e-04,3.263211622834205627e-02
-4.061069279880291094e-01,-4.347302885302532505e-01,-3.987565063979280899e-01,-3.926094414854181154e-03,-6.971218995654383972e-03,-2.074805417070250881e-04,3.571952879428863525e-02
-4.037901716951313169e-01,-4.353978435903934630e-01,-4.051669657092257792e-01,-2.930131851085277656e-03,-8.206440262467421670e-03,-1.791143286641563599e-03,3.456648439168930054e-02
-3.867982638733458156e-01,-4.381325059088806428e-01,-4.120162390013096809e-01,-3.178800160905084684e-03,-1.041930052048774605e-02,-8.379040061171237272e-04,4.831884801387786865e-02
-4.055853985001847684e-01,-4.352032891841741691e-01,-3.991503124927701651e-01,-2.948173139313648404e-03,-6.431524019846764084e-03,-8.237052904081970444e-04,3.551658242940902710e-02
-1.707267571871935730e-01,-5.418656662072928176e-01,-5.164118869428288017e-01,1.249196491817248095e-01,8.762102725427001193e-02,-3.330163880772708807e-02,4.495766758918762207e-01
-4.218530571446931776e-01,-3.442547080000490367e-01,-4.538497860963446318e-01,1.794947182207262334e-02,4.445330057751951600e-03,5.013897309090155179e-03,1.030991673469543457e-01
-3.254051636453383356e-01,-4.877821746559850014e-01,-4.230682620828737361e-01,3.629237653760571808e-02,8.535600076587655793e-02,1.561808089839195404e-02,2.158384919166564941e-01
-3.773651365737250019e-01,-4.474555696229595148e-01,-3.976461034956150775e-01,1.522772874852755054e-03,3.686877093516307408e-03,2.436037931101608413e-03,6.299224495887756348e-02
-3.723531291632535822e-01,-4.499074089783098862e-01,-3.969731896650081082e-01,-1.393436382047147403e-04,1.490937642585932026e-02,-9.220941395787924646e-04,7.335461676120758057e-02
-4.116504889630696606e-01,-4.035171867203198315e-01,-4.251238958488341990e-01,-1.881942680014680319e-02,8.367490848825947028e-03,-1.748566432069860108e-02,5.046849697828292847e-02
-3.717024075871455668e-01,-4.500303518300949324e-01,-4.110571957788107245e-01,-4.294674579458558454e-03,1.351033366878641798e-02,-8.822299185108068223e-03,7.374215871095657349e-02
-2.571666732614206752e-01,-4.824678569431127828e-01,-5.131106296886829288e-01,4.506767392364312286e-02,1.539062045608485113e-02,-2.124760424443137077e-02,2.583829164505004883e-01
-3.189474258618964497e-01,-4.416637953291351892e-01,-4.635945610448287679e-01,2.881681650570126416e-02,-1.740963374978881859e-02,-1.355939850188993961e-02,1.489416509866714478e-01
-3.833349084409324870e-01,-4.433651823769751976e-01,-4.063251699792954641e-01,-1.193311386335580912e-02,2.366411472596788648e-02,-2.007584114830132660e-02,7.789968699216842651e-02
-4.212614754039512022e-01,-4.412018637701961565e-01,-3.305650207902530169e-01,-9.515464391590920668e-02,9.857546489949794988e-02,-1.284151692688794977e-01,3.409075140953063965e-01
-4.387074838152081324e-01,-4.493126333091573832e-01,-3.349068488461621751e-01,-1.968401361248546533e-02,2.557140826686222015e-02,-2.194845829223846315e-02,1.286745518445968628e-01
-4.211693271043075448e-01,-4.484273648711653015e-01,-3.573754061730062270e-01,-1.024817858686549732e-02,1.200869793626621086e-02,-5.513798031268389663e-04,8.544106781482696533e-02
-4.164229524663497495e-01,-4.385435564060277125e-01,-3.804413303201930052e-01,-1.128070974302444393e-02,4.883666071013754821e-03,-5.029978565211534747e-03,5.575974658131599426e-02
-3.806990290557950019e-01,-4.193719921497696124e-01,-4.392769183567476476e-01,2.106426203103066788e-02,-2.190563664793078111e-02,-1.172317393837637133e-02,7.644975930452346802e-02
-4.260146744758498416e-01,-4.275229634368786780e-01,-3.871101392498329519e-01,-1.146427029752739371e-02,1.053109301804626636e-04,-2.459742614027286920e-03,4.457566514611244202e-02
-4.438246077761461850e-01,-3.127521484534934171e-01,-4.675859050628780045e-01,1.230989117621419798e-01,-6.245173929790379802e-02,-8.355792734600311911e-02,3.145878314971923828e-01
-4.741235758018627067e-01,-4.639439529004656393e-01,-3.096076347345227964e-01,-4.612860778469785039e-03,-7.537805127558119822e-02,-1.253028054710717265e-01,2.995098829269409180e-01
-4.429840505916783355e-01,-3.088978720090380659e-01,-4.709654394414602985e-01,6.937127410057596089e-02,-6.694951629967348106e-02,-1.021675205772438061e-01,2.858538329601287842e-01
-4.723032292941503063e-01,-5.440882024334677824e-01,-3.559630631895269737e-01,-2.133170807291524806e-02,-2.371289124461241626e-01,-1.571671893815978494e-01,5.207683444023132324e-01
-3.350757321528602395e-01,-4.046411557745944743e-01,-4.731274134223922845e-01,5.594216186076870351e-02,-1.283264052092274177e-02,-1.470391791421523688e-02,1.575601845979690552e-01
-4.117271116918713725e-01,-4.289181985981782019e-01,-4.002417976396590582e-01,1.156351954793426087e-03,-2.920218309574534876e-03,-2.019686140224887395e-03,2.582097612321376801e-02
-2.096030671671805234e-01,-5.291981878650127147e-01,-5.068652240470518100e-01,7.447214192782665443e-02,-3.154385056604960824e-02,-4.459573575223201025e-02,3.479827344417572021e-01
-3.210340145220230701e-01,-4.428675157685191266e-01,-4.548366034528495971e-01,1.661196946797979801e-02,6.664092197611585881e-03,1.372843890802085635e-03,1.319532245397567749e-01
-3.287622068173435830e-01,-4.315317125827425326e-01,-4.294384071967287109e-01,5.414670978747780639e-02,5.623549306105077306e-02,3.805842186116844411e-02,1.816013455390930176e-01
-3.167546658404301052e-01,-4.614392447119693430e-01,-4.588970601727139775e-01,2.031135859592015855e-02,-1.423722138080406492e-02,-2.925615288887628996e-03,1.498122215270996094e-01
-4.545157513273817007e-01,-4.571380972619084604e-01,-3.338083160789064863e-01,-6.704441308002970223e-02,-1.167528929513117902e-01,3.777694536938511899e-02,2.712076008319854736e-01
-2.828029919465075426e-01,-4.623955474662347909e-01,-4.968976211320622061e-01,3.291000254818869653e-02,-2.255794435459801753e-02,-2.327861429349452338e-02,2.145732194185256958e-01
-4.150294843706422432e-01,-4.317292499639917569e-01,-3.933022378792608853e-01,1.095822514025995365e-03,-5.522564243925157622e-03,-3.794793834369167805e-03,3.538496047258377075e-02
-2.843992748841210894e-01,-4.583115572544099181e-01,-4.945893771316671184e-01,1.305880649988839237e-01,-1.009055016114053238e-01,-2.146204719756865387e-02,3.477902710437774658e-01
-1.924129973040730190e-01,-4.430072390826230722e-01,-6.229094186924687415e-01,1.046404790787753142e-01,-8.888520937494525168e-03,-5.445917655807950425e-02,4.268817603588104248e-01
-1.879834931902939210e-01,-4.838736519360905541e-01,-6.131658969042084184e-01,1.600862721054594484e-01,4.345399252670645480e-03,-5.698702414402690569e-02,4.787544608116149902e-01
-3.622529301914411137e-01,-4.150663242309360346e-01,-4.478146023692990418e-01,7.450371332753927614e-03,-5.822934971624366997e-03,-9.119010232959077686e-03,7.815986871719360352e-02
-4.090970318702669695e-01,-3.396866187249387714e-01,-4.766475155466916580e-01,9.406271090822695968e-02,1.519056657429434729e-02,3.010377291713200662e-02,2.098188102245330811e-01
-3.166257643804840094e-01,-4.571251692017594959e-01,-4.513847330301757332e-01,-3.121173923041471732e-02,2.612998807261005668e-02,-2.141176739624983325e-02,1.590998023748397827e-01
-3.457868860792709942e-01,-4.156888717081125839e-01,-4.583589827682745255e-01,1.915159714135074645e-02,2.442401233970184667e-03,-3.058554416465442648e-03,1.040964126586914062e-01
-3.012380876748494418e-01,-4.546691311598716756e-01,-4.704015256286216973e-01,8.731294129081907177e-03,-2.100914573126056329e-03,-7.355642040165050015e-03,1.631155908107757568e-01
-3.050231928523151614e-01,-4.487335755479322508e-01,-4.778072382387661965e-01,8.261049711117893213e-02,6.502496769943830190e-02,2.106496195322294512e-02,2.452866882085800171e-01
-1.656864473587605358e-01,-5.413023401942168578e-01,-5.481842568606081212e-01,1.179983098428791510e-01,1.055243839357392771e-01,-1.069469948672727155e-02,4.682304263114929199e-01
-4.224420979865142201e-01,-4.525010199816779100e-01,-3.534698547064565322e-01,-1.512349748682715808e-02,1.382258853588711790e-02,-2.389202979346657582e-03,9.492322057485580444e-02
-4.157820291296185911e-01,-4.628362440785067644e-01,-3.463502174426427715e-01,-7.234550737825978448e-03,3.502820036316971197e-02,-3.030207532471423763e-03,1.190269812941551208e-01
-5.129733901871721402e-01,-6.212481124203870220e-01,-1.413662369390641382e-01,-5.969553315240597874e-02,1.370829772955816372e-01,1.163836327970483794e-02,5.074674487113952637e-01
-3.982063888414831831e-01,-4.766937499108584997e-01,-3.383910842786050366e-01,-1.382260801895413005e-02,6.807798229250638933e-02,-1.484784248886030118e-02,1.719630360603332520e-01
-4.496803221717292631e-01,-4.626576602874468147e-01,-3.248885218628674298e-01,-1.531311719647223020e-02,5.418187592121355943e-03,-8.729070697292645731e-03,1.355765610933303833e-01
-4.341265238712971875e-01,-4.598357729451779674e-01,-3.311866479360912607e-01,6.419253006154301226e-04,1.045388592630265567e-02,6.570071894794768906e-03,1.198443770408630371e-01
-3.769287725528664978e-01,-5.348129581124660969e-01,-2.624956593223498613e-01,-8.179762080302509578e-03,1.661953025458214328e-01,4.432034733304264160e-03,3.731110095977783203e-01
-3.955274110786317077e-01,-4.146945887089912297e-01,-4.311092367561173422e-01,-2.798306508515686995e-03,-2.400276467279459879e-04,-7.508052301103288438e-03,3.382633253931999207e-02
-4.134581717561904290e-01,-4.106673454568159909e-01,-4.209400429735233873e-01,-1.364944487366256259e-02,6.203299871016682183e-03,-1.422347635177812278e-02,3.695854917168617249e-02
-3.374303026776943049e-01,-4.421931100351446653e-01,-4.785298842678941122e-01,4.335355743145786339e-02,-3.938442366718905574e-02,-3.657971866986479970e-02,1.743805259466171265e-01
-4.091983543647936816e-01,-3.991429754238861594e-01,-4.437247086552104092e-01,-5.956961642476586022e-02,-1.902561123253908304e-02,-3.465665299174770612e-03,1.157926023006439209e-01
-4.256254975983808642e-01,-3.812209455092860910e-01,-4.333001190200654884e-01,-7.869906448789881423e-03,8.310369737489835219e-04,-8.774169660166237714e-03,5.282318219542503357e-02
-4.381364753454526917e-01,-3.170611174076247707e-01,-4.877378016629067004e-01,-6.293360092236215120e-02,-1.136495268135528751e-02,-2.451264650621961041e-02,1.928653419017791748e-01
-3.810573806126685836e-01,-2.845246437444539644e-01,-5.116379839393265794e-01,1.837122216905162364e-01,3.798337983181385158e-02,1.147467608742432088e-01,4.290155768394470215e-01
-2.897138405102458458e-01,-4.220869824084649280e-01,-4.789013665906799999e-01,1.415784834284827265e-01,1.336853699300285525e-01,7.933894524970949713e-02,4.011283516883850098e-01
-4.214622080987286967e-01,-3.491560107250921696e-01,-4.556921710518930246e-01,1.787381111303431094e-02,-8.673426260831196624e-03,-2.442982491909476053e-03,1.003838852047920227e-01
-3.929326703186149516e-01,-3.788913690627319086e-01,-4.496349551180197079e-01,1.358779880675608370e-02,-2.716794701358623328e-03,-1.147057612750923723e-03,6.919866800308227539e-02
-3.582204704616539503e-01,-2.532492644960417927e-01,-6.332084796445225372e-01,1.488809081314013960e-01,-3.021420339059342069e-02,-3.650196330148802737e-02,4.344371557235717773e-01
-4.917709946057450265e-01,-1.707001545002630183e-01,-5.191027576767638374e-01,8.270424344265057959e-02,-1.373215105946093070e-02,3.467319451221016757e-02,3.705419301986694336e-01
-4.420912382364451387e-01,-3.221868147833099605e-01,-4.619290704757085808e-01,8.446780836907214624e-03,-7.753748054815588243e-03,1.623656788259928048e-03,1.324823349714279175e-01
-3.486120861008228378e-01,-4.411226154314143999e-01,-4.549478887021261020e-01,-4.463536749820289085e-02,-3.820447783782106310e-03,4.572379095514951530e-03,1.269321739673614502e-01
-3.572245663526094628e-01,-4.398485822794079847e-01,-4.486549859406270269e-01,-4.765363708628047625e-03,-1.273290387248860941e-02,-6.057255066184655951e-03,9.108500927686691284e-02
-3.762971266517534108e-01,-4.270872179537487656e-01,-4.379377315205578158e-01,-1.080341745679854436e-02,-6.663212212354377093e-03,2.275449468372318929e-03,6.121548265218734741e-02
-3.323832614937131669e-01,-4.457666177962168463e-01,-4.468558377315842711e-01,-2.808161863168657374e-02,-3.057144310190787126e-02,-2.378780298020935231e-03,1.347850859165191650e-01
-3.244812477570019338e-01,-4.575288466342515292e-01,-4.552403344791292605e-01,-1.304677140280750477e-02,2.108443492137434313e-03,-1.317769199711309007e-02,1.358210742473602295e-01
-4.154531262436910732e-01,-4.131437538637200424e-01,-4.125900854520820338e-01,4.689636667932196162e-03,-8.769425779175192212e-03,-1.191746940979067880e-02,2.701264806091785431e-02
-2.363226422839591057e-01,-4.948467955697443688e-01,-5.023778298263789077e-01,3.363904700621753174e-02,-1.462378150521050253e-02,-2.571029296500974143e-02,2.736015021800994873e-01
-4.073464582421699176e-01,-4.053735034115937830e-01,-4.286067196035659443e-01,-1.383428447526922987e-03,-1.876423135219497818e-03,8.864076425790526565e-04,2.272660285234451294e-02
-4.077286158893788093e-01,-3.988269151693960013e-01,-4.327961117941521163e-01,-5.560686515443148681e-03,-5.397086914313085036e-03,1.934960933040855868e-05,3.333036974072456360e-02
-4.080345320426256306e-01,-4.064974480309898608e-01,-4.252412865137377707e-01,-2.869247749163265394e-03,-1.891091791589457737e-03,2.126187540186792735e-03,1.933576166629791260e-02
-3.995871907357974595e-01,-4.100443139152978311e-01,-4.346924494304983955e-01,-3.048650258495567370e-03,-3.235390946057051589e-03,-1.692999127749404524e-03,3.228800743818283081e-02
-4.076320089204334973e-01,-4.047152782906844326e-01,-4.282180242489527777e-01,-1.273827610279709742e-03,-1.953428704277395192e-03,8.002894456953295549e-05,2.255371399223804474e-02
-4.075546165600331672e-01,-4.020375466752735827e-01,-4.319546044922169536e-01,-1.009953833574234227e-03,-2.894415051027483463e-03,-1.106998396616482158e-03,2.814752608537673950e-02
-3.953039992180022999e-01,-4.213685465628436710e-01,-4.263157364759316281e-01,-4.823563534949277046e-03,-5.502317748002169377e-03,2.975097761003670134e-03,3.193684294819831848e-02
-3.998230566643743433e-01,-4.059390846223874805e-01,-4.472040234419800697e-01,-2.340575386048004275e-02,-1.078063888183973529e-02,-6.976850784298663059e-03,6.427100300788879395e-02
-4.363696697713734807e-01,-4.219555534393523155e-01,-3.747923840340794399e-01,-1.437867197064488650e-02,-9.090456533773036418e-03,6.527512563478696066e-03,6.409305334091186523e-02
-4.226861562519469429e-01,-4.141347453135610923e-01,-4.026472522557403844e-01,-8.736354955707494041e-03,-9.955570077072454713e-03,3.097774278815068009e-03,2.929887175559997559e-02
-4.367605410049282821e-01,-4.248642417453016296e-01,-3.718413714186594721e-01,-1.277900257574091092e-02,-1.148612817708798313e-02,2.033308402146144500e-02,7.556273788213729858e-02
-3.968595979950474972e-01,-4.455207196552725679e-01,-4.120712057953634377e-01,-1.006651262987806085e-02,-2.315534129700458355e-02,-3.917359675415079366e-03,6.178700923919677734e-02
-4.466598868973132852e-01,-4.190542898718754294e-01,-3.625777710303735857e-01,-1.056356170092629179e-02,-1.337619059350007075e-03,1.534245304091339662e-02,8.097555488348007202e-02
-4.362171158177142183e-01,-4.173198964961784552e-01,-3.794213296162736171e-01,-1.206823657496222842e-02,-7.639877076046190825e-03,5.014374493695608094e-03,5.654242634773254395e-02
-4.152006292308543234e-01,-4.143121318884453452e-01,-4.094612452000168656e-01,-3.853685712737202947e-03,-3.133419492129153536e-03,2.060646991494479146e-03,1.074136700481176376e-02
-4.076237693495035619e-01,-4.208960814303369657e-01,-4.066506230454836612e-01,-1.441937738551541184e-02,-1.842618426873887313e-02,1.114555749022184267e-02,4.695759341120719910e-02
-3.847120028891989341e-01,-4.601359548541035238e-01,-4.002980958438911996e-01,1.060710330636291734e-02,-5.689919345130838718e-02,-2.178882901531417615e-02,1.273988932371139526e-01
-3.695036675166961659e-01,-4.422455410970538847e-01,-4.324906715912543165e-01,-2.233974957801710542e-02,-2.841900423847600748e-02,-4.717109646663902693e-03,9.307961910963058472e-02
-3.928101222139274151e-01,-4.013997184303053634e-01,-4.363450781746507356e-01,6.067501856387190647e-03,-2.981894151956307904e-03,-3.994756196637105385e-03,4.219145700335502625e-02
-4.162581576110728210e-01,-4.216798509598660427e-01,-4.306749327577470976e-01,-5.419445780112357169e-02,-6.637781415389841511e-02,2.552996623196868500e-02,1.553820222616195679e-01
-1.835515914870532728e-01,-5.140050257857903260e-01,-4.892963561156158936e-01,-4.368132585107023513e-02,7.266298592779421583e-02,-3.236305426884052844e-02,3.554587662220001221e-01
-4.563559039899576231e-01,-3.144869457388813627e-01,-4.614964440770431553e-01,-2.877383195947663674e-02,-1.727496639898135761e-02,-5.098355852406057792e-03,1.560114175081253052e-01
-3.400733492098433342e-01,-4.491790700356010912e-01,-4.486843341950931263e-01,-3.296223802015158313e-03,2.984496434261147552e-03,-1.061630257431880019e-02,1.106695979833602905e-01
-4.067622935130480455e-01,-4.034412443619847521e-01,-4.318112359302541114e-01,-6.565725658845106630e-03,-5.409857750559222099e-03,1.894146721328456094e-04,3.064149431884288788e-02
-4.053584895431798230e-01,-4.039778998404241483e-01,-4.349624623406008750e-01,-7.966169663220249927e-03,-6.324703744735930139e-03,-2.704749875921348690e-03,3.537660837173461914e-02
-4.384250452444252155e-01,-3.639880585728972884e-01,-4.331212530643827607e-01,-1.028412585144317798e-02,-1.313384299221397912e-02,5.228445538641175033e-03,7.804479449987411499e-02
-3.984785811390186838e-01,-4.112096584570513191e-01,-4.281619686588204465e-01,-7.509393820122977833e-03,-3.247916484633899849e-03,3.553586066780478787e-03,3.006636165082454681e-02
-4.246756025039899463e-01,-4.154681845773166571e-01,-3.992752601494399811e-01,-1.268636956229886661e-02,-1.113311543372309982e-02,5.857653875119306873e-03,3.812727704644203186e-02
-4.325425253369510337e-01,-4.071940822119282655e-01,-3.992238540721801954e-01,-4.874153543421893414e-03,1.137119930753962204e-03,-5.590151478927423562e-03,3.281770274043083191e-02
-4.446892362081587557e-01,-3.912746473075178200e-01,-4.182598440538145002e-01,-3.698956470902993454e-02,3.000655557567861315e-03,-3.467416042527512315e-02,9.939066320657730103e-02
-4.326328415377924674e-01,-4.153107463629818752e-01,-3.928969026811995335e-01,-8.029066205670244358e-03,-3.190019506668153714e-03,-2.755225390946686951e-03,3.791293129324913025e-02
-4.329979533305030048e-01,-4.303875314625618120e-01,-3.728676860438769336e-01,-1.373637068518447982e-02,9.623113995352565106e-03,-5.001595385184662984e-03,6.621497124433517456e-02
-4.245319417142701668e-01,-4.339612133022865970e-01,-3.720254489344192450e-01,-1.390040906313533969e-02,1.030279570861736792e-02,-9.071405129862739752e-03,6.697700172662734985e-02
-4.508402075708824452e-01,-4.157483477724427390e-01,-3.695400565873524501e-01,-2.073135687482653700e-02,1.085143948621524260e-02,-3.446770509123792126e-02,1.009696796536445618e-01
-4.336426710306106047e-01,-4.319464443921492980e-01,-3.693223727923924948e-01,-1.340634245325229151e-02,5.533187564423734488e-03,-7.658925302302813445e-03,6.955495476722717285e-02
-4.381476175012944951e-01,-5.855362492327432777e-01,-2.375525907463218733e-01,-1.411249200107720370e-01,1.271353525063896039e-01,-3.400096686989865363e-02,4.508151710033416748e-01
-4.709680661084255648e-01,-3.687354806636191085e-01,-4.038886261541720368e-01,-8.332442340015858151e-02,1.871854573817985715e-02,-1.129307745728947154e-01,2.612155377864837646e-01
-4.984690448663129381e-01,-4.673418349632821323e-01,-2.874973994930105636e-01,-1.937357072761745208e-02,8.633502583726006263e-02,-1.139929331204580926e-01,3.184044063091278076e-01
-4.996153493822491631e-01,-4.925901124447236157e-01,-3.350560400375829362e-01,-1.188620644146249905e-01,-1.543722066941670239e-02,-1.610152283976605814e-01,3.832104504108428955e-01
-4.860058106684667090e-01,-3.547354819539426662e-01,-3.623169142136064558e-01,-2.600242634638686660e-03,-2.241015539233038451e-02,-1.282170779199811039e-01,2.591137588024139404e-01
-3.975233268870157488e-01,-4.509887838206372845e-01,-3.726934475437903571e-01,-1.517884252862349015e-02,3.262903235612178016e-02,-1.537065913317548979e-02,9.693577140569686890e-02
-4.091429966353860581e-01,-4.277588156624538840e-01,-3.950481484802562671e-01,8.688635241704632112e-03,-3.049741542376075212e-02,-1.784206890899798365e-02,6.913301348686218262e-02
-5.563134488163660185e-01,-2.408945203611066455e-01,-5.003013342354903914e-01,3.420562981032185430e-03,-1.572424865553039564e-01,-1.341842555939817272e-01,4.617208242416381836e-01
-4.425769303695602508e-01,-4.160407510849504220e-01,-3.897307067087213972e-01,-1.049050264569456430e-02,-1.896256214854582069e-03,-2.178163675225695123e-02,6.211934983730316162e-02
-4.217566332768570847e-01,-4.354544663413605354e-01,-3.775975323407020356e-01,-1.443681804956413461e-02,1.348071084676076212e-02,-1.753322655229662755e-02,6.953586637973785400e-02
-2.783302388179243470e-01,-4.807035610489269750e-01,-4.857487542779964640e-01,2.925457379546445719e-02,9.519401450413564336e-03,-8.799912079100394649e-03,2.123042345046997070e-01
-3.094192278406858732e-01,-4.621022146750919379e-01,-4.657335651177029190e-01,2.293594312794384072e-03,2.864972913839804528e-03,-9.987268647430814356e-03,1.556257307529449463e-01
-1.732365986775580846e-01,-6.036837645750412484e-01,-5.013591532866634726e-01,-1.493531841051329691e-03,1.230738409401772870e-01,-6.150680638265344086e-02,4.566259086132049561e-01
-3.845150218328367564e-01,-3.925398919611504667e-01,-4.462941372490222824e-01,6.548701932710617596e-03,6.806754031625106977e-04,-8.248896505193490910e-04,5.930747091770172119e-02
-3.801793820531538803e-01,-4.472545188170539143e-01,-4.318501565675442189e-01,-6.212259111124177752e-02,1.251524037176115350e-02,-2.858335389367749543e-02,1.349136233329772949e-01
-3.512816625351591893e-01,-4.564204460224675075e-01,-4.168570300295582065e-01,-7.848118863448902069e-03,1.922524436400333686e-02,-8.853000131314821622e-03,9.994255006313323975e-02
-4.370475799161371300e-01,-3.533187441754753744e-01,-4.262834106003418055e-01,6.261880965637902155e-03,1.167841504343436303e-02,1.098449545585163632e-02,8.434382826089859009e-02
-4.305344947826483248e-01,-3.624390893598886665e-01,-4.231686572403997038e-01,9.490411004857965405e-03,1.635798564395673019e-02,1.371051906444415228e-02,7.633183896541595459e-02
-4.292810809838395469e-01,-3.729501966005312474e-01,-4.156135259769831447e-01,8.169080265829365903e-03,1.239515548473103801e-02,5.860912797886844508e-03,5.791577696800231934e-02
-4.264913544609479912e-01,-3.745020722283789461e-01,-4.193756545632353339e-01,1.968706722196288811e-02,1.878616032276601150e-02,2.304492282023757818e-02,7.872918993234634399e-02
-4.283766595051268777e-01,-3.540704587289154603e-01,-4.214914673264538170e-01,3.405902507031375454e-02,2.279373216683745415e-02,3.539498792580980657e-02,1.177044361829757690e-01
-4.575396665567096344e-01,-3.091790517671944016e-01,-4.398505230951310629e-01,3.637620397813266099e-02,2.997321018558957162e-02,7.365675973230281781e-02,2.064950913190841675e-01
-4.162188621240886510e-01,-3.497587246376847037e-01,-4.475623827772236552e-01,3.615247472575685433e-02,9.536177916548586875e-03,2.371383920481651836e-02,1.155998259782791138e-01
-3.929684120435308903e-01,-4.102976655546679008e-01,-3.986883147821957407e-01,4.853514311719387547e-02,4.182976393621406358e-02,4.509843733268362187e-02,1.365711241960525513e-01
-3.886698346108182767e-01,-4.467568854312331528e-01,-3.848827128529802577e-01,2.530615169396851095e-03,5.790251970088710481e-03,-2.068793052005048520e-04,6.106023117899894714e-02
-4.159333101604178462e-01,-4.876206517118297779e-01,-3.226899708335443373e-01,-2.293488484709092431e-02,5.177028147746074588e-02,-1.029301823584878074e-02,1.745110750198364258e-01
-2.572124183713134227e-01,-5.487464557266330534e-01,-3.834018822774403756e-01,9.573460799086797035e-02,1.647968195656982493e-01,3.898603388817956095e-02,4.214930534362792969e-01
-3.482582781486968093e-01,-4.414858882462658340e-01,-4.228732500877947498e-01,1.003533924478152914e-02,1.202451890699460582e-02,1.196907199745396791e-02,9.202322363853454590e-02
-3.450388181189070202e-01,-4.520094247085010286e-01,-4.203201779367476965e-01,6.446925974353749644e-03,1.618153049463023213e-02,5.146268637849428507e-03,1.002335622906684875e-01
-3.483539979296847444e-01,-4.610736548744129859e-01,-3.891646921231181611e-01,8.251269636618778491e-02,1.181900117695500185e-01,7.627574665067894666e-02,2.992602586746215820e-01
-3.941723788375968152e-01,-5.058223294271424475e-01,-2.762205858189485386e-01,4.212622722534344055e-02,1.485335733721197260e-01,8.223646714560374493e-02,3.624178171157836914e-01
-3.953588832322375013e-01,-4.411220841199866571e-01,-3.758584858846273913e-01,1.747794442977514129e-02,2.715939465926253335e-02,1.704319058604907358e-02,8.583519607782363892e-02
-2.924000443425144313e-01,-5.572939366537950079e-01,-3.655507933487943673e-01,-4.683067275350095982e-03,1.566874655236615288e-01,2.898513797103055220e-02,3.638429641723632812e-01
-3.027643173365553997e-01,-5.678131130011297989e-01,-3.921375264389533877e-01,-8.444604540171267437e-02,1.580828766614179315e-01,-4.883658864565076918e-02,3.975791633129119873e-01
-3.731168540460522709e-01,-4.410983897748193550e-01,-3.970800330032897563e-01,1.773493930881957573e-02,3.028976860179376229e-02,1.753579028594824327e-02,9.047196060419082642e-02
-3.991028505534812143e-01,-3.927392285855800802e-01,-4.164961278980703341e-01,6.606539137697706177e-02,4.503529909574316425e-02,4.335007126144051898e-02,1.589648872613906860e-01
-3.870204147092278779e-01,-4.411586143359644274e-01,-3.849314511352618928e-01,7.958237487335106247e-03,1.657554993194461021e-02,6.630489130371915348e-03,6.476525962352752686e-02
-3.638947509611896169e-01,-4.393574002879150342e-01,-4.145862690244453974e-01,5.993174498301553216e-03,6.315802603312613110e-03,9.036959570436946601e-03,7.008101046085357666e-02
-4.036912402360771090e-01,-4.348123891278370956e-01,-3.757704977740627950e-01,9.681306951827050103e-03,7.618274063514970593e-03,4.548825688264745808e-03,5.598564445972442627e-02
-3.966809710775467956e-01,-4.290496886018606570e-01,-3.911788995947593217e-01,6.304615420451114421e-03,3.120938992683003690e-03,2.158549709076888843e-03,3.766357526183128357e-02
-3.371269207793773925e-01,-4.438494711502043444e-01,-4.366741379025911862e-01,4.775914373129723327e-03,7.288010501320358638e-03,9.973677302185292651e-03,1.058376803994178772e-01
-3.504738490718781185e-01,-4.441943345545516508e-01,-4.508937738486529234e-01,-4.139906025146508628e-03,9.200945489352500015e-04,-1.073689698102051407e-02,9.927782416343688965e-02
-3.281435682670665877e-01,-4.572298708319031402e-01,-4.500539627604625559e-01,-5.964615309964932291e-05,6.156632730700621961e-03,-7.548046901527710219e-03,1.267797201871871948e-01
-3.464723159786258777e-01,-4.360514576339780679e-01,-4.441198542730618870e-01,2.597274899297760675e-02,-1.758978704160252954e-02,-1.127543308522172341e-02,1.102072596549987793e-01
-3.801058603756236054e-01,-4.052727257355270840e-01,-4.435200137556308819e-01,6.540768557554318442e-03,-1.039562360426723574e-03,-7.650170432168243440e-03,5.801683291792869568e-02
-3.857503431569287988e-01,-4.218057730521401760e-01,-4.299809316446729368e-01,2.923250325149156798e-03,-3.691423728038950840e-03,-1.156282951018364202e-02,4.614324495196342468e-02
-3.575991799008218508e-01,-4.195912153977009451e-01,-4.497316301291258700e-01,9.172886606469745838e-03,-7.088862041870702679e-03,-1.262703723160801123e-02,8.661080151796340942e-02
-2.608266232536056162e-01,-4.566949576351339579e-01,-4.749366644931443115e-01,1.034300778826628825e-01,1.436544300560885501e-01,7.113769445453499429e-02,3.891721665859222412e-01
-3.822068537839332647e-01,-4.388363066645473154e-01,-4.175575954869378270e-01,1.170268278825860970e-03,-7.960768194186524510e-03,-6.344714721978519933e-03,5.262768268585205078e-02
-4.044991009282152827e-01,-4.335460402818110404e-01,-4.068838307282006128e-01,-1.584362487676755282e-03,-7.739875146326852771e-03,-1.592456229068649589e-03,3.122495673596858978e-02
-4.050557633804303670e-01,-4.344667771961565061e-01,-4.028803988307372852e-01,-1.349256494117209021e-03,-1.445417719449636641e-03,-1.196890399358845405e-03,3.081795573234558105e-02
-3.882842796511400962e-01,-4.350230033502183735e-01,-4.166774500514602853e-01,-2.786172640292142177e-03,-2.333761104688084759e-03,-7.764686009323605934e-03,4.340643435716629028e-02
-3.886048487981093036e-01,-4.397661624597180574e-01,-4.142881797414982858e-01,-1.149879199601611807e-02,-4.544686765847325699e-02,1.538766508621734058e-02,9.626204520463943481e-02
-4.032683944782957663e-01,-4.323097233814222617e-01,-4.038112960026525311e-01,-2.070101813311267698e-03,-3.794258811337047465e-03,1.017387669386577223e-03,2.978384308516979218e-02
-3.699590488204422822e-01,-4.186509793530842627e-01,-4.399643217390113992e-01,1.088435807360421496e-02,-8.772831270639210727e-03,-1.362531854747591614e-02,7.075446099042892456e-02
-3.910519525129175222e-01,-4.770989842870821951e-01,-3.410811181280276605e-01,1.570145934891535588e-02,-1.410896174496105715e-01,-6.889825764600503166e-02,2.981616556644439697e-01
-3.931582791966615198e-01,-4.450518022373616822e-01,-4.154053520453203641e-01,-7.719913973948294532e-03,-2.999820620501520221e-02,-9.988823195604460553e-03,7.218856364488601685e-02
-3.905520866697105853e-01,-4.275480794351655955e-01,-4.180582888501216954e-01,5.578962971948150246e-03,-6.337711532988627404e-03,-9.519720945044107818e-03,3.991772606968879700e-02
-4.516529902817138509e-01,-4.676316544482239101e-01,-3.519267052918277905e-01,-3.793708040043960311e-02,-5.427423328580738282e-02,1.135491594353265840e-02,1.591718792915344238e-01
-4.719368963734396072e-01,-4.597560529898384596e-01,-3.451438051437832888e-01,-3.073831026767685423e-02,-1.656090260803630976e-01,6.857137735926618384e-04,3.159041106700897217e-01
-3.373000214183721757e-01,-4.856318775793956877e-01,-3.827245084341366343e-01,6.818784929505555814e-02,1.270984123162435808e-01,4.478887639002295668e-02,2.928424775600433350e-01
-4.251912973107912497e-01,-4.114101811440764034e-01,-3.254388964168439813e-01,1.012855026619307319e-01,1.300589854156803948e-01,1.334962121017045367e-01,3.791460990905761719e-01
-3.791321268124731025e-01,-3.810675103469634006e-01,-3.700929641716138585e-01,1.472117920557029780e-01,1.471680796224149601e-01,1.468731269925361016e-01,4.413698613643646240e-01
-3.590510754398766324e-01,-3.709557799964787739e-01,-4.213498200736081056e-01,1.550318666386729938e-01,1.212928749446567644e-01,1.352258338758873524e-01,4.175880849361419678e-01
-2.849524988397069691e-01,-5.138816296208998935e-01,-4.424255323595218115e-01,3.544751062601474850e-03,4.678557854053923964e-02,-2.244295329740195535e-02,2.219719886779785156e-01
-3.682602791532151865e-01,-4.006567367569768279e-01,-4.567978881468854335e-01,2.246180167502204172e-02,2.272387196494159330e-03,4.766774969270225920e-04,8.689018338918685913e-02
-4.021987054099283032e-01,-4.219450045717664799e-01,-3.949521659117439243e-01,4.646112544083059320e-02,5.890756547607502169e-02,4.763420041724913956e-02,1.558165103197097778e-01
-3.433852296717864183e-01,-4.199699151531475216e-01,-4.571709661266848412e-01,3.567897061495906713e-02,1.348291993952311155e-02,5.104604993092880932e-03,1.205846965312957764e-01
-3.878104524503186989e-01,-3.723042993004265777e-01,-4.284456173570950765e-01,1.217503483627375704e-01,7.967560024704405108e-02,8.738350553861122527e-02,2.982338368892669678e-01
-4.345337987637979960e-01,-3.929461398299096686e-01,-3.897301426515585310e-01,2.902545382912061298e-03,2.094559252129713986e-03,1.530642701761104115e-03,4.380737617611885071e-02
-4.258416683416448301e-01,-3.950051683039162431e-01,-3.962103092344831934e-01,7.349585264784297195e-04,3.371624937417115869e-03,1.029900422450238679e-03,3.088828176259994507e-02
-4.325944523863331503e-01,-3.923208401210997454e-01,-3.951207199654753754e-01,2.068676522124729064e-03,1.546922177732568517e-03,2.225754637556653665e-03,3.939442709088325500e-02
-4.297655211927095542e-01,-3.814691464775619711e-01,-4.043365041679776173e-01,7.024140034112618010e-03,1.031877306979714533e-02,8.918191429768636269e-03,4.956908896565437317e-02
-4.374331475452278295e-01,-3.718744860752041803e-01,-4.044833704600103719e-01,5.521866838344366424e-03,8.857998250275353133e-03,1.158557624156389756e-02,6.287308782339096069e-02
-4.565878690625062020e-01,-4.121379217117738247e-01,-3.463377401048525206e-01,8.370695883153663960e-03,4.811138884992276904e-03,2.109220301871446088e-02,1.041372492909431458e-01
-4.273358122869411746e-01,-3.869928088469736238e-01,-4.042686154613009397e-01,1.128860634925422067e-02,1.105718685292098047e-02,1.655830294765913910e-02,5.292133614420890808e-02
-4.482577903843821820e-01,-3.866334893982574239e-01,-3.746484098591416068e-01,1.707090191660350434e-02,1.222762186711151729e-02,3.637447934149766471e-02,9.985924512147903442e-02
-4.006677656963484879e-01,-3.862554882236632348e-01,-4.486046202113117554e-01,1.942580138474292797e-02,-7.955867256682049027e-03,-7.603672274352641855e-03,6.849785149097442627e-02
-4.306017146062878220e-01,-3.609450253041495138e-01,-4.492903622125505869e-01,7.439867969922240795e-03,-1.052530613043131148e-02,-1.145553092412777800e-02,8.599533885717391968e-02
-4.429143785223290664e-01,-2.522848816299616548e-01,-4.916266416436041453e-01,1.490614617040811607e-01,7.398655536164257251e-02,9.054707527130756439e-02,3.945564627647399902e-01
-4.357309343704457438e-01,-3.141447206958923877e-01,-4.713778317206842594e-01,8.192904748548786309e-02,2.857668532184623814e-02,5.747464551424083523e-02,2.299675494432449341e-01
-4.344021437357429294e-01,-2.307538589717741950e-01,-5.233471389987889300e-01,1.146334755898410357e-01,7.254109448279028385e-03,2.654711252356417583e-02,3.304420411586761475e-01
-4.013956837826051505e-01,-2.395462429953092998e-01,-5.791849439232020780e-01,1.522353134933182583e-01,-2.477787384905751761e-02,6.692892616796039529e-02,4.139884114265441895e-01
-4.447433374655662131e-01,-2.316357449442257022e-01,-4.964130595024661696e-01,1.190623000576832985e-01,3.708120031302180458e-02,1.100378625464629306e-01,3.769261837005615234e-01
-3.843120957439439822e-01,-4.378118134657789096e-01,-4.016224248379300921e-01,1.082841942500647851e-02,1.557740912678708990e-02,1.007358587618174990e-02,6.016587093472480774e-02
-3.815339374245186321e-01,-4.386247626833725266e-01,-3.992792239608022320e-01,2.563047010285533431e-03,2.798411708149156716e-03,5.782368348226715228e-03,5.200646817684173584e-02
-3.760570799062867842e-01,-4.355560023520917978e-01,-4.038248034253288377e-01,4.501300918288522225e-03,8.556757702412570721e-03,9.219718497262212320e-03,5.651962384581565857e-02
-4.390896139175559099e-01,-3.413171243646270225e-01,-4.065764995807443216e-01,5.936747277749714058e-02,4.611366753886090436e-02,7.102968452250257858e-02,1.988120377063751221e-01
-4.005830210563330329e-01,-4.211287873232316126e-01,-3.973760022194401942e-01,1.200462773092736109e-03,1.707896694017049756e-03,1.889057149367755987e-03,2.284915372729301453e-02
-4.034269791587337672e-01,-4.403690498738562775e-01,-3.708365017273284048e-01,9.035417635797802008e-03,8.786553217346323996e-03,5.410282692060065270e-03,6.477002054452896118e-02
-3.918817654199629463e-01,-4.269464335170994329e-01,-3.916953180565976300e-01,8.337098988179358905e-03,1.486149714435173672e-02,9.308530693655064567e-03,4.865350574254989624e-02
-4.079790824543880756e-01,-4.055375784655445015e-01,-4.253210397394141529e-01,-3.697593352526005236e-03,-2.488290527992957288e-03,1.204048483049700163e-03,2.032204344868659973e-02
-3.803277968485355709e-01,-4.406441269736086075e-01,-4.356410593878842774e-01,-6.546716692811846428e-02,-4.400095367757357601e-02,-3.843396625977958496e-03,1.485656052827835083e-01
-4.083348104011328972e-01,-4.030647454762302240e-01,-4.282077737817526764e-01,5.691362715562748155e-05,-1.470336784020750704e-03,5.607888322418006465e-04,2.312744967639446259e-02
-4.369264656788591217e-01,-3.690190509831460242e-01,-4.248888707425871325e-01,-1.148271248381224630e-02,-1.601196909746676125e-02,1.012112284518799747e-02,7.355880737304687500e-02
-3.912999243351713008e-01,-4.172382730057895284e-01,-4.313492813801010906e-01,-8.161731381332968868e-03,-3.298703677295339656e-03,6.184280620396963735e-04,3.836102038621902466e-02
-4.468837039456253768e-01,-3.853920546042697848e-01,-3.895937138290936907e-01,-1.985098148298577656e-03,-2.877203693651725087e-03,1.641150652697145190e-02,6.622068583965301514e-02
-4.541470257604512950e-01,-3.511054572262143902e-01,-4.217261167642760156e-01,-3.012804303668814706e-04,-5.212298236399134400e-03,9.448810690032206916e-03,9.315361082553863525e-02
-4.904735686513467252e-01,-3.513079052401636426e-01,-3.784164293318398320e-01,-8.348235624252604847e-02,-6.422012055149521614e-02,1.081926175689532782e-01,2.910788357257843018e-01
-4.194309173130278956e-01,-4.020732818261825714e-01,-4.218791716056723429e-01,-8.899246480744684926e-03,-1.164911121515986581e-02,7.082176157939152131e-03,3.383702412247657776e-02
-3.819258092626879320e-01,-4.009894780979120776e-01,-4.453563462714149601e-01,2.491688547364099508e-03,-3.246223821367160822e-03,-5.166783933758577717e-03,5.751490220427513123e-02
-3.864870269491950672e-01,-4.035069880208198012e-01,-4.462237582295849325e-01,1.540907288333374751e-02,-5.628836481801290613e-03,-9.425145947769327653e-03,6.257243454456329346e-02
-3.840260673891511267e-01,-3.924047703649242713e-01,-4.474579778869444691e-01,6.463573505391384359e-03,1.122398662387296417e-03,-5.338729708650111205e-04,6.076430156826972961e-02
-3.906634519020995566e-01,-3.872604753127831256e-01,-4.509605785199988226e-01,1.459859213536696815e-02,-9.009751584474104402e-03,-7.326271937259039996e-03,6.997442245483398438e-02
-3.952646382249823676e-01,-3.976023407441577895e-01,-4.384431067746045740e-01,6.969464802840444166e-03,-4.463842615292709128e-03,-4.075111297401509854e-03,4.499137774109840393e-02
-3.971237698761843071e-01,-3.855276183047106620e-01,-4.421222121969892727e-01,1.401753134023221280e-03,3.817310894819080785e-03,2.703802906737612886e-03,5.246600136160850525e-02
-3.919162665497699094e-01,-4.222355383482870872e-01,-4.279667882156091285e-01,-4.759742436636252294e-03,-5.452030405035290968e-03,2.479041845609179871e-03,3.607560321688652039e-02
-4.694035058050713416e-01,-3.680020805844181342e-01,-3.956855618791518259e-01,-8.047646143315654796e-03,-9.640073709931692297e-03,5.134319941241712731e-02,1.289299726486206055e-01
-3.835750433051813291e-01,-4.375183744036346689e-01,-4.242980085768190412e-01,-7.446055957980836186e-03,-6.484647276385242451e-03,-3.109532076416474198e-03,5.189413577318191528e-02
-3.930445411354331342e-01,-4.345526092742533764e-01,-4.109061670903029762e-01,-4.694492170498928973e-03,-7.300770585894552321e-03,1.598725456867271721e-03,3.916940093040466309e-02
-3.510802230830371573e-01,-4.470555432369093252e-01,-4.430437424317358874e-01,-2.508865088136616461e-02,-4.377061514470514947e-02,6.552774036094355728e-03,1.288683861494064331e-01
-4.250025491194592275e-01,-4.252947631320961319e-01,-4.118114639505351393e-01,-4.523955281294352038e-02,-4.839719734603419726e-02,7.066433818897383499e-03,1.161656826734542847e-01
-3.030170642173506956e-01,-5.034425230381597283e-01,-4.226139880295481377e-01,-3.964814752520350039e-02,-1.333416837797277432e-01,-2.180004014573258195e-02,2.999753057956695557e-01
-4.267078381798110609e-01,-4.557814981954286804e-01,-3.683504903478654890e-01,-4.161414290565410012e-02,-6.858423426075177520e-02,2.112093035593025706e-02,1.630717664957046509e-01
-3.646059465671803723e-01,-4.184607492283471397e-01,-4.467127500870225476e-01,1.006716458876592314e-02,-2.471146322559290929e-03,-1.231921554734323812e-02,7.744465023279190063e-02
-3.106281141012559033e-01,-3.334522053176111611e-01,-6.102851672570517305e-01,1.494584356506982459e-01,-1.336933971664019428e-02,-1.176927883515590523e-01,4.388397932052612305e-01
-4.030566409454910404e-01,-4.279851351222352940e-01,-4.097683976032568953e-01,-2.819357452397536326e-05,-1.924293954578403399e-03,-1.617764882004449345e-03,2.276238426566123962e-02
-3.736736836191965616e-01,-3.876303257954620274e-01,-4.733285561188411705e-01,4.875065841905990710e-02,-1.046018175228438651e-02,-9.429027645576322850e-03,1.282960623502731323e-01
-3.469180364249053738e-01,-2.727460287000195160e-01,-5.890603650078594100e-01,1.607547804397368163e-01,4.956538750144391658e-02,2.344906418107936541e-02,4.106587767601013184e-01
-3.790377362380008552e-01,-3.938023123935075476e-01,-4.472146045315173457e-01,4.661676195564221081e-02,-3.213982400502147369e-02,-2.905713067166558472e-02,1.265333890914916992e-01
-4.546411721368555092e-01,-4.631027660995347683e-01,-3.534208122270825481e-01,-3.417698563739730855e-02,-5.647730631404427465e-02,1.299317012030264465e-02,1.573320329189300537e-01
-4.904205066310746708e-01,-4.295418498381462502e-01,-3.244851661216904826e-01,-1.372137369053635404e-02,-1.444085374337556946e-02,4.669315114721882265e-02,1.699118018150329590e-01
-4.592724997989119928e-01,-4.334984941703852734e-01,-3.415735832338612776e-01,-7.327594403096574123e-03,-5.518060179241549533e-03,9.516603617682957081e-03,1.095805019140243530e-01
-5.068982994239653594e-01,-4.702876210655856370e-01,-2.429399876561543492e-01,-2.612884481625483632e-02,-3.865309609988593770e-02,6.047468810744414253e-02,2.808069288730621338e-01
-4.377943029533842290e-01,-4.359188434082908459e-01,-3.403226336573776933e-01,1.125831750474414091e-02,1.061912911630075347e-02,1.458491216449958432e-02,1.033351123332977295e-01
-5.008024947897908863e-01,-4.942063405167627099e-01,-2.667785923067123033e-01,-3.622666364686513013e-02,-1.568190339522845117e-02,1.043795411195238415e-02,2.413892447948455811e-01
-4.498296819237315169e-01,-4.279802536492758325e-01,-2.942940563574930612e-01,1.062695290846174950e-01,1.109685124141941842e-01,1.513595109516465420e-01,4.010251164436340332e-01
-4.239605375143837285e-01,-4.691355599881241178e-01,-3.116631281439357082e-01,1.087532506106704371e-02,1.005673942580712910e-01,6.757018227007728639e-02,2.532151937484741211e-01
-4.225061824063320315e-01,-4.439771118166227493e-01,-3.517100312919703153e-01,9.876558077346862113e-03,3.123304074177016970e-02,2.845533835440622675e-02,1.124340742826461792e-01
-5.632534163471871747e-01,-3.528655555782504449e-01,-2.818042603655200318e-01,6.400128194055540454e-02,4.956868768114713192e-02,1.693826475725757341e-01,4.123036563396453857e-01
-4.549416736345962553e-01,-4.130024767882143899e-01,-3.448125789232112104e-01,6.207633426892086512e-03,7.414890263005442447e-03,1.962189168529020894e-02,1.034610569477081299e-01
-4.585222429033146141e-01,-4.172870562669601102e-01,-3.495244543054740749e-01,2.618848998465197683e-03,8.386869900651915816e-03,3.720381562290613064e-02,1.160615384578704834e-01
-4.615865997533248333e-01,-4.357612688197529671e-01,-3.279936119576413178e-01,1.371699014270006713e-04,-3.673663773863473491e-03,6.805174240739870518e-03,1.234642714262008667e-01
-3.970748835660862786e-01,-3.945409754452804396e-01,-4.281889979475749786e-01,6.513056741259986258e-03,5.276714778685669821e-03,6.030078586067842174e-03,3.705705702304840088e-02
-3.966657080978390759e-01,-3.963236111674853235e-01,-4.227234367931337888e-01,2.342669290753793027e-04,1.752038488925522280e-03,1.575141975505026755e-03,2.654907293617725372e-02
-4.003468040671546158e-01,-3.956756986025940503e-01,-4.214392739323112314e-01,3.982921012267442323e-04,3.585301712702910950e-03,1.600858933920365230e-03,2.473790571093559265e-02
-3.797372159592009022e-01,-4.052447654056644533e-01,-4.270232498713527058e-01,7.181140528186238589e-03,4.510745977672319003e-03,9.520849430113586739e-03,4.656328633427619934e-02
-3.847781566743183057e-01,-4.081929057029104468e-01,-4.212481051527567355e-01,5.696675651969724738e-03,3.432802693529834245e-03,9.716137425181129578e-03,3.795117512345314026e-02
-3.976048352072002467e-01,-3.850245003574824798e-01,-4.239231882362851644e-01,7.155818171237429692e-02,5.518004359391091157e-02,5.220450364745492927e-02,1.839950382709503174e-01
-4.100500387211420961e-01,-3.897139642747334820e-01,-4.132646441429587147e-01,5.614878718348578768e-03,9.893029877924718399e-03,4.561353352416801232e-03,3.065740689635276794e-02
-4.964278828049281111e-01,-3.402107361554408405e-01,-4.086040278096833012e-01,-8.909770383402930427e-02,-1.239408136080728667e-01,1.318030783057335398e-01,3.747166395187377930e-01
-4.577610678217653439e-01,-3.496980720630109007e-01,-4.227719115730368404e-01,-6.795300087966244310e-03,-9.664045421361034185e-03,1.663807043871714034e-02,1.018332242965698242e-01
-5.378767150874559366e-01,-2.746539876280027492e-01,-4.942891431332117058e-01,-1.423609309469689166e-01,-1.278701485886862277e-01,9.527771622669307591e-03,4.121133387088775635e-01
-5.332916958330682355e-01,-3.929672115756970840e-01,-2.801692017260836720e-01,-3.684466239956843414e-02,-1.970711269897129983e-02,1.634858591475999989e-01,3.655998408794403076e-01
-4.752504446679650107e-01,-3.109156989674478067e-01,-4.648124256125433229e-01,-3.059035877673708589e-02,-3.330705028075240520e-02,1.352180546082166340e-02,1.791184991598129272e-01
-4.765644704226844608e-01,-3.194397375136449058e-01,-4.563678266254390659e-01,-2.788590995673694353e-02,-3.440124779666513949e-02,4.486734880999578012e-02,1.839704811573028564e-01
-4.396102281930159839e-01,-3.694454301362747328e-01,-4.229323098951740523e-01,-1.069132482341408376e-02,-1.407292721046612093e-02,8.766562061536585168e-03,7.210174947977066040e-02
-5.348581754669750055e-01,-2.380891059036779611e-01,-3.907889583646688147e-01,2.540435086225339284e-02,1.035963747660091812e-03,1.631826230407476819e-01,3.845745623111724854e-01
-5.198622080639783150e-01,-3.795447070024100533e-01,-3.319275637252429578e-01,-3.219209072834550850e-02,-3.823530261444233608e-02,8.940876001700341635e-02,2.451825886964797974e-01
-5.372826440583468033e-01,-3.956513705154970362e-01,-2.753491106528538346e-01,-5.174805999005350349e-02,-9.037392173615969859e-02,1.268359301645811399e-01,3.638249635696411133e-01
-5.007209986256446754e-01,-3.598933320758500587e-01,-3.420170361256881231e-01,-9.381929252089098170e-02,-9.026885434475162562e-02,1.230754179544551880e-01,3.449111878871917725e-01
-4.469921648878267262e-01,-3.880163132113683133e-01,-4.033442772799345488e-01,-9.923401091055092382e-03,-8.914187197363145423e-03,1.585019878257644052e-02,6.400479376316070557e-02
-4.312745583095542456e-01,-3.476253293697084690e-01,-4.802595336933900283e-01,-1.201379316064036668e-01,-4.979664825827465752e-02,4.300332738529400421e-03,2.535512745380401611e-01
-4.368604263475193150e-01,-3.938049873782599186e-01,-4.062145263785160165e-01,-5.247106478078356062e-02,-4.681791413745696462e-02,3.834217265120071216e-02,1.439417451620101929e-01
-4.007575385443952198e-01,-4.141880423749035867e-01,-4.322450798458633558e-01,-1.768819915412900984e-02,-9.413433062656613101e-03,9.717814856514569955e-04,4.422938451170921326e-02
-4.305641111937411059e-01,-3.838623341212883955e-01,-4.235863880472595655e-01,-3.441091352287822900e-03,-1.155651012612783288e-02,4.392206202186767390e-03,4.896865412592887878e-02
-4.361038252849344654e-01,-3.189436706075746142e-01,-5.188884171337292406e-01,-1.107375697793891167e-01,-1.130262988236116067e-01,4.929592533306498964e-02,3.356819450855255127e-01
-4.177411853445868739e-01,-3.923335029082574699e-01,-4.321550009199568443e-01,-1.647454347492598170e-02,-1.013633654907040646e-02,1.099070193992414098e-03,4.843161627650260925e-02
-3.438997825358015570e-01,-3.770539596321992870e-01,-4.842223673401129802e-01,-1.189261808153838224e-01,-4.175168997943321664e-02,1.168939441213189857e-02,2.533913850784301758e-01
-4.890449755220507844e-01,-3.370328718084316666e-01,-4.138180499831685122e-01,-5.773532753569767667e-02,-5.918907507044701699e-02,7.451814783975831136e-02,2.334531545639038086e-01
-4.388917124797284131e-01,-3.849132244154105931e-01,-4.045173558963393590e-01,-8.089876598849058201e-03,-1.047984652803160728e-02,8.485628771922748212e-03,5.460435152053833008e-02
-4.636418398652024653e-01,-4.574129577104528166e-01,-3.061889277590365555e-01,-1.292671202509777795e-02,-1.635245972725887439e-02,1.971520642720724428e-02,1.622314453125000000e-01
-4.169502913172260516e-01,-4.118614232987773405e-01,-4.097633854474961312e-01,-3.436845143813437291e-03,-2.182878710412831068e-03,5.396786280016529916e-04,9.569709189236164093e-03
-4.051952244084371380e-01,-4.179268252914774551e-01,-4.153134218879938611e-01,6.157184567161165479e-04,-1.871465498823140020e-03,-3.651851840330409219e-03,1.368587836623191833e-02
-4.229080840131496100e-01,-4.134286200947893675e-01,-4.026477240000311264e-01,3.683369502321588978e-03,-3.562591409963587752e-03,-4.868624580023133037e-03,2.140498533844947815e-02
-3.943764427639529502e-01,-4.192833849508565969e-01,-4.221040452391832676e-01,1.757772567211990595e-03,-3.689153867614930124e-03,-8.941051517514472455e-03,3.144029155373573303e-02
-3.967844288263198682e-01,-4.283118444785190548e-01,-4.168473498714320158e-01,-9.520712810126913330e-05,-1.638979027343886096e-03,-7.610337261512960597e-03,3.075393289327621460e-02
-3.919316530399613585e-01,-3.622494169035877509e-01,-5.002773175102745995e-01,7.481386527375147311e-02,-4.510728622333778220e-02,-3.563777507230790620e-02,2.062553167343139648e-01
-4.137106477987310127e-01,-4.139330932185938949e-01,-4.119575732132959023e-01,5.248076732201028931e-03,-7.381810011624974355e-03,-8.068048734528491389e-03,2.109249308705329895e-02
-4.066251767014099072e-01,-4.215031295925276145e-01,-4.109047011257774829e-01,1.160455955581443958e-03,-9.384266546110356421e-04,-1.803291371312851178e-03,1.387208513915538788e-02
-3.896085776321164262e-01,-4.317630676976176307e-01,-3.904351004301758188e-01,9.689292353716480108e-03,1.319049665196678559e-02,1.023999338504875088e-02,5.348859354853630066e-02
-3.239770646623605366e-01,-4.624774721908032626e-01,-4.124440859915639024e-01,2.779438828146868837e-02,6.683830023959447253e-02,1.999390219486153406e-02,1.779746711254119873e-01
-3.630307836482121742e-01,-4.316559420742142605e-01,-4.452393664438763499e-01,-4.021961673406745930e-02,-1.227186271938536521e-02,-7.143603673871082305e-03,1.062253639101982117e-01
-3.897957793360162793e-01,-4.154947231333198654e-01,-4.355902791099772187e-01,-7.192583334308668211e-03,-3.611226500007465919e-03,3.676168301240324192e-04,4.213584959506988525e-02
-3.917038540622752030e-01,-3.933103558311706882e-01,-4.405325916733633940e-01,1.305632860237486599e-02,-5.400347061017110421e-03,-5.012277844907821536e-03,5.461360886693000793e-02
-3.366508873938874324e-01,-4.526511936841416950e-01,-4.367680600091536913e-01,-9.818259595921099547e-04,2.090219304074496590e-02,-1.140073532316970319e-02,1.164878681302070618e-01
-4.150646559459630902e-01,-3.945992934659707796e-01,-4.322607694136657575e-01,-2.121721850038907342e-03,-7.271132017265771741e-03,-8.806555383571241158e-04,3.522643819451332092e-02
-3.646625880302507561e-01,-4.371323154743388395e-01,-4.323268737452644617e-01,-8.239978034823127254e-03,6.197660520187196938e-03,-1.353973564558190457e-02,7.612885534763336182e-02
-4.302814778230236170e-01,-3.990111412751538023e-01,-4.009468946356977703e-01,-1.790221713415776975e-02,1.032746871180536055e-02,-2.606040153083442543e-02,6.511467695236206055e-02
-3.987483828112315942e-01,-4.069838614435660751e-01,-4.346876664720791261e-01,-4.810805261700596552e-03,6.510470070992217936e-04,-4.612743481872413377e-03,3.461232781410217285e-02
-3.790498943972119839e-01,-4.326986930253317598e-01,-4.335409100100474644e-01,-1.571179365218396129e-02,3.426520192968122124e-03,-1.333227471884168396e-02,6.506258249282836914e-02
-3.212638060289145225e-01,-4.466834914999106565e-01,-4.600683899836138790e-01,-2.045779984936960810e-02,4.795795701906288566e-03,-1.390538946201490440e-02,1.396159976720809937e-01
-3.936557481376855017e-01,-4.126608844177012680e-01,-4.378902540049155467e-01,-3.943168898483326301e-03,-1.083221019206746100e-03,-4.469916694204543670e-03,3.984106332063674927e-02
-3.994074971459335988e-01,-4.182212584624533380e-01,-4.234746800896516672e-01,-2.599594716152403215e-02,8.157583514552717643e-03,-1.883856651872956034e-02,6.141721084713935852e-02
-4.436973855547441392e-01,-4.200153703191289445e-01,-3.706402729766659077e-01,-2.308052806137176477e-02,1.083731624238679775e-02,-3.356474553216071827e-02,9.745917469263076782e-02
-4.433828385297808872e-01,-3.802467682850408370e-01,-4.303329635118579577e-01,-5.342155569996530351e-03,-9.304029442337926822e-03,-2.341872260112348725e-02,7.296002656221389771e-02
-4.377264887681568961e-01,-4.034040760801682057e-01,-4.049077830163592684e-01,-2.788055624709554273e-03,-4.550141150785168807e-03,-8.906051099756541467e-03,3.810593858361244202e-02
-4.773588865469141629e-01,-4.994615563794574387e-01,-2.360453124034583017e-01,1.808550833177645714e-02,1.406404067984656781e-01,3.560734003609734855e-02,3.580202758312225342e-01
-4.651698846737397086e-01,-2.805978008557174497e-01,-4.870542923954013226e-01,-8.309794208828477635e-02,-1.442916656934312321e-03,-1.062987381248286095e-01,3.052954971790313721e-01
-4.348231768107255202e-01,-4.105166426623730880e-01,-3.962176705775652397e-01,-1.007418872244518525e-03,-1.627190436381822317e-03,-3.681975223245790001e-03,3.456132858991622925e-02
-4.356702460233729535e-01,-4.373031295255351836e-01,-3.573847806051177467e-01,-1.619348190128253387e-02,1.015320667591987705e-02,-1.305670399134843673e-02,8.869325369596481323e-02
-4.342028244614488663e-01,-4.471799307982436966e-01,-3.534260374863185117e-01,-1.355117782156867699e-02,1.021056271800093763e-02,-3.967604370165041423e-03,9.301848709583282471e-02
-4.287542447770061882e-01,-4.243397876704312344e-01,-4.003496707916096020e-01,6.910768907652215833e-03,-6.682930703130696148e-02,-4.653641355648384381e-02,1.440124064683914185e-01
-4.215887084258152506e-01,-4.118577578459783894e-01,-4.060680313930851715e-01,-1.741993321070119767e-03,6.174066554373435368e-04,-2.552108115249063203e-04,1.396404206752777100e-02
-4.327498981228022346e-01,-4.120761991056933193e-01,-3.979589377285253082e-01,-8.348937463325973793e-03,5.240723876845674927e-04,-6.666146607612252577e-03,3.552190586924552917e-02
-4.438740546805320375e-01,-3.798733893029397346e-01,-4.169079750232356218e-01,-1.641917688836899095e-03,-2.210376036736808915e-03,-1.002188339971587377e-02,5.849330872297286987e-02
-4.320154425902487105e-01,-4.045547286215006033e-01,-4.044541015262917427e-01,-9.197954459968481211e-04,-1.010748366124720229e-04,-1.335603347039871977e-03,2.765473723411560059e-02
-4.291583207596130767e-01,-4.058746162226550269e-01,-4.048711934985435024e-01,-1.834361375577900875e-03,4.133958803206134384e-04,-1.785443379291241483e-03,2.422131039202213287e-02
-4.272427856014674452e-01,-3.968312694529109175e-01,-4.134438716751387966e-01,-6.589697307449604233e-03,5.652825013212793050e-03,-4.999444554055606539e-03,3.157124295830726624e-02
-4.453436300506929402e-01,-4.606223816515588876e-01,-3.562912388681850895e-01,-4.355142906323893059e-02,2.421661711819537294e-02,-7.599023803569508739e-02,1.851956844329833984e-01
-4.350927783388957582e-01,-4.068821136007434447e-01,-3.979074970474447137e-01,-4.293035323811867678e-03,7.612273625078099654e-04,-5.215428000498403653e-03,3.561174124479293823e-02
-4.206802131383279852e-01,-4.139561680964684576e-01,-4.053439469576702869e-01,-2.878144157434665579e-03,6.648762769495841513e-04,-4.717523284059429349e-04,1.428765431046485901e-02
-3.908220984949704047e-01,-3.901780143000858625e-01,-4.469896646012482266e-01,9.783857436649520331e-03,-2.311520466879159099e-03,-1.805184627930822615e-03,5.919766798615455627e-02
-2.223077146576956653e-01,-4.410310965908368352e-01,-4.894922816401123256e-01,1.465823106612358651e-01,1.082492664779791669e-01,4.505121284476059501e-02,4.080314636230468750e-01
-2.767945644975159381e-01,-4.883299487524847549e-01,-4.684503988145554687e-01,4.525065926153683943e-02,1.107033373897180206e-02,-1.605436406836037444e-02,2.195926606655120850e-01
-1.917894974089712490e-01,-6.027309043699081714e-01,-4.937337616527116002e-01,1.992135175628987395e-03,1.468735819391215058e-01,-5.785356072802746996e-02,4.590537250041961670e-01
-3.121670460250275392e-01,-4.214314095326427423e-01,-4.810824362352952854e-01,8.607517052754813658e-02,6.410737963997042987e-02,1.111704944616290214e-02,2.386242151260375977e-01
-2.841715506104997013e-01,-4.722568713304756138e-01,-4.624637352786749589e-01,-9.403020284403101545e-03,2.190323061316469880e-02,-1.482144023171164809e-02,1.897197365760803223e-01
-1.841693408742398896e-01,-5.082107010427386884e-01,-5.407638870015475385e-01,9.055881776805221883e-02,-2.257241377949101985e-02,9.439731507248380268e-03,3.781661689281463623e-01
-2.243247334583561015e-01,-5.440034029612399458e-01,-4.333411835764851006e-01,1.345993746707900042e-02,1.489110998721714374e-01,2.732601028610274346e-02,3.851900994777679443e-01
-2.853899815091546222e-01,-4.752485028360917685e-01,-4.647627599033445356e-01,-6.494549076241702039e-04,1.715261684240178969e-02,-8.421348853234870285e-03,1.877819448709487915e-01
-4.109411484761957833e-01,-4.111853161394207756e-01,-4.158100738581644307e-01,1.423607876614861532e-07,-8.388216243092028700e-04,-8.547991763718729976e-04,5.184604786336421967e-03
-4.110906282265170963e-01,-4.097127348546045211e-01,-4.167331509007818346e-01,7.959826152607622426e-04,-5.800754618828852208e-08,-3.674529728752981084e-04,6.619461812078952789e-03
-4.082575935567923087e-01,-4.152950998940072580e-01,-4.139831423118932596e-01,-8.569124606406299197e-06,-1.421048743033621371e-05,-1.866091671849595549e-03,7.243102882057428360e-03
-4.087843904961649399e-01,-4.148818738948484852e-01,-4.139325494436577602e-01,1.426572759055595371e-03,-6.358667248439675221e-04,-1.304158347381240883e-03,6.686765234917402267e-03
-4.088607614888622455e-01,-4.062875416085937608e-01,-4.213762608900329942e-01,1.578674625833231555e-03,-1.695233091120800992e-04,-8.199053090830454036e-04,1.431935466825962067e-02
-4.032442229056713012e-01,-4.056155988544530300e-01,-4.264858392929163355e-01,9.802656038909302299e-04,-1.358945486407316192e-03,-3.040783436890457433e-03,2.295307442545890808e-02
-3.475624171342592272e-01,-4.564262184145806422e-01,-4.176497906451639430e-01,-5.467275771525539375e-03,3.074831061901526011e-02,-1.497896358233685027e-02,1.128394752740859985e-01
-4.002107509628019533e-01,-3.700525116499307487e-01,-4.472060138327553225e-01,1.726857897938179759e-02,6.121005269274261418e-03,4.430621165039058847e-03,7.484164088964462280e-02
-3.294384151790322734e-01,-4.618281791145164017e-01,-4.447949409635957307e-01,-8.713192039724117904e-03,1.279575000135332180e-02,-6.285237414696116798e-03,1.280609965324401855e-01
-3.305303690991825971e-01,-4.577542939362290175e-01,-4.366818705032973758e-01,-1.402418552269934886e-02,6.004986550663104876e-03,-1.030817419505408207e-02,1.223357915878295898e-01
-3.572651280744030822e-01,-4.473860851360335622e-01,-4.261498406856993881e-01,-1.736142912936570071e-03,6.603734333129877192e-04,-1.457252058333251971e-02,8.547724783420562744e-02
-3.828670783163127256e-01,-4.340288811789831391e-01,-4.262260152776863320e-01,-1.430060801458355596e-02,1.152954212101577058e-02,-1.809051483350511413e-02,6.537063419818878174e-02
-4.038669080295855252e-01,-4.034557381841213375e-01,-4.344932264284094292e-01,-5.186320501039935575e-03,1.165674687010572719e-05,-3.276794167405595870e-03,3.261348605155944824e-02
-4.040139311484777784e-01,-4.004486637724753995e-01,-4.354264239840470729e-01,-6.923802011073658218e-03,-1.739648034556620908e-03,-8.771124930227725512e-04,3.559008240699768066e-02
-2.870955301180287411e-01,-4.932007535685921651e-01,-4.876740850003821737e-01,-2.816591806234571005e-02,-7.852521726512145042e-03,-1.993698841722406703e-02,2.124340534210205078e-01
-3.838048118312478718e-01,-4.097528391515760093e-01,-4.422924804326369697e-01,-1.396020898592490941e-02,-1.638915696871702391e-03,-4.200798785849008642e-03,5.676379427313804626e-02
-4.348228260220020625e-01,-3.730407097595805355e-01,-4.647512676414762844e-01,-6.303198891849422225e-02,-3.742788875943010157e-02,7.393843271176135136e-03,1.511536538600921631e-01
-3.488969618557973829e-01,-4.038554362002363396e-01,-4.672221341428213215e-01,5.042459015253825810e-02,-2.784863867576934868e-02,-1.929209656490826069e-02,1.469333916902542114e-01
-3.938152449461402305e-01,-3.910655926037504004e-01,-4.428032896804598995e-01,8.040644320197482681e-03,-2.759342684392419170e-03,1.124479636933165694e-04,5.252546817064285278e-02
-3.433942562362040096e-01,-4.371689651764111839e-01,-4.732722666676907330e-01,5.549230937815491371e-02,-5.702856853053527714e-02,-4.371998467467219651e-02,1.954788863658905029e-01
-3.874173093249978495e-01,-4.251092382105097767e-01,-4.242309406624835688e-01,4.338586803793927429e-03,-7.395046453526968322e-03,-1.320520325194329825e-02,4.617369920015335083e-02
-4.239937711348001348e-01,-4.372080590521135179e-01,-3.779050598254459770e-01,4.528768220840332314e-04,-1.325827236122229316e-02,-5.639484463083728645e-03,5.942380055785179138e-02
-3.930928720037771829e-01,-3.897227813534528407e-01,-4.598301162645025419e-01,3.020639300791471901e-02,-2.127678104728897637e-02,-2.699669548782687029e-02,1.047471985220909119e-01
-3.793892343278269519e-01,-4.292423169057948962e-01,-4.259965200189033130e-01,-4.089738072636029537e-02,3.332757460989794335e-02,-3.960057050497192005e-02,1.240509450435638428e-01
-4.021077004591210868e-01,-4.320328844780690902e-01,-3.994537014884906312e-01,-6.717840729482409470e-03,5.480079208687237309e-03,-8.059887262086265838e-03,3.744795173406600952e-02
-4.073963510413030620e-01,-4.224840088758035628e-01,-4.083215462346568292e-01,-6.542614481071909287e-03,3.680843324735210993e-03,-6.219867781941023667e-03,2.235302887856960297e-02
-3.928030449456687001e-01,-4.358210599321162282e-01,-4.023549566254180920e-01,-4.593255418764000987e-03,3.635871546804716678e-03,-9.188673777878506033e-03,4.344113543629646301e-02
-4.370962747850006269e-01,-3.998201838783389528e-01,-4.007665586420349757e-01,-8.480670513636205882e-04,-7.439938050856739066e-03,-1.728870454888519967e-02,4.919389262795448303e-02
-4.094871044953169448e-01,-4.145198790447791048e-01,-4.142611542550823089e-01,-1.016887722369340732e-03,1.910410865711835958e-03,-1.516554828510125342e-03,6.711531896144151688e-03
-3.933513849124280481e-01,-4.212756716610819296e-01,-4.447945596743304586e-01,-7.278981063073480806e-02,3.237330464763956556e-02,-5.022160539473165264e-02,1.691018790006637573e-01
-3.891646468847131390e-01,-4.281284331132074183e-01,-4.204530586350365695e-01,-1.871851259905260925e-02,6.123797772836293493e-03,-1.021687004250049734e-02,5.248647928237915039e-02
-3.692843872731534360e-01,-4.373849971309468065e-01,-4.233239032008292990e-01,-6.069276465606281146e-03,9.320731893736592180e-03,-1.297315125169918454e-02,6.894841045141220093e-02
-3.799652745565934020e-01,-4.359987186671157589e-01,-4.164714063205048888e-01,-5.724750769820152740e-03,4.346944205137489615e-03,-1.087938874201595241e-02,5.419381335377693176e-02
-4.170295721772396269e-01,-4.117193461287770861e-01,-4.088282550198686915e-01,-1.191596745799483430e-03,1.914930812810475410e-03,-2.098835830033250749e-03,8.965778164565563202e-03
-4.169862011645553701e-01,-4.155660944697013859e-01,-4.077590725028620300e-01,-3.839842101241275341e-03,1.823320875723736818e-03,-2.721402904351136881e-03,1.226694136857986450e-02
-4.248855796090946768e-01,-4.083111305087002707e-01,-4.061379392310151548e-01,-2.182838824717512043e-03,2.163574274612315232e-03,-1.695679186222697268e-03,1.877280138432979584e-02
-4.245168562968773540e-01,-4.063146162266854100e-01,-4.110609823765641324e-01,-1.437002407352872511e-03,2.132761688794379551e-03,-1.986432679880634645e-03,1.729548349976539612e-02
-4.239879482632609164e-01,-4.115431270777721307e-01,-4.035857604741241444e-01,-3.350663528103626620e-03,3.845152213980523306e-04,-1.224955147248369975e-03,1.886391267180442810e-02
-4.183179623071653919e-01,-4.223935326473820528e-01,-3.939377368037302318e-01,-9.931636760567122066e-03,4.972580730969122786e-03,-6.034943352552413556e-03,3.449235484004020691e-02
-4.214438733613511956e-01,-4.220694660660757602e-01,-3.914514026155053172e-01,-9.419823515856302898e-03,3.666381796488744557e-03,-4.909574413601199179e-03,3.602139279246330261e-02
-4.253508035865311565e-01,-4.188254697814406957e-01,-3.938688191075014888e-01,-8.974855841010835958e-03,5.277794117876342950e-03,-2.514587799842335145e-03,3.424096480011940002e-02
-3.987977215877285264e-01,-3.672599794053668654e-01,-4.523838685727903930e-01,1.375326831763619417e-02,-1.516991812350783082e-03,2.214137502587566319e-03,7.839106023311614990e-02
-4.205228547063186162e-01,-4.218309837374847882e-01,-3.922324013645911989e-01,-9.373332574563958755e-03,3.104795654287164849e-03,-5.310142383222915541e-03,3.487346693873405457e-02
-4.245561403376830190e-01,-4.048768991187899902e-01,-4.116276763207248890e-01,-2.822476434807329009e-03,2.295903514124458030e-03,-2.542235370575114759e-03,1.894985139369964600e-02
-4.781628094671962481e-01,-4.841936525741370456e-01,-2.655288416385740424e-01,-3.012459177564656698e-02,1.189845019563504913e-01,-7.868070170171433120e-02,3.321118950843811035e-01
-4.037761246606464960e-01,-4.881349428878338781e-01,-4.050603092020421681e-01,-1.236549902590203392e-01,4.612021516837819940e-02,-1.998638178167837787e-01,4.232012033462524414e-01
-3.825175219334067123e-01,-5.336999587499537956e-01,-2.648557677410153244e-01,-2.162841194859484173e-02,1.464073570393066570e-01,3.297529090142883174e-03,3.467421829700469971e-01
-3.369544145589931095e-01,-5.081267612432719405e-01,-3.211470698092602771e-01,2.196235907532875092e-02,1.555973446101044377e-01,3.165831893685688153e-02,3.306675255298614502e-01
-4.400073317617454460e-01,-4.106396372007860562e-01,-3.903628518483304166e-01,-8.046198891127837385e-04,-5.605248217664506385e-03,-9.112652706517707785e-03,4.705753922462463379e-02
-4.278567267160262588e-01,-3.839093326125649352e-01,-4.276052397865270360e-01,-9.232074979215243449e-03,2.556391132200005589e-03,-8.886529806320393049e-03,4.932134225964546204e-02
-4.210123208150641783e-01,-4.105083611803379551e-01,-4.072032201759763215e-01,-2.689079639586084650e-03,2.564441489444968698e-03,-1.565433685416118582e-03,1.430903468281030655e-02
-4.240298013683508338e-01,-4.172525048010929383e-01,-3.753273358624793499e-01,1.038595827514289874e-02,6.017116604496232889e-03,4.387002865177110598e-03,5.077154561877250671e-02
-4.823775288711278919e-01,-2.913725765482347296e-01,-4.235275078481656186e-01,6.186577175053281641e-02,1.516359931147993542e-02,7.992645023491655454e-02,2.450351119041442871e-01
-4.430084439919945716e-01,-3.920379792714749345e-01,-3.701709364488354193e-01,1.946619786425448501e-02,1.915488240754237986e-02,3.660721026242817061e-02,1.022180020809173584e-01
-4.281979696138528135e-01,-4.038586304920368519e-01,-4.062884392753967622e-01,-1.618739286331422750e-02,-2.051381075887313832e-02,2.003246777333550846e-02,6.157606095075607300e-02
-5.667115612755693199e-01,-5.177019949728680626e-01,-1.482897836413928916e-01,-9.486644251485702728e-03,-2.969687758888417059e-02,5.606363594875552955e-03,3.999775648117065430e-01
-3.642706277838449469e-01,-4.142944177326179922e-01,-4.397544364591279287e-01,5.643347373934479681e-03,5.042909367415360222e-03,9.798227264018985125e-03,6.988597661256790161e-02
-3.898387226857210619e-01,-3.645893145592018492e-01,-4.554286327325604011e-01,3.914523907404397762e-02,1.793490587858758215e-02,2.078944758731576109e-02,1.159927174448966980e-01
-3.362386317493746279e-01,-4.352180837054991369e-01,-4.527761239069535426e-01,7.361569550789766325e-02,5.640142238555479609e-02,3.260519847456467418e-02,2.020731866359710693e-01
-3.942110641735982468e-01,-3.882002462783546992e-01,-4.431930972026935645e-01,3.570694459724970890e-03,-2.347655521269471739e-03,-2.639829001234046939e-03,5.296679958701133728e-02
-3.888704874722272997e-01,-3.542039463199268545e-01,-4.740444984425537522e-01,4.350594294967246450e-02,-2.209483432458653890e-03,4.078894411691494706e-03,1.309653669595718384e-01
-3.496156216361127056e-01,-4.208731895773019649e-01,-4.595183300504240287e-01,1.396326620289213734e-02,-4.418119163612865309e-03,-5.899880531431252011e-03,1.003630906343460083e-01
-3.546902842516223009e-01,-3.898320798851243607e-01,-4.733328513685000072e-01,6.641559055588480698e-02,1.226281851881860611e-02,1.664603410322264840e-03,1.575887948274612427e-01
-2.783612131973442483e-01,-4.056967242349494573e-01,-4.979956413175515850e-01,1.334862715645543929e-01,6.409996974102373513e-02,4.733038570993730598e-02,3.301348388195037842e-01
-4.206595776036695655e-01,-3.642060437381089422e-01,-4.379987900813045454e-01,3.018302782750297356e-02,1.339350048277815688e-02,2.405720417225916744e-02,9.733426570892333984e-02
-3.979041832091798625e-01,-4.216607331243731327e-01,-4.236979372697706747e-01,-2.114590744948782741e-02,-1.803569205682092197e-02,7.797605414720535678e-03,5.582683533430099487e-02
-4.150070365738489642e-01,-4.059903830480050546e-01,-4.300945996674561123e-01,-3.937993255813036081e-02,-3.159182214182601478e-02,1.098958562148543740e-02,9.194429963827133179e-02
-3.554007247557657290e-01,-3.875160003391823205e-01,-4.804447926611081221e-01,-1.151918040414310340e-01,-6.415400388511098562e-02,1.748924120651679237e-02,2.563666701316833496e-01
-4.448149180837059347e-01,-3.878007729675884696e-01,-3.927387923646505907e-01,-1.680061136844688847e-03,-1.049383204377888181e-03,7.162013050353003944e-03,5.620600283145904541e-02
-4.433048088369050954e-01,-3.856241360106871241e-01,-3.995541002193631619e-01,-3.121778291217773386e-03,-6.281612036533286599e-03,8.886316958065553981e-03,5.569673702120780945e-02
-4.460444668660251133e-01,-3.945678367169416778e-01,-3.891088125436867329e-01,-1.516777002233197754e-03,-4.024057817142324446e-03,1.293947695961284762e-02,5.931633710861206055e-02
-4.459318945434673220e-01,-3.899977879801124203e-01,-3.870735224150448350e-01,1.433101894775955145e-03,2.752388202170682682e-03,1.021017404688046547e-02,6.035207584500312805e-02
-3.043256950386776793e-01,-4.638719521449503613e-01,-4.563570948693951856e-01,-5.894187704635046876e-02,-1.034517934065838779e-01,3.288508843619148553e-02,2.647377252578735352e-01
-3.178591977769096300e-01,-4.909414389089152286e-01,-4.413070754142639496e-01,-3.644386377015058215e-02,-4.853178200686884824e-02,-1.373712227564055080e-03,1.867788434028625488e-01
-4.153682671272874161e-01,-4.427541330419242915e-01,-3.774222815487200400e-01,-1.311945739041743206e-02,-4.175211616024623179e-02,9.121849707634778481e-03,9.604566544294357300e-02
-3.361545250692254960e-01,-4.504032877905422838e-01,-4.515344675049131618e-01,-1.469818386348078695e-02,-1.403683858793987327e-02,-6.338034911011525101e-03,1.205944269895553589e-01
-3.604591161459455573e-01,-4.519860323579746320e-01,-4.274776256010868747e-01,-1.105944509736346039e-02,-1.113100493541523822e-02,-7.192649182975202442e-03,8.734124898910522461e-02
-3.225490140955226681e-01,-4.754265710484366636e-01,-4.625483945255115525e-01,7.054363070834732304e-03,-5.357433067248211500e-02,-3.116032631182185167e-02,1.823223233222961426e-01
-4.248108412659720723e-01,-4.298749256209817293e-01,-3.841076479489484718e-01,-1.161859278662801150e-02,2.947925721502671955e-03,-3.372326466774771755e-03,4.851477220654487610e-02
-4.323914921499936725e-01,-4.366741487964392321e-01,-3.661349429422572355e-01,-1.386059807566545655e-02,5.210508914164200048e-03,-9.377083936915274129e-03,7.492403686046600342e-02
-4.172394609240275831e-01,-4.395937207303792227e-01,-4.106308648531871164e-01,-6.211601761792723275e-02,3.248470542956941737e-02,-5.986927901789411421e-02,1.618180274963378906e-01
-4.275963527678378617e-01,-4.069545740413228474e-01,-4.018334300844612073e-01,-7.311534712607294095e-03,3.535674115372151871e-03,-1.021648937951576824e-02,3.269598260521888733e-02
-4.296298962734633742e-01,-4.354251511675534259e-01,-3.697646930255106268e-01,-1.886689362159335581e-02,2.547803057489491166e-02,-2.355120272399430226e-02,9.297100454568862915e-02
-4.510081363317831049e-01,-4.564384828154411933e-01,-3.233069187487376261e-01,-8.539201324906009818e-03,1.257703850998814939e-02,2.631326078211229397e-03,1.332089453935623169e-01
-4.307988011952083585e-01,-4.564755492195011199e-01,-3.645089034989147381e-01,-3.739340523071713746e-02,-4.158745354613463396e-02,1.697830641573147212e-02,1.303989738225936890e-01
-3.935960317130415276e-01,-4.374029852829754428e-01,-3.884277871514549840e-01,5.765233233613629993e-03,9.789539331351888515e-03,6.092180827349572524e-03,5.167908594012260437e-02
-4.125454439502158621e-01,-4.639538299716316483e-01,-3.178883219795853865e-01,1.706653956920945597e-02,6.789327934188575664e-02,2.542484018447245184e-02,1.819629669189453125e-01
-3.910246263500131714e-01,-4.323795080349375763e-01,-3.937224881205132476e-01,3.350028968571743329e-03,4.628231010619604166e-03,5.669904256353892891e-03,4.243003576993942261e-02
-3.535557559903398372e-01,-4.944253754501894416e-01,-3.007442776310295662e-01,7.516282956128778059e-02,1.737334690651808622e-01,8.145345249782592889e-02,3.968313634395599365e-01
-4.501110223768201579e-01,-4.742908803461101663e-01,-2.776306556855181462e-01,5.033566314385826135e-02,1.705793204529904017e-01,7.699618503324594243e-02,3.836442232131958008e-01
-4.221749710472684769e-01,-4.316353089474830318e-01,-2.767911676104329866e-01,9.554819393479691003e-02,1.512809400619862243e-01,1.337343230018795959e-01,4.150928556919097900e-01
-3.609951513369358267e-01,-2.708652347267995197e-01,-5.375445259863800285e-01,1.698965967208282690e-01,-1.205111121793796952e-02,-4.404587765593433006e-03,3.772186636924743652e-01
-4.417055595571371396e-01,-2.626789659276517197e-01,-5.034901691155144743e-01,9.138953872319126315e-02,-3.752373704239811425e-02,-4.644557338698519083e-02,2.875426113605499268e-01
-4.199177431796506377e-01,-3.598699940943098641e-01,-4.511751942459689135e-01,3.093458652964693051e-02,-9.824374632087982950e-03,-6.007370740226370374e-03,9.863248467445373535e-02
-4.324376249010135065e-01,-3.993751815419245843e-01,-4.094425927511219365e-01,1.327884656171518800e-04,-4.764351972728063898e-03,-3.582675330762418332e-03,3.111722134053707123e-02
-4.368650277560415240e-01,-3.878399765302487645e-01,-4.255821988509866927e-01,-1.747872178806803359e-02,1.233214882717702807e-03,-2.503683294006455590e-02,6.913194060325622559e-02
-4.005601274855075666e-01,-3.832531818382934885e-01,-4.462279013483210210e-01,3.611235845775936665e-03,-3.559663311097895078e-03,-2.016501115511052517e-03,5.713826417922973633e-02
-4.233473320018071862e-01,-3.544522422245308113e-01,-4.516737849907738744e-01,1.225509395667016659e-02,-9.724936827728625222e-03,-4.786092711091273141e-03,9.112343192100524902e-02
-3.907191498068993685e-01,-3.141192128523929150e-01,-5.243480311480350764e-01,1.647629070596828837e-01,-9.183738897302261284e-02,-2.324108172085010207e-02,3.772577345371246338e-01
-4.189956451144665195e-01,-3.121606428404517519e-01,-4.646289806281349577e-01,1.071789995097806591e-01,-8.230663673285988635e-02,-1.008914908428678592e-01,3.220152258872985840e-01
-3.190647829722827455e-01,-4.619097512315232246e-01,-4.262242816168618220e-01,-1.342000891859854161e-01,8.721203536276554702e-02,-7.156092559154844657e-02,3.298338353633880615e-01
-2.968639140966040646e-01,-5.764375862906201409e-01,-4.229089249952379115e-01,-8.476300190168976900e-02,1.138063027210145933e-01,-1.389070323147340580e-01,4.208388328552246094e-01
-3.676910376992499896e-01,-4.471430044840957740e-01,-4.012279382011858520e-01,-1.100758759027128802e-01,8.391618385205590336e-02,-9.225893027919319922e-02,2.962832450866699219e-01
-3.705556889985119895e-01,-4.355676808803251032e-01,-4.685397028835072697e-01,-6.456966291392449153e-02,-1.401818885088870412e-02,-2.991028802067728296e-02,1.524415314197540283e-01
-2.477225931651659274e-01,-4.389310721466516130e-01,-5.908736966102439148e-01,-9.122661606408806467e-02,1.668035489094508994e-02,-1.150169658133203127e-01,3.926681280136108398e-01
-3.371297106209943939e-01,-4.573935835135746197e-01,-4.443108680449168180e-01,-2.912345783646751868e-02,3.559978978509500264e-02,-7.023272817035017442e-03,1.398417651653289795e-01
-3.456563412798456802e-01,-4.998527073257452713e-01,-3.894347302390311905e-01,-5.640181803775468766e-02,7.683570670047173978e-02,-5.849170756941702437e-02,2.376154661178588867e-01
-3.213913639813296141e-01,-4.925007077518613885e-01,-4.335477675393937247e-01,-1.470316401858586253e-01,1.123575029048471674e-01,-5.506405251789559668e-02,3.667289912700653076e-01
-4.428527013086945296e-01,-3.255848442150003352e-01,-4.804701324663245288e-01,-1.206817314567093791e-01,1.508221870810277747e-02,-8.017380123721364049e-02,2.885070443153381348e-01
-4.122681179218105063e-01,-3.471679428643258958e-01,-4.972968339733531140e-01,7.390354130477989891e-02,-3.619021692106010046e-02,-2.613526670203849406e-02,1.984108090400695801e-01
-4.205740177700288962e-01,-3.693540414962939167e-01,-4.373903645087519609e-01,1.272969762484810544e-02,-1.449478722650417682e-02,-9.589855938188117032e-03,7.183270156383514404e-02
-4.114774183567713739e-01,-3.952975018061585244e-01,-4.270447813197793541e-01,4.547819041704277004e-03,-7.516920449909926007e-03,-3.527382739878120489e-03,3.201403841376304626e-02
-4.108477820287751436e-01,-4.120190330981877147e-01,-4.153961462612691391e-01,1.757081253448560497e-03,-3.061591050258753981e-03,-3.251312665473943871e-03,9.264302439987659454e-03
-3.983201446884779284e-01,-3.715678362918120592e-01,-4.498869691688115457e-01,1.444859468868551523e-02,-1.644737722751549213e-03,-7.458865990216974459e-05,7.340826094150543213e-02
-3.916755326166554418e-01,-3.980126200981229934e-01,-4.401872869556806567e-01,2.284060817789969940e-03,-8.938173855486383551e-04,-4.542055551047498134e-03,4.654099419713020325e-02
-3.956894190145084922e-01,-3.961330536605400243e-01,-4.387188576679568741e-01,3.687314343577386723e-03,-4.443296385839864623e-03,-3.156381809851489893e-03,4.430063068866729736e-02
-4.012755444913955749e-01,-3.991137102646986068e-01,-4.312234014333790055e-01,1.126567877089935379e-03,-8.694181063229280580e-04,-3.932357117272662107e-03,3.191794827580451965e-02
-3.672539386147939955e-01,-4.558726048023856725e-01,-4.449721179704836382e-01,-8.985564887057784222e-02,2.937816036275728640e-02,-6.440166732859542442e-02,2.150817662477493286e-01
-3.987428805819458466e-01,-4.390176271066923985e-01,-3.921799953963732155e-01,-3.643974849216240208e-02,3.661027947335227656e-02,-3.435592392185068955e-02,1.160815954208374023e-01
-3.725280221255951041e-01,-4.228590198589765037e-01,-4.478293556336246928e-01,-3.476269686591525188e-02,5.148704101091236551e-03,-2.473666487461216937e-02,9.977013617753982544e-02
-3.874669920395157341e-01,-4.404559610375374246e-01,-4.195727111164480050e-01,-1.556407228512502426e-02,-4.006469261061294806e-02,-2.179313243810849978e-03,8.771469444036483765e-02
-3.578736346653992317e-01,-4.360961548319880476e-01,-4.398025157264129348e-01,-1.124946994776128417e-02,6.581270588061985567e-03,-1.456014561398879907e-02,8.699428290128707886e-02
-3.694025829535818595e-01,-4.384263449985654204e-01,-4.188059775798303463e-01,-1.533141093986316664e-02,5.434401813803364269e-03,-1.134292600763879902e-02,7.053160667419433594e-02
-4.030476269075787821e-01,-4.040624412382243791e-01,-4.391891877283251033e-01,-1.755530636773141098e-02,-3.626876698176325145e-03,-1.164193691069182086e-02,5.139259248971939087e-02
-3.986962516004132207e-01,-4.065504060620699911e-01,-4.344846256141418617e-01,-1.096023317252855026e-02,2.278246294280499538e-03,-8.824301696706752726e-03,4.087743163108825684e-02
-4.232422008588478946e-01,-3.732408027584717680e-01,-4.432422041562837922e-01,-3.485978075421622413e-02,3.229181707142913908e-03,-2.811762914494802049e-02,9.974400699138641357e-02
-3.396569973531872733e-01,-4.480247879216420204e-01,-3.786695839866016100e-01,1.029635704612561903e-01,1.473339388612618650e-01,8.500002368009774989e-02,3.572663068771362305e-01
-3.904358080522629115e-01,-4.517380681937532838e-01,-3.601776396012542070e-01,1.678673561717318116e-02,4.045548987292186399e-02,1.643430456754764804e-02,1.144290193915367126e-01
-2.817339927684413547e-01,-4.777549941835836367e-01,-4.390456322435677960e-01,1.092921618934853401e-01,1.739076388887879909e-01,1.897412997908193288e-02,3.999759852886199951e-01
-3.004022692621888257e-01,-4.247130781204903061e-01,-4.359308749819037487e-01,1.167595802735580390e-01,1.224534318025245344e-01,8.297302062918364418e-02,3.514398932456970215e-01
-3.952311558772907962e-01,-4.242956750157153012e-01,-3.957979183690569225e-01,8.916797854345671209e-03,1.168348517455536882e-02,1.175424796429212944e-02,4.348702356219291687e-02
-3.694404634244208285e-01,-4.507349349435806896e-01,-3.864552737063391974e-01,1.937873060550456689e-02,4.276827981990050098e-02,1.738053594233876509e-02,1.141723096370697021e-01
-4.218344494500363417e-01,-4.176201206917817821e-01,-4.022717756606726258e-01,-9.988007478167604605e-03,-9.929713242205200074e-03,7.494375301598143330e-03,3.288754820823669434e-02
-3.619716429893736764e-01,-4.386362390868575045e-01,-4.160271255726864514e-01,8.529242985500239821e-03,6.902808217464521078e-03,9.807422498431288965e-03,7.283584773540496826e-02
-4.263988855473425099e-01,-4.396934774216574859e-01,-3.518189368736569511e-01,9.781636808914367584e-03,3.573734791090097535e-02,2.372021377486243157e-02,1.119682341814041138e-01
-3.840228999817051903e-01,-4.465572545755299716e-01,-3.966483227928988553e-01,-1.117530751431895265e-03,2.122720212849705038e-02,-4.475036814563572462e-04,6.809224188327789307e-02
-3.439707315939249943e-01,-4.546140243885339327e-01,-4.236471136998626319e-01,1.452212207058387050e-02,4.179340889255434011e-02,2.907750723001054170e-03,1.251907199621200562e-01
-4.003638849509266739e-01,-4.514929670697847008e-01,-3.784752751700456441e-01,-1.079679393221237745e-03,1.934950318725227672e-02,-2.275856551525781788e-03,7.317570596933364868e-02
-4.397127888161416198e-01,-4.021608717354278051e-01,-3.832978927108678935e-01,-1.373934216194529732e-02,-1.200172877495605216e-02,2.551257231295318492e-02,7.365735620260238647e-02
-4.309076121111334867e-01,-4.204229218113010313e-01,-3.834483589434297679e-01,-1.162998395447549863e-02,-3.054158821772057913e-03,6.567955056710733652e-03,4.927353560924530029e-02
-2.235001511733121504e-01,-4.954193543461137272e-01,-4.855110338340321019e-01,1.898312332580307654e-02,-6.050260025019999627e-02,-3.267687379150808341e-02,2.942958772182464600e-01
-2.383073165497687773e-01,-4.559809221767116005e-01,-5.129324132672280490e-01,8.589867462716781199e-02,-2.425692211260844361e-02,-1.991783045817926631e-02,2.968387007713317871e-01
-3.997452912520210733e-01,-4.393951178567859772e-01,-3.962612996213209504e-01,-1.409347133885659967e-03,-1.674186535534658016e-02,-4.310572303755102162e-03,5.123434960842132568e-02
-3.528114694585051669e-01,-4.301437746899708370e-01,-4.565561520181140587e-01,3.927495089575006731e-02,-4.440220702223464377e-02,-1.335560605178022671e-02,1.407045871019363403e-01
-3.407989640500346806e-01,-3.379462928528003118e-01,-5.098751866712210035e-01,1.445122564843974999e-01,-5.650781326068016197e-02,-6.055317121676235398e-02,3.351239562034606934e-01
-3.653113661189642536e-01,-4.201715200394925409e-01,-4.419787984021664728e-01,1.095316333761467593e-02,-1.362328320605114482e-02,-1.417961643856200001e-02,7.874913513660430908e-02
-3.592801564487045907e-01,-4.338831469060108748e-01,-4.399822337162223040e-01,7.272298710276705463e-03,-1.314845062313820152e-02,-1.594804873233897705e-02,8.659180253744125366e-02
-4.069224424443477206e-01,-4.200442133654477828e-01,-4.123586579289508225e-01,1.641763369881897973e-03,-5.424956737433414555e-03,-6.221902478975109216e-03,1.851792074739933014e-02
-3.636490525727846257e-01,-3.530878039589127049e-01,-4.830523521465471259e-01,1.216123637185822642e-01,-8.702503196223841664e-02,-9.354100652018874917e-02,3.301034271717071533e-01
-4.170925355345934116e-01,-4.062443131011626574e-01,-4.138931969133522459e-01,5.191300372435042262e-03,-9.089011838183726558e-03,-8.093681658038668833e-03,2.486794814467430115e-02
-4.224543776474517509e-01,-4.229603695234208649e-01,-3.959413680963527193e-01,-1.096339270293023721e-02,-1.493555906731518050e-02,4.316699843146342905e-03,4.245366156101226807e-02
-4.453014978956767456e-01,-4.430793650939274242e-01,-3.545668204262175660e-01,-1.433718676469731071e-02,-2.051015591386297701e-02,3.233505374604535992e-03,9.973026812076568604e-02
-3.776024218020870293e-01,-4.397498136205807984e-01,-4.248280833470590712e-01,-3.817603124415004049e-03,-6.141166671150263823e-03,-2.160040414403927630e-03,5.769290402531623840e-02
-4.406533031200696726e-01,-4.234753016123804503e-01,-3.643981295807818266e-01,-1.560642141951923065e-02,-1.195946560785304293e-02,2.341645489878367917e-02,8.720540255308151245e-02
-4.373344980968669193e-01,-4.336568960825119001e-01,-3.752799207721828623e-01,-2.265359006938805903e-02,-2.647531108507467090e-02,1.347017111692571170e-02,8.844660222530364990e-02
-4.560230856377189834e-01,-3.578523257936813140e-01,-4.226522334956249738e-01,-2.435314852881372699e-02,-1.854672931481521347e-02,3.146249960855525968e-02,1.151343062520027161e-01
-4.256994905285160780e-01,-3.814184972504657822e-01,-4.244113092477829752e-01,-2.062219170556535072e-02,-1.810921198846779032e-02,1.528069495155099690e-02,6.975369155406951904e-02
-4.306367087201580235e-01,-4.255725557395813041e-01,-3.802816040396808650e-01,-1.174680781686813537e-02,-3.030637018475882370e-03,6.320365613049634158e-03,5.355029553174972534e-02
-2.616947871924258373e-01,-4.514200095836565785e-01,-4.614229719892614656e-01,1.195790620345349026e-01,1.265565523564109451e-01,5.295599010896458181e-02,3.706125915050506592e-01
-2.316858463897829290e-01,-4.529302624794767640e-01,-5.050453791129584369e-01,1.210732221210610721e-01,1.399303318550728648e-01,7.127145338732311652e-02,4.256193041801452637e-01
-4.497854829498298401e-01,-4.217715906943654836e-01,-3.125833111782965190e-01,4.618943892876409274e-02,8.511645532075032272e-02,8.449971693847933840e-02,2.555798888206481934e-01
-4.541249155381232860e-01,-4.457930578932180476e-01,-3.217342519602355844e-01,8.262193303622113270e-04,7.493209645192541561e-03,1.661135972511500192e-02,1.322571486234664917e-01
-3.893642877977928629e-01,-4.517058381809253564e-01,-3.642412564634122107e-01,6.969282064021029011e-02,8.427839041855948732e-02,7.587594699649696794e-02,2.433826923370361328e-01
-4.315932252629490207e-01,-4.109883983902262727e-01,-3.488940912275260708e-01,4.848620367692512562e-02,6.244160545618219343e-02,8.092002234406144023e-02,2.096507847309112549e-01
-3.787854938490516910e-01,-4.860236588612696917e-01,-3.112924842424283911e-01,6.389140465629754295e-02,1.398238148008338344e-01,7.301278752149095719e-02,3.319400548934936523e-01
-4.387564794135309643e-01,-4.256342206055078736e-01,-3.335819587354802440e-01,1.288178656775289810e-01,1.568245669268847065e-01,1.078308917533761513e-01,4.102440774440765381e-01
-3.610055008137095789e-01,-5.484742059940480585e-01,-2.870749548695378239e-01,5.459412197162567121e-02,1.591145742202967062e-01,8.799939341028212292e-02,4.032312929630279541e-01
-4.001060819522503365e-01,-4.411883336740494710e-01,-3.796042812175334236e-01,7.776916302499679856e-03,1.846864196073050995e-02,6.847931707672770887e-03,6.554182618856430054e-02
-4.381587657465829677e-01,-4.341959065557047803e-01,-3.750362083050978734e-01,-4.012424099369199179e-03,-1.607670918901147120e-02,-5.980562610396836405e-03,6.841781735420227051e-02
-4.173795869449762885e-01,-4.396900759925019275e-01,-3.788004905780018028e-01,-7.433527192609065519e-03,-1.123162536547504288e-02,7.390365626507048799e-04,5.824673175811767578e-02
-4.375375626341476143e-01,-4.423045504345508583e-01,-3.672513525088538788e-01,-5.496301803725811043e-03,-1.350285197067065991e-02,-8.140125243546014744e-03,7.832191884517669678e-02
-4.421766783668773515e-01,-4.512216044483219335e-01,-3.474409687533045465e-01,-6.358120578375727611e-03,-5.070990749698009448e-03,-1.126889540062064009e-02,1.024350002408027649e-01
-5.672722406827348518e-01,-5.603893643271787850e-01,-1.847360285606282071e-01,-1.201759051609634921e-01,-8.109051268732649087e-02,-1.382205171246580488e-01,5.139230489730834961e-01
-4.383724767356383945e-01,-4.415048390357010355e-01,-3.601887680824683025e-01,-8.275302174834325841e-03,-1.637781680795659736e-02,8.376431774546479192e-03,8.710934221744537354e-02
-4.529536849086192030e-01,-2.814408577847595239e-01,-5.079394324982845488e-01,2.390929543220882136e-02,-1.575009452620233785e-02,-2.259357688936705286e-02,2.141527831554412842e-01
-3.955690280013964277e-01,-4.207349936866869311e-01,-4.249211181021043671e-01,-3.075581239689666180e-02,1.395339791635976517e-02,-1.674402190220794159e-02,7.084586471319198608e-02
-4.339540643557003863e-01,-4.129627830685315693e-01,-3.911340024767504531e-01,1.337464939614893284e-03,-7.245440904351128399e-03,-9.851635626263432685e-03,4.277106001973152161e-02
-4.088558784243634947e-01,-3.624053326793498231e-01,-4.550579420042429324e-01,-4.688474681105345154e-02,-2.063804416380807943e-02,5.819073949743546088e-03,1.200512573122978210e-01
-4.361099169588464886e-01,-3.826665340146487848e-01,-4.239288246618772016e-01,-5.686289054363322625e-03,-2.795889579701328468e-04,-6.541515409078274210e-03,5.078568682074546814e-02
-4.270466897973984044e-01,-4.712600776806771807e-01,-3.642309585872941513e-01,-4.008271794579919972e-02,3.948293083180900304e-02,-6.588763783906120830e-02,1.766297221183776855e-01
-4.377685431920680936e-01,-3.879405697620549320e-01,-4.126452261433967705e-01,-4.481008527335317640e-03,2.618570991230933457e-03,-8.847179215676397035e-03,4.666680470108985901e-02
-3.704257525191428924e-01,-4.023877774673637608e-01,-4.730570360000923014e-01,-4.004918787464484958e-02,-5.449953141985209616e-03,-1.387869066227276522e-02,1.172741279006004333e-01
-4.267358970041728039e-01,-3.914807500583089572e-01,-4.285758281840219563e-01,-2.265244968445517815e-02,8.678097948139616366e-03,-2.288249618372893007e-02,6.817134469747543335e-02
-4.669117644281953750e-01,-4.291254151705026221e-01,-3.618220866771794109e-01,-2.271768806764262738e-02,3.512109455691123962e-04,-4.706163715859137259e-02,1.292042434215545654e-01
-4.704040105394349802e-01,-4.140108090307675903e-01,-3.755316778511546549e-01,-1.514103488880384416e-02,-3.165665875780834804e-02,-8.454886973278728790e-02,1.788030117750167847e-01
-4.297572283984523178e-01,-4.053384963318508727e-01,-4.050305385686338577e-01,-2.248131850448082617e-03,7.945456854659283929e-04,-3.449806780587886135e-03,2.562516182661056519e-02
-4.263698819043268973e-01,-4.074319495283881265e-01,-4.052082496668787948e-01,-2.334624800272798537e-03,1.750290671491439975e-03,-3.549710310081991525e-03,2.165746316313743591e-02
-4.299749080335518725e-01,-4.562198322557806107e-01,-3.678832588346165333e-01,-4.504728580388447229e-02,3.649796713563189382e-02,-6.077298598383328032e-02,1.653417795896530151e-01
-5.289173717715639489e-01,-5.823319925128528363e-01,-1.814285635603870572e-01,-9.828584607584403554e-02,-4.138713264914588991e-02,-7.615650617004920964e-02,4.400920569896697998e-01
-5.100121542589797219e-01,-5.029864348662491658e-01,-2.119932286314221981e-01,-1.814414935889061692e-02,2.817704880952397878e-02,3.151115463063618866e-02,3.051543533802032471e-01
-4.226332482739493246e-01,-4.068109554924486115e-01,-4.094114998046578524e-01,1.422765052767435267e-03,-2.699316558865779390e-03,-2.121094169416451805e-03,1.604337990283966064e-02
-4.674226106612968668e-01,-4.554685992298719288e-01,-3.164708982133525028e-01,-1.087597408121369728e-02,-7.652542479229965632e-03,9.115487996999778767e-04,1.471661478281021118e-01
-4.100853928574970664e-01,-4.147332628004954391e-01,-4.122595358898307749e-01,2.537232786581825657e-03,-2.158009840752223279e-03,-2.032867499619677928e-03,7.868022657930850983e-03
-4.363209528313866659e-01,-4.378844527544533127e-01,-3.676967613566257120e-01,-1.763978846276350460e-03,-6.734353949268363781e-03,-5.604569139939502911e-03,7.112412154674530029e-02
-3.768825047900307701e-01,-4.078224647447659112e-01,-4.491200369393783531e-01,-3.846845933082052721e-02,1.049474010645086918e-03,-1.708782807852541816e-02,9.622509032487869263e-02
-4.228714016174752732e-01,-4.870175529636743272e-01,-3.270841593657626278e-01,-1.249615001281503650e-02,8.725786923101480630e-02,-8.139036573050607501e-03,2.072276771068572998e-01
-4.380336494650474699e-01,-4.606262566736805120e-01,-3.751498921763434247e-01,-4.588573578978753092e-02,3.280305441356955176e-02,-6.554319852160811477e-02,1.682791113853454590e-01
-4.209826154801284415e-01,-4.855738607517413041e-01,-3.420305445031255331e-01,-1.329771565586926330e-01,1.278377717172792805e-01,-8.398995434213514522e-02,3.724839091300964355e-01
-4.237431509208769986e-01,-4.626103119252220619e-01,-3.093263630082744298e-01,-8.577932142826216744e-02,9.849979443610305807e-02,-1.198641055405159639e-01,3.366482257843017578e-01
-4.308404079563490918e-01,-5.326138504733507473e-01,-2.902910526508939437e-01,-3.554327470109024112e-02,1.023473256175101986e-01,-9.642816147150651274e-02,3.279119133949279785e-01
-2.841895369605702548e-01,-4.905725054776005067e-01,-4.334853644753599022e-01,-9.884246591311368624e-02,9.905720339295841226e-02,-7.261781164528192944e-02,3.296021521091461182e-01
-4.071400480192013949e-01,-5.462227233015179984e-01,-2.433529137538934239e-01,3.870469830529663091e-02,1.796447199420893870e-01,1.372894446581540175e-02,4.133115708827972412e-01
-4.554448616280097339e-01,-5.625799853516220139e-01,-2.344704112620498992e-01,-9.891934589312448289e-02,1.429234979135618200e-01,-2.461004867994006501e-02,4.200419187545776367e-01
-1.638804129473730720e-01,-5.214237561434056367e-01,-5.517045691682074260e-01,-1.185301324889295044e-02,-1.043334261640428001e-02,-5.834792235077521571e-04,3.746063709259033203e-01
-3.501315743055207763e-01,-4.573857891483940619e-01,-4.059240025045886546e-01,-5.286147816431813196e-02,6.980758658538495365e-02,-4.490979877503420425e-02,1.941269338130950928e-01
-2.600214149981174838e-01,-5.480810533085185288e-01,-5.365799828744781674e-01,-1.277285866948076332e-01,-1.235494695518497832e-01,-5.401278188725444629e-02,4.281202852725982666e-01
-4.033129375505281056e-01,-4.080784408943978203e-01,-4.290658014698788825e-01,-1.087538627589358826e-03,1.640029885856380534e-04,-2.755109883864666730e-03,2.428158745169639587e-02
-3.150243413014338634e-01,-4.766841451353708292e-01,-4.660120503479109333e-01,7.624725467125512482e-03,-2.420526113738274976e-02,-2.270792522555585211e-02,1.673367321491241455e-01
-3.154621870302261044e-01,-4.577065791674052031e-01,-4.708929465855759555e-01,-6.934836305420818622e-03,-2.676916433035486653e-02,-2.000080087590554861e-02,1.605527102947235107e-01
-3.255300923634383836e-01,-4.764069704202944511e-01,-4.361285303581965977e-01,-4.627733243793465817e-02,-3.872217325576731567e-02,-1.506085915669090787e-02,1.729525476694107056e-01
-3.645590617629267949e-01,-4.501804813608804023e-01,-4.342039909388821783e-01,1.850268789794212200e-03,-5.301669126160307721e-02,7.922983184184621526e-05,1.210823878645896912e-01
-4.627143886917466364e-01,-4.118289498348533528e-01,-4.161776421913943036e-01,5.832866059301021477e-02,-1.992542305839669070e-01,-7.818872783835571771e-02,3.873510360717773438e-01
-4.269860621097172904e-01,-4.117167414770837031e-01,-4.800487064153678984e-01,1.306065825891127193e-02,-1.695529903792336868e-01,-1.922871159610553271e-01,4.489303231239318848e-01
-4.371824483381522852e-01,-3.000635901314463450e-01,-4.798114685623310893e-01,7.963337615169943651e-02,-5.901365121713638556e-02,-9.163338275007608391e-02,2.848268747329711914e-01
-4.526959579055131466e-01,-3.749444129737031783e-01,-4.410781855744764224e-01,1.966842969386570564e-02,-5.032700282055401625e-02,-6.363050429210237446e-02,1.618099510669708252e-01
-5.604043367678788190e-01,-3.042400978873609496e-01,-5.039130421327155940e-01,-2.834590079130961532e-02,-1.095655356804570574e-01,-1.923622138121229008e-01,4.514136612415313721e-01
-4.984418111840970833e-01,-4.471967867260817076e-01,-2.906033991115745119e-01,-2.740925318794695809e-02,-6.100553795740922686e-03,3.461310872753965706e-02,2.028098255395889282e-01
-4.105529232356824876e-01,-4.158101872691731260e-01,-4.110218144633892012e-01,-4.299367198454768580e-04,7.495138247130442126e-04,-3.099147119916844154e-04,5.284088198095560074e-03
-4.087523524379296225e-01,-4.158582707368376763e-01,-4.142990146075877789e-01,-4.405051974531404789e-04,4.291442462803661735e-04,-9.939875471342944635e-04,6.778205744922161102e-03
-4.087232859445095734e-01,-4.133649415476429168e-01,-4.163623545713657226e-01,-8.191824572540612253e-04,1.321824736756074641e-03,-7.280346668679692820e-04,7.299819029867649078e-03
-3.959691412425224710e-01,-4.366970918145173797e-01,-3.944441167440794760e-01,-2.300332413790133219e-03,4.210722274115539371e-03,-2.680562272884465073e-03,4.258901625871658325e-02
-4.139316710577118918e-01,-4.055791106085659403e-01,-4.176199494137539658e-01,-5.035252954720662380e-03,4.955232085180006664e-03,-3.436666089086878179e-03,1.730119995772838593e-02
-4.017809359173122319e-01,-4.272306973770602090e-01,-4.028417059469926453e-01,-3.484099095295364532e-03,4.089433571628912564e-03,-1.739555687761830177e-03,2.678590454161167145e-02
-4.093919130181596366e-01,-4.128137098025390084e-01,-4.163815166086066721e-01,-1.129218797761244193e-03,2.154529889206591251e-03,-1.122145310371135867e-03,7.627272047102451324e-03
-4.150116813287753614e-01,-4.147205115553826982e-01,-4.081857767527161118e-01,-1.508865871879813865e-03,1.165806570142348858e-04,1.462590310397412358e-04,7.185070309787988663e-03
-4.239383244752517044e-01,-3.991554309624812946e-01,-4.203986849530841341e-01,5.564467785805246418e-03,-1.167879244767342471e-02,-1.050485470783514737e-02,3.704223036766052246e-02
-3.270823129945941155e-01,-4.516257220786300541e-01,-4.376516724550344462e-01,5.994042309839187760e-02,-1.312678765114273505e-01,-9.076829165703491353e-02,3.180486261844635010e-01
-4.100431579204575905e-01,-4.426970599898213954e-01,-3.773398867970936821e-01,-2.068846750649677366e-02,-3.498301421264678884e-02,1.482914196659395993e-02,9.390874952077865601e-02
-4.034019822335306871e-01,-4.326423072691690241e-01,-4.056710488228170153e-01,-1.529564122426467151e-03,-1.533675107281004578e-03,-5.956025318015249976e-04,2.844180725514888763e-02
-4.054040413545306198e-01,-4.301264379121520487e-01,-3.985426108153647951e-01,-8.553944158159776032e-03,-1.333153831202232853e-02,4.218853582810894003e-03,4.042280092835426331e-02
-3.853976931732511213e-01,-4.441323640462511158e-01,-4.129965125126080494e-01,2.528826740771115343e-05,-2.008296295629911563e-02,-3.883608457601780885e-03,6.201349943876266479e-02
-3.603127802241826161e-01,-3.955812139793827842e-01,-4.965037439028439636e-01,8.164354815077179417e-02,-3.456144600519373000e-02,-3.857138916451632871e-02,2.074423879384994507e-01
-4.598613659068078174e-01,-5.484719408305258614e-01,-3.346087196004246533e-01,-7.599567534071267894e-02,-1.878428665161333555e-01,-4.308978620213732569e-02,4.042150676250457764e-01
-4.996665560653974492e-01,-4.738049748555192009e-01,-2.457733467293378438e-01,-2.453372637830773112e-02,-3.294507890784455217e-02,6.661993621989172054e-02,2.773824036121368408e-01
-4.532709484452649429e-01,-5.840205353786083187e-01,-2.268048512912582693e-01,-9.095149867683775813e-03,-9.387700156785483419e-02,-6.341937930026882164e-02,3.697912693023681641e-01
-4.466104239021116973e-01,-4.145247233074441651e-01,-3.808338800132604063e-01,-9.013425371307811143e-03,-4.986415682513294263e-03,-1.209938547395513452e-02,6.326976418495178223e-02
-3.866453444069609113e-01,-4.317128380202447935e-01,-4.363954614188465531e-01,2.494534005418728995e-02,-4.601268588955163830e-02,-6.578911552251805184e-02,1.531893461942672729e-01
-2.809724407869104712e-01,-4.356438394171602280e-01,-4.939582591408134271e-01,9.465530106365020735e-02,-6.033284447391841498e-02,-4.409603929780561010e-02,2.827999293804168701e-01
-4.030041565603044162e-01,-4.103825194074043892e-01,-4.278852013402531518e-01,-1.390134206550891960e-03,6.211606330443206268e-05,-1.892619076833297002e-03,2.250511571764945984e-02
-2.986769204928827470e-01,-4.572353655393519567e-01,-4.912598947071590283e-01,5.106776244993150443e-02,-1.817339309305895587e-02,-1.756151887295850922e-02,2.035512477159500122e-01
-3.808398343236911732e-01,-4.352843069619531935e-01,-4.359309421922062944e-01,1.065035142656192355e-02,-2.539112569678058512e-02,-1.990169736655996932e-02,8.038952201604843140e-02
-3.830518838530275749e-01,-4.383249405089231221e-01,-4.177064552942477138e-01,4.862356926697213402e-04,-9.572203371953660195e-03,-6.632750242032152757e-03,5.242286249995231628e-02
-3.018114706095456068e-01,-4.713498095504834451e-01,-4.605980450543955551e-01,-2.087615518602628853e-03,6.239445594384988858e-03,-1.178831175356855401e-02,1.660806238651275635e-01
-3.214587188397968198e-01,-4.507821933898785161e-01,-4.607653487731644959e-01,7.453606230569440050e-03,-9.894149254901379170e-03,-1.464676467716084264e-02,1.386333853006362915e-01
-3.275793257677037662e-01,-4.412191680347218870e-01,-4.621427039833778672e-01,1.539309067874873940e-02,-1.229921437734414827e-02,-1.403465847841544288e-02,1.322313249111175537e-01
-3.651564026932151985e-01,-4.326046575297545771e-01,-4.367631835809463459e-01,5.664399967030441484e-03,-1.112506323311934775e-02,-1.339266540848738432e-02,7.650289684534072876e-02
-3.837671724094090520e-01,-4.367958804627673497e-01,-4.176983708845167231e-01,2.206312339286246003e-03,-7.620813089589748533e-03,-7.002916257311007225e-03,4.999998956918716431e-02
-3.573202961480552720e-01,-4.453779125955828477e-01,-4.353643152913380665e-01,-3.999587849224662574e-03,-1.563980867229282368e-02,-7.447488418063022073e-03,8.899909257888793945e-02
-4.181032649928750344e-01,-3.973489305169239372e-01,-4.239378032521575745e-01,-1.888561941167470320e-03,-7.900337451656547563e-03,9.513012425321021402e-04,2.804526872932910919e-02
-4.395656649580597097e-01,-3.698579412894757446e-01,-4.213128841317051454e-01,-1.004306541326328503e-02,-1.278992628845758428e-02,9.449818733943784674e-03,7.057764381170272827e-02
-4.190759901474524485e-01,-3.980229878289227585e-01,-4.234970014662092774e-01,-1.146247830054305909e-02,-1.029743260144651111e-02,3.832569286572757358e-03,3.622419387102127075e-02
-4.187231710804365514e-01,-4.085256526121490706e-01,-4.068152314530197877e-01,-5.420604015947818460e-03,-4.290026499814665953e-03,4.678979180350028091e-03,1.825917139649391174e-02
-4.124236593205339863e-01,-4.028796849562573112e-01,-4.197226026133845656e-01,-8.920737708753005701e-03,-8.832823862234263218e-03,5.074852818563299964e-03,2.764200419187545776e-02
-4.998850622612915906e-01,-2.812575179693316274e-01,-4.542626546199400317e-01,1.952912927756713171e-02,-1.259975974145531412e-02,7.581881860158254383e-02,2.424273043870925903e-01
-5.497841199790609590e-01,-2.444690234475950241e-01,-4.272243251996169500e-01,8.133836180348839873e-02,9.466594927473577156e-03,1.327816362491996416e-01,3.792471289634704590e-01
-3.870460589185936717e-01,-4.228841497365021795e-01,-4.294071294737087929e-01,-1.661350740690316699e-02,1.379205725539410683e-02,-1.733874397031611239e-02,6.213914975523948669e-02
-3.926132301269850133e-01,-4.123709134266390075e-01,-4.316763142440587231e-01,-1.400081985523122206e-02,7.560787517967983845e-03,-1.014936997476892019e-02,4.704347997903823853e-02
-3.946502664359908819e-01,-4.012145785587404312e-01,-4.359120296786628823e-01,3.484056807846940516e-03,-2.655038133576407069e-03,-3.926634574984684892e-03,3.973143920302391052e-02
-3.810768171064651821e-01,-3.861316392943748288e-01,-4.610837942825096181e-01,5.157541677640792299e-02,-8.284596695585639409e-03,-4.738856431054892793e-03,1.194805055856704712e-01
-4.243414816157635716e-01,-4.010735368046682292e-01,-4.228987358623860215e-01,-2.214970222737959460e-02,3.806931957550683220e-03,-1.873990432074224347e-02,5.548663809895515442e-02
-4.374815453051657532e-01,-4.311005541226675675e-01,-3.716109210856983203e-01,1.681886105675829040e-03,-1.789818970453727759e-02,-2.837307709310041628e-02,8.569686114788055420e-02
-4.100860087047536462e-01,-3.973597767771251954e-01,-4.291405500683858065e-01,2.180853245989906788e-03,-4.739394718041805774e-03,-1.142744841714309371e-03,2.920781634747982025e-02
-4.060624248930943536e-01,-3.917133014377398026e-01,-4.353384542677309899e-01,2.805836402946290838e-03,-6.741434348247573281e-03,-2.721409536209347911e-03,4.080742225050926208e-02
-4.088804985936986824e-01,-4.181214447364265396e-01,-4.113473613409674434e-01,2.008372549812463808e-03,-1.632351523040300725e-03,-1.942495101454983766e-03,1.000492926687002182e-02
-4.088588719494651857e-01,-4.087360270235919635e-01,-4.189295051698774808e-01,2.799753578013207053e-04,-1.694812336176184080e-03,-1.218063906916375030e-03,1.076908688992261887e-02
-4.214292348425857093e-01,-4.059676979903226735e-01,-4.042329756490376513e-01,1.231074182445405542e-02,-2.034083860645078540e-02,-2.560339945326241956e-02,6.270091235637664795e-02
-3.947074518846526714e-01,-5.007713347398083936e-01,-3.394258101061213839e-01,1.139937973641353373e-02,-1.409614599854770167e-01,-5.090183768013459287e-02,2.965505421161651611e-01
-5.089764434090497947e-01,-1.960138849092875613e-01,-5.037266512915349326e-01,-2.976353570898522538e-02,-2.477086578113244647e-02,-9.769305521194607267e-03,3.179855942726135254e-01
-4.478459208986950713e-01,-3.571098818056016033e-01,-4.340720354208342791e-01,2.504801382583094513e-04,-9.852661345690162664e-03,-2.129204693128973480e-02,9.393842518329620361e-02
-4.581316885380697923e-01,-3.198678253549514516e-01,-4.623329062704873982e-01,-1.256140640044243507e-02,-1.242105434425542880e-02,-3.351245247639707443e-03,1.438239514827728271e-01
-4.444712455466657275e-01,-3.432379186921601377e-01,-4.529495038321241784e-01,-1.936870723980631346e-03,-7.723321406371699317e-03,-3.181955210093698715e-03,1.067657619714736938e-01
-4.654775913208802351e-01,-2.897460040500017819e-01,-4.687062886279960150e-01,-5.816023766470276163e-03,-1.151533876295192035e-02,-4.054311894228038518e-03,1.789077967405319214e-01
-4.444610859085205146e-01,-3.945513111819424212e-01,-3.881833078029920947e-01,-2.707484454233767806e-03,5.733528677825058557e-04,1.710832487702971779e-03,5.367607623338699341e-02
-4.443484773268968624e-01,-3.902354882061381258e-01,-3.893937792000611298e-01,6.749380721682237978e-04,2.607638353696482489e-04,3.489081991318617577e-04,5.455645918846130371e-02
-4.460540417067186958e-01,-3.859767586484024182e-01,-3.913199116007752831e-01,-1.367019466304247519e-03,-9.021332155288974133e-04,2.745911162843195710e-03,5.785753950476646423e-02
-4.057978697015764413e-01,-4.109590132951995711e-01,-4.247778290690585323e-01,-6.919061994130034157e-03,2.047631569058523671e-03,-6.673180733956647105e-03,2.405640482902526855e-02
-4.556589851866191809e-01,-3.941027079542065437e-01,-3.887836650681772976e-01,-2.345679219356951520e-02,-1.902891025978355535e-02,3.432889563598442995e-02,1.020650193095207214e-01
-4.311490700786937968e-01,-4.070040093331817044e-01,-3.910370993519580174e-01,-1.653698932159127985e-02,-1.708136731859231927e-02,1.771861230652078956e-02,6.213719770312309265e-02
-4.410359027389363362e-01,-4.161615465241452760e-01,-3.796779330826046683e-01,-7.399811380837915953e-03,1.247116668951839388e-03,-1.119817300652809627e-02,5.833034217357635498e-02
-3.831406070445155243e-01,-4.414304217250830109e-01,-4.164133606730693327e-01,1.019906323788084997e-02,-1.974336766941108337e-02,-2.089665835031198626e-02,7.319010049104690552e-02
-4.228220393373691710e-01,-4.271540236587665351e-01,-3.921759259317483259e-01,2.270036262400745679e-03,-4.681848330641627531e-03,-5.908909781123866493e-03,3.573055937886238098e-02
-4.357734229874113963e-01,-4.094424997880094508e-01,-3.969011091761152632e-01,7.288976792261814275e-03,-1.289624966740802667e-02,-2.069613799475162816e-02,5.589408054947853088e-02
-4.340154778166731009e-01,-4.146020117940784067e-01,-3.938232707585520020e-01,-6.739951760693485734e-03,-5.538255386597526302e-04,-2.902490426068341824e-03,3.707425668835639954e-02
-4.130912321872004522e-01,-4.095811419603371806e-01,-4.159554908360006409e-01,8.464171883843343500e-03,-7.991249150328777820e-03,-5.237068654929648813e-03,2.278960309922695160e-02
-4.084704990685322779e-01,-4.180683746727154593e-01,-4.119023961472176865e-01,1.923989893225834524e-03,-8.880700887739506741e-04,-2.118882210580538134e-03,9.894362650811672211e-03
-4.056179339066842138e-01,-4.207658709127811147e-01,-4.134095972633939908e-01,6.103389102925731819e-04,-5.152665618049416182e-03,-8.009590868664769048e-03,2.110380120575428009e-02
-4.086692871553082029e-01,-4.148023024971468908e-01,-4.165068261170932207e-01,4.375572368708373176e-03,-8.554754220712281268e-03,-9.859759097047214940e-03,2.489188686013221741e-02
-4.090456714074182099e-01,-4.125745649379478075e-01,-4.159240944916511307e-01,3.790993152776280981e-05,-3.128823343940689708e-04,-1.689082237909923269e-03,6.659546867012977600e-03
-4.070770450555649123e-01,-4.127636164628613047e-01,-4.175793014022539107e-01,1.142268439466916736e-03,-2.004374120717688189e-03,-4.116206614364500103e-03,1.223556324839591980e-02
-4.261414339931264839e-01,-4.117327342187124262e-01,-3.955039703180749378e-01,-7.737107820976285230e-03,-3.596664450701711046e-03,4.787529156283144849e-03,3.149566054344177246e-02
-4.311125814600233475e-01,-3.929438932527163919e-01,-4.090290397538742240e-01,-1.950716883047524334e-03,-8.556486641740789281e-03,4.013154153002501841e-03,3.716186434030532837e-02
-4.292782151949096070e-01,-4.061776848418125474e-01,-3.999543052141723010e-01,-3.845437003388090750e-03,-9.910945213364474090e-04,-1.045070831603408254e-03,2.768959663808345795e-02
-4.345753628188266937e-01,-3.974389516367625164e-01,-3.989220584124403279e-01,-1.884810349857685792e-03,-2.720317240405175242e-03,1.161698221814705997e-03,3.692075237631797791e-02
-4.307859294274264395e-01,-4.023236574115807707e-01,-3.986177214195021912e-01,-1.052039095321373680e-03,-2.092748861965800021e-04,-1.359539279409088201e-03,3.063186258077621460e-02
-4.388976891768907040e-01,-4.000828506932323503e-01,-3.932039469209306914e-01,-3.970349982704932806e-03,-4.747854468081905187e-04,1.056055582929985286e-03,4.326924681663513184e-02
-4.233791172404157144e-01,-4.009159013919569858e-01,-4.100464799253128456e-01,-5.990243496994666038e-03,-6.981360790207634393e-03,9.048984671062770824e-03,2.970489859580993652e-02
-4.396471828112256119e-01,-3.940923631063038557e-01,-3.946379966495665026e-01,4.169913184053508653e-05,-6.393581164444153350e-04,-9.017383994094276423e-04,4.532498121261596680e-02
-4.429833736179971670e-01,-3.943695194218445055e-01,-3.903128173629912823e-01,-2.607615951294831296e-03,-1.387365163358629137e-03,1.762721191399180872e-03,5.111233144998550415e-02
-4.142068570568169239e-01,-4.136557447484821015e-01,-4.100213569039261041e-01,-2.549114765002923316e-03,-9.191046682473717321e-04,1.892739759204342459e-03,6.949177477508783340e-03
-4.439234012140383379e-01,-3.290777781539561131e-01,-4.634982996875949834e-01,-3.580226200237518561e-03,2.008773103839967596e-03,-5.059625179909838649e-02,1.534642875194549561e-01
-4.331960197254171585e-01,-3.822244729311433109e-01,-4.143844634146010564e-01,6.472527600430567733e-03,-1.291089596215620923e-02,-1.353528309531647558e-02,5.628930032253265381e-02
-4.057137388757504626e-01,-3.600980203639922994e-01,-4.619942435075701237e-01,2.925178409527799672e-02,-2.207998951516085967e-02,-1.625267678558373063e-02,1.124170422554016113e-01
-4.287662748123547418e-01,-4.001110043063255128e-01,-4.112302161681137824e-01,1.738602210820758319e-03,-4.675891916941371518e-03,-2.156622973396530880e-03,2.673481963574886322e-02
-4.323885511690175876e-01,-3.531305589060657057e-01,-4.395283987858988328e-01,3.250958280221213220e-02,-1.902781309549039096e-02,-2.842208790177654099e-02,1.165286824107170105e-01
-4.216238473860817182e-01,-3.740897864724175292e-01,-4.409873885978191632e-01,1.664297517951698197e-02,-1.573381921540138728e-02,-1.359587824382190585e-02,7.538587599992752075e-02
-4.045666825470470851e-01,-3.306522867546601852e-01,-4.828498471248939827e-01,5.865956121679024443e-02,-3.820059605400066231e-03,-6.901772064686840548e-03,1.669950932264328003e-01
-4.653350831296919621e-01,-2.376955296791556094e-01,-4.984692405625519851e-01,7.578808172224696382e-02,-2.619406541716259168e-02,-5.529730979184864503e-02,2.982005178928375244e-01
-3.979428950837137768e-01,-4.105387938769411993e-01,-4.330740324465254254e-01,-5.441835299512456404e-03,4.083797934716181638e-04,-6.519200329137486531e-03,3.416410833597183228e-02
-4.445279139147665926e-01,-4.590650806653979732e-01,-3.832306418357421252e-01,-1.821279818461001287e-01,5.462182207349490504e-02,-1.118443426440143690e-01,3.883937299251556396e-01
-3.569383843870412854e-01,-4.502326746874118490e-01,-4.115169415101747608e-01,-1.438940567977976120e-02,3.310457676457546211e-02,-1.601231156827472718e-02,1.061548963189125061e-01
-4.738710466055642834e-01,-3.493294988503419796e-01,-4.423858484647303912e-01,-4.984939218193822075e-02,-1.037695417756742851e-02,-3.222956473272441114e-02,1.532150954008102417e-01
-4.355819816022876712e-01,-3.670960892940443032e-01,-4.483067170851378624e-01,-3.844657781911489658e-02,-1.213067877878281492e-02,-2.780039564851015735e-02,1.136581078171730042e-01
-4.242038330323866790e-01,-3.968249308096093997e-01,-4.414205958811219244e-01,-7.725759829937041412e-02,1.482912390437022068e-02,-5.224119084714497901e-02,1.681390553712844849e-01
-4.284167161332122498e-01,-3.927640962775998945e-01,-4.211652064577244281e-01,-2.289684772851479505e-02,4.791505846250021169e-03,-1.988254477763361575e-02,6.239212676882743835e-02
-4.631768300497081103e-01,-3.624049006217339719e-01,-4.185149183983217780e-01,-3.345725987065769486e-02,1.382127187890218149e-02,-4.646404907958076591e-02,1.343762278556823730e-01
-4.053950306823956851e-01,-4.104245861381379812e-01,-4.208995220721056252e-01,-2.895375216243452018e-04,-1.007559474728735374e-03,-3.758856216649665311e-03,1.527707464993000031e-02
-3.927908802328934357e-01,-3.958036844230278239e-01,-4.372460847889619862e-01,1.483164701320721819e-02,-4.506992501449488299e-03,-6.195311925826920557e-03,5.184038355946540833e-02
-4.095582286034294417e-01,-4.140473984614371772e-01,-4.152125852556955987e-01,2.441926880797730404e-03,-3.209522207370517268e-03,-3.680220932009129701e-03,1.077799685299396515e-02
-4.048948326080527016e-01,-4.156993541826446426e-01,-4.138832585735741643e-01,5.635522557458198106e-03,-7.716587505584493988e-03,-6.663075086514364323e-03,2.252816222608089447e-02
-4.134615242688635117e-01,-4.142944678541539694e-01,-4.105884211259973049e-01,3.314683937988297403e-03,-1.863424380238681713e-03,-1.702408396982938365e-03,7.963333278894424438e-03
-4.149114910293976721e-01,-4.145798714207096780e-01,-4.066731387206584669e-01,4.450103471569038550e-03,-4.763648799078198243e-03,-4.228969501737710364e-03,1.569676026701927185e-02
-4.060760565816129986e-01,-4.172073433247835417e-01,-4.136943395736336626e-01,1.235338249038354279e-03,-2.735041788783826137e-03,-5.301239832506606312e-03,1.443854067474603653e-02
-3.903687921787093451e-01,-4.111511072909954656e-01,-4.364212268547640883e-01,9.128607543197960958e-03,-8.989848141294502076e-03,-1.207847850896083888e-02,5.025704577565193176e-02
-4.117381644390852302e-01,-3.980326508772772942e-01,-4.262041303090248201e-01,8.523053665731613118e-03,-7.309216895480051546e-03,-5.368099671255483797e-03,3.255794197320938110e-02
-4.261477734702776021e-01,-3.940093876210499779e-01,-4.213452158592330687e-01,-6.855007563864153053e-03,3.648056240316845198e-03,-4.848697639704373577e-03,3.395617753267288208e-02
-4.558924682405079976e-01,-2.988091612519528928e-01,-4.335371167079846155e-01,1.012205530261525432e-01,9.513524622706340250e-02,1.387141151394730709e-01,3.705091476440429688e-01
-5.019726411081238959e-01,-2.693069175513496116e-01,-3.789721263630965731e-01,8.970699517615005059e-02,5.717477976930054884e-02,1.713779146132186904e-01,4.033665060997009277e-01
-4.070179740622070774e-01,-4.133831417057848845e-01,-4.204995965993451046e-01,-4.778399088557208456e-03,3.989588811453157781e-03,-6.367835514450812320e-03,1.934824138879776001e-02
-4.443966015358135069e-01,-4.334121989898004346e-01,-3.606629209583290807e-01,-1.958820059406114408e-02,-1.630637484737703508e-02,3.579778414230756507e-03,9.055083245038986206e-02
-5.336082528858671070e-01,-2.074736334883302835e-01,-4.844063052577071149e-01,1.072846894552085678e-01,5.093644123296115975e-03,1.033964484250014387e-01,3.992724418640136719e-01
-4.487879478632503250e-01,-3.317419553244083663e-01,-4.307889602446426380e-01,3.002262603629234430e-02,6.340492460722082536e-03,3.169783012450123894e-02,1.332514733076095581e-01
-4.855731151665894085e-01,-2.841486117873159856e-01,-4.313141940204524571e-01,6.466335233341301281e-02,2.319701391304351823e-02,6.878398321738962706e-02,2.468579411506652832e-01
-4.608088519149508566e-01,-3.516371013641504950e-01,-4.111394888436151196e-01,5.729343780290190730e-02,3.981310123857018102e-02,8.931707688486315022e-02,2.179415225982666016e-01
-4.224821598352197505e-01,-4.130045531472494869e-01,-4.022428983628238419e-01,-9.248533792690376634e-03,7.239416797740954278e-03,-8.013467646584030921e-03,3.023431077599525452e-02
-4.415226805069724092e-01,-3.779654634975748162e-01,-4.243772411182555326e-01,-1.102975860733681340e-02,-3.342001733580951452e-03,-5.400232847157041167e-03,6.107152253389358521e-02
-4.500853144786646776e-01,-4.399555722675630998e-01,-3.424401038079569193e-01,-1.266380019602592923e-02,-1.866030572478822452e-03,1.382126307736886162e-02,1.080015227198600769e-01
-4.438967507734484785e-01,-4.164119568400623805e-01,-3.868310250167951159e-01,-1.742426719370628041e-02,1.323265925385183313e-03,-2.419235573140256917e-02,7.152167707681655884e-02
-4.382532093679386009e-01,-3.781748352853984696e-01,-4.270892888366423223e-01,-4.092671185705921977e-03,-1.565896426225486760e-03,-1.244298148684281138e-02,5.987840518355369568e-02
-4.250455327058725308e-01,-4.003265118613462126e-01,-4.225911422847277721e-01,-1.815961771924981191e-02,3.882790947224868533e-03,-2.286401278595047784e-02,5.620690807700157166e-02
-4.273963184183221520e-01,-4.144830510431014026e-01,-3.985565744586577197e-01,2.054116296227158182e-03,-6.480009660949320564e-03,-8.869657659974727187e-03,3.163400292396545410e-02
-4.630528732125522295e-01,-4.306801769280507730e-01,-3.407587561419017641e-01,9.214800148248408762e-03,-1.124146193781496439e-01,-1.201702881331734168e-01,3.058323562145233154e-01
-4.302719193086266825e-01,-4.331866687630990809e-01,-3.741968599739247670e-01,-1.398011203939211917e-02,-5.875063866391585024e-03,1.592777953598894809e-03,6.335490196943283081e-02
-4.153192523071964626e-01,-4.047487504914483170e-01,-4.150251761181243948e-01,6.390263488636125679e-03,-7.199620563982787880e-03,-9.075293988675181556e-03,2.517551183700561523e-02
-4.020027747591789491e-01,-4.166450219184500425e-01,-4.211929817556638311e-01,5.846791561666488980e-03,-7.387803754736642185e-03,-8.920421217423799010e-03,2.840224094688892365e-02
-4.263877444527318095e-01,-4.298928517339257738e-01,-3.781535467070853973e-01,2.909982005760473889e-03,-1.404264485159669590e-02,-7.460710697142857069e-03,5.737480148673057556e-02
-4.153632553307966546e-01,-4.027309794021713407e-01,-4.195144362495438761e-01,1.861910219928384572e-03,-6.749238504889910548e-03,-1.539823725840535089e-03,1.958099938929080963e-02
-4.246482816521587322e-01,-4.045331949283868522e-01,-4.106709269572237919e-01,-9.530794262486363359e-04,-2.600325254962527338e-03,-4.076918992751576054e-04,1.850233040750026703e-02
-4.174509241888379463e-01,-4.059880305926237276e-01,-4.145655918996047351e-01,-8.631705788031149382e-04,-3.037112312218505188e-03,-4.553884604207316896e-04,1.171231362968683243e-02
-4.204212449398433971e-01,-4.052024063071874016e-01,-4.139740372280898417e-01,5.510822658004231687e-04,-1.791709681646716122e-03,-1.524284960407852520e-03,1.387705281376838684e-02
-4.033278412529540669e-01,-3.861974732967712320e-01,-4.428548640971861072e-01,1.308506795778797624e-02,-3.057001099750960692e-03,-8.625820021565736365e-03,5.742694810032844543e-02
-4.190302965432119997e-01,-4.013361380360517261e-01,-4.234290464066381432e-01,2.540821891715529593e-02,-3.044628857235140776e-02,-3.588210350937433984e-02,9.481826424598693848e-02
-4.264746695030621759e-01,-4.109212491692447733e-01,-4.041204590508762351e-01,1.159877491361413276e-03,-2.449469272567401067e-03,-2.640676176756292549e-03,2.090192213654518127e-02
-4.558494212713862237e-01,-4.370694655875923540e-01,-3.433237611624471164e-01,-1.287986593716718489e-02,-3.956890434555903474e-02,4.706032607070543411e-02,1.507987827062606812e-01
-2.849504118946538656e-01,-5.268727181846428742e-01,-4.729962327449908077e-01,-6.238734831263308828e-02,-1.246434954926129018e-01,1.005869367894731900e-02,3.270829021930694580e-01
-3.546994375186911519e-01,-4.531936520061423113e-01,-4.365718284759758094e-01,-2.558746000928780687e-03,-1.553746386790493678e-02,-1.557254254498511258e-02,9.905369579792022705e-02
-3.910072242179979951e-01,-4.333901142541017326e-01,-4.149395000711452730e-01,-3.245089710694214463e-03,-7.656757846619509887e-03,1.574471043525178283e-03,3.961881622672080994e-02
-2.750330915433467638e-01,-4.567117003488968541e-01,-4.852493383685341222e-01,4.595350130312683690e-02,2.357520440081216015e-02,-1.182689081696652877e-02,2.177805304527282715e-01
-3.417814593173943982e-01,-4.362056690237685053e-01,-4.411872223859992226e-01,8.239137158426156418e-03,1.049965800041524101e-02,7.345709652372819573e-03,1.005354821681976318e-01
-3.576871766239778094e-01,-4.361487766417227463e-01,-4.203404956476967103e-01,6.108037368636768001e-03,1.339701381888118957e-02,1.158331246315134899e-02,7.885850965976715088e-02
-3.216253558685961966e-01,-4.524708479336201905e-01,-4.508560997838557127e-01,6.906714028002713425e-03,1.536928611147285115e-02,-6.943832639346363220e-04,1.332856565713882446e-01
-3.297119936941003138e-01,-4.620536713709545995e-01,-4.345677716675251934e-01,4.432841774116925808e-03,9.977123505719408258e-03,-1.799729161443915440e-03,1.224726960062980652e-01
-3.414096722097763603e-01,-4.627419038366709647e-01,-4.207821857976452584e-01,2.289696626050885097e-03,1.930318972490497123e-02,-1.874842486109756226e-03,1.119605973362922668e-01
-4.331065347292324397e-01,-3.959425530366606494e-01,-3.846156100348447904e-01,2.243066612254195763e-02,3.832244590711607335e-02,4.299999723000936386e-02,1.157266125082969666e-01
-4.520707026181585153e-01,-3.771600383643350929e-01,-3.979130316673931134e-01,-9.925439387909870334e-03,-7.015511956542132277e-03,2.620387162801141381e-02,8.361098915338516235e-02
-4.495675664200632360e-01,-4.013718934060482857e-01,-3.754686077743266126e-01,5.123877521793327935e-03,7.333441377803286490e-03,2.242512487014634501e-02,7.740147411823272705e-02
-4.620835938020008693e-01,-3.842420460120283265e-01,-3.913145258780318381e-01,-1.164407588335268813e-02,-1.093995691101708190e-02,3.678392272648448036e-02,1.019007638096809387e-01
-4.509659244861942140e-01,-3.553112268225211978e-01,-4.219826281938297563e-01,-4.683205412690005613e-03,-1.400483176729416281e-02,1.297103142453061818e-02,9.152273088693618774e-02
-4.363152270485142759e-01,-3.837190683881743780e-01,-4.012024381219890246e-01,1.082297540237062150e-02,9.414386102428597136e-03,1.882778106383258682e-02,6.191303953528404236e-02
-4.576585637453136068e-01,-3.443274038968888728e-01,-4.200268107680159013e-01,2.412185067647684613e-03,-3.430327529650678293e-03,1.971487153870615100e-02,1.058963462710380554e-01
-2.530662996644726936e-01,-5.180460512972071552e-01,-4.314747980071918509e-01,1.337643794559963406e-01,1.303609550615802692e-01,4.362778865790108151e-02,4.063742458820343018e-01
-3.089350038802702314e-01,-4.766616657159649662e-01,-4.288114972066718322e-01,1.860064882046370480e-02,6.791591910873126525e-02,1.971144224273265952e-02,1.960546225309371948e-01
-3.161818887202232364e-01,-4.909173314672173882e-01,-4.205954173731477619e-01,3.634681907164282605e-02,7.669525593087112014e-02,1.551185822758011958e-02,2.133577466011047363e-01
-2.887311938284571888e-01,-4.616272815798164175e-01,-4.576107209305544377e-01,4.718123876297664054e-02,5.449755581582060859e-02,2.487048494424465989e-02,2.160058468580245972e-01
-3.114003485950552208e-01,-4.465395831640704416e-01,-4.674079536432177440e-01,5.652366094839080674e-02,5.687698017016924734e-02,1.556492620315647838e-03,2.020278424024581909e-01
-3.119175342724292976e-01,-4.604794754153179737e-01,-4.540234257490134429e-01,4.224554549369893483e-03,7.332825246554285949e-03,-4.785079469542231727e-03,1.464129388332366943e-01
-2.583331984667365244e-01,-5.136026816805848716e-01,-4.766495545286234536e-01,2.510807641046920377e-02,3.569774008383411190e-02,-2.538816106201663425e-02,2.544463574886322021e-01
-1.969446034536558310e-01,-4.562530614618708902e-01,-5.803746145778421184e-01,6.437552559886028369e-02,4.899176357930542375e-02,1.275524278428251043e-02,3.673609793186187744e-01
-2.045212796757450158e-01,-4.909317945940664396e-01,-5.179107863284877489e-01,6.559000678936773021e-02,4.124882516561723805e-02,-1.271776593066726094e-02,3.301237523555755615e-01
-4.649503543231831015e-01,-4.426360818532407704e-01,-3.192639358772601521e-01,-1.081003725411615150e-02,-1.135743996618183982e-02,3.259258937323190886e-02,1.496527642011642456e-01
-4.218949709833246242e-01,-4.406120330380585148e-01,-3.872623115219346879e-01,-3.521889595992453575e-03,-7.458266875914629744e-03,-1.223647064320476305e-02,5.339712649583816528e-02
-4.235813582231793828e-01,-4.085110707525618223e-01,-4.036419808036331158e-01,8.738086035567827273e-03,-1.879909821113970314e-02,-1.906565130459064034e-02,5.199978873133659363e-02
