sxx,syy,szz,sxy,sxz,syz,smises
-6.359216938464647140e-03,-6.359216938464647140e-03,7.271843387693022187e-02,1.748538437045858783e-36,8.830119107081180078e-37,8.830119107082975842e-37,7.907765358686447144e-02
