sxx,syy,szz,sxy,sxz,syz,smises
6.048231928809437441e-02,6.048231928809437441e-02,2.041553614238117154e-01,8.440263505563305631e-71,-4.374715634839007704e-137,1.416728531948301786e-66,1.436730474233627319e-01
