sxx,syy,szz,sxy,sxz,syz,smises
-3.711354814828263932e-02,-3.711354814828263932e-02,-1.679329037034340555e-01,-5.115860108488374585e-68,-2.507886189739605086e-68,-2.507886189739497193e-68,1.308193504810333252e-01
