sxx,syy,szz,sxy,sxz,syz,smises
1.892309476107498223e-01,-1.023935332476878735e+00,9.038737961611599259e-01,-1.367856571879744743e-01,-2.291670242328723017e-01,-4.480788116146561945e-02,1.751905918121337891e+00
7.108100204511666464e-02,-8.323907190202817219e-01,1.043573305633508363e+00,7.638793410256162868e-03,-9.394109284675550287e-02,2.869531919399974026e-02,1.633934497833251953e+00
2.055126365100884978e-01,-8.222161279455719729e-01,9.032273281530637243e-01,-7.872147223720874637e-03,-1.501514985490046694e-01,2.991514138679803383e-02,1.526630520820617676e+00
1.595206266719788324e-01,-1.278502051919276683e+00,1.102709782207321076e+00,-6.559589383700085985e-02,-1.638028747370641747e-01,-6.549335065115867438e-02,2.102406501770019531e+00
3.657883112233230039e-01,-8.738143164828955367e-01,7.583423740932505597e-01,-7.573581049641472593e-03,-4.257739874693567961e-01,2.321344121591783008e-02,1.650140404701232910e+00
3.810779841339448915e-01,-1.358395776353559681e+00,8.647733672981334774e-01,-9.281795424278892204e-02,-4.523525159980565369e-01,3.886801252297530235e-02,2.178382873535156250e+00
6.469933917860848371e-01,-7.128110293852649715e-01,6.540481156506363636e-01,5.835852918006975698e-02,9.574344333968106899e-03,8.061063844863969319e-02,1.374298810958862305e+00
6.243550614971367096e-01,-6.722589253738795456e-01,6.470972826489517216e-01,3.766457983902240375e-02,2.609578758301230039e-02,8.852635716649108477e-02,1.319478154182434082e+00
6.054286513666211622e-01,-6.521397551100447387e-01,6.719741861860224486e-01,1.072709653270987815e-02,3.025816651780342120e-02,3.665279524295450564e-02,1.294880032539367676e+00
6.429072883620539081e-01,-6.772078413830157073e-01,6.586053830706053436e-01,-2.740416155882255747e-03,2.120519391500900325e-02,1.994040727516314948e-02,1.328998923301696777e+00
6.380150647175930612e-01,-6.820349258157402117e-01,6.528771613338493207e-01,-2.597021336462407640e-02,1.250897534107971339e-02,4.256188321250322509e-03,1.328502416610717773e+00
6.499152489299921953e-01,-7.342671396431129649e-01,6.513861711058513970e-01,1.848631260457481162e-02,2.294162141138026204e-02,2.284054905990661952e-02,1.386422872543334961e+00
6.213027166526237099e-01,-6.484483158090088573e-01,6.527309313489346732e-01,-1.953817244255376829e-03,1.127770702622150727e-02,1.481786893315069353e-02,1.286162137985229492e+00
6.430611546654110278e-01,-6.807273171674106393e-01,6.384180785959781002e-01,-1.963564860561079622e-02,-1.807151878725320182e-02,-7.356041572258483884e-04,1.322281718254089355e+00
6.112147390977520356e-01,-7.397897367031338600e-01,5.666703834390469652e-01,1.256901865198334529e-02,-4.431295390116434668e-02,1.482869697808101260e-02,1.331931710243225098e+00
6.254571282534509002e-01,-6.912957128437879906e-01,6.256550861246138462e-01,-3.379965694135238230e-02,2.501262787098729526e-02,1.280606949367790216e-02,1.319050788879394531e+00
6.220336994351973736e-01,-6.331401591565484210e-01,6.474336802197171448e-01,-3.900928605012035384e-03,-6.346305057250312132e-03,-2.385768019864073497e-02,1.268803358078002930e+00
6.039303455655538055e-01,-7.487636469157061825e-01,6.471129358068369308e-01,-6.799642828188914856e-02,2.213641744834003028e-02,1.063547214296389244e-02,1.380484938621520996e+00
6.316526207823579542e-01,-6.778467646551951109e-01,6.385694978045313164e-01,-2.084979076081269062e-02,-8.174782552226901589e-03,-4.199705972202027841e-03,1.313564538955688477e+00
6.645309539147838951e-01,-6.555867901040783874e-01,6.439194472724246721e-01,-3.503038601912631268e-03,3.436531823226918192e-02,4.310377313807955274e-02,1.313422918319702148e+00
6.529628689946778142e-01,-7.746041179802627408e-01,6.414857904570379077e-01,-2.321487932148573290e-03,-3.125752018322884747e-03,-2.238941674465355029e-03,1.421884417533874512e+00
6.209491454624200824e-01,-7.156593793953411886e-01,6.603311813272620956e-01,-3.337027358096866098e-02,2.303318695861355375e-02,-6.504819916611939354e-03,1.358591556549072266e+00
5.702583748740535086e-01,-7.457354979793847649e-01,6.442678302032684989e-01,-8.642592409526787811e-02,9.604706904779557186e-02,8.541751993265116194e-02,1.380827665328979492e+00
6.283226037283948795e-01,-7.116422702209636020e-01,6.435706231548716794e-01,-1.344031610348529401e-02,-1.681868738561646814e-02,2.980377860340335089e-04,1.348169445991516113e+00
6.513831704507143661e-01,-7.361145449900133864e-01,6.490250051616408555e-01,-1.741536792854551235e-02,-1.111964174696481421e-02,2.519205384404594322e-02,1.387468338012695312e+00
6.258782714377223444e-01,-6.554696478835287943e-01,6.463286720414465059e-01,-3.596517400280664634e-02,-2.567484414748538030e-02,3.986061557217923657e-02,1.295800685882568359e+00
6.321603256430781137e-01,-7.150375036146273677e-01,6.353594647630897985e-01,-1.259479454775792352e-02,8.067329270165159594e-04,2.332112473459228147e-02,1.349581956863403320e+00
6.495878187618773225e-01,-6.719143359737678178e-01,6.367907607053895358e-01,-3.056219844241414574e-02,-9.505765154629993927e-03,4.894441063698631855e-02,1.319045186042785645e+00
6.494623313670387921e-01,-6.624555441803788858e-01,6.453824486405078664e-01,-3.563406029955699938e-02,-3.432424771081343199e-03,2.900685682205379756e-02,1.312311530113220215e+00
6.063399020590235500e-01,-7.363434926373882972e-01,5.387196351475740386e-01,-3.160066069958361590e-03,1.665634472823159795e-01,1.791089594299339824e-02,1.341939330101013184e+00
5.580505415360993426e-01,-7.794199111595692120e-01,4.864620420993125416e-01,1.999272279801380531e-02,2.632359076193291902e-01,-1.200152142216738202e-02,1.381200671195983887e+00
4.829007521172938855e-01,-7.653307817958242554e-01,6.483232094227123765e-01,-9.879505823251606006e-03,1.650037393146514819e-01,2.076838649525237536e-03,1.368910670280456543e+00
5.635024670135769798e-01,-7.585019749291437297e-01,6.995925629340559171e-01,-1.210861748437185720e-02,-2.026886896510075690e-03,1.265257203778757077e-02,1.395371079444885254e+00
4.632875530504167449e-01,-7.359879512678162428e-01,6.991283144409763395e-01,2.562687633349554350e-03,6.960293477099044335e-02,1.048709265900194497e-02,1.338508129119873047e+00
4.570967524310090013e-01,-7.750029491028461726e-01,6.605646034411182255e-01,-2.400588252224451769e-02,2.400777410283236324e-01,1.298022910194892784e-02,1.409009456634521484e+00
6.258826594892263895e-01,-7.986586279314418224e-01,4.740519616974440686e-01,9.767586638783940650e-03,2.425288823251527670e-01,-1.626632772762705639e-02,1.419021487236022949e+00
4.190418014152433868e-01,-8.163904413272610183e-01,6.968906447251476122e-01,-6.494093200123688715e-03,1.477966327796690904e-01,-6.693032489068643023e-03,1.418643236160278320e+00
5.769646607545113604e-01,-7.984422274525926344e-01,5.569769729360236621e-01,8.415638655381051103e-03,3.355611141949086940e-01,-1.041926546774459179e-02,1.484248757362365723e+00
6.362181230283994182e-01,-7.087630462855093461e-01,6.526847823173949070e-01,4.995488005867884272e-04,1.042513329626107346e-03,-2.231223339021317850e-02,1.353842854499816895e+00
6.327718223280833776e-01,-7.494858589239157265e-01,6.700165677549777543e-01,2.147253240019983932e-03,5.614492497572440722e-04,2.258881970949874231e-03,1.401262044906616211e+00
6.510577678978177740e-01,-7.604190652304366749e-01,6.139799455023010610e-01,5.371204118324665253e-03,2.143120686818223049e-03,1.600290325670204045e-02,1.393619656562805176e+00
4.941887486766941007e-01,-7.766082830826941397e-01,7.525405150814244992e-01,-3.344911279058874337e-02,-6.882997539147471533e-02,-1.764246260709969455e-02,1.424249410629272461e+00
7.998331495116638434e-01,-7.701585693140007294e-01,2.693646413576380461e-01,-7.734370893038738405e-03,7.863550718356043800e-02,1.056522220808879704e-02,1.390145540237426758e+00
5.795616117175694804e-01,-7.886320746751201982e-01,7.761568764272747112e-01,4.334642682650335227e-02,1.000207263111356189e-03,-1.121549973507319706e-02,1.478377938270568848e+00
6.051741316557011086e-01,-7.596345106869925035e-01,6.119247815783988020e-01,1.867834201991681268e-03,1.274500208048369573e-03,-1.033903474966126231e-02,1.368319272994995117e+00
2.262041255813047602e-01,-7.077851715313925318e-01,1.024269438742969163e+00,3.776375636768786875e-02,-1.585142098200982563e-01,-3.481639215977468116e-02,1.529027104377746582e+00
3.826701429013288358e-01,-6.615469882314045647e-01,7.865693712869109566e-01,4.660220392459560323e-02,-1.122111936638677532e-01,-5.258208107002198400e-02,1.314483404159545898e+00
6.127659855661441446e-01,-4.204296469464992025e-01,6.340100302451580072e-01,-3.596948292103812017e-05,7.254266623473282216e-03,1.253712017032543313e-01,1.066398382186889648e+00
5.949546675158412512e-01,-5.762751641097890731e-01,6.443608371466436058e-01,2.800723534796095184e-03,-1.472215147096325207e-02,1.112933003337500393e-01,1.212401986122131348e+00
6.338638944332029013e-01,-6.551141823309205581e-01,6.591094901779763759e-01,-4.525124782207514545e-02,-5.710382933361195582e-03,8.820709642382369708e-02,1.313097596168518066e+00
6.202994235408485491e-01,-4.843232346866314098e-01,6.230551272371518401e-01,-2.653244661410517416e-02,7.898086190808934967e-03,7.895887483024804920e-02,1.115457534790039062e+00
6.284308188553687780e-01,-5.557389561156634850e-01,6.397769983820917883e-01,-5.640152267098370170e-02,-1.334868599068992842e-02,7.835751548548312850e-02,1.201798796653747559e+00
6.243126598365174029e-01,-5.669172591385854831e-01,6.432777289282171074e-01,-6.606798724892076757e-02,-3.182390219041496965e-02,6.974830168131068708e-02,1.213551759719848633e+00
6.217196286356554413e-01,-6.011283768322482901e-01,6.425257354594201553e-01,1.187492264220317562e-02,-6.443310016109723634e-03,1.085888706188723601e-01,1.247860193252563477e+00
6.614509282848289873e-01,-7.637124556962457955e-01,5.748038507880033343e-01,-2.341393660281394003e-03,3.319724308987023059e-02,3.858928590543084930e-02,1.386687517166137695e+00
6.884715667353451529e-01,-7.426262220606129061e-01,5.803458433685925177e-01,8.539394763095920285e-03,3.178336574064631603e-02,2.095184693911289822e-02,1.381868243217468262e+00
6.837006194274858339e-01,-7.685439869130380464e-01,6.160785087326379195e-01,9.351822638479426533e-03,3.514364745141510676e-02,-1.232803093704314644e-02,1.421199083328247070e+00
7.258888192092897151e-01,-7.487400068334076897e-01,4.595030867578244194e-01,-5.836293425369467290e-03,4.816734265672247689e-02,-2.060788224703838378e-02,1.364187717437744141e+00
5.765864291384086293e-01,-3.546549807274602673e-01,6.068674729585211702e-01,-4.056445810341931940e-02,2.226849500550041883e-02,-9.133646113245042289e-03,9.502635598182678223e-01
6.555636155294213285e-01,-7.807139784191724496e-01,6.078308797368292549e-01,4.938214618930515144e-03,3.309953617657977742e-02,5.828056990645772741e-03,1.414240479469299316e+00
6.978627711553662127e-01,-8.216023764219483327e-01,4.511551934404657294e-01,2.224179921547848882e-02,1.275395737762040904e-01,-5.825521101135805457e-02,1.433610677719116211e+00
5.942609016769364594e-01,-7.511711121536370772e-01,6.373522942471163688e-01,-2.454519401196631530e-03,6.620118956663614829e-02,1.886332846144176539e-02,1.372681379318237305e+00
6.077731056633508544e-01,-5.478284940731859010e-01,6.482932788119978307e-01,-2.732285974367484882e-02,1.427712697990669508e-02,-4.587033975682188597e-02,1.180273532867431641e+00
6.328543682340231902e-01,-7.526866681214409160e-01,6.008223902032002739e-01,-1.863507271130656132e-02,5.710529422024557961e-02,4.900134536630945843e-03,1.373777747154235840e+00
5.962484657614582906e-01,-7.653289235853336647e-01,5.669260442916707055e-01,2.316607762875416351e-02,1.198250333267370654e-01,-1.094988184977321172e-02,1.363771200180053711e+00
6.569706496719224242e-01,-7.080992261875245219e-01,6.375648842759026325e-01,-1.037106635599673032e-02,1.695265330801982995e-02,-2.237795378253520928e-02,1.356462001800537109e+00
6.310055951089937887e-01,-7.692183099380085487e-01,6.485411338634812228e-01,3.281149150899197869e-02,3.205728580666341448e-02,-1.143814836513734265e-02,1.411450862884521484e+00
6.331017356007418995e-01,-7.658426958793280726e-01,6.115208550956769962e-01,-3.480945094171970788e-02,5.050483169728732513e-02,2.009577903933625412e-02,1.392774105072021484e+00
6.145571947209041985e-01,-7.818723532882742022e-01,6.059581081978248074e-01,-8.791660816511318380e-03,7.912530767357976724e-02,2.170053959717911998e-02,1.399467229843139648e+00
4.848382217154407203e-01,-6.973517196221924452e-01,8.008422647564409358e-01,-1.929509912841465002e-02,4.271793110197548426e-03,-2.333317478410124393e-02,1.368873000144958496e+00
6.136116900499852811e-01,-7.054958615701995006e-01,6.829908348048397970e-01,-2.622245316627002179e-02,-4.611517450261476414e-02,-1.104627398783179174e-03,1.358242630958557129e+00
6.389915601241409338e-01,-7.651211488455460508e-01,6.691796138590970777e-01,-3.832785902275906778e-03,-3.710215289769091315e-03,3.419344901628119764e-03,1.419489979743957520e+00
6.867948870439940512e-01,-6.782151685017122622e-01,6.273925293788851221e-01,-6.914734696821922544e-02,1.996621360306401194e-02,-3.182929496883945587e-03,1.342112779617309570e+00
6.723751092816839803e-01,-6.975860264198721072e-01,6.224350578896209463e-01,-5.292681045312105925e-02,-3.814802666379017455e-03,2.163281364408087271e-02,1.349341630935668945e+00
6.015131674993527966e-01,-6.815955646845346383e-01,6.463901577704396217e-01,-4.308371482152919402e-02,-3.560062424174172471e-03,-2.477634650335192208e-03,1.308277130126953125e+00
5.956156332835882417e-01,-6.724917179799794198e-01,6.726325054817663407e-01,-4.417465195145866413e-02,-4.711982888100257373e-03,1.059080516865788801e-02,1.310706257820129395e+00
5.932476196554260506e-01,-8.129066964442246412e-01,6.842740721080021737e-01,8.502072223400903087e-03,-3.494313740348395413e-04,2.304058830045815822e-03,1.453886628150939941e+00
5.846843378329896757e-01,-7.138762160513506538e-01,6.946133903825363332e-01,-2.099389145075439625e-02,9.971410764796304407e-03,-4.487109393260410584e-02,1.359688997268676758e+00
6.959319751596011461e-01,-7.990976084588469197e-01,5.437917848165794155e-01,-1.697329990963749452e-02,3.633668876902972772e-02,4.749707356585878421e-02,1.429125308990478516e+00
6.459750433003366155e-01,-7.346779353317333117e-01,6.090406071233205321e-01,1.531861537266980067e-03,1.109253577067333303e-02,-1.250735521133113613e-02,1.362871408462524414e+00
6.538815952363410400e-01,-7.145785246073363961e-01,6.082230965771282527e-01,-1.118419629403802525e-02,5.365342406885996625e-03,-6.232416170743675446e-03,1.346426367759704590e+00
6.615012653983287638e-01,-6.321002546034131253e-01,6.032166406213956833e-01,4.291293385766454388e-02,3.395661147755776876e-02,-5.773695216495911171e-03,1.269050240516662598e+00
6.752047755748602498e-01,-7.372787837811386469e-01,5.901739240795936814e-01,-1.012069589054296129e-02,1.614009692163510465e-02,1.504812357940611862e-02,1.372590065002441406e+00
6.387050546365191650e-01,-7.358062261361252299e-01,6.613708229657531135e-01,1.840934959987307763e-04,-2.143719082737347709e-02,-3.132723740073439789e-02,1.387541770935058594e+00
6.075426283829498120e-01,-7.410541000060186789e-01,5.916047000846595960e-01,2.575378531636687493e-03,7.144226241871730158e-03,-9.405554794406249114e-03,1.340862274169921875e+00
6.357062959863131191e-01,-6.851749311715402690e-01,6.558774243721516850e-01,3.125242648313818900e-02,-2.000270952848996753e-02,-6.993785054378218180e-02,1.338126301765441895e+00
7.375803327291041711e-01,-7.832557891071418865e-01,3.906153529735817420e-01,-4.070004177403581738e-03,-1.635335686646776643e-01,-6.080512282441850229e-04,1.409230589866638184e+00
7.420677885954636288e-01,-8.457586552668188151e-01,3.818601943911100749e-01,4.070346882471560096e-02,-1.363279726913636525e-01,7.958834185368769687e-02,1.469259858131408691e+00
7.468913741658376182e-01,-7.718458169062347718e-01,4.546106611208694526e-01,2.109608792731709065e-02,-1.352948519005556516e-01,5.245494064458430632e-03,1.415777087211608887e+00
6.479799761896254395e-01,-7.742134536224295482e-01,6.501061747755745301e-01,-2.974512557357944422e-03,-6.860821154456408187e-03,2.756780993844596371e-03,1.423324704170227051e+00
6.822371509209259610e-01,-7.747846879066665471e-01,4.675025769771816719e-01,2.402987456555924148e-02,-1.338199161153087458e-01,3.457975755608166165e-03,1.382621407508850098e+00
6.692714598562197192e-01,-7.402228883685872951e-01,4.527440377242670233e-01,2.559155565719979999e-02,-1.155102324818297610e-01,3.993066485447064468e-02,1.332343935966491699e+00
7.443612472667238134e-01,-7.736446623377659648e-01,3.215526673296729698e-01,1.513994717492080956e-02,-1.562463745893739320e-01,5.410797446110639924e-02,1.387080550193786621e+00
6.636198299423909930e-01,-7.669320604098351923e-01,4.061298434356723219e-01,1.092163528761656323e-02,2.024447952769493353e-01,-3.300805288828282530e-02,1.367846846580505371e+00
5.418719843626904620e-01,-7.720652627903973331e-01,4.948635176954951365e-01,2.786956264075193118e-02,2.631757952705169323e-01,-3.380227149598642733e-02,1.371283054351806641e+00
6.099127844636598184e-01,-8.116281553095721080e-01,6.395539106767968995e-01,1.681583691273281014e-02,9.134829199966661151e-02,-3.248585256082291844e-02,1.446665525436401367e+00
6.832362978081185645e-01,-7.624906997699636424e-01,5.124520471707201263e-01,2.263959379293593172e-02,1.098569760212470270e-01,-3.784106324223929230e-02,1.383627653121948242e+00
6.029817594723042573e-01,-7.392716161417678400e-01,5.851198749729880078e-01,-1.317636744916908824e-03,1.408367137727677132e-01,7.477038676356977239e-04,1.355544090270996094e+00
6.597272999186984954e-01,-7.613615901889668747e-01,6.219513820030778684e-01,-7.200386249773478402e-03,-6.810430724086629327e-03,4.019860079543665157e-03,1.402704834938049316e+00
6.186240075805322647e-01,-7.614955902559447098e-01,6.503029367727535259e-01,-1.374206929054352759e-02,-2.449479425944871454e-03,-3.199204784164434105e-03,1.396448969841003418e+00
6.226971714281339665e-01,-7.640602277703588685e-01,6.199649558573424590e-01,-1.557055357234097062e-02,1.369598491111938959e-02,2.235328519132802338e-02,1.386399507522583008e+00
6.102727384645191266e-01,-7.570001878406893425e-01,6.084299493282177007e-01,-5.194610923364681269e-03,3.322906770174093027e-02,2.311590394332535027e-03,1.367599606513977051e+00
6.050188341954214621e-01,-4.668893143552448333e-01,6.321665430674685560e-01,-8.301728873192290581e-02,-1.374124772920313521e-02,-1.282131034068006714e-01,1.117757439613342285e+00
6.106269578065406378e-01,-7.512195597175913564e-01,5.624560005414820374e-01,-2.177692791262327357e-02,1.016489304475868272e-01,3.917302537689625053e-02,1.352171897888183594e+00
7.152913476654806368e-01,-7.634234053435779987e-01,5.068826966361145159e-01,-2.039010835598957169e-02,5.872889710230391747e-02,-1.511193109454847007e-02,1.390731573104858398e+00
6.691593704773057816e-01,-7.524561478043786389e-01,5.954130032247302307e-01,-5.101265387502378068e-03,1.100401421180422293e-02,2.692426192630413551e-02,1.387157678604125977e+00
6.806869641713721997e-01,-7.501077454545992396e-01,5.970121969212225377e-01,9.117530710775095457e-03,2.563903470809327650e-02,2.251789781214059635e-02,1.392191171646118164e+00
6.734358204582180374e-01,-7.873707550349864359e-01,6.038752408479162170e-01,-1.078398749067443520e-02,1.531970027833283281e-02,7.185227400131976140e-04,1.427667498588562012e+00
6.911392865794628859e-01,-7.724979580883160057e-01,5.196333869265574723e-01,-2.980686419130188988e-02,-1.866686263906846555e-01,-1.307099067695103450e-02,1.424197793006896973e+00
6.565014052024933378e-01,-7.542933938191421772e-01,5.801999882975479306e-01,2.310008072109125468e-02,4.181376191171484041e-02,-2.703019730817046284e-03,1.376730203628540039e+00
6.595853738368985253e-01,-7.835377689381581856e-01,5.737627722191229740e-01,3.167599946745105338e-02,4.307404081360960424e-02,-2.845777108692214979e-02,1.406102061271667480e+00
6.663791642798034820e-01,-7.946782316258844681e-01,6.014973274026316208e-01,9.631617173217902131e-03,2.135093277922103447e-02,-7.317525989212968988e-04,1.430297136306762695e+00
6.735751113137939949e-01,-7.653348163697427653e-01,6.342533672012449220e-01,3.431715202362734755e-03,-4.993460702484795073e-03,1.206380735209375130e-04,1.419696331024169922e+00
5.770335033096433142e-01,-5.999382874452329206e-01,6.488998743346937603e-01,-6.932350238627900396e-02,1.940944735136540186e-02,-1.568612474043134045e-02,1.221186995506286621e+00
6.417460369731240455e-01,-5.903918492905408932e-01,6.326954224946459426e-01,-7.176626213236579621e-02,2.077908048963040058e-03,-1.070493450141560277e-02,1.234059214591979980e+00
6.627188205409247912e-01,-6.984073331298643605e-01,6.323323109864575908e-01,-1.304578569756938144e-02,6.043162939541530873e-03,3.265767865279980628e-03,1.346432328224182129e+00
6.510045621428773854e-01,-6.048711275114563302e-01,6.267401819128359808e-01,-6.843666976726592299e-02,1.567579062281809852e-03,1.222282376383364635e-02,1.249738335609436035e+00
6.495770686123147897e-01,-5.984807095056248194e-01,6.052848201561011887e-01,-7.387291063988374318e-02,1.018674618308670898e-02,6.712502665791235477e-04,1.233294367790222168e+00
6.475352820910817986e-01,-7.054816342758224446e-01,6.304141031545339446e-01,-1.937894471966944421e-02,-9.168231350577743044e-04,-6.902106717549332318e-03,1.345010995864868164e+00
7.031695230596517465e-01,-7.699563281189739650e-01,5.079120775916032837e-01,-1.443263515634957139e-02,-3.868611545459350182e-02,7.052444315711830537e-03,1.387750148773193359e+00
6.039771907901363424e-01,-5.215678787657985760e-01,6.018283355728663020e-01,-5.548519886010042264e-03,-2.532823747709570666e-02,7.080434582751834668e-03,1.125435471534729004e+00
7.193959536114253872e-01,-7.888884104143398801e-01,5.284521097118458632e-01,-2.916428436997004978e-02,-3.339096122727632648e-02,-1.023767814867049541e-01,1.435521960258483887e+00
6.515829130286986404e-01,-7.054673094093476537e-01,6.084274381491440176e-01,3.818112058475654248e-03,6.844343465051140087e-03,-1.296376583617712790e-02,1.336252927780151367e+00
6.636435753600176124e-01,-7.581103709106290500e-01,6.524201640272578873e-01,2.577634755306412121e-03,1.275326523499118250e-02,5.016341781889371507e-03,1.416381597518920898e+00
6.770370966892602649e-01,-7.049312546314938643e-01,5.904072292116759879e-01,-1.412959390708142492e-02,2.821959141909868591e-04,-6.146323193291807450e-03,1.341019749641418457e+00
6.730804280530379158e-01,-7.699154563983424682e-01,6.089017667996403649e-01,1.751629894567815864e-03,6.429239567456790545e-03,-1.370910724905162990e-02,1.412247657775878906e+00
6.262906353060969655e-01,-7.166455447630071252e-01,6.142518781665093908e-01,-8.119549777809759172e-02,-2.754147616069286403e-02,-1.026559360266768445e-01,1.356880068778991699e+00
7.350157836321929983e-01,-8.305859027923744309e-01,3.121284253354679183e-01,7.015715976743325255e-02,-3.181413207629725792e-01,6.313356840442979623e-02,1.515992879867553711e+00
6.358731751301571755e-01,-6.703325696720257021e-01,6.070724331018987341e-01,-1.474359446205743274e-02,-5.808896743993240304e-03,-1.006659320467897245e-01,1.304046630859375000e+00
5.755247880341010092e-01,-7.524077168378819902e-01,6.332580240057681387e-01,-1.559815799906800853e-02,-4.218693416153266457e-02,-1.063784990689480535e-02,1.360078096389770508e+00
5.816189003991010242e-01,-7.780564850247231323e-01,6.594171872809678758e-01,-1.088591688986342843e-02,-2.103696519728539063e-02,-1.365217008274483695e-02,1.400996923446655273e+00
5.968719796761335905e-01,-2.226518071233352103e-01,8.760261278730483436e-01,9.753172126624382043e-02,2.678805439546648182e-01,-7.865108698053599467e-02,1.113864898681640625e+00
6.490560674198477820e-01,-7.620658773659138019e-01,6.491768252975894660e-01,7.908094615021598814e-03,-1.544038512458245811e-02,-4.510677258742152099e-03,1.411523818969726562e+00
6.364481262424273034e-01,-7.732943652291508485e-01,6.440517086228962906e-01,-3.291652112944695209e-03,-2.834070366209310004e-03,-4.210091386041476570e-03,1.413598418235778809e+00
6.425021875568337482e-01,-7.654551211166700231e-01,6.406047242392427510e-01,1.465346926154752379e-02,-5.865091598047759112e-03,-1.482031524256978254e-02,1.407509207725524902e+00
8.633180336067919347e-01,-2.585835179935225270e-01,3.225362222777158339e-01,1.112457878630027514e-01,6.375539354833530126e-02,9.337668696687505265e-02,1.009892463684082031e+00
6.503657302663634621e-01,-7.611728808566931015e-01,6.427328555645870356e-01,6.953888266032162528e-03,-1.930411961940716251e-02,3.500478779649989652e-04,1.408186316490173340e+00
6.457096841159941647e-01,-7.583093973496400908e-01,6.403181904576693562e-01,1.998375966640683881e-03,-8.530514501408821906e-03,2.641956454380993326e-03,1.401420712471008301e+00
5.947056889491304510e-01,-7.407157709407483637e-01,6.084453815123728182e-01,-4.674749811817888157e-04,-6.368143520851819728e-03,-3.483358448871107585e-03,1.342403173446655273e+00
6.477175218377692056e-01,-7.672646814780826885e-01,6.457280138984216045e-01,1.055024119113015871e-02,-1.423329490818901928e-02,-6.347854757790083284e-03,1.414364218711853027e+00
6.426140020686317289e-01,-7.449809320001664625e-01,6.473383626898228105e-01,1.290927730310073226e-02,-1.282624379243425122e-02,-4.144424262300916949e-03,1.390339016914367676e+00
6.442785632110991090e-01,-7.656015168933691939e-01,6.501439099297264823e-01,8.277516416620776460e-03,-1.469596131151249159e-02,-3.174477174048253442e-03,1.413134574890136719e+00
6.333581889465575987e-01,-7.683896355638776265e-01,6.232807144843619529e-01,1.506034032639161531e-02,1.184316200123469547e-02,-1.314860906138233705e-02,1.397316098213195801e+00
6.417006880632867283e-01,-7.663863338014750282e-01,6.405891211520582385e-01,9.614558220735175409e-03,-6.887252225321230381e-03,-5.202635223715188460e-03,1.407709479331970215e+00
6.477710551176223408e-01,-7.667538779416014361e-01,6.438024630431197215e-01,4.490344486081218958e-03,-5.901130835365051529e-03,8.591154654554090551e-04,1.412603974342346191e+00
6.382701095683354087e-01,-7.716808540741267874e-01,6.490209858701376788e-01,3.367337180671888669e-03,-8.785162858538969957e-03,5.389918842248431425e-04,1.415451169013977051e+00
6.503176533009848992e-01,-7.708260489410050376e-01,6.459813660450094419e-01,4.918208585539450561e-03,-1.445652669953496547e-02,-8.361012511004062980e-03,1.419300913810729980e+00
6.884694689182327965e-01,-7.454612447261885766e-01,6.538870380046983843e-01,-6.012521926130148971e-03,1.772567667740937089e-02,4.160087919028829934e-02,1.419157266616821289e+00
6.269288588618597835e-01,-5.733820668240382501e-01,6.426019258605413231e-01,-3.734952830025617398e-02,-5.480240877656351178e-02,-4.833005891967485923e-02,1.216555237770080566e+00
6.410614748713852062e-01,-6.735463222814844775e-01,6.233789497493201770e-01,-1.699953354236253752e-02,-4.091895983487387790e-03,-1.079192698164246379e-02,1.306341171264648438e+00
6.549571496374158031e-01,-7.695899979396019219e-01,6.411560618571024994e-01,-2.594594101912835529e-02,-1.400022863023801410e-03,-2.970578037150546288e-02,1.419344067573547363e+00
6.514374888513390083e-01,-7.522776305582435930e-01,6.708032841721272010e-01,-4.524325910672882811e-02,1.364846750631474280e-02,-1.887617392235821367e-02,1.416242837905883789e+00
5.846943039511154350e-01,-5.801292456770064110e-01,6.356404278366567517e-01,-6.063919856143798470e-02,-8.178116193506048889e-03,-1.210176315661138854e-02,1.196003317832946777e+00
6.583472158713681299e-01,-7.722830442806452034e-01,6.495893356240229899e-01,1.114350189074462052e-02,3.969975339189498256e-03,-2.146028737095201366e-02,1.426902890205383301e+00
6.547644714371024799e-01,-6.734758363170340045e-01,6.352085165505115816e-01,9.533758117716051349e-04,-1.734317402842580451e-03,-3.971564882837043398e-04,1.318575739860534668e+00
6.590276905706422550e-01,-7.262063393434984304e-01,6.466027874807904752e-01,3.704835444676789213e-02,-9.193117893969518853e-03,-3.299444054900108753e-02,1.381829738616943359e+00
4.826646489219156289e-01,-7.246011067778197479e-01,7.028137596959546096e-01,4.579454313031183776e-02,7.007210821915582644e-02,-2.050518577430115660e-02,1.339409470558166504e+00
6.574395170112846687e-01,-6.987147496504964028e-01,6.393449665303525542e-01,3.602951761690987437e-02,-1.906440991967364718e-02,-1.164993016708431315e-03,1.349048376083374023e+00
5.891068907814749345e-01,-8.043083185276568292e-01,6.907495060382824459e-01,5.552533865764339160e-02,6.052897593871692065e-03,-7.303836472525554457e-02,1.455654621124267578e+00
6.379040802917345099e-01,-7.694475539709010325e-01,6.763284402106797266e-01,2.649619159803148771e-02,3.341977858679913427e-02,-1.159565708395571444e-02,1.429003834724426270e+00
6.158363165744638046e-01,-3.358239426840797792e-01,5.558368227564263186e-01,-4.336762455322962923e-02,1.352772311281895123e-01,1.734992893964694138e-01,1.001501917839050293e+00
5.487754622286485917e-01,-5.937976551577429651e-01,6.802434600396010111e-01,6.022566021355704041e-02,3.323361616815839747e-02,-1.897882820204383272e-02,1.219936251640319824e+00
7.694508506664111680e-01,-7.506978837844687780e-01,5.258052322229127551e-01,-2.237780929793146967e-02,-2.033477162988808415e-02,5.242546853467646567e-02,1.418035864830017090e+00
7.884672618824676293e-01,-8.415658914098647081e-01,5.588201441261266833e-01,2.863094025043773534e-03,9.454769360501314585e-03,9.803705073979560036e-02,1.537706136703491211e+00
6.901613763611524899e-01,-7.802734013374230670e-01,5.867341815174185182e-01,7.346396779722561736e-04,1.337547863202400529e-03,-7.784480071261771529e-03,1.421612262725830078e+00
7.015998770013032182e-01,-7.136263541404240796e-01,5.015212894786380549e-01,-9.618702302705187113e-03,8.859959570563740935e-03,1.885559288037497259e-03,1.326749444007873535e+00
7.632109382631296901e-01,-7.570214612227603723e-01,4.914149536986726075e-01,4.875717595412890765e-03,9.187773872276041101e-03,-7.075650689380609190e-03,1.404372215270996094e+00
6.939274426300301446e-01,-7.708893978354949272e-01,5.700498912791645001e-01,-1.208553653009127905e-02,-8.220502489649651745e-03,9.881651548212355696e-02,1.417572259902954102e+00
7.579977750568606121e-01,-7.378029935970714659e-01,4.903107081013327040e-01,1.501938526563675880e-02,1.036788429557945063e-02,-7.685932396079698907e-03,1.381971836090087891e+00
7.575590920210814039e-01,-8.598578907451563946e-01,5.460274712422742427e-01,-6.331206405675073208e-03,6.547086465274606741e-03,1.303244257448328836e-01,1.539431929588317871e+00
6.391648886873791957e-01,-7.438565563367622868e-01,6.422720451428522992e-01,7.670942777713899395e-03,-9.241099124959560943e-03,-2.224505851160287276e-02,1.385269880294799805e+00
6.355480421310837347e-01,-6.860723679233154959e-01,6.530369748526130280e-01,2.584112487756266147e-02,6.373628374975738066e-03,6.267152444049550394e-03,1.331293821334838867e+00
6.504074794192566955e-01,-7.542456064124809512e-01,6.233974037556135883e-01,-1.132913837004075400e-02,-2.732333973612353917e-03,1.836898950970083499e-03,1.391494750976562500e+00
6.571742244342826389e-01,-7.631635438334041233e-01,6.448887788504449325e-01,-1.108662269761824873e-02,2.430723013063930751e-02,8.307345123427962996e-03,1.415065050125122070e+00
6.481718527345698977e-01,-7.443433311632684513e-01,6.319367320938005239e-01,-1.370709245122680824e-02,-6.518011156302101240e-03,1.046779581773950481e-02,1.384837269783020020e+00
6.249394884438785880e-01,-7.850037159605626202e-01,6.510662820605217505e-01,4.226216609924287920e-04,8.770047549306530382e-03,-2.321642790318350497e-02,1.423835635185241699e+00
5.945444780824125086e-01,-7.412290678405254463e-01,6.035045353419271619e-01,1.585822523344168535e-03,1.721743411321106226e-02,-7.463757797509185977e-03,1.340672850608825684e+00
6.069573305476059222e-01,-7.495808788219905372e-01,6.102814403446022995e-01,5.969146363978780102e-03,-5.324209550847598975e-04,8.240055053721896325e-03,1.358317971229553223e+00
6.614736849742828273e-01,-7.466860533874981609e-01,6.250617540467171551e-01,5.299660280446537829e-03,1.936748118073975192e-02,-3.070875451547796370e-02,1.391763091087341309e+00
6.410757637220689809e-01,-8.075657310222013052e-01,6.501586913586017147e-01,1.581796724014065611e-02,-4.425281167034942481e-02,2.157723234000288870e-02,1.455961823463439941e+00
6.086397659174060948e-01,-7.650576331353780013e-01,5.678400741388425210e-01,1.130427762938436033e-02,-8.993696958312055734e-02,1.244995393304440534e-02,1.363003015518188477e+00
6.451383178409806352e-01,-7.688426705474259437e-01,5.632516550548593015e-01,2.907249596286095444e-02,-1.005278420859919281e-01,8.619193344965593237e-03,1.386844396591186523e+00
6.444024319589720662e-01,-7.655797373749453349e-01,5.751957260947857531e-01,2.227901663352668815e-02,-5.359381437060991432e-02,2.980596340799366098e-02,1.381314635276794434e+00
6.442703199157320260e-01,-7.631029424365757263e-01,6.062932023733327291e-01,1.592010573582685468e-02,-3.271711372257629646e-02,1.393249987995968291e-03,1.390205502510070801e+00
5.084499353558366019e-01,-7.694251834404201018e-01,6.720521139062134441e-01,-2.794945234510607529e-02,-1.294670488625290772e-01,-1.434826540154853988e-02,1.386376500129699707e+00
4.894410957881057400e-01,-7.755889337952437401e-01,6.922352476864043203e-01,-1.070555610022838437e-02,-8.914585053516396740e-02,-1.793942089529820469e-02,1.386765122413635254e+00
6.206123276971851066e-01,-9.102386281001088042e-01,5.186450942801612563e-01,-3.008644844242570893e-02,-1.995549509084006967e-01,-6.261907692716224549e-02,1.527007222175598145e+00
4.659453359763170432e-01,-8.885500347930828102e-01,6.450984643604564805e-01,6.394097512580430853e-02,-2.394280699543209212e-01,3.550256451424706888e-02,1.515730738639831543e+00
3.916359050971458533e-01,-7.901936282025928682e-01,6.746294621836491645e-01,-4.576976485276296192e-02,-2.031425358011880733e-01,-2.203974529276389940e-02,1.393843293190002441e+00
6.247341459516930762e-01,-7.501444289554376477e-01,5.704074046182676661e-01,-1.526225928604952806e-02,-1.252467830336126131e-01,-1.199407109287786884e-02,1.366287112236022949e+00
6.100212539571717718e-01,-8.274038153516728444e-01,5.112605962318893527e-01,7.144445756899029537e-05,-2.743064447085503677e-01,-3.181705788211625779e-02,1.470629930496215820e+00
6.170096300738305839e-01,-7.589868556326632154e-01,5.750222418235348965e-01,-7.313231484293224345e-03,-1.247078392676743280e-01,-1.380833839727074394e-02,1.372859597206115723e+00
8.065094233024518999e-01,-8.125588729576417313e-01,2.989943477721518916e-01,1.670372794572979464e-02,6.874307279791876113e-02,-7.927291339059562569e-02,1.446070075035095215e+00
6.426597065833969946e-01,-6.977593581741654560e-01,6.475362334722054580e-01,-2.579522147040339691e-02,9.103982950005308841e-03,-3.046360034101647241e-02,1.344735145568847656e+00
6.555882465183779928e-01,-7.518551629851071283e-01,6.275317890014806554e-01,-1.823236139590800331e-02,-9.993285676725012154e-03,9.630290814609960767e-03,1.394191980361938477e+00
6.478432833119245338e-01,-7.398205988488331108e-01,5.899568483929373830e-01,-4.920759486835901697e-03,-2.471828609983595798e-02,-1.287489139410902478e-03,1.360347628593444824e+00
6.500655840605016333e-01,-7.837340705867889001e-01,6.252663688584820800e-01,-3.194898667165806116e-02,-2.787418721379346723e-02,-5.129798774195311675e-03,1.423485636711120605e+00
6.491507882919338446e-01,-7.620256736419130927e-01,5.938496821458831842e-01,-5.916284046214495725e-03,-2.392826750630571570e-02,-2.463838373811897114e-03,1.385019302368164062e+00
6.468120843252966878e-01,-3.924351057792310193e-01,6.542629219922995176e-01,-8.426308123401773931e-02,1.286591981846889289e-03,7.275295058859101993e-02,1.060668826103210449e+00
6.435390717633298063e-01,-6.649033892472370200e-01,6.474728119461328202e-01,-1.868138854832654058e-02,-2.362689143237434782e-03,9.444593071616254332e-02,1.320987582206726074e+00
6.406892571587867735e-01,-4.842354873834321394e-01,5.947490207884396085e-01,5.570945804294913373e-02,-1.966315345318724039e-02,-1.929327468996467482e-02,1.107914328575134277e+00
6.354473168070405853e-01,-6.976894635952849422e-01,6.757609340754737737e-01,-8.802631688545193081e-03,1.052904156647171269e-03,2.207559172178723619e-02,1.354370832443237305e+00
5.952795988894654666e-01,-4.839989658759199509e-01,6.414898743238756085e-01,2.350478945893691787e-02,1.406538410887138435e-02,4.184086221389825277e-02,1.106505393981933594e+00
6.150649920684712058e-01,-4.863657357437162210e-01,6.358312086455333301e-01,-1.204815017656907933e-02,2.172793740063631157e-02,4.853754986087649437e-02,1.115962743759155273e+00
6.327578593306963928e-01,-6.826746437484727537e-01,6.235530913298090727e-01,1.734691245185796329e-02,2.809967924594082220e-02,1.655191499505314842e-02,1.312414765357971191e+00
6.627308552874145997e-01,-6.062725702308948694e-01,5.804549003637278215e-01,3.343296238766742950e-02,-6.703429192947322514e-03,4.321651192602999486e-02,1.233621358871459961e+00
6.562700720852829850e-01,-6.751131313880275320e-01,6.436907659212788291e-01,3.999186059562975792e-02,-2.879846804340435002e-04,8.419303700915105326e-02,1.334936380386352539e+00
6.376530027449688331e-01,-6.771001715826814316e-01,6.541935795174602664e-01,2.816750494899309884e-02,5.558850369864120830e-03,-3.469554012248622383e-03,1.324048876762390137e+00
6.559734003382406975e-01,-5.805735133618540322e-01,6.163215425813785009e-01,4.204899300057982070e-02,2.838062360562969982e-02,3.292851182200873814e-04,1.220373034477233887e+00
6.201336577158564900e-01,-5.190106429315456404e-01,6.362044284675892891e-01,4.010564746076289433e-02,-2.497000392232282765e-03,5.518849513241561727e-02,1.153341412544250488e+00
6.738821895673658968e-01,-6.936593205807233264e-01,6.442356637359964999e-01,-1.826226521774724360e-02,-9.044876984962554531e-03,9.893857762820923440e-02,1.364228129386901855e+00
6.625725140325517959e-01,-7.632850600604834668e-01,6.662491132651187087e-01,-5.347280591182052359e-03,1.019121788000018278e-02,1.827129532485223529e-02,1.428189277648925781e+00
6.252153549052315018e-01,-6.089397919339386567e-01,6.549934420717242745e-01,2.961429917404352630e-02,-1.111305144176273976e-02,1.462913018410590682e-01,1.275923728942871094e+00
6.610343875810097414e-01,-6.121780579294734403e-01,5.567391279917993652e-01,3.956760122205805834e-04,-1.313377209314047498e-04,6.610717232719454106e-02,1.229743242263793945e+00
6.834227845145359748e-01,-5.658848770679772988e-01,6.478481557933775115e-01,5.248453232005286656e-02,-2.256509961828873437e-02,1.304016828391637295e-01,1.256342649459838867e+00
6.754177953931845835e-01,-5.984383353900334379e-01,6.336774244357747943e-01,2.381688233296652343e-02,-4.862700286143211564e-02,5.931318540247271925e-02,1.261201858520507812e+00
6.499571335049179055e-01,-7.434281235751204475e-01,5.948842979807376086e-01,-1.506640809568069068e-02,5.655657942076506434e-02,6.327308656966490995e-03,1.370479822158813477e+00
6.099659973561066817e-01,-8.095638824342129558e-01,6.171317479731254219e-01,-1.089622922991932696e-02,8.177117733112344855e-02,2.399216906467956101e-02,1.430884718894958496e+00
6.571953576589184554e-01,-6.996259048267275960e-01,6.199833040239837167e-01,1.771238138896559511e-02,9.904119148146291532e-03,5.267122479155782709e-03,1.339095711708068848e+00
6.604845850496940951e-01,-7.100027187652264704e-01,6.400900087563758944e-01,3.352277635250176108e-02,-2.431708804982044697e-02,-3.422823350418731370e-02,1.363583803176879883e+00
6.433899509967712094e-01,-7.695928991923759455e-01,6.400405938782477433e-01,-1.905566084475820684e-03,-4.894237887244568680e-03,6.137038050961281244e-03,1.411380529403686523e+00
6.430382776972152215e-01,-7.683357998034577863e-01,6.333908477828402717e-01,-3.013655367956472216e-03,-1.262538610786216250e-02,3.537216416210535366e-03,1.406768202781677246e+00
6.444291962521875305e-01,-3.662193561910476181e-01,6.085346639985722561e-01,9.433155879481164297e-02,1.186088022668564147e-02,9.423380720148536588e-03,1.006879329681396484e+00
6.405315751905882315e-01,-7.609824813697555479e-01,6.093404669884416869e-01,-2.539423561786167613e-02,1.739678306870269531e-02,1.481389476970377921e-02,1.387443900108337402e+00
5.977270949937230071e-01,-7.336824115014159986e-01,5.895222420132685270e-01,5.752796339270560555e-03,4.601338756729321522e-03,-3.451694215544416459e-03,1.327400922775268555e+00
6.450199239079688063e-01,-7.174368503561409094e-01,5.813318549479258301e-01,6.317749193378109640e-02,1.417107618143445824e-01,-1.842263718898198843e-02,1.358974099159240723e+00
6.477374889899714105e-01,-7.464602436284890619e-01,5.956652976506260355e-01,-4.262437681772761507e-03,1.961093307656877963e-03,2.000859371484505281e-02,1.369367361068725586e+00
6.696511078881066670e-01,-7.633497014315754337e-01,5.231681216993091521e-01,-1.278747692127478984e-02,6.792725034729944766e-02,5.488215335503392883e-02,1.374193310737609863e+00
6.865678322944356315e-01,-7.449305454613800448e-01,5.902408184206778818e-01,5.095515335880624642e-03,6.973720886264665481e-04,-7.336736723595369339e-03,1.385934829711914062e+00
7.071705806786274806e-01,-7.726065018910235338e-01,4.824464700657905003e-01,-2.772294914870994387e-02,3.991789575344737578e-02,3.828371665257161716e-02,1.385345578193664551e+00
6.974014369593760643e-01,-7.607086473390718417e-01,5.177520996032052292e-01,-8.941953653996668333e-03,6.016776122472391325e-02,9.877291522403786744e-03,1.381232619285583496e+00
3.645674726889835959e-01,-7.367125459931860298e-01,7.996259020934650685e-01,2.520058022781614462e-02,-1.487313213802683998e-01,-2.547213451440013404e-02,1.396935701370239258e+00
3.297318234700477579e-01,-7.633881224925754827e-01,7.668501562054870213e-01,-3.707194696795330924e-02,-7.022156081816170736e-02,-5.982759383270263437e-03,1.372162580490112305e+00
2.724296051327109724e-01,-7.600025619396443277e-01,8.288011277583446912e-01,3.423083408391250446e-03,-8.741562921707946021e-02,1.066394326793520392e-02,1.404700040817260742e+00
2.317638627768828230e-01,-8.373075636312076186e-01,7.887717741352049394e-01,4.866370764720357595e-02,-3.093982819669282569e-01,-3.055501847306554483e-02,1.531580924987792969e+00
2.275994745839074185e-01,-7.946024964735138862e-01,7.956317122074987314e-01,2.282920328263327026e-02,-2.708140466292963677e-01,5.354762817089055854e-02,1.475936174392700195e+00
2.663106737861304918e-01,-7.669913923489524166e-01,8.405993208715811793e-01,-2.187071028672026018e-02,-8.427545252516017993e-02,1.192277745786106229e-02,1.419190883636474609e+00
6.236709053250495405e-01,-7.342456320562456007e-01,6.390967135876159944e-01,-2.305645052111096084e-03,6.643268673212031177e-03,1.678474455205773361e-02,1.366058468818664551e+00
6.299354343208942719e-01,-8.285235117600662225e-01,6.717627155342285050e-01,3.481116844953620771e-03,2.971876033465563685e-02,2.316272188661960135e-02,1.481266617774963379e+00
5.949110892009803475e-01,-7.623481958968496564e-01,6.523147558719226691e-01,1.074970492346164624e-02,6.975456365833333783e-02,1.463526555417527485e-02,1.392460346221923828e+00
7.501097644129555153e-01,-7.599247472047538920e-01,5.711312884238757270e-01,-7.276694927668872492e-02,5.422628290021033054e-02,7.706093174212007291e-02,1.443778276443481445e+00
7.395630684241493169e-01,-7.903966236521977606e-01,5.909734742444814337e-01,-3.119678173895940390e-02,3.615867335726312415e-02,7.593134222255752686e-02,1.469577550888061523e+00
7.923657936921770784e-01,-8.389001008044941754e-01,4.771315503392745683e-01,1.832798086731972018e-02,7.150785109487789448e-02,-3.692795526771569525e-02,1.505526185035705566e+00
5.916763427420104193e-01,-7.409264153352500548e-01,5.972929654332908012e-01,-9.371386570585270651e-03,6.219887418349437889e-03,2.081440354683390236e-03,1.335566878318786621e+00
8.922164957845670763e-01,-6.666924295714471427e-01,2.477041056992747570e-01,-8.719842588410342543e-02,1.433158658820311016e-01,4.661530559746784180e-02,1.389893889427185059e+00
5.834228330615990332e-01,-2.337732601586119952e-01,5.656245815223490681e-01,3.070500105649840231e-02,9.863978844484914965e-03,3.010558185085273827e-02,8.120473623275756836e-01
5.392435619051633156e-01,-7.516074644998586018e-01,5.984811291661711330e-01,3.136932282068789074e-02,1.147479458609348968e-01,-2.341004717305068816e-02,1.338047027587890625e+00
5.984282419247994866e-01,-7.404518713620604764e-01,5.977057823747647936e-01,8.655157358158119610e-03,3.756869413686916154e-02,-2.285135087466774913e-03,1.340189456939697266e+00
5.862808207078664680e-01,-7.731746811330438840e-01,6.202338414728705285e-01,4.184555364054546450e-02,5.892055813381488066e-02,-2.718748861741501072e-02,1.383226394653320312e+00
5.988674997122830357e-01,-7.743079309859699499e-01,6.414480809556074581e-01,2.770619985329363447e-03,2.832703878667510583e-02,-4.860267859440838521e-03,1.395849466323852539e+00
6.308537566893572812e-01,-7.702270071432208987e-01,5.722274450524903466e-01,1.975352896274747486e-02,7.876746550597348018e-02,-4.528241215583724000e-02,1.382121205329895020e+00
6.460248118111198146e-01,-7.683557200435231493e-01,6.551940128220972159e-01,-6.446149200584273126e-03,2.009326777373441481e-02,6.278345431611003294e-03,1.419499635696411133e+00
6.122081252878640578e-01,-7.627098970632144592e-01,6.264340448235443670e-01,1.452433616245122142e-02,2.357992968567381234e-02,-1.282266433208757717e-02,1.383096337318420410e+00
6.333912791146889543e-01,-7.577032340557944279e-01,5.866237815972747960e-01,1.223914542424142833e-02,5.082093333173334088e-02,-1.513823954049430161e-02,1.371553301811218262e+00
6.476314576534970557e-01,-7.462751190765194442e-01,6.560167941472780928e-01,-3.492954106645488818e-03,-2.124288095522926245e-02,1.791318704382283133e-02,1.398959398269653320e+00
6.812495136487366487e-01,-7.536952915281558418e-01,6.250749165865244761e-01,-4.069170293650997174e-03,-1.680236165188510105e-03,-3.218896250850887108e-03,1.407730102539062500e+00
6.482429577961077438e-01,-7.650294956649611455e-01,5.951368158089019866e-01,-2.373699996178772753e-02,1.162412526983834689e-02,2.395221001759937490e-02,1.388856649398803711e+00
6.334192959911726373e-01,-7.616765809811154586e-01,6.399593462878334638e-01,-2.641961594376153813e-02,6.557682759839329051e-03,2.069974743651801369e-02,1.399631261825561523e+00
6.418742055977467720e-01,-7.308605233217803088e-01,6.444778009175079481e-01,3.274511409404603363e-02,-1.050842932467198516e-02,-2.954810680715609650e-02,1.376280784606933594e+00
6.799901096062765937e-01,-7.214486768874680545e-01,6.184079391937589154e-01,-1.733967207145918621e-02,-7.058653550571328782e-03,-1.590586448153618118e-03,1.372070908546447754e+00
6.723059068758375778e-01,-7.141919024093753565e-01,6.356047671917268715e-01,-2.352676068086784200e-02,-1.192288790843457243e-02,1.731119961465328247e-02,1.369606971740722656e+00
6.695728145190411595e-01,-6.154624214786398317e-01,6.145773868530612916e-01,-2.932194029846583658e-02,-4.838294977085863535e-03,4.314157641958628504e-03,1.259513497352600098e+00
6.653367609788449766e-01,-6.268543195626067321e-01,6.195530415201282448e-01,-3.579645139234106932e-02,-1.375844153465063079e-02,4.231979223334465801e-03,1.271675467491149902e+00
6.436331838815769757e-01,-7.363715886234890595e-01,6.403457260466146606e-01,-2.029625291378482632e-02,1.290067706807128227e-03,-3.084327395230280003e-02,1.379848599433898926e+00
6.305239364023196291e-01,-7.588640285482414205e-01,6.954464957980621698e-01,-7.129611927427528806e-02,2.374230061032214789e-02,-5.508733669383526071e-02,1.432082653045654297e+00
6.282576350919539809e-01,-6.730790918844758997e-01,6.417977796754468223e-01,-2.519308989413802241e-02,2.850221787345023818e-03,5.684605998309371494e-03,1.308933258056640625e+00
6.194462204760236013e-01,-7.531427838563780064e-01,6.443180798152673416e-01,1.283966976936209634e-02,-2.694520222474727777e-02,6.752478432859510514e-03,1.386206150054931641e+00
6.474454356032744995e-01,-7.176044051376401223e-01,6.026821217180637902e-01,1.232276170820365176e-02,-3.865064793588037645e-02,-3.374473905610424901e-02,1.346333503723144531e+00
6.421969953516896146e-01,-7.478921308069923501e-01,6.401234142259017990e-01,1.619168346538664080e-02,3.084309558608925098e-03,-2.160751261914773975e-03,1.389351844787597656e+00
6.527151090281844148e-01,-7.252517556216580008e-01,6.387682646298002975e-01,-4.515125744142085840e-02,1.125004518897258950e-02,-1.657004326635166946e-02,1.373713254928588867e+00
6.333177600773806093e-01,-7.481103372677394558e-01,6.569145046221700479e-01,-2.510567469922375325e-03,1.399140852005028267e-02,-4.696675398919209659e-06,1.393593788146972656e+00
6.461539687213084804e-01,-7.651976155233327637e-01,6.350901489831937141e-01,-7.663725405910541862e-03,3.606096729431060733e-03,-1.106764980487848389e-02,1.406059503555297852e+00
6.523120976364251700e-01,-7.648030723973837652e-01,6.184989318369261690e-01,-1.331043455742326499e-02,1.897901513531214963e-03,-1.215399295945763722e-02,1.400866508483886719e+00
6.564540591946219639e-01,-7.078031098173412916e-01,6.349975893385318981e-01,1.671396187077192619e-02,1.409996325828220473e-03,-4.210343851786785274e-03,1.353987812995910645e+00
6.453871196531120180e-01,-7.666162931394817637e-01,6.462830797810106276e-01,-6.699326598390173372e-04,1.116637906270021713e-02,-1.764102652052370462e-03,1.412587761878967285e+00
6.552315866764260033e-01,-7.502912987802645706e-01,6.403914582603746908e-01,1.035525746237505630e-03,1.754510877068077637e-02,1.206835950066555011e-03,1.398494839668273926e+00
6.465813790579326703e-01,-7.659767041481718719e-01,6.338705741846641928e-01,-7.996405190510261912e-03,3.955778746804470766e-03,-1.331368668658262748e-02,1.406519651412963867e+00
6.175698890043725964e-01,-4.404885521370145440e-01,6.037217792010987072e-01,1.420904720068733584e-01,9.058441997824784797e-04,-4.499562365191466656e-02,1.082438349723815918e+00
6.136573732714867280e-01,-4.014735198602233934e-01,6.084298707266141415e-01,1.369880504573154634e-01,-3.475688277450137299e-03,-4.192228105928412496e-02,1.042505264282226562e+00
6.051333279108799257e-01,-1.627402494889610418e-01,5.785055237636684833e-01,1.155980239991420688e-01,3.300589105867717844e-03,-6.409718690258806029e-02,7.888845205307006836e-01
6.213441968666335580e-01,-3.274853667289421288e-01,5.869142378503733326e-01,1.001410400323535649e-01,-6.312093599239849105e-03,-7.474618259085259731e-02,9.569534659385681152e-01
8.142014135838038236e-01,-7.981714393168375388e-01,3.258856809258321441e-01,-9.422653192505840714e-03,1.804998755896909113e-01,-5.186128248667742913e-02,1.468648076057434082e+00
6.705418565268187470e-01,-7.691080628200105407e-01,4.514686262368216019e-01,8.430530004493091978e-03,2.294154178341378802e-01,-5.324521519574904396e-03,1.401209712028503418e+00
7.265080767342336765e-01,-8.877728201028879385e-01,4.181960551118861225e-01,-3.080245886308883435e-02,2.286154236188885913e-01,-7.051359517815339317e-02,1.542016506195068359e+00
7.488287772310135981e-01,-8.084839144444276871e-01,4.224589553819003696e-01,7.295444776294106141e-03,1.266207834348975492e-01,-7.669975599699064596e-03,1.439414739608764648e+00
6.880296906629569387e-01,-7.806687019928524318e-01,4.539097570128315384e-01,2.403584142995639564e-02,1.548893665349545812e-01,-2.180204823333824204e-02,1.393975138664245605e+00
7.230078432130309096e-01,-7.935800637372880662e-01,3.207512181236513715e-01,3.472790166204701382e-03,1.829031141034133112e-01,7.383582679456407449e-03,1.397265911102294922e+00
5.942980673973085048e-01,-7.395554620227702269e-01,6.623817186328956330e-01,3.287362325400397522e-02,-1.285975892449687519e-01,-2.652280185607525445e-02,1.389092803001403809e+00
6.072152131619077409e-01,-7.498264300685894002e-01,5.601655681825891131e-01,8.458254336316597954e-03,-7.463837182013360882e-02,3.898875411013321898e-03,1.340485095977783203e+00
6.089930149741057397e-01,-7.382972286029746423e-01,5.481968537620092174e-01,1.361520631534298212e-02,-7.743227002920850810e-02,9.492815644306771064e-03,1.325062632560729980e+00
6.054872368462033139e-01,-7.525453878758848747e-01,5.520559117522758630e-01,2.317864130676547396e-02,-7.822009392704977471e-02,1.481724515454106196e-02,1.339840173721313477e+00
6.588032675707832242e-01,-7.401139597047651231e-01,5.024364443752674658e-01,7.025778179010100898e-03,-9.791136198743438657e-02,-1.045625040017861621e-02,1.338623046875000000e+00
6.118972125748463053e-01,-7.368711920383467229e-01,6.048709520909487658e-01,8.893155530206729026e-03,3.866622504746483439e-03,-2.651109922093679207e-03,1.345381736755371094e+00
7.050928136544717395e-01,-7.887021464598761300e-01,4.009509455950691637e-01,4.158994954136099181e-02,-1.797475282221426274e-01,7.060516991295952283e-02,1.409493565559387207e+00
5.768156510795960923e-01,-7.322623159638093071e-01,5.638430108554924880e-01,-6.703826428434951981e-03,-5.382974966071926715e-02,-7.695358592528621887e-03,1.306092143058776855e+00
5.704343327263923236e-01,-7.279286044619180940e-01,6.080936150431592857e-01,-6.974458034884670893e-03,-6.589332361676891736e-02,-6.774464450544611174e-03,1.322637319564819336e+00
6.133895557964135214e-01,-7.484458417336196101e-01,4.990638166703931788e-01,-1.047296517900806780e-02,-1.059686359557058671e-01,-1.273026196649203537e-02,1.321543216705322266e+00
9.557133642161037557e-01,-1.882607160070611796e-01,6.386853277997166511e-01,4.643664466562284071e-02,5.656136189627258837e-02,-2.911954913386028201e-02,1.032047510147094727e+00
6.306011018453052674e-01,-7.564545446083260627e-01,5.031344480362089921e-01,-1.169919664665077484e-02,-8.858362598522565023e-02,-1.041757163242186708e-02,1.337028503417968750e+00
5.876241958874761639e-01,-7.548011330374364558e-01,6.038143399241578946e-01,-2.119381445968964231e-02,-4.491558646585087911e-02,-2.032663309489388462e-02,1.353787779808044434e+00
5.595160303393422740e-01,-7.363284338962702291e-01,6.171867929765060268e-01,-9.785001331091463042e-03,-3.933151475967081034e-02,-1.066961095346113941e-02,1.327607154846191406e+00
7.164083076179050824e-01,-7.691648815935631101e-01,5.365867795568139975e-01,2.134157877408372067e-02,1.780355404232598915e-02,-2.275494049748382971e-02,1.405701279640197754e+00
7.529646364847309981e-01,-7.748308110747804678e-01,4.687176690073798779e-01,-1.002744626948053877e-03,3.274142925507758650e-02,3.527014235683714923e-03,1.408524155616760254e+00
6.605343488854205081e-01,-7.516448842533332009e-01,6.562586129422021131e-01,-9.239036368241424282e-03,1.303814138820197366e-02,1.418931906397663707e-02,1.410531997680664062e+00
6.552774102420702018e-01,-7.632543243868359362e-01,5.952879368690686679e-01,1.518070982196925885e-02,3.009333760044985429e-02,-4.528931761160722921e-03,1.390756487846374512e+00
6.626239365423574057e-01,-7.685966552077309055e-01,5.945579760139351189e-01,1.977147737070400133e-02,2.160513515177956562e-02,-1.681534458447387498e-02,1.399653315544128418e+00
6.383955098148422769e-01,-5.081357617344409716e-01,6.200030280967576690e-01,2.374175029038465626e-02,-7.144575257236547398e-03,-8.413482410949887913e-02,1.147547364234924316e+00
6.754431525047297491e-01,-8.003281753530679943e-01,6.105755475825558332e-01,1.349718782942079323e-02,6.075955148064663552e-02,-6.905135018518796484e-03,1.448497056961059570e+00
6.102180809381763105e-01,-4.126344081848951628e-01,6.307348289561437449e-01,-1.085776800692924149e-01,1.348476618211982142e-02,-7.353145975644206911e-02,1.058190584182739258e+00
6.308641845505669199e-01,-4.433115900655265618e-01,6.215955385468658889e-01,-1.347492367477419462e-01,-2.441600862593140946e-03,-1.090145826973996056e-02,1.094910860061645508e+00
6.425983892369580008e-01,-6.567851007764218263e-01,6.414166697512606596e-01,-4.610584754378679873e-02,2.047170106283912813e-02,-4.242980060814655757e-02,1.303801655769348145e+00
5.979957804464661741e-01,-5.697118486346912647e-01,6.318065915185169246e-01,-1.980436202590160344e-01,1.640516612995073387e-03,-4.516927374231171494e-02,1.236106038093566895e+00
6.648295653600686528e-01,-5.881796923209757777e-01,6.232510123702590388e-01,-4.375577665370185276e-02,-2.145818677463562103e-03,9.744998337754032583e-03,1.235194325447082520e+00
6.639542936469359224e-01,-7.455148464149188303e-01,6.389186553990581219e-01,-5.334661569436489892e-02,7.456231143815046473e-03,1.184682868421729068e-02,1.400381565093994141e+00
6.490073234594598839e-01,-6.054580904392996565e-01,6.286561674321389237e-01,-7.354086658450287306e-02,3.665559268348002222e-04,3.384664795241618552e-03,1.250930547714233398e+00
7.020444130858686238e-01,-7.192246094487736441e-01,6.325041884903563894e-01,4.685828321420171944e-02,1.236183868293197138e-02,-9.424803504228704623e-03,1.390438079833984375e+00
6.825212745013958804e-01,-7.116826565114559022e-01,5.608684602027930177e-01,-3.996768951805599462e-02,-5.081450732246239194e-02,-1.702999306574762839e-01,1.374241590499877930e+00
5.633686951942555865e-01,-6.153988112675198296e-01,6.496544955530367815e-01,-1.573021728517113027e-01,-5.403885084925039162e-02,-4.008805696610164698e-02,1.259548544883728027e+00
6.713763617720394095e-01,-6.853193372637137459e-01,6.088758828490435926e-01,-4.388335960214798798e-02,-2.648461454247982502e-02,-6.144626321852651729e-02,1.333770513534545898e+00
6.439796548002856280e-01,-6.604085977774656335e-01,6.333779816202508295e-01,8.689434339902801438e-03,3.055837229742763492e-02,1.830637701295936013e-03,1.300288558006286621e+00
6.447763157581758442e-01,-6.701404437617975995e-01,6.465815825154814789e-01,-1.377246884839199463e-03,1.439888270838988495e-02,6.625573970081636817e-04,1.316059350967407227e+00
6.278743767847621005e-01,-5.904312965532344526e-01,6.401265011536894090e-01,-3.440154342219362005e-02,2.715656813194477354e-03,-3.999853011908148515e-02,1.227891564369201660e+00
6.318326754125700440e-01,-6.719993092209575192e-01,6.356584828694842315e-01,-5.018848951326389252e-02,1.197170517359673683e-02,-6.614661701061938515e-02,1.313808798789978027e+00
6.331965727753980921e-01,-6.663018028589631214e-01,6.389446220863942427e-01,-4.092225427664457349e-02,6.817093595751699472e-03,-9.021122186463881309e-02,1.313688039779663086e+00
6.661498758593302760e-01,-7.053020384847109581e-01,6.342589710582319240e-01,-2.637741127676030903e-02,-7.436093341208491539e-03,1.865930333633136979e-03,1.356622338294982910e+00
6.403547140734517917e-01,-5.075302998456576731e-01,5.969636877714767920e-01,-1.220599938611047069e-01,-6.242355419325835118e-03,-8.342763388841603622e-02,1.155598640441894531e+00
6.682942792884467575e-01,-7.615528686817897297e-01,6.397401827543542918e-01,-1.644141847569112816e-02,9.809224809463580001e-04,-5.103825497978172789e-03,1.416101098060607910e+00
6.625106845402122246e-01,-7.236234001921290071e-01,6.493518615332147803e-01,-4.428070624967668512e-02,-7.703088575237444779e-03,5.713577826264199487e-03,1.381831884384155273e+00
5.849304853923587011e-01,-7.817988821609309635e-01,7.546305558282889736e-01,-6.808339284458095331e-02,1.211429096263207522e-01,6.748052194757145350e-03,1.478766679763793945e+00
4.724748491154552310e-01,-8.116641137255871108e-01,7.889334993947728636e-01,4.031048400698891004e-02,5.017658866712768756e-02,-1.253757042580213275e-02,1.472560763359069824e+00
5.773120824176170007e-01,-7.649445181048133424e-01,6.909721890976135983e-01,-3.985958353638442697e-03,2.420956850348006395e-02,-3.528184533248050758e-02,1.404518723487854004e+00
6.269899235515022928e-01,-7.326500407827429839e-01,5.286954217595090100e-01,4.127107026147028529e-04,7.339269474708989827e-02,1.537342399834421567e-03,1.319395542144775391e+00
6.089276535273204782e-01,-7.795705418507052897e-01,7.340000084655512458e-01,-3.063329936468378589e-03,4.933139081849725188e-02,1.623253026431225807e-02,1.457858920097351074e+00
5.764732997971178108e-01,-7.308596075144745408e-01,6.945439604328579319e-01,1.526528266976839160e-02,-1.470537990569856408e-02,-1.172677555812993815e-02,1.370831131935119629e+00
6.405904194352490810e-01,-7.365677432766027932e-01,6.617413637313078745e-01,-5.166876201569262951e-03,8.974801150348685891e-03,-6.825590274809874292e-02,1.392996191978454590e+00
6.873489235199761183e-01,-6.740811099396705197e-01,5.583755170094106823e-01,1.138671914251296324e-02,-3.282042477414420095e-02,-5.021407234168847461e-02,1.306033134460449219e+00
7.077377967460564134e-01,-7.874736045981968191e-01,4.901811340308912524e-01,4.090955680400463340e-02,-1.631129015544467153e-01,1.960333452164847098e-03,1.429176211357116699e+00
6.651893149686107787e-01,-9.194616281331414731e-01,4.523967792375205299e-01,-1.948975902202870064e-02,2.273813511598074266e-01,-5.509395290799922601e-02,1.544198751449584961e+00
6.941926801042132000e-01,-7.974498283216628902e-01,5.943246482079715953e-01,-4.955167793394885806e-02,-1.428526817009683793e-02,-4.014455658103890240e-02,1.448729276657104492e+00
6.948378697119694802e-01,-7.317168331430694561e-01,6.406806091487062815e-01,-9.544839471307711015e-03,-8.621020333465375177e-03,-6.224248127007978026e-02,1.404582381248474121e+00
6.678590275511336882e-01,-7.475000130374226393e-01,6.326270736550311247e-01,-1.044885617959650376e-02,1.948307013857735604e-05,9.017827850242042531e-03,1.398280382156372070e+00
6.827202826319954676e-01,-7.288188350670267157e-01,6.250330107040502625e-01,1.522213735761839340e-02,-8.888777538378821175e-03,-2.689947235059908428e-04,1.383934617042541504e+00
6.387920709248383622e-01,-5.768134839764982313e-01,6.153155657667680467e-01,-6.274655398186548827e-02,-1.297069229392861997e-02,2.943899367520860788e-03,1.209153413772583008e+00
6.785430717252547428e-01,-7.024669369567055899e-01,6.246116561221057850e-01,-1.966233892676469419e-02,1.654347730507089650e-02,-1.055756162619134013e-02,1.355703711509704590e+00
6.115387698273803130e-01,-7.229201516344281320e-01,5.560398305272136188e-01,9.353112775467260082e-03,1.125460525228253600e-02,-2.977593396476621232e-03,1.307848930358886719e+00
6.529266763197359991e-01,-5.731050726880581037e-01,6.214160678874932620e-01,-7.477080111689718422e-02,1.618756716015758504e-02,-1.080420183122045817e-02,1.217958211898803711e+00
6.323730915821357268e-01,-6.596378984732296225e-01,6.458321489345755229e-01,-4.833860128918666954e-02,2.156653822146600841e-02,-2.120905668340926711e-02,1.302542686462402344e+00
6.670041025293140802e-01,-7.486373777038305422e-01,5.568638508871199821e-01,1.799335133413142726e-03,-6.484515612702874965e-02,4.143784638154157304e-03,1.368549823760986328e+00
6.400216167419989777e-01,-7.322012096358023747e-01,5.157544701669125597e-01,-9.904580779412871551e-04,3.538837111000026764e-02,5.644094822210638657e-03,1.315967798233032227e+00
6.647908420738767310e-01,-7.774714829897545476e-01,5.205236395594602383e-01,-1.437212752523750296e-02,-1.078317619655379811e-01,-2.142673029192701528e-02,1.389151692390441895e+00
6.894300773794210802e-01,-7.760724980058346656e-01,5.797626617223904377e-01,-1.395606468484949202e-02,1.404634088841131070e-02,-3.832292910561319651e-03,1.414293885231018066e+00
7.325176844419909461e-01,-7.751467831087250904e-01,4.446206656776631738e-01,-1.531074599684792079e-02,-9.203378314066301691e-02,1.762347368066717254e-02,1.396040916442871094e+00
6.386406858810262932e-01,-7.279046458503660721e-01,5.225463235500948933e-01,-3.354974058231100648e-03,3.823300035078700670e-02,4.651762314355719664e-04,1.314037919044494629e+00
5.916921593665092072e-01,-6.016160286536329505e-01,6.598945119742798404e-01,-2.095903977161115567e-03,-1.875279985725270687e-02,5.252270065187043986e-03,1.229297876358032227e+00
8.335343220836116673e-01,-7.916956291247362332e-01,3.846056865179092732e-01,-1.957673805548966472e-02,-1.137539022564005298e-01,-2.893908077290733086e-02,1.468257188796997070e+00
7.335780335053206924e-01,-7.718560917592753867e-01,5.569008782477755659e-01,2.398726677972765498e-03,4.427882876277316332e-02,1.828460772348347238e-02,1.427751064300537109e+00
5.794775634111704044e-01,-7.352190254847639217e-01,5.721929294899994467e-01,-9.816268303260385075e-03,-1.642473904917712002e-01,-1.313258529766670422e-02,1.341879725456237793e+00
6.415642349498134056e-01,-7.774560762161830674e-01,6.386700765113323408e-01,1.192069390454197648e-03,-2.593181379816236146e-03,-1.092280278310645307e-03,1.417585372924804688e+00
4.995270693083750380e-01,-7.294797182287298121e-01,6.546085905495422352e-01,-1.212418905142318565e-03,-2.033454401730121208e-02,6.946862077513893570e-03,1.313961148262023926e+00
6.146032230072675517e-01,-7.638702970756082733e-01,5.866111472219086576e-01,-2.610863378984512942e-02,-1.320865848996190528e-01,-2.496959566314533446e-02,1.385150671005249023e+00
5.191565917824090270e-01,-7.961025097951494045e-01,5.202120472592408618e-01,-4.695621333768239909e-04,-2.639948062280172425e-01,-2.401095075709417694e-03,1.392980098724365234e+00
5.463649669581829293e-01,-7.563153590427771356e-01,7.141267733680168872e-01,-5.928121216232201153e-03,-3.808781684390843275e-02,1.231702965456340018e-02,1.395912885665893555e+00
5.554618987802184549e-01,-7.526453706098098495e-01,6.453289970501555617e-01,-3.627634170952438036e-02,-5.031586742414358160e-02,-4.174837290843718546e-02,1.361450791358947754e+00
1.139141937029466423e+00,-1.048133193434636734e+00,2.183011007258525149e-01,4.290953676882677120e-02,1.457220990747312983e-01,-1.723372134377115228e-01,1.943274736404418945e+00
6.294701075321569306e-01,-7.740066347898072463e-01,6.295868634602318492e-01,-2.760001652943268324e-02,-5.536730515497226279e-02,-2.368609196711547737e-02,1.408217310905456543e+00
5.598096423287894918e-01,-7.847518152088426291e-01,6.458056986626391494e-01,-1.270798635958912508e-02,-5.190197903614107017e-02,-2.630526369008746521e-02,1.393380641937255859e+00
4.696102211807129945e-01,-8.039421743762654726e-01,7.070813578004186972e-01,-1.838878138302256493e-02,-2.443708782129491996e-01,2.037815335412375764e-02,1.470432519912719727e+00
5.835523252067544853e-01,-7.842213343264974323e-01,5.421587978296773525e-01,-1.420720137201791043e-02,-1.731659940530866360e-01,-1.769832888266879151e-02,1.381088614463806152e+00
6.629778167270301559e-01,-7.716490989106297160e-01,6.341899068931449168e-01,2.519698716069208866e-02,-4.213697938133763136e-03,4.646535446615746370e-03,1.421163558959960938e+00
6.528965279633567320e-01,-7.080129430610812014e-01,6.317693551034652133e-01,2.265377109082248458e-02,-3.480516104083470480e-03,1.342481817883838316e-03,1.351055145263671875e+00
6.447593498830000991e-01,-7.277304967458271268e-01,6.399950946335724034e-01,4.304517368207124578e-02,4.590730009163684032e-03,6.490941029839028022e-03,1.372210025787353516e+00
5.134784569313919356e-01,-7.729860179746145254e-01,5.500278354792769164e-01,2.275418635888448032e-02,-2.146003917116809101e-01,2.667561523609238844e-02,1.358379244804382324e+00
6.636244715572334751e-01,-7.623549273292626882e-01,5.567004651278377736e-01,2.181528131579740445e-02,-6.082221577628583314e-02,4.385519136064539719e-02,1.382271409034729004e+00
6.493394772315502772e-01,-7.735483069973180248e-01,5.615515584167500851e-01,3.579806528972941798e-02,-3.945013295879710308e-02,3.667805207611243151e-02,1.385623812675476074e+00
6.451664785732519336e-01,-7.531588692214450376e-01,5.399076759906262790e-01,2.691099674455092045e-02,-1.167061910109720574e-01,2.349370034016498229e-02,1.365245938301086426e+00
5.265676903206002457e-01,-7.515783601747134668e-01,6.118025019603856585e-01,1.134322596993742570e-02,-9.031877253609112144e-02,1.143294333927068716e-02,1.332334518432617188e+00
6.025557062029495148e-01,-7.442683731626923427e-01,5.612444251846425702e-01,2.595285218105380931e-02,-7.593210334412171802e-02,1.805701409943879718e-02,1.334278345108032227e+00
5.772204024807554568e-01,-7.488775829047319421e-01,5.594019920496228204e-01,1.880812100724767524e-02,-5.839986337032261610e-02,2.136189067005187306e-02,1.322076439857482910e+00
5.589926222640424491e-01,-7.437591450368693513e-01,6.160893311888120394e-01,1.978087181243266129e-02,-5.573633141480188041e-02,1.932234117559384137e-02,1.336569666862487793e+00
6.861235029846298739e-01,-7.600172494701197268e-01,6.086937524444313574e-01,-4.579835899501632883e-03,-4.071928914722308147e-03,2.321717187306178432e-02,1.409636139869689941e+00
6.745912346313177599e-01,-7.617931587305548646e-01,6.056796159527082501e-01,9.497585034307254315e-03,-1.779952306721967713e-03,2.661282225808147411e-03,1.403305649757385254e+00
6.982947923231751508e-01,-7.674289615135168052e-01,5.284475045185190734e-01,3.759099235938200305e-04,-1.055556824926993237e-02,-1.788513383341967453e-02,1.389078617095947266e+00
5.405323388522211836e-01,-7.425724149647405792e-01,6.244582738856898629e-01,-9.466861382345852921e-03,2.860660268878919069e-02,1.291932186719732534e-02,1.328274011611938477e+00
6.306873277168367764e-01,-7.547723667737837872e-01,6.743133781756311951e-01,4.210393961435065883e-03,-4.194971028539865379e-03,-1.529360880841556386e-03,1.407819867134094238e+00
6.933372728438206289e-01,-7.845345697350000203e-01,5.245959657111503027e-01,2.599267753654302751e-02,-2.259103675998572203e-02,3.702777867121921640e-02,1.403877496719360352e+00
6.850004438565978626e-01,-7.780687041315010877e-01,5.268006083713774323e-01,3.558655214084043440e-03,-5.666808236541678347e-03,3.422420628573061285e-02,1.392045021057128906e+00
7.094383693899726229e-01,-7.686244607400073425e-01,5.206140351612291717e-01,-1.705146862955206344e-02,-3.833019901441622745e-02,2.262558218291197635e-03,1.395179271697998047e+00
6.961531755465353299e-01,-7.797276708902491915e-01,5.235173045261494185e-01,-1.645418211494857272e-02,-9.949253305101343411e-03,-3.138497528704693035e-02,1.399035930633544922e+00
5.460095619250355803e-01,-2.260267199665272342e-01,6.712585709124574418e-01,1.505892589282052108e-01,-6.573550683343194756e-02,3.620514662663304895e-03,8.885146379470825195e-01
6.719135158793978491e-01,-7.621535976843123450e-01,6.235646545386221984e-01,-1.397608809523831486e-02,-1.680984526785843369e-02,1.930065812208027476e-02,1.411418318748474121e+00
6.500858564554593544e-01,-7.419239165043161055e-01,6.124642975567022862e-01,-1.271625244165502239e-03,1.213096595718902125e-02,-1.104055038694597146e-02,1.373880982398986816e+00
6.456176303524630011e-01,-7.560734478066406528e-01,6.382996378344881760e-01,-1.937942151618656308e-02,7.899601648527661280e-03,3.947959420123522273e-02,1.400187015533447266e+00
6.462176262857370901e-01,-7.596019154257319661e-01,6.538726755108387190e-01,-1.054337445574151603e-03,-6.024960386015730876e-03,-8.560438707196806399e-03,1.409780383110046387e+00
6.295168682187466391e-01,-6.519769302359084140e-01,6.502815340451340020e-01,-5.135155805913573044e-04,4.673424441768845271e-03,9.376665286475446837e-03,1.292129039764404297e+00
6.418589565066237235e-01,-7.421793190435870269e-01,6.630686418464328824e-01,-1.503077707466464463e-02,4.571179472810730539e-03,9.990265678260536186e-04,1.395030617713928223e+00
6.393337176923612475e-01,-6.514275756078946600e-01,6.501747849871479801e-01,-3.053436457334984117e-02,-7.434288135402949971e-03,2.535689500930551551e-02,1.298101425170898438e+00
6.453492320552693950e-01,-7.171484413761601839e-01,6.385023548554378259e-01,6.208855593485982684e-03,-3.375041703000038022e-03,9.601407049484058515e-03,1.359243988990783691e+00
6.402752599097832897e-01,-7.463700806019184508e-01,6.228542167179920153e-01,1.156130926359926619e-02,1.451019952785447507e-02,-1.359741016066809589e-02,1.378593206405639648e+00
6.799275176617550764e-01,-7.749568627576133295e-01,5.613226821351562368e-01,3.078517449265740294e-02,2.852122267811756443e-02,-3.071312951174618583e-02,1.402252793312072754e+00
6.535055731789582989e-01,-6.971146017920021309e-01,6.389912544607069256e-01,2.185130557417125363e-02,-7.265837952178366352e-03,1.074533632700794229e-03,1.344015002250671387e+00
4.669550896369512594e-01,-7.321005811638615635e-01,7.385342439869154729e-01,7.798640766526515611e-02,-1.329056504701449891e-02,9.933528708259226070e-03,1.362424254417419434e+00
4.141428486407468523e-01,-7.647345186578322629e-01,8.384676461383688828e-01,-3.508421863642450372e-02,1.799107264750838403e-02,-2.472621911344898699e-02,1.441016316413879395e+00
5.723411476184927515e-01,-7.399828353403438141e-01,6.096592410293129038e-01,-9.188270706590638548e-03,1.710078653719606864e-02,1.101914314806201091e-02,1.331936597824096680e+00
5.830466566308726284e-01,-7.073164176141339965e-01,6.718352864121807100e-01,2.184087008171474442e-02,1.113407431769653996e-02,1.927692084594060870e-02,1.338061094284057617e+00
5.006618669171499780e-01,-8.041800729755318455e-01,7.338268336027069516e-01,-2.673632494493689143e-02,2.073237742989854360e-02,-4.746281716869438466e-04,1.436891198158264160e+00
4.862168319202403444e-01,-8.208325330940956510e-01,7.900425018437060576e-01,-3.963828873321874335e-02,3.736884832681892921e-02,-1.591257166143921755e-03,1.485501170158386230e+00
6.260174311680827275e-01,-7.079552201533541034e-01,6.672504992884663588e-01,1.773982196731590383e-02,2.261325200400375601e-02,1.078036185722583071e-02,1.356102466583251953e+00
6.451125906757173567e-01,-3.535158316791005007e-01,9.347401295984065772e-01,5.665361749300518168e-02,2.067761273446061809e-01,-2.429290239973418142e-02,1.228837490081787109e+00
6.261382506791414171e-01,-6.986819662608421133e-01,6.601953461217421326e-01,2.205159420087873454e-02,2.033437733278754128e-02,2.205688125125477433e-02,1.343721270561218262e+00
6.505230690172536523e-01,-6.827178494260909281e-01,6.508684210402093662e-01,4.916525767664734620e-02,2.239835615836398980e-02,-3.047189367086870770e-02,1.337734699249267578e+00
6.431818429789597502e-01,-7.731997551705754868e-01,6.502747745163311999e-01,-1.050023656001146909e-02,1.143085668781791166e-02,-1.728554564727695147e-03,1.420199036598205566e+00
5.438785598216433481e-01,-7.260647868440459618e-01,6.088752485144011128e-01,-2.168361330517323306e-03,7.533776890050527045e-03,4.756459116770544830e-03,1.303754210472106934e+00
6.308856497046186895e-01,-5.945749963154371986e-01,6.514866187413390630e-01,-1.488718717740265211e-03,3.287313609386531728e-03,6.966995381915742913e-02,1.241782903671264648e+00
6.244941910450756417e-01,-6.109811409869990717e-01,6.408853456786054448e-01,1.485808063148612648e-02,1.791225373156185574e-02,4.971165233523287819e-02,1.247380256652832031e+00
6.072775554259328690e-01,-5.083571778516875472e-01,6.166270627825006789e-01,5.000147219671351867e-02,-3.642587645498539901e-04,-5.264048214415025656e-02,1.127374291419982910e+00
6.143485035435523045e-01,-7.671001880197931833e-01,6.273406582329331682e-01,2.400289241233117751e-02,3.111382173576076812e-02,-3.636088031775362023e-02,1.391084551811218262e+00
6.481653704780381275e-01,-6.044584272502790956e-01,6.343477725025377101e-01,4.924471401338033349e-02,-9.500968021221203874e-03,-4.370344302987508311e-02,1.251089453697204590e+00
6.344172745635207056e-01,-6.508727048089026912e-01,6.354754353254356003e-01,2.517769983884486900e-03,-5.815574589357289971e-03,-4.132655248946946053e-02,1.287856936454772949e+00
6.818942134828021029e-01,-6.927323494877977161e-01,6.143491207340275873e-01,1.034789634487439953e-03,1.611900593231212729e-03,-1.303270388172508712e-03,1.342135429382324219e+00
6.789226859225150346e-01,-6.298226061676911458e-01,6.326807425060348988e-01,6.175885987489032614e-02,1.819891893070615593e-02,-1.033480087280546633e-01,1.303423285484313965e+00
6.888960697706951741e-01,-5.916627812507063711e-01,5.885757366623177722e-01,7.682192887871766573e-02,4.119106909777670716e-02,7.238674773779150626e-03,1.242731332778930664e+00
6.357412011580783062e-01,-6.704486914352359994e-01,6.174766118178793839e-01,6.018008344030435774e-02,-1.804246210672049485e-03,-1.087371195014642661e-01,1.314897179603576660e+00
7.306979107181333921e-01,-8.113711439340344223e-01,4.420390519494231674e-01,4.919686199580167174e-02,1.183036133215978891e-01,-5.599713689805335681e-02,1.440425038337707520e+00
7.771672114191590097e-01,-8.445459839068411023e-01,4.524837193530300006e-01,-7.620869767749635301e-03,7.595976578113337874e-02,1.569403746743354422e-02,1.492331147193908691e+00
7.521826607274446630e-01,-7.960968271637063332e-01,3.425418635192212236e-01,1.246329986973649870e-02,2.048329038621053422e-01,-2.815838922879337555e-02,1.435078620910644531e+00
6.354273338053557652e-01,-7.452921253522666323e-01,5.846455375231232043e-01,-1.943023009390352704e-02,2.676393278085374347e-02,3.871430704821987156e-03,1.357267856597900391e+00
6.765084315972180740e-01,-7.607599436167913343e-01,4.719643067804849546e-01,1.555485596347475075e-02,5.531138355083305147e-02,-8.411363314670548992e-04,1.350370287895202637e+00
6.730056533523139928e-01,-7.830010503252229359e-01,3.775120478909928523e-01,2.931363708807596322e-02,1.990004690981503621e-01,-4.759850861641830994e-02,1.380293250083923340e+00
6.650720679270172297e-01,-7.625785472438751933e-01,5.257030222078404869e-01,2.406222677745360056e-02,5.035697911470397858e-02,-4.266205270206298306e-02,1.368738174438476562e+00
7.315732837132007393e-01,-7.801512301454115450e-01,4.440929085764238060e-01,1.003475320998375650e-02,8.588541909288167908e-02,-2.956953055336561040e-02,1.399435162544250488e+00
7.622350295046528279e-01,-7.717497315867842822e-01,4.497405909330955964e-01,-9.017536953350531806e-03,4.248893548622076355e-02,-1.980094585555911349e-02,1.406497955322265625e+00
6.695509722506823858e-01,-7.692789661815810920e-01,5.216340922737390251e-01,2.900005580444837971e-02,6.387145695452993432e-02,-3.431616494476263934e-02,1.377526164054870605e+00
6.844164021593273084e-01,-8.073308079034152707e-01,5.563261034512305692e-01,2.420640364419226944e-03,-1.158012005968929309e-01,3.817741377304241512e-02,1.447500705718994141e+00
6.127191874080539780e-01,-5.194356321216113681e-01,6.088853549875434812e-01,-3.306794039625149135e-03,-3.599171587950241585e-02,5.153810747828356520e-03,1.132010340690612793e+00
6.078738759818649307e-01,-5.172275253575412401e-01,6.103851022899734469e-01,2.947423256599664490e-03,2.744329401871619875e-02,4.262979251195122936e-03,1.127397418022155762e+00
6.454452726340444979e-01,-8.142632083595696679e-01,6.161504020010631910e-01,1.908957515264189664e-02,-3.114994065297799208e-02,1.317267415157177303e-02,1.446848273277282715e+00
6.104005799854894665e-01,-8.191962087048363372e-01,6.644940612363987587e-01,5.207470476649871984e-04,-5.018305016789300493e-02,1.818702536059499039e-02,1.460326313972473145e+00
6.821418881377963039e-01,-7.310083859975904375e-01,5.962327928261469401e-01,-4.975803325637521979e-02,-1.581779575553844963e-01,-4.055689395131267111e-02,1.403707385063171387e+00
6.464220681501089416e-01,-7.526678662654380236e-01,6.538107697851538447e-01,2.245251972609409521e-02,1.759188741216432747e-02,2.158599320694125009e-02,1.404166460037231445e+00
6.303583074778396078e-01,-7.378088570032207416e-01,6.189302907644329554e-01,-1.624496880785487180e-02,-1.827343215331454079e-02,-1.589601537359525835e-02,1.363425135612487793e+00
6.537213906771122129e-01,-7.161528822502739589e-01,6.534219504322594796e-01,-1.381079540730846718e-02,-6.670413474641186113e-02,-8.709957260281794844e-02,1.383049130439758301e+00
6.502331527509573883e-01,-7.998043172519648802e-01,6.421844802860570134e-01,-6.178282465817206554e-02,-4.174928275889741580e-02,-5.244380882054940074e-02,1.454625010490417480e+00
6.552972205909144421e-01,-6.985164351709105546e-01,6.174131542863894317e-01,2.034356873045136196e-02,-4.211549990724372527e-03,-2.563242234499292895e-04,1.335759520530700684e+00
6.428590049795137595e-01,-5.785699275086232385e-01,6.257870503569857856e-01,7.509684710499936466e-02,-4.133949449851803855e-03,-7.199541670120809811e-03,1.220021843910217285e+00
6.469316909056465059e-01,-6.453788222465873803e-01,6.254221589557755756e-01,2.271431778938349730e-02,3.129639684102102255e-03,3.400498124883823831e-02,1.283658146858215332e+00
6.586284168941042294e-01,-7.494409886419506339e-01,6.413693095818501222e-01,2.389115115220094912e-02,-4.755736926150015177e-03,-8.836773862727775528e-03,1.400239229202270508e+00
6.340592267699900475e-01,-7.207366862874320379e-01,6.681368654746837610e-01,5.434015553644397627e-04,1.859116837051852725e-02,2.006337513037201314e-02,1.372970104217529297e+00
6.450200449724089458e-01,-7.650276090323762102e-01,6.323253762371587872e-01,-1.286915180071425413e-02,-1.314589293862794897e-02,1.478919429069656954e-03,1.404107332229614258e+00
6.662703583593180268e-01,-7.602605069727690346e-01,5.846746106363007733e-01,3.608144059050620491e-03,-2.283345654911364542e-02,9.350787426273741293e-03,1.388205647468566895e+00
6.668878163702326445e-01,-8.243423495224249109e-01,6.272839863996915177e-01,2.472637342988659448e-02,-2.927713684782928469e-02,7.904889321372503275e-03,1.473387479782104492e+00
6.866068802114538849e-01,-7.495791766088151231e-01,5.312104033089518618e-01,-1.038351923891652796e-02,-9.101700184127172605e-03,-1.820985490500095366e-02,1.365711212158203125e+00
6.638002061854363367e-01,-7.534751798732639561e-01,5.442431773713953813e-01,-2.280001783334305310e-02,-1.721172781907110566e-02,-2.522630743096033329e-02,1.363039016723632812e+00
6.246683877577926536e-01,-7.245839280813936023e-01,6.696515377727891849e-01,3.622604862332842041e-03,2.492646134706388503e-02,6.307955762179570831e-03,1.373033761978149414e+00
6.072997167416308573e-01,-7.288799937390401107e-01,5.608264623662178039e-01,-9.248900070863024653e-03,-6.537708934704281050e-02,-6.643348437111025635e-03,1.318579077720642090e+00
7.075415300055193368e-01,-7.770936185784336203e-01,5.077010441878802016e-01,-1.115407208814462106e-02,-9.349888691529456564e-02,-3.959207120584522233e-02,1.406659007072448730e+00
6.693753804156367115e-01,-7.857454725013032215e-01,5.469467479320164749e-01,-3.745594377953079951e-02,-4.790522205387344468e-02,-3.352322692479309252e-02,1.403097271919250488e+00
6.191088712526815474e-01,-7.255198546306920182e-01,5.301275396955336117e-01,-4.708127712526666460e-03,7.546319403886155019e-02,-4.820532996036222127e-04,1.308987617492675781e+00
6.272999004743881057e-01,-7.676635600490958611e-01,5.724024604669493144e-01,-8.445381606399779417e-03,-6.242391673991604106e-02,-1.160574235314414983e-02,1.372831106185913086e+00
6.219777208292140980e-01,-7.507959935914088057e-01,5.961726502946891326e-01,-2.126336610742540420e-02,-3.981452762333513584e-02,-2.018485536624371052e-02,1.362748384475708008e+00
6.675951411423174386e-01,-7.715436320893018785e-01,5.421754970676082586e-01,-2.547949085160467267e-02,-4.309358234568639451e-02,-3.895991649185114036e-02,1.385072827339172363e+00
6.183092665701894752e-01,-7.660984659255120066e-01,6.239670723156430787e-01,-1.183978000489140092e-02,-4.866693982662503165e-02,-1.673641900699083390e-02,1.390257477760314941e+00
5.050388785957313775e-01,-7.826045633853975225e-01,6.583776332366176876e-01,1.431780927481866340e-02,2.539834222340375813e-01,-6.433506554115918374e-02,1.444139480590820312e+00
5.312163465070970370e-01,-7.542292483408570281e-01,6.192838446676620645e-01,2.801912797750241713e-02,8.910788854143042448e-02,-2.512286035567030951e-02,1.342162966728210449e+00
5.201625875434267021e-01,-7.552529644343788373e-01,6.818598385104002180e-01,2.115426596271725856e-02,6.581950204471963273e-02,-1.823653377259156633e-02,1.369086861610412598e+00
4.474539074811303974e-01,-7.828232297958769292e-01,7.057798784365451050e-01,2.943121466466649266e-02,9.883668369664103115e-02,-2.481948103959760385e-02,1.389920592308044434e+00
5.802092360243511493e-01,-7.636511296677155336e-01,6.847571896968961402e-01,4.297420635684593565e-02,2.772032248475977262e-02,-3.472909626060639160e-02,1.403158187866210938e+00
5.160237634310113064e-01,-8.306918772541164175e-01,7.052750524763935491e-01,9.194463628696804627e-03,1.559863776485431452e-01,-3.527238390426030296e-02,1.476925134658813477e+00
4.266413180588954357e-01,-7.810183952201145141e-01,6.293575374079275475e-01,3.891366716538790377e-02,1.876399465973803693e-01,-3.050935842297863507e-02,1.362831473350524902e+00
5.406219232869808877e-01,-7.882124550727545031e-01,7.059674571273171217e-01,-6.586376067435058268e-02,-5.934781836721818304e-02,-1.098165941940090588e-02,1.427164673805236816e+00
6.343503572731667983e-01,-7.163085113743157262e-01,6.729289705300511848e-01,4.756192495320656771e-02,-3.904685296819404312e-03,4.189094379216121156e-02,1.374762177467346191e+00
5.513483932125523568e-01,-6.260120153997853487e-01,7.194900795714624930e-01,-1.280051999015333238e-02,-4.416976018277276456e-02,2.498106327157050693e-02,1.273039340972900391e+00
4.105387566431406010e-01,-8.031477665667886567e-01,7.314749353248568564e-01,4.944130343568438335e-02,-9.163171171119599556e-02,2.127616181657374095e-02,1.414012551307678223e+00
6.942962266313158493e-01,-9.394658874511397917e-01,3.241326804151372087e-01,-8.236025226731065463e-03,-3.964270162061820924e-01,-2.841365931658694846e-02,1.635704517364501953e+00
9.691549037928274268e-01,-8.113445465688771119e-01,6.732864384753167730e-02,3.750960355108038519e-02,-1.880995113388813644e-01,1.717515293052091028e-03,1.577384471893310547e+00
7.615964164344579679e-01,-7.904502332873980519e-01,3.106995149795765965e-01,1.903206904000932656e-03,-1.133842009234447001e-01,-3.699647074514736313e-03,1.396769046783447266e+00
7.378692477624485546e-01,-8.254747646913763726e-01,4.471245401130524155e-01,2.820332720829817064e-02,-7.452426646474964722e-02,1.609343209157491905e-02,1.447020292282104492e+00
7.686652619609135595e-01,-8.450531305348125688e-01,3.717562815392469466e-01,4.233822896885591075e-02,-1.764908565290583542e-01,7.684188511735043359e-02,1.495882034301757812e+00
7.846045800276707505e-01,-9.283671648861020476e-01,4.380804799295205387e-01,-2.161850170494587081e-02,-2.173068245306816748e-01,-5.248393731578242932e-02,1.616198539733886719e+00
5.792053498149979385e-01,-5.084008971358339180e-01,6.517367078552026571e-01,-1.557752751107714488e-02,-7.920412505486161547e-03,6.177486558389917726e-02,1.131104946136474609e+00
6.314836424848024876e-01,-5.331077426167235567e-01,6.353296400709089742e-01,-5.075840656113770472e-02,5.803586937964884049e-03,6.777559973703653484e-02,1.175745606422424316e+00
5.919813048958204593e-01,-5.194802691561513086e-01,6.411033066150972903e-01,-1.980152970420914413e-02,-8.178758298030676041e-03,5.124866133983524419e-02,1.140882730484008789e+00
6.545804762983010727e-01,-7.376704572496015633e-01,6.386784086289902795e-01,-8.234063399881859846e-04,8.310117962085991281e-03,-3.357399258183319836e-03,1.384456157684326172e+00
6.220295350048741234e-01,-4.561112337719848142e-01,6.167554465102246253e-01,1.469212227026866612e-03,-7.980515785935608786e-03,9.468741242874520458e-02,1.088036656379699707e+00
6.396713352190741553e-01,-6.953130217418377335e-01,6.594084491395157954e-01,-3.226034998934008274e-02,-2.220727847921442899e-02,3.195117586948977018e-02,1.347807765007019043e+00
7.440398015229502393e-01,-6.105222393961676763e-01,5.458565364459621039e-01,-1.307011001743991693e-02,7.844643209121668348e-02,7.550612702670253529e-02,1.281304359436035156e+00
2.623023222912624908e-01,-8.916938947692368833e-01,9.315861877446329764e-01,-5.540980079010460885e-02,4.554723957214878299e-02,1.238359005616541941e-02,1.602464914321899414e+00
3.642146731760688705e-01,-7.495060653336023115e-01,7.865189870667219640e-01,1.038065488443865557e-02,3.274399486899893380e-02,-5.125717731046156890e-03,1.375740647315979004e+00
2.457201170415068414e-01,-7.667614168936650598e-01,8.257968456971177540e-01,-2.167476420348340288e-02,-2.764284499713650853e-02,-6.380078485718479291e-03,1.397407889366149902e+00
2.846307710821305292e-01,-7.555242412125539042e-01,8.947449027631863006e-01,-5.131033249118512399e-03,5.203530211554437818e-02,2.862819288287444391e-02,1.448942899703979492e+00
6.723062606942762365e-01,-7.364844733520585773e-01,4.992532315860682135e-01,-1.056041247313573538e-02,1.256989373107995356e-01,-9.343072727192244797e-03,1.348643898963928223e+00
6.482592923922729788e-01,-7.641573516321934489e-01,5.664392942201443848e-01,5.151012649831338691e-02,8.755540784313882441e-02,-4.765221623692908470e-02,1.387018799781799316e+00
6.742668272802467833e-01,-7.546860444721810168e-01,5.349533850700871618e-01,4.408297069870945745e-02,4.045773942212684687e-02,-4.774670538563139527e-02,1.371065974235534668e+00
7.665420550650374754e-01,-9.119592969957794892e-01,3.903734017749196927e-01,1.133489719808736251e-02,1.694324329080551805e-01,5.571263372801941310e-02,1.556691765785217285e+00
6.875708514265094218e-01,-8.607484801630309601e-01,4.482326305478362971e-01,2.762875538411846410e-02,2.420457818888759882e-01,-1.786047533818594865e-02,1.504330158233642578e+00
5.652720804502675556e-01,-7.650168950181076566e-01,6.118258036559603985e-01,3.955157773596670173e-02,1.491551655049990766e-01,-2.792543898768613808e-02,1.381137251853942871e+00
6.082270996989862510e-01,-7.419963430286828920e-01,5.197869303425733944e-01,1.891239316868163073e-03,1.072990997865232027e-01,-6.765085475209476696e-04,1.321386575698852539e+00
6.445831513212716413e-01,-2.012543741364005712e-01,6.193936300353120039e-01,6.455010178151732170e-02,2.083264229571649973e-01,-6.295800213118078748e-02,9.216074943542480469e-01
7.362248986294827047e-01,-2.884054413050026744e-01,3.585774388340954300e-01,-4.678542491737320425e-02,6.126316725099651556e-02,-1.345671001592867178e-01,9.368494749069213867e-01
6.753858876862173233e-01,-2.882349616318715668e-01,5.481318436964138785e-01,4.280745718891789536e-02,-4.319103138671773895e-02,-1.597394837368283915e-01,9.538228511810302734e-01
7.686593018536582722e-01,-2.299638155258318939e-01,3.600660059448087535e-01,-3.109484302096253427e-02,2.462900752848613470e-02,-2.006400628279966236e-01,9.389652013778686523e-01
6.234899120095127589e-01,-3.840562659389494815e-01,6.128567703781511167e-01,-1.268667050945863212e-02,-9.202682899990263093e-03,-1.140236014330824610e-01,1.021905064582824707e+00
6.746343935840739547e-01,-5.686447128699454456e-01,6.130814771754742321e-01,-1.906837915024079191e-02,5.015811224978117093e-03,-9.570320126637417435e-02,1.225417375564575195e+00
7.175421018058969480e-01,-5.716960715159818962e-01,6.424068300711633928e-01,-1.963741012521620210e-03,3.077197923968154531e-04,-1.809849219861407732e-01,1.291971921920776367e+00
6.308820133978638722e-01,-7.163181900457974427e-01,6.446337203911125524e-01,1.910840088840983289e-02,4.055494814881233437e-03,-7.471119870867225579e-03,1.354612827301025391e+00
6.356628802588992766e-01,-7.661378964573695161e-01,6.544930675224729377e-01,1.433968624141286272e-02,1.154956822182140637e-02,3.708090060428654959e-03,1.411684989929199219e+00
6.674277564771495808e-01,-7.586976241736864690e-01,6.448545696706202701e-01,1.502699665780668319e-02,2.140024749675252524e-02,-3.101272500627480359e-05,1.415698528289794922e+00
6.523057166771705218e-01,-7.458085338160383992e-01,6.464359790368602310e-01,-1.642835432534289677e-03,1.580874535807669234e-02,-2.458979161669461524e-02,1.396110057830810547e+00
6.420934330202358042e-01,-7.465129843712338120e-01,6.459471360998672029e-01,-1.762103300309567468e-03,9.952411097767177584e-03,-2.110299973157444327e-03,1.390652298927307129e+00
6.018301467506906866e-01,-7.452025944142929292e-01,6.057459573147427889e-01,1.738182504463531633e-02,-1.022441424444902464e-01,2.727983067415216956e-02,1.361722350120544434e+00
6.411984633152603141e-01,-7.957676844692715967e-01,6.626110467135453153e-01,-1.484029553339621769e-02,-4.481993000470138014e-04,-8.716791727406280818e-03,1.448098301887512207e+00
6.198466051671951416e-01,-7.661043512895553409e-01,6.380257803944933137e-01,3.160192485453125477e-02,-6.218085767068597808e-02,2.692235882289781626e-02,1.401126623153686523e+00
6.424973672926511670e-01,-7.837467542164128220e-01,6.539432991705548259e-01,1.503740437247022034e-02,9.523586156953627729e-03,-2.064689951283173522e-02,1.432779550552368164e+00
6.461350138582084845e-01,-6.115098665044776949e-01,6.243887670286339953e-01,-2.099112429903588276e-02,-3.140336922638314876e-02,-9.308432730282807654e-02,1.258995175361633301e+00
6.822003074178387694e-01,-8.838766895002345692e-01,5.913889537285663689e-01,2.062995895938805543e-03,-3.286260042871757409e-02,-7.146056145349295730e-02,1.528789997100830078e+00
7.031556649396422110e-01,-7.100739485522062910e-01,5.846872844829020810e-01,-1.063059385658101791e-01,-2.677469993727687667e-02,-7.752372459080579536e-03,1.371154069900512695e+00
5.037299579737734012e-01,-7.334969354672667974e-01,7.061912661337935715e-01,1.609355153277537698e-02,6.401331149204485260e-02,1.462076247083901950e-02,1.354962348937988281e+00
4.635388602373736178e-01,-7.937822405136825132e-01,8.026794086408338691e-01,-1.622450605441223478e-02,-4.174028678439068579e-03,2.111339101702591498e-03,1.457098722457885742e+00
4.213090516424033982e-01,-7.661470853330916153e-01,7.932343582690867256e-01,3.572745080354875532e-03,3.301443228830368976e-02,-3.887765935243478205e-03,1.411870718002319336e+00
4.633029516612444665e-01,-7.415214725333353352e-01,8.008742325634053971e-01,3.601132233835419721e-02,7.021627847594248684e-02,-9.693958967007514776e-03,1.411110758781433105e+00
4.412510071194223893e-01,-7.518665710079064368e-01,7.314906491361488072e-01,7.550940053712945632e-02,3.541932903610724246e-03,2.341927962517849696e-02,1.368519902229309082e+00
6.728603057959199329e-01,-7.019852180163265176e-01,6.218782727731233528e-01,2.226410999379960926e-02,1.363603449020352534e-02,2.486436458385011660e-04,1.350833773612976074e+00
4.962292795194971906e-01,-7.514005652628680254e-01,7.215423604821660231e-01,-2.722258708180846920e-02,1.236187418847402297e-02,1.008606135469524920e-02,1.375296473503112793e+00
5.657697098012980375e-01,-7.331302239350847572e-01,6.710470864417731329e-01,-9.686946355666372754e-04,-1.743465359178546226e-02,7.706535761526095256e-03,1.355013608932495117e+00
4.114545955347603812e-01,-1.376099340668383464e+00,9.648172704737206784e-01,1.637237680557602007e-02,-4.872481216618262390e-01,5.521954560501347170e-02,2.283179521560668945e+00
6.024271753040397748e-01,-7.622003248392769104e-01,6.467652721279151251e-01,-5.021829849028477087e-03,-3.241356106269420705e-03,1.759748791948563540e-02,1.387701392173767090e+00
6.448167440357152058e-01,-7.429079291909369553e-01,6.568643320128273455e-01,-2.502286792932045811e-02,-6.715808036917013044e-03,9.516473368774871003e-03,1.394607186317443848e+00
6.498516940102234685e-01,-7.556640228702852236e-01,6.458929500480101726e-01,-7.745161632646146987e-02,-1.508225586481511983e-02,-1.514521800209063301e-03,1.410181403160095215e+00
6.833244550897928926e-01,-7.462625267704183774e-01,6.187833398131228346e-01,-1.325764595317775393e-02,-4.830492324080079211e-03,-7.126624685333423498e-03,1.398701906204223633e+00
6.632217265527255989e-01,-7.039808251881036760e-01,6.193664794095694592e-01,-2.015923245815811130e-02,-2.027305820710996638e-03,-6.498974643965830557e-03,1.346315503120422363e+00
6.890817883035300628e-01,-7.046015985505309498e-01,6.157066808642976952e-01,7.578562038451903612e-03,-2.673059319247212198e-03,-2.447828303294324534e-03,1.358560800552368164e+00
6.625599939909900815e-01,-7.129478406091609433e-01,6.372774974770327727e-01,-2.280145249145791239e-02,-1.155869775075507415e-02,1.738644122658701552e-02,1.364093899726867676e+00
6.697940031576445907e-01,-7.563456754986458419e-01,6.393753777846256092e-01,-1.938721747621246355e-02,-1.347263712471138963e-02,1.663636143585859803e-02,1.412062644958496094e+00
6.006350653703229625e-01,-7.571993938165438864e-01,6.091625322670776166e-01,1.344648362733408438e-02,9.929837801696437052e-03,-1.537253505845999520e-02,1.362686038017272949e+00
7.452720237016062788e-01,-9.437759425852250139e-01,4.249619499829755953e-01,-2.118009270899828128e-02,-2.705456351050282149e-01,-6.517019555178021374e-03,1.623428583145141602e+00
7.608440282439354885e-01,-7.870758843822968087e-01,4.615678777280209921e-01,-6.671322985153222383e-03,9.234374060701214942e-03,5.037671323953180763e-03,1.422263026237487793e+00
7.375693568263359534e-01,-7.874953838477953827e-01,5.182516395436261858e-01,1.894023558536328880e-02,-2.947279587254981320e-02,5.362611476863861359e-02,1.432396054267883301e+00
6.792366563586215156e-01,-7.921565119955650269e-01,6.065097548303569619e-01,1.777396286505307163e-02,5.343281335524135457e-03,1.322850151247330699e-02,1.436953544616699219e+00
7.305201320487036964e-01,-7.605130595710634100e-01,4.527703829992872908e-01,1.383479681476460811e-02,-4.377930378578453324e-02,6.230454083450024522e-03,1.375729441642761230e+00
7.842640018368335353e-01,-7.706813137841630468e-01,3.775928601956397568e-01,-7.095829843739568559e-04,-1.040702127693478724e-01,5.792412806364844596e-02,1.411893725395202637e+00
2.961522375885469738e-01,-9.454723766075034952e-01,8.765725054256129356e-01,3.701291495477473936e-02,2.054815723458094934e-01,-4.249564359937551411e-02,1.653898119926452637e+00
3.904600118826619948e-01,-7.534069540570275114e-01,7.529680423571625258e-01,5.112815709656996083e-02,7.325403563197670220e-02,-3.251839433632314896e-02,1.371720671653747559e+00
3.888370454692427480e-01,-7.753954309449878624e-01,7.665135138931001846e-01,-2.096576174143876398e-02,1.658257639004874495e-01,4.015844701953701079e-02,1.423527717590332031e+00
4.115352176938120166e-01,-7.663843707811316408e-01,6.963182616997795060e-01,-2.504283146037607904e-02,1.074977215071678677e-01,2.255744842671508071e-02,1.357248187065124512e+00
3.206816659487848886e-01,-7.450144931773297063e-01,7.694026537006981581e-01,-5.253181277046112610e-03,9.237670036934601814e-02,-1.178105850529052390e-03,1.356814742088317871e+00
6.131420458982523858e-01,-7.553138036043127723e-01,6.061105904842953862e-01,3.560647708938822695e-04,4.766413114766865876e-03,-1.931471080971800154e-03,1.364982962608337402e+00
3.894528024151878154e-01,-7.976671478845370755e-01,7.994843179861819138e-01,2.815246953588961334e-02,1.432528634532089229e-01,-7.012767883192207348e-03,1.458843946456909180e+00
6.493432936085969942e-01,-7.780514966506382191e-01,6.470732898267083089e-01,-1.691997705655849497e-04,5.908467472712502534e-03,-1.462415451930965419e-03,1.426300168037414551e+00
6.459548869863842580e-01,-3.590944278220278285e-01,6.599828124161528642e-01,-1.011710165681758006e-01,-1.262939823759813909e-02,8.990552633853374220e-02,1.039160132408142090e+00
6.394347326006791787e-01,-6.323070947375992734e-01,6.452600279109454995e-01,-1.316416999529841647e-01,-1.720686651083494544e-03,1.892419857575569284e-02,1.295315146446228027e+00
6.253148876219731811e-01,-2.742999227007405505e-01,5.677580881267227930e-01,-1.231909667121989099e-01,4.028549730835373315e-03,-2.595512373640321974e-02,8.991320133209228516e-01
6.357085624400274915e-01,-5.275469522859378424e-01,6.179314733449821073e-01,-4.159815285495427339e-02,-1.650844314065063462e-02,1.040154944793406366e-01,1.171010971069335938e+00
6.354409750259568668e-01,-7.602491275991472008e-01,6.486593243640127460e-01,8.066282004846997075e-03,-2.631262993739891688e-04,-2.042788897095682270e-03,1.402420163154602051e+00
6.248401156232007425e-01,-7.591900320228289756e-01,6.295321796953297078e-01,-1.686342476564690190e-02,2.494901594320102223e-02,1.935648964034513905e-02,1.387767910957336426e+00
6.326504726983057658e-01,-7.732085453697155053e-01,6.442111377664299088e-01,1.660392322452906508e-02,1.513291717536071734e-03,-6.142809107176969282e-04,1.411970615386962891e+00
6.116704875113765372e-01,-7.587912201782814892e-01,6.322858608907389044e-01,-2.989046177263942825e-02,3.017889388317102073e-02,1.860532927883014331e-02,1.383218646049499512e+00
5.985284850548817648e-01,-7.598992747227163447e-01,6.627534171262157159e-01,-1.967595659048062412e-02,6.663509173466998330e-03,1.708747915217317254e-02,1.392431855201721191e+00
5.901315063197229982e-01,-7.580164300638853048e-01,6.476532455758375884e-01,-2.354946119407278285e-02,2.504279276286204559e-02,2.694166711395503885e-02,1.379884839057922363e+00
6.267935904415946613e-01,-7.559319777448787470e-01,5.741736754166338885e-01,-3.165782358911341243e-02,4.168141086516077842e-02,2.594111588988198824e-02,1.360947251319885254e+00
6.156117890608245879e-01,-7.572378059508841908e-01,6.269426903924537609e-01,-1.908094308888564489e-02,1.136614819749631050e-02,2.560312320373789655e-02,1.379799365997314453e+00
6.527698018029262084e-01,-7.790713845931589443e-01,6.180764213422291764e-01,2.545853853513822124e-02,3.330900392226576745e-02,-2.948038895971719434e-02,1.417595744132995605e+00
8.774942064251962659e-01,-8.054158088645343438e-01,1.949404920324183665e-01,2.207029077776079956e-02,-3.141480359756127494e-01,7.380242729704829079e-03,1.564314842224121094e+00
6.308069437758880849e-01,-7.587432574095193116e-01,5.844251825048298876e-01,-1.001145906869014765e-02,3.472362293912987369e-02,1.566829596027422347e-03,1.368384599685668945e+00
6.065004246549634548e-01,-7.723538364803410605e-01,5.787646686953569208e-01,-4.117205944643985427e-02,1.029061736000306398e-01,3.745981079191593177e-02,1.380155444145202637e+00
5.611683875622563988e-01,-7.730068279748285587e-01,6.156224083174609563e-01,-4.573250349383813085e-02,1.204540860961945958e-01,4.173560598566117968e-02,1.382268905639648438e+00
6.543792209568286555e-01,-5.521540856578307510e-01,5.668615824985376861e-01,-4.405441441444328532e-02,5.310949790057034039e-04,-3.225707691832342249e-03,1.167751431465148926e+00
8.030450649475282532e-01,-7.486037080326427562e-01,3.541455467628757958e-01,-1.169997019780844808e-03,-3.347937309653665344e-02,7.816388018330677973e-04,1.384181618690490723e+00
5.591429735735919948e-01,-5.113066750279551265e-01,6.996688282044387641e-01,-1.246373722753614383e-01,-3.929313906868346640e-02,-1.036208372322763999e-01,1.182997465133666992e+00
6.281915468322025742e-01,-7.613617076837074782e-01,5.456448423099966583e-01,9.797734850237596257e-03,8.695603419736878947e-02,-2.344259000987397590e-02,1.359260797500610352e+00
7.495307368490224942e-01,-7.543168404409533734e-01,3.896104509876789912e-01,1.141698234789673312e-02,1.269929382510943672e-01,-4.891864821679902178e-03,1.377925753593444824e+00
6.032581021750551553e-01,-7.400792626919047157e-01,5.494683050222738396e-01,3.661356303663650807e-03,1.484933248722616339e-01,4.262092613763181215e-03,1.342175960540771484e+00
6.028782002360564274e-01,-7.934550965868389927e-01,5.554598221692454985e-01,2.411448335499934148e-02,1.654627230388562853e-01,-1.239891182312129018e-02,1.403610587120056152e+00
6.936734269472817349e-01,-7.673428677393047126e-01,4.223900971103226598e-01,2.120475567707121728e-02,1.533795551771438836e-01,-4.191878699350889276e-03,1.372512817382812500e+00
8.123973809669434720e-01,-8.092879068967387957e-01,3.335337464658669204e-01,7.663230519596758890e-03,1.176116367449296235e-01,-3.236331399274453013e-02,1.458568930625915527e+00
6.294664400297270701e-01,-8.893542764703715742e-01,4.775477031115802351e-01,3.521909179999428707e-02,2.318906154711756484e-01,2.840580938154036936e-02,1.505529761314392090e+00
5.829990355018537240e-01,-7.740775721489620009e-01,6.969466861843158778e-01,1.061869050852116969e-02,-9.895734704376676558e-03,4.512653489919084618e-03,1.417734026908874512e+00
6.469379964542198991e-01,-7.115488675962887699e-01,6.546002086030067169e-01,3.389846620811303585e-02,1.993918973219268795e-02,1.538781718799167586e-02,1.364296436309814453e+00
6.287567321531241094e-01,-6.351898473453018168e-01,6.510268254352334916e-01,1.314436155555084862e-01,4.369150400091448283e-03,4.053953002373154868e-02,1.297314524650573730e+00
6.688438487013733669e-01,-7.515089782413930664e-01,6.768883930005697991e-01,5.989821714110772632e-02,-1.741387755771986109e-02,-2.943312695823895909e-03,1.428492903709411621e+00
6.093028956144697084e-01,-6.942672730865735442e-01,6.534916989276884358e-01,3.604779265546850797e-02,-2.887460793245678198e-02,-1.051200448778010117e-02,1.328752040863037109e+00
6.181341860631377472e-01,-7.239433273396920221e-01,6.383795329495540738e-01,3.100904482324005548e-02,-1.706314951947707562e-02,1.291220188649913614e-02,1.353887438774108887e+00
6.351160394778792018e-01,-5.643553087695014625e-01,6.218281004091256170e-01,-5.519034614069705247e-02,-4.154050132531479991e-03,1.060662338561243513e-02,1.196869611740112305e+00
6.548255160111458029e-01,-7.615048127934704869e-01,6.423690529901249224e-01,-2.150045685625327427e-02,-3.903708984706442562e-05,-6.183668924196297420e-03,1.410675644874572754e+00
6.512246256437236314e-01,-6.992338531774259236e-01,6.373139749752008143e-01,-2.160750526669759017e-02,1.873096542086084490e-02,-1.698192447850361761e-02,1.344791531562805176e+00
6.480693293054996529e-01,-7.794241273157950234e-01,6.479064938654826022e-01,-6.306017615867051066e-04,-2.565068734697494458e-03,3.132464020869092213e-03,1.427429676055908203e+00
6.542567549865485610e-01,-7.142853334521973574e-01,6.238918395687506058e-01,-1.709862269283823552e-02,7.691109269218756456e-03,-9.775006641825998311e-04,1.354005575180053711e+00
6.581661978981352412e-01,-7.592573585100653721e-01,5.929247926876917152e-01,-1.599402292362819486e-02,-1.488148754689514342e-03,1.122308484703481678e-02,1.386370539665222168e+00
6.208729747018536527e-01,-6.453482498422018487e-01,6.892610761381390283e-01,6.947594728547254461e-02,-3.359425131862397995e-02,9.099688867594639408e-02,1.318065047264099121e+00
5.693061000526111748e-01,-8.200153690052317534e-01,7.028987227056491260e-01,5.427643198447735379e-02,-8.466007900709192346e-02,-2.520871590288856212e-02,1.471703290939331055e+00
5.755087265369873695e-01,-7.059638807426770191e-01,6.570292306727645304e-01,-2.499628148767061089e-02,-4.072677332511938364e-02,1.134307879484336597e-02,1.326846003532409668e+00
6.418216523539708174e-01,-5.489082972343174438e-01,6.627074878240066802e-01,1.243310413527092262e-01,-3.466432580765519550e-02,5.318182039068115180e-02,1.225401043891906738e+00
6.208928335642924790e-01,-7.289421446462255316e-01,5.346716241171347583e-01,-8.766984625947578727e-03,-7.205203732181882093e-02,-1.297021642781873065e-03,1.314881801605224609e+00
5.989007577016458583e-01,-7.987059091132304722e-01,6.700690126257953239e-01,-1.249555298571711215e-02,-3.316431562784226406e-02,-4.225139323199914726e-02,1.437691926956176758e+00
5.947004420219486054e-01,-7.493158385701702562e-01,6.525171031035259528e-01,-1.935249097223560102e-02,-1.472823795828148014e-02,-9.225722326196124368e-03,1.374575853347778320e+00
6.276925544297273785e-01,-8.002790796358707492e-01,6.564762243585263723e-01,-4.633072432423930576e-02,-4.513754861921843303e-02,-5.873347359912139271e-03,1.446958541870117188e+00
6.007920517810059202e-01,-7.532487238333384072e-01,6.321574554037283633e-01,3.682510022099942052e-03,1.371760016437384780e-02,1.658831528029952162e-03,1.370216608047485352e+00
6.480666794046632262e-01,-7.645943958869929613e-01,6.393055768009163753e-01,-1.395577034780190115e-02,7.556433893489313339e-03,4.628896812270953155e-03,1.408591985702514648e+00
6.436472209325185823e-01,-7.356591167787061014e-01,6.407025401970005696e-01,-8.449059342309075266e-03,2.206479002700652541e-03,-7.045340191577247752e-03,1.377973437309265137e+00
6.217967376386661638e-01,-7.645265648769256073e-01,6.303015647431267077e-01,-1.204071581930090361e-02,-2.613817380256286751e-02,-2.047624788046876077e-03,1.391492843627929688e+00
6.360164704804547320e-01,-7.153187567708251260e-01,6.435598655384702216e-01,1.084761946080367578e-02,3.123252844893968454e-04,-8.185121198947242424e-03,1.355327129364013672e+00
6.414215725458011219e-01,-7.885717130692454502e-01,6.440842340712285008e-01,1.262503504404606167e-02,5.487851036986093493e-05,8.959285645755219255e-03,1.431577563285827637e+00
4.555007271510555511e-01,-1.182970616445688572e+00,8.983797316847101921e-01,-1.322841332678638959e-01,3.663897007406420880e-01,5.229294497257527125e-02,2.017374515533447266e+00
6.058456694573004508e-01,-7.289978853203724629e-01,6.240011090322776788e-01,-3.072188214466218398e-02,-8.557355337948528706e-02,7.972196406243707914e-03,1.353278398513793945e+00
6.295153351630667915e-01,-7.588164964879356988e-01,5.024682304767726926e-01,-1.825755326032990969e-02,-8.663659006895028936e-02,-7.725719993250293460e-03,1.338252425193786621e+00
6.847845050258770661e-01,-7.517519571169265502e-01,4.848631813518847200e-01,-1.498837447759772228e-02,-7.322807476364080748e-02,-1.263451538586284929e-02,1.354123711585998535e+00
7.103777104949785537e-01,-7.921769677388612596e-01,5.207470362419199805e-01,-5.716458132335811362e-03,-6.501517007326151898e-02,-6.163610389293076863e-02,1.425789594650268555e+00
6.558576402015257045e-01,-7.180857810735743474e-01,6.582566294073259883e-01,1.956019028546344268e-02,1.079884187936857622e-02,-5.045269038687938412e-02,1.378461599349975586e+00
6.300614575081127100e-01,-5.661358002461938099e-01,6.476010036409287629e-01,-6.457778827090118355e-04,-6.234135478450179672e-03,-7.460094902709524245e-02,1.212018966674804688e+00
6.515461695756061822e-01,-7.161570275402335817e-01,5.770649929007891643e-01,-1.083771977229360146e-02,8.776849326120919961e-03,-3.061541502474548603e-03,1.332254886627197266e+00
7.717494971086454880e-01,-7.461633081388884259e-01,3.796581717269476020e-01,-4.875182313799098291e-03,-3.919088013341234106e-02,-7.090952722440960546e-03,1.366551995277404785e+00
6.462275176600856819e-01,-7.598180282945965480e-01,6.507012054398511047e-01,-4.638329869955124495e-03,1.213145430992238968e-02,-7.743788917181376567e-03,1.408531188964843750e+00
6.476323183362817648e-01,-6.626500024093070484e-01,6.414819634307264984e-01,1.091121772794268916e-03,2.981195604269428184e-03,3.336006269806610774e-02,1.308505892753601074e+00
6.390182089169096358e-01,-5.328672757790651193e-01,6.016362514579847165e-01,5.815390828372041937e-02,-1.134473499827624507e-02,5.488292978513741732e-02,1.162098884582519531e+00
7.250995249052948344e-01,-7.452986621112998034e-01,4.207928858347929624e-01,-6.614795085091845599e-03,-2.767300844372838631e-02,-9.638840260849469710e-03,1.345335960388183594e+00
6.299457036619757755e-01,-7.259460745578382168e-01,6.564859464313450577e-01,2.425984580214879741e-02,3.172310939005466065e-03,4.931590027922840708e-02,1.372670650482177734e+00
6.220821746407589892e-01,-3.054359592291274739e-01,5.784951503944288920e-01,2.005727224170003944e-02,4.157808919155029682e-03,-3.542538084850467561e-02,9.092774987220764160e-01
6.266067404478415925e-01,-3.622179055961051164e-01,5.795417649418102002e-01,1.033877034778951237e-01,-1.935984546336658521e-02,-4.308354616736041753e-02,9.860072731971740723e-01
6.012306621566021470e-01,-2.685804567026591760e-01,6.041532990170358497e-01,4.258070774602223940e-02,-1.532672855616078016e-02,-3.413215636739300868e-02,8.767902851104736328e-01
5.943347741895467218e-01,-3.705237014521588490e-01,6.896159625020049644e-01,4.985420633863264783e-02,1.068429641548588813e-02,-1.115359888639575053e-01,1.037826061248779297e+00
6.306948703386378030e-01,-4.663532825224144807e-01,5.980297963935381489e-01,1.249929935177786083e-01,-2.442203735502829209e-02,-2.159955393289170189e-02,1.103995084762573242e+00
5.480578029475329238e-01,-7.298756573160938288e-01,6.258441619886156992e-01,6.752572545837073545e-03,6.314277191465406114e-02,-1.172359934579773541e-02,1.323284029960632324e+00
6.192233116564482831e-01,-7.302309969316607141e-01,5.482587853867809669e-01,1.533471499643164135e-02,7.641232728720388778e-02,-1.601572235344345466e-02,1.322607636451721191e+00
5.943348553068406037e-01,-7.405744088046959384e-01,5.802000342824855661e-01,1.468781266276222809e-03,1.301608891777872867e-01,4.617009038677692169e-03,1.346926093101501465e+00
7.333963310925013523e-01,-7.494116378280919477e-01,4.136216386200287642e-01,1.884761873437789314e-03,-4.045402735704832498e-02,7.231789817338723364e-03,1.353472590446472168e+00
8.031997173598856010e-01,-7.556123459835806244e-01,3.965175959889249979e-01,-5.267282077538099072e-03,3.747069650071339908e-02,1.181524362455566197e-03,1.402014255523681641e+00
8.857691089964861986e-01,-8.434143149907676884e-01,2.581330514942772325e-01,1.372644545995689407e-02,1.369318437895106488e-01,-6.635086816739678428e-02,1.539067268371582031e+00
8.231958904172459457e-01,-8.457683819418077009e-01,3.665845472894209700e-01,-2.885011207161253363e-04,6.903888675416687548e-02,-1.026430987448637422e-01,1.509229540824890137e+00
6.352068620932762588e-01,-6.295028427155112682e-01,6.410618972589059439e-01,1.710011540750161138e-02,-8.063654830853593351e-04,4.137466380107601011e-02,1.270017623901367188e+00
6.556212568546672115e-01,-7.744361685394965944e-01,6.357339740491121383e-01,5.188228062859119409e-03,-2.858211536999025909e-04,-1.692452500786684882e-02,1.420549273490905762e+00
6.620297030725532661e-01,-7.171589322404340328e-01,6.371558510681540888e-01,-1.423691229458983083e-02,-2.797615277216227575e-02,5.940527714710969361e-03,1.368041038513183594e+00
6.375696232506227190e-01,-7.517050865040235674e-01,6.503520784921184017e-01,7.473830759986891011e-03,-1.572096724231933362e-02,-5.977113357134825229e-03,1.396073818206787109e+00
6.329800198522774757e-01,-7.482887019320678679e-01,6.704175234643783288e-01,6.846292927935770239e-03,-1.663366761013303913e-02,-1.218040595354227817e-02,1.400868296623229980e+00
6.363314420530048476e-01,-6.819172915121922696e-01,6.538903988591440175e-01,5.150378478744171637e-03,2.076683242234135876e-02,1.806690502471283016e-02,1.328001379966735840e+00
6.474297582541639340e-01,-7.746373164193937066e-01,6.423672615320266122e-01,4.808939292630215988e-03,-1.865705721609288762e-04,7.468604416048749486e-03,1.419625997543334961e+00
6.339231331576120620e-01,-7.425451826797448973e-01,6.444622800059166545e-01,-6.988775207937736496e-03,2.572270862081501436e-02,4.532881708670871007e-03,1.382561445236206055e+00
6.353271568606173592e-01,-7.518037090567228908e-01,6.633128121846357805e-01,-1.317427042022443692e-02,-7.236149839558492051e-03,1.172478240416546108e-02,1.401722192764282227e+00
6.154124774600246983e-01,-3.934803083599054396e-01,6.558916055523305033e-01,-4.054112440788412708e-02,3.207685995632978543e-02,9.312708633257605912e-04,1.033616185188293457e+00
6.387075661400967164e-01,-5.843685916216264653e-01,6.386633689881675569e-01,3.584294368900086541e-02,-1.363762472879768463e-02,3.536154143450280507e-02,1.226386785507202148e+00
6.292098016394381821e-01,-7.471413857068794906e-01,5.942492153498062368e-01,-1.124045539749380122e-03,-2.949569230264612388e-02,3.208392268966523114e-03,1.360180616378784180e+00
6.511525518947912650e-01,-7.370346114950352412e-01,5.747517969438602492e-01,2.989160629007014958e-02,8.589477318168325937e-02,-3.494177956353269367e-03,1.360769271850585938e+00
6.587282599527091165e-01,-7.910861171229088828e-01,5.955287600920151636e-01,6.092214123961541862e-05,2.811290362218196379e-02,-1.291055347999078146e-02,1.420281410217285156e+00
6.896978936522891734e-01,-7.487151459746325122e-01,4.299204401050534252e-01,-2.009845880297204956e-02,8.640892344753171861e-02,1.227270797134057990e-02,1.336754441261291504e+00
6.072074864379641834e-01,-7.541072620959176076e-01,5.796673693653554560e-01,-2.666913932551019661e-02,5.474284495358322511e-02,1.878013340960261665e-02,1.352267622947692871e+00
6.439365445461665560e-01,-7.690129456932750518e-01,5.315977353707493913e-01,-2.036592501132132582e-02,6.399090023683426387e-02,4.405402982364655870e-03,1.365248799324035645e+00
6.622409540476327239e-01,-7.987221396198125323e-01,5.510578232078704453e-01,-1.493164442037084837e-02,4.999762172305897284e-02,4.170167835165348308e-02,1.413409233093261719e+00
6.613722098235438329e-01,-7.937228594240725021e-01,5.975694972639240543e-01,-2.218519014464992098e-02,8.368743295509534219e-02,3.565790986707149252e-02,1.433469653129577637e+00
6.150645127868743511e-01,-7.498643839165796132e-01,5.336834398201117935e-01,-3.282653233892948025e-02,8.202753270478861658e-02,3.269954865611360978e-02,1.336113929748535156e+00
7.279882437016358399e-01,-7.752895517010763848e-01,4.298006764314251105e-01,-2.442072824576474108e-02,5.084386879913842250e-02,3.869145798515561535e-02,1.383667826652526855e+00
6.234678796071670970e-01,-5.697002770235918279e-01,6.449735754661325426e-01,-7.549880864891314949e-03,4.258240749158400052e-05,-6.979121190346737613e-02,1.210188508033752441e+00
6.824935853292568577e-01,-7.132516663516554889e-01,5.735481162549381784e-01,-9.949391403479461785e-03,-1.365132977124253492e-03,-3.097784083473107460e-03,1.344710111618041992e+00
6.380782279005700053e-01,-7.508518130407089153e-01,6.781622533590563329e-01,4.808107938418726239e-03,4.275966356589862641e-03,-4.361805555300209310e-03,1.409463882446289062e+00
6.777298197473321517e-01,-7.579280072538389090e-01,6.067525814307128673e-01,4.041699082245111055e-03,4.743559747929481860e-03,1.421731319217915158e-02,1.401775717735290527e+00
6.429972538761274947e-01,-7.802135549765123468e-01,6.472703628127725040e-01,-9.876937769225870196e-04,-1.593335591661229102e-03,-1.273790524947175911e-03,1.425357580184936523e+00
6.878199426831247409e-01,-7.456164258089144070e-01,6.027278245999501127e-01,1.873178475615182737e-03,1.119577966583645313e-02,-6.675979605878812687e-03,1.393027901649475098e+00
6.035746320591459657e-01,-5.933923018156104234e-01,6.493156056338778015e-01,1.266615041504996937e-02,-2.648946843042791505e-03,-6.800611837110896729e-02,1.226356148719787598e+00
6.157060700330867498e-01,-7.081723098640678726e-01,6.796625555913526906e-01,1.382676645275059948e-03,-2.294122969031872541e-03,-2.542825325536163597e-02,1.357710003852844238e+00
6.683417576379608871e-01,-7.580438690526146717e-01,6.534337170163353470e-01,2.428038290855395742e-03,-3.127962042276800740e-03,-1.730074971540761578e-02,1.419323325157165527e+00
6.453077071190223002e-01,-7.595627708639213216e-01,6.438050002280477635e-01,4.940785970669841001e-03,3.426138003794260492e-03,1.522513010087723270e-03,1.404160857200622559e+00
8.657925637627795767e-01,-7.624670280885018636e-01,2.661101882693520104e-01,-2.559941993099385318e-02,-4.319494165775858430e-03,3.066295594654666265e-02,1.428023934364318848e+00
8.154289247667370066e-01,-7.643544631898069319e-01,2.758004476052785536e-01,-3.206128901901691497e-04,-2.353243995423828783e-02,8.138361818617035476e-03,1.391502261161804199e+00
8.021084179227698785e-01,-7.692152612920620802e-01,2.617441784591047482e-01,-2.434351815988103004e-03,7.186448690915092641e-02,1.277932872206044741e-02,1.388512015342712402e+00
7.634593030251465295e-01,-7.596841601891695106e-01,4.029008732719792651e-01,-1.601527359752249850e-03,7.985109295888390829e-03,1.847573267655065743e-02,1.379133462905883789e+00
6.419572773530075604e-01,-7.574594811469150812e-01,6.361615386817225382e-01,1.003455976801932367e-02,-2.011849294272853930e-03,-8.468207983424604068e-03,1.396717429161071777e+00
6.810107581606843485e-01,-7.531083215845991718e-01,6.313274681374582142e-01,-5.025886125858530437e-03,-2.131609109125739716e-03,2.761919892777305475e-03,1.409973978996276855e+00
6.347994969003184496e-01,-7.404066109375022631e-01,6.428900314871155430e-01,4.786345208282396547e-03,7.462836211583905380e-03,1.474625511220568376e-02,1.379591107368469238e+00
6.393763135677081877e-01,-7.193429781143539925e-01,6.469087417910527327e-01,-7.592009215186566740e-03,6.429810551736222894e-03,1.266865686985496446e-02,1.362786769866943359e+00
6.401101657818817348e-01,-7.247159365737820824e-01,6.521531462096805676e-01,-8.327599671850973925e-03,2.134296949334367130e-02,-1.901379158632609742e-02,1.371856808662414551e+00
6.677843214332721544e-01,-7.568181342132268563e-01,6.404199159253335383e-01,-1.848607344030344518e-02,-2.356958564323792266e-03,-2.282180387574071420e-02,1.412041783332824707e+00
6.485117604180454798e-01,-7.485863597715647355e-01,6.016652089456939745e-01,1.242950819522866887e-02,-7.855892266916339461e-03,1.778866762143735750e-02,1.374855041503906250e+00
6.411916382047405660e-01,-7.640313517516212904e-01,6.378396466510067864e-01,8.500981605768967442e-03,-1.641982654901907607e-04,6.908370578365238997e-03,1.403678297996520996e+00
6.382641727745482774e-01,-7.654120668034660735e-01,6.385721697501337557e-01,1.452186341153360004e-02,5.642019817372238513e-05,7.545283142937834163e-03,1.404116392135620117e+00
6.691973012370210361e-01,-7.607180375690177909e-01,5.949344982342723576e-01,-5.435675288728789196e-03,1.498110916797838754e-02,1.214126516838634311e-02,1.394699811935424805e+00
5.799023687535098670e-01,-7.364924926914693248e-01,5.796826822391070166e-01,1.151123392169705294e-02,-4.251588364630881633e-02,1.029583444935775263e-02,1.318614602088928223e+00
6.241530206021321803e-01,-5.527772153505542407e-01,6.375833573982553348e-01,1.038655299854736314e-02,3.678350250034564603e-03,-4.583661884143959420e-02,1.186515450477600098e+00
6.398390953229142752e-01,-7.595860548465712681e-01,6.497888594917173855e-01,5.941084291354706975e-03,-1.066396048308158005e-02,-8.193762087244189571e-03,1.404657363891601562e+00
6.367984423210446554e-01,-7.209894867476727143e-01,6.475824207248399578e-01,8.399796264877785676e-03,-8.556297688465707221e-03,-7.493550650828114789e-04,1.363370656967163086e+00
6.363741545249766984e-01,-7.255836810401322667e-01,6.645965728422542629e-01,9.085910925777290759e-03,-2.053031172196135082e-02,-1.612394986339897238e-02,1.377118587493896484e+00
6.214383909805212269e-01,-7.297208491247514361e-01,6.831458019762775002e-01,-6.464453246255218687e-03,-1.688987448810472247e-02,-3.269637238771612442e-02,1.384559154510498047e+00
6.611525506192286183e-01,-7.746090978672989236e-01,6.405253606540883826e-01,-1.472101271073780575e-03,-4.158258801698461703e-03,9.168173827310010810e-04,1.425581336021423340e+00
6.408964792086688789e-01,-7.105417937808418127e-01,6.513953926146704987e-01,7.533910821258349086e-03,-3.295916968917739307e-03,-9.387832719650983371e-03,1.356890439987182617e+00
6.512545534637002032e-01,-6.900443623038545748e-01,5.935444696598268788e-01,7.000693839958676938e-03,1.706682569122792634e-02,-1.746685888842219522e-02,1.314131975173950195e+00
6.500096527844332339e-01,-6.937942544933387579e-01,5.916272047478505769e-01,7.192997107002717903e-03,-9.271117256632628936e-03,-9.956573656923485907e-03,1.315854668617248535e+00
5.914099553449974067e-01,-5.791448134879323417e-01,7.074709410084109029e-01,-8.304890045803701992e-02,-3.243856979622852799e-02,1.520478025364790063e-02,1.242604494094848633e+00
5.583495546299039880e-01,-7.340661501844807368e-01,6.977893706250799521e-01,7.330305913258617669e-03,-1.901735999256298770e-02,-1.272695541831109049e-02,1.368111133575439453e+00
4.371968312314444827e-01,-7.363895076434394671e-01,8.380968823253878153e-01,-2.927896889885386530e-02,-3.009775659276480927e-02,-1.009641976750751818e-02,1.419194102287292480e+00
5.293895135263637641e-01,-7.731840610773372813e-01,7.252568632810014737e-01,-1.480201151895184190e-02,6.027895995004296965e-03,2.833528212057577315e-03,1.411022305488586426e+00
5.526790607227127783e-01,-7.760278113973093639e-01,7.079775466230990855e-01,-1.584737561811959752e-02,-2.429120580765915458e-02,-8.713786157786103034e-03,1.413745760917663574e+00
4.583894007586073460e-01,-7.311614297472870394e-01,7.127365558575559090e-01,-2.899065886661096256e-02,-3.315731493056878892e-02,-2.157406755068982766e-03,1.337204575538635254e+00
5.933870946964990845e-01,-7.714017614154303759e-01,6.918179688191469223e-01,-1.588347393460066634e-02,-1.440965047791023870e-02,7.324990207538900969e-03,1.417115092277526855e+00
6.468120586560612839e-01,-7.540408243635369212e-01,6.417384047434899763e-01,-7.547359446604845132e-03,2.111047280879169760e-03,-5.974537888096094311e-03,1.398427128791809082e+00
6.697282210731085872e-01,-7.289454206105749901e-01,6.424439965469976865e-01,-6.366704096144000513e-02,1.838353437376801652e-02,1.642242209868400140e-03,1.389983177185058594e+00
6.007474502551487516e-01,-7.125830301557019020e-01,6.514821397996090058e-01,-1.484172630257952867e-02,3.806257118678825621e-04,7.607513908178997926e-03,1.339730262756347656e+00
6.154641087239988151e-01,-8.686187267947660384e-01,6.223335041490315467e-01,4.797763897517043352e-03,9.066133670164019942e-02,1.623379122825068573e-03,1.495820522308349609e+00
5.944147062335017884e-01,-4.877378706623680671e-01,6.056850646778344505e-01,4.596411253866669231e-04,-8.761206741705447609e-03,3.845158216377715654e-03,1.087958097457885742e+00
4.941943828292874041e-01,-7.742839076592030745e-01,7.126146314434439466e-01,9.530613118737851427e-03,1.797859890864684507e-01,1.873881854374917152e-02,1.425517797470092773e+00
5.987689313021785642e-01,-7.026753433770813739e-01,6.118265033935410546e-01,-1.118239488519791151e-02,8.824162793203267630e-02,-7.822016731411422091e-03,1.317133188247680664e+00
4.740048346450882466e-01,-6.388800443731792456e-01,7.899383677288167593e-01,2.710617287126746225e-02,-2.277861349898971932e-01,1.088404345359570424e-01,1.372343540191650391e+00
6.395703600011579670e-01,-7.676480306382430507e-01,6.415518952023132604e-01,-8.364670308291688450e-03,8.101702964931862400e-03,3.450601994681225596e-03,1.408367276191711426e+00
3.739220993499496881e-01,-8.221205387347844118e-01,7.278783143287065327e-01,-1.276888911563376916e-01,-3.860459160818505153e-01,-3.351746068188164729e-02,1.574334025382995605e+00
1.685299543949941303e-01,-9.024578378971217507e-01,8.597881587951775595e-01,-1.254090739438394608e-01,-3.101869307914066343e-01,-7.720275267795746743e-02,1.648906588554382324e+00
6.418468147517972788e-01,-7.727541862653404259e-01,6.599174971722202576e-01,-2.190611990574134731e-03,3.500986807826312122e-03,2.345033355558839589e-03,1.423746109008789062e+00
3.939015257621830135e-01,-1.296454264770217968e+00,8.291885798194175150e-01,-1.279596759795545990e-01,-4.259122827203571382e-01,2.594675154604937917e-01,2.139594078063964844e+00
4.124313328371905230e-01,-9.368732930219709765e-01,8.439532036114008040e-01,1.210350328072217346e-01,-4.718274522627992629e-01,-1.122725773756718670e-01,1.827215313911437988e+00
3.817114002185701405e-01,-7.594914118422565474e-01,8.266588442921938285e-01,4.819783875830539743e-02,-1.915568066406395098e-01,2.057084826569060415e-02,1.458224296569824219e+00
6.629384800343749440e-01,-7.669369783994608447e-01,6.161368611597444200e-01,2.289512225243638035e-03,2.500579563122404259e-02,-3.983038155442120837e-02,1.409420013427734375e+00
6.590094309804011008e-01,-7.445653532022789012e-01,5.823988126198543780e-01,4.003874149509109234e-03,5.162261130860977543e-02,-3.585781536884861953e-02,1.371226787567138672e+00
6.553783086786684198e-01,-7.734569614267985393e-01,5.289008189315513864e-01,-4.593341074789956263e-02,9.290669589677359730e-02,4.571180682857960142e-02,1.383959770202636719e+00
6.806860002217478556e-01,-7.526985311747297347e-01,5.842533292674907397e-01,9.884786890425843742e-03,1.618219051472865114e-02,2.408703603821875632e-03,1.388078331947326660e+00
6.131822397134494285e-01,-7.769997524640548381e-01,5.371411193447772625e-01,-4.089928342663581851e-02,8.756385203563574193e-02,4.608783232664744739e-02,1.366407752037048340e+00
6.094118768980032463e-01,-7.867721345268203770e-01,6.080553201359587545e-01,-4.911463245332728378e-02,1.276837712013482729e-01,4.087011334952204977e-02,1.417249083518981934e+00
7.086634681820314086e-01,-7.891055360660984563e-01,5.824246172960456658e-01,5.991377503342985335e-03,7.694395445788469734e-02,3.168597423275291980e-02,1.446047186851501465e+00
6.155364024788070321e-01,-3.820055884872172181e-01,6.168020919942687197e-01,-5.145347755260090000e-02,-4.807597528552012313e-03,-8.716942096631942472e-02,1.013489723205566406e+00
6.366395823360690986e-01,-3.794078709777293223e-01,6.185530517373925008e-01,-5.482424765888392615e-02,6.277605776887038545e-03,-8.807700314488192683e-02,1.023088812828063965e+00
6.110458788946955266e-01,-5.622780221624387176e-01,6.327003005847642303e-01,-2.710911866411016072e-02,1.200832483803809109e-02,-6.538313330390521649e-02,1.190809726715087891e+00
6.281797078735462669e-01,-3.815440424007675579e-01,6.245769903030559123e-01,8.840843714408708545e-03,1.407620367143060623e-02,-8.015289298307454180e-02,1.017850518226623535e+00
6.895152246028251053e-01,-5.997001037241941335e-01,5.718635984513025239e-01,-4.125154266076890008e-02,7.602731632522648567e-03,-6.138445973981026399e-02,1.241298675537109375e+00
6.329228388133480987e-01,-6.128974078120498215e-01,6.579874716939966284e-01,7.193860472775079340e-03,2.020643931935755047e-02,-4.811832483083818002e-02,1.261843323707580566e+00
7.034724084418313428e-01,-7.990986305762504127e-01,5.250995621534686464e-01,-1.070090573501611929e-02,1.409486534113181255e-01,-3.710845005211189929e-02,1.444158196449279785e+00
6.998861384592950374e-01,-8.001026422886023948e-01,5.898881636813005924e-01,-6.838580259335981862e-03,1.199381596212804185e-02,9.023294756112380799e-02,1.456731915473937988e+00
6.099346800370827326e-01,-8.668075881473882305e-01,5.710982158403979936e-01,-1.771865642340537603e-02,2.283196535282281392e-01,1.159076464777811059e-02,1.510847091674804688e+00
6.387837750641055523e-01,-7.749629091824600247e-01,4.545222702405116166e-01,2.975826116117128231e-02,2.422383346586991781e-01,-2.705846586133459075e-02,1.397506475448608398e+00
6.868806599641010813e-01,-7.756135238273464960e-01,5.422081955900999173e-01,3.526601648903265190e-02,7.986052222439200821e-02,-4.072790702884820230e-02,1.405730128288269043e+00
6.696759469542672427e-01,-7.713728991289925396e-01,5.208775326024598362e-01,2.177835574133482263e-02,5.572641532005945253e-02,-3.576268302694733670e-02,1.378010511398315430e+00
6.440840436655441703e-01,-7.732809418705128834e-01,6.595244149033647751e-01,-2.883842375094708942e-03,8.176801654755126020e-03,-1.461694083685565132e-03,1.425229310989379883e+00
5.759155604992574062e-01,-2.821113631125773402e-01,5.858697596632097548e-01,-1.047249646611869353e-02,-6.426535485470124751e-03,5.729885993975671055e-02,8.689951896667480469e-01
5.855859294029448492e-01,-4.497625073118393102e-01,6.321915384276728389e-01,3.214807632147765205e-03,7.963968017721435519e-03,5.493633249489243003e-02,1.063788890838623047e+00
5.761047472359899224e-01,-4.685907754988527518e-01,6.349063362603657446e-01,1.326924682597498866e-04,6.849782540861102872e-03,5.651989464154176523e-02,1.079815030097961426e+00
6.349109598562330259e-01,-7.612743965158547121e-01,6.726778134285018584e-01,-2.224817179603344377e-03,7.956810523815225494e-03,-2.407679141244142059e-03,1.415525197982788086e+00
6.355249215418056208e-01,-7.610811594910226185e-01,6.420090404054945576e-01,1.700197481857568466e-03,2.727291991792728416e-03,1.440500690487830047e-03,1.399872660636901855e+00
6.427663851013741825e-01,-7.530620209150743483e-01,6.356032892025867964e-01,-5.278626973246874389e-03,3.776515193388620475e-03,-3.307928322521729394e-04,1.392306208610534668e+00
6.394878845487685926e-01,-7.729418518849334729e-01,6.534123484777460966e-01,-9.254111065574293152e-03,5.665356212024798624e-03,-8.118161228642473484e-03,1.419637203216552734e+00
6.409350771041503192e-01,-7.637270815492743781e-01,6.447921593243268745e-01,-1.141022129819828888e-02,4.932797859197050362e-03,1.125724730053308427e-03,1.406760811805725098e+00
7.308634550820530817e-01,-7.032926777694605835e-01,4.877378983306484561e-01,-3.600827579226389269e-02,-4.262835684875869446e-02,-1.198145160450800675e-02,1.333043813705444336e+00
6.665553969987335625e-01,-7.623328298443369233e-01,5.830010330701932419e-01,1.615099232434053607e-03,-7.987474252531424207e-03,2.093129991989185062e-02,1.389541864395141602e+00
6.312066981302948410e-01,-6.369235840687431649e-01,6.381028990086201613e-01,-4.180934913099201150e-03,-1.080051498953974419e-02,4.562573498733445837e-02,1.274203538894653320e+00
6.438216597152118803e-01,-7.296586265394627846e-01,6.518962353093600282e-01,4.604323451062093827e-04,1.930378562128136702e-02,1.098585547607233530e-02,1.378072619438171387e+00
6.472825733722102903e-01,-5.256160988319970029e-01,5.736096177084606396e-01,-4.415933420861516134e-03,4.140317637034620496e-02,1.444293905091570407e-01,1.167256951332092285e+00
7.247862467639566431e-01,-8.233767767095873102e-01,6.050816523363513610e-01,-5.131686060626378804e-02,4.930397321163564051e-03,3.822018605615249559e-02,1.496051907539367676e+00
7.002755465997717588e-01,-7.545737404800386683e-01,6.017626972010579056e-01,3.525669545929666776e-02,-5.197324711319983512e-03,6.440672748492874689e-02,1.413939476013183594e+00
7.126375359996415249e-01,-6.443385711847622321e-01,5.922773285839759705e-01,-6.753298422441979254e-02,-7.167080924107643858e-03,7.876819308039649525e-02,1.313390374183654785e+00
6.575575401528369612e-01,-7.422909635231947911e-01,5.048856702886101999e-01,2.505055522310607394e-02,1.874841813603776025e-02,-1.733314154079708749e-02,1.331542491912841797e+00
6.089793670712537743e-01,-7.600196853626557392e-01,6.484531396890249599e-01,1.189456256923249015e-02,1.529184406336026557e-02,-6.121203690375713602e-03,1.389602303504943848e+00
5.914141431058397291e-01,-7.842942092134330689e-01,6.239353640681737367e-01,5.133246928669874670e-02,9.619884901793195053e-02,-1.129361215049951191e-02,1.405140995979309082e+00
6.255154453535005654e-01,-7.551730741567130867e-01,5.850612379381460171e-01,1.291649577184167570e-02,3.757239250287722210e-02,-1.066598490448286349e-02,1.362776398658752441e+00
5.345767546303947793e-01,-7.655345557332541295e-01,6.212489221203644219e-01,1.116116580512604463e-02,8.439887950509125658e-02,-1.419480202439836643e-02,1.353821516036987305e+00
5.848949259016742452e-01,-7.559013027216577862e-01,6.205773721044578473e-01,3.227999145199168113e-02,5.039063856004446368e-02,-3.037273416327685577e-02,1.363950848579406738e+00
5.837784234336333977e-01,-7.572192639012335080e-01,6.032205341329202053e-01,3.062923439003163023e-02,3.253621339006667473e-02,-2.903186951444168551e-02,1.353973150253295898e+00
6.011417926205235851e-01,-8.712963534265143473e-01,6.361791209948264303e-01,2.140612795911545074e-02,2.212221781169637080e-01,-2.165499056334651770e-02,1.539639949798583984e+00
4.668954465620306360e-01,-7.785134150880879123e-01,8.126456962061296974e-01,6.066639336035533486e-02,-5.878273550242388290e-02,-1.080263064754984417e-02,1.457032799720764160e+00
4.895367456312311183e-01,-7.106850088343136251e-01,7.142204677020644876e-01,-1.544422808492759529e-02,-3.505979949905647930e-02,-1.139761048943496551e-02,1.328712940216064453e+00
5.253742439556110533e-01,-8.550089616978314710e-01,7.426075500207153235e-01,-6.854820204686616625e-02,1.340963925585170018e-02,2.227457432218825362e-02,1.506199836730957031e+00
6.186353663120156554e-01,-7.532568550105065430e-01,6.199574864746904002e-01,1.486688624309606514e-02,-2.239425004987852588e-02,7.913739880055607745e-03,1.373411536216735840e+00
6.394355923539805087e-01,-7.669719153325063044e-01,6.161703668604404660e-01,1.213694500942518947e-02,-1.075807463042345938e-02,4.022298092744003122e-03,1.395220637321472168e+00
6.878385436092341321e-01,-7.522368834805439608e-01,4.338998694337585227e-01,9.293799253496957957e-03,4.043856305109543720e-02,-2.173587367230348996e-02,1.333864092826843262e+00
7.053827002668274782e-01,-7.302831300174638107e-01,4.700145859963302253e-01,7.711996432791730881e-03,5.489202183408926905e-02,5.811835000791472361e-03,1.337140083312988281e+00
7.970957210133093884e-01,-7.414174289157021702e-01,3.430748340892694204e-01,2.116300259344299980e-02,6.229356647146490344e-02,-1.096666561909688704e-02,1.374040246009826660e+00
7.881082561444011647e-01,-7.622531577113828005e-01,3.685866535780856212e-01,3.161246840384472016e-03,6.805944244005024402e-02,-2.452496188732454160e-02,1.394610881805419922e+00
7.305629172233829571e-01,-7.591501259102585442e-01,4.020800478552465362e-01,1.542957754565683209e-02,5.065965248698461182e-02,-1.638093415800983416e-02,1.359050869941711426e+00
7.338157317850604322e-01,-7.612916670735843105e-01,4.058907834495747435e-01,1.253248758231451966e-02,5.580439748025558394e-02,-2.051912303387087855e-02,1.365164637565612793e+00
7.128079183485795944e-01,-7.547061536180054153e-01,4.446750315954045019e-01,1.505643926620195243e-02,1.282804787074930467e-02,-2.031658594910603147e-02,1.354406118392944336e+00
7.234435695873533412e-01,-7.598676155837461588e-01,3.700823604973613734e-01,7.571104162802675362e-03,8.967851629651438228e-02,-9.249118801420644007e-03,1.351105809211730957e+00
6.139137384739278280e-01,-3.776303824115692098e-01,6.274160046656673817e-01,1.455245768596185874e-01,4.597109928388150475e-03,5.597737438259615256e-02,1.034275650978088379e+00
5.547115603307569698e-01,-5.657969880315397715e-01,6.645587439873565927e-01,1.074561126865470478e-01,6.798853969313410454e-03,6.195770954371468409e-02,1.198743462562561035e+00
5.637614022692782889e-01,-5.902482033032140363e-01,7.572423843903008933e-01,8.949581990004455700e-02,-2.915148808402972733e-02,-4.376443343024129240e-02,1.274667024612426758e+00
6.258007122241404652e-01,-5.562643704072194328e-01,6.432063325513412977e-01,8.685364631294920090e-02,2.714046385159122471e-02,6.371424100218082975e-02,1.206306099891662598e+00
6.432658385623175601e-01,-6.725100577364077070e-01,7.319079938877454117e-01,1.381073797423689742e-01,-3.075683303474223071e-02,-1.654275143671377502e-03,1.384132981300354004e+00
5.395359833700468233e-01,-7.300874723341121975e-01,6.253360776541539989e-01,9.010327089855246774e-03,3.281068514735962366e-02,-5.351017953712489637e-03,1.315978050231933594e+00
5.670514808414690577e-01,-9.401087826271263825e-01,5.980161935746617363e-01,2.008702235251881227e-02,2.373272937866811871e-01,-1.225636106028703612e-02,1.577907919883728027e+00
5.396789711587026694e-01,-7.670661857504145198e-01,6.130325217688317174e-01,9.857533672883072098e-03,1.519929301385734566e-01,-2.323358292100213829e-02,1.371143460273742676e+00
4.880534475613680923e-01,-7.484687865088215375e-01,6.881112770873080153e-01,4.876692214339136897e-03,6.795637174153368321e-02,-3.108078466474449228e-02,1.353960871696472168e+00
3.966531128942045736e-01,-7.806740527362717730e-01,7.273674657817047473e-01,3.456843481441727178e-02,2.487023069750396720e-01,-1.892595226920500140e-02,1.440502762794494629e+00
4.255427107922662433e-01,-8.929811109789868029e-01,7.170500586323530490e-01,4.176284522816909282e-03,1.374604065457973867e-01,1.896755962304623455e-02,1.505210518836975098e+00
3.704220343981353136e-01,-9.085947459677912175e-01,8.626150533979386470e-01,3.029988409932035318e-02,2.171945768820426198e-02,-3.932770705350547430e-03,1.584890127182006836e+00
4.526274487890368237e-01,-7.009715317502418497e-01,7.275962034675235168e-01,-2.889789470590654538e-02,-2.750444213626855941e-02,2.726214307132913267e-02,1.315525174140930176e+00
6.568866504236520187e-01,-7.597069270707066391e-01,6.060170395400064081e-01,-1.002413524054484965e-02,1.367302763279023030e-03,-1.858049623428568997e-02,1.392338395118713379e+00
6.333406786881080608e-01,-7.541479183038906076e-01,6.314438798015209464e-01,-2.477169718296093380e-04,-2.493760375980328542e-02,-1.195841329461756926e-02,1.387368440628051758e+00
6.362262933071402005e-01,-8.222053775388318275e-01,6.434495960967746564e-01,-5.763863397152096946e-03,-2.469548956679022342e-02,-2.470555315893120316e-02,1.463342070579528809e+00
6.726254039066048573e-01,-6.905458653307311456e-01,5.200654831507689480e-01,1.740780690423549860e-03,-7.264393288737644450e-02,3.995085885022896244e-02,1.301604390144348145e+00
6.689086773600354530e-01,-7.436037959293980704e-01,5.391553838941789412e-01,-5.488310926362346791e-03,-6.085313708525410398e-02,-1.742956886186480120e-02,1.356783032417297363e+00
7.061047440215058035e-01,-7.664594730550317037e-01,5.257037323604837331e-01,-8.637957099400869407e-03,-6.115694076422407977e-02,-3.129369225051236575e-02,1.396323800086975098e+00
6.723477747712949260e-01,-7.442244401199061832e-01,4.904792158426113380e-01,2.317706713601231511e-02,2.961880008249421353e-02,-1.279982614994073023e-02,1.336734056472778320e+00
6.017850933871607966e-01,-7.496303427518450357e-01,6.198925201004885643e-01,-6.432095500995022898e-03,2.573743454151609933e-02,1.656261108453707664e-02,1.361637473106384277e+00
6.213631550984957119e-01,-7.624448344687966284e-01,6.352906181193167523e-01,-1.007411702407109283e-02,3.971566623646202547e-03,1.443995690867253337e-02,1.391175270080566406e+00
5.633433690200910782e-01,-7.569436804968829868e-01,6.562262492764597832e-01,-1.286925790849694287e-02,9.878723265471792830e-03,1.669366164969415464e-02,1.369687080383300781e+00
5.901541700162811210e-01,-7.634149753962036211e-01,6.362835530142880724e-01,1.458147560246511208e-03,3.681544857031707890e-02,5.614750293224227834e-03,1.378725409507751465e+00
6.125656275525863670e-01,-7.668856463452135008e-01,6.498662274724027466e-01,-5.646586016123067604e-03,5.103941091445292171e-03,1.077925941617602877e-02,1.398661494255065918e+00
5.951101173313200210e-01,-7.841982093706177936e-01,5.127838681287946176e-01,2.018663287193238343e-02,-2.534449224872394879e-01,1.190438780444268846e-02,1.410697102546691895e+00
6.786300910239535522e-01,-7.486691450153224459e-01,4.930922732824578048e-01,2.041668986166381844e-02,5.773802796536636750e-02,-5.067859576805850558e-04,1.348347783088684082e+00
5.125935486660686546e-01,-7.489578486052643758e-01,6.341920347243068523e-01,2.465096470999461609e-03,-1.622640389912126113e-01,2.741432215168138758e-03,1.355997920036315918e+00
5.896886656871118682e-01,-7.929016128871001490e-01,6.411370665253792733e-01,2.116370861863946587e-02,-9.961164612603820578e-02,4.512871660861936252e-02,1.422165870666503906e+00
4.330245031742144257e-01,-7.763396574402692263e-01,6.179592235102983055e-01,1.502734418939847237e-02,-2.658310415580730224e-01,3.085653673519937051e-02,1.391383528709411621e+00
6.464535368426234108e-01,-7.798481915338323356e-01,6.518186519416222513e-01,3.254518058576870432e-03,2.285671701951845144e-03,1.685942471118557747e-03,1.429011464118957520e+00
5.223125238425555539e-01,-7.624917620639839466e-01,6.115289568320414482e-01,1.117152048825340548e-02,-1.703191817802726382e-01,2.052623660267116276e-02,1.364540815353393555e+00
6.594716656766244078e-01,-7.630848773031678745e-01,5.472445657738476132e-01,1.909791636378521326e-02,2.391410852328692410e-02,-1.824403174498113317e-02,1.371284484863281250e+00
6.421602261792405120e-01,-7.575691023030426408e-01,6.425741931430772880e-01,1.180465211234894927e-03,4.986201285649269864e-03,-1.290387826944293360e-04,1.399964451789855957e+00
6.385119084645389798e-01,-7.661869392716970095e-01,6.373760852562054824e-01,1.313950364500972084e-03,3.900028464870792730e-03,4.212045829637821315e-03,1.404168367385864258e+00
6.359017259924478749e-01,-7.735909649010112021e-01,6.431931304221070178e-01,5.848678027184281251e-03,-2.887383013322376174e-04,1.252616438005855343e-03,1.413190603256225586e+00
6.410222021120011160e-01,-7.596106296834234106e-01,6.365942823695183161e-01,5.855582727135562500e-03,2.728738097497919544e-03,2.327007067739924207e-03,1.398474693298339844e+00
6.437317407502092248e-01,-7.650742572918652895e-01,6.445237705713942056e-01,7.434033242994638781e-03,8.490809208895512203e-03,5.789564013544413719e-04,1.409338116645812988e+00
6.382308781845422718e-01,-7.736404271512145048e-01,6.454908576790705510e-01,6.897819008597868423e-03,3.961929720076045984e-03,3.861091084462725097e-03,1.415598154067993164e+00
6.302987464944592721e-01,-5.713972140012505418e-01,6.149374771893605374e-01,-9.909958116029772557e-02,-5.643300950514155284e-02,-6.038512742080005130e-02,1.214827060699462891e+00
6.552425173170288719e-01,-7.561275755728389392e-01,6.161191744819300986e-01,1.201067100784831976e-02,-4.314694931319914412e-02,-3.896339507623841625e-02,1.396012425422668457e+00
5.931034696278960627e-01,-7.274138695444569702e-01,6.825909822361388990e-01,-1.103707201998411908e-01,-2.178385135956218896e-02,-5.818544592602930415e-02,1.384943723678588867e+00
6.351401029391469111e-01,-7.224358016453586995e-01,6.365882771880568836e-01,-2.891112535376301473e-02,-4.051604763160550154e-04,-3.009849488360575448e-02,1.360222816467285156e+00
6.379073028206874163e-01,-7.177567839335571298e-01,6.496983165182317332e-01,-1.788595252586637615e-03,1.019304475495663026e-02,8.735663667863807075e-03,1.361799955368041992e+00
6.518460365586262739e-01,-7.150090693686621535e-01,6.339458012531875575e-01,-1.643117086430732204e-02,-8.057704013908787918e-03,-6.546634348016252061e-03,1.358410716056823730e+00
6.092093572297045956e-01,-7.653207724199426742e-01,6.751835925908015179e-01,1.049008067740071250e-02,-4.311002380366729843e-03,-5.129346908592288118e-03,1.408841371536254883e+00
6.073047704926475276e-01,-7.575831348396292464e-01,6.232101910123440947e-01,3.816200903420941524e-04,-7.880954525370407679e-03,-7.398266884357970231e-03,1.373037576675415039e+00
6.450068043649490601e-01,-5.866574661580035155e-01,6.046981703013074583e-01,-5.090444296199198720e-02,1.814292697571437754e-02,-1.495969547063988152e-02,1.215897917747497559e+00
6.750632846333481929e-01,-6.863470308211088167e-01,6.091585847836455958e-01,-1.229020154765412404e-01,1.486708396407832589e-01,-4.696673082151579803e-02,1.373426198959350586e+00
6.610230443899991482e-01,-6.640151796398064965e-01,6.363199095879372713e-01,3.430618113216858667e-02,-8.562794297754888978e-04,3.486486712182495715e-03,1.314219713211059570e+00
7.135605944426541836e-01,-7.330134942284630695e-01,4.882131283904192487e-01,2.697124235664783570e-02,9.810621154541020877e-03,-1.647859508693696670e-02,1.349319100379943848e+00
6.605314729846808453e-01,-8.290810138519917327e-01,6.170199688358388723e-01,3.883658155452615612e-02,3.413403045833045268e-02,-2.327493111927446401e-03,1.471074342727661133e+00
6.875795735128883424e-01,-7.964793801225019676e-01,6.055213673629011861e-01,9.296028933248559611e-03,4.911153312005532567e-02,-9.756062417809761855e-03,1.447468757629394531e+00
6.404760404020890530e-01,-7.493741807965120794e-01,6.499180103231709804e-01,1.409113560888947646e-02,-8.537065248106077281e-03,-1.502754257499416650e-02,1.395129919052124023e+00
6.828322029477785771e-01,-7.147362291646893739e-01,5.987174111790305453e-01,-3.509361058039440345e-02,2.188739341130485280e-02,6.743278588018715436e-02,1.364364385604858398e+00
6.694775415890691361e-01,-7.733157700997544959e-01,6.073317991465023713e-01,-5.124196796461287506e-02,3.005939951343998204e-02,8.711023330747226512e-02,1.424501180648803711e+00
6.585547688263362343e-01,-5.975130188434674139e-01,5.900008016214617346e-01,-3.777419744060694223e-02,3.531348780261606840e-02,9.910232632207813253e-02,1.238459944725036621e+00
6.607992636793209584e-01,-7.795663549102692658e-01,5.150056424277709155e-01,2.311385835199340766e-02,7.580764586616013656e-02,-2.646562595219115188e-02,1.380890011787414551e+00
4.382213626194859657e-01,-7.296136272912030485e-01,6.670639501141020222e-01,1.140374815069961079e-02,5.571692214576361157e-02,-1.935262051031253622e-02,1.301646947860717773e+00
3.812196618103685930e-01,-7.950880588597671883e-01,7.510799333014021029e-01,1.950928532162473500e-02,1.034544721501828718e-01,-1.181157465130101142e-02,1.410402417182922363e+00
4.247879194885646470e-01,-7.619067523734022185e-01,7.459237992491900560e-01,3.459128011679021147e-02,5.449964804403630014e-02,-1.123456513763441446e-02,1.380341172218322754e+00
3.201750980365828947e-01,-7.521967662935220567e-01,7.879485114569868554e-01,1.045111495117205525e-02,7.259371469622916129e-02,-6.622421813303992592e-03,1.373568058013916016e+00
3.682825888936001602e-01,-7.373287490500962660e-01,7.990836350551676626e-01,1.025667955644763742e-02,-2.414364296951182487e-02,-1.019552633302461472e-02,1.373550415039062500e+00
4.207055255466307653e-01,-7.308749617309577840e-01,7.425873086953410640e-01,-4.044330933961702416e-04,3.599212858693578987e-02,-5.075352630923069853e-03,1.343273043632507324e+00
7.527748180492872532e-01,-7.707627663105175442e-01,4.018524882923420471e-01,2.741578218579706142e-02,3.137298777767141833e-01,3.230556745236094762e-02,1.486719608306884766e+00
7.848021783190944900e-01,-9.474824588746927345e-01,2.708888656932604277e-01,-7.641588272009743055e-02,3.853467353773062931e-01,7.337795924407415626e-02,1.689325332641601562e+00
5.476518577227076356e-01,-7.735687238242090480e-01,4.694391071916518832e-01,3.014230717584623007e-02,2.535763548195399397e-01,-3.178305504046580882e-02,1.359067320823669434e+00
3.082143915531948553e-01,-1.467068432628330088e+00,1.102397131383342055e+00,-3.948455643093046197e-02,-4.053609106660109318e-01,-1.652347101847956301e-02,2.385519504547119141e+00
6.327085951677109410e-01,-7.238807728278463527e-01,6.656964164240158910e-01,8.667026340039633153e-03,-1.430894833031406445e-02,-6.110022992446902806e-02,1.377756595611572266e+00
6.695127270048142343e-01,-6.930305714288637065e-01,6.562401445962255941e-01,3.796677926232825545e-02,-7.929442867293084660e-03,-5.620154062968155118e-02,1.361104249954223633e+00
6.501632964797225966e-01,-7.016482491070278327e-01,5.889720922281014293e-01,-1.026861775135782216e-02,5.226934619303992557e-02,2.869414677495140190e-02,1.326424717903137207e+00
6.708058345288614444e-01,-6.840706784831782628e-01,5.280625121249726828e-01,-3.779212172898580024e-02,1.537676603795086472e-01,-2.579484719565130688e-02,1.319045424461364746e+00
5.761673303970378246e-01,-6.595612818015569312e-01,7.004380233933413802e-01,1.427069723307520244e-01,7.124697519597918138e-02,-3.359375035628119760e-02,1.332570075988769531e+00
6.514548232582801912e-01,-7.049512358622975761e-01,6.519640151582664078e-01,4.167701844557612778e-02,7.712160341820407071e-03,-1.118821864723617415e-02,1.358783721923828125e+00
6.297242958565018034e-01,-4.642245817565019417e-01,6.070089340042958970e-01,7.610884189246479303e-02,3.734134321723539540e-02,-1.110054483195518499e-01,1.109467506408691406e+00
3.787883011111426446e-01,-7.761069461286236315e-01,8.009445676647959367e-01,-4.204624463941048634e-02,9.461644320703680583e-03,-1.976791659601518682e-03,1.416025876998901367e+00
6.562064615758289587e-01,-6.893417722295107630e-01,6.240695213736271452e-01,1.711700843037594275e-02,2.446585703448283730e-02,-1.863093996900539590e-02,1.331167578697204590e+00
6.409116499198943551e-01,-7.566695494909142505e-01,6.182989436203377709e-01,-3.230890802018005869e-04,2.962110083196166366e-02,1.322020307525104132e-02,1.387551188468933105e+00
5.740850872409759553e-01,-7.460448700647959175e-01,6.776167079388182302e-01,4.197705227056078986e-02,1.863883596113194430e-02,3.833623009824608120e-03,1.377138257026672363e+00
6.355184089299517058e-01,-6.487053765366449509e-01,6.364174450438940811e-01,2.545118105984228371e-02,-8.932611946115810719e-03,-2.222620346954661680e-02,1.286099076271057129e+00
6.375701525503048028e-01,-7.384635925584929206e-01,6.435522396545366730e-01,4.164127899691218333e-03,-5.911991153856079040e-03,6.849902894360545636e-04,1.379091858863830566e+00
3.077151419053957837e-01,-7.490798935819248383e-01,9.187963061941440968e-01,-4.884065585157285755e-02,-7.752585678189415422e-03,7.714838285276150176e-02,1.470107316970825195e+00
6.447133830514517605e-01,-7.356774875323880414e-01,6.629821541407456831e-01,-4.748935094163833984e-03,-2.258277344215755406e-02,-1.566426949666652278e-03,1.390192747116088867e+00
5.922127038863068682e-01,-8.378501857032912836e-01,7.063969280675352902e-01,1.881162924171458223e-02,-7.366657632982531387e-03,-2.938006570007436341e-02,1.491717934608459473e+00
6.358938700529255250e-01,-7.456069025229470348e-01,6.809818721766256466e-01,-3.885211373358373604e-02,3.272726919715596323e-03,3.087129331590756851e-02,1.407226443290710449e+00
6.483556848016752694e-01,-7.771513035051018647e-01,6.485875307649457966e-01,2.350353563389260495e-03,1.692835186287297176e-03,1.041681705832706766e-03,1.425632953643798828e+00
6.637221008044462689e-01,-7.041100713340128214e-01,6.253698993338989709e-01,-2.505046594289702527e-02,-6.578221433274810542e-03,6.515307891638780734e-03,1.349857807159423828e+00
6.657545820011669946e-01,-6.958775267138147536e-01,6.329552502130368907e-01,-3.110667703416557239e-02,3.043503320801295604e-03,1.433760472283794654e-05,1.346620917320251465e+00
6.579854800454882913e-01,-7.569556243195468825e-01,6.520282195477067333e-01,-1.883790688075285408e-02,-3.399524864982784739e-03,3.684355332325479470e-03,1.412375569343566895e+00
6.479268404549252125e-01,-5.615441743081988069e-01,5.992609419002608018e-01,-6.710027237835193559e-02,-1.465149667115439721e-03,-6.949445027549888861e-03,1.191632151603698730e+00
6.681428907069287826e-01,-7.470763393057737733e-01,6.360563136185540811e-01,-1.364914843021355212e-02,2.704015651548293767e-03,-2.065644944774878717e-03,1.399663925170898438e+00
6.476837863534641304e-01,-6.191751352248399121e-01,6.278542535816891146e-01,-7.129287345576322543e-02,7.417832037870109030e-04,5.337596334018400619e-03,1.263146281242370605e+00
6.614746600986003422e-01,-7.504109351807003447e-01,5.700610394365177580e-01,1.244517281317251631e-02,-1.834364780161841513e-02,-1.563069774077366011e-02,1.369276762008666992e+00
6.416618635963167172e-01,-7.278378706007898602e-01,6.425708194963049014e-01,1.119031235460280806e-02,9.615627105778380701e-03,-2.492935922100791499e-03,1.370199561119079590e+00
3.931670067180693118e-01,-7.492809128856112721e-01,7.615327613943881913e-01,-5.911632217980847780e-03,2.479752803508174924e-02,2.864766386708468993e-03,1.365171551704406738e+00
4.903892383090445728e-01,-7.456798979978774833e-01,6.919992294366814622e-01,1.154957411104659895e-02,7.335817301827694814e-02,-2.592682918913296816e-02,1.355093479156494141e+00
4.308262524051578168e-01,-7.429549228369602965e-01,6.780763666637108500e-01,1.159216339129759063e-02,8.697917641393949906e-02,-1.377550029030517355e-02,1.323926329612731934e+00
4.052994833164204613e-01,-7.464034993931479844e-01,7.230392299784518251e-01,2.806667832019707140e-02,5.991112976755517266e-02,-1.549857279906189517e-02,1.344310998916625977e+00
6.362186474759077282e-01,-6.707493144961156339e-01,6.425854511915229939e-01,-9.679444073206753749e-03,1.933228577158660477e-02,-1.973088047345406687e-02,1.311143517494201660e+00
6.449822727110889886e-01,-7.317807137113027105e-01,6.592188748919169949e-01,-1.540286414486252177e-02,1.884442791322504807e-02,-2.085555394065656890e-02,1.385049223899841309e+00
6.413768729358795273e-01,-7.497767418294837283e-01,6.604742853739686836e-01,1.038289603033576381e-03,2.002038570232258369e-02,3.725108130261148200e-03,1.401245117187500000e+00
6.234442028936870717e-01,-6.728818905095331759e-01,6.374115554840709130e-01,-3.189728697848745465e-02,1.149168228177064981e-02,-3.382076226582103476e-04,1.304688334465026855e+00
6.384982562227941028e-01,-7.419922158040842541e-01,6.608772007355542266e-01,7.896152747212262582e-03,2.363931490592086071e-02,5.796458638118834675e-03,1.392520427703857422e+00
5.567567601693647061e-01,-7.857623186811791838e-01,6.845532417034010386e-01,1.656685822098782207e-02,1.172162423106107021e-01,-1.759447580391367005e-02,1.425913572311401367e+00
5.933902477283952148e-01,-7.816315939558261539e-01,6.398792438938167848e-01,3.060846613553074025e-02,6.933396893443115327e-02,-5.282770687465605103e-02,1.407968163490295410e+00
4.964430841118869231e-01,-7.912743584495633975e-01,7.232891031124570880e-01,5.807352502398405170e-02,4.808944849508056674e-02,-1.499269523990970007e-02,1.421097636222839355e+00
4.960407562774596935e-01,-7.940107673735107285e-01,7.234923098119371287e-01,3.634085885927042237e-02,-1.228833498421672867e-02,-5.826056313113820925e-03,1.419122338294982910e+00
4.096229996187828459e-01,-7.584013843388073273e-01,8.022920901013927963e-01,1.200159568904320996e-02,-7.477343932169869083e-03,2.336505338134960488e-02,1.406895399093627930e+00
6.556906927400498741e-01,-7.406808731489732400e-01,6.388836780070197285e-01,-1.814661280904794269e-02,-3.640306292565530667e-03,-8.267108246787956832e-03,1.388488292694091797e+00
6.252338543349207356e-01,-5.475445566381484941e-01,6.269934237460399462e-01,-3.825724807614602763e-02,-3.315684366289582685e-02,6.364729254289350213e-02,1.182081937789916992e+00
5.928912283454483845e-01,-7.403953739083757313e-01,6.827570025092822847e-01,1.212266154126678472e-02,2.929522074057807832e-02,1.248701488720625578e-02,1.381676197052001953e+00
6.405987477294774468e-01,-7.713908828564998155e-01,6.425383696081324869e-01,-1.055616479379490203e-03,-2.761444901533175421e-03,7.742056505281389410e-03,1.413033366203308105e+00
6.128043782154135588e-01,-7.398728523473779850e-01,6.472526062829686566e-01,6.868421051376822489e-03,-7.224764729736409376e-04,-6.636449768805401279e-03,1.370326519012451172e+00
6.375551307474507379e-01,-6.904995158580899961e-01,6.437575238264230393e-01,9.506121106361812775e-03,-9.423642319715977086e-03,-7.885673104813785417e-03,1.331438660621643066e+00
6.605576453007592219e-01,-7.591526875353290515e-01,6.086304176602068683e-01,1.438757509365216729e-02,3.638286252170955248e-03,-5.131453358958768321e-03,1.394737243652343750e+00
1.886296464615945523e-01,-6.805593942121984652e-01,8.803977657947034130e-01,-1.050223607280983268e-02,1.765624215365116934e-01,4.932510076808127586e-02,1.391568422317504883e+00
6.283191814967279409e-01,-7.604280420214257763e-01,6.236969535769694151e-01,1.725596486120023476e-02,3.077757193384601103e-02,-1.241839075102459111e-02,1.387954950332641602e+00
6.212532758341150485e-01,-7.840594342432997133e-01,6.086972696746855149e-01,8.708369879204484049e-03,8.671535898764551331e-02,6.932953482938037596e-04,1.407197237014770508e+00
7.399833930168301377e-01,-7.871274994905139710e-01,5.192177733694031128e-01,3.165121710334115046e-02,2.259824466245654861e-01,-6.661923372687579559e-02,1.487681269645690918e+00
6.545857935824885843e-01,-7.107862593234861581e-01,6.351804612160252272e-01,-1.660313063468962791e-02,-2.235842122304353488e-02,2.050168054151892127e-02,1.357095956802368164e+00
6.316333318476081704e-01,-7.641408603218295958e-01,6.263541127278402509e-01,1.958751455564533908e-02,2.672927523248419882e-02,-1.457403713229619112e-02,1.394552469253540039e+00
6.870617709182940125e-01,-8.644927217678891607e-01,4.947053416489842204e-01,-2.863349269990269133e-02,-2.257161700868045573e-01,-4.112740448201736287e-02,1.518633723258972168e+00
5.447186289891121636e-01,-7.808982784961127077e-01,6.423036456122739324e-01,2.151396696281798748e-02,-1.872919791490750829e-01,3.852716052432125088e-02,1.416763901710510254e+00
5.853617553121975847e-01,-7.814507941458832541e-01,6.463476598451538546e-01,4.361326274046663926e-02,-1.182280374350764135e-01,4.367859150955937832e-03,1.415255904197692871e+00
3.548471486369021988e-01,-1.093095262719488980e+00,9.057654022616141720e-01,2.186931482282455756e-03,4.279731870888594525e-01,1.095084053207516783e-01,1.945050120353698730e+00
3.893462985585556257e-01,-8.410279844020303042e-01,8.170601094723423108e-01,3.279124815237596802e-02,1.777643744085791455e-01,-4.184068884868765575e-02,1.525216817855834961e+00
1.903765485068057428e-01,-9.803109982739803829e-01,1.112519236285560487e+00,-2.063744382376469233e-01,2.391774889295595896e-01,1.031199611284120687e-01,1.905698657035827637e+00
2.787514519364623355e-01,-1.029465864289156318e+00,8.822804812742596203e-01,-2.057386520603749491e-01,2.591702767819806241e-01,9.857359107845613949e-03,1.787179708480834961e+00
4.833119159180572777e-01,-1.131803793195485852e+00,6.069175214753228520e-01,5.516952310589306324e-02,4.103375678290904771e-01,-9.259248227850445934e-02,1.833983778953552246e+00
3.919281042589202735e-01,-8.230370749399127384e-01,7.015173458055999900e-01,2.195266741173649422e-02,2.392052491542246140e-01,3.597181355598976990e-03,1.456457376480102539e+00
3.081057463945198749e-01,-8.588279298440613108e-01,7.898470506655692613e-01,-2.339018364677832723e-02,3.241477268613849883e-01,2.804327170077292042e-02,1.573271989822387695e+00
4.589592924572894472e-01,-7.852396660622222857e-01,7.211137687635197357e-01,-1.100912924515933811e-01,3.678899982088574272e-01,1.207669088307296440e-01,1.558547973632812500e+00
6.288503358761532436e-01,-6.985141354526562818e-01,6.353696911338965192e-01,2.621773055620817486e-02,1.752921254555606795e-02,-1.061113329537738924e-02,1.331883668899536133e+00
6.430427797778532906e-01,-7.351754523870496216e-01,6.414304264662018529e-01,-6.452161677770598854e-03,-4.725161168899648899e-03,-5.607413189944698319e-03,1.377516627311706543e+00
6.334225324736767471e-01,-6.965471061363455174e-01,6.033027950237414005e-01,-3.129616226505293336e-02,5.439741385605414981e-02,1.039888148908158123e-02,1.319775819778442383e+00
6.778364768309309563e-01,-7.708833319989976118e-01,5.849577122158713394e-01,-1.802940416009123428e-02,1.231791457470375085e-02,-1.220751496457011306e-04,1.405094504356384277e+00
6.339264889369797817e-01,-7.036389675538888833e-01,6.542150979414225187e-01,-1.200269431505834004e-03,-3.302480050037044385e-03,-1.871708300156715160e-02,1.348227858543395996e+00
6.361602187421803167e-01,-7.586674044422151431e-01,6.628833371576370315e-01,-1.036799530069493908e-02,-6.530001389010070371e-03,-1.691783450028480629e-02,1.408843994140625000e+00
6.411869202914146637e-01,-7.768027406688076120e-01,6.470489946258983771e-01,2.022295333209876266e-03,-3.651811290861035810e-03,-2.388785922115317303e-03,1.420954227447509766e+00
6.275768195364803681e-01,-6.489685483626348450e-01,6.457730963248389244e-01,3.571011343045332048e-02,-3.528096570378390449e-03,-1.599599797184607028e-02,1.287539601325988770e+00
6.253981172902565167e-01,-6.669794794773663549e-01,6.668156245884719890e-01,-1.420441341738337693e-02,-2.045856759594824256e-02,-3.657811526118853046e-02,1.315810441970825195e+00
6.130068263249091043e-01,-7.053472077003798413e-01,6.576677208534313923e-01,1.775756546966353669e-02,-2.205500470459050011e-02,-8.711484315175866550e-03,1.342223405838012695e+00
6.357834207019434913e-01,-7.624509437980432347e-01,6.718179284778185156e-01,1.019938535642444556e-02,-1.500819880767577733e-02,-1.377068854823904412e-02,1.417144775390625000e+00
4.908469443182904013e-01,-7.982446067344723950e-01,7.072861841297913843e-01,1.311409014933445638e-02,-2.800651908277765334e-01,-7.436999434386005157e-03,1.491175532341003418e+00
6.018076576000164213e-01,-6.970000014304148506e-01,6.639838728462983397e-01,-7.359626280827522883e-03,2.112435082992777588e-02,3.601861189091619397e-02,1.333009839057922363e+00
5.954157969201006040e-01,-7.762047071378478380e-01,7.124256377783867444e-01,-1.744005251146383065e-02,1.289752833597782380e-02,-2.242006125662494853e-02,1.434728741645812988e+00
5.753240849185106143e-01,-6.177091385350461650e-01,6.832403591814546484e-01,-7.078133073781492368e-02,2.593873159763426112e-02,-3.482159907971446589e-03,1.257301330566406250e+00
6.203417577428453900e-01,-7.572978759905584223e-01,6.269056936255381629e-01,5.678359810393034807e-03,3.748500370770844678e-03,-4.601865241090650170e-03,1.381006598472595215e+00
5.963101718810077667e-01,-7.884347192635360324e-01,6.760705523439703990e-01,-4.781179951159802814e-03,-3.896746593236813383e-02,1.863001517040286867e-02,1.428283333778381348e+00
5.756453815860103074e-01,-7.307413652805478943e-01,6.819768744152865381e-01,-2.322464525366530873e-03,5.149902032757970420e-03,1.717692723581588140e-03,1.362705945968627930e+00
6.743894958347934621e-01,-7.389972098002320910e-01,6.424654160531724223e-01,-4.736825948793783880e-02,1.264381281692322258e-02,-3.861939628982876543e-02,1.401872038841247559e+00
6.468224059933493919e-01,-7.632196751026030235e-01,5.989992362398206538e-01,1.424956157424679161e-02,-2.034131438611945508e-02,1.040165349714271617e-02,1.387533068656921387e+00
5.291540934101828242e-01,-6.935882259461366717e-01,7.478039872482722394e-01,-1.744854430187901470e-02,-9.528693067925220195e-02,1.307618818267511016e-02,1.356069326400756836e+00
6.380560164591355665e-01,-7.704670403684077407e-01,6.438517671238990214e-01,7.152410233287805627e-04,2.367093718024370665e-03,6.752755257939638441e-03,1.411484837532043457e+00
6.557016781386060256e-01,-7.589869994111598794e-01,5.982027021881310969e-01,-4.887522033552257374e-03,6.714909791520345950e-02,-1.390070287249806427e-02,1.391935825347900391e+00
5.142297069501763351e-01,-7.447191259741907654e-01,7.331302847890539542e-01,1.543467576763304754e-02,2.094994144431376881e-01,-5.844103223026387434e-02,1.432160973548889160e+00
5.277885265687332073e-01,-7.666101689280530040e-01,6.228294077667119177e-01,1.242394480849751993e-02,8.523350224463134561e-02,-1.263972949827325831e-02,1.352870345115661621e+00
5.437903981070546511e-01,-7.763540510979072273e-01,5.743730937474613718e-01,2.386526146497168835e-02,1.886795763091771716e-01,-9.833016789811323960e-03,1.375823020935058594e+00
5.445229466116745520e-01,-8.253453227365805667e-01,5.738593637984412688e-01,-6.883658311181216176e-03,1.998992693504898777e-01,7.545131509823564502e-03,1.427507877349853516e+00
6.317732217871109279e-01,-7.460865974053100258e-01,4.910609164762821943e-01,1.331843990132993566e-02,1.105135133907148154e-01,-2.168731780220127525e-02,1.327779650688171387e+00
7.178602874813041490e-01,-8.378677418409301580e-01,5.480820620959150347e-01,2.799133266560532504e-02,2.402664215263423664e-01,1.721075125030928701e-02,1.536687612533569336e+00
5.278876795915548037e-01,-8.070124602967839733e-01,5.358650417289079204e-01,2.080654170858198954e-02,2.811062637583324753e-01,6.862572664752038948e-04,1.425143241882324219e+00
5.643453626069279139e-01,-2.216305894860430281e-01,4.867359824122382550e-01,-5.674873063507776538e-02,-1.561778072813777007e-01,-1.746092194585278090e-01,8.585355281829833984e-01
5.526224119250688904e-01,-1.923248442517910828e-01,6.510280290468872799e-01,2.121806190950036605e-04,1.116251805358159897e-02,-1.055973317168468206e-01,8.196117281913757324e-01
5.722271167944628090e-01,-2.275832944267291991e-01,6.516138376033722146e-01,-7.614211725550930343e-02,-1.521798320253022439e-02,-1.069957650491898948e-01,8.728832602500915527e-01
6.262020389678076837e-01,-4.917628529920899938e-01,6.120213498815716413e-01,-7.381845084379072552e-02,2.751752059593780969e-02,-9.942432241347810840e-02,1.132460951805114746e+00
6.507102830542914607e-01,-3.351714239042434818e-01,6.458301487052935386e-01,-4.426579075912269456e-02,5.141520773255188470e-02,-5.620927676017036662e-02,9.952199459075927734e-01
5.774786346987784702e-01,-1.662477971882995731e-01,5.528126098738125327e-01,-1.358734239388354470e-01,2.032710007450714076e-02,-2.903949339044125874e-02,7.710686326026916504e-01
6.564714079453952689e-01,-3.405422147402287214e-01,6.294916524831875027e-01,-4.299704932772844407e-02,1.926214640030377706e-02,-3.512199471022434127e-02,9.890525341033935547e-01
5.926032542491057598e-01,-3.385785399864642553e-01,6.068852426510705778e-01,-1.149201996913571874e-02,1.288826513847315773e-02,-7.129011321730742423e-02,9.469656944274902344e-01
6.513681589289403995e-01,-3.401545620518754420e-01,5.374292810452936386e-01,-4.149100693604779871e-02,8.846748335789958104e-03,-5.699335165315479179e-02,9.477713108062744141e-01
6.434895962517930279e-01,-7.378174438494882192e-01,6.617987797885922507e-01,8.625115290160309880e-03,1.491623432246718187e-02,4.462743253467277293e-02,1.393018484115600586e+00
6.096773154409593776e-01,-7.613860909425635981e-01,6.672890156775141968e-01,1.127229738788894722e-02,3.166266637021122963e-03,9.393555777301016568e-03,1.400999426841735840e+00
6.502758702243518485e-01,-7.668097698043466748e-01,6.596434792186827156e-01,-2.110216408023955770e-02,-1.883986372872394456e-03,7.938296925486252806e-03,1.422332525253295898e+00
5.723168284316809684e-01,-7.526606522011104472e-01,6.887233103757630648e-01,-1.379714261749472905e-02,-4.664556170514022430e-03,-1.734257574539982416e-02,1.387404203414916992e+00
5.415874340948335641e-01,-7.678869462483187691e-01,6.819505471366903437e-01,2.100158061260150658e-02,-8.640130465787317776e-03,1.795075474428756493e-02,1.385907888412475586e+00
5.489323784803414874e-01,-7.696792058962507177e-01,6.683165457137678622e-01,2.492648691576814304e-02,-1.234433158074035343e-02,1.863542554141876806e-02,1.383391976356506348e+00
6.292878159846027053e-01,-6.654163725021874365e-01,6.475107366132457631e-01,-4.488398410187416365e-02,-1.136937736250095109e-02,4.000879606341889438e-02,1.308211684226989746e+00
6.287924454785815964e-01,-7.073236684578805278e-01,6.612246850890444172e-01,4.463384172603037520e-02,-1.946521988653688098e-02,-5.413609396478928464e-03,1.355283141136169434e+00
6.420214589349271250e-01,-6.271502702282586439e-01,6.363439713103998807e-01,4.715730773986649693e-02,-5.628214856785320949e-03,-4.422974815702395042e-03,1.269034504890441895e+00
6.629484003450683005e-01,-7.276305472770586702e-01,6.310238832277123011e-01,5.171217371485210823e-02,-1.658234636100575391e-03,-6.577333902642969188e-02,1.382513880729675293e+00
6.481511206386991741e-01,-8.131746615127715128e-01,6.606084143805093234e-01,-1.461633126046604086e-02,-1.654810887019954324e-02,-3.033690458069359178e-02,1.469032287597656250e+00
6.352238197774334738e-01,-6.347908691646187984e-01,6.472061348617348386e-01,1.523383744298870829e-02,-1.135855093911138612e-02,-3.921533526081819737e-02,1.278278231620788574e+00
6.053894281041792835e-01,-4.606181032601315284e-01,6.571156529326795948e-01,8.974738331837643635e-02,1.464450052748395709e-02,2.343167797885566117e-02,1.104826927185058594e+00
6.685574390476458628e-01,-7.809517044673875974e-01,4.621285183496980364e-01,1.585630568398273092e-03,1.510055817670209743e-01,-2.140855295862152674e-02,1.383567690849304199e+00
7.515895903363267738e-01,-7.819749327179803533e-01,3.905096851972471028e-01,-8.929680631131703059e-03,1.082827053604527856e-01,3.363587268734765257e-03,1.401395082473754883e+00
7.719541413577860611e-01,-7.857834357878421550e-01,4.455292000210293035e-01,-1.780408089887067918e-02,1.684815705989042844e-01,-2.592541695650723427e-02,1.453526973724365234e+00
6.795649265703181952e-01,-7.644596382471816609e-01,5.309796590745698985e-01,-2.502138064002666987e-02,8.389310454793651173e-02,5.516544923138538142e-02,1.387388110160827637e+00
7.622699264008343523e-01,-7.601264035323581636e-01,4.210178743950502289e-01,-9.039256585289905804e-03,7.102359231185399746e-02,-2.175312483191363649e-03,1.389249801635742188e+00
6.444668507389708090e-01,-7.490052283419679213e-01,6.444942906652743053e-01,2.505290447414453003e-03,-1.222913494361782885e-02,5.322564019298712916e-03,1.393684029579162598e+00
5.367342707203734964e-01,-8.710274872998885476e-01,6.467741223767551340e-01,3.176530970960073780e-02,1.289592823745891181e-01,-3.976726249033023936e-02,1.485420703887939453e+00
6.679485171016248390e-01,-7.775877053833147867e-01,4.335361628922687061e-01,4.384798909219932172e-04,1.450934529669425377e-01,-5.471769496742322214e-03,1.367084264755249023e+00
6.539624324863587690e-01,-7.879193639342414457e-01,4.283365278182549862e-01,-1.120904734706226584e-02,2.202493907929838624e-01,1.195507551646634789e-02,1.396760344505310059e+00
7.679308535486298881e-01,-7.870404314537648993e-01,3.199316156879997708e-01,-2.603277646531269168e-02,-1.176366175106026840e-01,1.314995451859450951e-02,1.402169823646545410e+00
7.413846543926124744e-01,-7.860057863367564401e-01,4.847394310461445310e-01,-2.823532976987094822e-02,-5.493520533099426062e-02,-4.535805972082117277e-02,1.422816991806030273e+00
6.139095136685840393e-01,-7.713554869802136116e-01,5.068788228710311428e-01,7.955979020160063682e-04,-1.845436156564483066e-01,-1.229265843473261247e-02,1.372870326042175293e+00
5.167202814066940153e-01,-7.863950959497334470e-01,5.561461641907254894e-01,3.275633334918266054e-02,-2.219309234619956384e-01,2.300189658585232236e-02,1.379712581634521484e+00
6.205233029108639942e-01,-7.701008481800555305e-01,6.387283445671245730e-01,1.582833627522207270e-02,-1.310760856730548533e-02,2.090846437843840722e-02,1.400736212730407715e+00
6.131810291982804362e-01,-7.682055472906921256e-01,6.463203977084299723e-01,1.546426706853854145e-02,-5.908225843929730374e-03,1.669786214670951688e-02,1.398843765258789062e+00
6.205788518686347066e-01,-7.755592080750189909e-01,6.371494770430348176e-01,2.559527677239837457e-02,-2.612460658400305932e-02,1.198284302659140092e-02,1.406077742576599121e+00
5.141374757081966784e-01,-7.744118265385254718e-01,7.149076771810549680e-01,1.859085735954891030e-02,-4.694999251662652223e-02,2.092024190033645384e-02,1.402972936630249023e+00
5.282797185950420804e-01,-8.729791272705798022e-01,7.913126231325091631e-01,6.670424355905413966e-03,-9.267802021532271783e-02,8.820825430088276645e-03,1.558019399642944336e+00
4.056052835281414581e-01,-8.976534620990890279e-01,8.083220782669503501e-01,-5.836089629657677941e-02,-1.665394795079160328e-01,-4.286928500153313476e-02,1.576212525367736816e+00
3.642314197244352902e-01,-8.212933395838841744e-01,8.222209029292341098e-01,5.394115373260111729e-03,-2.128060743411560318e-01,-4.081743290930988505e-02,1.516286849975585938e+00
6.081149915372032755e-01,-7.554286995336407795e-01,5.806986139139800329e-01,-2.658267727933706984e-02,-1.204255109784863192e-01,-3.206256807519024948e-02,1.367965817451477051e+00
5.890199477175954712e-01,-7.791878910563317939e-01,5.817119507110040111e-01,3.583385819770835545e-03,-1.561154414013753156e-01,-2.230941646822691068e-03,1.391120672225952148e+00
4.740841355633824139e-01,-7.553363743797270047e-01,6.632011986896226841e-01,2.132051017041020069e-02,-1.243557740982865756e-01,2.424522791495331217e-02,1.352503180503845215e+00
5.634662474700663504e-01,-8.909102962793967739e-01,6.051342413579031687e-01,1.897661211040116772e-02,-2.402071936477310765e-01,1.549819484557822188e-02,1.533769130706787109e+00
4.062906959445334865e-01,-7.374648712481985946e-01,7.694653409097108598e-01,-3.025411862865439935e-02,-1.763927334510754508e-01,-7.460327744610462108e-02,1.402940392494201660e+00
5.509942268515501951e-01,-7.797553258862292003e-01,5.926823480728188320e-01,-5.146881221333681269e-03,1.830754441093920271e-01,-3.744176402967224794e-03,1.388805270195007324e+00
5.679240543670218688e-01,-9.310684549611771832e-01,5.801447165645274850e-01,5.352064909076502570e-03,1.835207842684233315e-01,7.847901265105493296e-02,1.544360399246215820e+00
6.905125788045638480e-01,-7.650679342314546938e-01,5.323852082953434151e-01,-1.741746464592231402e-03,9.964296066409446262e-02,3.473430067835295287e-02,1.395337343215942383e+00
6.407293027482992009e-01,-6.966496511578124107e-01,6.514558173114290973e-01,-1.605509622844334241e-04,-2.119202725175778346e-02,8.971898711703726187e-03,1.343365907669067383e+00
5.247638566710357555e-01,-7.949059294583663560e-01,5.161450428362477361e-01,-2.497488343590933014e-03,2.685784754001032115e-01,-1.828177691614272420e-03,1.395227789878845215e+00
7.305275429254282082e-01,-8.478243598453685248e-01,4.301654092517801509e-01,-2.691080881674455180e-02,2.407574371448311101e-01,3.030856433658164414e-02,1.512003898620605469e+00
6.479221843755715859e-01,-7.685680205282329203e-01,6.426170450170249904e-01,-9.101806472554154802e-06,1.109787043541597164e-02,3.107397797614017392e-03,1.413985967636108398e+00
6.508677021583499922e-01,-7.397432229803141412e-01,6.369898771955623262e-01,-4.521495212834994795e-03,1.229064388495071901e-02,5.007529089691211202e-03,1.383937239646911621e+00
6.420352097723622808e-01,-7.331886397554229218e-01,6.507412634656951633e-01,-3.348434346614083401e-02,1.969889793248021451e-02,-3.636553706641523775e-02,1.382672905921936035e+00
6.571617729402665642e-01,-7.450395275352783564e-01,6.383265575826548854e-01,-7.868738355931971518e-03,1.967502923218692260e-02,-3.474174476433266196e-05,1.393362641334533691e+00
5.927751060315190612e-01,-7.546816284558187649e-01,6.582606019396439745e-01,1.724998235434108129e-02,-1.765507706621296038e-02,2.581734465914249307e-02,1.382748842239379883e+00
6.983622788773685697e-01,-7.858907215571063754e-01,6.041024615460327540e-01,-1.104009072778925835e-02,8.293227534980610396e-03,-5.323288061993298320e-03,1.439667820930480957e+00
7.681280507371867072e-01,-7.939104804695531481e-01,5.532143641626872110e-01,-7.883000763839122238e-02,-6.089643327822782948e-02,-4.692492817681816197e-02,1.478790879249572754e+00
7.096647259632302696e-01,-7.984189433892364685e-01,4.789986390468072286e-01,1.507590620783062080e-02,-9.663786717386070590e-02,6.493355173169589045e-02,1.421621322631835938e+00
7.099160898229467387e-01,-7.824833821724848093e-01,4.616157618548468178e-01,4.134695946844527126e-02,-7.568642559661485636e-02,5.734416956989119712e-02,1.396611928939819336e+00
7.759519665639647013e-01,-8.045987214638259388e-01,3.611845450844374805e-01,-2.220419344938617465e-02,-2.711573842718418281e-01,-1.002622651704392943e-02,1.495650768280029297e+00
6.625572939997350641e-01,-7.596059697596341254e-01,5.105121202097691047e-01,1.927258693622437014e-02,-1.397608756910815875e-01,2.627510750980532189e-02,1.375215530395507812e+00
6.086712714603607077e-01,-7.506940680377693909e-01,5.656892192707257960e-01,2.403920361022849825e-02,-8.884379385842117172e-02,6.356189687488740352e-03,1.347897529602050781e+00
6.732021099083841387e-01,-8.207799646667139903e-01,5.241851528953177519e-01,5.745689571974159880e-03,-1.565365372460271465e-01,-3.130505478953670134e-03,1.450930476188659668e+00
6.663744232901051001e-01,-7.587510796350060982e-01,5.444236893106144670e-01,-6.217834969791490723e-02,-9.969085364965901697e-02,-3.586209288956252600e-02,1.384677290916442871e+00
7.349302261093051403e-01,-7.820922499551162810e-01,5.194679329516918020e-01,2.324142952342149113e-02,-1.272121746043193835e-01,2.829744725392023194e-02,1.439962387084960938e+00
6.359657417475461649e-01,-7.930981460145560824e-01,5.770266380422109931e-01,1.974168831993085987e-02,-1.596015047088236716e-01,3.825199541120430369e-02,1.429491639137268066e+00
6.545204484475298790e-01,-7.618275485250473045e-01,6.541014755650005341e-01,2.847043997071880411e-03,2.051107577359878587e-02,2.470878982204374828e-03,1.416599154472351074e+00
6.403263381823964817e-01,-8.551727536639720517e-01,6.276855713421133354e-01,-5.790454172252626486e-02,-1.737171876689702077e-01,5.756876551231460831e-03,1.522650361061096191e+00
6.754025012027550234e-01,-7.393327247644867484e-01,5.545872802703712967e-01,-4.474922798634459881e-02,-1.168063559498134230e-01,-5.837857866834032794e-02,1.379243731498718262e+00
5.895912106742835501e-01,-4.346815135771838756e-01,5.959038286035216458e-01,-7.048543749603770892e-02,5.740959750785400335e-03,1.132794422752081594e-02,1.034905195236206055e+00
6.405485179146672703e-01,-5.036300339188291009e-01,5.934943033586026484e-01,-6.054357831913206173e-02,-1.394169477964792708e-02,2.408251566808073535e-02,1.127315282821655273e+00
6.299535853013946696e-01,-3.396062732353032354e-01,6.391412428725264938e-01,-1.687560677605860482e-01,-8.863290949710006181e-03,3.756581746546848455e-02,1.019285917282104492e+00
6.083092545117507743e-01,-4.683049688614361328e-01,5.912267626591205527e-01,7.434532566341473490e-03,-2.905275093837812045e-02,5.006868759638875843e-02,1.072947978973388672e+00
5.848200086448760437e-01,-3.671707166548869861e-01,5.906822903356949706e-01,-6.188916448348452670e-02,-2.485288925665495030e-02,4.217268391038408309e-02,9.646662473678588867e-01
5.678645744018464558e-01,-2.038325092673124450e-01,5.866516350782278177e-01,-5.535803582044040300e-02,-1.508572184804395436e-02,5.908810189556984449e-02,7.941774129867553711e-01
5.903086027597204133e-01,-2.584688302893778378e-01,6.209829801977966302e-01,-4.678849116928736340e-02,2.603010111108258404e-02,-5.835199844736859570e-02,8.753370046615600586e-01
6.596894588683468452e-01,-7.415077552576858633e-01,6.093088202297856082e-01,-7.607420700938704802e-03,1.323005401727149304e-02,1.614856327990348353e-02,1.377236247062683105e+00
6.589121144299505684e-01,-7.559286286079666128e-01,6.089773455212657005e-01,8.746972365433095670e-03,-2.568876981330022249e-02,2.508736797903761070e-02,1.392018437385559082e+00
6.467042794507236181e-01,-7.572506143104189569e-01,6.222585229185149114e-01,7.697936459198111668e-03,1.607786259484643432e-02,-1.194054032976309652e-02,1.392389059066772461e+00
6.390078523067406202e-01,-7.416125065240475323e-01,6.477073579713730211e-01,-1.027435152529648267e-02,2.959245574489214768e-04,5.359777442075731521e-04,1.385105371475219727e+00
6.574432272007785238e-01,-6.823318785969902933e-01,6.075088982305267837e-01,4.417194920989768459e-02,-2.048737415082706181e-02,6.256671781511237342e-04,1.318219900131225586e+00
6.138824428017768398e-01,-6.905671999867578625e-01,6.707131086614539495e-01,-3.624471712422832194e-04,1.157621219916235393e-02,2.903926301240742150e-02,1.334872126579284668e+00
6.492593133275013084e-01,-7.714377592118033533e-01,6.494765249475699109e-01,3.648569481092898970e-03,-1.598581808591413231e-02,-9.189679426001042678e-03,1.421178698539733887e+00
6.041808252165328241e-01,-5.921383057064963928e-01,6.568419750433072135e-01,1.472415864458397798e-03,6.274892390792839725e-03,6.694873265276096719e-02,1.229033470153808594e+00
6.198558837175248692e-01,-5.952889098312240668e-01,5.954124413966179752e-01,2.917296158598606595e-02,-4.138208791827512750e-02,1.104242719708801029e-01,1.221369385719299316e+00
6.274333070013833336e-01,-7.180192897555829346e-01,6.499336794561609842e-01,2.994519436760612659e-03,-1.037237565105471500e-02,4.771332128110748229e-03,1.356996774673461914e+00
6.507995296091119153e-01,-7.409174860626470682e-01,6.394502483159510975e-01,4.948656454506178415e-03,7.706453518212356968e-03,-5.797241696564672114e-03,1.386204361915588379e+00
5.853452485793690929e-01,-7.562028327491545632e-01,6.406260956600238199e-01,8.460594271978275072e-03,3.529134557789627598e-03,-1.829493644259698459e-02,1.370483636856079102e+00
5.812645792168523728e-01,-7.406024516146844094e-01,6.514673828688759549e-01,-2.298019929709544870e-02,-1.697182949252740505e-02,-2.639534214762226383e-02,1.359999299049377441e+00
6.349144937861621596e-01,-5.827479102759921537e-01,6.109333722457490623e-01,6.095300678938839201e-02,6.480010005303553193e-03,5.768212949592239035e-03,1.210556745529174805e+00
6.702055421896180309e-01,-7.473568441473644741e-01,6.343227130568935834e-01,2.148989052466892397e-02,2.283090689558657169e-02,-7.197634666590952204e-03,1.401074290275573730e+00
6.228819449774203321e-01,-4.739553082762233416e-01,6.311463801169258092e-01,1.641044430728792747e-01,1.125127863715784382e-02,-7.506260652518786936e-02,1.144665360450744629e+00
5.975769296198325531e-01,-3.357349542330593239e-01,7.036184840489876358e-01,2.738689256120103652e-02,2.507965472733877932e-02,-5.824745873416049824e-02,9.977981448173522949e-01
5.624010962878112085e-01,-7.417696784713276870e-01,7.188789843279275171e-01,3.717338799830601642e-02,9.457834074435126498e-03,1.162567248887657993e-02,1.390769600868225098e+00
6.546661750259754609e-01,-7.323724557110066202e-01,6.388086373277310770e-01,2.514715149826623683e-02,9.031079841878319678e-03,2.052424464501869869e-02,1.380412340164184570e+00
6.392495643813780326e-01,-7.151459456391059399e-01,6.363799504397730233e-01,-9.007780686961251726e-03,-5.638988113408121595e-03,1.813494539885858112e-02,1.353452682495117188e+00
5.824071567423196871e-01,-7.054939772667904174e-01,6.534859809099802241e-01,1.404916411136092509e-02,8.366683918808444451e-04,3.256846351987283269e-04,1.325095653533935547e+00
6.035649213959781711e-01,-9.089887851680924502e-01,7.268091018357444311e-01,4.568671060894535785e-02,3.295450932849869514e-03,3.797433867239738154e-03,1.579797148704528809e+00
6.038012522646332148e-01,-7.390510851473522935e-01,6.104858832925537104e-01,2.616454308756267343e-03,2.245976692090352264e-03,-1.607227929561272708e-04,1.346220374107360840e+00
7.327906117231300920e-01,-7.431729304729284280e-01,4.292224325509750305e-01,1.802523209686309608e-02,-7.578208888467588555e-02,1.383071226471312490e-02,1.356961250305175781e+00
5.966832834025252996e-01,-7.525417138638155201e-01,6.158000491641579810e-01,2.266385873714586718e-02,4.277742655814690403e-02,-2.563471756761319734e-02,1.362192511558532715e+00
6.700818941289019559e-01,-7.535708477477058853e-01,5.538963989228329332e-01,1.791072766464884072e-02,-4.759017350712253097e-02,3.521220609441472887e-02,1.373446345329284668e+00
6.507378750365161446e-01,-7.634076092840892391e-01,5.030256434613604721e-01,-1.708266683350397053e-02,-2.694824155841850088e-01,1.394040233794461951e-02,1.425503611564636230e+00
7.392605360561175232e-01,-8.096795956246777282e-01,3.426200897916592547e-01,3.894646235443696702e-02,-1.621092465315135400e-01,3.481593194390110446e-02,1.424497127532958984e+00
5.177210397284723875e-01,-9.085079773274554737e-01,6.258103868786502044e-01,-2.664359649476114641e-03,-1.923119623176608173e-01,-2.048007169060439905e-02,1.520593285560607910e+00
6.114069386558955710e-01,-7.441554366428791978e-01,5.956905540393250265e-01,4.781306774970587627e-03,-1.004074167635657794e-01,1.185098498341002372e-02,1.359127163887023926e+00
6.328627388755456717e-01,-7.719909084299042545e-01,5.393565457269833274e-01,1.153357743757130703e-02,-1.073513602747929729e-01,3.290301786304453135e-02,1.374487042427062988e+00
1.046642160866700477e+00,-5.934154179545205743e-01,3.697748163149349732e-01,1.480528997402738058e-02,-1.024435524712914297e-01,2.127568574310370886e-01,1.485185146331787109e+00
7.950930856197401253e-01,-8.269782863024564001e-01,4.511853433803812430e-01,-1.454692225295506000e-02,1.852556715226962303e-01,-6.199423796745035659e-02,1.518772125244140625e+00
7.381930418798567928e-01,-7.730099025586913974e-01,5.747227594885510049e-01,6.553098779449558105e-03,3.576607111069660117e-02,2.557271945014838802e-02,1.438523054122924805e+00
6.978427785123025862e-01,-6.713967776966215384e-01,5.384900819832911800e-01,1.737378243384373258e-02,6.111545525907222803e-02,4.011417240635767323e-02,1.303440213203430176e+00
7.083035269461454009e-01,-7.292381096227917858e-01,6.007667618437022572e-01,-2.179217817139085783e-03,1.010069476310643533e-01,-2.414249656278701778e-03,1.397905707359313965e+00
7.600256685921509270e-01,-7.824511469459936031e-01,4.739020450141129825e-01,-4.779745114405654395e-03,2.572503203974632613e-02,-3.290190038482087437e-02,1.423047423362731934e+00
4.635086914005249747e-01,-3.112177598693645075e-01,7.186557156283626124e-01,2.007314158671206009e-03,1.147149685098550025e-02,6.018609856920027756e-02,9.350102543830871582e-01
2.822326152038764357e-01,-5.107516668100081647e-01,1.032229387377918917e+00,-1.591826606548055190e-01,1.181747412953529086e-01,2.143029331884204608e-02,1.380342602729797363e+00
6.587038549921975239e-01,-5.869432728199793781e-01,6.940953879043121333e-01,-1.338395364420950362e-01,-3.624404365224314500e-02,-5.575710425705952822e-02,1.289953947067260742e+00
5.888149772876933863e-01,-6.622405160484283737e-01,7.155460098849067974e-01,-1.836069205089759793e-01,5.097557098079058720e-03,2.622639677344901915e-02,1.357580184936523438e+00
5.724745115861246125e-01,-7.457429537891183680e-01,6.910441020440546422e-01,-5.428600085777159469e-04,3.192085910343804567e-02,9.116026078143388625e-03,1.382520675659179688e+00
5.939246112352650764e-01,-7.871507861508749704e-01,6.823348481666996479e-01,9.428156083730848680e-03,1.357297308201145525e-02,-9.375847988371190100e-03,1.427714943885803223e+00
5.596523907773254258e-01,-6.305971411679710537e-01,7.257282025556377469e-01,-6.705487520690610326e-02,-4.984050171946941346e-03,-3.531196313022302098e-04,1.286666512489318848e+00
6.656626369714575553e-01,-7.807504744801585517e-01,5.472412909558300731e-01,-2.774094515084625165e-02,-4.686630194441275543e-02,-3.809972314961413559e-02,1.395743966102600098e+00
7.674985919130724588e-01,-7.880667694700860260e-01,3.739208599305465786e-01,-6.759681162200581982e-03,-9.119520792264118603e-02,-5.065184730463331148e-02,1.412527799606323242e+00
7.711558492973720202e-01,-7.636112884133293699e-01,3.119734975213737105e-01,-3.816266604548784747e-03,-5.567893210460308356e-02,-2.089036957664910585e-02,1.368310570716857910e+00
6.719900900485533679e-01,-7.560892906289697901e-01,6.005528291838153621e-01,-2.554733026747222843e-02,-7.754577886037884900e-03,-2.002044700618414719e-02,1.394932508468627930e+00
6.293126579844314783e-01,-7.827806072779386337e-01,6.382669767439640429e-01,-3.194640532470014588e-02,-6.200491756162496843e-02,-5.413929638290456564e-03,1.421764850616455078e+00
6.753395854230532791e-01,-6.909247744992079721e-01,5.471994691528228039e-01,-2.989174648832630329e-02,-9.311050907335999272e-02,3.916840572307711196e-03,1.317862033843994141e+00
8.083915108782834258e-01,-8.212986797044732334e-01,3.593227357097177888e-01,-4.242855689658046187e-02,-2.189022981703672155e-01,-3.713110868459613273e-02,1.509636163711547852e+00
1.765611768509323665e-01,-1.191287087126442712e+00,9.908658654528855747e-01,2.406138571573931406e-01,1.277232241475702579e-01,7.446854301026029077e-02,1.971600294113159180e+00
6.167498624027947240e-01,-3.917236120119806930e-01,6.632541955429609448e-01,-5.326625200701239071e-02,-2.651371627004235620e-02,-9.138339673431941645e-02,1.049644351005554199e+00
2.192676891186925159e-01,-6.051960492327103092e-01,8.711340987709641492e-01,2.029762959931866728e-01,-1.970649374732625549e-05,6.872951470886498604e-02,1.334121346473693848e+00
3.745064095484493816e-01,-8.337196971232238019e-01,8.344861774780035768e-01,1.220075770409521747e-02,8.331502957840331014e-02,-8.348074714707394428e-02,1.506429314613342285e+00
1.970975226739790920e-01,-7.071159378736516787e-01,9.464276320175581958e-01,4.005206429286985864e-02,-7.336855955139467977e-02,-2.253492741155519591e-02,1.441921234130859375e+00
3.946794484952655391e-01,-8.692397260705153617e-01,9.120664791046916298e-01,3.155964826646816355e-03,-3.352336740325293635e-02,3.139473239866733684e-02,1.589174151420593262e+00
4.301282672282341624e-01,-9.142004975125441746e-01,8.184980590743389239e-01,6.919618852600005129e-03,-3.673828100793526813e-02,-2.791065433831765863e-02,1.576920270919799805e+00
5.744904027881247988e-01,-1.886294619273857220e-01,5.778801787610625684e-01,-1.340074762527571350e-01,1.993367742422460023e-02,-4.992949131299294352e-02,8.046708106994628906e-01
6.350654718684937139e-01,-5.402640057717853495e-01,6.000430279466011374e-01,1.262903588830201380e-02,-1.023513588618734900e-03,6.298489657594696922e-02,1.163548827171325684e+00
7.811556782729556225e-01,-7.680133598428309227e-01,4.453465300277871242e-01,-3.171900176983494246e-02,-8.160461027370267961e-02,-5.996982933433344515e-02,1.423465013504028320e+00
6.748072721651573458e-01,-7.728188314532271619e-01,6.113327307606155614e-01,1.288098412291237109e-02,-9.642427898304746850e-03,-1.284771758177555290e-02,1.417404294013977051e+00
2.747907833500687902e-01,-7.708840578974281987e-01,7.860608907813999569e-01,3.732005167949675045e-02,1.190417033761721061e-01,-1.185425538767125898e-02,1.391606211662292480e+00
2.388800252592850615e-01,-7.730049985073538243e-01,8.477947744062040991e-01,-2.827837854422671215e-02,1.599347741639671472e-02,-8.146454974473563496e-03,1.419227123260498047e+00
1.917772075467213955e-01,-7.760288535053305736e-01,8.611177160351777271e-01,1.936084739974053975e-02,2.139628708596886392e-02,-1.154499345183285621e-03,1.426519870758056641e+00
2.033508514901055941e-01,-1.008633661434159556e+00,1.018890024733100308e+00,-4.415827334449921177e-02,1.169076633667677848e-02,-4.624835706100668964e-02,1.770623683929443359e+00
1.927399663230732196e-01,-8.224660070763690767e-01,8.429463720925836068e-01,-1.452606667474385001e-02,6.026104792928552167e-02,1.938028415415740321e-02,1.458135485649108887e+00
1.693767915928660606e-01,-8.257061053294740827e-01,8.782252897891404952e-01,-4.885772872458601229e-02,1.071931250051986889e-01,6.815410947081860030e-03,1.496593117713928223e+00
2.021707946146332202e-01,-9.338742342135333274e-01,1.013461834168678077e+00,-3.257850112346960536e-02,1.397226147294554702e-02,4.490524097546225515e-03,1.695371627807617188e+00
5.281602457046569166e-01,-9.294765698265197162e-01,7.480599567714006914e-01,2.525513265111704181e-02,2.230083710315013956e-01,-1.600316786910036676e-02,1.626491546630859375e+00
1.688773940788061978e-01,-8.116892653345046948e-01,9.992585369411566276e-01,-1.799760573821728490e-03,-1.423115054617418523e-04,-3.088501299290734997e-03,1.570135712623596191e+00
6.758611328756338743e-01,-1.497674029285681607e-01,9.025102548991907891e-01,4.267849055209250314e-02,8.295142989029609393e-02,-3.451026244397829151e-02,9.745975136756896973e-01
5.641668621978429554e-01,-2.960818438476292558e-02,6.594002985974529718e-01,8.431983917225095715e-02,9.232165266637289147e-03,-3.328799639445281094e-02,6.656537652015686035e-01
5.914567636008365437e-01,-1.603417201629838695e-01,5.767180972029668506e-01,7.187829394228059665e-02,2.441694165383439391e-02,6.239529941583839973e-02,7.637442350387573242e-01
5.956854717280664069e-01,-1.949140700211909882e-02,6.305250681109332289e-01,6.860969702750577270e-02,7.911701259235752806e-03,2.735488763100039217e-02,6.462534070014953613e-01
5.229893301695651697e-01,-9.409682975819128048e-02,7.344354479991657136e-01,-3.360330547282388419e-02,4.282836846242553397e-02,-2.582063527525363389e-02,7.529115080833435059e-01
6.581814340178822054e-01,-1.624380059023314837e-01,5.461086698168953202e-01,5.938625831774107383e-03,-2.812378837162421777e-02,9.233241600764387214e-02,7.887090444564819336e-01
6.975167477527878246e-01,7.802601882830195734e-02,9.983370593676916815e-01,4.794437083295335217e-02,4.563966465514513599e-02,-5.069162673742996783e-02,8.255124688148498535e-01
9.194412274809102836e-01,1.733384084842448658e-02,7.214595617368062541e-01,3.516745795842702877e-03,-8.747060494478989257e-02,5.735833061413994627e-02,8.409839868545532227e-01
7.265259702310467027e-01,-7.705586590700699290e-01,4.841355944729697769e-01,6.033829584343067091e-03,-2.146451645650892040e-02,-4.998614893086319316e-02,1.395035386085510254e+00
7.533325720240409140e-01,-7.675881378309153957e-01,4.855121921109629701e-01,-1.788711876358028800e-04,-3.429118017073801844e-02,-7.248576533052943083e-02,1.413111567497253418e+00
7.378224151662904351e-01,-7.858362469345937518e-01,4.834047022310272723e-01,6.050336445769822005e-03,-1.828876910439035733e-02,-5.211549335626645962e-02,1.416996717453002930e+00
7.522832078105107234e-01,-7.652920000435500247e-01,4.535738103501739671e-01,1.337464451087075476e-03,3.501698603456582931e-02,-1.604900605046594153e-02,1.394060373306274414e+00
7.936361133938409917e-01,-8.125273372762137347e-01,3.594007821205038589e-01,-2.968217850005928915e-02,4.668621645744722853e-03,-5.827844961928331513e-02,1.443525552749633789e+00
7.597111610475487664e-01,-7.539983861562625789e-01,4.580219095717418254e-01,3.392773981330379079e-02,6.870187304430171171e-02,-1.577805463346112352e-02,1.394282221794128418e+00
6.519721341810423842e-01,-7.782171917532548777e-01,6.413029123426269296e-01,-5.438888446919162064e-04,3.280112292978477808e-03,-1.787422450919140668e-03,1.424899697303771973e+00
6.394941963879526847e-01,-5.740133885452802787e-01,6.345901834962124344e-01,3.677707087973675071e-02,1.002954260255803018e-02,1.166392383684936203e-02,1.213029742240905762e+00
6.612189431952124608e-01,-7.625013540477282303e-01,6.344946543303484621e-01,6.761751533286140814e-03,1.075947379992593330e-04,-1.530487668446535833e-03,1.410599112510681152e+00
6.512777093346256985e-01,-7.019171783349531513e-01,6.335709808427525402e-01,1.611311139307266757e-02,-4.994422085768056817e-04,-5.879559504354659296e-04,1.344719290733337402e+00
6.486099418829724961e-01,-7.166997225751219336e-01,6.499712356052407269e-01,1.653239915412124282e-03,-3.404336827639445340e-02,-7.583981584181885864e-04,1.367266535758972168e+00
6.428255397191048326e-01,-6.411165495913551116e-01,6.362441121183801673e-01,6.473778139193288317e-02,-7.862606990713368396e-03,-1.976960086687246619e-03,1.285640120506286621e+00
6.670352637966929787e-01,-7.559669909991626469e-01,6.345742640931854028e-01,4.838889271903347444e-02,-4.753401573986832870e-03,-3.455014278630040570e-02,1.410840272903442383e+00
6.439908264966160978e-01,-6.036670809821828021e-01,6.120986553742768788e-01,5.727040516434818429e-02,3.663480213858056472e-03,-7.018630612564034747e-03,1.236084342002868652e+00
6.412165485438392487e-01,-6.055090150739880217e-01,6.322027543894752633e-01,6.028674017322407236e-02,-5.167293563704115390e-03,-7.400280006178810467e-03,1.246722102165222168e+00
5.987051327216266206e-01,-8.851222582950983853e-01,6.784105896919006007e-01,2.691039638025819608e-02,-2.132577416338385379e-01,8.333168042992146474e-02,1.576644301414489746e+00
5.946274698006833725e-01,-7.609302247182135881e-01,6.616022607026987856e-01,-1.462372472317137635e-02,-2.201707346892763789e-02,-6.567701037581799225e-03,1.391055583953857422e+00
6.306587790949444994e-01,-6.539708725239554710e-01,6.217820495811000603e-01,6.902859569800900985e-02,-5.994628046285158107e-02,6.561260264470084036e-02,1.294966936111450195e+00
4.950282111340998936e-01,-7.437350743763996297e-01,5.687913412428575732e-01,-7.656977385168882606e-03,-1.528630711364644956e-01,-7.307768380043648537e-03,1.304525971412658691e+00
6.604280637911983387e-01,-7.560670602988893707e-01,6.692489263516219200e-01,7.385575071119071695e-03,-8.376189232561994866e-03,3.630531791219014648e-02,1.422448396682739258e+00
6.491342255925113269e-01,-5.672855150606939123e-01,5.992658116572986415e-01,8.340101053729667702e-02,-1.144910363136708402e-02,-6.855807560484121141e-03,1.201209545135498047e+00
6.452300437809201927e-01,-3.711822205695494148e-01,6.183261370522922240e-01,8.449319360221975439e-02,2.003367543399170447e-02,-5.583901345204074496e-02,1.019042491912841797e+00
6.314929120345853519e-01,-5.315900071505572644e-01,6.203031076396461341e-01,5.953909025311657222e-02,8.325838213102959226e-03,2.907265781093194140e-02,1.163293004035949707e+00
6.417279601151094637e-01,-5.317361145399425171e-01,6.132497839261983330e-01,5.676714420695661012e-02,1.904867630401697529e-02,2.177674703943053083e-02,1.164727210998535156e+00
6.355193701063460709e-01,-5.831738746919038485e-01,6.130014477662820704e-01,6.282645162398577121e-02,1.100714771395795884e-02,5.693579929550909163e-03,1.212674736976623535e+00
6.288098812866754761e-01,-3.916189024066623059e-01,6.087676409815749867e-01,1.456929089084033901e-01,1.802658209626859659e-02,2.455735518383031502e-03,1.042063832283020020e+00
6.156100461539306679e-01,-4.351787384727847652e-01,6.078217205660714217e-01,6.633175052649951942e-02,-1.491275281807748946e-05,-4.899980873886010391e-02,1.056615591049194336e+00
6.358205945487613864e-01,-1.553682480724868364e-01,6.008061800923634177e-01,4.566537051794771623e-02,-1.675012324723132093e-02,-2.107103570320700489e-02,7.797002196311950684e-01
5.963720870652629014e-01,-5.033682487154796936e-01,6.433226629838961763e-01,1.965905790838858719e-02,-2.121459480110066478e-02,-6.012392626814896252e-02,1.129876494407653809e+00
6.409402322860811019e-01,-1.290690564087433323e-01,6.430829293222550813e-01,-4.886598114479179938e-02,-1.033058134310026362e-02,-4.732554809626635106e-02,7.802382707595825195e-01
6.213209972598765507e-01,-2.332742059778967203e-01,6.038949873411518787e-01,7.275468394143594364e-02,-2.319786066707216557e-02,-4.347168390472726934e-02,8.595975637435913086e-01
6.874109037133430133e-01,-4.584762332126623985e-01,6.277461032756772585e-01,3.015122299220763039e-02,4.130646286446143511e-02,-1.480056268814997911e-01,1.149700403213500977e+00
6.564353108003602166e-01,-4.936776630401094046e-01,6.231005164346102854e-01,6.665941653070962813e-02,-3.506089678498959528e-02,-1.157481872261912625e-01,1.158768057823181152e+00
6.260883984263068136e-01,-7.666265131939319355e-01,6.249503894130001846e-01,5.905179046100370900e-03,5.829665649364177381e-03,-4.232056600624700682e-03,1.392239689826965332e+00
6.318897576533497595e-01,-1.771861081961022544e-01,5.826287323848692301e-01,-2.551965753702653897e-02,2.791951718752106945e-02,-1.493746175860551362e-01,8.297017812728881836e-01
6.585561021445087704e-01,-7.414729982881672621e-01,6.406860418935221846e-01,6.574721476623820657e-03,2.961126672488336581e-02,1.106349724277555166e-02,1.392303705215454102e+00
5.933611629869814941e-01,-7.879929902885365323e-01,7.012930381344782971e-01,1.006391762186218813e-01,-2.741393936870076611e-02,2.620701184814485177e-02,1.450372576713562012e+00
6.484634112952682994e-01,-6.406935177426761330e-01,6.262354441978296160e-01,1.678643729582468200e-02,-2.194486760550583629e-02,9.715183680783719133e-02,1.290104627609252930e+00
6.066505764203556916e-01,-7.504208007261654600e-01,6.211956343884050824e-01,-1.650588879560932823e-02,-4.057310723313556355e-02,-1.095891200731135065e-02,1.366641521453857422e+00
5.572356642202384025e-01,-7.451750674843482525e-01,6.524076484381620133e-01,1.739560087341828279e-02,1.129091483479067320e-02,-2.301789109659255900e-02,1.353574633598327637e+00
5.468760004493555815e-01,-7.477586962194937570e-01,6.820289868898499197e-01,3.068168014742173738e-02,2.796054392078237485e-02,-2.454569312423473051e-02,1.369779586791992188e+00
5.480992085538467506e-01,-7.514402944467014622e-01,6.529928517725182013e-01,2.637814653896002753e-02,4.723819084042359118e-02,-1.994984992395437348e-02,1.358710646629333496e+00
6.159809732492136369e-01,-7.726366543731256753e-01,6.666363849432566102e-01,1.992523664921219163e-03,2.161139902068232380e-02,-1.094156199133691602e-02,1.415251970291137695e+00
5.129027184106849102e-01,-7.558475760795222431e-01,6.712981379554258110e-01,1.895196459471833877e-02,8.070502883892163859e-02,-1.818198461227387916e-02,1.362860918045043945e+00
8.164575381016856426e-01,-7.555004327873083847e-01,2.769872143167840806e-01,-9.415325971407029898e-03,-2.048964788743123933e-02,-2.966414008632125513e-03,1.384054660797119141e+00
8.707625672269816430e-01,-8.419251427086796857e-01,3.032041170327572921e-01,1.669641348148162910e-02,-2.290920168326623582e-02,-7.518513543191886542e-03,1.511936426162719727e+00
7.739623561969743992e-01,-7.555424233812061408e-01,4.109665585254203557e-01,-6.026267336038208626e-03,-6.223530568408736433e-03,2.221049112346635407e-02,1.384793162345886230e+00
7.919077270358254594e-01,-7.650733303219290349e-01,3.265106536863971454e-01,-9.353239737943322071e-03,5.138328129075013864e-03,3.191729815234557038e-02,1.385484695434570312e+00
9.112882224575958867e-01,-8.124856266369497870e-01,1.966464725769077604e-01,1.150980627114894794e-02,-4.740368973833909705e-02,7.228059718905734642e-03,1.502505898475646973e+00
9.212925217778986653e-01,-8.606755471658190659e-01,2.098978366170891063e-01,1.742514913594724046e-02,-5.393758540194770225e-04,-6.637116282521211830e-02,1.558183908462524414e+00
9.840965703196687953e-01,-8.282688690672895815e-01,1.368675581492606042e-01,-4.075164511736305284e-03,-9.368230378832897998e-02,-1.568746574227549567e-02,1.579270124435424805e+00
8.331359023468960512e-01,-7.899781004672512541e-01,3.070673279068659722e-01,-7.597654685376792338e-03,-5.525233587764669801e-02,1.391680059577396489e-02,1.437807559967041016e+00
8.165825443368592840e-01,-8.042637320615219076e-01,3.123886381900465858e-01,1.667533944838584317e-02,-4.066037353467970294e-02,1.161433788707839400e-02,1.438864827156066895e+00
8.025812418027811201e-01,-7.509346678768652472e-01,3.412919829517330195e-01,-6.639694502083714686e-03,-7.031760352252549792e-03,8.508524007968994987e-04,1.381977558135986328e+00
1.116631551116416210e+00,-1.118811210598515293e+00,4.545274587867350474e-02,1.098700018661856598e-01,3.845957533000982087e-01,-2.615900685602260203e-02,2.057201623916625977e+00
7.446136248804663404e-01,-8.311231000294189153e-01,3.779577680003649021e-01,-8.685601819993895092e-03,2.084602646621671884e-01,2.794689328507474549e-02,1.473962664604187012e+00
7.381974523846435154e-01,-7.647953595910637059e-01,3.911064260480370813e-01,2.000937854308072056e-02,6.118177417216915520e-02,-3.160170146221769755e-02,1.368652939796447754e+00
8.225053057021985969e-01,-8.597071242850931050e-01,3.310652784539334093e-01,6.587684117699792175e-02,1.479216943064627088e-01,-4.516195522548754199e-02,1.526245713233947754e+00
7.495677633046170518e-01,-7.684224914433395170e-01,3.582812098019850788e-01,-1.690546576875701090e-02,6.222023680044314747e-02,2.070176808522306011e-02,1.370104908943176270e+00
7.308339892761865908e-01,-7.519519799068431487e-01,3.536871193142437919e-01,1.345932764440249966e-04,8.021410761136420209e-02,-5.224629328117293484e-03,1.342032313346862793e+00
6.520971183599414411e-01,-7.660854210776190110e-01,6.461489025701261379e-01,-1.174543590033712802e-02,-8.128596452880306258e-03,1.358798732798881075e-03,1.415436029434204102e+00
6.410043687939600554e-01,-7.414276266174918417e-01,6.410681002477220947e-01,-4.096885432549238377e-03,-8.796147045136074386e-03,-2.181574195395799348e-04,1.382566094398498535e+00
6.352497836505470730e-01,-7.509534960961568029e-01,6.681666098913732199e-01,-6.975445030617650165e-03,-2.412162747062074689e-02,-1.487571161878425280e-02,1.403861761093139648e+00
7.509373322587751254e-01,-1.256249675196519089e-01,7.081999162328365127e-01,-3.734595335686178436e-02,-1.470635631124461995e-01,-7.776661533194686136e-03,8.955303430557250977e-01
6.530878138504676578e-01,-2.258056987106517033e-01,6.442411709730413438e-01,-1.018839603914665354e-01,-1.076074775251648769e-02,-2.701472197067610395e-03,8.923379778861999512e-01
6.752006410508152312e-01,-7.600641035076727281e-01,5.921092788432631426e-01,2.131682166164332315e-02,1.542012227502902351e-02,2.069358710177298874e-02,1.396779179573059082e+00
5.959547451329907375e-01,-3.177968797479171492e-01,6.080779857778429998e-01,-7.315292763972630619e-02,-7.288058485700224867e-03,3.087922544319565699e-02,9.301831126213073730e-01
6.113750694176733891e-01,-4.057307521107665904e-01,6.187814179044871521e-01,-4.961561343699734394e-02,-3.956857236178153679e-03,3.641211628433108083e-02,1.026402354240417480e+00
6.257229243601829527e-01,-3.514217067815397222e-01,6.152280980591992021e-01,-1.525316808160267490e-01,-1.267283379971924015e-02,5.965474258219977816e-02,1.012730121612548828e+00
5.960569517115685834e-01,-3.606341824050348643e-01,6.186108043294797909e-01,-1.414778329063667295e-01,7.965814782655787282e-03,7.454170793717660587e-03,9.988737106323242188e-01
4.480802789643690831e-01,-1.564417631264211628e-01,6.895613911904400206e-01,-4.297353335510912392e-02,2.478610377935850859e-02,1.458360314850442284e-02,7.601065635681152344e-01
6.485387233429171783e-01,-4.413828986280354805e-01,6.877962643127761844e-01,-1.939853262606284212e-01,1.160303350112294046e-02,3.059303277936650800e-02,1.161189317703247070e+00
6.270481812230452867e-01,-7.574019938252664064e-01,5.942372877230481798e-01,1.370989535306860012e-02,4.719950769966139124e-03,-8.761502333216455302e-03,1.368654370307922363e+00
5.112128310092421968e-01,-7.797771535556030642e-01,7.558556104423845845e-01,-7.129609128016190824e-03,1.605078828679655512e-02,-1.300208638269281141e-03,1.429428935050964355e+00
5.262074450546543325e-01,-7.953510614335053130e-01,7.463522320922106879e-01,-5.350115835050800461e-02,2.936999957697407695e-02,-3.615970297148787382e-03,1.448146700859069824e+00
6.347349742159968944e-01,-7.647268975118726164e-01,6.188839292652053015e-01,1.053706647476744876e-02,6.930586432657293537e-03,-4.266114812953889640e-03,1.391795158386230469e+00
6.107399508903057495e-01,-7.762972588231301652e-01,6.642189993645644108e-01,5.608626794448531155e-02,-2.101516883327437125e-03,-3.062043357877838878e-04,1.417871713638305664e+00
6.527691251835110453e-01,-7.559917233848956197e-01,6.247081666128357913e-01,-5.371574556386522412e-03,-4.027217706709172555e-03,-8.434736625295327639e-03,1.395066976547241211e+00
6.369044043545357692e-01,-7.496652237694020338e-01,5.979645410985754417e-01,-1.296819254327675162e-02,1.922454025598254596e-02,6.006355947582502595e-03,1.368144869804382324e+00
6.403386851581347461e-01,-7.627997975515172779e-01,6.427891632883571127e-01,-1.798233377380645606e-03,-6.393934611468891568e-03,2.098752241979665208e-03,1.404417157173156738e+00
6.395770034025587414e-01,-7.532150216680274513e-01,6.330438954062698187e-01,9.215422261084038310e-04,3.231180068706316190e-04,1.469009874348560507e-02,1.389770984649658203e+00
6.321857798219872038e-01,-7.664380559561954076e-01,6.389824204253080620e-01,-4.861508664375243684e-03,-2.769916994335699153e-03,1.346705819936622715e-02,1.402261972427368164e+00
6.345115627732097474e-01,-7.682389820910965339e-01,6.248200725536692257e-01,-3.953986941731366112e-03,7.068507548532222164e-04,8.476363063648198470e-03,1.398024439811706543e+00
6.573099910695155979e-01,-7.712288760477976624e-01,4.082239625474664568e-01,-1.337658536069722542e-02,-2.034318742541036951e-01,-1.771485060336117079e-02,1.368418812751770020e+00
5.502974440757405494e-01,-7.406389537210046337e-01,6.549612810137782626e-01,1.086167446516057063e-03,-1.010290222064064852e-02,-1.466786431105888272e-02,1.346677660942077637e+00
6.985821312022303387e-01,-7.589487210072711765e-01,4.930678023369229335e-01,-1.124208113965855481e-02,-1.059626082190615604e-01,-7.252597287403230938e-03,1.378880023956298828e+00
7.101364895643085262e-01,-7.665988660739160299e-01,3.791745702858178024e-01,-2.458731866092376747e-02,-2.032055974190231928e-01,-1.973784870495386493e-02,1.388668417930603027e+00
6.317128131821243553e-01,-7.658594519304884329e-01,6.264120624194929876e-01,1.470213419343267304e-02,2.105365256433741530e-03,-9.863890488503548534e-03,1.395271182060241699e+00
6.685448747936239000e-01,-8.940322014228919700e-01,4.291940064309456848e-01,1.491518759497815171e-02,-2.014839401302588873e-01,1.708796804006682251e-03,1.499131560325622559e+00
7.266833114170718755e-01,-7.801400592221795494e-01,4.601486461683028106e-01,-4.357505738846646423e-03,-6.938945415468336653e-02,-1.011595056490127362e-02,1.398122072219848633e+00
6.122379968684406037e-01,-7.626050215221189532e-01,5.602930675865379628e-01,1.250392429297524088e-02,-1.412343979564395502e-01,2.546027023128268150e-03,1.371789097785949707e+00
6.559598139677278450e-01,-7.636840243371868509e-01,6.548300891144389624e-01,-8.413592466948142815e-04,-2.190683391051927859e-02,4.348059532932988143e-03,1.419607281684875488e+00
6.687578970845946547e-01,-6.713004246834367583e-01,6.405768561399616257e-01,-4.382641604149703496e-02,2.856929826440464046e-02,-3.947034718649346935e-02,1.331041216850280762e+00
4.947291600982668958e-01,-7.910304204937164130e-01,6.976354573772908241e-01,7.086561742135993880e-02,-4.120540603467981455e-02,8.185483613584319112e-03,1.405559659004211426e+00
5.217449445189233925e-01,-7.707172535916751999e-01,7.261093803433898985e-01,-2.164721980109958477e-02,-8.035844304416206105e-03,5.932301812340235077e-03,1.406435847282409668e+00
5.833768896302042872e-01,-7.435547152029136075e-01,7.792089337932580628e-01,-1.560489214117274370e-01,-4.866849969176250019e-03,2.462244236875511111e-02,1.460786461830139160e+00
6.176297763958891185e-01,-6.298240194291329086e-01,6.608068579269569254e-01,2.239680529748163187e-02,-2.232989930860796585e-02,-2.376325831825282925e-02,1.271440744400024414e+00
5.798503805200799777e-01,-7.513899593201183169e-01,6.728315513267304482e-01,-3.007476477200487358e-02,-6.834714424995903467e-03,1.729848365764751622e-02,1.381440520286560059e+00
5.359916082333107124e-01,-7.700378002438980074e-01,6.990962719646640622e-01,-2.824487700038966209e-02,-7.623106691067624285e-02,3.529634386821882408e-02,1.403174877166748047e+00
5.495895541771829151e-01,-7.260400764665798645e-01,6.699572084670389893e-01,-1.042975545674903505e-03,-5.776433310641847230e-02,3.851093893139104912e-02,1.345260739326477051e+00
6.795087802982626712e-01,-7.242713880729367837e-01,6.244122300426746541e-01,-1.044984382654896675e-02,1.200059687741655791e-03,-2.477173013183105806e-04,1.377179384231567383e+00
7.828831685865729195e-01,-7.394565447154548554e-01,3.050096879075690492e-01,1.397067150327318633e-05,1.277559953334052138e-02,3.236375638818968312e-03,1.348672151565551758e+00
2.594432712373675454e-01,-8.138477760136183514e-01,9.225672370474672368e-01,1.113184707359481281e-02,3.531271154385376421e-02,-2.847780370441302042e-03,1.519061923027038574e+00
1.037861011104202064e-01,-1.198660689252731393e+00,1.167419752952175482e+00,6.855437113035414698e-02,-1.756088752141715670e-01,2.194856246296423424e-02,2.078718423843383789e+00
1.105022469145083563e-01,-8.274778465337737643e-01,1.132617679901150476e+00,-1.115216597198279008e-01,-1.401904797185605234e-01,-1.020130697339233228e-01,1.735148906707763672e+00
-1.564253108147064392e-02,-8.507609686420104511e-01,1.000786123095763758e+00,2.367325173715744205e-02,6.417117282885623220e-02,-2.320907955556361993e-03,1.610415935516357422e+00
1.028206495983061408e-01,-8.333493239659345297e-01,9.387707789782439027e-01,-1.649334972995215309e-01,-3.268241628956601585e-02,3.490310471394891118e-02,1.564060926437377930e+00
6.323138039252329534e-01,-6.812969038764373764e-01,6.587229345548695214e-01,1.909817192826318566e-03,-2.173270565087838044e-02,-2.254104952607062853e-02,1.328124284744262695e+00
3.089188332995829178e-01,-8.518228291893813475e-01,8.350014455962087023e-01,-8.583624749036197765e-02,1.396327420471863701e-01,3.632721743372443243e-03,1.521632432937622070e+00
2.060573339588763764e-01,-9.193288186665019568e-01,8.406572416288693450e-01,1.369736286899332356e-01,2.885421171979735133e-01,-3.802276595749718574e-02,1.641271829605102539e+00
2.322834213083815325e-01,-9.959200311262128569e-01,8.710403813379560267e-01,-8.612315131179057448e-02,3.659952845508491759e-01,9.976046423028517296e-02,1.776227235794067383e+00
2.808392362266487474e-01,-8.550102494245097606e-01,8.057304582250004454e-01,1.298156160952381767e-02,3.372359129627689467e-01,3.097055407683505911e-03,1.582270741462707520e+00
1.072951310258179608e-01,-9.222939333596661404e-01,9.478930489990953223e-01,-7.917124450851138751e-02,2.066677872656593473e-01,-1.756592286835588837e-02,1.667331218719482422e+00
1.392374580465777500e-01,-1.063717571830419040e+00,1.069967382032130265e+00,1.152904578183541334e-01,1.967559959835613326e-01,6.341232183935105460e-02,1.897646665573120117e+00
5.785507934154390242e-01,-7.378140157654797804e-01,5.844624358854808577e-01,6.445150108309598454e-03,-4.252387284203024836e-02,8.125864269884767316e-03,1.321506977081298828e+00
4.904527775316829818e-01,-7.624904916333432592e-01,6.088667678892460966e-01,2.648062033151820510e-02,-1.301228760325667533e-01,2.462904302024805300e-02,1.336777448654174805e+00
5.798827399407457950e-01,-7.325588459693567200e-01,5.807024917741387959e-01,3.877351467507727644e-03,-3.803330860184325757e-02,3.386264463272419933e-03,1.314533591270446777e+00
6.258630728701450874e-01,-7.150885161788724798e-01,5.875375348080681404e-01,1.287016533407273587e-02,-1.133094821745218583e-01,-7.645263116839526134e-03,1.336943030357360840e+00
6.436604533615997159e-01,-7.261974229740101316e-01,6.341127925631553364e-01,-1.636908740025154463e-02,3.839342964560133950e-03,5.185035826963410241e-03,1.365449190139770508e+00
6.206114149039678729e-01,-7.647604047633345115e-01,6.237612436216261047e-01,-1.059063848000689825e-02,-1.324730798532042231e-02,-1.640456531613974228e-02,1.387551426887512207e+00
6.425643889668337660e-01,-6.594443177004268852e-01,6.470272855365694076e-01,6.105744458000735009e-02,1.754500718486627989e-02,2.780822125321089078e-02,1.309765100479125977e+00
6.431006799823211217e-01,-6.492481429925267555e-01,6.429354089189041055e-01,4.503846356157389930e-02,1.096041597482851591e-02,3.978215319617610379e-02,1.296589970588684082e+00
6.481219785395380129e-01,-7.699863057465116123e-01,6.569161175222029136e-01,2.606876304494432778e-02,1.366857497858614719e-02,2.324960971130738199e-02,1.424008607864379883e+00
6.399825425403296020e-01,-6.495229139070929358e-01,6.270282915516818267e-01,4.072883182182591294e-02,2.306564330715462144e-02,4.572922473047957154e-02,1.288073658943176270e+00
6.068664820064610943e-01,-7.801572282865480989e-01,6.669516310077213683e-01,-1.677064850989581218e-02,1.007404301692310308e-02,-3.626236162891469540e-03,1.418440103530883789e+00
5.782359526259736038e-01,-7.276430981166079892e-01,5.909715546265701391e-01,7.820336760849647822e-03,1.898578725326590180e-02,-3.515535848706535793e-03,1.312789201736450195e+00
5.666073652979890518e-01,-7.267183052251423581e-01,5.896973156006403149e-01,-4.685051670221179526e-04,1.605514705827423491e-02,6.004812263123816352e-04,1.305320739746093750e+00
5.883573544908389241e-01,-7.217979170359684060e-01,5.822292156405817209e-01,-2.333120215543142088e-03,3.349349522453939909e-02,-7.791493555899547561e-04,1.308395624160766602e+00
6.149149690845656657e-01,-7.376958419787320587e-01,5.512267196787066226e-01,8.156751759800125873e-03,6.522042686129295164e-02,-8.915211189586337223e-03,1.326900839805603027e+00
5.180988879725620944e-01,-7.285110465719556450e-01,6.179282380784827389e-01,-1.903863885630283298e-03,3.680105024180189977e-02,5.806691535958385421e-03,1.301009416580200195e+00
5.589785854111909424e-01,-7.324207087191232368e-01,5.513954359221695523e-01,-1.367124995706845043e-03,8.547409343283718375e-02,6.305200836056510218e-04,1.296109914779663086e+00
7.784051144237780218e-01,-8.340115422185456762e-01,3.579825967949505361e-01,1.224198124726674081e-02,1.907406344727740899e-01,-1.777871119423534221e-02,1.486368060111999512e+00
7.743602083885794407e-01,-7.476874192017616272e-01,2.763146253783779205e-01,1.843577878310578150e-02,1.498599433637816114e-01,-4.253055360631525367e-02,1.371294856071472168e+00
6.365204878600961846e-01,-7.616081277732230648e-01,6.109769551042669722e-01,1.539396638311571128e-02,2.541943391925602282e-03,-4.343995994484265571e-03,1.385817408561706543e+00
6.363888758981754989e-01,-6.198283457456731371e-01,6.363982428911441058e-01,-2.293531535049800341e-02,3.426017721920977810e-02,-2.581181460059878141e-02,1.259043931961059570e+00
8.609180963869815795e-01,-9.160710442158930267e-01,3.706815795245530509e-01,-1.693176492883389020e-02,1.699133291504500154e-01,4.918102799800980196e-02,1.619137167930603027e+00
1.120973839456666843e+00,-1.562379335148967208e+00,1.435801102779706573e-01,-1.645001395316495960e-02,1.900457674430099386e-01,5.875172721034604972e-02,2.377500772476196289e+00
7.934211432896481897e-01,-8.453538818553840706e-01,2.770595776066539506e-01,2.125785293880678994e-02,1.483675715196197398e-01,-6.451260598928609813e-02,1.478476405143737793e+00
8.089897776263130780e-01,-7.807120386862788086e-01,3.703886219031884419e-01,1.073053444478412610e-02,1.349886752656781208e-01,3.422152565836338641e-03,1.441292524337768555e+00
9.344455422710541415e-01,-8.611267670124553852e-01,2.497059875591197409e-01,-6.475202326009464431e-03,1.337343973221027660e-01,-6.083845889537459195e-02,1.590073347091674805e+00
8.588119383336476620e-01,-8.776308046193219692e-01,2.030847025750600054e-01,1.395223957346373739e-03,4.142100990511412423e-02,5.986532357249857439e-02,1.523969650268554688e+00
8.535818060484424707e-01,-8.713022418774600819e-01,2.223865136042874335e-01,-3.478075083253857110e-03,5.475293880424591392e-02,-5.866702755807354230e-02,1.517975330352783203e+00
4.696234298445097211e-01,-7.806387916033123986e-01,6.480815260329343408e-01,2.515816945937833851e-03,1.458342781294562351e-01,1.196519312244830220e-02,1.371996283531188965e+00
6.094408983899894938e-01,-7.611931008584752467e-01,5.728364799817082798e-01,-2.287174393384731191e-02,1.006482770006967425e-01,2.969618475751318806e-02,1.365434527397155762e+00
6.899538281406406570e-01,-8.654531572711936516e-01,5.270825088115915769e-01,1.983760018971233649e-02,2.144539350705996772e-01,-4.273337021019776166e-02,1.528763294219970703e+00
6.050488326906332537e-01,-7.503685465367043728e-01,6.397545981879484422e-01,-6.654491778620308211e-03,2.489449113276557754e-02,7.762823708709651153e-03,1.373890280723571777e+00
6.785464954100004498e-01,-7.537360994304302952e-01,6.404871893003295513e-01,-1.033955021075088146e-02,-7.633871202838157267e-03,-2.089442585692395313e-02,1.414275646209716797e+00
5.760235645625233492e-01,-7.719499858013513238e-01,6.503858109128868303e-01,-2.473308825143368667e-02,4.492290857213913913e-02,3.396668761371518519e-02,1.390737652778625488e+00
6.442262691583404699e-01,-7.602407731144837921e-01,6.566334481949239743e-01,-2.522859659995403681e-02,1.591768866347744241e-02,-2.030165037717211046e-02,1.412095308303833008e+00
6.357067329503645059e-01,-7.222119854375546044e-01,6.015689049129071542e-01,4.807219111469336094e-03,-5.264731229880327545e-02,-4.496670009801667645e-02,1.346552133560180664e+00
6.660216096956780296e-01,-7.629933522904271959e-01,5.757649962607115368e-01,1.618641691924225384e-02,-3.417701354424312193e-02,-4.146290338948140780e-03,1.387657642364501953e+00
7.843275490164272057e-01,-9.018578675725907878e-01,4.643451153218858263e-01,-3.659826738819762365e-02,-1.573935551520945775e-01,5.739073618767014801e-02,1.579328298568725586e+00
7.397946049809651647e-01,-7.706263957240727658e-01,4.361532557241938335e-01,8.581304446053495891e-03,-4.664754977839552508e-02,-5.018656949072762032e-03,1.386278390884399414e+00
7.424597890596950078e-01,-7.644615873722555577e-01,4.295172471576131357e-01,1.502057456855494105e-02,-4.329728372386185131e-02,1.437130558776330246e-02,1.379886150360107422e+00
6.932014899120312323e-01,-8.546355292073364307e-01,5.307602270594751204e-01,2.808083353846010238e-02,-1.393829314252437168e-01,1.788215994084099009e-02,1.494109034538269043e+00
6.319189338773105735e-01,-6.554914228484612915e-01,6.581450507387839322e-01,3.981608118214032682e-02,-1.277668242775082015e-02,-7.910814081929912200e-02,1.309922456741333008e+00
5.088227888915641817e-01,-7.492588166597206056e-01,6.267631003168228077e-01,-2.798481841749765175e-03,1.258146032338660625e-01,-1.819061811432243084e-03,1.338872313499450684e+00
5.542311203431455890e-01,-7.632945079402462252e-01,6.145525840695973407e-01,-2.058270790694320326e-02,6.954810662731118753e-02,3.587180586941197957e-02,1.355960845947265625e+00
5.420004808907752381e-01,-7.323496716502434500e-01,6.278301730745847742e-01,-9.384682538255025713e-03,6.902716977437231560e-02,1.058307769682738549e-02,1.324993014335632324e+00
6.871732368073169006e-01,-7.636342980713435313e-01,5.167932418565162056e-01,2.027304127653198687e-02,9.231370682224029900e-02,4.895311842788857212e-03,1.383312582969665527e+00
6.237084047378720353e-01,-7.646335479633576959e-01,6.007013012068910252e-01,4.495440520437277436e-04,2.425981675469371726e-02,-6.698408149619987720e-03,1.377672553062438965e+00
6.242723010597122091e-01,-7.531349809338790946e-01,6.272658248802007730e-01,2.661577666445116581e-03,6.547105877564651788e-02,-4.001929974744961385e-03,1.383586525917053223e+00
6.336260149491064197e-01,-7.665962183434386068e-01,6.540020525817710206e-01,8.593094743957512688e-03,-7.088951826067320904e-03,-4.221268801165974950e-03,1.410671591758728027e+00
6.616799347207333870e-01,-7.504795177844294507e-01,5.926156174477587024e-01,1.755771916266436056e-02,2.076780952763096835e-02,-1.416187986643222332e-02,1.379947423934936523e+00
1.325617384196808579e-01,-1.165084983464676593e+00,1.248688609812388606e+00,-1.075828559730055839e-01,-1.349779515582142930e-01,-2.868797843433504302e-02,2.114193201065063477e+00
6.231386147965340960e-01,-6.478337706226390269e-01,6.536168970778222231e-01,-2.220737088799513612e-04,-2.947128142387014926e-02,-3.340028160274290114e-02,1.288793802261352539e+00
6.282020241914569869e-01,-6.578979173785520773e-01,6.377931080209677805e-01,-3.487728017906343431e-02,-1.021417500497698999e-02,5.811441740072342474e-03,1.292495131492614746e+00
6.548867078051108237e-01,-7.725204559596805520e-01,6.326732534106502825e-01,3.982225713869713170e-03,-2.816059441311031652e-03,-1.771744699028932404e-02,1.416788697242736816e+00
6.307200850679974824e-01,-6.647483383937146106e-01,6.378007599368630265e-01,-3.470733804664857813e-02,-1.038312314040970574e-02,5.980874220911248235e-03,1.300579071044921875e+00
6.336864345983677094e-01,-7.241864434983359411e-01,6.484571987929709236e-01,-3.662932146372941539e-02,-6.587387840699308883e-03,1.555628705100112717e-02,1.367104649543762207e+00
6.137960269629021415e-01,-8.537236369077765286e-01,6.060165641800343561e-01,6.188055476736979699e-02,1.214628281863380649e-01,-5.539530198068017691e-02,1.485668540000915527e+00
6.231980125062230869e-01,-7.577046786777030807e-01,6.334804739835437903e-01,5.144302959107680331e-03,9.598743660885412227e-03,-8.400527319473636428e-03,1.386277198791503906e+00
6.363941475279909499e-01,-7.601221484139435436e-01,6.367269987414982957e-01,-3.179587522933225580e-03,1.223145405101470386e-02,-2.586568806718039792e-02,1.397572517395019531e+00
6.220858153817764302e-01,-7.569408326144057009e-01,6.383917713639639668e-01,7.605593877426247013e-03,7.292769531825865625e-03,-1.151145454919418054e-02,1.387514829635620117e+00
6.305574206959330130e-01,-8.015782468906890168e-01,6.805091653513316574e-01,1.686222339304769635e-03,1.270030367562945996e-02,-1.999923935333992875e-02,1.458333849906921387e+00
5.918849808007946578e-01,-4.954709338366073412e-01,6.454517015360337062e-01,1.831332992092060382e-03,-8.045498595082403379e-03,3.960712961590306253e-02,1.117304205894470215e+00
6.201962100300215663e-01,-4.877307594435749127e-01,6.122420381552264868e-01,-6.080412339837466124e-02,2.439921915903779312e-02,9.230138170264268194e-02,1.121244311332702637e+00
6.304029642394765043e-01,-5.786226307099425759e-01,5.522818529711417401e-01,3.830833207030925891e-02,-4.134213414283803567e-02,7.244984323018424655e-02,1.182654857635498047e+00
6.795096390702077827e-01,-6.227431830044255490e-01,5.449470429958442885e-01,6.729510030617728844e-02,-5.079557586736702102e-02,8.068936060104850427e-02,1.256818890571594238e+00
6.358427163567081930e-01,-6.268287489257114986e-01,6.305807476601392736e-01,8.675134812335201853e-03,-2.865634032733161557e-02,-1.409137039284935264e-02,1.261351585388183594e+00
6.274080888720148241e-01,-6.050423177711375944e-01,6.530810143650689348e-01,-1.146145534821170139e-02,4.257937266519486001e-03,6.342073895634445235e-02,1.250499367713928223e+00
6.711173686029904273e-01,-7.372145012812478804e-01,5.777181468753954663e-01,-9.003593277914270429e-03,2.717595083983341715e-03,9.213362152693208018e-03,1.364223241806030273e+00
8.108526305949539381e-01,-8.927484905314382324e-01,4.389393924737146069e-01,-1.396703933779837141e-02,2.416707773683908489e-01,2.728577497244649708e-02,1.607798933982849121e+00
6.077265070651289847e-01,-7.507191942917315064e-01,5.833162572856247508e-01,-2.286568271552823564e-02,-1.187812607941758636e-01,-2.043985696575899985e-02,1.363069891929626465e+00
7.349696089029814638e-01,-8.413062493422545085e-01,5.603831170424813379e-01,-4.052938380350451508e-03,-1.283918808586407556e-01,3.288187163995263951e-02,1.514158487319946289e+00
6.798104198498718942e-01,-7.581106988797651214e-01,5.067338836885243447e-01,-3.310504419797808545e-02,-9.753301381780545010e-02,-2.465120895674986767e-02,1.371988058090209961e+00
6.483317363030363101e-01,-7.692661751994332997e-01,6.429558242715767147e-01,6.765513354938671245e-04,2.398779377759751186e-03,-9.191752517274857578e-03,1.415013790130615234e+00
6.907523255069121237e-01,-8.226277552232367229e-01,4.447139623234653838e-01,-5.160610873810547033e-02,-1.547664847812005862e-01,-4.717636993094357495e-02,1.437020897865295410e+00
6.933706848455850613e-01,-7.673433088699737059e-01,4.741888330425257925e-01,1.160515911934311556e-02,-1.140514060283873282e-01,1.036105694968009194e-03,1.378765583038330078e+00
5.106766608078192604e-01,-6.912212719332448962e-01,6.899722316478871242e-01,5.911844025750376957e-02,4.642581263724973595e-02,-1.643078873959710447e-03,1.307348370552062988e+00
4.850604027809143903e-01,-7.089694320555770535e-01,7.703873507388363517e-01,-2.391079978883227462e-03,9.308399694866835439e-02,-4.523002162905773865e-02,1.371114850044250488e+00
6.102583302776637408e-01,-8.695556132983000008e-01,6.728810493293437833e-01,5.123784077718646079e-02,1.806297392563036563e-01,-1.062391241909894576e-02,1.546782732009887695e+00
6.070443851549085501e-01,-8.363547728992575259e-01,6.723316710355312642e-01,-1.407207304287474807e-02,1.808553905848288290e-02,4.157730375485043511e-02,1.479412198066711426e+00
6.035871886248228568e-01,-6.837668703739783194e-01,6.835383513117400112e-01,1.184082117001882851e-02,1.545760571204077560e-01,5.400724391258617668e-02,1.359209418296813965e+00
5.338287452477830097e-01,-7.655206732403516678e-01,6.652157180722941821e-01,-1.494415336791547234e-02,6.568481996313378646e-02,1.645787319362364276e-02,1.375032782554626465e+00
6.031968844720991818e-01,-8.114137214911806284e-01,6.710217251336506594e-01,-2.147951283135148340e-02,1.172719881915849915e-02,1.168472405071913989e-03,1.450334429740905762e+00
6.404204201984309286e-01,-7.689122026254254783e-01,6.397969107145069501e-01,-8.994491242330617670e-03,-2.751622439010503740e-03,1.368749311036170611e-02,1.409314513206481934e+00
6.114223292580100999e-01,-7.619249136823262880e-01,6.400551953627903190e-01,2.064066552780673917e-03,2.566771048197170890e-03,9.589112227037894023e-03,1.387996315956115723e+00
6.319889649158492162e-01,-7.478646360083905931e-01,6.693114703600688831e-01,-2.379776927174962354e-03,-2.601342101045006541e-03,-5.359267770461622477e-03,1.398932456970214844e+00
6.243810335479054174e-01,-7.672677287112045219e-01,6.263312624760585257e-01,-7.880976959823936950e-03,5.849125486458094450e-03,7.760220061772115166e-03,1.392793536186218262e+00
6.210666640362184632e-01,-7.721505369368681926e-01,6.393181729250895229e-01,-6.652540526148863383e-03,4.682583180187482701e-03,7.112700857325634542e-03,1.402556896209716797e+00
6.273795435501792195e-01,-3.988982502743365632e-01,6.172067651213269945e-01,1.346621477370092135e-01,1.087427077992631982e-02,-4.263305048863356289e-02,1.050294518470764160e+00
6.659422643181983625e-01,-4.424358318248544641e-01,6.842690484976021725e-01,1.643648137864158754e-01,-1.888870348555302461e-02,-2.479266981089207900e-02,1.154604911804199219e+00
6.341889915620363416e-01,-6.542471249662396016e-01,6.544424985764176750e-01,2.535080055235474153e-02,-1.950254199020003826e-02,-8.289624259953264074e-02,1.307768225669860840e+00
5.903654970058964668e-01,-4.095061889938583777e-01,6.345055116684219509e-01,4.427464467001171466e-02,-1.879941406751878610e-02,1.316958480301868087e-02,1.026297926902770996e+00
5.913407360322503470e-01,-3.232629026905151637e-01,5.945000593122267141e-01,6.690665934016440386e-02,-1.384218529285692308e-03,3.821910043463239148e-02,9.258599877357482910e-01
6.457456317675068780e-01,-7.584683769621739513e-01,6.467011942979542516e-01,2.186004419747442171e-03,1.328715887683220263e-02,6.599803333403088564e-03,1.404932141304016113e+00
8.124368102773652511e-01,-8.602604578376383815e-01,3.414662313919393788e-01,2.128348308581635984e-02,2.315286296913088293e-01,-2.321644871681743938e-02,1.547814846038818359e+00
6.276401107316409433e-01,-7.471780648170888162e-01,6.454562968501620368e-01,-1.896643421503409590e-03,3.300985568533785358e-03,1.032883198350926547e-02,1.383943676948547363e+00
6.120494724296483557e-01,-7.633921215460485188e-01,6.351637452728198241e-01,-4.276857654579288570e-02,-6.327577617672228150e-02,-1.876593093992331984e-02,1.393815517425537109e+00
6.108067981846626582e-01,-6.994003660398496747e-01,6.570823385831687791e-01,-4.545769697916075477e-03,-2.086282352862510805e-02,1.342578968307681260e-02,1.334662199020385742e+00
6.367378223945716620e-01,-7.658582849143737992e-01,6.412456535571846583e-01,-2.133895010248150655e-03,3.662190934533963299e-03,1.010065380579366727e-02,1.404983520507812500e+00
6.461507518542060069e-01,-5.962189355471778640e-01,6.423139717952341954e-01,4.549772781070363092e-02,-2.642412080285470172e-02,-3.019175295322092112e-02,1.244897603988647461e+00
7.673172136244463815e-01,-7.802093627111732488e-01,5.082554371531767812e-01,1.657717471225196929e-02,-3.261430138504732568e-02,-6.073012507395289528e-02,1.440876960754394531e+00
8.276656649611833227e-01,-8.712691879353819946e-01,4.970157761809411712e-01,2.184722142539517742e-02,-1.787815620373206515e-02,-3.311865967059451910e-02,1.561933994293212891e+00
6.740078474310673418e-01,-6.961502636778067465e-01,5.899061033493907535e-01,5.384045896482959545e-03,1.672038205610364928e-03,-1.294185681777662404e-02,1.330327630043029785e+00
6.605892861653374082e-01,-7.087515803936070835e-01,6.428811077949634356e-01,1.103892306553403910e-02,-4.220841596727764773e-03,-6.529869232865399831e-02,1.365419387817382812e+00
7.204685562609420835e-01,-6.380906556404479790e-01,5.748609033158063042e-01,1.925691049837147811e-02,2.355402786039255056e-02,-2.574975743310080681e-02,1.293767452239990234e+00
6.897471780914676831e-01,-6.735942071515138574e-01,5.679982222240655965e-01,-1.548483911340832117e-02,2.050892427464233794e-02,-7.704962685083947826e-02,1.314278602600097656e+00
7.218381546491983158e-01,-8.378143075843308418e-01,5.540897415582206609e-01,-7.686232368216633359e-02,6.331230147321249835e-02,-2.213067530039153352e-02,1.493400216102600098e+00
6.251867467256665423e-01,-7.233298133656661522e-01,6.574686633690085547e-01,2.430817130733791895e-02,1.916735685033275904e-02,1.695979973447682074e-02,1.366312384605407715e+00
6.655077669513274063e-01,-7.378762803831174777e-01,6.592371697658485630e-01,1.069272485768203856e-01,4.384980335865912987e-02,-5.035226596042546160e-02,1.417180538177490234e+00
6.276729211971161515e-01,-7.465570071675589059e-01,6.454235624537441041e-01,-3.368831532413863600e-02,1.300808710595210416e-01,-2.757109714713940410e-02,1.403447508811950684e+00
5.962218384107649261e-01,-7.676445155047081359e-01,5.980463958110041611e-01,-5.646320852888243869e-02,8.357708298724907114e-02,4.359571476523530636e-02,1.377985715866088867e+00
6.495649609417195602e-01,-7.060131450398179354e-01,6.625696021967610871e-01,4.887744470411350267e-02,4.028496971918296005e-02,-9.933172030936188168e-02,1.377325654029846191e+00
6.363414362126226242e-01,-7.611051583340158189e-01,6.422026816696781992e-01,1.459164669650435788e-03,-9.313604635047595739e-03,4.959948739097071353e-03,1.400507926940917969e+00
6.837527260438203136e-01,-7.869606363519845438e-01,6.135383798665657862e-01,1.505154787854317243e-03,7.433580766784814164e-02,-1.469718989349033667e-02,1.442877292633056641e+00
6.853321608594561409e-01,-7.857792992190714143e-01,5.401464982305466123e-01,1.823837303592188916e-02,-3.531898527630683571e-02,3.081599372250367827e-02,1.406859159469604492e+00
5.249381622103816980e-01,-7.546501207359809227e-01,6.962086411599439639e-01,-2.503437918715949173e-02,4.797682718825321824e-02,-4.698557576795729142e-03,1.376476407051086426e+00
6.678895933263714335e-01,-7.184974810906624709e-01,6.395640912970748104e-01,-1.765610917134436200e-02,-3.382055974611563459e-02,1.067021791363913924e-02,1.374157786369323730e+00
5.305035572564762436e-01,-7.511279056612679694e-01,6.859821612638694610e-01,-1.408374269487270257e-02,4.420322302642951118e-02,4.376300832742423264e-03,1.368405461311340332e+00
6.305622411908956559e-01,-7.498741981281606961e-01,6.783221821988838496e-01,2.725611094309825580e-02,8.768965230103020064e-03,1.946591309861454150e-02,1.406204581260681152e+00
5.765250735933584725e-01,-7.525283250177343675e-01,6.774724094983298750e-01,-4.009820971582126262e-03,2.016988516527088403e-03,4.585344888041065908e-03,1.382339000701904297e+00
6.802100488447351267e-01,-7.005741073104009287e-01,6.284352508696684492e-01,1.911779708406944472e-02,-8.157379541009063262e-03,5.497311319421943924e-04,1.356116771697998047e+00
6.462619880842541686e-01,-7.484618511322993495e-01,6.468082761599007746e-01,3.478282940907118786e-02,3.655545833189249427e-03,8.762119141527056204e-03,1.396394252777099609e+00
6.217929412958724811e-01,-8.032916378594033846e-01,6.696769904783447247e-01,-5.797949517780562508e-03,2.535016849039312126e-03,1.034401913015940526e-03,1.449662446975708008e+00
6.188054142083410092e-01,-7.621535199582754050e-01,6.560879156729036987e-01,-4.472059192950958613e-03,1.237126801579834651e-02,2.144777759872359968e-02,1.400650739669799805e+00
5.476294130600218857e-01,-7.661584011543982609e-01,6.330941572448118837e-01,1.672399396610254468e-02,-1.542543528882935611e-01,-2.278694912532537586e-02,1.385426044464111328e+00
5.372946960853763887e-01,-7.436575383513577275e-01,6.222912186160378667e-01,-2.584875285738945459e-03,-8.521559459842124873e-02,9.122204069493027728e-03,1.333789467811584473e+00
9.330933103096760162e-01,-8.971173115852516533e-01,1.229007054182493786e-01,1.798074424960308462e-02,2.422049021118390377e-01,2.895562476748991462e-02,1.643999576568603516e+00
5.803200852217478278e-01,-7.350789854562446157e-01,5.988731063805052823e-01,2.379480298406867755e-02,-1.004586338867111683e-01,1.532835503416997772e-02,1.337050080299377441e+00
4.682658894627763635e-01,-7.667013932762910544e-01,7.730455526847622716e-01,-5.410434564250925227e-02,1.424525262987884865e-02,-1.988840018028407985e-02,1.415982007980346680e+00
5.536917182315603814e-01,-7.517268720025113149e-01,7.247304853719959139e-01,-2.646671310190125415e-02,-4.137230861760914785e-02,2.271022735717321064e-02,1.401938915252685547e+00
6.599736204042054855e-01,-7.562921429308200327e-01,6.417476209882284621e-01,8.777900818865903843e-03,-1.254739893352719259e-02,2.193660325767790402e-03,1.407496333122253418e+00
5.778569442333494344e-01,-6.138043436166729094e-01,6.518765417861558387e-01,6.001842691572142896e-02,2.117045751680816934e-02,-1.068950020920851965e-02,1.235409140586853027e+00
6.419033045408878424e-01,-7.356349346521042776e-01,6.844299677390253134e-01,3.950597397137073363e-02,-1.304898748033416454e-02,-7.408773680813929979e-03,1.401199460029602051e+00
5.660579925182656069e-01,-7.596182667163500213e-01,7.044542125734754023e-01,1.288657999845990373e-02,-1.332487206814800132e-03,-1.220839234983080515e-02,1.400353670120239258e+00
5.296490760652728946e-01,-7.408799344773034923e-01,6.299237720332115931e-01,-5.450272464382383171e-04,-3.446555401100427629e-02,1.432069581079653195e-02,1.325096487998962402e+00
4.981830833709184891e-01,-7.411634369084619811e-01,6.171013302328982597e-01,2.815295158831571803e-02,-8.325537806432645183e-02,1.837286771951450806e-02,1.312130689620971680e+00
5.388659930353884020e-01,-7.242637358532635350e-01,6.140972498918302325e-01,3.992936379479352337e-03,-8.799631879221818387e-02,7.930218488681172948e-03,1.311354160308837891e+00
5.709772311046480420e-01,-7.230787178455423403e-01,5.931163941358064129e-01,-1.526295337351202307e-03,-2.875814604023573320e-02,-2.169231973729159133e-03,1.306224465370178223e+00
5.099979672052257218e-01,-7.442367344110896177e-01,6.228201211246020552e-01,2.809958131280624379e-03,-7.010892303523851010e-02,4.890025206325351870e-03,1.319916725158691406e+00
5.817791989727501001e-01,-7.251260922479813020e-01,5.879880094176435090e-01,2.481955305901801818e-04,-4.817677238748927122e-03,-1.980882077117729952e-03,1.310051918029785156e+00
6.195024621567395418e-01,-7.455803268659139116e-01,6.241904646062177431e-01,7.999401290097341716e-03,2.457667921888963269e-02,-1.309310238127717185e-02,1.368353366851806641e+00
6.868846329952403851e-01,-7.662850838445807167e-01,4.854895695169313408e-01,3.615183271638382212e-02,7.977275271179762317e-02,-3.029453756516876234e-02,1.373086333274841309e+00
6.202818035222912307e-01,-7.377814542480137794e-01,5.427322174221472784e-01,1.409915566973778296e-02,2.576673480666408569e-02,-1.532576840452767528e-02,1.322242498397827148e+00
5.632839847545560996e-01,-7.349278988802179224e-01,5.765186992278427125e-01,1.840668280330733791e-02,4.801919791898581757e-02,-8.644243181079746055e-03,1.308001875877380371e+00
5.842704785121652922e-01,-7.388821853103451076e-01,5.719708180926110774e-01,1.214294266046952314e-02,5.021257713177190718e-02,-1.032166127725648967e-02,1.320202946662902832e+00
5.584091452034276593e-01,-7.310555849632212055e-01,6.151254765194182905e-01,1.749117333157911361e-02,6.030810844659325459e-02,-1.196219831910567966e-02,1.323377490043640137e+00
6.137574011949573638e-01,-7.827861379291456423e-01,4.106783183443512009e-01,1.917507379939197010e-02,-2.856114851136460353e-01,2.164808758819206091e-02,1.398283600807189941e+00
5.907183306408517742e-01,-7.391093741937900807e-01,4.907013752301172538e-01,-9.044406375952711297e-03,-1.369790944462478122e-01,-4.781633121049457327e-03,1.304623961448669434e+00
7.237523909586134341e-01,-7.775280584116427418e-01,3.934084942657546380e-01,7.011878568954710636e-03,-1.763180481841351843e-01,2.017551641176507787e-02,1.400594234466552734e+00
7.567391007902626310e-01,-8.424009687066247309e-01,4.092324252725886846e-01,5.670678457227340541e-02,-2.390127928964484172e-01,-1.762480231334848709e-03,1.517674446105957031e+00
6.034142832553472946e-01,-7.644108250237777735e-01,5.147459508404126360e-01,2.797444958196647694e-02,-1.117632097746633357e-01,2.574576827924119835e-02,1.341392636299133301e+00
6.279571895774309631e-01,-4.826755213237995390e-01,6.127792682474753061e-01,2.501611664990664730e-02,-3.480463608977395467e-03,-4.733599638477960919e-02,1.107029438018798828e+00
6.370360075407807132e-01,-5.216539702275877488e-01,6.117195965668306146e-01,1.236046523378009528e-02,1.528081843148350978e-03,-6.402004036402471343e-02,1.151794552803039551e+00
5.596823063548188593e-01,-3.391629569162361024e-01,6.938822237213879696e-01,-2.456029107466632146e-03,-4.583780578013092223e-03,-6.503543271705068685e-02,9.794525504112243652e-01
6.387562338716077370e-01,-3.491670958825635607e-01,5.748711670202220070e-01,8.845103207436098847e-02,-2.848077811986595917e-02,-3.084119907515744247e-02,9.724803566932678223e-01
6.457013962965806320e-01,-3.674212914408411246e-01,6.663575331197613139e-01,4.234066666315764588e-02,1.204057385328191794e-02,-4.486399098610680675e-02,1.029379844665527344e+00
6.583073953916165344e-01,-3.094990538814468284e-01,5.618647768816087407e-01,6.100053754996583727e-02,-7.968011391794059539e-03,-4.764693507986048765e-02,9.331543445587158203e-01
5.959046607017577379e-01,-6.616437666722381206e-01,6.774388213811877169e-01,-3.452928416158908189e-03,-7.752595396074184880e-03,1.420086336696627788e-02,1.300549864768981934e+00
6.855535652779090050e-01,-7.719758615498288901e-01,5.736420844836949140e-01,3.823743572893716514e-03,8.251449691108130036e-03,-4.554671786039463793e-02,1.407221913337707520e+00
6.137538539753102373e-01,-5.378616663603584813e-01,6.675385191507012816e-01,9.183635572198827271e-03,-1.351087702418592683e-02,4.857359911511028444e-02,1.182763338088989258e+00
6.431841534752736900e-01,-7.082045108712911041e-01,6.493860142239045175e-01,1.577353389716644114e-02,-6.519587756240503677e-03,-1.920900850648455879e-02,1.355231285095214844e+00
6.780109691944150585e-01,-7.338699982774214980e-01,6.449741806103024278e-01,-1.689903314311135690e-02,8.323733565390812120e-03,2.178215554084966810e-02,1.396546959877014160e+00
7.582917350934990086e-01,-7.063754692908361665e-01,5.427487864440891929e-01,-7.981435346798981811e-02,7.853375538044535253e-02,1.087810300996227553e-01,1.396110177040100098e+00
6.395632860021618349e-01,-7.567800074222579276e-01,6.513677604799621434e-01,1.235761231723259135e-02,-6.329854120283338187e-03,1.324075302363431246e-02,1.402676463127136230e+00
5.941792795147726736e-01,-7.238577560581990200e-01,5.799682320871349939e-01,5.759346610624149591e-03,5.226979202082807606e-03,-8.168513952964548061e-04,1.311059236526489258e+00
6.376607186143921080e-01,-6.845540555615418077e-01,6.529703242988893486e-01,1.510070102139983612e-02,7.362461777772815602e-03,2.206446937905717082e-02,1.330802798271179199e+00
6.309640890344495601e-01,-5.020474908109169299e-01,6.972285172182662860e-01,-1.437923528478115276e-01,3.071400291310036682e-02,6.901588828462321135e-02,1.200971603393554688e+00
6.752714625796614190e-01,-4.559994569436278677e-01,6.296273802280456522e-01,-2.961972024479940513e-02,-1.295966032385473428e-02,6.556265796536256407e-02,1.116356849670410156e+00
6.555019347169107613e-01,-7.750392900973680499e-01,6.470425712954276376e-01,-3.492336161493953591e-03,-5.932153436507063039e-03,1.114428462244675903e-03,1.426381468772888184e+00
6.477743896280141467e-01,-6.332535325455386221e-01,6.385550033573262896e-01,-9.087252075675816831e-02,-1.638517834148565944e-02,4.419003811507610235e-02,1.288698673248291016e+00
6.469549833801754302e-01,-5.500666916967865694e-01,6.159479602622135452e-01,-6.951698914664555806e-02,-1.239284269601256816e-02,-2.298040226591181387e-02,1.188801527023315430e+00
6.414623659922931154e-01,-5.889239643057090356e-01,6.091889517096087392e-01,-4.265217776140016459e-02,-2.423242554655350572e-02,1.394441970130317829e-02,1.217779040336608887e+00
6.371157640721121229e-01,-3.958950740104135724e-01,6.156649736647924476e-01,-1.095614322567323301e-01,-1.108161504857101305e-02,5.408768618053259869e-02,1.044302940368652344e+00
6.002087857695425077e-01,-3.200588525794857420e-01,6.038769693024101937e-01,-9.509612672710232584e-02,-3.472904487677744290e-02,1.119101192367072395e-01,9.584369659423828125e-01
6.104974329858849913e-01,-4.901931967698336390e-01,5.981358806875146650e-01,-3.777716589804434172e-02,-3.201231591458628817e-02,3.139289144732147069e-02,1.099262833595275879e+00
6.460795736195765748e-01,-7.689140742583393529e-01,6.193295134319038997e-01,9.417669944155805661e-03,1.597648406319535216e-03,-8.375178567849259417e-03,1.401982784271240234e+00
6.502439569534832486e-01,-7.728921997486986051e-01,6.329775494551149739e-01,2.220203736092925349e-03,-3.770273102568183314e-03,-6.084421044977300110e-03,1.414641499519348145e+00
6.478379194426169274e-01,-7.641812449598401891e-01,6.332663418581718773e-01,6.968787332825932337e-03,-9.659892824762090005e-03,-9.010957517250771723e-03,1.405028223991394043e+00
6.505748622902709499e-01,-7.617034716562617325e-01,6.563794853430728882e-01,-4.409491668026833261e-03,-2.218861285500264499e-02,2.358538431584701438e-03,1.415737867355346680e+00
6.478341367808121420e-01,-7.642040016137244818e-01,6.346326055514364128e-01,1.304627810925882044e-02,-7.424929955080144563e-03,-1.752857099462588148e-03,1.405727624893188477e+00
6.524318603976424491e-01,-7.399918284847525340e-01,6.262808105216959298e-01,-4.051751917131395098e-02,-1.107791975853499901e-02,1.427289925189581254e-01,1.403396606445312500e+00
6.199627877640799811e-01,-7.650046240956769328e-01,6.361636497126539336e-01,2.044273600838428153e-03,-1.228569148844749735e-02,1.031623191852600388e-02,1.393420100212097168e+00
5.994200976194798969e-01,-7.490092245075626876e-01,6.205527018040376541e-01,9.528954468056122576e-03,-6.620249600551513826e-03,1.546444429903549855e-02,1.359531283378601074e+00
5.738754781870705202e-01,-7.626938713882464027e-01,6.409247651880903840e-01,1.958098467288689817e-02,-1.350627499800175976e-02,2.067317353775585329e-02,1.372409939765930176e+00
6.323639002780454543e-01,-7.635952628967025424e-01,6.158972868038197213e-01,7.960817638226503137e-03,-1.834708299698602739e-03,1.235149345312138054e-02,1.388036131858825684e+00
6.153731498154365598e-01,-7.649068694276452973e-01,6.365548383121425458e-01,5.743292069423501338e-03,-9.676968966838787184e-03,9.957611207631238484e-03,1.391235232353210449e+00
6.857855157564421988e-01,-7.287271785031904647e-01,5.235357163448568496e-01,-8.384179260754345483e-03,1.053944147116021579e-01,5.795270817979698147e-02,1.356936693191528320e+00
7.375351026378985653e-01,-7.531900238275073267e-01,3.941290841447910864e-01,-1.692586694873644132e-02,1.007782692513276152e-01,-1.399307153077319898e-02,1.363884449005126953e+00
8.423656982970316731e-01,-7.796806669062212869e-01,3.342402753434203233e-01,-3.153523431917793635e-02,9.652462932937463935e-02,3.413419084607045850e-02,1.448948860168457031e+00
8.917721871765582620e-01,-8.546675888527758280e-01,3.284958948486556563e-01,-2.226883456813568557e-02,9.572603461276503467e-02,3.863173239349802085e-02,1.554689407348632812e+00
7.649226501122290411e-01,-7.374811895511734772e-01,3.810040123395990741e-01,5.012724636223602967e-03,5.872958193574322888e-02,-2.621972665845684336e-03,1.355822086334228516e+00
6.146743571492790936e-01,-7.656303033253778478e-01,6.652174034169504591e-01,5.394091023936941134e-03,1.054506021847128640e-02,-1.848230422687768826e-02,1.406771540641784668e+00
6.710582755116197839e-01,-7.380225100697482832e-01,6.322606416989053901e-01,6.367197495820223208e-02,1.637622333887926241e-03,-4.846045717403044302e-03,1.394484043121337891e+00
4.976000080649970458e-01,-1.898975352441366615e-01,6.982895639838080371e-01,1.221031808566317850e-01,2.499427939542176597e-02,-9.762927781926396265e-03,8.353384733200073242e-01
2.458970151437779306e-01,-3.240168693281162415e-01,7.880023790431438524e-01,1.274396365169786771e-01,3.903240716929146786e-02,-4.467478798934213652e-02,9.934355020523071289e-01
2.808163008677894146e-01,-8.498436596032254986e-01,9.137180796362830426e-01,1.684391561484166466e-01,1.528373877603676489e-01,-1.740780149750147804e-02,1.597077131271362305e+00
6.110748225399872391e-01,-2.345518536767022821e-01,7.100426981608716215e-01,-9.238213738918634507e-04,-5.205824958305733247e-02,1.209338330229085086e-04,9.037155508995056152e-01
6.574764607927763294e-01,-6.245130327892586264e-01,6.302383639156607931e-01,1.452511071224119321e-01,-2.059311628268941860e-02,-2.589956891430930837e-03,1.293795228004455566e+00
6.582683003423013268e-01,-5.344646431783459661e-01,6.685423246317856449e-01,1.100325486644159884e-01,-2.007466941142773201e-02,4.340910131791701071e-02,1.215793967247009277e+00
4.471318710347353953e-01,-7.471647303292668907e-01,7.272318544993424672e-01,7.792578618879106474e-03,9.211080286934633654e-02,-1.835353195650261948e-02,1.366004705429077148e+00
5.512483457432353351e-01,-7.336063946489195242e-01,6.166798579288492732e-01,1.024032290954592604e-02,5.305563675039105115e-02,-1.280344089824109882e-02,1.322291254997253418e+00
5.452562306126966796e-01,-7.507470200500068191e-01,6.669067041916914018e-01,1.803911188213205841e-02,2.912976137137861243e-02,-2.068242971441151476e-02,1.362676739692687988e+00
4.908769405785322060e-01,-7.357420927030032809e-01,6.699458249118477315e-01,9.651230640934907803e-03,1.102309749128113914e-01,-1.407518278404669768e-02,1.339266777038574219e+00
5.426966003548275852e-01,-7.348143159791065138e-01,6.153980492654855805e-01,1.067808375071991472e-02,2.418217771655576873e-02,-1.152900356870434871e-02,1.316317439079284668e+00
6.438860633881988704e-01,-7.737292846729399987e-01,6.463836324828879931e-01,4.192485311402922681e-03,-2.608870236022536263e-03,-6.942763136777494078e-03,1.418942570686340332e+00
5.855580510114144488e-01,-7.515716234668051721e-01,6.189072344740972342e-01,1.494787777921290951e-02,1.484643471446791575e-02,-2.139035108859231940e-02,1.355110406875610352e+00
5.658527940503026432e-01,-7.498268847177642638e-01,6.533118848836303449e-01,1.285098288405154936e-02,9.868580745554382180e-03,-2.267645626174216375e-02,1.362373113632202148e+00
6.221128435892466779e-01,-6.987211847891493521e-01,6.688923955803225407e-01,3.425137111334034413e-03,-1.899233694809811940e-02,1.420038868906855697e-02,1.345474362373352051e+00
6.216382177623143157e-01,-5.671365313379489459e-01,6.407402581440078126e-01,-3.583296441135280785e-02,-2.733195845326619536e-02,5.752042709184777142e-02,1.205104708671569824e+00
6.687558037033187741e-01,-7.549917930447633818e-01,5.935575379747937141e-01,2.488800480807506696e-02,1.276360339008517780e-02,-2.063491860561636818e-02,1.388982772827148438e+00
6.379525597991617669e-01,-7.324734230709510907e-01,6.562432924270673595e-01,-1.372998030485104472e-02,-1.301251470742181490e-02,2.786330087942576542e-02,1.380894899368286133e+00
6.201141186793528437e-01,-5.735091136302196135e-01,6.450903138117727309e-01,-3.179112765948785557e-02,-6.370859425921259617e-03,4.131839515570226440e-02,1.209730505943298340e+00
6.361880975404264893e-01,-6.176100924051693974e-01,6.433277323003121495e-01,2.454231615370605461e-03,-1.519620547236219836e-03,6.746874559125448645e-02,1.262811779975891113e+00
6.221990149682842253e-01,-7.578825661309451789e-01,6.089237177314639204e-01,8.641338786738533839e-03,2.008202221990507304e-03,-5.192484554208692425e-04,1.373578310012817383e+00
6.780277467586635076e-01,-7.527304021041966164e-01,6.264330543298851639e-01,1.777543404110649636e-02,1.242949767905473938e-03,1.783196703637006386e-02,1.406349062919616699e+00
6.317609763580932514e-01,-7.151252756709940428e-01,6.574318396260410147e-01,-5.941968022805874973e-03,5.980257963091229270e-03,2.999639103819467384e-02,1.360973834991455078e+00
6.436009202499706205e-01,-7.488581288176676676e-01,6.386946447198431631e-01,-1.396368870537880759e-02,4.972183923926690174e-03,1.098089705410124593e-02,1.390379548072814941e+00
6.708057250499515067e-01,-6.890529577800456051e-01,5.214508849876762220e-01,4.316135332084426041e-02,-7.461256361275753202e-02,2.614931568672855880e-02,1.301061987876892090e+00
6.683355822031173954e-01,-7.680607798704640610e-01,6.539727882323860264e-01,3.316519393984982203e-03,1.977562836045479097e-02,1.995359094954957807e-02,1.430108666419982910e+00
6.836589662857082139e-01,-7.884073159364658467e-01,5.000688975691232052e-01,-3.000489970180761096e-03,-1.456588420770029702e-01,-2.142421667706939994e-02,1.412615060806274414e+00
6.373450066152960281e-01,-7.722345051160650620e-01,6.265282503154592231e-01,-2.180878957380286490e-02,-6.654982415393512207e-02,-2.412310572613212897e-02,1.410050868988037109e+00
4.986395006252772322e-01,-8.097472517366550715e-01,7.523306286188480296e-01,-2.771676935470190201e-02,-7.432843415337520021e-02,-2.850044236709982012e-02,1.459272742271423340e+00
5.522889187626250918e-01,-7.626171027542667513e-01,6.615966790794240993e-01,-2.306111991468725274e-03,-1.480381401925835172e-01,-1.027789019659078318e-02,1.396686911582946777e+00
6.190364006934576668e-01,-7.363914749943991644e-01,6.211988476942157389e-01,3.030633826364393518e-02,-7.078260669531470650e-02,5.358845038099357538e-04,1.363050699234008789e+00
5.678325065797285021e-01,-7.857849855223809632e-01,6.305778667797181658e-01,2.204164842322026141e-02,-5.793688784996939983e-02,7.338484200571341806e-03,1.390266060829162598e+00
6.219110216259273738e-01,-8.215384592861592061e-01,6.474732549573709584e-01,5.257764939888985925e-03,-5.957974739926596985e-02,-1.276779958874164379e-02,1.460246205329895020e+00
5.795507795451915189e-01,-7.529712198660375444e-01,5.103686591000639039e-01,6.506573530650677784e-03,-3.616080292441100075e-01,-4.857757454368498429e-02,1.444888114929199219e+00
6.152794053371557492e-01,-8.751416776566134370e-01,5.223805735677218287e-01,4.256241928555649923e-02,-2.777365558898030051e-01,2.695065148439285824e-02,1.526615023612976074e+00
6.144391706167355860e-01,-7.672997321820849148e-01,5.201478341265173277e-01,2.287907033346472246e-02,-1.619037902103677429e-01,1.523672442749599010e-02,1.367008566856384277e+00
5.894297424085840342e-01,-8.101064087613027986e-01,6.395921049367085942e-01,2.707801544670453836e-02,-9.654899337376621204e-02,3.794970624604002835e-02,1.437326312065124512e+00
5.059076262912812760e-01,-1.342565382544174346e+00,6.395387597267720992e-01,-2.409290150980925860e-01,5.398077452439419277e-01,2.363342538333972065e-01,2.213052749633789062e+00
7.111236345889144772e-01,-9.114646146303633234e-01,5.040876233375543025e-01,-3.969438367715624055e-02,-2.473625653614855979e-01,-2.318158601683793438e-02,1.590479850769042969e+00
6.637846050205086224e-01,-7.588185024525108124e-01,6.370873922080011464e-01,4.774104245313006388e-03,1.604525833575025026e-02,-4.709306322183669409e-03,1.409765958786010742e+00
6.426248120149926635e-01,-7.607467293461576130e-01,6.551000112807316977e-01,1.298267436943265768e-02,3.880934653408623595e-03,1.709869051583765703e-02,1.410156965255737305e+00
6.454064419074729830e-01,-7.703005417756920714e-01,6.483123734115461279e-01,-5.593416030774550803e-03,1.414391375281222503e-02,1.537813987795036419e-02,1.417657256126403809e+00
6.365182066542859340e-01,-7.605413999505707956e-01,6.456219306690189619e-01,3.765364203674498051e-03,2.284591442694291694e-03,1.375936945846066052e-02,1.401857018470764160e+00
6.033590725331605675e-01,-7.690093382144246315e-01,6.643699867307395479e-01,2.382830875210583191e-02,3.824735460118688056e-03,1.694045497701979902e-02,1.404797196388244629e+00
6.452979185963263475e-01,-7.722013375210825536e-01,6.520032516761959940e-01,4.247329277431706289e-03,-3.208279457380028461e-03,-1.328543407187377304e-03,1.420895576477050781e+00
4.510169442492138470e-01,-7.587498348814307736e-01,7.371599297163199394e-01,-1.723402996491829250e-02,-4.651461944481553867e-02,2.340323722442790109e-03,1.378034114837646484e+00
5.965152926024537283e-01,-8.308972509003469398e-01,6.919828870115881658e-01,-1.931551606249355506e-03,-4.329470028056629782e-02,3.014496864121898184e-02,1.480288147926330566e+00
3.938337399328613042e-01,-8.307442234163809891e-01,7.463412489095927471e-01,4.600694634024317387e-02,-1.563531165959494984e-01,1.170241460943285267e-02,1.461377859115600586e+00
4.409639222553508597e-01,-7.366665383533242961e-01,7.115568659017504904e-01,5.546991790374490583e-02,-1.224449662621226453e-01,-1.151783269333854845e-02,1.353993892669677734e+00
6.732748838827625759e-01,-7.573744430006678074e-01,5.371451422485209459e-01,4.446226068224857358e-02,-4.316224415401212489e-02,3.702108221599115234e-02,1.373377680778503418e+00
6.403870975661718479e-01,-7.413509002195837194e-01,6.367353818568177726e-01,-4.568679196136097784e-03,-4.326760638185037783e-02,-1.920380793708530848e-02,1.382372140884399414e+00
7.267072922285700010e-01,-8.396041232265293308e-01,4.020015621184288013e-01,5.644904942795008580e-04,-1.722431903374499751e-01,5.681863007440890456e-02,1.465900421142578125e+00
6.668783525890614738e-01,-7.692580146203661373e-01,6.099086835029360332e-01,3.027797497192387041e-02,-3.995622030419011816e-02,-1.723207705885812860e-02,1.411505460739135742e+00
4.874776331313320776e-01,-7.519040405942087890e-01,6.868994180225094226e-01,2.110536499052894852e-02,-8.368405319185431845e-02,1.064375827063299314e-02,1.358558416366577148e+00
6.456944018071619773e-01,-7.643869602649135953e-01,6.278620507356997837e-01,1.640708651304099291e-02,-5.107996845012660603e-03,-1.004442872071986681e-02,1.401674270629882812e+00
6.294330858919470195e-01,-7.702680318779643320e-01,6.464232295484959590e-01,6.275252109843831340e-03,-3.465089151560471394e-03,-1.523446110561447152e-02,1.408574938774108887e+00
6.412758130787410416e-01,-7.544856619757803751e-01,6.565633481353314593e-01,9.834505176198554341e-03,-2.408921059911548965e-02,5.986588003972331297e-03,1.404229402542114258e+00
6.448591897874293988e-01,-7.484435763523843432e-01,6.426720688381301061e-01,5.179331271455022215e-03,-1.148116390163925887e-02,-2.783467098764458390e-03,1.392389774322509766e+00
5.312336267604718110e-01,-7.516616443139141346e-01,6.812517303039281602e-01,-1.461037446692444201e-03,-2.399733115694241761e-02,1.469906493255246013e-02,1.364978194236755371e+00
5.190494395917284454e-01,-7.751940877478142866e-01,7.077668845473682468e-01,3.447715072885647325e-02,-4.009946574388640467e-02,1.294305834992736867e-02,1.401363372802734375e+00
4.810795706645314418e-01,-7.569120891614471436e-01,7.308160127874751000e-01,1.921283272399494993e-02,-4.377088305337592522e-02,6.647479201673249689e-03,1.382443785667419434e+00
4.054198571514375793e-01,-7.520469155357681901e-01,7.538266679792559044e-01,6.166778341526085554e-03,-4.166265014824597351e-02,1.844003572699562735e-02,1.367745399475097656e+00
4.762614558831200218e-01,-7.454378766164654335e-01,6.854344831638177205e-01,2.058115962723199716e-02,-3.893658283353147731e-02,2.379160936624006434e-02,1.341404557228088379e+00
4.650554304431170904e-01,-7.478570434469450356e-01,7.150833975829560263e-01,3.531470422511167207e-03,-1.830638415602973273e-02,1.398961632641620989e-02,1.355936050415039062e+00
4.001948404442669527e-01,-7.675146340433551817e-01,7.592111473254277154e-01,-4.415170340860195136e-02,5.454484767588896332e-02,7.161984884732024333e-03,1.388017416000366211e+00
3.615352359236917446e-01,-7.706375359161008465e-01,7.811698947006149307e-01,-2.761525634083612790e-02,6.086071922788678645e-02,1.299712924743783547e-02,1.395318627357482910e+00
4.487438696993507059e-01,-7.582643517092184648e-01,6.914358609552456736e-01,-2.252866273233469080e-02,7.811580733697061352e-02,1.341166074283571194e-02,1.352430343627929688e+00
4.803893226477611300e-01,-7.535665703846849972e-01,6.875199624776987539e-01,-2.059044690038010564e-02,3.567456298982905893e-02,1.005364381504397601e-02,1.351493000984191895e+00
3.981644041472703344e-01,-7.547370620196267588e-01,7.216078618820537249e-01,-1.636039800964701404e-02,9.953183887054778411e-02,5.207745854124466202e-03,1.355470418930053711e+00
4.144612100322411230e-01,-7.357118237105725322e-01,7.205586949292328569e-01,3.278644425694545415e-03,1.657449318225742013e-02,5.427433999651715959e-04,1.330231547355651855e+00
3.686699684915499819e-01,-7.319582115859121219e-01,7.567835674525776879e-01,2.692216070796803521e-04,4.878968632510775894e-02,7.317334912258341775e-03,1.340330362319946289e+00
6.252200299777790349e-01,-7.500538145319046723e-01,5.902146593345765080e-01,2.004785980435297432e-02,8.767035233988208429e-03,-1.604534532010549325e-02,1.358922481536865234e+00
6.103891034590906983e-01,-7.536102835849562975e-01,6.076246280148909218e-01,1.504478613382906338e-02,1.743364604247759839e-02,-1.365740189174233579e-02,1.363408088684082031e+00
5.843178500878155601e-01,-7.339635808162602304e-01,5.535951097062932202e-01,2.053588566686495934e-02,6.764473712301879993e-02,-1.536476169307109813e-02,1.309201836585998535e+00
6.138638500007118637e-01,-7.291691461724715273e-01,5.804100049687124230e-01,7.823187523063372673e-03,2.395247055106446143e-02,-7.005546065832752092e-03,1.327395677566528320e+00
6.304887041800302239e-01,-7.539147715534865180e-01,6.132602805202871377e-01,1.972318491027896109e-02,1.596024636080019959e-02,-1.196037349756167573e-02,1.376727700233459473e+00
6.389462325701636969e-01,-7.532409094960672569e-01,5.751734953187503940e-01,2.229942735138549029e-02,1.726855475640425713e-02,-7.258351445241232464e-03,1.362355589866638184e+00
6.613502823407199083e-01,-7.546495123641956404e-01,6.371362693763173990e-01,5.790103936802344468e-03,1.004699259037502993e-03,4.340486332937820713e-03,1.404106378555297852e+00
6.354192964056168957e-01,-6.833721807671214732e-01,6.431776429086035751e-01,4.016814996225791592e-03,-2.142860739510275836e-02,-2.573613079863295433e-02,1.323977231979370117e+00
6.350506187591059559e-01,-7.567060193368142507e-01,5.810206890544271641e-01,-2.137145572533681939e-02,-2.285854399141905996e-02,-1.695432004798113484e-02,1.366934299468994141e+00
6.764013697640095524e-01,-7.413585058896263735e-01,5.354293217858071552e-01,-4.725893163636066610e-03,7.648967784313198681e-02,-4.124298237904067826e-02,1.361166238784790039e+00
6.585412634775154039e-01,-7.326455130132238924e-01,5.184261160573333527e-01,-2.274027875698125117e-02,6.494384069442414587e-02,3.528549019073298765e-02,1.333433985710144043e+00
6.480169870220564565e-01,-7.663572060289610688e-01,6.515929506595169451e-01,1.046347782979745004e-02,-5.880947883324564619e-03,-1.579450889815826528e-02,1.416582345962524414e+00
6.221141079562297893e-01,-4.313119318394443846e-01,6.273832050270427008e-01,9.985336375080233751e-02,-2.121993570685982988e-02,-9.717467716679778489e-02,1.083917140960693359e+00
6.419245745335425690e-01,-6.415445060090962937e-01,6.398767356955206154e-01,5.699355135652362653e-02,-1.444908764876674627e-02,-8.488475727299474652e-03,1.286567568778991699e+00
6.364531510814324111e-01,-7.477541071591452537e-01,6.658438489585938314e-01,9.425666270066657484e-03,-3.127626291615877990e-02,-2.882538775770732403e-03,1.400286555290222168e+00
6.796872165753284900e-01,-6.362417775007008780e-01,5.678154059807519749e-01,-1.395102497877587742e-02,6.829200073852974631e-03,-4.123426626307755138e-02,1.266014933586120605e+00
6.875300686482046508e-01,-6.963100263361116093e-01,5.469061256928287040e-01,-2.984146794003709156e-03,2.087620330093256996e-02,-8.026550467442454539e-02,1.326969981193542480e+00
6.511040009669675221e-01,-7.560902725196664287e-01,6.415799229931682390e-01,-5.077412652214865346e-03,-2.828577529453263871e-03,-2.416330653448804135e-03,1.402498841285705566e+00
6.503676475783699562e-01,-7.977405304446474332e-01,6.018706819695924803e-01,-2.803436400598292508e-02,6.805720420012929817e-02,3.060646762672922586e-02,1.431154727935791016e+00
6.578436708385133613e-01,-5.114341729804632308e-01,6.535083230303159185e-01,5.241694840956364482e-02,8.107372314404513725e-02,-1.187890243383058764e-01,1.196851730346679688e+00
6.345199849941489667e-01,-4.978817575909042503e-01,5.941305140832193743e-01,5.835356138988375546e-02,8.184389198208697532e-04,-1.024550149690495321e-01,1.131342768669128418e+00
7.083120630164476683e-01,-7.266895812061382465e-01,6.043400123415684222e-01,1.762926020850527284e-02,7.601666157666857326e-02,-9.210451214451130519e-02,1.401626706123352051e+00
6.616308569253146477e-01,-7.574320656731633461e-01,6.374958834208980241e-01,1.016453177228072643e-02,-3.947568088137705725e-03,8.283757685142265070e-03,1.407350540161132812e+00
5.829208993430017305e-01,-7.363708587361083024e-01,6.101258605394791479e-01,-9.798119663885621923e-04,1.571604113725073512e-02,-1.762862325793404863e-02,1.333730936050415039e+00
6.290173329194772567e-01,-4.502378478807976814e-01,6.133713704030621106e-01,1.182700296348055263e-01,-1.486012038459975926e-02,-3.599109721542100709e-02,1.093006134033203125e+00
6.328314647845292296e-01,-7.672243138000472973e-01,6.742449386024299551e-01,-4.895382912089858707e-03,-5.457118521580115421e-03,-2.742702704210933564e-03,1.421279788017272949e+00
6.767259309125625011e-01,-7.143374792991545874e-01,6.228481316339793405e-01,1.380911294372574177e-02,-1.690237827632927806e-02,6.582925795816041425e-03,1.365493297576904297e+00
6.628463298379989599e-01,-7.194568199981128398e-01,6.374186601508515793e-01,-6.876262694600391266e-03,-2.033389059810041671e-02,5.112675763821367819e-03,1.370299458503723145e+00
6.661897937175711437e-01,-7.697903665979356491e-01,6.533894600807836905e-01,-1.526660545772544168e-02,1.694136095840079745e-03,3.612277897397946427e-03,1.429884195327758789e+00
6.944219330819043634e-01,-8.179255643453758884e-01,5.990055878178017768e-01,5.263478867319915794e-02,1.502353071294428577e-01,6.455460976336334367e-03,1.492697119712829590e+00
6.373711099028525062e-01,-5.746869176258242451e-01,5.979565575567060698e-01,-5.184786420813741054e-02,4.344299559356210039e-03,-2.234706558455320548e-03,1.196244835853576660e+00
5.583749690065893390e-01,-7.491612915939876993e-01,6.819161856611488659e-01,1.430825409789750462e-03,6.025039664123943602e-03,-4.362924220389075708e-03,1.373543024063110352e+00
6.657200495782875649e-01,-7.663775971581745505e-01,6.383592723665620916e-01,-1.946988258509022712e-02,-6.731497077908345054e-03,-6.503307835074389684e-03,1.419108510017395020e+00
6.364870486067182309e-01,-7.644568856805886714e-01,6.710492258653579789e-01,5.088093790268419410e-03,1.294759067962401346e-02,-5.300472904279814740e-03,1.418775200843811035e+00
6.401646371881515307e-01,-7.679502410731053885e-01,6.623421097554990089e-01,6.638949064308722519e-04,1.654255335742589941e-02,7.219523120225028760e-04,1.419623732566833496e+00
6.349358823631248150e-01,-7.341424851823626918e-01,6.684227360097025894e-01,-2.275413885719067969e-03,1.983582597032647332e-02,3.852645774033294519e-03,1.386572599411010742e+00
6.510236648260867565e-01,-7.631865714819013879e-01,6.223950579372188319e-01,8.497462670444272045e-03,4.738977544741773511e-03,6.374314333102648611e-03,1.400260448455810547e+00
6.441427197930613691e-01,-7.561994148739853427e-01,6.538070298412245185e-01,-8.268309346892873529e-03,9.411125269229360379e-03,-1.429906856894582780e-02,1.405584931373596191e+00
7.438855901513572455e-01,-5.905256644961394130e-01,5.488872002774265457e-01,-7.566821628959627399e-02,-9.455585577045526671e-03,-8.378194653780172974e-02,1.263714075088500977e+00
6.652663100233271454e-01,-7.581638252213179774e-01,6.359659310076513083e-01,1.307258436330656533e-02,-2.055501503895343796e-03,-4.941828698467463227e-03,1.409220814704895020e+00
6.344790833889458748e-01,-7.506403112642850983e-01,6.697399088667347344e-01,1.791170664830118607e-03,9.409811618863494001e-03,-1.583543396704245815e-03,1.403182864189147949e+00
6.259839791261372355e-01,-7.288948830603682039e-01,6.715957217864658713e-01,-4.757285305151904599e-03,1.588702301573080913e-02,-9.575060409537533915e-03,1.378649950027465820e+00
6.181235287082486041e-01,-6.829321349250581097e-01,5.723010477110999084e-01,-8.615631772547073519e-03,8.248775400083897813e-02,4.793145878780754460e-02,1.289478778839111328e+00
5.898307983771691188e-01,-7.569976206156570075e-01,6.291321446513815641e-01,1.002250218822332319e-02,6.959597669358915176e-03,-1.985195866361680328e-02,1.367498636245727539e+00
6.414400935582679208e-01,-7.748234278137742237e-01,6.515063027350853631e-01,9.588623253184287666e-04,7.366298092788590469e-03,-1.752420566726390402e-03,1.421384811401367188e+00
6.813841392646802220e-01,-7.341936558914031741e-01,6.035881181143569751e-01,-5.287086294855110682e-03,-1.262643511122969048e-02,-9.796323459166680903e-02,1.388934493064880371e+00
6.950802457658233902e-01,-6.593371057374783906e-01,5.828179269747616464e-01,-3.240568758250862713e-02,-3.910977974872730661e-02,-2.217771322693388725e-01,1.360255002975463867e+00
6.660816888750737963e-01,-7.574145689062616871e-01,6.509578632064072501e-01,-5.287070387779909363e-03,7.342395710677221757e-03,-2.394423911570857377e-02,1.416688799858093262e+00
6.547801565297827198e-01,-7.542609174222525414e-01,6.301551239500131629e-01,5.123694872284149243e-03,1.683444598837267620e-03,-5.746762537364110551e-03,1.396957993507385254e+00
6.801170259281562602e-01,-7.608859395734069997e-01,6.038775308129309405e-01,-3.721069216079246969e-03,4.604837893962053334e-03,2.340208654723804557e-02,1.405058264732360840e+00
6.265436495428151620e-01,-7.053701559697224122e-01,6.626791249471322143e-01,-7.780653639054254181e-04,5.818670755443738560e-03,-1.863911607104132631e-02,1.350768327713012695e+00
6.408563442011372402e-01,-7.618423771364446484e-01,6.578707395941087999e-01,7.031536263263157491e-03,1.027800339627069244e-03,-2.529697542038858785e-02,1.412016510963439941e+00
6.187675962385357220e-01,-7.013590678229644215e-01,6.569173407338964044e-01,-6.338719674606721650e-04,2.890741272746343796e-03,-1.619252795954028226e-02,1.339912414550781250e+00
6.546724043303882024e-01,-7.474312263525608735e-01,6.417969376044501129e-01,-3.988067558911767216e-03,-2.053837921110687401e-02,1.657334382013338821e-03,1.396183729171752930e+00
6.595191807527657213e-01,-7.117676332957817431e-01,6.327074612245127128e-01,7.712989368998389092e-03,-1.679635770067985923e-02,-4.664694825636223931e-03,1.358480691909790039e+00
6.601171269138053077e-01,-7.464949077926360532e-01,6.381222385900300331e-01,1.040856308061999030e-03,-6.160334902483285968e-03,-5.156358271502924084e-03,1.395815134048461914e+00
6.351683664853329248e-01,-5.922044795473251355e-01,6.104268682476720054e-01,-4.982106776274295573e-02,-2.387209705035390692e-02,1.527915233115215501e-02,1.219239711761474609e+00
6.501544834850480070e-01,-7.757954593568916479e-01,6.446495284581121865e-01,1.957039409837177477e-03,-1.112386091241846127e-02,-2.027775148018961561e-03,1.423344254493713379e+00
6.517288262139275812e-01,-7.467215108219915631e-01,6.546614313470349167e-01,-3.347174514735517734e-03,-2.520900823625991938e-02,8.465552166879117615e-03,1.400688409805297852e+00
6.432786997483297409e-01,-7.642941215352213602e-01,6.403156894538910571e-01,1.706208016275714834e-02,-6.079012551276638011e-03,-1.461851144493969516e-02,1.406671524047851562e+00
6.433566190300498144e-01,-7.641748876347224106e-01,6.376357745132530397e-01,9.079768788542564792e-03,-4.142408095747798780e-03,-6.618583849866539054e-03,1.404832959175109863e+00
6.177851614655778256e-01,-6.391278753090362530e-01,6.420876631515534116e-01,-2.212679138950270422e-02,-4.180852603872005011e-03,1.083408763941301305e-02,1.269976615905761719e+00
6.217103877077985175e-01,-7.521552198720699023e-01,6.336543492553906587e-01,8.398699236748926808e-03,9.652456473221784905e-03,-1.771828553245408805e-02,1.380395531654357910e+00
6.477160648879151106e-01,-7.672186412410582079e-01,6.463565321605665437e-01,1.073947563774759265e-02,-1.368941789800020431e-02,-5.077246516018671905e-03,1.414603829383850098e+00
6.140829414349755488e-01,-7.668874438582286013e-01,6.298206664522982834e-01,1.645055475584836571e-02,2.017955364132679660e-02,-1.525328503818498306e-02,1.389889121055603027e+00
6.248108613465774841e-01,-7.573975812303267441e-01,5.863281350252436130e-01,9.704782388517761704e-03,3.937887249745877782e-02,-3.531946825400848148e-03,1.365196704864501953e+00
6.331096627546003441e-01,-7.576481196418158870e-01,6.107140048172157165e-01,2.047875595252355782e-02,1.587762010823595693e-02,-1.494663452510205416e-02,1.380668878555297852e+00
6.328789910896908122e-01,-7.431070648431314929e-01,5.494739165185189567e-01,2.453384492676495554e-02,-1.440899555383015618e-01,4.763090006009746552e-02,1.362507700920104980e+00
6.521136328578598373e-01,-7.974569217865502546e-01,5.571507282455239185e-01,5.370282671432469873e-02,-9.876850003921155974e-02,2.800408785447118520e-02,1.418762683868408203e+00
6.599633118583644320e-01,-7.599806522604251047e-01,6.009561344056417731e-01,2.357831698297862058e-02,-5.881339599842509182e-03,1.543306570759538608e-02,1.392272233963012695e+00
5.802187656747623823e-01,-7.373859419290150763e-01,6.201970587159435500e-01,1.385953529986531756e-02,-6.555461138195341209e-02,1.699894270772480190e-02,1.343388080596923828e+00
7.506679221355933018e-01,-8.284646202270434800e-01,5.119263758016550092e-01,-7.866701832585870288e-03,-1.086701160160806479e-01,-8.980066498627237159e-02,1.494475960731506348e+00
6.263692717134242693e-01,-8.453222865479006476e-01,4.461106384759463972e-01,4.305307206081252641e-02,-2.613824289403029466e-01,4.781613637608713580e-02,1.466446876525878906e+00
6.587774587503066881e-01,-7.655889849891267529e-01,5.771936223386520126e-01,-2.397446697137164528e-03,-2.902416449483583710e-02,-9.571096543577845787e-04,1.386296391487121582e+00
6.790656387593968502e-01,-7.812629792854576261e-01,4.678472229135081095e-01,1.884900461307455893e-02,-1.014933357389308233e-01,4.192042125066654246e-02,1.380566954612731934e+00
6.789731500977738143e-01,-7.565071549840222120e-01,5.243532543414926028e-01,3.634765594964194102e-03,-6.296602758351005358e-02,6.539623195285377763e-03,1.369167327880859375e+00
6.160174639291996490e-01,-7.543396847300307684e-01,6.497912567364545477e-01,-1.178131013720804844e-02,-1.099926631103117450e-03,-1.006158926066840669e-03,1.387704849243164062e+00
6.449316043825823463e-01,-7.559580677992706610e-01,6.525159192845685352e-01,1.697815772953293473e-02,-9.786720279394868841e-03,-6.385114313715283679e-03,1.405150771141052246e+00
6.462623328978103210e-01,-7.239506828629180823e-01,6.407802811985268132e-01,1.825213459712142494e-02,1.302817599863219204e-02,8.788125944153960672e-03,1.368116378784179688e+00
6.320855442428483517e-01,-6.600173974570789914e-01,6.473819180887949720e-01,5.087215634509681395e-02,2.270276083284599594e-02,3.332666081661184859e-02,1.304672598838806152e+00
5.820847973420300026e-01,-5.805335794122324922e-01,7.260422781565165629e-01,1.211984998661045365e-01,9.609309461519204704e-03,9.923939880295275240e-02,1.270300149917602539e+00
6.449074233540874612e-01,-6.026457244876972652e-01,6.123365687815718328e-01,5.453375160639480079e-02,1.282915733550021170e-02,1.185863782431781192e-02,1.235578060150146484e+00
5.919686808753543694e-01,-2.310000671135675754e-01,5.966036023923860787e-01,4.128450546488007800e-02,-1.263124450972537630e-02,1.776562797242714833e-02,8.292479515075683594e-01
6.621708275068536320e-01,-1.239137839393614771e-01,6.414990705250328551e-01,-9.994752130725830311e-03,2.300141547068374620e-02,4.335691266360106738e-03,7.772064208984375000e-01
6.761814141460562588e-01,2.293118871762328537e-02,6.504090872564614045e-01,6.373395651663892048e-02,-7.653077495912298522e-02,-3.479651238703720950e-02,6.662984490394592285e-01
7.216197236576917806e-01,-9.096293944616251625e-02,6.162210082243146925e-01,-5.910156160208886698e-03,6.008848568858397160e-02,-5.640388431868102043e-02,7.786110639572143555e-01
6.027753231838546277e-01,-5.154845835558823364e-01,6.112943773140704362e-01,-1.479510678969247484e-01,3.775628046338816435e-02,-1.841704354855784598e-02,1.153718829154968262e+00
6.208543523099629979e-01,-2.719142804917670242e-01,5.861301752690277755e-01,-7.763265593822307742e-02,-8.852561984712983140e-03,-3.079309170835915765e-02,8.879196047782897949e-01
5.793043054072497533e-01,-2.403668834525325426e-01,5.750633865147529722e-01,-4.716434066947156056e-02,2.324678268902477876e-02,-3.532575142986475736e-02,8.248885273933410645e-01
6.445616626859911324e-01,-3.905852145789735497e-01,5.984580958005043527e-01,-4.810413963563583972e-02,-6.865570253129540425e-03,-1.170977463979560734e-01,1.036412000656127930e+00
6.205874746124512287e-01,-4.452630897072558103e-01,6.172882697507264815e-01,-9.389731776864237989e-02,-7.150781019707514417e-03,-1.263494543265432923e-01,1.098648190498352051e+00
6.260122967643877434e-01,-4.433011156216184467e-01,6.257540565591561688e-01,-7.617595318441729157e-02,6.750751341077315844e-03,-1.189273657849744259e-01,1.096873402595520020e+00
7.139379667495514559e-01,-7.601208443817425442e-01,5.476043865938091670e-01,-1.121368467324569858e-02,-3.708186986047034422e-02,-7.096220471077210531e-03,1.399994373321533203e+00
7.304699923893727131e-01,-8.108276336397713946e-01,5.960596951812247024e-01,7.793720346488556237e-03,1.366247413508579756e-02,2.007533816412955877e-02,1.479340910911560059e+00
7.195707037434770914e-01,-6.105580319159594760e-01,5.954446436183447044e-01,4.351489139499636200e-02,-8.882632620598811604e-03,-1.781980716263216469e-01,1.311764836311340332e+00
7.932516167214085367e-01,-7.080326937948183685e-01,5.140922678796291390e-01,-1.339258583572637551e-02,-8.729595268852528844e-02,-2.481429556579453286e-02,1.392096996307373047e+00
5.170276938662528021e-01,-7.602832229975426959e-01,6.237895562543256389e-01,-7.980037085541078932e-04,9.862647514961010720e-02,-3.276523980266465158e-03,1.344806671142578125e+00
6.568511560467843458e-01,-7.596715290780132745e-01,6.425175188311376129e-01,3.478775181672358937e-03,5.371489349593177448e-03,3.310829269125345649e-03,1.409465789794921875e+00
5.062088745873364326e-01,-7.425495614332358052e-01,5.972399625126629807e-01,1.071184043770589782e-02,1.060854649463647131e-01,-1.142813110451901260e-02,1.309907793998718262e+00
5.715512130713588101e-01,-7.342867920633727730e-01,5.689248943779543488e-01,-8.127270152310519039e-03,5.289905603618397928e-02,3.353150677642105244e-03,1.307829141616821289e+00
4.839647569801202587e-01,-7.419662672015279181e-01,6.197927072623606870e-01,-1.000960014898747211e-02,1.536966868646940931e-01,1.427527060513542057e-02,1.326518654823303223e+00
5.353981425370284430e-01,-7.924393961874276471e-01,5.972946484735279782e-01,2.486612719943843280e-02,1.542275260708255713e-01,-2.350534583564023103e-02,1.387098789215087891e+00
5.638307271231954854e-01,-7.283280799141903517e-01,5.655982064630082906e-01,1.758576221061654038e-04,6.000100833754405671e-02,-6.529774543165297153e-04,1.297213554382324219e+00
6.164334526696642058e-01,-4.595319943981578392e-01,5.992368261105766036e-01,-1.052065983133043947e-01,4.359019617937437419e-02,-3.022189240216118997e-02,1.086802721023559570e+00
6.280918156554364806e-01,-5.561128084624777923e-01,6.256487105651429292e-01,-1.529649743004388336e-02,2.551620367116440996e-02,-2.431312546323737001e-02,1.184855222702026367e+00
6.324959927131731385e-01,-5.486346152637908702e-01,6.117219263288559139e-01,-2.442341037148449204e-02,2.439404816224181177e-02,-3.328597657308551751e-03,1.172421455383300781e+00
6.269757378256868297e-01,-7.540144840194201725e-01,6.834699179138068459e-01,-4.144135565093028106e-03,-7.134221947534854016e-03,-1.072960932408276169e-02,1.410281181335449219e+00
9.520135470739815586e-01,-8.572007119104390060e-01,1.995007512610416089e-01,-2.871262999008990929e-02,-1.661500788930034972e-02,-7.185379922857559887e-02,1.580147147178649902e+00
9.531149183205543940e-01,-8.713264839810036522e-01,2.455590463723664740e-01,-2.646805885858063631e-02,7.074232580560357864e-02,3.256908787765273872e-02,1.599570155143737793e+00
1.007169847587956024e+00,-9.263926917142825124e-01,6.158487054995092497e-02,-5.026508732517974420e-02,-5.896437516054001127e-02,1.520710936543726854e-01,1.700539469718933105e+00
1.071948723097208456e+00,-1.335477499617981900e+00,1.317168765942020037e-01,-1.334630848912973268e-02,-1.686095084241227837e-01,1.440818557191195746e-02,2.121943235397338867e+00
9.656352253148083875e-01,-9.355928247237491613e-01,8.417155689695622611e-02,-2.175181867320855056e-02,-8.934154661923628116e-02,1.525882517596060528e-01,1.676602959632873535e+00
1.042001615334491982e+00,-9.837212604188629861e-01,3.002847623761079054e-02,-4.524545628926053553e-02,1.109272761726036588e-01,-1.557366882194744784e-01,1.787032008171081543e+00
6.419019251353045297e-01,-7.714451166179411290e-01,6.422006212923845325e-01,6.787657596457896854e-03,7.874173469565733455e-03,6.030576715398726969e-04,1.413611531257629395e+00
1.285240574040259043e+00,-1.443171555003078144e+00,1.692573914242375133e-01,3.039653620773638543e-02,1.657379646522910976e-01,1.701459790783171055e-01,2.411807775497436523e+00
6.576660731058141529e-01,-7.241405542762276992e-01,6.581261525087052089e-01,-2.418817613349759713e-02,-2.363639967202080944e-02,-9.981955653158147701e-02,1.394040346145629883e+00
6.427455049941870335e-01,-6.710436970040075666e-01,6.402372485338451158e-01,-9.330545866581063663e-02,2.618023761442975564e-02,-3.423833168476807243e-02,1.324554204940795898e+00
6.398193516778281076e-01,-7.036990807864005326e-01,6.349111478548143950e-01,1.602604767362213883e-02,-3.229642718424983149e-03,-7.982306142790891734e-03,1.341441273689270020e+00
6.568831580284346661e-01,-7.248004821982291235e-01,6.683198493064603785e-01,-4.832003125803296245e-02,-7.710932751431747757e-03,-1.404553358549908391e-02,1.390236377716064453e+00
6.266262806259923490e-01,-7.662626000866026299e-01,6.765986265320770299e-01,-3.514291256524997020e-02,-3.815299356902040334e-02,-4.477613147026810597e-02,1.423491954803466797e+00
6.203742327857781902e-01,-7.460131437689135891e-01,6.438496115195915248e-01,-1.309574655415490958e-02,-1.308732484441140279e-02,-1.474125549774634412e-02,1.378884434700012207e+00
5.989637156551055330e-01,-7.556238263444179371e-01,6.680016197793862132e-01,-3.460995467038095741e-02,-1.060055480030008303e-02,6.317688774918792452e-03,1.391848325729370117e+00
6.429273597282771924e-01,-5.907302503414696426e-01,6.293571042421493011e-01,6.365999835709661159e-02,-5.069725895645109046e-03,-2.127339808178999730e-02,1.232455611228942871e+00
6.386348655759480630e-01,-5.992306168547955059e-01,6.327764752733260334e-01,5.675665097185571967e-02,6.587470743992355354e-03,2.667227152947887481e-02,1.239766836166381836e+00
4.738899513098461247e-01,-8.078372849622169616e-01,7.308296726281960920e-01,-3.521955240711871493e-02,2.778398890294460702e-02,3.527484887104522654e-02,1.431062340736389160e+00
5.566778357283983514e-01,-7.557025535616960221e-01,6.959056614376277761e-01,1.445478859376348076e-02,-4.647190270654048133e-02,-2.017241464249460575e-02,1.390242099761962891e+00
6.616458444086401602e-01,-7.633490600297579975e-01,6.361919088974448133e-01,1.872919646112596037e-02,2.400080172478935830e-03,-5.531959685952317005e-03,1.412851095199584961e+00
3.565150385450585047e-01,-9.337959325028191149e-01,9.426390388799941178e-01,2.610010899113576407e-02,2.932081223437664821e-02,-4.504363745978640782e-02,1.665963888168334961e+00
6.403703708889347812e-01,-7.664151075674565661e-01,6.424276805320181527e-01,1.124419905125693996e-03,2.226978377403192582e-03,-8.502086079736874066e-03,1.407898902893066406e+00
6.504951901731701458e-01,-7.721442030284592084e-01,6.532780656160888100e-01,1.217166495563349682e-03,1.034416879895407558e-02,4.102231827649669739e-03,1.424164891242980957e+00
1.116040807233675269e-01,-8.745470899683599475e-01,9.013361786172301438e-01,-1.443369808761891804e-01,-2.382449981486645940e-01,8.047237412106238511e-03,1.614912390708923340e+00
6.131502106616079084e-01,-7.585869430969143234e-01,6.208066511480327954e-01,-2.180555611107644180e-04,2.893386896708936775e-05,1.035324123267660802e-02,1.375698328018188477e+00
4.896159623347082213e-01,-7.431887785825357362e-01,6.891097829375192330e-01,-9.868403522326955543e-03,1.048133737453423031e-02,-1.740775445170275257e-02,1.344274163246154785e+00
6.340971435233180298e-01,-7.642763341994625037e-01,6.215266039516706975e-01,9.143297564351560158e-03,1.407541055093940695e-02,-4.779747865245851518e-03,1.392458915710449219e+00
6.195061171421529372e-02,-1.047241773487851413e+00,1.073255060237658709e+00,-1.786711983023492878e-01,-2.294169148224499064e-02,-5.123359448166530522e-02,1.865475654602050781e+00
8.542371015364571551e-01,-6.495556509185618221e-02,6.771391994891904353e-01,-3.928063418659854915e-03,9.698748108127434875e-02,-6.473840575008825426e-02,8.685222864151000977e-01
6.093741945635905433e-01,-7.574129625789188802e-01,6.197292006692691757e-01,-6.673983473785636406e-05,-5.238071353229416596e-03,-8.924088875627597499e-04,1.372024893760681152e+00
6.040708188912560228e-01,-7.609969973292418643e-01,6.263641656834917359e-01,-3.032413214401281354e-05,2.891377526426808058e-03,1.670370597073018298e-02,1.376663088798522949e+00
4.222715430451181445e-02,-7.659913763937379327e-01,9.750148866043527596e-01,-2.000042858711805205e-01,1.142649825478698894e-01,1.763143283897967636e-02,1.561189770698547363e+00
7.755946544167006129e-01,-7.393497309511808391e-01,3.237875909619553072e-01,1.817602585879935688e-03,5.586903519628236107e-03,1.616756899002354557e-03,1.347158074378967285e+00
6.298024956664878271e-01,-7.649491541916642046e-01,6.383836615280042981e-01,7.656994141046466473e-03,-9.419755384428572451e-03,-9.285048240524467270e-03,1.399312376976013184e+00
2.791476764106416986e-01,-1.493029395472399878e+00,1.086394662352716978e+00,1.662010247723762560e-02,4.013211640782840539e-01,2.674790459910528564e-02,2.389350414276123047e+00
6.194771298867143283e-01,-7.100959298595640456e-01,6.770998658135449766e-01,-5.828969588351684897e-03,2.666391764188653923e-03,-2.039034154728327011e-02,1.359804749488830566e+00
6.384067972008576897e-01,-6.465029190193756214e-01,6.443102879194768651e-01,-3.276121793109421088e-02,1.380419417941365634e-02,-4.237777673303129433e-02,1.291430354118347168e+00
7.081096615233286595e-01,-7.722394058553698759e-01,5.825115228029149606e-01,-7.146758990997418258e-03,-1.423192335375085375e-02,3.779799116994004681e-03,1.421999573707580566e+00
6.742455747450784020e-01,-7.174387604497470816e-01,6.061978876579786624e-01,3.691265062855154239e-03,-3.630697710906930116e-03,-1.710700611909473853e-02,1.359291434288024902e+00
6.489510366038230282e-01,-7.097999049920171721e-01,6.084650443125878549e-01,-6.637591255083292140e-03,5.037436489056842069e-03,-1.618152396850168137e-02,1.339338183403015137e+00
6.411476422250920182e-01,-7.560117894953032325e-01,6.426226870947957526e-01,-3.088154822204413133e-03,6.606700895183673788e-03,-3.695660791430749846e-03,1.397969245910644531e+00
6.441406609334958677e-01,-7.543659289283783931e-01,6.460562615072488191e-01,6.419155123869697659e-03,1.434190925063328660e-02,2.815682428819726163e-03,1.399738430976867676e+00
7.752178795918009957e-01,-8.138203519671627362e-01,5.840693763023314666e-01,-3.654602987500423644e-02,-5.373271892294868846e-02,-5.971236021963886864e-02,1.510365247726440430e+00
6.452927022671853807e-01,-7.771343777274221098e-01,6.333320188973678988e-01,2.068491456793968963e-03,-3.782293755696009181e-03,2.927043775019341938e-03,1.416513323783874512e+00
7.553810642875583570e-01,-7.620181991569027202e-01,4.071590854606029208e-01,-9.066679925215186814e-03,2.141941228651786724e-02,-4.318129956534693531e-02,1.379341959953308105e+00
6.559679088823553439e-01,-7.675026573848675593e-01,6.632316670289890581e-01,2.610646557181370980e-02,-2.349031619829588819e-03,9.654280153294468592e-03,1.427936196327209473e+00
7.170932469604004433e-01,-7.497936434921582682e-01,4.524198919957621023e-01,-1.487232335078997499e-02,-4.627143960314414155e-03,-9.632116052312119509e-03,1.354462742805480957e+00
2.202370863252205435e-01,-1.480423224152077388e+00,1.181788835773505131e+00,1.074601137025826651e-02,2.941644413712705686e-01,-2.119988312979684958e-02,2.390270471572875977e+00
6.248870853858830010e-01,-6.831874511955251528e-01,6.615538557766083017e-01,3.231787704361592517e-02,2.558923421079551189e-02,1.466945726790738411e-02,1.328950643539428711e+00
5.299706262862565742e-01,-7.597401602514178842e-01,6.880702293004242742e-01,-3.744207770070626454e-03,2.609851081581299886e-02,1.519219933340080521e-02,1.376600861549377441e+00
6.655716045680923898e-01,-7.324191632254959394e-01,6.419172493166510618e-01,9.844924546064894380e-03,-2.024330318862813463e-02,-1.070191794094482209e-02,1.386986970901489258e+00
7.223942250300013912e-01,-7.268476809746856615e-01,4.086147503572534201e-01,-6.330811099555570809e-03,2.679740367708264778e-02,-1.605591060570782727e-03,1.321476340293884277e+00
6.102898773037648272e-01,-7.598239620405452532e-01,6.361766628062972551e-01,-2.165547618157074824e-04,2.333381684367318484e-05,1.633017007642299442e-02,1.383528113365173340e+00
6.237473046811051747e-01,-7.555712409648145389e-01,5.992703781230279692e-01,1.312367507817319492e-02,-7.091848344296761662e-03,1.153243225255822825e-02,1.367634415626525879e+00
6.075765912300965521e-01,-4.860674179407640239e-01,6.054819857505632230e-01,-1.354467043881787567e-03,-3.148668535907172411e-02,3.988738237268005075e-03,1.093982815742492676e+00
6.228197772786827624e-01,-7.947206661919561377e-01,6.745698646643329965e-01,-1.697666320925673858e-03,3.211613567464548236e-02,1.143255188108937594e-02,1.445320725440979004e+00
6.587589054498756980e-01,-6.135356371781101048e-01,6.025698737340419164e-01,5.244576140929447725e-03,-1.972524453750202147e-02,-2.784569627118550425e-03,1.245662331581115723e+00
5.219676160508219809e-01,-7.797134242528261927e-01,7.123580466017078727e-01,-2.100189300716647292e-02,4.165864315305822796e-02,1.270377520918684888e-02,1.409064769744873047e+00
3.672281150690291929e-01,-8.013308138242736245e-01,8.544707052080440235e-01,1.598371542087419564e-02,3.751924460744373580e-01,2.762527616284371837e-02,1.611729145050048828e+00
4.800899415268503612e-01,-7.559115610465033663e-01,7.093685195501260310e-01,1.428344432726564965e-02,6.972106612477522742e-04,1.312978495756178185e-02,1.365572333335876465e+00
3.889717624832367271e-01,-7.712196633858523498e-01,6.554993824426640359e-01,2.085750685551997566e-02,3.151016758938262052e-01,4.005920572912472291e-03,1.423209309577941895e+00
6.198312488430715028e-01,-7.440984219513958609e-01,6.833954512329942776e-01,1.020922678570383973e-03,6.361985332937088178e-03,1.375304126604111896e-03,1.396843552589416504e+00
5.500636865194823422e-01,-8.631490749662540374e-01,6.874853171347035108e-01,3.807412785572395625e-02,1.925614463198856430e-01,-1.648589326083671827e-02,1.525340914726257324e+00
6.247271338982618438e-01,-7.570241121447841559e-01,5.960367895754733469e-01,1.539749749720598776e-02,-3.983803582940606547e-03,9.570907935358394930e-03,1.368009686470031738e+00
6.268278980237953490e-01,-7.636661121333546687e-01,6.367136402133424244e-01,4.565666195723064834e-03,1.730353544414431951e-03,7.346359307549171248e-03,1.395546793937683105e+00
5.891270940395902933e-01,-7.472670332776198965e-01,6.233759122955281340e-01,-2.029660849564038014e-02,-3.621928581240056039e-02,-2.704054021294644700e-02,1.356560707092285156e+00
6.173761392644765422e-01,-7.483468394060458495e-01,5.776813706698878947e-01,-3.005617627665182340e-02,-4.808443020587264971e-02,-2.219972981139445994e-02,1.350439906120300293e+00
6.157576461514742139e-01,-7.792428858736729635e-01,4.344851423295611470e-01,-2.190848263319242900e-02,-2.089258831787421111e-01,-1.541865561007576754e-02,1.363493323326110840e+00
5.336083193138090319e-01,-7.804254069847376130e-01,4.998951112460352508e-01,-1.379391106876163078e-02,-2.453037416677253113e-01,-1.889724614630495375e-02,1.365900754928588867e+00
6.311485672612675568e-01,-7.676618619140066491e-01,6.183263204820494963e-01,7.601593711358860944e-03,-1.253387365446771533e-02,4.684306509946133991e-03,1.392698645591735840e+00
5.801147352078441788e-01,-8.501250000073530266e-01,6.226268003508710347e-01,-3.950914313261344457e-02,-2.192660185462748379e-01,-4.720896905845476527e-02,1.504592061042785645e+00
5.874845070463601271e-01,-8.560293258645480519e-01,5.426094150947480266e-01,-4.451150833326509432e-02,-1.820275026986175326e-01,-4.469990276142905145e-02,1.460242509841918945e+00
5.475751540859538080e-01,-7.583017197855331792e-01,5.901411273350469777e-01,-1.731541636957885377e-02,-9.697438171475883384e-02,-2.251125748526295114e-02,1.339157938957214355e+00
6.050864814983372142e-01,-7.543674731121771115e-01,5.500405017158083165e-01,-2.219394538458772242e-02,-8.221088046532241955e-02,-1.633239410580545128e-02,1.341218233108520508e+00
5.129367230577389636e-01,-7.619015037006596769e-01,6.691407268694267163e-01,-3.238873040762905997e-02,-9.714041600074829752e-02,-1.999253335988893793e-02,1.371642112731933594e+00
6.394575582664067115e-01,-7.592360808812007589e-01,6.124733510668030068e-01,1.517458607941752323e-02,-3.622635732809735120e-04,5.608162171477322011e-04,1.385648369789123535e+00
6.230829124426884302e-01,-7.646311552580791204e-01,6.191299159281120623e-01,7.138936766701839409e-03,-7.332251445643814952e-03,1.197460881369438040e-02,1.386010289192199707e+00
6.439555386202964193e-01,-6.006073332298628165e-01,6.036349241160017254e-01,1.261164165759703047e-02,2.615792045822163542e-02,2.886245655793987994e-02,1.226951479911804199e+00
6.203323255592303465e-01,-7.505816439663628437e-01,6.034338174374448416e-01,-8.052968510668721477e-03,-1.560664214586211665e-03,-4.270401955909966692e-03,1.362637400627136230e+00
6.599118802787422577e-01,-7.713321406251736345e-01,6.544786164061066058e-01,2.086269498310975353e-03,-9.202136671401774104e-03,1.752404957475588122e-03,1.428631901741027832e+00
5.824921218040459703e-01,-7.551350637347831185e-01,6.003365468318315745e-01,1.504934816801566620e-02,-3.307328284261910889e-02,1.826925702766404175e-02,1.348479270935058594e+00
6.539893592087676621e-01,-7.610362236905476863e-01,6.405059556122072451e-01,5.831740108380279765e-03,1.052266996633316638e-02,-8.081137278803723553e-03,1.408555984497070312e+00
6.545705893789204310e-01,-7.523939256744598403e-01,6.480639830582100025e-01,3.856723527943070606e-03,-1.821368397257243366e-02,-3.352542258053483985e-03,1.404104828834533691e+00
6.212192979129904646e-01,-7.555850965313488654e-01,6.303112384926981004e-01,1.861679013488930223e-02,-3.376792414641588413e-02,1.948657339719836457e-02,1.383398175239562988e+00
6.030918082067464603e-01,-5.874667098258873343e-01,6.790711962802370438e-01,1.565211195209813555e-01,7.872828132171506713e-04,-5.199737934227060578e-03,1.259857058525085449e+00
5.997832382738588208e-01,-6.313218634365863613e-01,6.353048942301089408e-01,6.552612740411264958e-02,7.825309348167775120e-04,-2.084624215369021861e-03,1.254395604133605957e+00
6.492264250295114447e-01,-6.527995970776234724e-01,6.225990729492657527e-01,2.534395686316707943e-03,-2.921185439443650320e-02,-3.996924184523792736e-03,1.289937376976013184e+00
6.665926819879434140e-01,-7.324566625743581527e-01,6.356138610137185285e-01,2.693526693881428263e-02,1.775618958527368230e-02,1.863619191158219154e-02,1.385323882102966309e+00
6.616591565759253335e-01,-7.611873742539647658e-01,6.397381591111579446e-01,2.162831544659153324e-02,7.859982755750340513e-03,2.185809997305273103e-02,1.413083314895629883e+00
6.724068672277032643e-01,-6.975294125768953801e-01,6.350245594109642511e-01,1.083658008619535137e-02,-8.471623910378945146e-03,-1.002621311688564609e-02,1.351954340934753418e+00
6.036612055872603300e-01,-7.693974688953220120e-01,5.846334672554991396e-01,2.837977246542357571e-02,-1.342046805789120500e-01,2.040461211981348805e-02,1.384638547897338867e+00
6.039091574382097205e-01,-4.161226477870556550e-01,5.774515129873062369e-01,4.112113896361447771e-04,1.655714974771724593e-02,-3.549251496055536720e-03,1.007490873336791992e+00
4.753227531552286500e-01,-7.584485529006607107e-01,6.811605710204629016e-01,2.384638196176930292e-02,-1.228113029989481297e-01,2.316576033409211560e-02,1.366411924362182617e+00
4.961342376068956228e-01,-7.646801361356639903e-01,6.115353002233213653e-01,1.493658142189402925e-02,-1.709765233112554017e-01,3.742596355564080293e-03,1.355315446853637695e+00
5.782183424873963418e-01,-7.394136506832579281e-01,5.416992330651753118e-01,-2.168890895200749000e-02,1.702220536874280432e-01,-1.264773365201972422e-02,1.333486676216125488e+00
6.723605359461151121e-01,-7.343066396237392102e-01,5.714104814381748554e-01,2.511850713281474010e-02,-2.437837092193749153e-02,7.865220592941937761e-03,1.360427021980285645e+00
6.027722766767957818e-01,-7.398304490437751513e-01,5.943817634672574624e-01,7.262622915281505796e-03,2.344513771048395770e-02,-1.869196127418912496e-03,1.339106082916259766e+00
4.678320428330319802e-01,-7.778948218933058323e-01,6.966030230440183324e-01,5.130268314946734298e-02,-1.269837582396898257e-01,1.643350081276778729e-02,1.395076513290405273e+00
5.860100349574562939e-01,-7.246872787641074343e-01,5.822756818532568435e-01,-5.973708260427717902e-04,-2.761783543454689963e-03,-3.336996916287926127e-04,1.308843374252319336e+00
4.715222310510570058e-01,-7.689643189040095139e-01,7.005216011677527499e-01,-1.317106893324584797e-02,-1.190404240722195695e-01,-2.314528820662413097e-02,1.385625362396240234e+00
6.710385636103636253e-01,-7.508465923856793012e-01,6.391940058985323692e-01,-1.178387826614614095e-02,-1.612954060576289247e-02,2.962482892992956279e-03,1.406668305397033691e+00
6.488068688445088883e-01,-7.662916788466561657e-01,6.552037615411823168e-01,7.957624880187624122e-03,-5.336083996477829433e-04,6.722559186847340031e-03,1.418422818183898926e+00
4.166519871671446884e-01,-7.415584353547571839e-01,7.657874599930967197e-01,2.149308684568513369e-03,6.065868779541359196e-02,-2.346853965991050857e-04,1.370682954788208008e+00
5.250874921912551674e-01,-7.470284107005215057e-01,6.244327862773016991e-01,5.698125479396176467e-03,-8.457139010390811451e-02,-5.905838503096144882e-04,1.332697510719299316e+00
6.693370323399956412e-01,-7.399898759841508911e-01,6.312743109371494743e-01,9.484324633738470262e-03,-1.324586564768199734e-02,1.323308265823807447e-03,1.390974402427673340e+00
5.716600940299156886e-01,-7.710100408709066322e-01,7.079657099962145539e-01,-1.585486833030549936e-02,1.279576198736850044e-02,6.894059728528464243e-03,1.416242837905883789e+00
5.804646450721862028e-01,-7.574697054241674721e-01,6.937846101657075826e-01,-1.175587413543034351e-02,7.873426257154527916e-03,-4.502960612133235022e-03,1.398279547691345215e+00
6.661493430662428494e-01,-7.313662547906266687e-01,6.409776357202455754e-01,-5.040115062376235994e-02,-1.991393469790075921e-02,3.195341276049504242e-02,1.389380812644958496e+00
6.790692976054792940e-01,-6.370722792081487951e-01,6.527362274808370390e-01,-1.302403155976140370e-01,5.606314653153207650e-02,-9.187699698247127345e-03,1.326210379600524902e+00
4.826458287460733132e-01,-7.285048893737930964e-01,6.599764877412052089e-01,4.956456093672497636e-04,1.824322355636022464e-02,-7.507500418707068433e-03,1.309303164482116699e+00
6.388622220785504791e-01,-7.161985111957632766e-01,6.572444749182695389e-01,-4.654049630268738622e-03,-4.463813773841402051e-03,4.547751010375061104e-02,1.366662383079528809e+00
6.257636352543700653e-01,-7.518403407803484484e-01,6.746914934866143909e-01,3.815925202734790286e-03,1.597720158062119686e-02,-2.369246721738953957e-03,1.403002619743347168e+00
5.769613819629385576e-01,-7.260903440714127077e-01,5.947828282638767394e-01,-1.511326958918092673e-04,7.461414758668504302e-03,-7.398113112437626916e-04,1.312117576599121094e+00
6.610417953986533757e-01,-7.618332428543008739e-01,6.140286066261066988e-01,1.932869286410545924e-03,1.479849623755416553e-03,1.020624027056889031e-02,1.400078535079956055e+00
1.330334675458476612e+00,-1.544544229474332342e+00,1.219269031557374261e-01,8.631076978025476257e-03,4.921173839041232539e-02,4.164741494712734249e-02,2.502767324447631836e+00
6.604194711170613408e-01,-7.664062631723901342e-01,6.410117308040679251e-01,-2.415029182690469917e-03,-4.300238794868804088e-03,5.096736208813248091e-03,1.417274713516235352e+00
5.975353033178456563e-01,-8.028949532769156239e-01,6.610927880197949857e-01,-2.573104012561125767e-02,8.891280757638604648e-02,-4.890780254985691716e-02,1.444690585136413574e+00
5.246741267884422744e-01,-6.481381095831049155e-01,6.821310916250920009e-01,-7.506335730190204225e-02,8.788991097852636922e-03,-2.019540073691844517e-02,1.266217827796936035e+00
5.768174577046633056e-01,-7.577838072431580807e-01,6.918939461171386140e-01,-6.514834927048723107e-03,4.369537446521725571e-02,5.056816150457901782e-03,1.397825598716735840e+00
6.821764801261028799e-01,-7.606465450527550853e-01,5.905094459987568767e-01,-7.762683826620909132e-03,2.078993836539371094e-03,1.127663689327864163e-02,1.399448871612548828e+00
6.411435423508435871e-01,-7.604411360755443106e-01,6.598167403986130441e-01,2.714121865663908506e-03,1.306657494627199399e-02,-3.358028274888262641e-03,1.411215305328369141e+00
8.222217632777237828e-01,-8.418917078347437633e-01,2.934309631471817004e-01,-1.444405116634656268e-02,-1.243274772513978388e-01,4.510785572674719940e-02,1.490646719932556152e+00
8.005465819851663722e-01,-8.176855971692819081e-01,3.636945899101284851e-01,-2.071618658783490677e-02,-3.883444479592682019e-02,-5.803997842310765903e-02,1.455508470535278320e+00
6.846247445699877865e-01,-6.274784310850904934e-01,6.429350907741420151e-01,6.099091088633896290e-02,7.076924254189805551e-03,-1.024323981895271518e-01,1.308219671249389648e+00
5.970343814847527408e-01,-3.567143831765550166e-01,5.805194037149510322e-01,1.115945019701276159e-02,1.865145033890671863e-03,-4.769802958242170404e-02,9.494038224220275879e-01
6.679499018254890785e-01,-4.444573576066848108e-01,6.575623741849953019e-01,7.881117942542729959e-02,-8.147090467387532384e-03,-1.280408968555389604e-01,1.137549519538879395e+00
6.807655616873360405e-01,-7.537659988998384186e-01,6.302046728254566688e-01,3.565156488188424462e-03,-2.487736233120809923e-03,1.904243003514600194e-03,1.409955143928527832e+00
6.427476343310198903e-01,-5.075961022188862914e-01,5.948884368180886728e-01,1.195791520130322916e-01,1.645666281348671239e-02,-1.374253481035571933e-01,1.170851707458496094e+00
6.461295956007572228e-01,-7.776043585746021947e-01,6.483562051122381265e-01,-1.745665694102458646e-03,-5.622017305840355632e-03,2.146528382662985911e-03,1.424889922142028809e+00
8.506254068856498041e-01,-1.492339750642981411e-01,4.788661830119382290e-01,4.677537525998876067e-02,1.811229922227604316e-01,-7.484231636329158333e-02,9.423382282257080078e-01
6.189603595329401520e-01,-9.278004181445981269e-02,4.150619051440780360e-01,-3.202677841052768704e-02,-2.271093818749695889e-02,-5.475763545877917332e-02,6.454811692237854004e-01
5.061858275552408859e-01,-3.795876653298385639e-02,6.549276173099846110e-01,-3.013650876120455360e-03,-1.373897554554725370e-02,2.142546584508498581e-02,6.333444118499755859e-01
5.720207070488887435e-01,-2.623977920396057817e-01,5.888250379943060775e-01,1.759402233603918342e-02,-2.077027582436124023e-02,-6.107239019999528840e-02,8.508647680282592773e-01
5.791544284901165573e-01,-2.507247873032376617e-01,5.771689250879938893e-01,2.971043383001787178e-02,2.705852050544779730e-02,-2.715546487755109498e-02,8.331342339515686035e-01
5.671920082393544504e-01,-1.297162300029658377e-01,5.794148931127628410e-01,-4.972181861403414393e-02,2.117753320068344047e-02,-1.272877010785498086e-01,7.427768707275390625e-01
6.402513788814521156e-01,-7.713372146814093666e-01,6.402579292054542126e-01,4.003219027877986946e-03,-1.111654037285854206e-03,6.717318167164763052e-04,1.411610722541809082e+00
6.519850560014780472e-01,-7.752940328060313746e-01,6.456370417300341114e-01,-1.160691715012859403e-03,-3.613631691900575857e-03,4.625871097755079354e-03,1.424153447151184082e+00
6.987285692888001165e-01,-7.252627404071592121e-01,5.884947336493580039e-01,-2.464664878952325250e-02,2.316404630488176630e-02,4.677186025415200343e-02,1.375836372375488281e+00
6.518732353461398343e-01,-7.513420797561976006e-01,6.588053010537331389e-01,-7.360772331713382258e-03,-8.061939564371919595e-03,1.043189338894888463e-02,1.406937241554260254e+00
6.302839741160812803e-01,-7.541214428916326318e-01,6.105763074837303739e-01,1.189806079585776881e-02,8.254853345455346117e-03,-6.314173149199834960e-03,1.374929785728454590e+00
6.528607991098074326e-01,-7.794746391318859713e-01,6.428198347193099238e-01,-1.162510589221144378e-03,-3.619292774517070786e-03,1.401251535755979353e-03,1.427358746528625488e+00
6.279097022768658221e-01,-7.532510904174583022e-01,5.876441758437739304e-01,3.498344605680380609e-02,3.344615899090795652e-02,-3.081121616795031229e-02,1.365096569061279297e+00
5.717110709688153491e-01,-7.388849390305647358e-01,6.289065053939884020e-01,1.963400066088933933e-03,1.158841180777168446e-02,1.873772575256575992e-02,1.340656995773315430e+00
6.169507371921736372e-01,-7.277430952322585522e-01,5.171543620696399390e-01,5.638723805859398308e-03,3.652715113107211919e-02,7.684845278173537851e-04,1.299255609512329102e+00
6.264641587248429566e-01,-7.172706107379785978e-01,6.686332593195341012e-01,-5.284561464421985363e-03,-1.825455658269592787e-02,6.440867117653081148e-03,1.365750074386596680e+00
6.778888915084118061e-01,-7.594597085521999080e-01,6.486028120310676215e-01,6.573807907351661450e-05,-3.215493613035745601e-02,1.063434705955284762e-02,1.424140214920043945e+00
6.157002124783750308e-01,-6.330004949851115725e-01,6.406205330829024547e-01,-4.521412310864105118e-03,-1.053030255513108179e-02,4.487781128519619661e-02,1.263894200325012207e+00
6.678586933480779031e-01,-7.939157821316464858e-01,5.486523590240809378e-01,9.593629838526204420e-03,-2.220494536249041206e-04,-4.620760381072613193e-02,1.408340811729431152e+00
6.434415945196889641e-01,-7.280983542004781928e-01,6.456842024061537622e-01,-9.841400760075296253e-03,-4.763819244172452089e-03,9.480580632615765932e-03,1.372891426086425781e+00
6.450739204412622163e-01,-7.721833046584694049e-01,6.332767396564097373e-01,-2.523058318499433431e-04,-5.684497809534437909e-03,5.985356422340481868e-03,1.411468148231506348e+00
6.189233524031612088e-01,-7.570085162820729963e-01,6.301815812997242361e-01,5.289773699258537305e-05,-1.257584771854493256e-03,9.847755673453079464e-03,1.381702423095703125e+00
7.567169057043877656e-01,-8.011813544362024198e-01,4.879458752948019340e-01,-3.885218848781261166e-03,-3.485106604382990497e-02,-5.248343303224498740e-02,1.446554422378540039e+00
6.430314604340922058e-01,-7.717254007880745004e-01,6.386357078455049407e-01,6.879286113032268739e-04,1.016754848942114445e-03,1.675426505652245594e-03,1.412568688392639160e+00
7.665022294397524361e-01,-7.354343088835526565e-01,4.109755290339315303e-01,-1.668617310493595435e-02,-7.255292515275298115e-02,3.830140178455937461e-02,1.367209553718566895e+00
6.789494603199940359e-01,-7.881205610770202208e-01,5.810486379427834969e-01,1.065878692023459751e-01,-3.602633421502474814e-02,4.931234090310186724e-02,1.436496973037719727e+00
7.638106319059134730e-01,-7.419587594631232852e-01,4.994589218237101003e-01,1.755458896966988203e-02,-1.105618349023350239e-01,-2.208359923818391940e-02,1.406495571136474609e+00
7.001138758811379370e-01,-7.248901456228173945e-01,6.627081107993677556e-01,-1.084812547287629728e-02,3.951403845824137673e-02,3.019588226615602805e-02,1.409434199333190918e+00
7.314370792547638667e-01,-5.832665522900399857e-01,5.233732750937221123e-01,-1.139451575030271321e-02,4.387164553122808314e-02,8.476539416081631251e-02,1.235278606414794922e+00
6.443523197311002981e-01,-7.221657933585506894e-01,6.825511421434514725e-01,3.172670962343353274e-02,1.715118182343642814e-02,1.907986998158766115e-02,1.387812852859497070e+00
6.404188695702983658e-01,-7.572531327757158204e-01,6.534714125546730035e-01,-1.217955060922155767e-02,8.644889110807693969e-03,7.829221509621328567e-03,1.404547452926635742e+00
6.298965296621681365e-01,-7.564234990255871427e-01,6.173866728063044373e-01,6.336838640805192782e-04,5.468650697571579740e-03,7.690624137441516139e-04,1.380141258239746094e+00
1.087528534499702937e-01,-8.331644216549615178e-01,9.682772937642203370e-01,9.658261769030311583e-02,4.432963284265108161e-02,1.957877398401924179e-02,1.571820974349975586e+00
7.691828098994417662e-01,-7.413322508879589545e-01,4.157820775475714603e-01,-1.469070575875745625e-02,4.746355924540168053e-02,-1.253516502784465456e-02,1.371352553367614746e+00
4.819479862886344446e-01,-7.317314489787279941e-01,6.650500037416077204e-01,-4.794364089586034949e-04,1.985456313907092707e-02,-6.864763182703506258e-03,1.315331101417541504e+00
6.392577940136137116e-01,-7.112364888906086424e-01,6.546122215890113338e-01,1.558521602821108694e-02,2.518887063177871477e-02,1.653913408955998837e-02,1.359507083892822266e+00
6.515079322570245246e-01,-6.605702957972513500e-01,6.246004126829565184e-01,-4.744825776529203870e-02,-2.353762069218585246e-02,5.282408508524503304e-02,1.305279970169067383e+00
6.332023122759795619e-01,-6.632491170113724577e-01,5.710710059875012679e-01,-2.477992156139209590e-02,5.364306435635149417e-02,1.719011389536784576e-02,1.271006584167480469e+00
6.126061976164574041e-01,-6.159312726630836732e-01,6.453165851733830838e-01,-3.775249214095673968e-03,-2.219585375216600112e-02,1.665184262682359653e-02,1.246159195899963379e+00
6.438070085382907592e-01,-4.045358424135464537e-01,6.274178900791385072e-01,-7.591071413256708644e-02,-7.510113123331391659e-03,1.278767047181721961e-01,1.071738719940185547e+00
5.814761647328753336e-01,-7.251994318715492271e-01,5.860099775057228122e-01,5.836151445391797804e-04,1.631709110546255377e-03,9.433775906606354372e-04,1.308952808380126953e+00
7.430269561883063867e-01,-7.449008548111750727e-01,4.126121754980137113e-01,4.000309813950711155e-03,1.679949534154877300e-02,-9.440715238656817096e-03,1.353747367858886719e+00
5.900075983476091857e-01,-3.309902790880585588e-01,5.991266597466996524e-01,-7.376279000918918582e-02,-9.971244465652161562e-03,1.978772991971583517e-02,9.351549148559570312e-01
6.263254302138525631e-01,-4.997899347319791907e-01,6.092278806240077893e-01,-1.148284829870492435e-01,-3.250212942939002120e-02,5.978249949678178521e-02,1.141324758529663086e+00
6.803259604513075542e-01,-7.443830962850043198e-01,4.369465691448062294e-01,1.974102746993807236e-02,5.342225273968403271e-02,-1.154628872546326762e-02,1.323788285255432129e+00
6.242934540848938951e-01,-6.527028269424743900e-01,6.647273103248394488e-01,-6.143618423509952797e-02,9.474011809238503529e-03,7.643901899822026780e-02,1.308858156204223633e+00
6.304411225856081380e-01,-5.945907765993980743e-01,6.315778090984842663e-01,-1.018483666633511198e-01,-1.361117067018053316e-02,1.785553300631568252e-01,1.276486635208129883e+00
6.123356920113109947e-01,-7.617275298323089583e-01,6.251558841536204447e-01,3.206817189433546123e-05,5.769763565799900656e-03,-1.852176858092188794e-02,1.380926847457885742e+00
6.376386657003032532e-01,-7.629639721163937738e-01,6.569972470139440190e-01,5.101303848442996156e-03,-2.552877297900057758e-03,8.025717609864682980e-03,1.410484671592712402e+00
5.883980215383584067e-01,-7.445385825378250111e-01,4.944362684040192746e-01,-1.291901132877421379e-02,-1.356270087118547629e-01,-4.840123284563812613e-03,1.309984326362609863e+00
6.885507201636431596e-01,-7.461325433941053964e-01,4.298307902790504675e-01,-2.028514115181159067e-02,5.737674038203645355e-02,1.543170196539925959e-02,1.328870177268981934e+00
6.045039917318589806e-01,-7.408126611067264999e-01,5.354498647151475499e-01,5.817221111748826362e-03,-7.007282292443407778e-02,3.119214189733305383e-03,1.317803859710693359e+00
5.909355949143730857e-01,-7.245245082538103176e-01,5.818459381756867499e-01,-2.372475815663322625e-05,4.935663151373092736e-03,-1.596481920369010839e-04,1.310966849327087402e+00
5.968638641150814106e-01,-9.321926211607776125e-01,6.307309297068759424e-01,1.313829931907819874e-02,-3.045481124484495927e-01,6.610457159111060577e-02,1.637932062149047852e+00
6.613781905434910069e-01,-7.279400615361222293e-01,5.009034336841138302e-01,-5.737244055107612768e-03,2.027295977900970061e-02,-6.390525296228276699e-04,1.316943407058715820e+00
7.028384126002452659e-01,-7.736752835561750974e-01,4.637870532875985607e-01,1.365274259380636762e-02,-1.082956718096718396e-01,-7.785526438230982831e-03,1.385712981224060059e+00
5.077191041827362472e-01,-7.429153713011829030e-01,5.800274837485492885e-01,-8.708614066867872289e-03,-1.357444639209764992e-01,-1.386053427297649805e-02,1.309896945953369141e+00
6.156072047248324353e-01,-7.613312333425764633e-01,6.505460958576594344e-01,1.997910092497630352e-02,6.903632630768746737e-04,3.426961938006812050e-03,1.395178556442260742e+00
6.495372547762037208e-01,-7.394861189667704116e-01,6.405548693940065208e-01,-1.552098979433902057e-02,1.486972246202679718e-02,-6.712591534116908211e-03,1.385103225708007812e+00
6.453354054931121908e-01,-7.668588320550262516e-01,6.415369891485672715e-01,-6.245833215842310285e-03,5.268523423655691908e-03,-7.465288265936315115e-03,1.410429120063781738e+00
6.707605904224708260e-01,-7.343533687291300405e-01,6.356387510985370692e-01,-4.770177434042769185e-03,2.618124140407949302e-02,-5.858563111014188085e-03,1.388688683509826660e+00
6.344798966496413284e-01,-6.672482680643316844e-01,6.284812352298152494e-01,-2.387034862776159574e-02,4.142836421543006666e-03,-9.482909560787100220e-03,1.299520730972290039e+00
6.571493467334887928e-01,-6.577792020773467474e-01,6.025746372330882394e-01,-3.936777229769310854e-02,-1.002751993822732952e-02,-8.004795195838713961e-02,1.297855019569396973e+00
1.026198166191440997e-01,-1.132339712326833059e+00,1.104884272711813331e+00,1.363565562287358257e-01,1.539724840750954877e-03,3.590354547914696021e-02,1.956289529800415039e+00
6.464059272527414857e-01,-7.787252726794657853e-01,6.419307138667860180e-01,5.704492112613531373e-04,-8.369752364933225400e-04,-1.909700418432964345e-03,1.422903776168823242e+00
1.764956415483129870e-01,-9.801050175168375400e-01,1.027036086224195621e+00,3.748197087702052899e-02,-1.963262598198919351e-01,-2.929886737441385683e-02,1.779691457748413086e+00
5.409299398131341974e-01,-7.268283129221609906e-01,6.095438934739227932e-01,1.505343187767282974e-03,1.359090704273174452e-02,-7.639190104111695523e-03,1.303702712059020996e+00
6.053201293263383853e-01,-7.589725620139552431e-01,6.496522299993289229e-01,9.252779903782249165e-04,3.577980463728476328e-03,-1.150986346396768931e-02,1.387148261070251465e+00
8.533972175474807687e-02,-9.112153481136302524e-01,1.256217842415168873e+00,1.990805794127540329e-01,-1.590888805948067475e-01,-1.458146521947635554e-01,1.946672797203063965e+00
9.544761944445907809e-02,-1.321350505182355306e+00,1.190340419937459426e+00,1.138619173033705578e-01,-1.980464333034647750e-01,-8.987679158959677173e-02,2.222193479537963867e+00
7.427311793522488603e-01,-8.645245793059891382e-01,3.905376846926006951e-01,-5.053436283705565329e-02,1.297014154251425744e-01,3.879989184190196783e-02,1.484550833702087402e+00
5.983106642265010322e-01,-3.925293613410832938e-01,4.577204474494601660e-01,1.331463249689987397e-03,-2.295306844040178595e-01,1.272725513790196050e-01,1.033866763114929199e+00
5.599304588499847135e-01,-3.651434206492805146e-01,6.837258147896420057e-01,3.286400963351740045e-03,-1.113452307661039892e-01,8.469268466183836608e-02,1.021934986114501953e+00
6.266577713955845397e-01,-4.107775899162809941e-01,6.145636623961253653e-01,6.635782347219496002e-02,-1.211172100795326672e-03,1.278514136006269342e-01,1.061189889907836914e+00
6.442247268086629397e-01,-7.696602598398351036e-01,6.568382281647645593e-01,1.219800493965279972e-03,-4.883438793597074702e-03,-2.373316948966567588e-04,1.420260548591613770e+00
6.848388681383074106e-01,-5.172018627125831713e-01,6.220913889480486070e-01,8.593415705995526011e-02,2.088476484038743336e-02,6.953399303685454946e-02,1.188015818595886230e+00
4.575732250928212230e-01,-8.413554853814421142e-01,7.296065500447055374e-01,9.645993583136239224e-03,1.506012902859957814e-01,-1.898666068904806409e-02,1.477827072143554688e+00
7.759078509944961066e-01,-1.896776269603793752e-01,5.520016571676514827e-01,-6.347264199001231844e-02,1.068184741996727333e-01,8.509327519688801231e-03,9.015668630599975586e-01
6.488957492699790608e-01,-7.659656237909525656e-01,6.640739328525662177e-01,-2.711776915335692775e-02,1.001229428481059626e-03,4.967141348166171679e-03,1.423313498497009277e+00
7.150580980544958276e-01,-7.520270374742433761e-01,4.442285686185221683e-01,2.241542949262088566e-02,1.852073534113259090e-02,-3.584686775581207019e-02,1.354529023170471191e+00
3.342177154173539000e-01,-7.240217794261880613e-01,8.229080776230319749e-01,-4.922376674762401344e-02,8.504719036612863603e-02,-3.409313835857495645e-02,1.381410717964172363e+00
6.419702271431593221e-01,-7.772209466904982378e-01,6.530407765983106128e-01,3.987742373457476707e-04,-3.147961090698687611e-03,-1.267465870498709095e-03,1.424770951271057129e+00
5.496888540418310987e-01,-6.332911414696034136e-01,6.926050003962654911e-01,2.293466264377663766e-02,8.180201879713360977e-03,1.135782936626994477e-02,1.261387825012207031e+00
6.210363185946133902e-01,-7.583627199000053665e-01,6.069576824047580033e-01,7.819244633427663987e-03,-1.243188787983658247e-03,-9.330547890763170923e-04,1.372483372688293457e+00
6.478883544311049292e-01,-7.433476716549762831e-01,5.539786788755325375e-01,1.739923766380783651e-02,9.660546621708336612e-03,2.426681972535983580e-03,1.347186684608459473e+00
3.676760029391172302e-01,-9.032704534527411511e-01,8.362277153820839581e-01,5.870478424716063515e-02,-4.806988056273091281e-02,1.084293926001441414e-04,1.564487338066101074e+00
5.686880019977267331e-01,-7.681532326123815535e-01,7.136558252124152180e-01,4.445228315168452127e-02,2.024343987188928148e-02,1.083800186491766168e-02,1.417557358741760254e+00
6.408931649821472121e-01,-7.589943474254705613e-01,6.729712549473342298e-01,4.758618265915547443e-03,-2.138784597498251047e-02,-6.174831785907182631e-03,1.416747808456420898e+00
5.472513427015348597e-01,-6.399417163373909423e-01,7.953516536542685200e-01,-1.970226970008399567e-02,6.156947596418100438e-02,-4.668015468575190813e-02,1.335888504981994629e+00
5.355956790941758250e-01,-8.097185941661294573e-01,7.838132379283335727e-01,8.969304117645873764e-02,1.264177966195339023e-02,-7.397100414499485632e-02,1.498813629150390625e+00
6.567182329686067632e-01,-7.341119685751226198e-01,5.046599837731668980e-01,1.161368895411833690e-02,1.875634992155207972e-02,-6.839708706998187757e-04,1.321932196617126465e+00
6.327839982766616522e-01,-5.600236481074059025e-01,6.459980894543242425e-01,-3.492408460010495291e-02,-1.279126164789906595e-02,6.858179269730028949e-02,1.207057118415832520e+00
8.881247478388629712e-01,-6.333684721990939792e-01,1.831239319895719420e-01,9.137888361481459609e-02,-7.177748349192716870e-02,1.096917420683415911e-01,1.347559690475463867e+00
6.816761612373262169e-01,-2.458336099736326830e-01,5.049211169568603719e-01,9.470932666381387185e-03,-7.248013584077486748e-02,1.570062715763007044e-01,9.041884541511535645e-01
9.000316176666307566e-01,-6.167087103441422080e-01,3.210466900257423761e-01,7.561819046379218180e-03,-2.538945082455767444e-01,2.044715384029944238e-01,1.441020369529724121e+00
6.418977470162989807e-01,-7.672928592762091604e-01,6.493822368435389070e-01,1.128094430355355490e-02,-3.925254849322734087e-03,2.767825029354075827e-03,1.413107275962829590e+00
7.357641088058131107e-01,-3.314285943134701595e-01,5.120369288946697850e-01,-6.313626512276515612e-02,-3.677859528874656558e-02,6.771685968547461187e-02,9.899330139160156250e-01
8.002961411800297853e-01,-8.506241346384229018e-01,4.755033037350364089e-01,7.893931187986947054e-03,-7.718084809044076580e-03,-5.243194541349878446e-02,1.517706871032714844e+00
6.420747325499025493e-01,-7.720421269289845512e-01,6.256846300264421457e-01,8.781873572971426100e-04,1.473278642434735575e-03,-6.768173437038908259e-03,1.406045436859130859e+00
6.456476481989890104e-01,-7.389083563836986723e-01,5.975264536597700848e-01,-2.695783421066352131e-02,-2.151624517618398735e-02,-7.538915602284442137e-03,1.362506508827209473e+00
6.671607293212538092e-01,-7.587048466260982726e-01,6.501234988886452904e-01,-3.063138118160195576e-03,-5.597399632533859790e-03,2.751829114033414736e-02,1.418267965316772461e+00
6.770796454625923610e-01,-6.127785302756526553e-01,5.944080704667320525e-01,6.185205658014632929e-02,-7.388628916709456818e-02,9.232221237424205473e-02,1.271754264831542969e+00
6.721771422032741805e-01,-8.278782383142776480e-01,5.568929121510468594e-01,1.286461043573485299e-02,-7.788391751644259398e-02,5.306662021223437255e-03,1.452343821525573730e+00
7.623682186079316914e-01,-6.717179429363870913e-01,5.709925861738034403e-01,-2.298695546308721777e-02,-3.157565886906870539e-02,2.332888352370183702e-02,1.350921034812927246e+00
6.249855167060170968e-01,-7.471347942771202622e-01,6.046826862088756638e-01,-6.320208667072602787e-03,-3.041833371797500810e-02,-9.221231985717190036e-03,1.363238453865051270e+00
6.670598559303111408e-01,-6.870806520431680386e-01,6.133651708378052847e-01,-3.133973615396448004e-02,-3.678563416059888076e-03,3.473384956739791708e-04,1.329231739044189453e+00
5.634258706225121482e-01,-6.675302902234810931e-01,6.577086621455319193e-01,-4.354900769843826625e-02,6.411564043067018159e-02,-1.567400382918044885e-02,1.288005948066711426e+00
6.134738098841632237e-01,-4.536639492787376549e-01,5.883171499428723195e-01,-7.271621625157818902e-02,6.612795300487245634e-03,6.022231512842097373e-02,1.067447662353515625e+00
6.089006774171862313e-01,-5.335354203222451019e-01,6.802048669623559363e-01,-1.031284438161287481e-01,3.247457000539349416e-03,8.495180532922676220e-02,1.202203631401062012e+00
5.589415801824544339e-01,-4.802019495705024399e-01,6.874752969921382739e-01,-1.205458531122989424e-01,3.239593063359934993e-02,4.743197411379312251e-02,1.132871150970458984e+00
6.414102350225817650e-01,-6.545631680506328598e-01,6.223628461757184649e-01,-2.533618078379972632e-02,-9.599462471086055160e-03,-1.975691848581324905e-03,1.287415623664855957e+00
6.031625190472835740e-01,-7.002988332673799610e-01,6.977677240524776670e-01,-6.046537277904272256e-02,-1.644955546169491259e-02,6.027325563533774549e-02,1.361599922180175781e+00
6.214384964118024879e-01,-5.864704057354257483e-01,6.251301303411833654e-01,-1.014403739667645576e-01,1.298166740792836872e-02,3.447273675548110511e-02,1.224115133285522461e+00
5.986222896886570499e-01,-7.485021619378900981e-01,6.652333859699643970e-01,1.289392992666092220e-03,9.631077099907469491e-03,-1.005242031018032875e-02,1.381847023963928223e+00
6.327835740553686694e-01,-5.953251065586376845e-01,6.388424034065018908e-01,-4.530147053011239489e-02,-1.320133675625038451e-02,4.401518628516254417e-02,1.236212015151977539e+00
2.792712168757759406e-01,-8.180953202922462975e-01,8.487728083367235277e-01,5.243307278604517931e-03,-7.551305452016431052e-02,1.795357960594828883e-02,1.473653078079223633e+00
3.974820819123530136e-01,-8.324120265803790497e-01,8.312956442048928807e-01,4.026023846741060008e-02,-1.859263268925061552e-01,1.744028886639579362e-02,1.530966877937316895e+00
1.578441556137819834e-01,-8.102377302241238199e-01,8.867830596164160140e-01,4.411915708483670623e-02,-2.061875363472191747e-01,4.669132151935381780e-02,1.521225333213806152e+00
4.930893476664214292e-01,-1.416055513983082381e+00,6.997056663607913451e-01,2.626915921240313354e-02,-4.262021396953247221e-01,-2.803014313084253514e-02,2.152058839797973633e+00
6.479233027725246341e-01,-7.773879400551820806e-01,6.460904692452464904e-01,2.482873127186283231e-03,-2.669269240835548708e-03,-1.620908740034802866e-03,1.424412488937377930e+00
3.416776920018201880e-01,-8.360336382428593671e-01,9.108837797039230910e-01,6.231729850009252308e-02,-4.428607983815234794e-01,-5.313637226328608854e-02,1.729120492935180664e+00
4.006991612433770666e-01,-8.555010960958311372e-01,6.010380966038374462e-01,6.120205970414722974e-02,-4.277093106268163303e-01,3.871837397786249274e-02,1.560250282287597656e+00
3.045022031155675268e-01,-9.221436908635503027e-01,8.637633223453416997e-01,1.053195101429868913e-01,8.567382066970427590e-02,-8.965392394636423345e-02,1.607127428054809570e+00
5.379809661288557088e-01,-9.378906355625653557e-01,6.556454527926933729e-01,5.400273351478006301e-02,-2.908703754263123331e-01,2.900731088304345923e-02,1.621970891952514648e+00
4.336964681658378451e-01,-7.617246616595856334e-01,7.674234171308846886e-01,8.193272091631861528e-03,-4.093899829140384278e-02,-1.875027358574657757e-02,1.394859790802001953e+00
3.655747168347960874e-01,-9.155994987502811266e-01,8.516563640891129383e-01,7.386098376561937850e-02,-9.664758524295868902e-02,1.247952008399915921e-02,1.595397710800170898e+00
3.249139562559475447e-01,-8.057652495068978737e-01,8.279877814583401774e-01,-5.608142771487269890e-02,-2.041209522502056978e-02,7.285363339828539002e-03,1.452989459037780762e+00
6.216772625974946731e-01,-7.578075777345730790e-01,6.175757430428195915e-01,-1.679358681156783994e-02,7.761839144610506273e-03,1.741916632563200425e-03,1.377814650535583496e+00
4.766146856716385605e-01,-8.068742865219271643e-01,7.888861477190688420e-01,-1.281274773974447855e-02,6.864200291120836628e-03,-2.912010752406654808e-03,1.465030312538146973e+00
4.906681819883102480e-01,-8.295104984135049930e-01,7.168577279189944917e-01,-5.489556065675380708e-02,-7.615840830760522984e-02,-5.188007880849092313e-02,1.458478569984436035e+00
5.014758360894532307e-01,-7.948707581474213635e-01,6.833430373058571039e-01,-3.997168297182100705e-02,-5.973964256266750539e-02,-2.274021496468726922e-02,1.402285337448120117e+00
5.079096190749173845e-01,-7.645478564136032329e-01,6.877060716111468297e-01,-5.554830516135224328e-02,-3.790229176752798329e-02,-4.850252442125113639e-02,1.378724813461303711e+00
7.445922443218397913e-01,-7.837587198347096828e-01,4.152572525089280875e-01,-4.156042779219727701e-02,9.936954057520061556e-02,4.889514895457938715e-02,1.408174633979797363e+00
4.577174147630828083e-01,-7.691607005770362271e-01,7.236791865989824490e-01,-3.697063261680622048e-02,-1.451874323225490204e-01,-2.170286910830736271e-02,1.403930187225341797e+00
5.218870366643640901e-01,-8.458324789073584649e-01,7.238857888369714111e-01,1.113073983698676522e-02,-2.804155531899735904e-02,5.468815462312032888e-02,1.483051180839538574e+00
6.105556819365964838e-01,-7.618861345395203655e-01,6.413663245771884514e-01,3.579691663429931513e-03,1.761478316127001661e-03,1.388496828197667392e-02,1.388329148292541504e+00
5.426439765220498757e-01,-7.454702489877829130e-01,7.099182933292170761e-01,1.126441629585053263e-02,-7.310535125137346268e-02,3.650892043488084687e-02,1.386758804321289062e+00
6.428498525711301426e-01,-7.256588879429155536e-01,6.448649483901267576e-01,-1.804637325996548761e-03,-9.804700252714447853e-03,-1.241402683682416366e-02,1.369794964790344238e+00
6.154070908874071932e-01,-7.588305129735065657e-01,6.220902837010513498e-01,2.960552282870312368e-05,-2.211261220859334683e-03,1.055709140612043524e-02,1.377718091011047363e+00
4.242550564310181849e-01,-8.683318390815849552e-01,7.309694541246190003e-01,6.559053267745723614e-02,-2.128698634409343649e-01,-3.655316007843433402e-03,1.519933104515075684e+00
3.763343409089943137e-01,-8.356805557222626302e-01,7.342522564283247011e-01,-7.311649987461800448e-02,2.007913349814779702e-01,4.772399172950209795e-02,1.474689602851867676e+00
6.882330024326601681e-01,-7.499571072847199815e-01,5.329538441462038367e-01,-1.631519379750483861e-02,7.412497089290974450e-02,-4.424772952381609420e-02,1.375622510910034180e+00
2.756166026125520530e-01,-7.385629977740735264e-01,7.434611141608904461e-01,-3.141730246387099135e-02,3.295634198758045641e-01,-1.289231328330908699e-01,1.449337005615234375e+00
1.998860476111223305e-01,-1.190501785569025417e+00,9.677637250836838012e-01,1.763039644613968726e-01,2.292177703693209778e-01,-6.697544399827241868e-02,1.963362216949462891e+00
2.433644495953517228e-01,-7.631148003370662458e-01,8.850165254298709705e-01,1.710248475979978325e-02,1.879028622731801768e-01,-2.029116694948617308e-02,1.475995421409606934e+00
3.131213959132266300e-01,-8.555845091584612927e-01,8.089557078006696100e-01,-4.378701899473958631e-02,2.238788070954310649e-01,4.118965945077295021e-02,1.533758878707885742e+00
6.464089682800577830e-01,-7.553213001206132704e-01,6.432758112280281271e-01,-6.133582471616215101e-03,-1.407120951000088646e-02,8.113360107866897722e-03,1.400489211082458496e+00
6.190163336720304610e-01,-4.328058885013926771e-01,7.040630798378790800e-01,3.816876002539053292e-02,7.574693535498217001e-02,-5.955992062926753622e-02,1.111414670944213867e+00
3.093380257214129458e-01,-8.754537573374644444e-01,7.356463101220540590e-01,6.310962690710326950e-02,2.714498141225802352e-01,-3.269558939379399454e-02,1.525374531745910645e+00
5.702847806523443364e-01,-7.258392775740418745e-01,5.958560546020467141e-01,6.253489825708948360e-04,1.669940753144085605e-02,5.343729242283751409e-03,1.309449672698974609e+00
3.779220887429767806e-01,-7.715832540358532610e-01,7.611060248848195986e-01,-6.067213366944879116e-02,7.571460210134189905e-02,3.151647084110578700e-02,1.392797827720642090e+00
6.899491376398294573e-01,-2.863585744113273934e-01,5.528917354240021620e-01,-2.006452195960915785e-02,-3.753798803249808885e-02,2.041353671045052776e-02,9.191498756408691406e-01
8.388703460511079957e-01,-1.750675725070846012e-01,6.382622830651428769e-01,-9.721448275977530307e-02,-1.542397684483687859e-01,-4.935816226227252024e-02,9.858701229095458984e-01
8.301947555578983451e-01,-4.147362413916764190e-01,5.122364081653206780e-01,-8.762746318477131202e-02,-4.332594601840591281e-02,-4.070184860704306740e-02,1.135231971740722656e+00
1.022999669546648338e+00,-3.554541111529115893e-01,4.414967500174520332e-01,1.295575974435666904e-02,-8.367228232866515125e-02,-3.259157053186731434e-02,1.208883285522460938e+00
7.087953844166082762e-01,-3.218096778680387127e-01,5.350194390650312437e-01,4.447009714076839010e-02,-5.026540536863566971e-02,-9.894069984472464441e-02,9.778194427490234375e-01
6.193560894807859096e-01,-7.296919787774885924e-01,5.426066659527615244e-01,5.342901303868552443e-03,3.957118260769353774e-02,-1.572630944487888108e-02,1.314460992813110352e+00
6.120135162849941191e-01,-7.290138710042466386e-01,5.391466653323504499e-01,-7.781445524575432253e-03,1.965302305283019024e-02,1.804652705442825371e-03,1.306636095046997070e+00
6.930159193812455154e-01,-3.507807629700909757e-01,4.230397044592778544e-01,2.222680373257889669e-02,-1.200491651765956680e-01,-1.420977482471174613e-01,9.929205179214477539e-01
6.840226322366231848e-01,-7.306224456452916627e-01,4.533418919061489305e-01,6.634892046117520266e-03,3.712872221445292359e-02,3.766249292055700530e-03,1.316211700439453125e+00
6.843167822552036483e-01,-8.343710801846254688e-01,6.229401326618244639e-01,6.525694828006807502e-02,-3.018648567921550577e-02,1.428208810445127375e-01,1.514486908912658691e+00
6.527519359024613887e-01,-7.278747161919613129e-01,6.018897179202948866e-01,-7.317579963162498813e-03,1.313734869768256111e-03,-3.544894217702531172e-03,1.355986237525939941e+00
6.219254114016230517e-01,-7.460282624523010275e-01,6.109416692336739896e-01,-6.516569538361622477e-03,-2.874689118204582991e-02,-1.103715419387558787e-02,1.363585233688354492e+00
6.444146032815035730e-01,-7.716097132689636595e-01,6.527428865983839756e-01,-4.633408781264614952e-03,1.366135263369821010e-02,-5.162461159463001097e-03,1.420454740524291992e+00
6.463395691807607424e-01,-7.662420428714475928e-01,6.422820045131578670e-01,-2.956184573491623703e-03,-2.620820187514918791e-03,-8.333873681381392604e-03,1.410647630691528320e+00
6.418647180104738448e-01,-7.535943258039971004e-01,6.484614670174126960e-01,-3.282455566358637600e-03,1.358931585323200179e-02,-7.025393346859442863e-04,1.398979187011718750e+00
6.312286138211671283e-01,-7.138240442017870224e-01,6.629019681211107962e-01,-1.166487938010921446e-02,-6.422635901804106540e-03,-4.640692450356990323e-02,1.363731980323791504e+00
7.361513582748793194e-01,-6.190488118620638414e-01,5.616181169784943972e-01,2.472170725376852257e-02,-1.051287888511849566e-02,-5.090930199912185178e-02,1.280797481536865234e+00
6.503317285737487685e-01,-6.943750339021490525e-01,6.316994554698864839e-01,1.568561360581216535e-02,-7.919732457929274869e-03,-5.366063118508571095e-02,1.339064240455627441e+00
5.745699179383039201e-01,-5.610740416638667627e-01,6.467678523244698718e-01,9.018999194107956904e-03,-6.274441130553638606e-03,-4.519176232927474973e-02,1.176171660423278809e+00
4.330529357949302049e-01,-8.479075628672714249e-01,6.187522114463628320e-01,-1.688905895045463013e-02,3.778789998900433655e-01,5.056393035039611489e-02,1.533010363578796387e+00
6.736338858020223253e-01,-7.519934332850680692e-01,6.278656663326558363e-01,2.171945265392018903e-03,-9.352009557158374661e-03,-3.084344285119975954e-03,1.403411746025085449e+00
6.293001809834515292e-01,-5.245243062760064356e-01,6.338990730270184226e-01,-4.614680894818125323e-03,-1.145123238698706782e-02,-4.361295666015945621e-02,1.158793330192565918e+00
6.344175041746491495e-01,-6.537985546930475955e-01,6.528380494360307429e-01,2.759507054124632833e-02,-2.003002139081661026e-02,-7.488662843979389250e-02,1.305328130722045898e+00
6.504248760748452263e-01,-7.713569474374966095e-01,6.411850390003863698e-01,2.325995724756582412e-03,-2.172285534945463288e-03,-3.704918860822954772e-03,1.417209744453430176e+00
3.673862683771734194e-01,-1.183575573418292004e+00,9.820672633493938708e-01,-1.850076055008612330e-01,4.118815339491856964e-01,8.483913850966824655e-02,2.090425252914428711e+00
6.372017545991037757e-01,-6.930206815923664054e-01,6.584166369922159756e-01,1.224747581609855925e-02,-2.131772306041864948e-02,-6.366218372970526562e-02,1.346155405044555664e+00
6.334417664941374149e-01,-3.884340945585708083e-01,6.044468923012796813e-01,6.062279773823193302e-02,-8.261304632123933622e-03,-8.704615973465025525e-02,1.024403691291809082e+00
6.975720215530227808e-01,-2.675533458441498036e-01,5.680899964561957338e-01,7.698815308335900387e-02,1.872313171760071199e-02,-2.065866781356565929e-01,9.849535822868347168e-01
6.323647358228791093e-01,-6.069991190002135273e-01,6.467604320234277004e-01,-5.913953122939535206e-02,-2.382162526589738996e-03,2.730059453160315220e-03,1.250841021537780762e+00
5.346832938877449370e-01,-2.262369439745814947e-01,6.557075776280565371e-01,-1.136579983001981820e-01,-4.718658847575519025e-03,-4.011401228723895929e-02,8.540403842926025391e-01
6.191912112624602393e-01,-7.391562484916350817e-01,6.756021059417655072e-01,1.590710026582872359e-03,-2.570828751359546804e-02,-5.322930743590885069e-03,1.388160943984985352e+00
6.114244203248273557e-01,-7.357944920281657142e-01,6.625732624911306878e-01,4.890080415012930046e-03,8.988515909232669063e-03,-1.818598161634470828e-02,1.373983263969421387e+00
5.877063452963700030e-01,-7.453929314009664076e-01,7.309938514706861845e-01,-2.079795868165170564e-02,-1.134841071723518939e-02,-8.662981062020295303e-03,1.410889983177185059e+00
4.748541895102825761e-01,-2.073678409518874277e-01,7.198810867616923792e-01,-1.057613452240407786e-01,3.563392352525361628e-02,-5.519422171955651324e-02,8.597282767295837402e-01
6.358781851032876409e-01,-6.052867668727174300e-01,6.362257597535065923e-01,-6.152048261735474505e-02,-7.959271620076521780e-03,6.332957739353015612e-03,1.246028304100036621e+00
7.415851871504025583e-01,-6.813113997941372402e-01,6.388158341560973286e-01,-5.971918356078616957e-02,-3.781427769747895684e-02,-9.992422637417215647e-02,1.390650749206542969e+00
6.576875819674481427e-01,-7.593076356623864598e-01,6.516166654758899224e-01,6.932275032332912285e-03,5.244787130120697090e-03,7.246792971199859414e-03,1.414105415344238281e+00
7.397801053034253060e-01,-8.184262038766920710e-01,5.202139469047757370e-01,-1.119546937856690438e-03,-3.132335954435711001e-02,-7.615731226983951663e-02,1.467798948287963867e+00
6.706651249126105441e-01,-7.634243018540589620e-01,5.731015431270150007e-01,-1.059134257195997776e-02,8.536415887891016241e-03,1.519545656783693327e-02,1.388331413269042969e+00
6.286874162040503311e-01,-7.638598263217233342e-01,6.075397082701254892e-01,8.731584493749519268e-03,-2.442044920506718578e-02,6.887196208142652362e-03,1.382875919342041016e+00
6.728776165699698053e-01,-7.907720344895604603e-01,5.314620183520482044e-01,2.218632797788080285e-02,-5.228798328810787405e-02,-2.662459956831038279e-03,1.401779532432556152e+00
5.717349573301211407e-01,-7.486429097115930853e-01,6.144953500744552155e-01,2.023919913949902977e-02,6.004518441265097733e-02,-2.702629287145144957e-02,1.347561717033386230e+00
6.517322030958216939e-01,-6.696500444524705609e-01,6.356791274306232697e-01,-8.358219028765051517e-02,1.411929245366898983e-02,-9.040199705823787069e-02,1.330853104591369629e+00
7.057867235174435372e-01,-4.500321529839134138e-01,6.267296387497189869e-01,6.461798840875507266e-02,2.625617584038017482e-02,-1.089662410968855050e-02,1.125052213668823242e+00
2.850115674345741201e-01,-7.861290421099288439e-01,8.047151130484294645e-01,2.671311375856276829e-02,-4.435332403816775321e-03,-1.662544867138465721e-02,1.406107544898986816e+00
5.159748266156451990e-01,-7.429538746660688808e-01,6.593313124971406092e-01,2.720485056341429269e-03,1.858819813262273246e-02,1.832969097509224224e-02,1.337159276008605957e+00
6.498293584861873917e-01,-7.688409954377293243e-01,6.423162654736216393e-01,-6.176735649798543570e-04,-2.950771412528690931e-03,1.094795403922407470e-02,1.415065407752990723e+00
6.259235238635689758e-01,-5.554120259739568910e-01,6.429057316145956325e-01,-2.182219852548941685e-02,7.416824834294044252e-03,-4.041728487824550881e-02,1.192643284797668457e+00
6.809085736576210302e-01,-7.697741043658400395e-01,5.750810479238614992e-01,1.385723309680044792e-02,-2.735298888832325345e-02,3.275935084145135522e-03,1.401788234710693359e+00
4.074170202103300498e-01,-7.309523487307550971e-01,7.149182601528060177e-01,9.692937997540683947e-04,2.281254286450232205e-02,5.914847553032352538e-03,1.319909453392028809e+00
6.166791933791664349e-01,-6.132821561537445954e-01,6.859503481733374430e-01,-4.971187501271721182e-02,2.348135264986988407e-03,-1.005205840291822049e-02,1.269069671630859375e+00
6.431943131271820047e-01,-7.575149506150489209e-01,6.470669543215494812e-01,1.453157140898054915e-02,7.725364889753763911e-03,-4.660910423789299756e-04,1.402939438819885254e+00
6.435373903421209851e-01,-6.767023419258664241e-01,6.412010836353545518e-01,-5.031720157693121004e-02,1.043620513863749433e-02,-5.636468191388135235e-02,1.325672268867492676e+00
6.392888804039711381e-01,-7.015116938908231292e-01,6.442497445053756433e-01,-6.144925754978534417e-03,-2.719763031213692436e-02,7.393102965539885378e-03,1.344216704368591309e+00
6.095545291934273413e-01,-7.613622855286938940e-01,6.463754899053884007e-01,3.576820204089221737e-03,1.669865410818707156e-03,1.628034316934489148e-02,1.389996051788330078e+00
6.446574688215968019e-01,-7.880354447105329951e-01,6.406653799810373418e-01,4.728207408923104649e-02,-4.121668034029685526e-03,4.232409861644959026e-02,1.434934616088867188e+00
6.586101861022531923e-01,-7.281692793480076809e-01,4.921653976042492662e-01,7.824483765609884650e-03,2.289183318250947313e-02,2.721302297897988491e-03,1.312180161476135254e+00
6.293205156634857911e-01,-7.253454735804870657e-01,6.723236482650840617e-01,-1.451234052143259012e-02,9.896099770535118564e-03,-7.155362979061954086e-03,1.377063274383544922e+00
7.445384107339245716e-01,-7.780392678806233864e-01,4.684763738888019780e-01,-2.982019385965173353e-02,-2.360942593855521257e-02,-4.296510684708244182e-02,1.408547163009643555e+00
5.811993439322395982e-01,-7.671703816674405596e-01,6.656924138053639251e-01,8.213220445132847491e-03,6.381749007406660283e-03,6.453702949763540780e-03,1.392701506614685059e+00
5.166824250523320838e-01,-7.519536965130464434e-01,6.590264309179872937e-01,5.606124431801756333e-03,1.908457575518704777e-02,1.360863240403569971e-02,1.346114635467529297e+00
6.344142522769848913e-01,-7.588650010700896953e-01,6.593968753487458034e-01,-1.345594901961562166e-02,1.004207881594101903e-02,1.483030722261427688e-02,1.406472325325012207e+00
6.238425688777112788e-01,-7.004405883053357318e-01,6.565493262719475087e-01,-1.028573312722284340e-03,1.206443720014508704e-02,3.285709170030516602e-02,1.342306733131408691e+00
6.267077569728398689e-01,-7.245550001295444353e-01,6.722878553679058067e-01,1.972550610706460747e-02,2.692113477485320872e-02,9.743346282003295666e-03,1.375938057899475098e+00
4.818638178950598872e-01,-7.297799688545775210e-01,6.647629309068544545e-01,-9.168610165450466259e-04,2.005427791740068202e-02,9.136896559638275211e-03,1.313240528106689453e+00
6.379936350960780933e-01,-6.705246115019406483e-01,6.472141631671590734e-01,3.234242894193840867e-02,1.521882618709645071e-02,8.874564735919072966e-02,1.323567390441894531e+00
6.249232628709022741e-01,-7.305242899225956599e-01,6.537535589206234787e-01,-7.451488409983554086e-03,-6.470678974856256156e-03,4.907653866197678356e-03,1.370223164558410645e+00
6.423070238180538238e-01,-7.667110606623750435e-01,6.170183056195512883e-01,-1.488884554835171597e-02,-1.857596670402866454e-02,-1.765304207465965766e-02,1.397488594055175781e+00
6.486986184599005112e-01,-7.726306561846437715e-01,6.494817437973251506e-01,-2.203038762037075522e-04,-1.095642956561385453e-02,-2.496611103916032172e-03,1.421854257583618164e+00
5.201793860051970864e-01,-7.387760499459600227e-01,6.590831099814253857e-01,-1.510910535867308283e-03,1.861290790841870282e-02,-1.597044152329259517e-02,1.334521651268005371e+00
6.286876038028923475e-01,-7.262301588148097897e-01,6.902459398480805808e-01,-1.560885565359187120e-02,1.817440910690706207e-02,-9.400917226864379667e-03,1.387438297271728516e+00
6.560991921852311615e-01,-7.563764203562640676e-01,6.478842362633132623e-01,-4.608081046962294453e-02,-7.785845621688893513e-03,4.642738038069030293e-02,1.413000345230102539e+00
6.435473218648740668e-01,-7.483153612229253016e-01,6.434254832075897435e-01,-1.160433510926921425e-03,-9.411690084840627912e-03,-3.730490427457497718e-03,1.391913652420043945e+00
2.617329984712463142e-01,-8.227138904812869580e-01,8.333455597172256812e-01,1.049143782278703918e-02,-1.840072211976741257e-02,-1.596789096081386921e-03,1.457396030426025391e+00
3.316683298173103145e-01,-7.553961523816644652e-01,8.029664457531391353e-01,1.418438152145804279e-02,-3.936919442468897121e-03,-4.567483133930361704e-04,1.384490251541137695e+00
2.744621508471771776e-01,-8.049898930983048206e-01,8.630702611016582981e-01,1.140884949210103395e-02,4.833844650269732840e-02,2.359398367909166724e-02,1.468373537063598633e+00
3.790388267613553075e-01,-7.498143815794929834e-01,7.894389023071760603e-01,-1.314104969257105966e-02,-7.345129443319274240e-03,-4.889814100715609603e-03,1.380858778953552246e+00
3.684961430121806991e-01,-7.620411218437830314e-01,7.847089385038006348e-01,8.479004025045889029e-03,2.058388841597202576e-02,4.385272783317211397e-03,1.386880040168762207e+00
6.715565295550632863e-01,-6.195963851418530011e-01,6.030462750308436259e-01,-2.691107788752351848e-02,1.755792785439222285e-03,-8.575239189151546981e-04,1.259164929389953613e+00
6.067869148587354822e-01,-7.654220587533436815e-01,6.444342639059770228e-01,2.143117318150459909e-03,5.155370295602788172e-03,-1.697426073161794474e-02,1.391758799552917480e+00
3.945262896790573404e-01,-7.490640275887341382e-01,7.193860919384179597e-01,-1.479163922979230723e-02,1.124089403666066606e-01,1.757007722619533321e-02,1.350677251815795898e+00
3.852074067630985588e-01,-7.460381452081046305e-01,7.595470367404022483e-01,-4.281713086453997098e-03,3.462477888780976509e-02,-3.568888638575367159e-03,1.359046220779418945e+00
3.904824373731347054e-01,-7.527516394869948613e-01,7.779665396952910594e-01,-5.617643451549159464e-03,2.473656565704139207e-02,-3.462638332832821937e-04,1.379146099090576172e+00
6.013523643177993705e-01,-7.615937048959131594e-01,6.496147488416532667e-01,-3.116084847538475033e-03,-2.358531980572338253e-03,1.707363919788009582e-02,1.388038396835327148e+00
3.739319921519528300e-01,-7.572549925717504404e-01,7.639372086873855716e-01,-9.089959526816354315e-03,1.671735485310941755e-03,-3.856147182723361055e-03,1.368633508682250977e+00
2.577220688545480143e-01,-8.157208835431029037e-01,9.372366135721890146e-01,2.234562207281160298e-02,-3.329442697663471257e-02,-3.075555575244171089e-03,1.532413721084594727e+00
5.777016673905100985e-01,-7.319040621416149639e-01,5.626675998673547063e-01,-5.634224961330844966e-03,-5.225237050757475243e-02,-7.799802144195375903e-03,1.305401563644409180e+00
5.596547873305321996e-01,-7.333914498149680661e-01,6.157114310014268899e-01,2.366664303858586130e-02,-5.962466156254275784e-02,7.001971898648923567e-03,1.326682925224304199e+00
5.025547015311092602e-01,-7.425538466921360881e-01,6.796054403504742103e-01,1.176179268079504021e-02,-8.317016312332395356e-02,1.224365489087435744e-03,1.350281834602355957e+00
5.745434060725065351e-01,-6.943518090625444561e-01,6.640096734788809574e-01,-1.025619217679454333e-02,-1.033885429812718589e-02,-1.771601151811717095e-02,1.316510677337646484e+00
6.583044483117863610e-01,-7.668132053222616040e-01,6.461702294182554152e-01,-3.883925004553495913e-03,-1.924523774974643345e-02,4.325731707698871054e-03,1.419516563415527344e+00
4.681773018324406621e-01,-7.313568288860040623e-01,6.842149545439449865e-01,-8.597596767994993006e-03,-1.143216653067718885e-01,9.850945278486416060e-03,1.335821866989135742e+00
5.906836888742386105e-01,-7.466340597502549858e-01,6.247409230685401216e-01,2.701168541586710867e-02,-3.457528136524996160e-02,2.990794134287380265e-02,1.357785940170288086e+00
5.573273248545485004e-01,-8.164967689772051340e-01,5.130237243336265296e-01,2.135768381634056343e-02,-2.216476952677599865e-01,4.721439044764179360e-02,1.408520221710205078e+00
6.559018871839448206e-01,-7.463179379533859681e-01,6.622371967036178031e-01,-6.377929946364768732e-02,-1.808778817292915758e-02,2.149150629962500239e-02,1.410572409629821777e+00
6.204592719652788357e-01,-7.521070292692624282e-01,6.102143427374129292e-01,8.888633610954963654e-03,3.039489530161004413e-02,-5.442874977144368347e-03,1.368604660034179688e+00
6.383319974824821497e-01,-7.626316390669128920e-01,6.519590444161875720e-01,-1.244077241261704221e-02,-3.984822012272955932e-03,4.417099622256461661e-02,1.410085439682006836e+00
6.748960036086806280e-01,-7.577511038070356975e-01,5.140561942763304248e-01,1.740990174702881227e-02,4.767971513817492041e-02,-3.077195354596479540e-02,1.363264679908752441e+00
6.734370775247116025e-01,-7.636908905659175462e-01,6.330258163744487687e-01,4.572787587089515056e-03,4.525857613523569939e-03,-4.673067744788365896e-03,1.417421340942382812e+00
6.633508278607707087e-01,-7.560226710031586750e-01,5.988079125702017169e-01,7.550167053236085668e-03,4.166911871326229450e-02,-1.778138233686335501e-02,1.390505313873291016e+00
1.050782272784447802e+00,-5.833484932548459456e-01,3.088814425862161372e-01,1.796293139588455920e-02,-1.524587342496298570e-01,2.040527643797011847e-01,1.484603881835937500e+00
6.438005320939663711e-01,-6.675032770617707056e-01,6.511224364563661382e-01,-1.889762906480525100e-03,1.100181209283937755e-01,4.079776300396231042e-02,1.330597043037414551e+00
6.572655324268771304e-01,-7.661145230955516139e-01,6.507942098776031692e-01,7.212941280183168824e-03,1.670357389337560373e-03,6.646892092487163492e-03,1.420260071754455566e+00
7.755569922244669456e-01,-7.514289049269196052e-01,3.554161704887147666e-01,-9.679828473378544393e-03,-1.601566317443957332e-02,2.942161286144761093e-03,1.366649866104125977e+00
5.138288293691873898e-01,-7.436134061267772877e-01,6.582894137902141063e-01,-1.651415567365644571e-02,-1.670272405485198272e-02,-2.546411054310589173e-02,1.336892247200012207e+00
4.063227909441335939e-01,-7.337068902887592392e-01,7.220731876062498333e-01,3.507482813827992869e-04,2.441582803793438533e-02,7.758970651713168257e-03,1.327139854431152344e+00
8.259352291695181147e-01,-7.730463218664358482e-01,3.072094656091026721e-01,-6.600043125087858356e-03,-2.584109532923812083e-02,-1.970752685984591274e-02,1.414102077484130859e+00
7.518891716363423905e-01,-7.322102016220780607e-01,3.808666701907176821e-01,-1.975092854870735739e-03,-3.407830335078224776e-02,2.618815012098005355e-03,1.339063405990600586e+00
6.505397711040514785e-01,-5.671423616456762185e-01,5.955314693790410008e-01,-4.408529964505377916e-04,8.052683201300680702e-03,1.781358075555310302e-03,1.191216945648193359e+00
7.537887393926911983e-01,-7.497143245034217918e-01,4.019112591720357397e-01,-4.728511832578791846e-03,-1.118257895251849668e-02,-2.505078408531028963e-02,1.362943530082702637e+00
7.927769148442159741e-01,-7.659136838966742467e-01,3.816718190589382109e-01,-1.800944825526085494e-03,-6.645754516681731498e-03,-1.727438271893631111e-02,1.399562597274780273e+00
6.302665015531765391e-01,-7.700800808464828284e-01,5.923387233508472516e-01,-1.182421622468124260e-02,3.354826657072076251e-02,5.565194948234737995e-03,1.383179664611816406e+00
5.068798733443578008e-01,-7.627443631527942580e-01,6.919102365667419985e-01,7.466583207559146680e-03,1.666238587261223425e-02,8.350482836158367589e-03,1.371973156929016113e+00
9.400636023152166842e-01,-1.101777458345396532e-01,7.730555585298566346e-01,-1.690040323110915052e-02,1.919504820258340072e-02,1.959990878650350390e-02,9.790886044502258301e-01
6.452461232685444692e-01,-7.862882641940225348e-01,5.741115810987137413e-01,-2.161722952570948372e-03,1.785872864665336845e-01,-7.044284981498756234e-04,1.431158661842346191e+00
5.584224498472400988e-01,-7.468721616478173342e-01,6.631394817472859859e-01,-1.490649844151724357e-02,4.585143224200616957e-02,2.577437259590058607e-02,1.363969564437866211e+00
6.353555592781665595e-01,-7.471352173966964161e-01,6.797085403729948849e-01,-4.241508788087268791e-03,-1.391030689546090280e-03,1.906511032534923336e-02,1.405601501464843750e+00
6.082642718476538590e-01,-7.675233185096107524e-01,6.613642418367413622e-01,-1.922745458479010322e-02,-6.873466299085523225e-04,-1.341996479734329159e-02,1.403679490089416504e+00
4.851438270310744483e-01,-7.490465811343280933e-01,6.820050134788876450e-01,-4.314149217657012834e-03,8.984738500544067752e-02,1.451144946846617649e-02,1.352719426155090332e+00
4.118985920948816659e-01,-7.769085744549991679e-01,8.008141052869708343e-01,1.210261008057366902e-02,4.329736132269276089e-02,-5.687419541491934606e-03,1.425841450691223145e+00
4.219208121267749578e-01,-7.354711398193453098e-01,7.190364403791883463e-01,-6.753378934483238172e-04,2.412689221084137609e-02,-6.859052169107061718e-03,1.331766486167907715e+00
5.963109044072476550e-01,-7.629980693495954647e-01,6.116425953534930793e-01,-2.398349683997505130e-02,1.292742626973828191e-01,2.091411679448353100e-02,1.386351227760314941e+00
3.677986149654445258e-01,-7.388549940939717064e-01,7.719593318164698070e-01,-6.040459034088801853e-03,9.921438915039519288e-03,3.053431664759699115e-04,1.354879736900329590e+00
6.690255981736390467e-01,-4.613950989264161695e-01,5.815927011355137566e-01,-2.694021286172036678e-02,2.761305073607753582e-02,7.043713668237144843e-02,1.098184108734130859e+00
5.090329606225939552e-01,-7.456885127656347478e-01,6.238181207532662587e-01,-9.764980489960866511e-03,1.026777916806765889e-01,8.038669763559975687e-03,1.328018546104431152e+00
4.628156797057947358e-01,-8.381870852781722059e-01,7.113580075599781338e-01,-4.688169570792879298e-02,1.194196651423833078e-01,3.805589302724492889e-02,1.459951162338256836e+00
6.375899766848635020e-01,-7.381867745594531405e-01,5.951323445690280822e-01,8.412297201413258471e-03,-9.129607783295673462e-02,8.800304123590408853e-03,1.364405274391174316e+00
1.495118282870293580e-01,-8.683409365558593107e-01,9.079115283876731946e-01,1.309102958529512022e-02,-9.697793283778069484e-02,-1.429625592850385096e-02,1.553214430809020996e+00
6.445735149356695004e-01,-7.670011384277607425e-01,6.565744306253452622e-01,3.707651857762721270e-03,-1.044929933196741233e-02,-2.529791156548904033e-03,1.417750000953674316e+00
6.663745475029725363e-01,-7.407213946849644515e-01,6.380956232480319290e-01,8.286255419968885372e-03,-1.866432115964138799e-02,-5.620755211976719012e-03,1.393654704093933105e+00
6.606690495721538881e-01,-7.600109096303312439e-01,6.341463199664076900e-01,-8.459631577723831022e-03,-2.534348364481909133e-03,-8.322458266693750009e-03,1.407762885093688965e+00
5.995521448035210366e-01,-7.375498333056629274e-01,6.021265868908574070e-01,-7.028220989122906104e-02,-2.465796016929649170e-01,1.064836187273630842e-03,1.410148024559020996e+00
5.157954761450496139e-01,-7.672800888593545032e-01,6.024258833336613161e-01,-1.496519247497284273e-02,-1.982641223971295941e-01,-2.227756319914852776e-02,1.372963190078735352e+00
6.549632724031734243e-01,-7.654423389818327816e-01,6.384775255734931321e-01,-7.247503060378215206e-03,-2.927257187663840580e-03,-9.623159873002268619e-03,1.412398099899291992e+00
5.899135384747697941e-01,-7.572567258747217034e-01,6.010875499623666851e-01,-1.000501043738783076e-02,-4.688643771876119248e-02,-1.310494808195425583e-02,1.355528116226196289e+00
5.740975032626143282e-01,-7.507009475875887627e-01,6.359958585245542029e-01,-9.391330624744457373e-03,-4.168270533114510484e-02,-2.437103217457187859e-02,1.359479308128356934e+00
6.441811046473728819e-01,-7.641037119234775910e-01,6.575076481510422344e-01,2.035032080936860499e-03,-1.485070267206402804e-02,4.483997808519897717e-04,1.415233492851257324e+00
6.472951976252030448e-01,-7.249284290216995164e-01,6.435071604739026618e-01,2.598365809598538606e-02,8.712037512604563563e-03,4.111197809674485906e-03,1.371173858642578125e+00
6.416034558555872014e-01,-7.650185922893256718e-01,6.434830800239689230e-01,1.408403816702174204e-02,-6.533616441677676974e-03,-1.786966048868532386e-02,1.408159852027893066e+00
6.179869347124573586e-01,-7.660458633938038719e-01,6.266417867802884789e-01,-1.056235840521296647e-02,-8.972010419920200056e-03,-6.024662017960162944e-03,1.388627171516418457e+00
6.202463279097198967e-01,-7.614423220416247640e-01,5.557506523427753198e-01,-2.903460645318232253e-02,-1.065479464788376546e-01,-3.991283870335259054e-02,1.365824222564697266e+00
6.005966326708058745e-01,-7.586533806063231467e-01,6.354093937952119964e-01,6.252946297959889946e-03,-2.142632365089014099e-02,-1.252678481231071263e-02,1.377699971199035645e+00
6.108917944997989125e-01,-7.945245605642446973e-01,6.263731012809053977e-01,-3.166003968359978882e-02,-8.818068005625327721e-02,-9.255817789935619905e-03,1.422597646713256836e+00
6.453526742372666103e-01,-7.652832904995487961e-01,6.391338335604959120e-01,-1.846229197724974047e-04,6.351656431374498417e-03,-3.672320227233657423e-03,1.407594203948974609e+00
6.166429668470172487e-01,-7.665710965870354832e-01,6.369841866408361142e-01,-8.370351050554961092e-03,-9.752687082107209388e-03,-1.099740612861333129e-02,1.393803954124450684e+00
6.332214389087141848e-01,-7.607379464450724216e-01,5.941018921481820980e-01,-1.822704353911484484e-02,-3.194379261161587463e-02,-2.009816374773417888e-02,1.376732230186462402e+00
8.641382055519430949e-01,-9.055377190452089664e-01,3.432680291543253048e-01,6.110160905090289418e-02,-2.145805602393578149e-01,3.513211228316181350e-02,1.623060226440429688e+00
8.335952304403565494e-01,-8.216272739757234378e-01,3.011415910540696239e-01,-1.673362345059606696e-02,-1.897547196691648785e-01,-5.653577192594532591e-02,1.503458857536315918e+00
6.907763669304255449e-01,-8.871229982167040395e-01,2.755451908703189234e-01,4.084913476625601225e-02,-4.363053778083433865e-01,6.182110830692546383e-02,1.610760331153869629e+00
1.040629679291885656e+00,-1.002044511248620484e+00,6.050317138588882232e-02,-3.832501208638107318e-04,-1.307307575173070613e-01,1.439321178369282472e-01,1.801251769065856934e+00
7.693334563581462060e-01,-8.309427713829545814e-01,3.081594649271739428e-01,1.477453209294347057e-02,-1.796475514076350533e-01,5.363162399736158548e-02,1.463442325592041016e+00
8.879343312110840047e-01,-9.057624740112333317e-01,2.954128277174820072e-01,4.501882310479112664e-02,-1.166429636544949466e-01,4.660781309276329498e-02,1.599699854850769043e+00
6.529599230672521459e-01,-6.070666742836027252e-01,6.215767799125291315e-01,5.787446807525988002e-02,-9.534784296365231976e-03,-1.118493901809775037e-02,1.248921394348144531e+00
6.434776212478383606e-01,-5.803216175247561948e-01,6.285552340436684204e-01,1.428388256963041003e-01,-1.288554359913135668e-02,-6.068367342060522474e-02,1.245953321456909180e+00
6.079562988282909419e-01,-3.964960156711476724e-01,6.030419304674546899e-01,1.249422006484111614e-01,2.065657668218832607e-02,-2.457807303849274608e-02,1.026614069938659668e+00
2.645353092474715395e-01,-7.568184345856526773e-01,8.483063792497643751e-01,2.038760477223585527e-02,8.238159923913727922e-02,-6.885565107397758830e-03,1.414898633956909180e+00
1.108902238061882650e-01,-1.025975038902084746e+00,1.144666641760402337e+00,8.368808092081597705e-02,2.014527986848412833e-01,9.720906398846117236e-02,1.925494790077209473e+00
5.858729567967960739e-01,-7.638498578418891904e-01,6.675022161797189435e-01,1.295733686026350612e-02,4.437918061644128068e-04,-1.210939066514751458e-02,1.392672300338745117e+00
2.228200855475816478e-01,-1.516009299638505947e+00,1.042285658954788197e+00,-8.122815883349246424e-02,3.073379192613552857e-01,-1.065586624457835196e-01,2.336062908172607422e+00
1.322040688931288011e-01,-9.322590137510308184e-01,8.550510377104646453e-01,1.586257631294695492e-01,2.952329937046751507e-01,3.200704130504326925e-03,1.661938071250915527e+00
3.824767192046729658e-01,-9.025514380665063952e-01,7.089298668178929397e-01,1.097758543028002493e-02,4.245855434826641961e-01,-3.278262368049476849e-03,1.648812532424926758e+00
5.856177285700274737e-01,-7.622824420660040401e-01,6.657638886280288215e-01,1.621975925201291774e-02,5.648216240087086670e-03,-9.310640037407021943e-04,1.390026926994323730e+00
6.626693706006974161e-01,-7.624662801536070678e-01,6.342855858359304211e-01,1.042182634621335868e-02,2.607876173689382612e-03,-8.683378539512009997e-03,1.411360621452331543e+00
4.382664653617081019e-01,-8.631993810859208693e-01,6.951689016447828440e-01,5.077982145629188898e-02,3.171949802547001651e-01,-3.785793141697663122e-02,1.551784515380859375e+00
5.971523509536367236e-01,-7.231421770935494431e-01,6.889577777233995004e-01,6.032095905668845987e-02,1.500719460366287811e-02,3.147747684061591444e-02,1.373819470405578613e+00
3.694523195055164910e-01,-9.268625402568764216e-01,8.476671111626200572e-01,1.046584114373878549e-01,4.270259370291583645e-01,-2.528027088888164936e-02,1.763765692710876465e+00
3.880254282654871933e-01,-8.995584050603702142e-01,7.095525780304798857e-01,1.007902903478508083e-01,3.798449115068666671e-01,-1.910445550291634507e-03,1.624370217323303223e+00
6.523174414150700873e-01,-7.620849376094814831e-01,6.468053265237030391e-01,4.451991837670969676e-03,4.850873380735744485e-03,-4.405592730435878290e-03,1.411721110343933105e+00
4.943027568754285173e-01,-7.595840173952802532e-01,7.127625799865358047e-01,1.155952806123369987e-02,7.863712748695137270e-03,-3.354233843252499379e-03,1.376408696174621582e+00
8.846177468700746616e-01,-3.275685286999556745e-01,4.486801291325370200e-01,6.673171241451607283e-02,7.770197589434629792e-02,-6.941422190860517538e-02,1.084862589836120605e+00
6.817701202826056406e-01,-2.195764427872322067e-01,5.186317753030851296e-01,6.100620335324918875e-02,1.307859542016435450e-01,1.297708198303793720e-02,8.688963651657104492e-01
6.462313698673983753e-01,-6.996635013713284890e-01,6.489330098975902850e-01,-5.610871387558075823e-03,-3.564064462381368037e-02,6.974079588235078918e-03,1.348750352859497070e+00
7.140057591421329342e-01,-1.218871477768964651e-01,9.487639583865361548e-01,-2.321435526339842362e-02,-1.030178744480486890e-03,4.412524500686085954e-02,9.785305857658386230e-01
6.187946573585605403e-01,-4.368053517842880318e-01,5.948926430964844858e-01,1.414428709582547794e-01,-1.233335239708589250e-02,-1.453424385959251053e-02,1.072725534439086914e+00
5.770246359001502956e-01,-7.613721978944666402e-01,6.625588377459702416e-01,1.147900546137592404e-02,-3.041981062122791138e-02,4.904879176340672109e-03,1.384320974349975586e+00
6.747692795994915116e-01,-3.921483251676738391e-01,6.217119004141931082e-01,1.809314005051328722e-01,-4.576887703874037844e-02,-5.933799292669660053e-02,1.095251679420471191e+00
7.110567953173683176e-01,-4.395669147695165924e-01,5.966977995206748098e-01,-1.592119038035181905e-03,5.179802420484089925e-02,-1.296791248642653882e-01,1.124248862266540527e+00
6.075723465481910335e-01,-3.701001358304905065e-01,6.149591546536619102e-01,4.496357394105335303e-02,9.124666608009247360e-04,-1.157535000835555189e-01,1.004681110382080078e+00
9.699573771621183838e-01,-1.483747767707138676e-01,5.607391354792425897e-01,-8.627630829528110112e-03,-8.276024186455253895e-03,-3.692605784500387067e-02,9.823461174964904785e-01
4.075428049338459813e-01,-7.653085103096467501e-01,6.330795618393778579e-01,-5.449526365895205303e-03,2.076293085973668351e-01,7.175255076309262903e-03,1.349274396896362305e+00
6.112215546252188769e-01,-7.458406339292297238e-01,5.092648056794981670e-01,4.706085179726792952e-03,1.190194719987058836e-01,6.779758380749391529e-03,1.325274467468261719e+00
3.394281704479626405e-01,-7.447438415987975846e-01,7.730331550869380397e-01,2.466451676155254329e-03,1.737497171900367551e-02,-1.029566208466956576e-03,1.354426741600036621e+00
5.141889588603518746e-01,-7.443017933373639039e-01,6.046449196724577035e-01,-7.482814612594382297e-03,1.214307601913504620e-01,-5.381405063024068298e-03,1.322992920875549316e+00
6.123100138254897740e-01,-7.468143757204184219e-01,5.960501358134179251e-01,-1.000433525909207207e-02,2.640859390235750226e-02,9.549998402415877177e-03,1.352054119110107422e+00
1.060038145802802284e-01,-6.764242211690366657e-01,1.084443972121250432e+00,-7.990624862520762095e-02,-4.316479031480779244e-02,-8.984961515184805569e-02,1.544040560722351074e+00
6.780832229247165666e-01,-7.609434468444663535e-01,4.745996750369975703e-01,2.345888637561817716e-02,-4.566334498664037511e-02,3.230908437182907628e-02,1.352931261062622070e+00
6.329278350164141420e-01,-7.878245016835728753e-01,6.335112882236570986e-01,-2.022573119088463822e-02,2.134186943610297607e-02,2.325530822914392837e-02,1.422526836395263672e+00
3.766037773868861072e-01,-7.374072231757305973e-01,7.742807364433048622e-01,-1.965858735283221043e-03,-1.076819513876610228e-02,6.374269455493293372e-03,1.357448101043701172e+00
5.241925298090559515e-01,-7.730269878778176507e-01,5.840451023066230984e-01,2.705487338251343077e-02,2.667630931212815470e-01,-1.981275616202207105e-03,1.407017469406127930e+00
5.593540378580950101e-01,-7.336668026371011564e-01,5.706629694818514675e-01,5.630254290409013145e-03,6.437115411888173766e-02,-5.292731383642592692e-03,1.303557991981506348e+00
4.952978093631245082e-01,-7.593950099921586983e-01,6.933983302683028871e-01,-4.872635580338856125e-03,-1.849877631109550155e-02,3.028493741840049616e-03,1.364982962608337402e+00
5.429074648626653898e-01,-7.275020055542086306e-01,5.603428790235600587e-01,-9.885433187873542138e-03,8.419921225985795010e-02,8.291870135686990953e-03,1.287696480751037598e+00
5.379970217541648614e-01,-7.720352168358420863e-01,6.419168503121152058e-01,-3.644370890105685934e-02,1.162517980078961177e-01,4.330185386750343146e-02,1.383211851119995117e+00
6.603542332151751681e-01,-7.519142672304134356e-01,4.834689362170302429e-01,-1.672286785752906402e-02,1.152382796955893351e-01,2.576007723786467862e-02,1.348573446273803711e+00
5.697291576844438765e-01,-7.645820885960925573e-01,6.731702311681397877e-01,-1.419633477513585797e-02,2.477628835698398035e-06,-1.861878922972127299e-03,1.389145135879516602e+00
6.830290095977447073e-01,-7.450803591996330022e-01,6.253084764191993994e-01,-1.466003390873767132e-02,-8.092098985371675574e-03,-2.892937038274613452e-03,1.400451064109802246e+00
6.607964891117805717e-01,-7.667594262944578132e-01,6.790264069718700002e-01,-1.635385882830809323e-01,3.953495247566562454e-01,1.129015695686337167e-01,1.628389120101928711e+00
6.729156968164597963e-01,-7.560030786632840893e-01,6.304221241564587075e-01,-2.152218101160070351e-03,3.142341362175555923e-03,2.737211044648564170e-03,1.408176422119140625e+00
6.179872636998416935e-01,-6.951737506576691761e-01,5.981258232296944310e-01,1.765003370959117648e-02,4.063445735266624920e-02,-1.307846440900611515e-02,1.305797219276428223e+00
6.952231700661122282e-01,-7.560773891324766849e-01,5.836571918159583205e-01,1.103661382859432057e-02,-4.026106241626585709e-03,1.053763785174113669e-02,1.399125337600708008e+00
6.092668390720210603e-01,-7.610227228027766078e-01,5.418974069583932796e-01,-1.388135265837935235e-02,1.694282602071779942e-01,1.091768928736937955e-02,1.370025515556335449e+00
6.870792846080067129e-01,-7.497002986469175623e-01,6.261095893781420951e-01,3.550916351000366674e-03,1.137696047146565144e-02,3.190001333311000796e-03,1.407447934150695801e+00
6.819233986947792481e-01,-7.526959511208017872e-01,6.238083348444849463e-01,-5.923635087408770337e-03,-3.917891778055619667e-04,-8.412482245802232941e-04,1.406500935554504395e+00
6.439877386512840030e-01,-7.590372614541527341e-01,6.471146482897843777e-01,1.451898163743691600e-02,-8.642601889102787677e-03,2.477347325983654536e-02,1.405551075935363770e+00
6.317910324566440305e-01,-7.470749416529307574e-01,6.734834916799912197e-01,5.658758145724598031e-04,-3.624945923677320471e-03,1.556001887804578767e-03,1.400194883346557617e+00
5.505372704283768570e-01,-7.236364368097638611e-01,5.861805614254892438e-01,-1.011585236370008030e-02,1.497203170142311079e-01,-2.029716464797071823e-02,1.318710088729858398e+00
6.285336024266006127e-01,-7.436777068278793701e-01,5.702763487592679148e-01,1.716916848708358381e-02,1.079005164135117892e-02,-3.179647464647513463e-04,1.344488859176635742e+00
5.216453534660272506e-01,-7.695301295208505366e-01,6.889020756205314067e-01,-2.838822006471771950e-02,-1.162498081016445466e-02,-8.972099907433502344e-03,1.383521318435668945e+00
6.612281600093483647e-01,-7.440608976828612109e-01,5.793699275489991862e-01,8.984142395258474037e-03,1.358606891109123693e-02,2.355452055715449508e-02,1.367100596427917480e+00
5.753884637120899592e-01,-7.782089324457389656e-01,6.421010560765655351e-01,3.519337888097245209e-02,3.675451048433010792e-02,-2.215501333586526039e-02,1.391481041908264160e+00
6.470118231491682748e-01,-7.619620517854674979e-01,6.403979415755571836e-01,-6.582704454588468417e-03,1.429867863104019926e-03,4.909450385618586640e-03,1.405752778053283691e+00
5.411705681443580440e-01,-7.709322701642339348e-01,6.850807322158046775e-01,4.360439985171254279e-02,-5.971325602745609223e-02,2.372828950732648254e-02,1.396151542663574219e+00
6.569222274715910137e-01,-7.420005540244473119e-01,6.412832895132501987e-01,7.856069676535839749e-03,-1.741252248704429351e-02,-1.384783517279117217e-03,1.391564726829528809e+00
6.813368456521652350e-01,-6.479383325379746150e-01,6.496140074088838645e-01,-5.119409311581360478e-02,6.948768884625420791e-03,8.541073650709142540e-02,1.325029373168945312e+00
6.325051653403417351e-01,-7.714918448986117783e-01,6.380452686673880880e-01,5.102028721478239770e-03,1.992459374165567263e-03,7.070760363070488974e-04,1.406807780265808105e+00
5.957039758277355990e-01,-7.226310384495741035e-01,7.078083148541409741e-01,-4.687824754713286468e-02,1.808614320754864738e-02,3.202692209807991158e-02,1.381671786308288574e+00
6.202759721687529648e-01,-7.757433900261545556e-01,6.340655383089146557e-01,2.131290884326306548e-02,1.950874430741334278e-02,-2.159335455523371874e-02,1.404355406761169434e+00
6.818869456510106009e-01,-7.513271953475206821e-01,6.298782946235184088e-01,6.305864245151017108e-03,1.241966674770459940e-03,9.862180204539101273e-04,1.407975435256958008e+00
6.655462237074598608e-01,-7.157573712922395970e-01,6.211966980715739606e-01,-3.496546920360246898e-03,-2.436738161573685085e-02,1.066795732126089857e-02,1.360465288162231445e+00
6.345491270490984936e-01,-8.004549225721641070e-01,6.850564714246746290e-01,6.559814778128203114e-03,2.624471243307265403e-02,-9.547913438033947542e-03,1.461757421493530273e+00
5.792777671407119966e-01,-7.454929713666684776e-01,6.315179830108671455e-01,7.061001570384619654e-03,4.237592547368294188e-02,-9.782395036094725452e-03,1.353800773620605469e+00
6.781394701348519849e-01,-6.020919203241421602e-01,7.154159172401878264e-01,6.586345245357821954e-02,-6.873449692670868805e-03,8.950075584680564078e-02,1.313503384590148926e+00
7.139267287295811837e-01,-7.210649736013955424e-01,6.552729675014704602e-01,5.256499489401496306e-02,-1.190619128759403678e-01,1.076741605480346503e-01,1.436687707901000977e+00
6.927449979034515648e-01,-7.647997970982861604e-01,5.588701221940973740e-01,-2.735601051576254383e-02,-5.466503813589579375e-02,-1.842540481971919469e-02,1.399806737899780273e+00
6.563881738930790188e-01,-7.641729823382024112e-01,6.171486275432234159e-01,-5.112787827588502650e-03,-1.112702989853000700e-03,-4.781614836866834297e-04,1.401383042335510254e+00
6.508842035457826913e-01,-7.556757955071283783e-01,6.209603831100538596e-01,-7.574637815432583819e-03,-1.623178128246598992e-05,3.503287590826626233e-03,1.391914367675781250e+00
5.861779380449372301e-01,-7.406692027789006927e-01,6.503964429759381272e-01,-2.339671196987606894e-02,-1.960012209055520677e-02,-2.701672747286665635e-02,1.361925125122070312e+00
6.989336769258158721e-01,-7.678012089614711932e-01,5.267530641185507179e-01,-3.252189396306801039e-02,-4.749289018507178717e-02,-6.160046764948919756e-02,1.396330118179321289e+00
7.249477174818335090e-01,-7.636984871970243782e-01,4.428404069499343176e-01,-2.565544031282541992e-03,1.721282059094036282e-02,1.062872514977963000e-02,1.370015144348144531e+00
6.046417719358818665e-01,-7.613708864185018133e-01,6.461768157580916050e-01,1.009939686689577008e-03,-3.572370588374107307e-03,-1.709397593458867812e-02,1.387577414512634277e+00
6.533208561853836027e-01,-7.775076962688526327e-01,6.463067409287593934e-01,6.077293120403046145e-04,3.019509450672449094e-03,-2.386144475478918590e-03,1.427350401878356934e+00
6.264678172888392682e-01,-7.236823496197918315e-01,6.829643235969926618e-01,-1.129935290965311881e-02,-4.363498452616234799e-03,2.762786117823821941e-02,1.380255818367004395e+00
6.251949657784279246e-01,-7.586805812307104713e-01,6.070639880368484675e-01,-2.239548613339286537e-03,-5.650133282004189857e-03,-1.069957958265826611e-02,1.375064969062805176e+00
5.097310818669827936e-01,-7.688344169645822124e-01,7.287992754379069016e-01,-2.713675132111485061e-02,8.880310162052310139e-04,-1.214061137118008747e-02,1.401951313018798828e+00
6.247582180528417073e-01,-5.685725334731616121e-01,7.089102052022177025e-01,4.869331062082794814e-02,2.525730116636619102e-02,1.041138040012171556e-01,1.254227638244628906e+00
6.473086351850264597e-01,-5.648805285730996717e-01,6.231172249068948066e-01,4.488841856918560080e-02,1.521257215706341322e-02,1.196299464776977572e-01,1.220793366432189941e+00
5.819157009873330288e-01,-7.216384043556272054e-01,6.340041802444154051e-01,-1.870015542042792120e-02,8.833809009002163704e-02,1.006232571304118903e-02,1.339638113975524902e+00
5.608505897769572313e-01,-7.556939723111594231e-02,5.531797127370539080e-01,1.796262945187199547e-02,3.526030833012795771e-03,-2.075064956612806058e-02,6.344323158264160156e-01
6.909018677902100114e-01,-8.617748984173051463e-01,4.621179275996316060e-01,-3.734126756576737483e-02,2.557220827637160521e-01,4.487149334314269322e-02,1.521290421485900879e+00
7.178935232943950417e-01,-8.281996818186516673e-01,5.205877581387727826e-01,-2.196642279220629643e-02,1.036402481219494826e-01,2.717288205104835021e-03,1.469004511833190918e+00
7.025368327826746473e-01,-7.825182567586371762e-01,5.424215527999178832e-01,-3.760999146292971773e-02,4.418296370492699743e-02,4.313573281247084362e-02,1.417366385459899902e+00
5.337611014744289006e-01,-7.352569295751653078e-01,6.430319430017834570e-01,4.377943365446963840e-04,1.117715887185978668e-01,2.767661122910877367e-04,1.341078996658325195e+00
6.323736931305923292e-01,-6.465817854555727662e-01,6.444499575386573031e-01,-2.472617869762526455e-02,3.300143518257872555e-02,-4.055581716870825665e-02,1.288935065269470215e+00
6.056767238569472633e-01,-4.931504753303090904e-01,6.269196185811305444e-01,-4.110039738973442214e-02,3.486619285778042726e-02,-3.490692849405387793e-02,1.115161418914794922e+00
5.932102288370508791e-01,-4.961046661222371368e-01,6.136313482285733478e-01,-4.119760622994184801e-02,1.752536466792139341e-02,-3.459295753408204999e-02,1.104025483131408691e+00
5.832641361140421532e-01,-3.052031937332929656e-01,5.942442485726198154e-01,-4.049447271776774465e-02,2.859871204123846239e-02,-4.247871345953791074e-03,8.981522321701049805e-01
6.445736247723345969e-01,-5.146049729423248786e-01,5.893118425104518776e-01,-5.887571487102066792e-02,2.701771697013329032e-02,-4.735208220163932696e-02,1.141054868698120117e+00
6.451832726159340003e-01,-5.253416737576342976e-01,6.007255325183908923e-01,-4.830760238911088744e-02,3.310613474398276662e-02,-3.523060812528602814e-02,1.155023217201232910e+00
6.653840439436893295e-01,-7.648496281689395326e-01,5.930626453969003453e-01,-1.868655216343798661e-03,-7.315380761492406691e-04,-1.152495938021291626e-02,1.395626306533813477e+00
6.148358187001322639e-01,-4.431993697399203569e-01,5.665107722781426158e-01,-2.653171729888507448e-03,1.244669067714180948e-02,1.546752495231465082e-04,1.034954190254211426e+00
3.775016735798619738e-01,-7.690761536622298111e-01,7.645945182113117466e-01,3.157828369908011190e-02,1.427978873820297473e-03,-7.166657401487854136e-03,1.382557511329650879e+00
5.153870646292160185e-01,-7.492939775574567474e-01,6.875434021995127098e-01,4.529056069770444684e-03,9.366286145404007987e-03,1.772041326622717655e-02,1.359428405761718750e+00
6.804005984450169908e-01,-7.614228141379584258e-01,5.897993478998391215e-01,1.967541174814604193e-02,-1.319981674259711017e-03,-1.849029682285575557e-02,1.399508714675903320e+00
4.056481410595008663e-01,-7.333539992327369195e-01,7.279904476095016008e-01,-3.831411253350738453e-04,-2.495949585706130208e-02,7.719262825276627590e-03,1.330574035644531250e+00
6.658260832314326638e-01,-7.174793338799113629e-01,6.037417796835373718e-01,1.821343137109067423e-02,1.739618459908686895e-02,1.389784403790008359e-02,1.354248642921447754e+00
6.226910888661774113e-01,-7.012519805626060698e-01,6.607100289994334297e-01,1.034420218135782485e-02,-5.428164859575393582e-03,-7.726795979794107670e-03,1.343575119972229004e+00
5.526158187809870892e-01,-7.422759892266526105e-01,6.534261681473823025e-01,5.082923803416611926e-04,1.008374617542368706e-02,1.475782344502960322e-02,1.348482608795166016e+00
7.957259243358144607e-01,-1.398821605709892557e+00,5.725339420810221513e-01,-1.586725045410509738e-01,5.351391536473786292e-01,1.798768473561281056e-01,2.325460672378540039e+00
6.043229238442759943e-01,-7.083404747357451292e-01,6.817246882533263275e-01,4.599669138221862581e-03,2.684150777991769262e-03,-2.851167349526315467e-02,1.353958129882812500e+00
7.058789488770039755e-01,-7.176457018232674789e-01,5.705565259872806827e-01,-7.830211238770695822e-04,-2.099065555152952040e-02,-1.626892281802422985e-02,1.361696600914001465e+00
4.417993008439302649e-01,-7.547541029403128654e-01,7.293510614616985910e-01,5.527512961699895117e-03,-2.641289221632171780e-02,-7.265582682930523360e-03,1.364126086235046387e+00
6.367932077780710243e-01,-7.110254904221389172e-01,6.619465676974546353e-01,-8.444662771334829690e-03,-9.031190670815935490e-03,-4.758143902706674783e-02,1.363231658935546875e+00
6.361274071910467676e-01,-5.417018775091935190e-01,5.865713865588975118e-01,2.106744935695426674e-02,-3.571349419425750432e-02,-9.001232180774339231e-02,1.166547775268554688e+00
5.701608354947018675e-01,-3.407759171134719933e-01,6.022406083712530389e-01,4.033884877015525040e-03,2.177944153186976706e-02,1.184820260688682368e-04,9.281860589981079102e-01
6.800256221063097906e-01,-7.885644606167793169e-01,6.110915166323673819e-01,1.256465943780509138e-02,-2.408025067318004305e-03,-8.990625793903476298e-03,1.435620546340942383e+00
6.790039016601100430e-01,-7.180148343319314730e-01,6.246479141622695019e-01,4.960561814718829343e-03,-1.402729549387596135e-02,-3.016679834037305774e-03,1.370901584625244141e+00
3.914104402591458420e-01,-7.513746280022635116e-01,7.430415634291898108e-01,-2.440763385621666417e-03,-7.292010360376986744e-02,-1.022482280780231782e-02,1.359310269355773926e+00
5.962916632397272654e-01,-3.316572655608359677e-01,6.330203955915485459e-01,-3.955656370179320286e-02,3.678731642670651780e-02,-4.055283062281586637e-02,9.540483951568603516e-01
6.653790577347773461e-01,-7.245204582821314077e-01,6.284465791077471497e-01,5.684087695868783596e-03,1.902989422940944142e-02,5.509271492227895209e-03,1.372270584106445312e+00
6.077008263024932244e-01,-5.402025061687860674e-01,6.226344802216186025e-01,-2.775027034216501209e-02,3.420460994537869327e-03,-1.720520583066721676e-02,1.156840920448303223e+00
6.282056746507445055e-01,-7.512660554078456343e-01,6.113571500181983476e-01,8.030705426102209901e-03,-2.407231154031623521e-02,1.358432326917198563e-02,1.372031211853027344e+00
6.354567694040396120e-01,-5.970877553717747199e-01,6.172086008605766061e-01,-1.608634922724942046e-02,-8.508697058195234184e-03,-8.105015674511431567e-02,1.231953024864196777e+00
4.885064139327726096e-01,-1.404818153028291716e+00,6.737973161259647181e-01,1.064266206598465797e-01,-4.399287598649436193e-01,-2.438751433194006613e-01,2.182394027709960938e+00
6.527489816274463230e-01,-5.575646462533792036e-01,6.670191366453093185e-01,-1.008654614660868809e-01,-1.614383720877496722e-02,-1.246439133863190413e-01,1.249097943305969238e+00
6.417301500168157702e-01,-6.804251321498230309e-01,6.327289283004072784e-01,-2.671543823081792834e-02,1.747670995769879526e-02,-6.779675500535421902e-03,1.318889617919921875e+00
6.125402329454032735e-01,-5.917787180698086402e-01,6.563562069839365964e-01,-2.074518506932374051e-02,3.075479621362058047e-02,-4.030302403844849418e-02,1.230477213859558105e+00
6.332113599990212283e-01,-7.227717667508156696e-01,6.713344309647725217e-01,-3.603890314259803728e-03,2.760652247127584266e-02,-1.312778983525082072e-02,1.376473784446716309e+00
6.424785870350993022e-01,-7.163708008711552333e-01,6.485943817242043608e-01,-1.126493997308486254e-02,9.137859798742813122e-03,-1.724341031695504275e-02,1.362476706504821777e+00
5.818686231885304982e-01,-7.412440650772341710e-01,6.091647383842997421e-01,1.906957507363777130e-02,-1.079327640509660097e-01,2.998855735826280039e-02,1.351379036903381348e+00
1.880701345932726809e-01,-1.215223908632578675e+00,1.163641506351157817e+00,-1.167188858211775648e-01,1.916811542175009264e-01,2.826360024020503972e-02,2.107955932617187500e+00
6.633371636327636267e-01,-7.231173998331494879e-01,6.389465603551485184e-01,5.487950077779545945e-03,2.411810803843386641e-02,5.273869375846363186e-03,1.375119447708129883e+00
6.045415222446719472e-01,-7.358199354532325431e-01,5.934248086655491417e-01,7.926785194238623877e-03,-4.006801781684114772e-02,1.422736425724622708e-02,1.336938381195068359e+00
5.148893621099943640e-01,-7.494090796495515017e-01,6.153009918934897460e-01,1.610386002537344055e-02,-9.507984752776767190e-02,1.584249691122020798e-02,1.328207373619079590e+00
6.028612975108277316e-01,-7.311998689344582081e-01,5.288629197352898714e-01,5.971255129523860353e-03,-8.220138778519245348e-02,2.566267383643219477e-02,1.307222485542297363e+00
6.867868173386517672e-01,-7.489289267445112808e-01,6.227159194884511750e-01,1.032328550031723358e-02,1.417175048864094964e-03,9.107641719672580297e-04,1.404893398284912109e+00
4.690498388682837194e-01,-7.798829536809743779e-01,7.069747163997389672e-01,2.401181259956535960e-02,-1.213659910477368348e-01,5.282762506930345665e-03,1.399855732917785645e+00
6.129121407869810856e-01,-7.692329784041092022e-01,5.803487139040014453e-01,1.892645631841173917e-02,-6.171806325743504212e-02,2.911123180098315957e-02,1.371649503707885742e+00
6.259934638612191238e-01,-7.636931013985757133e-01,5.947374085200431981e-01,2.484909794032344119e-02,-3.583601083919484703e-02,2.267589145204143217e-02,1.376959443092346191e+00
6.942454016413667217e-01,-9.952535852399879701e-02,9.493457779409986141e-01,-8.971886930474848310e-03,5.496428577717664410e-02,-5.848028008314672815e-02,9.577076435089111328e-01
6.063143622404771893e-01,-7.619692076361107569e-01,6.331378181160478569e-01,4.113239843826771783e-03,-2.435414931484803855e-02,1.105655925971570086e-02,1.382685184478759766e+00
6.137015107548462467e-01,-7.585845409149344354e-01,6.202463616634339427e-01,3.887180363334439312e-04,-2.023505302641128236e-04,9.429871688343468422e-03,1.375667333602905273e+00
6.190061060254423708e-01,-7.663685665767029365e-01,6.496169906709403641e-01,1.714903532813618139e-02,-9.027678602210532227e-03,2.706306013489568479e-02,1.402116775512695312e+00
6.594966389718305289e-01,-7.640747360113832043e-01,6.355767693625568038e-01,-8.395743710854698671e-03,1.973744593819472693e-03,6.993828864178429014e-03,1.411894440650939941e+00
6.400886305939947896e-01,-7.577953582744335614e-01,6.112143942721308676e-01,1.509808084518547873e-02,-1.306750934703373480e-02,2.063816715421144116e-02,1.384566545486450195e+00
6.838007954826870183e-01,-7.012536343900050984e-01,5.972109187022356380e-01,-1.620447964903603969e-03,1.380690987309016009e-02,4.419386268897399113e-03,1.344090819358825684e+00
6.541473437055778106e-01,-7.494030529914098571e-01,6.478528704591596243e-01,6.155759886017161562e-04,2.271304348645953805e-02,1.657818634068842015e-02,1.401260852813720703e+00
6.300102414622198443e-01,-7.659482745384579294e-01,6.545330738438849272e-01,1.419179231105279805e-02,7.510807306957444258e-03,1.359421087822745150e-02,1.408851385116577148e+00
5.269055341770043643e-01,-7.521052723911821891e-01,6.987874174007860928e-01,9.234222467675764698e-03,-1.014378550322061166e-02,-1.275993734405916902e-02,1.373427748680114746e+00
6.832109046355436810e-01,-6.986071928890312810e-01,6.135420675451161987e-01,-9.592485531495821300e-04,2.215192179277422277e-03,3.233160387923652949e-04,1.348340868949890137e+00
6.362662192520140980e-01,-7.683819186133247214e-01,6.436375076830329611e-01,1.500001513368970710e-02,4.901278596027427298e-03,1.749180263058593490e-02,1.408939242362976074e+00
5.756566542255767693e-01,-6.017299643130712417e-01,6.636404123796542098e-01,8.216579600088702584e-03,-6.910775040042916109e-03,8.835627704102040104e-04,1.223895192146301270e+00
7.971855058067366384e-01,-7.876097357579456837e-01,3.287940602904385057e-01,-8.865279194884065697e-03,-2.184227913750043035e-02,2.695272158459210629e-02,1.411562323570251465e+00
6.234895642346572897e-01,-6.939648216863034680e-01,6.396420618474109032e-01,1.380849053013641706e-02,1.192729963689526801e-02,3.591993287132653947e-03,1.325995683670043945e+00
5.291360833682985376e-01,-7.470445762175531579e-01,6.846571215246716191e-01,1.133323441791707874e-02,-1.578250555687060394e-02,-1.655726117437813366e-02,1.361341953277587891e+00
6.586463354885776500e-01,-7.418680818373554198e-01,6.388327945293410526e-01,6.528653166698194892e-03,2.401244381930627003e-02,7.360940758986254766e-03,1.391439676284790039e+00
6.128447797393947738e-01,-7.617439234733764941e-01,6.491102423178707337e-01,-1.080209136385570402e-02,-1.406721192101121351e-03,1.313812943520963755e-02,1.393389105796813965e+00
6.421511200140762599e-01,-7.704380602571960779e-01,6.439552376357229324e-01,-9.852599592145804257e-04,2.025879963289575671e-03,-6.181130821957246148e-03,1.413537979125976562e+00
6.628881575076912558e-01,-5.955075817070085709e-01,6.474751048638884843e-01,7.905412157427667286e-02,3.828822666206365549e-02,-1.039078461315913341e-03,1.259980797767639160e+00
6.432825027539126328e-01,-7.066591182800253668e-01,6.423209673799863406e-01,2.968535123224573524e-02,-1.025967405739513019e-02,-2.855072702590146600e-04,1.350557327270507812e+00
6.434238334378927782e-01,-6.639591832028263196e-01,6.465232099462447923e-01,5.014954046822078793e-02,-2.706688225233033068e-02,-5.416429024862242508e-02,1.316000103950500488e+00
6.530633895763169328e-01,-7.299520155392212883e-01,6.371570851597943008e-01,2.385173236528073323e-02,-1.479201146754593327e-02,-3.341574778270817864e-02,1.377206921577453613e+00
6.879731137994949952e-01,-7.995575496928262194e-01,6.100047428516990333e-01,1.016408346657298942e-02,5.280244149724428078e-03,3.115353717456431637e-02,1.451258540153503418e+00
6.272973323148787195e-01,-7.575037407679454660e-01,6.273857101391018265e-01,6.757855871657156288e-03,-2.182697699837787429e-05,-5.738294534935816683e-03,1.384930372238159180e+00
6.608854249558877569e-01,-7.405475724450474306e-01,6.406921819413915475e-01,8.335493854738687189e-03,1.660842185662706957e-02,6.034368587056512800e-03,1.391857743263244629e+00
6.125216187496773657e-01,-7.673066129842687211e-01,6.325451141171183345e-01,9.067041817945030793e-03,-2.085167067853372150e-02,9.990281865168657363e-03,1.390613675117492676e+00
5.962019439815178234e-01,-7.417384120569521233e-01,5.924639164364653432e-01,-1.106788985728451814e-03,-4.085900406424103522e-03,-9.530494320815114523e-03,1.336197376251220703e+00
6.712723884905840155e-01,-7.625023531091997819e-01,5.708941639408858792e-01,-2.253312018082698470e-03,1.406985582054049756e-02,1.106692022183570871e-02,1.386665940284729004e+00
6.338849674335280682e-01,-6.352637642721408184e-01,6.376611769895089710e-01,-1.373160795149730266e-02,3.009512500282770023e-02,-1.797204466960360819e-02,1.272712469100952148e+00
6.287291923073762279e-01,-7.530455746990537547e-01,6.857911413867701089e-01,3.841330985467393891e-03,-7.742933662908159376e-03,-4.072687406856161790e-03,1.411268353462219238e+00
6.348855874300760593e-01,-6.949462037544922310e-01,6.577207151521367035e-01,-2.099432286891729157e-02,2.287083830197996631e-02,-2.138195235144152787e-02,1.342983245849609375e+00
5.806039908350895118e-01,-7.411424510904970342e-01,6.329774933316494323e-01,1.628558362863352302e-02,-8.730888324772727305e-02,2.806990433204312532e-02,1.358311057090759277e+00
5.897384909056222480e-01,-7.692144910980451833e-01,6.769775173629859477e-01,1.498392274571700225e-02,4.544476315219941713e-03,-5.818013161581190619e-03,1.404903769493103027e+00
5.619716140759904999e-01,-7.266521971187817064e-01,5.898761406118442352e-01,1.970174777362111631e-03,-2.303794931663129611e-02,4.435285293641736543e-03,1.303438305854797363e+00
6.423230745565764455e-01,-7.468648887983977414e-01,6.420152299175425625e-01,5.727269620133822875e-03,1.295604655558833633e-02,-9.151847114902201315e-04,1.389251589775085449e+00
6.026070465030229917e-01,-7.493836069692506596e-01,6.433912455781078954e-01,-1.864523879215456911e-02,-3.322297378131364859e-02,-1.756530166902734585e-02,1.374758839607238770e+00
6.395273674657688812e-01,-7.560443860197486599e-01,6.219230630182801534e-01,1.449404573628163169e-02,-2.633242765119306675e-02,2.308250747183494822e-02,1.388406038284301758e+00
6.538606682374734635e-01,-7.734769322686325665e-01,6.419163173191371197e-01,3.318628664159358919e-04,3.343211421899388702e-03,-2.296745887633667299e-03,1.421420574188232422e+00
5.011170096986623523e-01,-7.248131929402761298e-01,6.588980152347491126e-01,8.685360499766453741e-04,-2.324794544257093032e-02,-6.494692687896498270e-03,1.312622666358947754e+00
6.552547676985019942e-01,-7.081599815539437737e-01,6.234874060822275244e-01,1.440822288398475870e-02,-4.264070745714321903e-03,1.044220726473468622e-03,1.348064303398132324e+00
6.166233827689846514e-01,-7.010617404197840852e-01,6.615938315880351972e-01,2.749392972545775318e-02,-1.634147394084878302e-02,-6.882366465475475009e-03,1.341933012008666992e+00
6.361033496059702586e-01,-7.661194825302022338e-01,6.249026508334396546e-01,1.276006835442316384e-02,-2.284887067783093143e-03,5.200012605783831468e-03,1.396865725517272949e+00
6.646855193822697183e-01,-7.628973601429169804e-01,5.721688957745911797e-01,7.034779164977605047e-03,4.563588924599943850e-04,1.120071949625011179e-02,1.383836150169372559e+00
6.773892688605885892e-01,-7.059306780167927675e-01,6.138557967046951447e-01,1.582692283053793378e-02,-5.205768747133496938e-03,-6.609019094400715374e-03,1.353028893470764160e+00
6.498804740768968635e-01,-7.009109913126378988e-01,6.545516028646862772e-01,6.171380823294938395e-02,-2.468062158560211522e-02,-4.683350895886860543e-02,1.360442042350769043e+00
6.595366165254389346e-01,-7.850419538749611181e-01,6.468077404811569675e-01,2.890090059406547496e-03,-9.456902543127095051e-03,-6.887043585625644143e-03,1.438407778739929199e+00
5.945569979187212972e-01,-7.377278592122836764e-01,6.120662591638490468e-01,1.930932949175277009e-03,-7.698339889842969498e-04,9.834599821348445278e-03,1.341238260269165039e+00
5.669120027835153897e-01,-7.400981257368216548e-01,6.134704510808937084e-01,8.845820330492934133e-03,1.149736706435952778e-02,-1.375130839196001160e-02,1.331350445747375488e+00
5.887787348531557940e-01,-5.756380337676482162e-01,6.822559357354727183e-01,2.186186995960838486e-02,5.808751139575217548e-02,-4.448995933156989907e-02,1.221042633056640625e+00
6.515954997915462954e-01,-6.135214826754679107e-01,6.155257992533591516e-01,6.607457203115235655e-02,-2.152064997705202196e-02,-5.716774482409585356e-03,1.253305435180664062e+00
5.592167196073549729e-01,-1.276208549039701823e-01,5.631072340544099886e-01,-4.099078424482936051e-02,1.253468802209651341e-03,-2.680118946247144959e-02,6.939982175827026367e-01
5.964435076773040301e-01,-7.617378891746537928e-01,6.534530762583761199e-01,-7.084910828033318814e-03,-4.240241197095721316e-03,1.201944929484045910e-02,1.387794733047485352e+00
5.457759447798579133e-01,-1.811831158213003667e-01,5.640105002011172042e-01,-1.375200938070433865e-02,1.000256299649562516e-02,2.366609857306249329e-02,7.379739284515380859e-01
6.308977494012715237e-01,-7.505450139169046464e-01,6.645300237039714064e-01,3.762726293238923686e-03,-9.436264613547038242e-04,-2.559828037434233334e-03,1.398585438728332520e+00
5.514975528163550411e-01,-1.873058819270170816e-01,5.659045064504630851e-01,3.315718755182963957e-03,1.480166811574540634e-03,2.229009044722565086e-02,7.471359372138977051e-01
5.607085091195587179e-01,-2.448085042281473722e-01,5.728517113930418070e-01,-4.678699076797530193e-02,-6.538980861138884819e-03,4.307087169139008076e-02,8.191747665405273438e-01
5.818727453987002640e-01,-2.710989911940263619e-01,5.672453968658693890e-01,-5.568354295537018828e-02,-1.391484575452480235e-02,3.225550618332949371e-02,8.534061908721923828e-01
6.544538425859363073e-01,-7.671033527496505799e-01,6.405637556109288200e-01,-8.374399292378488209e-04,-3.478251254205268293e-03,-1.015829390539211771e-02,1.414786219596862793e+00
5.472351418044074656e-01,-2.327480134280744961e-01,5.538728215098089880e-01,-2.796478592226854607e-03,1.303748839266751294e-02,-8.263288188901823580e-03,7.837941646575927734e-01
7.543208275729632595e-01,-7.645803867038284407e-01,4.103732905706077849e-01,-1.185932355276903168e-03,-3.896125134031045573e-02,4.231757038614857025e-03,1.381140947341918945e+00
7.083749318290605279e-01,-7.374502315362445604e-01,4.564531908809403293e-01,9.623597828540671195e-03,-1.846121767898920019e-02,2.461958987323208808e-02,1.338939428329467773e+00
6.225273681608756160e-01,-7.652300428010843092e-01,6.393332898361807626e-01,1.513533889633229303e-02,6.266840377703193632e-02,-2.845135410165841594e-02,1.401561021804809570e+00
6.020309367681879742e-01,-7.371007914253996374e-01,5.129731389776825967e-01,-2.920868996295730453e-03,1.130446348870969148e-01,1.952083749366116542e-03,1.311609387397766113e+00
5.976846875692999328e-01,-8.834205091393928511e-01,5.675974362200564283e-01,5.258040171854743393e-04,3.272897294544471203e-01,7.773454395509358725e-03,1.572117447853088379e+00
6.037621617212719505e-01,-7.578838344289212658e-01,6.494758154247863846e-01,1.416302253648339671e-03,-2.946658036108214512e-03,-1.392692531881134684e-02,1.385290384292602539e+00
6.183418809581644471e-01,-7.637969846228465087e-01,5.059725624995445870e-01,-3.621802922303909381e-03,1.094897721398372659e-01,1.574191018723361188e-02,1.343268990516662598e+00
6.625976562342823506e-01,-7.721656414342015218e-01,6.409878458424284053e-01,2.849688331029422150e-03,4.173001047261591309e-03,-4.385486927736517888e-03,1.424128532409667969e+00
7.227264597730876927e-01,-8.546242020007641660e-01,3.836001537150205420e-01,3.039394500586596951e-02,1.422606827534957097e-01,7.606596787083245992e-03,1.460061669349670410e+00
6.549464940878381158e-01,-7.743551724564781136e-01,6.409726611958652676e-01,-1.386436119393740342e-03,-1.642341143484385034e-03,-1.024607055168286250e-03,1.422372221946716309e+00
5.194650020267964630e-01,-7.395325018793303951e-01,5.944307015274046258e-01,1.778494221226983169e-02,1.084801117549352850e-01,-1.088843396526029302e-02,1.312129735946655273e+00
5.534579757038792236e-01,-7.813621836171282808e-01,6.885863610615894359e-01,2.158341044258773114e-02,3.536496005264418152e-02,-4.107889568109156231e-02,1.410882234573364258e+00
6.429028729260023445e-01,-6.948779126711442933e-01,6.334358429598161422e-01,1.772409927321527039e-03,9.429817748220135215e-03,1.505215347471892083e-02,1.333431005477905273e+00
6.110144912988066945e-01,-7.645227268877192728e-01,6.544805465709768733e-01,-1.623504715394741629e-02,-2.507537949757848543e-03,-1.287115496356224659e-02,1.398244500160217285e+00
8.112171723266319301e-01,-7.704723874883158130e-01,3.144878873065337643e-01,-4.216634755885892427e-03,2.004864114940988016e-03,2.401652343939428974e-02,1.401644110679626465e+00
6.268355705303993997e-01,-7.641645009696795832e-01,6.461739439191342971e-01,-7.065741468089435651e-03,-4.037523173287725642e-03,-1.155000166246193671e-02,1.400983095169067383e+00
5.075912735787648788e-01,-7.896953309665197818e-01,7.357565371139729304e-01,-3.672649205701746661e-02,6.079568229856324550e-03,1.723986924082579822e-02,1.426904559135437012e+00
6.954082289792563598e-01,-7.597137155477380333e-01,4.938747457341757796e-01,-1.026189194005179030e-02,-2.288388252721654595e-02,2.164236742170757774e-02,1.366759657859802246e+00
6.629947824224968755e-01,-7.662045592638967451e-01,6.425678671795654884e-01,1.099860188048414327e-03,1.567531116680833184e-02,-4.481434457638860253e-03,1.419378399848937988e+00
6.539674266768296107e-01,-7.495074576144160616e-01,5.916158531825125300e-01,-2.061765540738389954e-02,-3.779900203598069580e-02,7.851083102696516242e-03,1.375451564788818359e+00
6.515495970267137782e-01,-7.437228994664726311e-01,5.527193852652647621e-01,1.864579750469455219e-02,1.287884243098322279e-02,1.996110762131322620e-03,1.349151611328125000e+00
6.373800742370816508e-01,-7.684020019066384322e-01,6.613573050718408730e-01,-8.637109913682815623e-03,2.525565784213449835e-03,-1.042397852462544766e-02,1.418123364448547363e+00
6.411607620254972106e-01,-7.838610840488110520e-01,5.642162400741689288e-01,-1.725682176365730611e-02,-3.651477679375298574e-02,-3.685299388751824001e-02,1.391376256942749023e+00
5.845753395226567228e-01,-7.495515352076004278e-01,6.390270435438957231e-01,-8.870469364572766691e-03,-3.387673385662405556e-02,-1.488822256513044201e-02,1.363762736320495605e+00
6.410287724725195480e-01,-7.709347110224330502e-01,6.473053634082339691e-01,-5.526227429454989674e-03,1.169589950620048783e-03,-2.479785612950337597e-03,1.415152549743652344e+00
6.119476783993065272e-01,-3.981745064681069257e-01,6.368101193133089977e-01,1.243382942575340794e-01,-1.759879556433552013e-03,-1.644727800305124249e-02,1.045600295066833496e+00
5.510539725823708768e-01,-7.479925586893280132e-01,6.544172345152371451e-01,-1.806019382080265717e-03,-1.226311733697527454e-02,1.662201178867995718e-02,1.354167461395263672e+00
6.507350653523475970e-01,-7.026818551709826943e-01,6.386957204395675713e-01,1.695026414382607219e-02,-3.447247196008770918e-03,5.097930814809328165e-04,1.347770929336547852e+00
6.849905025149761739e-01,-6.110828704570843151e-01,6.713653016560381381e-01,1.139688720907971881e-01,3.457201616868452176e-02,-5.863005602478098960e-02,1.309655427932739258e+00
6.283554038052623358e-01,-5.963384548681370800e-01,6.203296807395948242e-01,3.761160215607069895e-02,-1.872264279150707630e-02,-4.605490759658719541e-02,1.225466847419738770e+00
5.822558598742102465e-01,-7.783755166283106153e-01,6.768183330415314947e-01,2.085749900900654014e-03,-2.513068522803166630e-02,-5.221332365090258776e-03,1.410997509956359863e+00
6.392046812572428349e-01,-6.803551391764214307e-01,6.450233291355067511e-01,3.904416287359776389e-02,-3.792874684362541188e-02,-6.250326290042895749e-02,1.330247759819030762e+00
5.861062571320877490e-01,-6.197877176046744374e-01,6.542379445669082028e-01,4.934649486687103098e-02,9.139762446391573938e-03,-1.139224475858266125e-02,1.244558930397033691e+00
6.533281549572875768e-01,-7.473109008751731563e-01,6.564752544057452788e-01,5.100165432717219949e-02,5.631567301373392731e-02,-3.989997589519633965e-03,1.408393859863281250e+00
6.430211197124735545e-01,-7.507337642942090161e-01,6.445739973585276061e-01,-6.360055130113060826e-03,-6.756292600755129350e-03,-1.440513922971291012e-03,1.394626855850219727e+00
4.199796433362086301e-01,-7.350447334838977609e-01,7.252232199086825482e-01,1.311190641829967701e-03,-2.704469356240360792e-02,-7.699268827160395297e-03,1.334989070892333984e+00
6.384585862654429400e-01,-7.597771249335613097e-01,6.619198372724751644e-01,6.814743487905920369e-03,7.190801121001183169e-03,-1.567565049527955279e-02,1.410478472709655762e+00
6.143735746169969314e-01,-7.647650441015221290e-01,6.259008900608040715e-01,1.008798329897755454e-02,1.173547261480872156e-02,-1.369087625091639296e-02,1.385400533676147461e+00
6.545803600345806439e-01,-7.669290646399723466e-01,6.413553226236801130e-01,-2.861482286647608689e-03,-4.082087444691954135e-03,-6.862729870342187781e-03,1.415019512176513672e+00
5.666391869846656437e-01,-7.652090927420149846e-01,6.665901013257672370e-01,-9.363417812212022212e-03,4.480481033696443599e-02,-2.082396754426497562e-02,1.387269139289855957e+00
6.149099849639713122e-01,-7.680832347875661270e-01,6.553005616520437560e-01,1.462832456422968885e-02,2.630760593518565241e-03,-9.282690950085555059e-03,1.403952598571777344e+00
4.877820683882392871e-01,-7.857668200923220159e-01,5.891276166908100409e-01,4.754242077385187337e-02,2.631919954702722775e-01,-3.624549786889488812e-02,1.407053112983703613e+00
7.641404029363378925e-01,-7.550023268869939796e-01,3.887345777412319348e-01,5.637585214584440573e-04,-1.838436306454813152e-02,-1.414866023639836483e-02,1.371147155761718750e+00
6.549440322973024697e-01,-7.707682262754607105e-01,6.395146881847184606e-01,1.352084585287582810e-04,-3.941742573269680673e-03,-7.936548831389373879e-03,1.418143630027770996e+00
7.479756498775728124e-01,-1.389471449925743451e+00,6.269811582220529145e-01,-2.567598459552181134e-02,5.414573410546339449e-01,-6.615929697745066840e-02,2.284586906433105469e+00
3.760319866150663159e-01,-8.887065567115514098e-01,8.175205825175607677e-01,-2.593055348245521322e-02,1.397388090416974097e-03,3.222216041516786072e-03,1.534567594528198242e+00
7.817796385616733179e-01,-7.582455108605572480e-01,3.990847249829077015e-01,-8.765888538580976150e-03,5.204165309512476592e-03,-3.133625685850861819e-02,1.389975070953369141e+00
7.651054720546851540e-01,-7.393279942913393299e-01,3.951120784148113296e-01,-8.553470266457896196e-03,-3.843569015836625913e-02,7.405988384191749228e-03,1.359558939933776855e+00
7.691194542212388408e-01,-7.433171090741269582e-01,3.508117960163694149e-01,9.486500984299539585e-04,-9.990166435719953150e-03,-9.048081035161811966e-04,1.352806925773620605e+00
7.985584290899068183e-01,-7.780425143532242460e-01,3.405897942460254235e-01,1.659649525446930951e-02,-5.451633158123241930e-03,-3.800667096926112903e-02,1.406634688377380371e+00
8.009220520357075435e-01,-7.368266249349195718e-01,3.101919194392670498e-01,3.532010911255530593e-03,-1.110923610838406711e-02,2.401046028292480334e-03,1.360622048377990723e+00
6.418449664413887756e-01,-7.629088232841257922e-01,6.457222192782960946e-01,7.748847344809095018e-03,8.806774036916750759e-03,6.536450282838390802e-03,1.406888723373413086e+00
6.540918009311604830e-01,-7.499105212661310027e-01,5.524856819465213675e-01,1.554036917737127224e-02,-1.079676062824870379e-02,-2.252840693112712935e-03,1.356458783149719238e+00
6.693272825847864649e-01,-7.394253625832545307e-01,6.320679117791248025e-01,-3.236697855938103999e-03,1.876321429667875129e-02,3.424958963608561516e-03,1.390901088714599609e+00
9.109464122798655028e-02,-1.398672247474408659e+00,1.183631485887107981e+00,8.270304062345003315e-02,4.184656628700001574e-02,1.182358185803788764e-01,2.260172367095947266e+00
7.402318461017759477e-01,-7.608099659906625289e-01,4.589068499603792817e-01,-4.392725671494570119e-03,1.643999343746661845e-02,2.950262929576616139e-03,1.382347464561462402e+00
6.193767010036006493e-01,-1.343297577558839606e-01,6.251946897761631039e-01,1.101406702945528504e-01,-2.494956947505789016e-02,-1.303570871934882532e-02,7.818327546119689941e-01
6.162182558199387206e-01,-5.574579114647667533e-01,6.084866594317583921e-01,4.988400121643147417e-03,-3.093546059537847018e-02,2.993686753974645481e-03,1.171099305152893066e+00
6.541603103216684367e-01,-7.615475563303070183e-01,5.876181178144941342e-01,-1.297345129233181196e-02,2.761776068403511142e-02,1.388278524434711364e-02,1.384855151176452637e+00
6.857189636853827652e-01,-7.653035630135139877e-01,5.823332223200627933e-01,-6.746905824261933970e-03,1.449777363704132793e-02,-5.639484725700472101e-03,1.402498602867126465e+00
6.999546812107101390e-01,-7.258081483125814470e-01,5.252566346231570815e-01,1.002958208421034225e-02,-4.949174396985295092e-03,-8.899813806718967490e-02,1.355868101119995117e+00
6.083787138797118743e-01,-4.618860482263478229e-01,6.326008665157833999e-01,7.955297462500161843e-02,-1.510716583872894619e-02,-8.592489846039728929e-02,1.101724743843078613e+00
6.368010964847459210e-01,-4.711721382932519964e-01,5.676205741223474543e-01,-2.752365048712934401e-03,1.612505590986634471e-02,-1.734491334427223919e-01,1.116600632667541504e+00
6.272150414235225790e-01,-7.731338919544106236e-01,6.426165223719415565e-01,-7.633655140888598138e-03,-3.413016276123494782e-03,-1.789739299015009845e-03,1.408190727233886719e+00
6.537603791888908500e-01,-7.592787774400153733e-01,6.543473453305878040e-01,8.906385384684797858e-04,6.325328389968925928e-03,8.774130329214877358e-03,1.413457751274108887e+00
6.398365916995227831e-01,-7.652323127391000845e-01,6.636161115120597920e-01,-3.840395450380116042e-04,1.712439599089033565e-02,1.998390061084968146e-04,1.417418837547302246e+00
6.621137626389790309e-01,-6.977936055396184445e-01,5.805889506428071334e-01,3.510063114272471418e-02,5.865544480642737729e-02,-2.590645508901115099e-02,1.327086687088012695e+00
6.821210140284841295e-01,-7.409064227053588914e-01,4.467763462203014346e-01,2.021236123810617527e-02,1.061491729193245609e-01,-1.632627455882230960e-02,1.334661126136779785e+00
7.496639662214056310e-01,-7.796616576351116379e-01,4.689815927494558334e-01,-1.115176545871515885e-02,4.500852044626667964e-02,1.804361423363434747e-02,1.412724971771240234e+00
6.232217014165393199e-01,-7.479283386880914986e-01,6.858711814651892169e-01,-2.703581343007820104e-03,3.661105317556678871e-03,-2.828527231686036626e-03,1.403554558753967285e+00
6.066920982287126174e-01,-7.597926032834864118e-01,4.345867145351548499e-01,-9.837235391014853905e-03,-2.365353664931069133e-01,-1.806042832502951709e-02,1.353084325790405273e+00
6.428260971189558859e-01,-7.540901311019541087e-01,5.829805305321624775e-01,-1.751686270119556105e-02,-7.265613881172410839e-03,-7.892332626758584435e-03,1.368438124656677246e+00
6.226167762333176814e-01,-7.915680919807480675e-01,5.802471699510538539e-01,-3.758244945864042119e-02,-1.291145717644691382e-01,-5.337819702143502265e-02,1.415836215019226074e+00
4.342103258488583806e-01,-8.464889624738516360e-01,7.868760142063777607e-01,1.216354246406922517e-02,-1.576595462957453841e-01,-6.110023514251137350e-02,1.517377853393554688e+00
6.948884358421160146e-01,-7.645467660319548164e-01,4.755017707550461270e-01,-2.021816797933543089e-02,-1.695743914278278475e-01,-5.355957391489515884e-03,1.394804596900939941e+00
6.382479447146776064e-01,-7.620197943809181584e-01,6.602697380310904585e-01,8.059608257471276294e-03,-8.371826489997022738e-03,6.366833042215606572e-03,1.411594033241271973e+00
5.983543349668714040e-01,-7.525123460696504507e-01,6.253361859354686914e-01,-1.100922754212214916e-02,-2.079364148704364312e-02,-1.614171108603802002e-02,1.365452289581298828e+00
6.394216636735585713e-01,-7.717188991269003928e-01,6.436470793355761888e-01,-2.103833713672895785e-03,-2.538832402094428915e-03,-6.576452712152152400e-05,1.413269519805908203e+00
6.195490751014685049e-01,-7.593717502634742544e-01,6.231529285902658311e-01,-8.952408860488408199e-03,-1.396442018674016322e-02,-1.432190916344922189e-02,1.381247878074645996e+00
6.525619180776972561e-01,-7.011788691694973430e-01,6.212876420441844072e-01,1.470004195124417420e-02,3.928838893807156361e-03,1.774481855278385719e-03,1.338640689849853516e+00
5.569974572085220066e-01,-7.249920828768369185e-01,6.143667688752951772e-01,3.229724378472350688e-04,-1.442983965554166768e-02,-2.318743066045132750e-03,1.311859846115112305e+00
5.746302892783621274e-01,-7.942070818529506360e-01,7.373414700999119109e-01,5.214266161511346698e-02,-4.049025438635518032e-02,3.125938052928137201e-02,1.462505459785461426e+00
5.717075780124660778e-01,-7.425868312369761082e-01,6.275035878019873392e-01,9.248566198117345394e-04,-6.484185960654361564e-03,1.596219752317764098e-02,1.343394398689270020e+00
6.433176491494025928e-01,-7.208769196302420301e-01,6.502696073863629689e-01,-3.307784066052701748e-03,1.561744447917668907e-02,-7.334501688634993861e-03,1.368022203445434570e+00
5.872509156320384616e-01,-4.597086810146677749e-01,6.546047469050293444e-01,6.994199284752694590e-02,2.800368395209406475e-02,-1.067986314018862411e-02,1.090205550193786621e+00
5.795225574481974729e-01,-7.234403112370695332e-01,5.950235791831204324e-01,1.920729014011986592e-03,-6.027473290544721300e-03,4.365072538596879992e-03,1.310849666595458984e+00
6.742143305841417078e-01,-7.536930535124944930e-01,6.339871704601489633e-01,6.679305132557554307e-03,1.594893857337252238e-02,2.527142498648855297e-03,1.408550024032592773e+00
6.361990909351185053e-01,-6.098124589004763063e-01,6.441784059768637105e-01,2.995935053140784659e-03,3.085200379936462942e-02,2.862284936191993728e-02,1.252154588699340820e+00
5.826279648692679336e-01,-4.079213106370206399e-01,6.716127047931284011e-01,6.829891142648790436e-02,2.154661940396100303e-02,1.117466249527695049e-01,1.063061118125915527e+00
6.428910809924167635e-01,-7.512833530598084231e-01,6.656889521306390556e-01,1.919665180604633982e-03,2.552067425406838799e-02,-6.125290150497538725e-04,1.406411170959472656e+00
6.193669386185893799e-01,-3.394839920009733447e-01,5.741136666468988903e-01,1.451506588789391594e-01,6.877334018907941757e-03,-1.217472861759054045e-02,9.704867601394653320e-01
6.229900296869292919e-01,-5.243520976175976012e-01,6.772952795502696910e-01,5.510191867698261553e-02,-2.425479227978114341e-02,5.709569674353595636e-02,1.184188723564147949e+00
6.369310466037787499e-01,-5.133317910027398456e-01,6.252925896498492397e-01,3.986461962952301402e-02,1.955040540867179419e-02,1.416964009296586835e-01,1.173030495643615723e+00
6.194102441536442072e-01,-3.413574325948216526e-01,5.911964805260839784e-01,6.111879916175125271e-02,-7.281759135169573946e-03,1.422168426059159108e-01,9.842795133590698242e-01
6.209421849551912675e-01,-7.427341152744073582e-01,6.387751330642825742e-01,5.592976560447901133e-03,-2.173048774238993050e-02,-3.710015893403812836e-03,1.373244762420654297e+00
6.441832286711970390e-01,-5.825167842367962034e-01,6.289769297932585879e-01,5.100425384733611039e-02,1.709002647650438231e-02,5.800291235022947238e-03,1.222764134407043457e+00
6.566886972372276698e-01,-5.812506712955807231e-01,5.923706307703603402e-01,6.735368712227830790e-02,-1.311399704507416539e-02,7.532077841140097374e-02,1.219899177551269531e+00
6.971292870601456526e-01,-6.373048535295464667e-01,6.001445772022031555e-01,4.378661528877615672e-02,-5.335144509965064619e-02,5.984757749210065786e-02,1.298359274864196777e+00
6.527468008811454503e-01,-7.738672145032304828e-01,6.444485814672837876e-01,2.308312966895991033e-04,4.039555354790178368e-03,4.755198679702849103e-03,1.422524213790893555e+00
5.568201203271265776e-01,-7.722264403545519018e-01,6.627282916937635715e-01,-2.392186928673829815e-02,-2.060485381066440302e-02,-1.648836301679143523e-02,1.386414170265197754e+00
6.570476107439844338e-01,-7.210696174929736024e-01,6.359961092037598185e-01,4.447063465915726370e-03,2.115167928905678854e-02,9.618869958042602225e-03,1.368326663970947266e+00
6.545764239825795361e-01,-8.693380547587084006e-01,6.525588705166196490e-01,8.248203433585489519e-02,-3.648621124912549557e-02,2.924611798241237570e-02,1.531735777854919434e+00
5.926092046351879583e-01,-7.388820121947342612e-01,5.970770504947749968e-01,1.445589871658234252e-03,3.126961073769014918e-03,1.284729806655198446e-03,1.333745956420898438e+00
5.917580216367546164e-01,-6.761314266963657227e-01,6.150852151822606695e-01,-8.750699392149730027e-03,-1.841082112988101094e-01,8.674999978077881091e-02,1.327463030815124512e+00
6.367749389551033978e-01,-7.726164516285841666e-01,6.320071013797883275e-01,1.130576043089341664e-03,8.344142159211497857e-04,4.934358422260409598e-03,1.407041549682617188e+00
7.125982412647616782e-01,-7.871974033105699764e-01,5.072337187178932449e-01,-3.952935897116138797e-02,-4.392201701074060355e-02,-5.079004310278487783e-02,1.414839506149291992e+00
2.698754477204434732e-01,-9.905612411926210115e-01,8.932100513014159526e-01,-3.306912684766074965e-03,-8.831808317073631953e-02,1.363652076010072982e-02,1.669404506683349609e+00
6.922278172535263341e-01,-2.741275687824207274e-01,6.191833151142900338e-01,-6.423570724764711415e-02,-2.211533948568212837e-01,-3.051968383219579029e-02,1.015130877494812012e+00
7.224554739857261820e-01,-7.643405576343317298e-01,5.511775847559765573e-01,-1.141914205610456735e-02,6.974930842109219875e-03,2.707503575265964306e-04,1.409177303314208984e+00
5.846244089684244916e-01,-7.686814601491849253e-01,5.601839362835009384e-01,-1.688535537765494671e-02,-1.776699773133363913e-01,-3.590090772532802954e-02,1.377817273139953613e+00
6.202187317233338604e-01,-7.101913252921638886e-01,6.785711755323431404e-01,-3.720883716592811481e-03,1.591902428803723679e-02,4.710335275004612354e-03,1.360844254493713379e+00
5.476528238481997990e-01,-2.241673780780942815e-01,5.591034936997995031e-01,-4.269147934405573275e-02,1.780637550752499007e-02,-4.180839713225349003e-02,7.850720286369323730e-01
6.144356257744202354e-01,-8.273167818607399804e-01,6.406062247438937263e-01,3.277936954638552194e-03,-1.025632914471249629e-01,-2.641730783955949929e-02,1.466543555259704590e+00
2.594625168008638516e-01,-7.916443015979407472e-01,9.084723898307410783e-01,-5.933217965683321680e-03,-2.072379718606109228e-02,-1.188788159134841933e-02,1.486618995666503906e+00
6.174877979738531142e-01,-4.557118824760373332e-01,6.044452672246192204e-01,-9.630317364396981383e-02,2.935753552994401980e-02,-2.991261805231321472e-02,1.082138299942016602e+00
3.970814514437448484e-01,-7.850186465679825920e-01,8.132658762494521243e-01,-6.318033900865489827e-02,5.304507008899980031e-02,3.925906426431244323e-02,1.444846749305725098e+00
3.664044895906400368e-01,-9.186791392838040693e-01,8.424241524047216823e-01,1.102855336094814547e-03,6.823979576515035173e-02,2.827370995026248085e-02,1.583076596260070801e+00
5.597800251827260709e-01,-7.629979040864288686e-01,6.550046082990480523e-01,3.006279538493035475e-03,-3.221337531812470262e-02,-1.439277781560189054e-02,1.374238610267639160e+00
2.559295828650411386e-01,-8.177038716697605514e-01,8.374092966950702488e-01,5.344452130333877948e-02,2.682726377628950193e-02,-1.616362311784749067e-02,1.458291888236999512e+00
4.000104646283613730e-01,-7.753963994381687375e-01,7.545925433043757513e-01,3.692902351168100101e-04,5.296323075351896947e-03,-8.701472516140906083e-03,1.387227296829223633e+00
6.575341477453382488e-01,-1.943673706070434548e-01,5.778750031882291527e-01,-1.218884937918998518e-01,-7.926278545389993727e-03,-4.744653734963537317e-02,8.460097312927246094e-01
5.833942597454107037e-01,-7.639359015302769063e-01,6.555405182058176017e-01,-7.281864953985619539e-03,-3.030868837840626495e-02,-1.685913587040171677e-02,1.386173129081726074e+00
6.528076735198451441e-01,-6.988741282493904361e-01,6.494428015646525054e-01,1.676073191071287063e-02,2.080590099845141400e-02,1.621718547698780544e-02,1.351087450981140137e+00
6.267464833645026712e-01,-5.352928497898463700e-01,6.330057509990565379e-01,-3.000003874138646234e-02,1.650543835569093232e-02,-2.331343536201229902e-02,1.167388558387756348e+00
6.032543313585694289e-01,-2.552429421058008963e-01,6.210964927703679361e-01,-1.012278872446546879e-01,6.485343034453782025e-03,-6.154871017857914406e-02,8.915635347366333008e-01
5.932470773730568192e-01,-5.735391533371697603e-01,6.466949962490962101e-01,-8.059710237473022287e-02,-9.810212008792480211e-04,-2.156335549410224456e-02,1.203118681907653809e+00
6.034467516284607314e-01,-8.317998828102668440e-01,6.557079054951423513e-01,1.015704345020722321e-02,-3.263363171409172647e-02,5.086596547916797523e-03,1.463302373886108398e+00
6.280056648017466880e-01,-7.273268292493871856e-01,6.667100502150045127e-01,3.006921939804240145e-03,1.861423409716329511e-02,2.436302371582106663e-03,1.375487565994262695e+00
6.516862925230233472e-01,-7.655789534367549720e-01,6.408148724122457729e-01,-5.299246525695432142e-03,-5.925042192581535076e-03,-5.723649516526153370e-03,1.411962866783142090e+00
7.071228078669976602e-01,-7.648657832444916149e-01,5.264438858667184196e-01,-1.109115730156459527e-02,8.868241002575301749e-03,2.139172525663698976e-02,1.391192197799682617e+00
6.592429205695602423e-01,-7.568823810180130840e-01,5.769654257508226580e-01,1.991067863174919572e-03,-2.792693452165802281e-02,1.235768777376305624e-03,1.377686977386474609e+00
5.084380443251013126e-01,-7.851946786968082570e-01,7.164215764782180251e-01,2.817387084077754150e-02,-4.984066767124317038e-02,2.514982266726890209e-02,1.413339376449584961e+00
6.095230858591387246e-01,-7.482333519903709984e-01,6.173426378247017787e-01,1.102241588319160387e-02,-1.057977946194925509e-04,1.482783967412994001e-02,1.362058997154235840e+00
6.748161919424551236e-01,-6.993576660378214571e-01,6.243410505304192171e-01,1.207184515919688256e-02,1.885044363655906038e-02,1.024242278639924709e-02,1.350317716598510742e+00
6.695165508078035899e-01,-7.341734093494833857e-01,6.269163475979663280e-01,-1.305758936711507757e-02,9.669184456671919836e-03,8.700489640265079289e-03,1.383250474929809570e+00
6.488824363779713833e-01,-7.591854044177887006e-01,6.052162324680023797e-01,-1.398930550511354870e-02,-3.008907198965140271e-03,3.993261455556485449e-03,1.386989116668701172e+00
5.482259100329680557e-01,-7.771619833260120513e-01,7.121969713965794480e-01,5.804037424131254508e-02,-1.087152651699486161e-01,-2.411498589552789687e-02,1.431143760681152344e+00
5.367227876920026564e-01,-6.677249992594437300e-01,6.868408757580513058e-01,6.029556470883187629e-03,-7.929857432776536708e-02,-1.677440113629263471e-02,1.293776392936706543e+00
6.017426970932007180e-01,-8.169087358130882048e-01,6.769306451621301957e-01,-5.326577951760752550e-03,-4.340632569029374485e-03,1.308842825844670418e-02,1.457925319671630859e+00
5.807350285928962741e-01,-7.264310934872945102e-01,5.941157234839050671e-01,2.761448334416180517e-04,-4.922242329719173255e-03,7.358448455245117446e-05,1.313935279846191406e+00
6.440404886839434795e-01,-7.385115069821508449e-01,6.940207314045978571e-01,-5.571646093541303413e-02,-7.724778835481185824e-02,-1.502629363089131274e-02,1.418076276779174805e+00
6.248238362820706104e-01,-7.383116186182062668e-01,5.906857972187564698e-01,2.256408439276348654e-02,-3.469286486874973569e-02,1.778402065729145151e-02,1.348649621009826660e+00
6.446184415934228529e-01,-7.639930074045352404e-01,6.433669405968660548e-01,2.657583341339263099e-03,8.827593815668333555e-04,1.102486610594660688e-02,1.408123970031738281e+00
5.947100747335529736e-01,-7.540766872785242825e-01,5.344250579975176052e-01,2.311317641348430152e-02,-8.838196298048889288e-02,1.015329672856288279e-02,1.329245805740356445e+00
4.209564450708587202e-01,-7.304762166974207993e-01,7.180859765083286161e-01,2.253817240098888227e-03,-2.862302510534291827e-02,-8.610715561346848901e-03,1.326236486434936523e+00
5.682338504114610167e-01,-7.767367975829922999e-01,6.184827458942594447e-01,3.980377708631614719e-02,-6.319576834431354928e-02,3.458225216209747516e-02,1.378178596496582031e+00
6.396303609629860887e-01,-7.223683837941626829e-01,6.770642711524131885e-01,2.509371255320735298e-03,-6.973412163814105415e-05,2.352439746598878473e-02,1.381703972816467285e+00
6.581569399450624136e-01,-7.231076692340904222e-01,6.595070902320175898e-01,1.427704502598418045e-02,-1.198641092727815473e-02,1.705936249325812077e-03,1.382320523262023926e+00
5.070576919466024401e-01,-7.761163893330295105e-01,7.013308480429570890e-01,2.906321384007348393e-02,-5.552509902802323094e-02,1.885346426386472554e-02,1.395139217376708984e+00
6.613216309002614146e-01,-2.964799151380480557e-01,6.415171386279092669e-01,-1.417570603391392625e-01,8.557147283702161780e-03,-5.849609133964791402e-02,9.846712350845336914e-01
6.114511689927084603e-01,-7.569491798313644493e-01,6.330698000179049156e-01,9.604016665937094256e-04,4.083576811076285347e-03,1.054649472063375233e-02,1.379476785659790039e+00
5.917586969008945541e-01,-5.084195467417141900e-01,6.412904516714423853e-01,-9.108117327492548654e-02,4.765750008910611744e-04,4.225108116710129397e-02,1.139114975929260254e+00
5.914775580365616570e-01,-4.435904105780408280e-01,6.991048729222681946e-01,-8.601983395769369212e-02,1.204834695991304286e-02,1.792867633142192219e-02,1.103607296943664551e+00
5.926169359626867195e-01,-7.710090792639673341e-01,6.798087954240548125e-01,-2.939411481620734720e-02,4.623002352106982127e-02,5.970361111015454192e-02,1.416217684745788574e+00
6.883935154422681224e-01,-7.434817169635464795e-01,5.842269999170739414e-01,-5.161305969132426799e-03,-2.330403472230579281e-03,1.516530792519254003e-02,1.383022069931030273e+00
6.520670116445975717e-01,-7.691231625877601452e-01,6.154595892300075421e-01,5.595529172201411461e-04,1.352239962933278750e-01,3.291453553405544047e-02,1.423798799514770508e+00
6.456686795548505220e-01,-6.197872282418991352e-01,6.275646681724604825e-01,-7.312876437727267032e-02,-2.341458550756948115e-02,7.035915015768365310e-02,1.269384145736694336e+00
6.538827790057744060e-01,-7.635420918071494922e-01,6.407156178481331343e-01,-2.004582861988084275e-02,-7.378226945261644014e-03,-1.058292676075756316e-03,1.411373615264892578e+00
6.740825413733678717e-01,-1.325578748317403077e-01,7.173961926815510814e-01,-1.027271970141381413e-01,2.413069557214923833e-01,6.675693793632898887e-02,9.524697661399841309e-01
5.935739875637553453e-01,-3.772333684094059114e-01,5.440780960766724572e-01,-7.289666139659056743e-02,1.943660890294571231e-01,1.870437412996115920e-02,1.013504624366760254e+00
6.229211659539509727e-01,-2.386111091322644651e-01,5.412956936056548818e-01,-1.330714558747058684e-01,1.490953925081371922e-01,1.241903692984774599e-01,9.190536737442016602e-01
6.407696515241656510e-01,-3.293244340990834074e-01,6.611209630408407811e-01,-6.836216985608420393e-02,7.137085233905858528e-02,7.507770421049914100e-02,1.003718495368957520e+00
6.747630861424855908e-01,-4.412787082169710162e-01,6.911921220523000731e-01,-6.091998920476682233e-02,3.305603585470320294e-01,2.198221705712766205e-02,1.266707777976989746e+00
7.488986322286613762e-01,-7.666120224638282021e-01,3.358560672394064195e-01,2.175127391337913427e-02,1.978370476128976374e-01,-2.595996638428425124e-02,1.400809049606323242e+00
6.250546604430531339e-01,-7.623992122042436703e-01,6.334940487894458183e-01,9.240159537013722946e-03,-3.388903046649151089e-03,1.195510458818707135e-02,1.391951203346252441e+00
6.476311263705184507e-01,-7.790264671467567181e-01,6.488954744861875623e-01,3.316097554054361365e-04,2.553574658488279824e-03,3.153046100447718780e-03,1.427307605743408203e+00
7.264163370460637870e-01,-8.421381216396092162e-01,4.911701725171384592e-01,2.568594376606188334e-02,4.829941761986993737e-02,-3.011053971889892170e-02,1.469151139259338379e+00
5.307081586267452522e-01,-7.843382715095978952e-01,6.732488256807127591e-01,-2.501699045043084477e-02,6.814084136319302487e-02,1.210309914406845766e-02,1.397626280784606934e+00
7.657118538489783299e-01,-7.944240223496646935e-01,4.254623489168078421e-01,9.655141780789884033e-04,8.918411025140170201e-02,4.274241107483690155e-03,1.429292559623718262e+00
6.437776068071949798e-01,-7.812001788779467937e-01,6.497941603617012341e-01,-1.563427671390919035e-03,2.871774595684633245e-03,1.679991556802536840e-03,1.428009748458862305e+00
6.483086427595302625e-01,-7.643487116670191206e-01,6.428489529274414860e-01,5.808163997310734732e-03,3.240769741436583685e-03,9.548847609838519157e-03,1.410079479217529297e+00
7.525890993746113811e-01,-7.811429229557719234e-01,4.035092667346706907e-01,1.133441499102462273e-02,6.063144586956640408e-02,4.162885806565956234e-03,1.396517634391784668e+00
6.963191799549187655e-01,-7.467422863129558053e-01,4.405859255403465902e-01,8.123763906316461975e-03,1.042905492046326404e-01,-6.305951002294863696e-03,1.346006631851196289e+00
6.572690025046505902e-01,-7.316376321696038687e-01,5.102018321236910792e-01,-2.586624799928048755e-03,9.846008636697267669e-02,2.151573862564280359e-03,1.332495808601379395e+00
7.925141140350375757e-01,-9.049684455893769464e-01,4.191072413249607442e-01,1.375408450869897463e-03,2.553958421705034287e-01,2.931059467164301088e-02,1.607884407043457031e+00
6.737322672639041166e-01,-7.556243916223320811e-01,6.299518258056497899e-01,2.745715294812031259e-03,3.808189904574011634e-03,-2.601987458407498208e-03,1.408007740974426270e+00
6.013352465456911489e-01,-7.694278860595593628e-01,6.704071175393157000e-01,1.378622245677329876e-02,5.920658160381550572e-03,-1.191570320497590055e-02,1.406962990760803223e+00
6.526171613309201813e-01,-7.645982569887554980e-01,6.538613505164490025e-01,1.322625529120695538e-02,7.253721932497904715e-03,-1.425496421811431325e-02,1.418293595314025879e+00
6.296511141720844140e-01,-7.527968276144655357e-01,7.194936842371278951e-01,8.443523821777998428e-02,1.148730244478795570e-01,-5.253054057849208813e-02,1.453509688377380371e+00
6.768145759201150691e-01,-7.629719735428369676e-01,6.309577826493184549e-01,-4.940145769556894724e-03,-4.460822293904203630e-03,-4.798203011128140093e-03,1.417485833168029785e+00
6.712130001356868547e-01,-7.570009054924697889e-01,6.205115998729728854e-01,-9.119445179518900074e-03,5.632603064963678449e-03,-5.603539440766898416e-02,1.407024383544921875e+00
6.755370331155812202e-01,-7.531674102789898129e-01,6.336673299978223817e-01,-4.450399204460188211e-03,-4.232803864592268699e-03,1.053111371123519957e-03,1.408277869224548340e+00
7.068894306726010157e-01,-3.875805263399095812e-01,7.105461120182325896e-01,-1.090843697614786445e-01,-2.951744362682458545e-01,2.869883318305230854e-04,1.224321126937866211e+00
6.834568182317556362e-01,-7.444260352868697916e-01,6.192816314309421699e-01,2.483185152721040408e-03,-5.428683277827543209e-03,-2.320100701599142785e-03,1.396945357322692871e+00
6.330809487201389807e-01,-7.709100643057303914e-01,6.441529262687386570e-01,7.061325034713244672e-03,-4.913770238121629649e-03,-8.561394067722328778e-04,1.409639120101928711e+00
5.590091761788189562e-01,-7.445962385872284539e-01,6.490508788549387287e-01,-4.689337557052650554e-03,5.216990271900399240e-02,2.484492676132633165e-02,1.354605555534362793e+00
6.814810264004382834e-01,-7.547681646217431206e-01,6.274215598675386696e-01,-2.125411735137162499e-06,6.900262066686354244e-03,-4.912436254790389367e-03,1.410073280334472656e+00
4.331250648290099758e-01,-7.545209530242381613e-01,7.133029572148938957e-01,-2.135387072178284926e-02,9.457036109585000017e-02,7.523328732470568707e-03,1.360192418098449707e+00
6.521269604074115822e-01,-7.781779945278574084e-01,6.446523615555068698e-01,1.192543656586534826e-03,-4.268900498223508408e-03,-1.318655152098139813e-03,1.426604866981506348e+00
5.418410208923261084e-01,-7.762214996597780470e-01,5.868692214422172038e-01,1.321768085888662056e-02,1.657614786676957774e-01,2.511670269143186172e-03,1.371728777885437012e+00
6.464067555866506165e-01,-7.730532335424177282e-01,6.516157785239099498e-01,3.526060421182575927e-03,-5.995002797463649079e-03,-2.987961220292031060e-03,1.422132134437561035e+00
6.097928350422066046e-01,-7.418095542237840290e-01,5.736793410057745568e-01,9.912634023373150666e-03,8.527447391764865839e-03,6.304439808459137479e-05,1.334104537963867188e+00
6.450036830822498679e-01,-7.545502390009867222e-01,6.452077469276679134e-01,7.387098775573025869e-04,-1.319681348557882362e-02,1.027468626838033651e-03,1.399844288825988770e+00
6.430537786177468185e-01,-7.506204333452093369e-01,6.380044566994440558e-01,-5.697184006812694608e-03,-5.376295101354134839e-03,6.820714700573597689e-03,1.391272783279418945e+00
6.879635727487130037e-01,-7.430154117524586654e-01,6.231219505352116883e-01,3.961952924541810653e-03,7.988087136664031272e-04,-1.003503831974215423e-03,1.399703621864318848e+00
6.707817992160890475e-01,-7.489947269888544978e-01,6.300465628674406515e-01,1.426406490720176154e-03,3.778516657104045214e-03,-2.582218078301023057e-03,1.399878144264221191e+00
6.503402683723872313e-01,-7.703234117252568680e-01,6.315832280394922948e-01,-6.578602263977488757e-04,-3.231564947990634915e-03,8.790098076354493570e-03,1.411472320556640625e+00
6.699940602718672533e-01,-7.508249623560850905e-01,6.349319754158765372e-01,-2.524357081506686459e-03,1.083815737015867905e-02,-2.515508659618671816e-03,1.403755545616149902e+00
6.444758923668366668e-01,-7.661813260995479213e-01,6.527242646924378278e-01,1.420803730442520701e-03,-8.971886380361006677e-03,2.622394835934700914e-03,1.414894223213195801e+00
6.422702990221837993e-01,-7.646369173925373630e-01,6.431044994828338801e-01,-1.566725635707369490e-03,-6.758692787376269391e-03,1.586513782723339080e-02,1.407644033432006836e+00
5.883207143513239368e-01,-7.852049513250879409e-01,5.727369803259140246e-01,-5.305577432139357841e-02,1.473915955744592166e-01,3.217190610840986453e-02,1.393604516983032227e+00
6.227084018134058097e-01,-5.563690851440904472e-01,6.277071659999340358e-01,7.105940645458741489e-02,-3.087843756271299589e-02,-3.213869940542830872e-02,1.190483093261718750e+00
6.265032066122470100e-01,-6.962084290072640957e-01,6.594273769421192810e-01,-1.467647787599143071e-02,-2.285494299888183797e-02,1.878221926438566544e-02,1.340697884559631348e+00
6.399932151736837938e-01,-7.567411530813790144e-01,5.829454081522057463e-01,-2.235623401610545638e-02,2.828098304179689146e-02,8.171638050530366515e-03,1.370598316192626953e+00
6.283903859664041747e-01,-7.260307785867277097e-01,6.658844523023286222e-01,-2.745402306058718819e-03,1.782514874349949707e-02,-1.946972816984900894e-03,1.373911380767822266e+00
6.333456904647536412e-01,-7.060648044087871611e-01,6.601310395736292858e-01,1.262394741051564746e-02,-1.982456861598705031e-02,-5.032468765519285125e-02,1.356417894363403320e+00
6.329159200886669279e-01,-7.492695351598266384e-01,6.277170964924914109e-01,-1.160009850483825940e-02,2.368531281790963589e-02,2.979097976462216288e-02,1.381313562393188477e+00
6.085651113670165202e-01,-6.611078306615664202e-01,6.671506037962121605e-01,9.544488533667849772e-03,-1.928133836152878464e-02,-3.676924623810361170e-02,1.302048563957214355e+00
6.300862915489857663e-01,-7.552966047308428132e-01,6.716788810451519431e-01,3.132392306435098986e-03,-1.074067173495495998e-02,-2.666066355560445158e-03,1.406781554222106934e+00
6.063613620793444348e-01,-5.247083217204029371e-01,6.373555419508609710e-01,6.736652392229240498e-03,-1.781880034875343508e-02,-4.443714159070515091e-02,1.149934172630310059e+00
6.493600742559441086e-01,-5.830157372995766751e-01,6.536650007915300042e-01,1.361258134190038681e-02,4.274188963804665536e-02,-1.638054169185967357e-01,1.269096970558166504e+00
6.654156025482886871e-01,-7.634394462556461924e-01,6.393922199963739672e-01,-5.136837775667784560e-04,-4.865800033148348636e-03,-8.490313774600095204e-04,1.416048884391784668e+00
6.463594482957986109e-01,-7.696687121234306872e-01,6.435375658499578044e-01,-2.323708896533261542e-03,-2.863384774861694841e-03,-9.458587195759378397e-03,1.414728641510009766e+00
7.717373972907773938e-01,-7.439775495683282891e-01,5.320050432984975153e-01,4.312261001855031278e-02,3.122418577292531208e-02,-5.766040924344925656e-02,1.417735934257507324e+00
7.363930851310459547e-01,-7.714407181773850208e-01,5.140205103968731315e-01,-2.430260443487978692e-02,1.920460892033499373e-02,2.791313786622489149e-02,1.411710739135742188e+00
7.199725070756145540e-01,-7.302900708994144452e-01,4.249575111704950170e-01,7.325156794546627478e-03,2.365198955046588988e-02,4.135828773345030622e-03,1.328283429145812988e+00
7.382611470972559875e-01,-7.504170948798457585e-01,5.116028825165296334e-01,-3.284248717017013847e-02,2.473766167506790889e-02,1.989171872429006810e-02,1.391536712646484375e+00
5.376496965885253498e-01,-7.654565387806859800e-01,6.135938522281298990e-01,2.717892883621156330e-02,9.596546301119095179e-02,-2.589428074647684083e-02,1.354500770568847656e+00
6.813521064809116012e-01,-7.039247944108329991e-01,6.063404178374230957e-01,3.745152650283945471e-03,-1.767812057885655846e-02,-2.567997677648316181e-03,1.349706053733825684e+00
6.273215988309066571e-01,-6.025834203289970326e-01,6.416350461637558844e-01,-3.381629434207925750e-02,-3.973803984726417826e-02,2.443336833797626895e-02,1.241142392158508301e+00
7.280162835856884840e-01,-6.968810668427645183e-01,6.355864415575275261e-01,3.565385411344270620e-03,6.201620933214555681e-02,-1.268136124531789310e-01,1.402495622634887695e+00
7.406780899654434869e-01,-4.273527291509424675e-01,6.637076426614875180e-01,1.139274106052632352e-01,2.353254856834563133e-02,-1.329985103948769509e-01,1.172169804573059082e+00
6.197679413296088846e-01,-7.482564814909514750e-01,6.838744857491854123e-01,4.222321526023579610e-05,-7.028570641756615341e-03,-1.834666945774396938e-03,1.401234507560729980e+00
6.175038062513231729e-01,-4.251027781901176583e-01,5.618067964873523223e-01,-1.526042503903952225e-03,1.057231814043487275e-02,6.897579063771590475e-03,1.016142487525939941e+00
6.289116295884173979e-01,-7.536730823217371311e-01,6.825455154048195583e-01,2.881074760717741365e-03,-3.486946144239462704e-03,-5.371686717895634948e-03,1.410219311714172363e+00
2.312871361232570200e-01,-8.256439877886330159e-01,9.057331505800215732e-01,-3.189399640263752139e-02,-1.349395896462351196e-01,5.638143383129362585e-02,1.533635616302490234e+00
6.844988635852529146e-01,-7.859739381787170798e-01,5.698827747078230033e-01,8.567944392000762660e-03,6.612773026492799015e-03,-2.703391930358148981e-02,1.417544007301330566e+00
6.705881536938903542e-01,-7.803051981310550334e-01,5.972522920841055738e-01,-1.787422663667922323e-02,4.273044074789496272e-02,2.199514714664253801e-02,1.418433904647827148e+00
6.568753453515457918e-01,-7.603863308911786856e-01,6.102749747366322808e-01,-1.493566194972211457e-02,4.956759858756133730e-03,-1.402886928323372751e-02,1.395023584365844727e+00
7.287826979430884755e-01,-7.704138555374725472e-01,5.023962100151472265e-01,-1.236617450451932103e-02,4.986863456617548346e-02,2.321525217579439165e-02,1.403203368186950684e+00
6.483644377903730049e-01,-7.603914066868179278e-01,6.573041430120938333e-01,3.468399109350259798e-03,-2.755884410216087252e-02,-1.958587874873254919e-03,1.414069652557373047e+00
7.824955345503303850e-01,-8.500876477411918319e-01,5.044597429685508949e-01,-4.808503908911367780e-02,1.304245490682748032e-01,1.458792188718784424e-02,1.532097220420837402e+00
7.325746609488283934e-01,-2.328123766725335164e-01,3.622199826863123917e-01,-6.407107512038165420e-02,6.613069360585289991e-02,6.224173252766014575e-02,8.652492761611938477e-01
7.465214597293982068e-01,-7.154745532214367154e-01,4.117601395449091428e-01,4.431114634299730681e-02,1.415136934132974443e-02,7.387615009016791807e-03,1.329185009002685547e+00
1.028708335034313359e+00,-1.108998891879014126e+00,1.687374441140505055e-01,-1.376389407937658564e-02,-9.387743004090307042e-02,-1.165167738738052267e-01,1.881146430969238281e+00
9.955035170607100525e-01,-9.283783540291845604e-01,6.630601337297112319e-02,-1.729309654092722401e-02,1.697276372253451460e-01,-1.026142471146408719e-01,1.701755523681640625e+00
6.590152667565527533e-01,-7.475554018889633001e-01,6.356262045261671378e-01,-8.753024731854368648e-03,-1.646755728356074852e-02,3.391789927194489244e-03,1.395409464836120605e+00
6.662447276700917964e-01,-7.292779216104401385e-01,6.343076658394185552e-01,5.401114153073858538e-03,-2.234719445332213061e-02,-1.274803335008523877e-03,1.380407571792602539e+00
6.427677691254636283e-01,-7.114627248659778358e-01,6.434236546636550313e-01,-4.504528746836259333e-03,2.737595127125873676e-02,-4.874524353888344715e-03,1.355436921119689941e+00
6.261043954550722379e-01,-7.670420586819005626e-01,6.188167748019692826e-01,4.737759771624531005e-03,6.342894080620267369e-03,-7.886245377295146575e-03,1.389651775360107422e+00
6.028306424285934106e-01,-6.322343903394912479e-01,6.665795921603603347e-01,-1.095614458088361694e-03,-1.327862523264912269e-02,3.015098234709500877e-02,1.269426465034484863e+00
6.525442240046088749e-01,-7.589226370285491186e-01,6.485295747292973978e-01,-8.390596399524677396e-03,-6.032100163455312962e-03,-2.168641487254830032e-03,1.409582495689392090e+00
1.163376613612599808e+00,-9.552626753017241512e-01,7.974450932460043495e-02,3.464517910734921102e-02,5.596199601217693304e-02,-1.119181601043000157e-01,1.848685622215270996e+00
6.298147601432809717e-01,-4.655754774500679982e-01,6.098397261962429372e-01,-4.796187115221854994e-03,-1.168974479709733449e-03,1.020846957576264369e-01,1.099879622459411621e+00
6.656952996344299711e-01,-7.628170566951398834e-01,6.370531249302062715e-01,-3.351946836501213528e-03,3.808246790469011368e-03,-8.888926177303330123e-03,1.414519906044006348e+00
6.167302343247293983e-01,-7.423016000837204809e-01,6.897374064694952178e-01,-1.837650368803933490e-03,1.172748489157241121e-03,1.095389105092060703e-03,1.396973371505737305e+00
6.489473033272590285e-01,-7.651380168919245106e-01,6.549857761321692395e-01,8.804147759573678275e-03,7.670150085352076029e-04,7.169804362738627437e-03,1.417251229286193848e+00
6.220437671836751559e-01,-7.469932074603065075e-01,6.890855136105203949e-01,2.910579581469924129e-04,-1.435636063105876110e-03,-1.395982293903360238e-03,1.403763413429260254e+00
6.476833356314488643e-01,-6.909457134332002148e-01,6.417357356462627394e-01,5.569828634418020480e-03,-2.984874425145887800e-02,-6.999537197044911757e-03,1.336755156517028809e+00
6.804018446870930825e-01,-7.840902793852664310e-01,5.907346530710861909e-01,-6.430465769740729282e-03,4.583988497849558232e-03,-3.155104238472585150e-03,1.421856999397277832e+00
6.320778322880644673e-01,-7.572370176825867771e-01,6.138356339708024301e-01,2.149255623031863169e-02,1.884794284590441196e-02,-1.952226968222801201e-02,1.381585717201232910e+00
7.779325833497338083e-01,-7.642961579263484184e-01,5.032380660799665728e-01,-1.408381934173195960e-02,8.025640262656592860e-02,1.228729818854066951e-02,1.432011246681213379e+00
6.268193986545340657e-01,-7.540647595236544820e-01,6.844846526263022035e-01,-3.308995365157133169e-03,8.770443172885351163e-03,-1.809607357111946754e-03,1.410697937011718750e+00
7.511520085784479939e-01,-7.318570291349084656e-01,3.590864487618617984e-01,3.453172581902744231e-02,1.450530491393892674e-01,4.249004779282021527e-03,1.355856537818908691e+00
7.112627795033414912e-01,-7.646421590084219178e-01,5.925234754257668879e-01,2.156125501234680900e-02,2.772388404338174336e-02,1.678087376929570523e-02,1.421862125396728516e+00
7.143078599727563649e-01,-7.322721794142876828e-01,4.927217117085822551e-01,2.801129375159828322e-02,4.762545635186137688e-02,1.661909201809193617e-02,1.353195905685424805e+00
6.396727120505178998e-01,-7.710035598440078131e-01,6.725146903152683375e-01,-2.200347528668494031e-03,1.134227203377946580e-02,1.790600075912294944e-03,1.427524328231811523e+00
6.112886029246972219e-01,-7.325288425502549661e-01,6.647832494521297431e-01,3.763753152927517762e-03,-1.303757716023150603e-01,6.469154003430364896e-03,1.389876127243041992e+00
6.443527027212258007e-01,-7.632365702709382749e-01,6.496041935087593089e-01,-1.565526027690537390e-03,2.107285319509921533e-03,9.563002388770135143e-03,1.410326957702636719e+00
5.841118071249596921e-01,-5.773249028342974931e-01,6.571312718280927223e-01,-4.051543862942008113e-03,1.341367895329118563e-02,-7.301128403683661630e-03,1.199926495552062988e+00
6.544717320972365249e-01,-6.295729701366952202e-01,6.192928953609633247e-01,4.052477386444071697e-03,-2.590816951459254391e-02,-1.438771211445287425e-03,1.267638087272644043e+00
6.537043893643441628e-01,-7.630965491428698400e-01,6.407637848551405169e-01,-2.403909730516192583e-02,5.596874418454806342e-03,5.871495716956603474e-03,1.411059617996215820e+00
6.551372179622929615e-01,-6.204396186751446329e-01,6.123934730022606576e-01,-5.215587940947479656e-02,1.433691284976581007e-02,-9.502974267740443501e-03,1.258351564407348633e+00
6.671125015664791658e-01,-7.258636679270681347e-01,6.387470589048100944e-01,-1.781773655265132122e-02,1.941450910220617748e-02,-7.695864168435216472e-03,1.379831790924072266e+00
4.441924515527554407e-01,-7.568099032297460615e-01,7.487035054278170509e-01,-5.637936648414824253e-02,-4.738068623642262972e-02,-1.755520174963850349e-02,1.384935855865478516e+00
6.426895445263001161e-01,-7.683348201972771685e-01,6.699685816258665882e-01,-2.444236158877761272e-02,5.812763673484361033e-04,-1.452429916235950004e-02,1.425710916519165039e+00
5.780608985406041622e-01,-7.596622059311110009e-01,6.621446912086476067e-01,6.640335160808855629e-03,-9.469288530425730432e-03,-2.135955698981549175e-02,1.382325530052185059e+00
6.198108858327211479e-01,-7.774926126984148533e-01,6.239408499915715112e-01,1.087955704517091886e-02,3.480772278759897836e-02,-2.428051021872587242e-02,1.401429057121276855e+00
6.308642845780064734e-01,-7.525218906017940856e-01,6.857464598816553902e-01,3.073456799099158823e-03,4.441998912011843603e-03,8.741815194635425834e-03,1.411739826202392578e+00
5.777621178203637964e-01,-7.397257803937413723e-01,6.342758913086563588e-01,4.753607797536296524e-03,4.259399477673282003e-02,-1.553311599644997126e-02,1.348947286605834961e+00
5.412672905412879709e-01,-7.678883361376749317e-01,6.810945034863494785e-01,2.284315143345224536e-02,8.079803477413929555e-03,-7.077432272287367820e-03,1.385065793991088867e+00
6.216298592741669182e-01,-7.634799745362724765e-01,6.481963684355522837e-01,6.255062802303337950e-03,-1.057170051830102998e-03,-1.249108157167262353e-02,1.398792862892150879e+00
6.451058164619694058e-01,-7.704132151225169256e-01,6.460071641765161576e-01,-1.263973558667182986e-04,-3.330080750260931526e-03,6.312645612259572877e-04,1.415982127189636230e+00
6.726326192683915739e-01,-7.656465984329734464e-01,6.385480296151746504e-01,3.469777486329523805e-03,-3.944273603377007956e-03,-3.954291254318822481e-03,1.421589016914367676e+00
6.351352852969512908e-01,-7.611234774340874809e-01,6.744261487701075364e-01,-2.061539360405695558e-03,4.478276128920646512e-03,3.898649211082553037e-03,1.416354894638061523e+00
6.280016568862178961e-01,-5.245881550453423969e-01,6.428708526780460009e-01,-1.331441201207764491e-01,6.992491208126559721e-02,2.466469044066277663e-02,1.189747095108032227e+00
6.399020736137648324e-01,-7.660436589875442293e-01,6.626476550709865521e-01,-1.086581462537890676e-03,5.413705032848800495e-03,2.280153504239614513e-03,1.417493224143981934e+00
5.949868383323170251e-01,-7.088395712939176141e-01,6.047128660269331935e-01,1.626929622209493526e-02,6.454391938342535218e-02,-2.198720844707622094e-02,1.314336776733398438e+00
5.542203477739922057e-01,-7.903587049949029053e-01,6.143886792284893872e-01,1.881828544003824946e-02,1.631160994618839621e-01,-8.781023393556932483e-03,1.404823303222656250e+00
6.510355405353333014e-01,-7.700566530549574074e-01,6.138569831185949344e-01,-1.819860205088650804e-02,-1.054398153073058363e-02,-1.775063282657918240e-02,1.403682112693786621e+00
6.697156316937551424e-01,-7.636635394967392632e-01,6.101782920020194512e-01,-9.597763149189780796e-03,1.556316214150244362e-02,-1.327197468566131654e-02,1.405102252960205078e+00
7.543867778247754785e-01,-7.926794443956308722e-01,4.455437501742107176e-01,-2.528669754926358721e-03,-1.334370703100262179e-01,-1.584928387161773158e-02,1.437075614929199219e+00
7.180165784798796524e-01,-7.491659709127748146e-01,4.807891572867503127e-01,3.025058225715545127e-02,1.251324583648175115e-01,1.474394314013580294e-02,1.382467865943908691e+00
6.228042995330519416e-01,-7.654119236669499893e-01,5.621589859733691075e-01,2.466265419101178885e-02,6.464083871171294460e-02,-3.518183499153062360e-02,1.365542650222778320e+00
6.074561015172221801e-01,-7.591589118938184555e-01,5.915363679235197125e-01,2.457137354384252015e-02,4.119884227165250545e-02,-1.553394163042859898e-02,1.361528992652893066e+00
7.200414457683201874e-01,-8.416690592713473862e-01,5.332766849724679403e-01,-5.443026689252254344e-03,8.560733788329352723e-02,-4.915670870890070238e-02,1.487101912498474121e+00
6.459675753414119148e-01,-7.750205018144180613e-01,6.500464095513027729e-01,-2.126238258259347414e-03,2.089749456928776186e-03,1.133064211464824634e-03,1.423042654991149902e+00
6.463789702249591596e-01,-7.734286656611654154e-01,6.590917184961553321e-01,-2.641245575688207572e-03,9.226747266688621260e-03,-9.851346362903725274e-04,1.426304340362548828e+00
6.491866555011035489e-01,-7.709341993571421359e-01,6.459033435862481243e-01,2.149455102074957630e-03,-1.304240180242239797e-02,-6.953429426082693987e-03,1.418717980384826660e+00
6.347148980174021071e-01,-7.509394760487240195e-01,5.190596952107421336e-01,1.168499845949920804e-02,6.375470101735805639e-02,-5.125735556111845996e-03,1.336352705955505371e+00
6.626080157730585007e-01,-6.523311321832586662e-01,6.160786137245051197e-01,-9.263926787943988937e-04,3.480253078459158433e-02,-6.232997263058158259e-03,1.293753981590270996e+00
6.499855945162050785e-01,-7.772450244853850165e-01,6.466573041857102133e-01,4.436191919971671570e-04,1.265172993829405661e-03,-3.045217126845215123e-03,1.425580978393554688e+00
6.369163212799129337e-01,-8.076359799026814335e-01,5.995510652108185790e-01,3.141392966543634507e-02,1.016744478180287986e-01,-1.259217951586993206e-02,1.438263058662414551e+00
6.433684655875800962e-01,-7.488994640164997607e-01,6.444503030931154619e-01,-1.004457312431961645e-03,-1.186261542099487434e-02,1.674009576567201058e-03,1.392964839935302734e+00
6.550731461837666636e-01,-7.712810589826170071e-01,6.556626135003527089e-01,-3.764297239942278610e-04,2.048249526085154162e-02,-1.186689562960336003e-03,1.427091717720031738e+00
5.108910107558979341e-01,-7.606110868312768725e-01,6.749018214881089550e-01,2.386491571782386328e-02,7.957889426598201144e-02,-2.113659754682564729e-02,1.369015932083129883e+00
6.502959615918220138e-01,-7.779363911756733696e-01,6.453432402507015553e-01,-1.177228138170666964e-03,3.836009671182156328e-03,-2.233279747690137141e-03,1.425784587860107422e+00
6.039159960087605583e-01,-4.922986329677853101e-01,6.208299703645097090e-01,9.411198052487912413e-03,4.017615035467902995e-02,1.834822414535555724e-02,1.107534170150756836e+00
6.559453272026807280e-01,-7.144238685973816061e-01,6.434438098253651983e-01,-1.335120748116332958e-03,4.105547163962160184e-02,8.043210651438553564e-04,1.366016149520874023e+00
6.459371493711373313e-01,-7.102055987482841504e-01,6.481125872083334238e-01,-3.568355088627479105e-03,3.310922940035378181e-02,-3.657619550557901760e-03,1.358471632003784180e+00
6.604435025729127329e-01,-7.672805466637819816e-01,6.410897751904276465e-01,3.479758040829184114e-03,-1.121336721531065832e-02,-3.965676120439325623e-03,1.418308615684509277e+00
6.471768739068070042e-01,-7.653727191383628004e-01,6.497490510730645763e-01,-6.307088092602042978e-03,1.260058623451388096e-02,-4.981279543473643608e-03,1.414074420928955078e+00
6.634759453660930006e-01,-6.774867458553240906e-01,6.208345504229838552e-01,1.992426488436878362e-02,2.378439555306346292e-02,-3.861070421218152238e-03,1.321268916130065918e+00
6.598704204416365737e-01,-7.639019275704393985e-01,6.423301307056294984e-01,-5.596154637463703237e-03,1.221125495914764450e-02,-4.494925784247700076e-03,1.415296435356140137e+00
6.679139167808927358e-01,-7.495696252674663995e-01,6.356641948111084739e-01,7.174633977947307041e-03,5.293057465486894139e-03,-8.758426229591639032e-04,1.401722908020019531e+00
6.669777690298681616e-01,-7.430338567322372079e-01,6.360463711633432826e-01,4.892907116489371259e-03,1.100769703938603468e-02,2.909300263195972475e-03,1.394968271255493164e+00
6.465267891302832748e-01,-7.802036805028265132e-01,6.428996623405840438e-01,-1.956619629170815969e-04,2.096724028789795097e-03,6.041776556274325652e-04,1.424925446510314941e+00
6.404384386430006515e-01,-7.610111107790296092e-01,6.513187185111203314e-01,1.877354285306636955e-03,1.315924564455760171e-02,2.095422240217109655e-03,1.407114267349243164e+00
6.603578970726403652e-01,-7.754005677623875270e-01,6.447536022937405686e-01,4.171092790851060363e-03,-3.887946974487351687e-03,-4.183297593604370403e-03,1.428072810173034668e+00
6.732078668310774727e-01,-7.629194994946237873e-01,6.356054973473459491e-01,3.741373402326780059e-03,4.650271511065203270e-03,-1.460518892958249720e-03,1.417740225791931152e+00
5.870130885592412806e-01,-7.263927873209390373e-01,5.627413483310037545e-01,6.173443773532160013e-03,-1.769814132349663283e-02,1.642067348464486959e-03,1.301847696304321289e+00
6.172000433443065592e-01,-7.721390224943663894e-01,6.492638741753125053e-01,1.296488765536310366e-02,-1.995600759257592713e-03,-1.472171480559803305e-02,1.406060099601745605e+00
5.945481997127939344e-01,-7.232044945588265161e-01,5.835113077064275622e-01,-6.033622112262043181e-03,-2.461251821488580002e-02,-3.447458097383317589e-03,1.313016533851623535e+00
6.294686977933329208e-01,3.793744837000861958e-02,6.409315728175217775e-01,2.005291676189086339e-02,-2.354647327300476729e-03,-4.633625843148941881e-02,6.037262678146362305e-01
5.821140490445166904e-01,-7.258196609303372293e-01,5.664188976620545546e-01,1.241441296927971389e-03,-1.540447323351556118e-02,-1.012066789939837334e-03,1.300433874130249023e+00
6.342655229419048579e-01,-7.309637272542180986e-01,6.649792592862820984e-01,1.388622003188197396e-02,-3.221846264117664803e-03,-6.331235156562370001e-03,1.381106615066528320e+00
5.911757371382895254e-01,-7.291307999113403326e-01,5.916548469425203516e-01,-2.862980129420784631e-03,-2.844733478738006600e-04,-3.387558935153057570e-03,1.320568561553955078e+00
6.266355425042900995e-01,-7.365421163112148006e-01,6.834924423041808250e-01,1.583483073490050746e-03,-1.423628167366050926e-02,-5.298723871065750754e-03,1.392728209495544434e+00
5.689861443117437689e-01,-7.270294462006992031e-01,5.872721589596842096e-01,1.846511934752840297e-04,-1.512474144719124988e-02,-2.053606401229774153e-03,1.305522441864013672e+00
6.172177108510045196e-01,-7.072899232931456615e-01,6.836195890857719171e-01,4.148403585790218142e-04,-3.198039335543245709e-03,-3.259508389628666940e-03,1.358949065208435059e+00
4.732826998348489411e-01,-7.588179702671566940e-01,7.178580175817217413e-01,-6.407579543937435076e-03,-9.339482525332358856e-03,-1.742348172899442060e-03,1.370993971824645996e+00
5.780404536430312490e-01,-7.322581726363524002e-01,5.953727512865609750e-01,4.994705166897661815e-03,-1.278584977270149498e-02,7.252693353728284671e-03,1.319324254989624023e+00
5.864299652044745459e-01,-7.411339828145954156e-01,5.970736869709607486e-01,1.897657589581184081e-03,-1.843860224284975605e-02,9.829690188546022847e-03,1.333413004875183105e+00
6.050756369000080959e-01,-7.311091126940740814e-01,5.920034735879776688e-01,1.132587685787114079e-02,-1.405876483011527477e-02,9.793187508413108561e-03,1.330172657966613770e+00
6.026995233247338657e-01,-7.495925383580660517e-01,5.947784317207396310e-01,6.441778974725800508e-03,-1.559136008219313800e-02,8.891750818928694303e-03,1.348753452301025391e+00
6.078048344630213595e-01,-7.492513963307074754e-01,5.937826364721726646e-01,9.153622148950857004e-03,-1.588729274565269314e-02,8.706256049461900612e-03,1.350557446479797363e+00
6.409569018107361682e-01,-7.657154480505065086e-01,6.423712539459032200e-01,-2.512249006857572488e-03,5.161629480283948940e-03,-5.928096467644705615e-04,1.407415509223937988e+00
6.568980800672976628e-01,-7.550367638052009056e-01,6.397540202514180319e-01,-2.282040604840196094e-03,1.756215534474706713e-02,-3.541616004536433764e-03,1.403789877891540527e+00
6.613102998992956838e-01,-7.644442165046819726e-01,6.384453329044352810e-01,2.939645046680990949e-03,4.848778454830435236e-03,-5.141584395213333672e-03,1.414522767066955566e+00
6.540716223254556816e-01,-7.610638171445994749e-01,6.403229717122636000e-01,5.864103628722343135e-03,9.426854397583140158e-03,-9.433634019584972302e-03,1.408537507057189941e+00
6.215635637555327886e-01,-7.634966414211891150e-01,6.467427824667835168e-01,-9.239211129482496551e-03,1.796806441478855827e-03,-9.186635607100255771e-03,1.398005485534667969e+00
6.010506453712431973e-01,-7.106243095914145380e-01,6.868608296501329535e-01,-6.739351311831624086e-03,5.867508175714170222e-03,-1.609754221180679373e-03,1.356708168983459473e+00
6.519311748615630453e-01,-7.655486997031373253e-01,6.410440976900063648e-01,2.776004897233131860e-03,4.368978352595980115e-03,-6.946481845127898229e-03,1.412147521972656250e+00
6.040058883349075369e-01,-7.091932276276432523e-01,6.856607374879386541e-01,4.981479063708506598e-04,-1.145673338194192967e-02,-3.266872039602421261e-03,1.356029152870178223e+00
6.270077200186231492e-01,-7.676164140169803307e-01,6.441888328243040585e-01,-6.755314529314030217e-03,5.194045597741826954e-03,-9.606535915098033188e-03,1.403469800949096680e+00
6.416946349182932607e-01,-7.662149256358816718e-01,6.412419639179541830e-01,6.192689120460591508e-03,5.460007696582382282e-03,-9.568804715692226168e-03,1.407853484153747559e+00
6.587799041955318957e-01,-7.668504366927855198e-01,6.398130657554443879e-01,-3.274902512777344565e-03,2.700105083367613113e-03,-4.183447185566755398e-03,1.416279792785644531e+00
6.236557254375076909e-01,-6.590472918803406133e-01,6.486682374108743154e-01,-6.255982779716579706e-03,3.092795364783152215e-02,-6.327598824742998104e-03,1.296589136123657227e+00
5.556848730851255969e-01,-3.654553348402840296e-01,6.081374220381311479e-01,6.555509114358206661e-05,-1.823817894363759934e-02,-2.684174695523015700e-04,9.489809274673461914e-01
6.418823579654844291e-01,-7.581244869691011745e-01,6.657359062485748158e-01,-3.613812543364245625e-03,2.409897130618974745e-02,-1.020552648499257207e-03,1.412716507911682129e+00
6.472113631775950893e-01,-7.748566734796956679e-01,6.433105986542817512e-01,-4.461096155487388921e-03,1.190207635056978125e-03,-4.792927891894901461e-03,1.420168399810791016e+00
6.584110921812409423e-01,-7.708812278629086912e-01,6.420734771673104468e-01,-8.937902320436982135e-05,6.610381414029398682e-03,-1.213938271123771563e-03,1.421241641044616699e+00
6.223514619416172788e-01,-7.248946367420936454e-01,6.791399996401922268e-01,-3.622568570131017972e-03,2.310585830093035697e-02,1.125059030070138738e-03,1.377116560935974121e+00
6.571232006626064326e-01,-7.557462432514784334e-01,6.510181786162667628e-01,-8.869085668660795646e-03,-7.611507680922545774e-03,9.094338148289944981e-04,1.409973025321960449e+00
6.451204138055598447e-01,-7.773346692089327936e-01,6.492082876520639534e-01,1.155401335128678842e-03,-3.083431885856280884e-03,-3.702144330075325023e-04,1.424515008926391602e+00
6.442552378370991484e-01,-7.751956968322673003e-01,6.544315500570069277e-01,5.465958805050167083e-03,-1.038917034450438301e-02,-3.426929382422949373e-05,1.424711465835571289e+00
6.442527088447129735e-01,-7.716228308161008353e-01,6.564779072844981744e-01,2.002219140917838123e-03,-5.793643074102953171e-03,9.157343729683437884e-04,1.422068119049072266e+00
6.408142867172306190e-01,-7.017595540437424617e-01,6.458308230790781312e-01,2.864043356301409961e-03,-3.881885141494192948e-03,1.234528759080280244e-02,1.345285058021545410e+00
6.576858843104016472e-01,-7.644755124492721432e-01,6.438617003489599533e-01,-6.462044493542703138e-04,7.518597172361642447e-03,1.666893237192927863e-03,1.415363192558288574e+00
5.805048902541670719e-01,-7.241715129851894472e-01,5.959293413541971729e-01,7.540346533277388302e-05,-2.557145119148165977e-03,-5.006771704916966950e-03,1.312492728233337402e+00
6.340894369542139364e-01,-7.696019297604705933e-01,6.351553995973659994e-01,-1.054391348370155301e-02,-1.477598343554239416e-03,1.821489487992614120e-04,1.404345750808715820e+00
6.431295822567106857e-01,-7.745051647550733609e-01,6.460039948064387749e-01,3.717034247813686808e-03,7.935574155585494501e-04,-3.097132507274206418e-03,1.419099569320678711e+00
5.911991381612240470e-01,-4.221203671464702767e-01,5.990612104003212313e-01,4.035806165136315155e-02,-2.680219859795317933e-02,5.255434672118001679e-03,1.020769000053405762e+00
5.888007755899362650e-01,-3.308177055846913683e-01,5.834394325365384049e-01,6.790863179208173062e-02,-1.206093369679902584e-02,-5.027537845567785213e-02,9.287897944450378418e-01
6.334822472468198962e-01,-5.924523143657753899e-01,6.333309381983784903e-01,2.260908097122719604e-02,-3.552141042553880190e-02,-4.050074365839331780e-02,1.230028390884399414e+00
6.108562810531646958e-01,-5.660799732800362305e-01,6.355812382216735612e-01,-2.795669184546923508e-03,-3.552579071726004456e-02,-3.888024072201497899e-02,1.192993998527526855e+00
6.424214376976342677e-01,-5.902749167226062355e-01,6.031368167203740027e-01,4.075366522031710625e-02,-2.074198859890934860e-02,-2.054290803495608872e-02,1.216633439064025879e+00
6.374232246625837206e-01,-5.444238206003308989e-01,6.139297090967142934e-01,2.880643839821330279e-02,-2.561374073029684673e-02,-4.891414361219962106e-03,1.172210693359375000e+00
6.814744506568243265e-01,-7.477500388342090964e-01,6.330988792197391746e-01,7.823586960139534280e-03,-7.045069278363013353e-03,2.800176535136472602e-03,1.405787825584411621e+00
6.834972032202036862e-01,-7.469023106261208911e-01,6.260818054206113148e-01,-3.008846976636502489e-03,-6.231771408559399518e-03,7.468401471426357749e-04,1.402625322341918945e+00
6.576693389324890227e-01,-7.728832427654352966e-01,6.435801476160112333e-01,-2.399111182632599306e-04,-8.496982735921606786e-03,-2.365959361978194758e-03,1.423642277717590332e+00
6.222170619566245175e-01,-7.682443420618122465e-01,6.268904648102062716e-01,-6.414470712761697127e-03,-6.340817389964660718e-03,-5.593064718436169085e-03,1.392925262451171875e+00
6.877530864988055104e-01,-7.415014872203099516e-01,6.220588129435629110e-01,-2.924097413892703164e-03,-1.307352932230606635e-03,-2.059326585507787431e-03,1.397581458091735840e+00
6.836821425595978052e-01,-7.276510454275035844e-01,6.182653649131761853e-01,1.526203463667403538e-02,-7.417083097964689842e-03,-5.855912786287669749e-04,1.380101680755615234e+00
6.587557546420179655e-01,-7.695404935958494175e-01,6.413642401603090182e-01,1.178369370483008712e-03,-9.251277000478074636e-03,2.092264112028730839e-03,1.419776916503906250e+00
6.600171035756916549e-01,-6.741152679826926120e-01,6.369777008466799284e-01,2.259578010349058697e-02,-2.172392750198590128e-02,-6.077556697497202808e-03,1.323918700218200684e+00
6.014205574040238922e-01,-5.590766052733833202e-01,6.532902238487502400e-01,-1.022220040632637085e-02,-4.939811402450470200e-04,-5.480117428238420914e-03,1.187452316284179688e+00
6.831289827719310148e-01,-7.635675448206915572e-01,5.749745791061369182e-01,1.459886287381006011e-03,7.888880575179528162e-03,3.020872735612163684e-02,1.396815061569213867e+00
6.599530545725553754e-01,-7.442584187187614164e-01,6.415842215533695825e-01,4.731136333472677792e-03,-1.670380449880520812e-02,-9.341122869845243024e-03,1.395535588264465332e+00
6.494792475161113021e-01,-7.399388847012886572e-01,6.569289956473622905e-01,1.224242080257282976e-02,-2.531353008320500267e-02,-1.143046477461746001e-02,1.394149541854858398e+00
6.676069716660487652e-01,-7.642215322626620955e-01,6.416379621331276262e-01,1.343936344913053763e-02,-2.321691283995635027e-02,3.819487927730906736e-03,1.419798135757446289e+00
6.004448677763529751e-01,-5.764288275187325894e-01,6.464454279028992723e-01,-5.843208743541862538e-03,1.737852696777475101e-02,-6.304465010427298330e-03,1.201004743576049805e+00
6.479133377299519658e-01,-6.307785648831535363e-01,6.182241949828207739e-01,3.927265538441185831e-03,-3.137361536737008627e-02,-1.485248300490207146e-03,1.265297174453735352e+00
6.377971738371011057e-01,-7.535178560946584891e-01,6.581614617811344381e-01,2.111610847773380019e-03,-5.340777887154716554e-03,-2.410690129882931288e-03,1.401649594306945801e+00
6.103593315734094915e-01,-5.566045273284953021e-01,6.201641481692430347e-01,4.416891968897798844e-03,-2.688305556792060236e-02,4.499400168758673456e-03,1.172872543334960938e+00
4.751207056914798499e-01,-4.329676150010259850e-01,6.418511210489947771e-01,2.413754078709746120e-01,-1.463118947013203885e-01,6.119181949853858687e-02,1.119852900505065918e+00
5.675620912362946413e-01,-7.624470097320802386e-01,6.791752446360704853e-01,-1.079937766925902556e-02,-5.461320966103681840e-03,1.325578644015878473e-02,1.389530420303344727e+00
6.328261977192668475e-01,-6.717611978663521333e-01,6.502235094857060638e-01,-2.299328376825248224e-02,3.076044834508775971e-02,5.659362361308995990e-03,1.315092444419860840e+00
4.916389697175549411e-01,-7.494293686837713020e-01,7.098521275918099338e-01,-5.596453754335934359e-03,-2.046258422512904282e-02,1.548893431652317160e-02,1.364094853401184082e+00
4.931403223077612807e-01,-8.004109832717224426e-01,7.362636638968818037e-01,4.611626864194588726e-02,-1.511393343564131943e-02,1.604163918032765201e-02,1.433427333831787109e+00
6.263290253309417022e-01,-7.467629596939718839e-01,6.695859864648786575e-01,7.772112592353714114e-03,-1.245794796518611899e-02,5.087931613430360725e-03,1.395483136177062988e+00
4.691462562491124366e-01,-7.571136050629743153e-01,7.402542360043778968e-01,-6.390372551090463260e-03,-8.588348488046656029e-03,9.219296175417021275e-03,1.382121682167053223e+00
6.357085807083044937e-01,-7.524026993849827205e-01,6.630029186272898833e-01,2.584269253339468476e-03,-2.331500505286543748e-03,-6.386322974787244679e-04,1.401971101760864258e+00
6.354310211457685487e-01,-7.590153718844148134e-01,6.737323397537244851e-01,1.367835189708638093e-03,-8.168490876231476738e-03,-3.308237728978253526e-03,1.414070487022399902e+00
7.134392064944559131e-01,-3.868737565899045272e-01,7.695016641767522536e-01,9.120038013101849916e-02,2.128123325120419018e-01,-4.890920922235521967e-02,1.201463222503662109e+00
8.040487818068280390e-01,-7.687322212394530618e-01,3.489738371702837405e-01,-1.738764954569746793e-02,-7.038742935890289487e-02,-1.124374496557235120e-02,1.407533168792724609e+00
4.215258754326319246e-01,-7.468732039905068287e-01,7.333256598716831887e-01,-1.846479645079639534e-02,-2.311799668376213895e-02,-1.047018314334649362e-02,1.352640748023986816e+00
6.020026886964313650e-01,-7.596936534088519766e-01,6.454544937454687048e-01,-3.085067927249128972e-03,-2.429392347120117208e-03,1.623575747229346125e-02,1.384236335754394531e+00
6.685487743682529960e-01,-7.528219083670069089e-01,6.415190394506625760e-01,2.229058071655967092e-03,2.754120028588985525e-02,-2.000230481361042149e-03,1.408867835998535156e+00
7.345848830668130214e-01,-7.638797347332516585e-01,4.088977823322423322e-01,1.413595283272106769e-02,3.372999165533149823e-02,-3.588153149254114105e-02,1.367959380149841309e+00
7.097380667109366437e-01,-7.378975112968376715e-01,3.489391451976806557e-01,2.604288343852425788e-02,-1.741335562419537852e-01,-3.768189816850361570e-03,1.340359687805175781e+00
6.541809150811479512e-01,-5.183836492881753744e-01,6.165544380556903237e-01,5.542266595915294747e-02,1.388534983565110513e-03,1.025420115596562404e-01,1.171737790107727051e+00
6.781999444141463274e-01,-7.493653295992119823e-01,4.646825220695637859e-01,1.376961429318364696e-02,-8.517282348961420502e-02,1.209296204346157512e-02,1.342197060585021973e+00
5.789193695198433520e-01,-6.262523577711740508e-01,6.541766683444258934e-01,-6.486266703265960998e-02,1.122796843678484403e-02,8.782685729549755821e-03,1.249812602996826172e+00
6.100644849275967951e-01,-7.231903201391119973e-01,6.481379938816731467e-01,4.568653568617544319e-04,5.307740982626455058e-03,-1.325956035663775762e-02,1.352919936180114746e+00
6.352909886566919795e-01,-7.587345190038773390e-01,6.009768257680173642e-01,2.126294042373490581e-02,2.019171194945351341e-02,-2.125146153859111889e-02,1.378616690635681152e+00
6.563067677804825806e-01,-7.663858321289491737e-01,6.431764583581542905e-01,-2.483802038384265616e-03,-1.292908111896061418e-02,-8.628134965604845191e-03,1.416435480117797852e+00
6.571900284331008146e-01,-7.580371538604884218e-01,6.410333561378878109e-01,-4.666339673022464399e-03,-1.438428422851551793e-02,-2.650208074733830486e-03,1.407469630241394043e+00
6.515802106753150191e-01,-7.038024579609397646e-01,6.351693864266125811e-01,-8.671712312715958854e-03,-2.036786501208542183e-02,2.311168899839213722e-03,1.347803711891174316e+00
6.287130889646789234e-01,-7.058974843683031297e-01,6.716271286901818183e-01,4.554445948116225829e-02,1.702083118735589484e-02,3.202688381588029293e-02,1.360319733619689941e+00
6.117692728233299349e-01,-3.831217323560777155e-01,6.022007101465365331e-01,9.435409873869246566e-02,2.003903380733409664e-02,1.231196638916977060e-01,1.026532053947448730e+00
6.544077872910074589e-01,-7.244050221257727351e-01,6.362964757235596291e-01,2.194998759879373054e-02,1.372797658847253743e-02,5.770996893085734297e-03,1.370617151260375977e+00
4.916818547519116733e-01,-7.289424249308686932e-01,6.573451782073456151e-01,1.983184017627397187e-03,-1.800535886754651982e-02,-8.240331858107756771e-03,1.311780691146850586e+00
6.697481829729005076e-01,-7.533010044314355502e-01,6.372015590136146379e-01,-2.457967527072887643e-03,1.095025826934412951e-02,-3.375017000128151517e-03,1.407204627990722656e+00
6.291812160491105921e-01,-5.445898564851698875e-01,6.206820265621184607e-01,1.293774691158172674e-01,-9.023931244875848775e-04,5.097810399079651111e-02,1.194089174270629883e+00
5.411729328879073542e-01,-7.108713988143908757e-01,7.215321517809418772e-01,5.929824674088867570e-02,-8.317142259101312218e-02,-8.772974405190417033e-03,1.362899303436279297e+00
6.329179570768143082e-01,-5.102703869360716293e-01,6.034564860254594265e-01,-3.829548497134533519e-02,2.311209048499757168e-02,-2.121946009964100627e-02,1.131998419761657715e+00
6.668713470281010247e-01,-7.637942934853817478e-01,6.367930262205172554e-01,4.311834039929802152e-03,1.118759512492428082e-02,-2.418754923995645578e-03,1.416024565696716309e+00
6.346146603093193450e-01,-5.323207636202957893e-01,5.992948084171403345e-01,6.081423891057217285e-02,-2.366434728462904480e-02,1.126900143310266694e-01,1.171598076820373535e+00
6.600224302131202370e-01,-7.427275604037317791e-01,5.179477010667175030e-01,-1.400490347075929176e-02,-1.496190834588309593e-02,1.056044335303960068e-03,1.337856769561767578e+00
6.420864630058134015e-01,-7.746017849155228951e-01,6.450267649022733973e-01,3.893059749727754201e-03,4.602704486098049830e-03,-5.621105768199784539e-03,1.418232560157775879e+00
6.724934581199759620e-01,-7.623365897714214912e-01,6.377060879247449243e-01,3.985054672667333320e-03,-9.775251847199193170e-03,-1.825053932438195324e-03,1.417877912521362305e+00
6.634007200791690595e-01,-5.014525558111373460e-01,6.141575979236941762e-01,1.393433267656742948e-02,7.375667675002602237e-03,6.044770717120510894e-02,1.146147727966308594e+00
5.845164495615131628e-01,-5.021809938025458830e-01,6.167448391614391845e-01,5.231709901726273697e-03,1.715058565629574289e-02,-5.244455892573345740e-02,1.107333898544311523e+00
6.821619656125748055e-01,-6.561510942918493683e-01,6.026420509115952839e-01,-4.398335677876463040e-02,2.335538749531178640e-02,-1.811879990718096717e-02,1.303613305091857910e+00
6.799087479426311198e-01,-7.068846138355484587e-01,6.170245210230678179e-01,-1.946612517725796170e-03,1.259476728832200840e-02,-3.875746244827801921e-03,1.356641173362731934e+00
6.713158118341320257e-01,-7.347246157484955686e-01,6.271182211972501364e-01,-1.001526794480374696e-02,-1.163332344861930760e-02,-1.859656891920640756e-03,1.384729862213134766e+00
5.636333666841256695e-01,-6.512946403705028864e-01,6.619090199413216746e-01,-4.052315428442391371e-02,1.485895261735145460e-02,1.426110851336936415e-02,1.269371867179870605e+00
5.864554560811244821e-01,-3.656900527342742402e-01,5.877123312950830458e-01,-4.099084532325525387e-02,2.918762763784489914e-02,-2.517243499446323099e-02,9.577457308769226074e-01
6.403562302453862376e-01,-7.721896447788693107e-01,6.457790966787957387e-01,-3.523785521103180336e-03,-1.324549927996781715e-02,-1.271728184657645519e-02,1.415635585784912109e+00
6.454060360805089491e-01,-7.668766628724715817e-01,6.281576466685330207e-01,9.720055352747969737e-03,-1.565158368996815569e-02,-4.742692392303184470e-03,1.404124736785888672e+00
6.888410171806453874e-01,-7.011351933654780266e-01,6.156168781869213458e-01,5.090086190547144646e-03,-5.345229563442363899e-03,-1.010035975773823560e-03,1.354910492897033691e+00
6.779655412628186051e-01,-7.212393493640492093e-01,6.245792952580990764e-01,-1.794490730816020174e-02,-7.303528956653502179e-03,-1.839385563789186582e-03,1.373703837394714355e+00
5.702406536665369785e-01,-3.287560449450220856e-01,6.081111433058861149e-01,-6.379427127167209936e-04,3.411152970461082810e-05,-1.440616567247789970e-01,9.518073201179504395e-01
6.364284378699666123e-01,-7.563596258541057660e-01,5.676063267271137525e-01,-1.839469223992397373e-02,3.914427863521991596e-02,1.180368964670743849e-02,1.361899495124816895e+00
5.792593195620565627e-01,-4.633572045896621194e-01,6.447958039641408234e-01,-1.843310726912441785e-02,2.889674463162883108e-03,-6.978545120243918876e-02,1.084125518798828125e+00
6.145165567801202933e-01,-3.983863658013119258e-01,5.761323100852763224e-01,4.823659933810080583e-03,-4.480476616268672975e-03,4.240934274854486850e-04,9.943323135375976562e-01
6.198054995647428456e-01,-3.362782715117849097e-01,5.992271222703855482e-01,-9.197530579750093837e-04,-1.839451420640717981e-03,-1.490643085092792364e-01,9.805703163146972656e-01
6.766006974807124985e-01,-7.078421161695601649e-01,6.177872671222224277e-01,4.046474518880513634e-03,9.114370488519261612e-03,3.405100753928352788e-03,1.356115818023681641e+00
6.588836406635265597e-01,-4.868991227303608449e-01,5.971120068284427873e-01,-8.146296176832347469e-02,1.244566600003431910e-02,-1.185413517020657836e-01,1.143847227096557617e+00
8.468740950240793985e-01,-2.078230080785956613e-01,7.258405344211880106e-01,7.028709829582270585e-02,8.632256609228559918e-02,-5.377543981755399799e-02,1.022366046905517578e+00
6.537462993967155800e-01,-7.792469065530905903e-01,6.414804802090320335e-01,-3.489444311945879684e-04,3.542808950222295535e-03,8.841972341573066949e-04,1.426913976669311523e+00
6.159867510129564128e-01,-7.570922322621335132e-01,6.095270867910591583e-01,9.651432341831710227e-04,4.103768320326867287e-03,3.181577267204680468e-04,1.369880199432373047e+00
6.464876861167807576e-01,-7.541506254141959742e-01,6.455190959743937196e-01,1.001774552285827511e-03,-1.028083139257903421e-02,-1.974996348708043473e-03,1.400272727012634277e+00
5.803883722901576059e-01,-2.766382138056466822e-01,5.676398405066456210e-01,-3.136135208340744274e-02,-1.674397129064784939e-02,-3.571342296795790294e-02,8.551896214485168457e-01
6.143297375533913751e-01,-5.454263877365361779e-01,6.180581488161771553e-01,1.989125460496515493e-04,3.376345293352949611e-02,-2.213619363300676763e-04,1.163096070289611816e+00
6.377364982267534899e-01,-7.644709024714715362e-01,6.352099095676785323e-01,-1.046477424398503837e-02,-2.032539901399209054e-03,7.965826339805913078e-03,1.401135444641113281e+00
5.519066877071934218e-01,-3.896187904265385749e-01,6.048899510097835996e-01,-5.757590462235767821e-03,-3.823430128441012658e-03,-7.103168946063849638e-03,9.692559838294982910e-01
6.357328757639761907e-01,-7.711531128755367837e-01,6.357975198869374456e-01,-3.461211206866249615e-05,1.793865951646230091e-03,6.495862561132489249e-03,1.406966686248779297e+00
5.971458822685014045e-01,-7.601772613160588943e-01,6.515466409686383464e-01,5.452963379612730914e-03,7.659439262998849352e-04,1.235832781839932802e-02,1.385523080825805664e+00
6.556675619982679226e-01,-7.531316715480794732e-01,6.425603850675313256e-01,3.962322745841734620e-03,-1.606491267085764785e-02,-3.510150202847432937e-03,1.402597546577453613e+00
6.415715529760759317e-01,-7.748050935871356737e-01,6.451111333729699915e-01,-3.097212336696813888e-03,-6.572770938998888975e-04,1.937692984010310491e-03,1.418164372444152832e+00
6.223359039458891129e-01,-7.230782769283623512e-01,6.693856545226303245e-01,-4.799314075690751247e-03,-3.429344308522560419e-02,4.190320677475012356e-02,1.372777938842773438e+00
6.084018965638873233e-01,-5.729900288078831894e-01,6.429637992156385096e-01,-1.041334283880102247e-02,-1.506925076581629511e-02,5.006457933409644290e-02,1.202596545219421387e+00
6.465167430721153741e-01,-5.911033851898096492e-01,6.058838092836673628e-01,3.879539408096066913e-03,-6.651907765746728485e-03,-8.450514738074217744e-04,1.217886090278625488e+00
7.558353742182662982e-01,-6.213580003643855987e-01,5.451087850116438371e-01,-4.521305120753900571e-03,2.279062519708078063e-02,6.852240856198346663e-02,1.290953755378723145e+00
6.035302366895554105e-01,-5.463778862638745126e-01,6.220603839092426757e-01,-2.067428278290838351e-03,2.913068163466460761e-02,2.846967384655695369e-04,1.160387396812438965e+00
5.879495870785614864e-01,-5.752507498042199741e-01,6.563785186139132755e-01,3.195779878920840776e-03,2.882961762640795858e-03,-8.190936319609801522e-03,1.198987483978271484e+00
5.385942973345931861e-01,-1.764721396631669936e-01,5.438648698715755625e-01,7.570387725546283680e-04,3.807853079687869083e-03,2.656568810186106782e-04,7.177478671073913574e-01
6.616752235457554754e-01,-5.858410838812679877e-01,5.788094983866878263e-01,1.994249993778905976e-03,1.834256659078971688e-02,-3.422846004351763529e-03,1.208653688430786133e+00
7.165270518536067668e-01,-6.135467442633925073e-01,6.456174249901869278e-01,-4.095002404815192149e-02,3.007651803753145711e-02,9.010394357531230358e-02,1.308399796485900879e+00
5.567234041394140132e-01,-5.494587336393226273e-01,7.062382670478618563e-01,-8.265412085936289788e-02,-2.094344148654220805e-01,5.245036807615151980e-02,1.253682971000671387e+00
5.987100050421407804e-01,-6.064633505182546180e-01,6.656030512351349682e-01,-1.258065334186837976e-02,-1.255881517926432656e-02,2.966006725176325090e-02,1.241419553756713867e+00
6.467635560808175921e-01,-6.537646084167629823e-01,6.223306702765160070e-01,-4.185401692789127333e-03,2.800362364155508862e-02,-5.496567521242737286e-03,1.289453625679016113e+00
6.421453763341776755e-01,-7.664073038262984028e-01,6.510282011916221911e-01,-6.596541889656650469e-03,-4.108123403623966698e-03,2.222487654636818265e-03,1.413084387779235840e+00
6.431050213590864262e-01,-7.733213169498946993e-01,6.461709568774871570e-01,-5.619721778901468762e-03,-1.149293924732267339e-03,4.861467986115649599e-03,1.418021559715270996e+00
6.428712968708455433e-01,-7.718183654620091039e-01,6.565299385161420531e-01,-1.908265575571089839e-03,-8.425412191789279082e-03,-7.848275200789333553e-04,1.421647548675537109e+00
3.640566617711539221e-01,-8.482902773134173291e-01,8.292460960565207762e-01,8.975132291690510189e-02,-2.065477912269705063e-01,-1.404611343568674606e-02,1.550129413604736328e+00
5.764195407427281648e-01,-7.860289047870068213e-01,4.785070054517368554e-01,1.659309051528956927e-02,-2.160560295333824876e-01,1.618439793285689557e-02,1.368979334831237793e+00
3.986097058226688028e-01,-7.438046905803170628e-01,7.460168835756362249e-01,-3.129379379266800792e-02,-8.530628653146199447e-02,1.591499745118895096e-02,1.359490513801574707e+00
3.021610761599687889e-01,-7.910944773581253253e-01,8.167147853313428962e-01,-1.992502991083103595e-02,-4.363959270272562557e-02,1.765050023406258134e-02,1.424903750419616699e+00
2.409019978587587651e-01,-9.263381023767656153e-01,9.690827650288713624e-01,-3.200885067429690145e-02,-1.152605965623399037e-01,1.430585161690024754e-02,1.669191718101501465e+00
6.810512575823957082e-01,-7.478308588887391251e-01,6.268898758166259189e-01,2.451988596817075792e-03,9.065118799785032086e-03,-2.698478060144815591e-03,1.402688026428222656e+00
3.766091914320621181e-01,-8.138785217487070067e-01,6.382050916329209400e-01,1.275674782015262798e-01,-4.273362702276267133e-01,1.114206096979564464e-01,1.559177041053771973e+00
5.812780100716543608e-01,-7.582501435660339295e-01,6.418811547125753414e-01,-1.509667131290445483e-02,-1.961142323735868068e-02,-1.975701342260466342e-02,1.371931672096252441e+00
5.988799662517936273e-01,-7.388409277658126717e-01,6.112369083737871911e-01,-1.780585196785468890e-03,-4.010361827232501730e-04,-9.173033626019705400e-03,1.344039559364318848e+00
3.347895359371674262e-01,-7.472095796404454315e-01,8.151269823463872521e-01,1.642712952951283425e-04,-1.665804623462315837e-01,-5.161198198478246513e-03,1.415802955627441406e+00
1.819070022505436535e-01,-1.086307500391491487e+00,8.901369726509893443e-01,1.349533400435387054e-01,-2.609925596430730521e-01,8.173968714802402891e-02,1.813057661056518555e+00
1.017986386907695218e-01,-9.890014714326555989e-01,1.029739986032500720e+00,-1.471950450574072422e-01,-1.986223702435984395e-01,3.523995138911525937e-02,1.802829980850219727e+00
6.741031092082919729e-01,-6.814401635172540050e-01,6.150491738166505851e-01,-1.790594261615566576e-02,2.420327408516829981e-02,4.416012528758651856e-03,1.328048348426818848e+00
5.883268453524373998e-01,-3.541414842876440261e-01,5.787605339443349095e-01,-1.053098254613401286e-01,-1.376667138965057269e-01,-9.825050874916307908e-03,9.847530722618103027e-01
6.502625207079932856e-01,-2.173812929239985481e-01,7.712557893250423513e-01,-3.408765601522276145e-02,-1.022079944353232461e-02,-7.007120521768256394e-02,9.439033269882202148e-01
6.109886448496193445e-01,-7.255507897901493086e-01,5.505010763928773754e-01,-3.715494904177753677e-03,-8.666727715524067885e-03,-2.640832926725363516e-04,1.307447671890258789e+00
6.812270235303912180e-01,-7.422000582179127948e-01,6.236799240651409448e-01,3.732228216991882231e-04,3.060022734586038181e-03,-1.469168402710681722e-03,1.395556211471557617e+00
5.960068904309090421e-01,-7.378119665014135631e-01,5.528474196047633571e-01,3.511341051633092621e-03,-5.122557552714407381e-02,1.712823584818910783e-03,1.315783619880676270e+00
6.152701293455928866e-01,-7.675427215342683906e-01,6.469557246030566144e-01,1.128518204813580214e-02,1.553876582490760529e-03,-1.177712675942285507e-02,1.399212598800659180e+00
6.481339422197994748e-01,-5.607461803923360355e-01,6.246862602575182777e-01,-4.114218638865135835e-02,1.817554162794076875e-02,-3.132328014541892885e-02,1.201086163520812988e+00
6.347212549064458198e-01,-5.623121099385736121e-01,6.084027500402884314e-01,-4.235028471570748826e-02,2.741963906856792824e-02,4.002842245547317233e-03,1.187333822250366211e+00
6.470818687726849205e-01,-4.808883373977593800e-01,6.571825440675871377e-01,-7.697658333362759897e-02,-4.100162193656171038e-03,-1.192615181825936038e-01,1.159443259239196777e+00
6.310291580593894167e-01,-6.381600599620171899e-01,6.443922288101964213e-01,-3.829014680053608594e-02,3.483811623113648726e-02,-4.232019207958498397e-02,1.281168460845947266e+00
5.891814394306165159e-01,-3.629403581109662547e-01,6.528941536821480929e-01,-1.102686778089551345e-01,2.150647940700592831e-03,-6.342308888824353674e-02,1.009859561920166016e+00
6.720119114387534953e-01,-7.598855548953832306e-01,6.371119108479201820e-01,-2.616830609022482296e-03,-9.475010287391377045e-03,-1.128256949554132379e-03,1.414874196052551270e+00
6.459038374804549898e-01,-7.597470813475964979e-01,6.382346876468132368e-01,-1.401297148191944612e-02,-5.504695245088020612e-03,-1.801398801512139923e-03,1.402078032493591309e+00
6.600056193620396083e-01,-7.738163612543903502e-01,6.430661826954457982e-01,-1.474463064832484726e-03,-5.726628643563698093e-03,3.012774304150168340e-03,1.425474047660827637e+00
6.614995173996497391e-01,-7.728194911438421855e-01,6.433920019779000299e-01,-1.021495724694866918e-03,-1.658634083736786405e-02,-1.784354422871996899e-03,1.425645470619201660e+00
5.745044831192049894e-01,-7.407243879410954079e-01,6.119094814020138440e-01,1.766998512377883704e-03,-1.110149209965606912e-02,1.007578556879650672e-02,1.334580779075622559e+00
7.384180412173305674e-01,-7.766625701244350699e-01,4.515793153552034034e-01,-3.136403394093908309e-02,6.638435083447818963e-02,4.715592240938477897e-02,1.402142882347106934e+00
6.412125925829594841e-01,-7.728790554107576316e-01,6.285621138640351546e-01,7.897303972169370662e-04,5.876140891148531019e-03,-9.427438536981208855e-04,1.407847404479980469e+00
6.555685732055727133e-01,-7.696371809946765952e-01,6.412470069623398272e-01,-5.772872163210852024e-03,-6.354075502825737905e-04,7.130755206182582198e-03,1.418188691139221191e+00
9.075238342571650962e-01,-7.069139479969549500e-01,1.694022799747774144e-01,-2.074695087895630022e-02,-2.199042341622398367e-01,1.524904093942992533e-01,1.475027561187744141e+00
7.358095949733272079e-01,-7.758977026697508883e-01,2.914743772374657205e-01,8.318032345968823238e-02,-3.508167478224316627e-01,1.374921444352486533e-01,1.502555966377258301e+00
8.540608580957597118e-01,-9.089791094772097235e-01,3.057199329526760767e-01,-3.686287170383465914e-03,-1.616517801039795976e-01,6.833570980035409692e-02,1.592069268226623535e+00
6.393915580731268644e-01,-4.513466006636838168e-01,6.043512667446282460e-01,4.236559649761085199e-03,8.298928362538961212e-03,-6.687172998765689158e-02,1.079997062683105469e+00
9.555176768491721040e-01,-8.332149937847671550e-01,2.599933789593946720e-01,3.392534886205858524e-02,-1.067555358534546250e-01,6.081714233009878623e-02,1.577323913574218750e+00
6.413824655556937815e-01,-5.086009568269570513e-01,5.983990844951989629e-01,5.516595291775684001e-02,-4.241459585242798175e-02,-5.592805066874229070e-02,1.139644622802734375e+00
6.242483697737647441e-01,-7.543353281708334857e-01,6.833664020760086277e-01,-2.094751536636175332e-03,-6.446967985485010282e-04,2.749206480241670348e-03,1.409086346626281738e+00
6.688513769642177031e-01,-7.658846214261743057e-01,6.355757646734672139e-01,-1.755885866803500502e-03,6.190683632413629921e-03,8.306745302075018138e-06,1.418434739112854004e+00
6.464405908678328982e-01,-7.779764766140500054e-01,6.499063685173669391e-01,-1.321625338921211725e-03,5.607563182357513075e-03,-2.228533969624316781e-05,1.426187992095947266e+00
6.428953140974441594e-01,-7.770498660883135011e-01,6.441859903712147117e-01,-2.751580728284404569e-03,5.075877962479805180e-04,-3.409858980316990331e-03,1.420611500740051270e+00
6.539549304296612409e-01,-7.699620172826694420e-01,6.434702088972037437e-01,-4.182957172281532958e-03,1.060502511570082448e-02,-7.681723271871273434e-03,1.418903470039367676e+00
6.467490850744062048e-01,-7.754341799213537723e-01,6.501248974303410755e-01,8.684343186329045259e-04,8.365890890404683103e-03,1.640128185405791443e-03,1.423951506614685059e+00
6.466086398933308388e-01,-7.782887168054062332e-01,6.474967093101847704e-01,-7.871300073914564051e-04,-5.401789530400640665e-04,1.006495835000326927e-07,1.425342559814453125e+00
5.515698070907903983e-01,-7.424757595588196146e-01,6.494858236169522847e-01,-2.214428542036880714e-03,-1.186949919695854186e-02,1.724718428130478029e-02,1.346171975135803223e+00
6.259884769544432626e-01,-7.479537339981775501e-01,6.838774487588409334e-01,-6.620440039634087901e-04,1.000974251555941213e-05,-6.192872594768210684e-03,1.403823614120483398e+00
7.421795595951475866e-01,-7.407258327452580504e-01,3.468764944154630325e-01,1.814138268306006788e-02,8.948901171153435252e-02,-4.130158161059290130e-03,1.339454770088195801e+00
6.476176733408581798e-01,-7.790873698286193694e-01,6.426306782139545870e-01,-7.460111508691043020e-04,1.302635421367441277e-03,-2.460540431771796911e-03,1.424226880073547363e+00
5.512950816767685502e-01,-2.154526254767070714e-01,5.531179824049041738e-01,-7.946391108796309766e-04,4.691899727852473848e-03,-3.637042840573341020e-03,7.677308917045593262e-01
4.698112881616464676e-01,-7.532047851061175470e-01,7.183413367354835044e-01,-8.473087688086355929e-03,1.486957601605920097e-04,-9.025483072899848427e-03,1.364533424377441406e+00
6.759725193446683988e-01,-7.573924240940935748e-01,6.253635768699545849e-01,-6.556605376804800107e-03,-1.596391284075196135e-02,1.050981852404533120e-03,1.409060716629028320e+00
6.838269889753065822e-01,-7.487132481591609601e-01,6.273948402990390250e-01,3.623914391530977559e-03,-7.315497879274161959e-03,4.855380808336496549e-04,1.405245661735534668e+00
6.597259668008351730e-01,-7.576255861687695159e-01,6.375346674426174420e-01,7.151300364411525452e-03,-4.509859530135292179e-03,-2.582371670278465516e-03,1.406470537185668945e+00
7.087063521632113172e-01,-6.216723019543005657e-01,6.362550228947747577e-01,3.003374410680753268e-02,3.259046825906824086e-03,-1.084299491000152021e-01,1.310258746147155762e+00
6.715703954796683472e-01,-7.554377452302477591e-01,6.358153358088522999e-01,-7.030802289266925575e-03,-1.323076944451200172e-02,-1.763591947875946470e-03,1.409713029861450195e+00
6.634154335486233123e-01,-7.561026554109256947e-01,6.359377096233993498e-01,5.003421920640237740e-03,-2.386143703114131445e-03,-4.258788605492408279e-03,1.406032800674438477e+00
6.369723743599812193e-01,-7.720050108811926659e-01,6.599792959177757101e-01,1.995932433650824886e-02,-9.866157618442960436e-03,7.479102585687360215e-03,1.421202898025512695e+00
6.121158574048931600e-01,-4.184918372158292765e-01,5.508211639908267010e-01,1.525700885572006628e-03,4.518482570202115439e-03,-9.734486181600247520e-03,1.001544356346130371e+00
6.503081159919611443e-01,-7.041764768671417984e-01,6.348709821145825938e-01,1.267178965776691313e-02,-8.022657304851976007e-03,6.375832290753711586e-03,1.347128152847290039e+00
6.824741643220784137e-01,-7.058908111928945406e-01,6.187179984278649014e-01,-2.778568406975876967e-03,-1.512338585279345395e-03,-7.396292870837622557e-04,1.357621788978576660e+00
6.085670850290585410e-01,-6.570940589150864319e-01,6.592456577115408667e-01,1.768638244988782193e-01,5.572994417272042478e-02,-8.923760306060679603e-02,1.340021729469299316e+00
5.970480485551457051e-01,-4.220029443355440835e-01,5.857146301011130207e-01,5.643554597530198169e-02,-1.414190182815075643e-02,-4.057829444749464637e-02,1.020851969718933105e+00
6.361821171429331567e-01,-5.925555285784139814e-01,6.365398203980662251e-01,3.492703850128205806e-02,-3.131559355672748624e-02,-3.010882442185336752e-02,1.232703208923339844e+00
6.354010813094095322e-01,-6.681439592316799070e-01,6.487615007572040682e-01,2.056908955361082258e-02,-3.597822682206176792e-02,6.613212424652611943e-03,1.312291026115417480e+00
6.054344961209592313e-01,-5.042382714865877302e-01,6.368001292468565833e-01,7.526529704067011842e-03,-1.770811811043465980e-02,-5.906013027136561983e-02,1.130813002586364746e+00
4.064536313384337629e-01,-7.362375149541969810e-01,7.221944146208459925e-01,-8.929632484684521749e-04,-2.252638427291944398e-02,-3.920893632243944646e-03,1.329586505889892578e+00
6.502378266047537103e-01,-7.637260123810802881e-01,6.354662064373004515e-01,7.283492251914744191e-03,-5.207579616091472484e-03,-5.512790810815007200e-03,1.406754136085510254e+00
6.611295130369800876e-01,-5.821749996323372089e-01,5.986100948930509480e-01,-5.710885844669793925e-03,1.800527161872554627e-02,-5.257781161597636747e-03,1.213728785514831543e+00
6.421506457598334938e-01,-7.742217126841680619e-01,6.454216991847431251e-01,3.514637081008113121e-03,-8.164389692718000344e-03,-7.158924865495471836e-03,1.418148517608642578e+00
6.604375749672359852e-01,-7.719971937743606016e-01,6.429790664722460081e-01,1.352316713798719242e-03,-8.611857033514757481e-03,-2.473670466943442107e-03,1.423872351646423340e+00
6.492843785329476258e-01,-7.777350218482594890e-01,6.449676189278963356e-01,4.538343934146671279e-04,-5.318129001693538971e-03,-1.783960213728294410e-03,1.424899220466613770e+00
6.471708331564741679e-01,-7.732245203762907471e-01,6.433399766755654170e-01,5.265984806737081247e-03,-7.955897074666380903e-04,-6.374341100912425499e-03,1.418556809425354004e+00
6.401837164110287803e-01,-7.629773856968417034e-01,6.532169784142822788e-01,7.859470633536886491e-03,1.454118478271226021e-04,-5.950932596467914046e-03,1.409826397895812988e+00
6.343539967117581835e-01,-7.613539348543790775e-01,6.041578858674002683e-01,1.403550492279365992e-02,9.931122370247952649e-03,1.664471263736717844e-03,1.381181597709655762e+00
6.271927167344762966e-01,-7.674949250844647075e-01,6.191272262945575200e-01,5.778043835386197785e-03,4.894353064304886661e-03,-5.137743988392086229e-03,1.390762805938720703e+00
6.565461780289980620e-01,-7.391904731193744693e-01,6.398633002783280510e-01,-6.513312998732729599e-03,1.856291824291650058e-02,-4.297083871035596234e-03,1.387908697128295898e+00
6.273688117169371470e-01,-7.668098559076931275e-01,6.196797938530798078e-01,2.995439092781329408e-03,7.061349199631383224e-03,-5.814444115359282232e-03,1.390450000762939453e+00
6.154429624737092208e-01,-7.609772337158963174e-01,6.638934328788184125e-01,1.351620365054725069e-02,2.975657783060992392e-03,1.255087395776817135e-03,1.401480436325073242e+00
6.220546684355670042e-01,-7.541489484370756946e-01,6.205576719659405827e-01,1.261306383893160896e-02,2.463530195845385282e-03,-9.567189891036328303e-03,1.375735640525817871e+00
6.247736042741967033e-01,-7.560327960779050782e-01,6.736896911051195591e-01,-5.390020556182279626e-03,-1.612843873726579544e-02,-1.198938572663321191e-02,1.406364679336547852e+00
6.487067196841294070e-01,-7.675459807248423694e-01,6.600290014990980447e-01,-3.088613772695897753e-03,-1.188948647172243141e-02,-2.523160579313943699e-04,1.422106862068176270e+00
9.810212475607444915e-01,-2.043051233112886944e-01,6.687784580350496499e-01,-4.150629868001898953e-02,-5.224661234869405844e-04,4.562054819341703621e-02,1.069484591484069824e+00
7.178858889170188773e-01,-7.304016407155329293e-01,4.068776728431220957e-01,5.012552280763466926e-04,2.279476053966229473e-02,3.085317674752936865e-03,1.321144104003906250e+00
6.362624827349556700e-01,-7.676614262928396215e-01,6.681564864721836194e-01,-3.516101881019595161e-03,-7.450844968596340157e-03,-1.353142803825040487e-03,1.420213222503662109e+00
6.376718795957607711e-01,-7.514230346442337671e-01,6.606469037857447546e-01,-7.435249699835961212e-04,-1.616048607970500903e-03,9.085314950774222740e-04,1.400727987289428711e+00
6.629653795823469142e-01,-7.242503589881638115e-01,4.766433389497140571e-01,-6.103848148825998660e-03,1.899020440252418077e-02,6.690923517407615546e-04,1.304534196853637695e+00
6.397277142021626783e-01,-7.611316799853558024e-01,6.369543840975427917e-01,1.167821095625474342e-02,-1.465811296169720499e-03,-7.425734683870550273e-03,1.399682402610778809e+00
1.031134444951082418e+00,-7.390295368539668841e-01,2.876803162701383476e-01,-1.185750565156497467e-02,-1.240877855293639059e-01,-2.103923398894146646e-01,1.596740007400512695e+00
6.453595243793186498e-01,-7.657698654958057238e-01,6.504943035032459964e-01,-7.452345145084233666e-03,3.613202041102185277e-03,7.305638636110467835e-03,1.413833141326904297e+00
6.426020282560465091e-01,-7.758310877201354261e-01,6.424437049760793883e-01,2.773508772279654772e-03,-9.330036417151167660e-04,-1.777279199253543884e-03,1.418366312980651855e+00
6.222603489807028154e-01,-7.641667270781549171e-01,6.405136424381014937e-01,6.596806015752605147e-03,-2.762270288848811886e-03,-7.879283223922648599e-03,1.395764946937561035e+00
5.517550037707212862e-01,-2.551818259110669729e-01,5.571761762998730383e-01,4.810808944707630451e-03,-4.842627025694566656e-03,7.995889220486421386e-04,8.097485303878784180e-01
7.518665071641214004e-01,-7.626146662774415663e-01,3.999674193524652699e-01,-1.011435448199443253e-03,7.308068867563187986e-03,4.263351505638347111e-02,1.374830126762390137e+00
6.413941433019644256e-01,-7.702271673547494979e-01,6.374270296312138928e-01,9.585287915661386401e-04,-4.818040100149630772e-03,-6.877344512627672594e-03,1.409717917442321777e+00
6.377228515149495625e-01,-7.718291753806505451e-01,6.359027219149235854e-01,4.479689838858829536e-04,-2.642236592572964286e-03,6.288908890682451576e-03,1.408692598342895508e+00
6.304639902813705676e-01,-7.560036615921229552e-01,6.774473038374797529e-01,2.874091452767126367e-03,-6.479883905913603331e-03,8.539943833829490407e-04,1.410600543022155762e+00
6.045467507637225513e-01,-7.534898819623730981e-01,6.127500122663891435e-01,5.462533741644216845e-03,4.096659727493795131e-03,-7.549204255382685816e-03,1.362270832061767578e+00
6.078638945787533387e-01,-7.317173527016895829e-01,5.970678878506736620e-01,1.372297512088772008e-02,1.342517167615357720e-02,-1.192497959163601497e-02,1.334790110588073730e+00
7.313416328053125026e-01,-7.365903157259232614e-01,4.048781605951217721e-01,3.429896569573528953e-03,2.623698615656570518e-02,1.535939497628295396e-03,1.335770964622497559e+00
5.860066737912299484e-01,-7.340186396604470032e-01,5.948571760224523608e-01,5.326551302872730050e-03,3.788351727296552542e-03,-7.359719429851662754e-03,1.324582457542419434e+00
7.143255611447062448e-01,-7.494640223639290610e-01,4.348256381030518591e-01,1.077138300824382645e-02,5.967374422520300287e-02,-1.944313259661734072e-02,1.350494742393493652e+00
6.475117606820188776e-01,-7.706804085968262941e-01,6.511488412231600797e-01,-1.375176990254698426e-03,-1.104359193268611428e-02,-8.415393263044655247e-04,1.420145750045776367e+00
6.098948057971242953e-01,-7.404671992705628147e-01,5.913400494572165211e-01,1.005136625536834187e-02,1.003125568117049955e-02,-1.801198732437614847e-03,1.341410040855407715e+00
6.486624802462204187e-01,-7.568018476459323907e-01,6.442464166888227650e-01,-2.986350795319068011e-03,5.075182781868478078e-03,2.007963864699660757e-04,1.403298616409301758e+00
5.299830467342321327e-01,-7.444940246013197482e-01,6.342397557230592398e-01,1.960868145385321823e-02,-2.146007230618680178e-02,1.724881416159991174e-02,1.330962657928466797e+00
5.705681174656560550e-01,-4.902728685940751507e-01,6.109506617414997010e-01,-1.315389234150546533e-03,-2.134271661403466108e-02,3.999404136665008110e-03,1.082253932952880859e+00
5.695573755107474767e-01,-7.525422048424232901e-01,6.337517609046365852e-01,1.355906193052582205e-02,-4.058795400316309032e-02,1.821060988322505125e-02,1.357729077339172363e+00
5.284477306386239359e-01,-7.480178455406488736e-01,6.787076549625822297e-01,-3.653262633798355814e-03,-2.136697930231509779e-02,1.368586811276453416e-02,1.358571171760559082e+00
5.560979845790083864e-01,-7.620846622724419817e-01,6.762019973028067232e-01,1.641986583294764018e-02,-9.316342476556297922e-03,1.327195392325530160e-02,1.382731795310974121e+00
5.815488284055700952e-01,-7.452099396969695810e-01,6.616608537863091222e-01,1.440751778076429165e-02,-4.077103892085254949e-02,5.759976367372089331e-03,1.370658636093139648e+00
5.705837118550318721e-01,-2.547653855940928969e-01,5.424324768174288991e-01,4.805547430006976498e-03,-2.359964624936311019e-03,7.987144227874592951e-04,8.116938471794128418e-01
6.084705837773265458e-01,-7.233803691242945977e-01,5.587140498894653806e-01,1.139282236612447659e-03,7.081923616101423735e-02,-4.234386245349001346e-04,1.313424825668334961e+00
6.071514424535776611e-01,-4.063301137246658756e-01,5.553503548680434054e-01,-4.359737230642040870e-03,-1.844389444076482976e-02,2.554068614867674187e-03,9.891541600227355957e-01
6.027988647892104090e-01,-4.856496904516232060e-01,6.132280614788536699e-01,5.009017120227820911e-04,-2.947737603137796925e-02,4.126080656978149902e-04,1.094892144203186035e+00
4.503134980892792849e-01,-7.706346463594376806e-01,7.184461544941470601e-01,-8.016119146330288533e-03,-1.124419001015311281e-01,-3.177466336714755701e-02,1.389653444290161133e+00
6.171494847142475759e-01,-7.257806940792852490e-01,5.514773264176611178e-01,-7.320125472266134428e-03,-6.763857988738126992e-02,-4.205400474880244266e-03,1.316632032394409180e+00
4.666144668195313372e-01,-7.296004498264180294e-01,7.011871430882604672e-01,7.403549319614695541e-03,7.414335757193833698e-02,1.484469448918139013e-02,1.335616350173950195e+00
6.297246373708449418e-01,-7.574216168093395041e-01,6.170417523110602875e-01,5.309948498103483037e-04,4.734712076291068376e-03,1.024701161578686018e-03,1.380874276161193848e+00
7.247837915150228127e-01,-9.264994189932083124e-01,4.380909053311222712e-01,8.179614015090803936e-02,-2.033236394449295936e-01,2.259048008430196777e-02,1.575164198875427246e+00
6.695191097948816061e-01,-7.488347743843662974e-01,4.430930536464826597e-01,-9.425467351457167062e-03,-5.895742799729566247e-02,-8.215261158644940678e-03,1.323911309242248535e+00
5.658783959907751626e-01,-7.296195007944267230e-01,6.136990415993732739e-01,-1.368541942099808437e-02,-6.335980881380452734e-02,-1.653398681514440388e-02,1.325133442878723145e+00
6.103753529264666078e-01,-7.257384056414701856e-01,5.490812679179961631e-01,4.861049742759496889e-02,-6.175214625767060789e-02,3.399266595094303789e-02,1.314935922622680664e+00
4.565440573668821944e-01,-6.599299353387889644e-01,6.128700661114474535e-01,1.003088118865347877e-01,3.260611300212618580e-01,3.058286969440600182e-03,1.339644432067871094e+00
6.156883881024035610e-01,-7.403145687675607434e-01,5.415816378866855629e-01,1.195629315980409856e-02,-3.446787640111324130e-02,7.541729957971257496e-03,1.322085618972778320e+00
6.740882467068818329e-01,-7.073572118953241894e-01,6.120430754622885328e-01,1.482028268333459957e-02,1.614461014445379289e-02,1.208576613726970728e-02,1.352186441421508789e+00
6.380638840064710715e-01,-6.569427868391892744e-01,6.453206202669747871e-01,2.420437733098123809e-02,2.698637135721937766e-02,3.693670488685153047e-02,1.301740288734436035e+00
5.847942457947217232e-01,-7.251801619794666642e-01,5.818398497025698557e-01,9.652848473112366455e-04,2.421967665102142328e-03,-8.824913100370364132e-04,1.308508396148681641e+00
6.855641372257974542e-01,-7.433408317214232897e-01,6.242859533533782201e-01,-1.572678675716620341e-03,1.939819790047194131e-04,1.107207529219836166e-03,1.399276614189147949e+00
6.851445557168438505e-01,-7.500243674963926743e-01,6.329778481005154944e-01,-1.164445551116357128e-02,3.568683048858202651e-03,1.697108212867057004e-03,1.409970521926879883e+00
6.769163878601272000e-01,-7.236574126595924916e-01,6.224249527972246510e-01,2.367658220563749905e-03,2.305586707692596632e-02,6.710373589702507691e-03,1.374773979187011719e+00
6.650836578154200041e-01,-7.478011062861799063e-01,6.316653951648550924e-01,-1.938323054824709138e-02,1.062089470292202666e-02,-1.416490567984601302e-02,1.397215604782104492e+00
6.830752582678388807e-01,-7.523278339826073857e-01,6.230543504201528915e-01,-4.440188700116516271e-03,-1.911303077469637523e-03,2.659683025311383774e-04,1.406378507614135742e+00
6.790004364646453627e-01,-7.563156331005913557e-01,6.282918139364783716e-01,-3.864905466273075782e-03,4.420447384247316348e-03,1.119753105230454664e-04,1.410682201385498047e+00
6.419363746993429487e-01,-7.693622099940967685e-01,6.423122029581861403e-01,-2.673955317478184796e-03,2.327062407769952320e-03,9.905263908693938760e-03,1.411604166030883789e+00
6.861149347617232497e-01,-7.186863207824013555e-01,6.151207170712282846e-01,-2.228303647807231003e-02,6.863204296954664337e-03,8.479324408007577916e-04,1.371279358863830566e+00
7.369821369424355284e-01,-7.677023230803591280e-01,4.740890180878380988e-01,-1.000107861100312315e-02,1.820887882441793795e-02,-9.042656526166360093e-03,1.392536163330078125e+00
6.461733544380635630e-01,-7.756584383069041744e-01,6.461189268340601366e-01,1.967152924250966349e-03,-3.706319213594917381e-03,-1.853410716495688297e-03,1.421826720237731934e+00
6.438402634736744012e-01,-7.759070767986255834e-01,6.466415359098596216e-01,2.730344894460525178e-03,-2.751490153357245838e-03,-1.804171062442524488e-03,1.421169400215148926e+00
6.428278551882786740e-01,-7.764429033793190937e-01,6.437409886446976426e-01,3.225798564325158858e-03,1.803092544326640085e-04,-2.811797171670866752e-03,1.419746875762939453e+00
6.043304213162579153e-01,-7.051246817946649204e-01,6.825838869026585876e-01,3.690496683444867681e-03,-1.383206821269136917e-02,2.696381117222767382e-03,1.350519299507141113e+00
6.439149913600892283e-01,-7.763478604146033524e-01,6.432231379188730891e-01,2.917717781985979669e-03,6.113484926136740841e-04,-3.118746083815676119e-03,1.419936656951904297e+00
2.368620883731432647e-01,-7.856000054561936841e-01,9.205191669733866489e-01,-1.640708994121983511e-01,-9.827395876660663387e-03,7.922758913211380705e-02,1.520430088043212891e+00
6.466286384035380141e-01,-7.758413617600287138e-01,6.442425907380241457e-01,1.904419419179813767e-03,-2.222137615493926990e-03,-2.621451680996251046e-03,1.421294808387756348e+00
5.895649718287809815e-01,-7.304619186361820393e-01,5.937064601315968915e-01,2.837432847268153181e-03,-3.644918441889839853e-03,6.335485239393108710e-03,1.322172284126281738e+00
5.787932439893357373e-01,-7.239820751098393625e-01,5.869739543447541896e-01,5.497081192506171827e-04,2.835689717971118066e-03,-1.544259894621176918e-03,1.306897163391113281e+00
5.867207772202716054e-01,-7.319133630606483587e-01,5.824958629847858393e-01,-1.011687877191862900e-02,1.135240279999542336e-02,4.450679972778100180e-03,1.316812753677368164e+00
5.983071227368296219e-01,-7.386874044117406335e-01,5.927169255135895654e-01,1.797984511453254615e-03,1.944097666519313148e-03,9.190604612561244138e-04,1.334217071533203125e+00
5.882692326046855547e-01,-7.299130532239531677e-01,5.929591568959236003e-01,-3.536606686693366530e-03,1.552140899204788350e-03,4.361435893201955419e-03,1.320572018623352051e+00
6.517681836763469239e-01,-7.791303683953860748e-01,6.507290308700571790e-01,2.203890807251492664e-03,3.915522744941076980e-03,1.149675848330753694e-03,1.430401802062988281e+00
6.051586129006678583e-01,-5.880306988242972599e-01,6.510377173183454769e-01,4.570562718180324474e-03,2.483149806659920578e-02,4.014832829366200145e-03,1.217583179473876953e+00
5.881400211416956125e-01,-7.284349030986574380e-01,5.711982663512689129e-01,-4.543544111864660819e-03,1.834387417391522904e-02,1.055363890594459208e-03,1.308597087860107422e+00
9.474376540211393305e-01,-9.292359060954946681e-01,1.772550207690232749e-01,5.844480485213285337e-03,-2.513240901210972988e-01,2.236244818573865714e-02,1.691389322280883789e+00
9.129299972831341758e-01,-8.176842126882557515e-01,2.478593513621480671e-01,-1.149738604569066312e-02,-9.102588010180856504e-02,-2.176301367519431831e-02,1.520867586135864258e+00
6.701175028924052368e-01,-7.373824028682570697e-01,4.517409090593677568e-01,2.353280897633536553e-02,-7.112020376148223133e-02,2.694323805235009084e-03,1.318422079086303711e+00
7.507503807102079429e-01,-7.392591493208292563e-01,4.129357028957242326e-01,-1.727302749953113069e-03,-6.255003435939267276e-02,-2.107124729751435124e-02,1.357931733131408691e+00
6.711137115665528619e-01,-7.444600192613592959e-01,4.980072243968496903e-01,1.613714132026372941e-02,-5.938561168233531806e-02,-2.738383222289277204e-04,1.341689705848693848e+00
6.242406516039289421e-01,-7.534992911271901628e-01,6.866866881414528390e-01,1.360916652460391263e-03,-4.020990664716079382e-03,-5.168961589291865217e-04,1.410019874572753906e+00
6.249846250101338541e-01,-1.930320753819925184e-01,6.049124783822540374e-01,-9.678708469545372478e-03,2.048361312072588189e-02,6.750016686680157529e-02,8.175227642059326172e-01
6.403146233968977086e-01,-7.663738604555567768e-01,6.500202216389299181e-01,1.106234442970613872e-02,3.539371825715797743e-03,-4.660911731281721163e-03,1.411732792854309082e+00
6.906559879053477680e-01,-7.400411336919431315e-01,4.737975991133219766e-01,3.814936878304972696e-03,-2.813408686246940058e-02,-1.071674271712877782e-03,1.336444854736328125e+00
1.810975098269219652e-01,-7.917838698321739699e-01,9.029089944122887790e-01,1.082415393962303084e-03,-2.284035830638261530e-02,-1.016094666718820282e-02,1.473643541336059570e+00
7.646662838645329474e-01,-7.683957161126279134e-01,3.551738277156148982e-01,7.351699029011870765e-03,-8.383032173193939729e-02,1.258553719092580028e-02,1.382716774940490723e+00
8.945754300641792778e-01,-8.636764357514590262e-01,1.948228068720835315e-01,-2.669628668745301775e-02,2.220840685897283381e-02,6.233926636538855703e-02,1.538193225860595703e+00
6.757418625135931389e-01,-7.124675826311359650e-01,6.283146649658326588e-01,-8.105742150061684415e-03,-1.407086095381599594e-02,1.984855596342221043e-03,1.365407943725585938e+00
8.193025572752269392e-01,-7.667092147295191396e-01,2.845131833049221459e-01,-3.280888989961096205e-03,-1.286951795207078725e-02,-1.985715588624748212e-03,1.397781014442443848e+00
4.558315834974169256e-01,-7.633018939821252236e-01,7.145280060268175415e-01,-3.450445473294333487e-02,-2.124858143663399535e-02,-2.473523257873127754e-02,1.369436860084533691e+00
8.029392056878293937e-01,-7.560732442623506744e-01,3.227034932796906119e-01,2.018288593280735330e-03,-1.840006893641998181e-02,2.029343569415660575e-02,1.383732676506042480e+00
8.054579348589004928e-01,-7.555837249506692777e-01,3.379285481058901253e-01,-4.992991499214702138e-03,-2.552448979967152434e-02,1.414345382574687046e-02,1.388607740402221680e+00
5.583609765302883776e-01,-2.378573075617560484e-01,5.529139943558829540e-01,-4.694883962966250532e-03,-6.917655813074113881e-04,3.149933621065489995e-03,7.935701608657836914e-01
5.859129125062559895e-01,-7.250755814204442595e-01,5.825697409066052934e-01,2.849138655804148265e-04,2.290018432346418217e-03,5.815144231351086464e-04,1.309326648712158203e+00
5.895094984827293771e-01,-7.276103571181562479e-01,5.904504159664772933e-01,6.844918554186210993e-03,2.444002562977773060e-02,-4.380298255991521734e-03,1.318345546722412109e+00
5.892857601883856322e-01,-7.338649608169319771e-01,5.944647891414607255e-01,3.131433449002980936e-03,2.046932411043366016e-03,-6.357191949818287273e-03,1.325809359550476074e+00
5.929087993712400806e-01,-7.288607090268034439e-01,5.687757902438450586e-01,7.125964232119040391e-03,1.903472725303665888e-02,-8.848354855073976800e-04,1.310343623161315918e+00
6.155352954510890928e-01,-7.555459032120278584e-01,6.159075266056550646e-01,1.014798784404417203e-02,1.091962553153974502e-02,-6.894333806126051213e-03,1.371562361717224121e+00
6.511475145859706437e-01,-7.318104935561792201e-01,6.472364061954949399e-01,-1.004793253625235402e-02,-2.240074591276610544e-02,-1.021605149107211686e-03,1.381662249565124512e+00
6.277513043811308036e-01,-7.656435060606116005e-01,6.294273343002294574e-01,3.461887887438025273e-03,7.392640206864638285e-04,-6.085789096908045259e-03,1.394286870956420898e+00
6.134812185288929243e-01,-7.587835704798662206e-01,6.222622326893786360e-01,3.229066482798809774e-04,5.349442023242791631e-03,-8.702190944153063296e-03,1.376790046691894531e+00
6.238127920706111329e-01,-7.431893370220500339e-01,6.870616761989968291e-01,-1.324521352120468145e-03,-1.011062265548581433e-04,2.835026336054574398e-03,1.399709224700927734e+00
6.028717072431686308e-01,-7.524690224114871651e-01,6.224435402783149440e-01,5.284648635967247043e-03,3.929761831325926540e-04,-8.289795325550878766e-03,1.365338206291198730e+00
6.489333516394388823e-01,-7.630139350070854753e-01,6.165243688234549602e-01,6.978922123448226718e-03,-1.753930179351264641e-03,1.266928623950143093e-02,1.396253108978271484e+00
6.951553919365504042e-01,-7.646548302970939126e-01,5.143835177854606533e-01,6.581957279391133751e-03,1.884108259219964849e-05,2.840689156973584886e-02,1.379268884658813477e+00
6.699029779224687786e-01,-7.623919315160495591e-01,6.375789237110291996e-01,-4.175044438243564852e-03,-2.955651777276743081e-03,3.601157328433712747e-03,1.416450977325439453e+00
6.160630559841706599e-01,-7.267747806003970190e-01,5.555917659549309828e-01,-2.925359866792605346e-03,1.340510305627440335e-02,1.843833663226463132e-03,1.313865303993225098e+00
6.343301970562229553e-01,-7.531335544177084618e-01,6.735783728763138356e-01,3.943585577490277272e-03,-1.707038270421438672e-02,-8.054111732314519004e-03,1.407894492149353027e+00
6.289228447343973016e-01,-7.552928595699635039e-01,6.778735877264866483e-01,-7.189380499102943425e-04,-4.579722913979328465e-03,-3.458904910336661580e-03,1.409364461898803711e+00
6.360489997674795282e-01,-7.626787722755169474e-01,6.687808793029537124e-01,-1.251273259983177576e-03,-7.072632718315765947e-03,-2.122937988193649827e-03,1.415437102317810059e+00
6.293528160019317141e-01,-7.386086418617738847e-01,6.746558064310008707e-01,-2.234537035222285140e-03,-1.467033915614010531e-02,-1.215129612721955153e-02,1.391562938690185547e+00
6.301543761684147427e-01,-7.536703519065043322e-01,6.812332266953833315e-01,1.878111075289764674e-03,-1.049439093222767524e-04,4.739151327482804370e-03,1.410085797309875488e+00
6.228116406420731721e-01,-7.491639423538701825e-01,6.827779698234396344e-01,-3.088141953603158776e-06,-9.592213242779486226e-03,-8.613629801336820935e-03,1.403097987174987793e+00
6.304832270135354300e-01,-7.526976055708580748e-01,6.688889897189899125e-01,-3.586509939976036555e-03,-3.094282020055542579e-03,5.084569729898282160e-03,1.402829766273498535e+00
6.384769093996303102e-01,-7.648958753897948659e-01,6.615292189249766253e-01,4.758012307288532125e-03,4.371561588126097672e-03,-2.183356117373385762e-05,1.415084004402160645e+00
6.521738340521410215e-01,-7.176092777339071471e-01,6.498595390371495473e-01,2.222144059499011736e-03,3.725610940645775887e-02,2.132930675195000500e-03,1.370158195495605469e+00
6.450871001830706941e-01,-7.200032858740096353e-01,6.420779411264356806e-01,4.075890756141638434e-03,2.637805025619297319e-02,4.104842945006269457e-03,1.364390254020690918e+00
6.248446805043916807e-01,-7.514082292532702212e-01,6.813905196445080303e-01,1.920665977630231220e-04,1.703264491046967317e-03,-3.844929486822192335e-03,1.405398130416870117e+00
6.188142638593455702e-01,-7.242768637737690973e-01,6.833419347003639732e-01,-1.325229343085428590e-03,-7.741961848760934260e-03,-1.816148936292025576e-02,1.376916408538818359e+00
6.512955259813318909e-01,-7.149145875950981832e-01,6.274693094803431848e-01,1.279601643103082421e-02,-1.208652986295917151e-02,5.528622797115858092e-03,1.354831099510192871e+00
6.732000776449935664e-01,-7.294574692579736119e-01,6.244263972616652669e-01,1.211797400752935572e-02,-1.529541737433267636e-02,-2.835576966123839159e-03,1.379340767860412598e+00
5.988805981915295007e-01,-5.887939067410535854e-01,6.520858308089914068e-01,3.536234566347164123e-03,1.582824036134219611e-02,1.446218588355876805e-03,1.215478301048278809e+00
7.113163433975672190e-01,-7.905570770296825867e-01,5.228183654453999463e-01,1.010652224808493947e-02,-7.402673850147131751e-02,6.206385612064048429e-02,1.427009940147399902e+00
6.568482293005537542e-01,-7.689920137946223422e-01,6.427797921661936309e-01,1.595733041722543696e-02,-1.149062244376082911e-02,7.770043068163593608e-03,1.419330835342407227e+00
5.981162343991921482e-01,-7.164162589743952037e-01,6.527130975249997302e-01,1.387239035076755396e-02,-2.488129786050233966e-03,-3.826951434120123420e-06,1.342885613441467285e+00
6.707999286736329170e-01,-7.536041415631290485e-01,6.389622570251909384e-01,7.980723476096369257e-03,-1.301005490300219565e-02,-2.479529622732646980e-03,1.409009695053100586e+00
7.443541414549070812e-01,-4.898477398260966398e-01,3.557037161052044039e-01,5.935727789197375176e-02,2.188848212207260280e-01,1.841256959962475348e-01,1.204424619674682617e+00
6.845813664705506785e-01,-4.771582149815851714e-01,3.628769458189222696e-01,-5.932117737364483306e-02,2.251993068297402367e-01,1.823246175169427330e-01,1.158371210098266602e+00
6.275377259735172020e-01,-3.035324273261706951e-01,5.962568544448896279e-01,-1.644932546197535109e-02,-2.091509618544789076e-02,1.396274860886836944e-01,9.483443498611450195e-01
7.179674412710661535e-01,-7.752662429412892076e-01,6.366815666473260027e-01,-5.067545225421303534e-02,7.024458213481171720e-02,5.409255238826932849e-02,1.465012073516845703e+00
5.666307085163189150e-01,-7.652472790515699730e-01,6.871897555215910058e-01,-1.304966779740343412e-02,-5.556609478100269124e-03,3.917535773575200192e-03,1.396299719810485840e+00
6.086410479902000237e-01,-6.523902505451280032e-01,6.538325241968361290e-01,-5.300985540209227423e-03,-3.684155921121226585e-02,5.604351452474869676e-03,1.285877346992492676e+00
6.439273762230992570e-01,-7.509732962253943267e-01,6.554263544423604149e-01,-5.747914352356641061e-03,-2.429622548457348319e-02,6.803764880263383358e-03,1.401402473449707031e+00
6.540494668258962641e-01,-7.071269334841302490e-01,6.426105334488645404e-01,-6.721022734509292905e-03,-3.095875538745626598e-02,6.072809215005601190e-03,1.356644034385681152e+00
3.279089822155852874e-01,-7.769386718618644938e-01,8.417892049919165620e-01,-5.615818950047588715e-02,-9.058934822881287152e-02,-2.738302767927542920e-03,1.444514989852905273e+00
6.401020989835342068e-01,-7.533114771518952812e-01,6.562100930557739353e-01,3.116807180207870412e-03,1.639382734319537460e-02,1.949125450747588679e-03,1.401839017868041992e+00
6.274717271225366266e-01,-7.513112903882298577e-01,6.750121163145359482e-01,5.820458839202575195e-04,-2.345289349018999433e-03,-1.026327630286417080e-03,1.403164744377136230e+00
6.419461435092587154e-01,-7.647016403253290573e-01,6.459474640071192209e-01,-9.667523441151715279e-05,2.371711486603149139e-03,-3.129723109631339217e-03,1.408669114112854004e+00
6.436191313154839833e-01,-7.759848412319262367e-01,6.574577287124622194e-01,-4.907432338050412950e-03,1.045926331021321785e-02,8.323922370333180446e-04,1.426714658737182617e+00
6.416421706823871585e-01,-7.076865779887803187e-01,6.517033257559842196e-01,-6.763726084181056510e-03,-3.341581095534260776e-02,6.101580951972536936e-03,1.355715274810791016e+00
6.648044318125498897e-01,-7.134786134295632021e-01,6.330876373752776232e-01,-3.674420482706797567e-03,-1.974436232204579422e-02,6.641107618152091406e-03,1.363193988800048828e+00
5.815500593155406017e-01,-4.499526912687940028e-01,6.110240753389234447e-01,1.841603166837290362e-01,1.713374152169535453e-02,9.020588191923110954e-02,1.105579614639282227e+00
6.229603283313540629e-01,-7.583140325937127724e-01,6.142395976526500156e-01,6.984810601215435226e-03,-2.828392963150473216e-04,-1.070446060891907310e-04,1.376987934112548828e+00
6.573996344173248518e-01,-5.821316153199106447e-01,6.022625986576433110e-01,-3.626506181987830015e-03,-5.237114988826506098e-03,2.432623901094184047e-04,1.212953329086303711e+00
6.461339486127883891e-01,-7.770447682099120845e-01,6.501714274185026454e-01,-1.149340258598438450e-03,4.854422751577837022e-03,-9.720282463495962108e-04,1.425228953361511230e+00
6.481950243982355087e-01,-7.740487638755839672e-01,6.499229347355657271e-01,-2.239166608470840886e-03,1.027845751243443816e-02,-2.566680510923233845e-03,1.423232078552246094e+00
6.484043195788011804e-01,-7.737710920174516449e-01,6.505924101410964777e-01,-3.153457922381046243e-03,-1.093800450339573599e-02,2.131488917154499441e-03,1.423412084579467773e+00
6.447764764375891744e-01,-7.736742636338809209e-01,6.546935027490714543e-01,-2.395259871460068014e-03,-9.164208796909519353e-03,-1.198091194888259019e-04,1.423529744148254395e+00
6.175419603527845247e-01,-7.027902004500841127e-01,6.832220225283537340e-01,3.242452891299151831e-04,-3.622599449410499484e-03,1.872115975865525474e-03,1.354385733604431152e+00
6.421383896605157293e-01,-6.780679792474272327e-01,6.330996633487464553e-01,1.701914104394540439e-02,-2.745144342683891042e-02,-3.783088942172154086e-03,1.316915392875671387e+00
6.215750281021505952e-01,-6.496364704788647471e-01,6.579116603762060755e-01,-4.220532216855730351e-03,-2.451032308691745987e-02,6.074603332745349103e-03,1.290525794029235840e+00
6.371504857153840184e-01,-7.229313969844262111e-01,6.794937009814441264e-01,-9.829359477999370306e-03,1.447843216972872007e-02,-3.093895318710447595e-02,1.383111119270324707e+00
6.384261675537090674e-01,-7.378534053349775634e-01,6.523925809709192336e-01,1.289324333415383522e-03,1.260620983052345529e-03,-3.678980472216011183e-02,1.384786009788513184e+00
1.917149004451614291e-01,-1.018613788073854831e+00,1.119675031131917242e+00,3.166622797377841025e-02,-1.556699285868383964e-01,1.219408664551204918e-01,1.889301061630249023e+00
5.688508691979907717e-01,7.678276384479365557e-02,6.968942890406617519e-01,5.108722682657289293e-02,1.505646550866405510e-02,1.185260806942550369e-03,5.744965076446533203e-01
6.395918577204879885e-01,-3.270497204678146641e-02,6.196537172303342444e-01,-2.721147736484200164e-02,8.692837474114888108e-03,-3.683300747577002154e-02,6.674535870552062988e-01
3.523948653947598375e-01,-8.962696693518603652e-01,9.210137688467904260e-01,5.573356609453530147e-02,-9.816574344445647138e-03,1.026377143597215734e-02,1.613204479217529297e+00
6.399269524357074079e-01,-3.246327191357323283e-02,5.457713186431054631e-01,8.116393965017587933e-03,9.441079058030904525e-02,-2.056213647867908417e-02,6.525877714157104492e-01
6.523849810848261210e-01,-7.546595953223377284e-01,6.400590234605034734e-01,1.037215432927108584e-02,9.594419169280572063e-03,-3.733503173021382807e-03,1.401150941848754883e+00
5.811354495378453500e-01,-7.387378774725804620e-01,6.618471212265819581e-01,-1.087514618144433051e-02,2.977266717808537549e-03,-4.564326972434003607e-03,1.362186908721923828e+00
6.154779792329299060e-01,-7.604962950999409887e-01,6.583652659695955478e-01,-1.691241652678562510e-02,-2.492372942950185459e-03,-1.639208032206499951e-02,1.398513197898864746e+00
6.520178149560387215e-01,-7.619688621359981262e-01,6.434387908998866479e-01,9.070536888997195873e-03,6.290960276530111264e-03,-2.477246335483403866e-03,1.409852862358093262e+00
6.857631462009984302e-01,-7.426544449953386140e-01,6.229665312156726920e-01,-1.942835759248581285e-03,8.982390258829751287e-04,8.888980202964259433e-04,1.398083209991455078e+00
6.598268100278696924e-01,-7.641091874222672997e-01,6.374830932249145876e-01,-2.867906424037200679e-03,-1.061157017388406759e-02,3.886063680386450236e-03,1.413040995597839355e+00
5.857729511539283562e-01,-4.458285722567026932e-01,6.362576587761321623e-01,-1.497058778338370907e-02,2.203897150684078297e-03,7.691303796980225593e-02,1.066425919532775879e+00
5.813692465892830175e-01,-3.827605399623621452e-01,6.009490826941850106e-01,9.806226303801098346e-03,4.808609198218742674e-04,-6.589227922301051088e-03,9.742825627326965332e-01
5.671507369180674996e-01,-3.174059280713313891e-01,6.582117032103709242e-01,-3.220393483878963847e-02,1.909033855558217021e-03,1.116364900870263771e-01,9.548777341842651367e-01
6.201466175296167505e-01,-7.265209020085054981e-01,6.798004069144431005e-01,4.312335871521603622e-03,2.243508471214955904e-02,-4.156352925715698634e-04,1.378031969070434570e+00
6.521126907840499864e-01,-7.588883546772248190e-01,6.382466798280000964e-01,1.343818205363258829e-03,1.576893742730496248e-02,-4.903816806481564768e-03,1.404412627220153809e+00
6.422086122775305661e-01,-7.656441131135520717e-01,6.213615782130693654e-01,1.155658830159191248e-02,-3.065968036489038432e-03,6.025934298507932933e-03,1.397738218307495117e+00
6.338128449505899820e-01,-3.825942084567075518e-01,6.505971104839105568e-01,-9.156249073875093181e-02,-2.102767837828102906e-02,1.056454906176075570e-01,1.053748130798339844e+00
6.058735884830521723e-01,-1.784559906446542277e-01,5.921870306729077882e-01,-6.270490252721891422e-02,3.245577886484276448e-02,1.125225402238319052e-02,7.873761057853698730e-01
6.516674880510877621e-01,-7.691124436472079884e-01,6.458993171933837818e-01,-2.368236330860483234e-03,1.059911464320609405e-02,1.657750894678930702e-03,1.418032288551330566e+00
5.766476492193203240e-01,-2.605718558160922127e-01,5.830930589238183526e-01,-9.438847196851181398e-03,9.063699799009668906e-03,7.782257455923624612e-02,8.515028357505798340e-01
6.657100474685481162e-01,-8.536646226580832941e-01,6.267565783983553018e-01,6.484625594211008981e-02,-1.727949835082737695e-01,3.413337940774907597e-02,1.535094976425170898e+00
5.994323666713190502e-01,-7.046894965150777290e-01,6.866997435376753778e-01,6.566799959125479459e-03,4.493551934059718603e-03,1.844230833175365160e-03,1.349946975708007812e+00
5.551401973875730311e-01,-7.739387585332926367e-01,6.515460606115679454e-01,4.046746594107789724e-02,-4.792444515666301891e-02,2.750353665989042559e-02,1.384900093078613281e+00
6.405773768443387972e-01,-8.111124034974689367e-01,5.991982391963831533e-01,3.046419569157563303e-02,-1.106313511442250652e-01,2.420008071990073506e-02,1.445788621902465820e+00
6.618798455824130844e-01,-7.294157376207522914e-01,4.889498964566076356e-01,5.489579410451111974e-03,-2.543374176772846690e-02,5.515525511429105734e-04,1.314170241355895996e+00
6.161848962878748726e-01,-7.031618676258971634e-01,6.787979611369721056e-01,3.080432609190042297e-03,1.102663517097139841e-02,2.905044519679079139e-03,1.351896166801452637e+00
6.077640421988815822e-01,-7.505725909930295314e-01,6.077587525344105845e-01,1.016701750598127466e-02,-9.829972289919750722e-03,8.613189601269843204e-03,1.358636736869812012e+00
6.588204962098244133e-01,-7.404258550046646237e-01,5.136323314758426406e-01,1.884281357011499680e-02,-1.568683293836968529e-02,1.258112082492828139e-02,1.333451986312866211e+00
6.347606882622349733e-01,-7.424587423191916224e-01,5.281865564701757609e-01,2.494132607382301692e-02,-2.471095766687075521e-02,1.797060065167848872e-02,1.328902721405029297e+00
6.241968623721054765e-01,-7.257853849640518717e-01,6.696329480799640965e-01,-1.415757659803159067e-03,-2.563390900740812606e-02,5.208565505808827184e-03,1.374013543128967285e+00
3.776537053621052964e-01,-7.381590138040474702e-01,7.795790216493707625e-01,1.272577853399594131e-02,4.103578866492471611e-03,1.039807643030948164e-02,1.362320065498352051e+00
7.571372451236341172e-01,-7.587089386563704574e-01,4.367931393933214834e-01,1.467493945565149019e-02,8.892191967280789131e-03,1.021284624017038643e-02,1.384201526641845703e+00
6.314555410106972300e-01,-7.520437645712836350e-01,5.750331617848094545e-01,1.567720604263452347e-02,-1.742513269366616213e-02,7.550811368278485987e-03,1.356839299201965332e+00
6.385877928317641450e-01,-7.496266606641999175e-01,6.686838808012629531e-01,-5.038015371433881770e-03,-1.834083423398395404e-02,3.676818626255444304e-03,1.403905510902404785e+00
6.266167555800723488e-01,-7.544065971510997004e-01,6.839592839415356007e-01,2.965155193565617228e-03,9.321435404176653394e-03,1.721855276598861870e-03,1.410673975944519043e+00
5.864632675212397839e-01,-7.355210594006369451e-01,5.752568201186099017e-01,-8.862338365624050987e-03,2.155355674539358862e-02,5.569122191630942152e-03,1.317070841789245605e+00
5.862976592474919979e-01,-7.381859199139223504e-01,6.081256606181104640e-01,-8.465004321399719270e-03,2.559262094883976713e-02,1.155720814343262105e-02,1.336497187614440918e+00
6.425624318913520927e-01,-7.477252809905775566e-01,5.388415476463392917e-01,-1.902803952550092409e-02,1.428314679523931367e-02,1.178398466822394054e-02,1.342226147651672363e+00
5.850030530527321471e-01,-7.329408635151285489e-01,5.952078510851837034e-01,-8.378015043260378727e-03,3.409303470115461476e-02,8.158163035581002948e-03,1.324547767639160156e+00
6.713791918883801335e-01,-7.472760762395801448e-01,6.278283180745025671e-01,2.644301912407141537e-03,1.575814389993779275e-03,-2.870278302536157997e-03,1.397407889366149902e+00
6.801611003622461959e-01,-7.268678957394031359e-01,6.185466199672644549e-01,-1.502285922425666310e-02,-4.618030979500075198e-03,-3.920607113081925332e-03,1.377541542053222656e+00
6.385426160555598418e-01,-7.651221805287244937e-01,6.599174438570785117e-01,-3.593077671627104269e-03,-2.660010041224105271e-03,1.239239021928265679e-03,1.414496183395385742e+00
6.692668354631796657e-01,-7.470238884633169096e-01,6.316033498672288804e-01,3.407105953134836364e-03,3.568308849070946868e-04,-3.583713990253907609e-03,1.397866010665893555e+00
6.274724141990688508e-01,-7.235442425316349624e-01,6.796574140445068579e-01,-2.714828525569050813e-03,-1.574497937123280067e-02,2.471789331231395888e-03,1.378135085105895996e+00
6.591243238401278681e-01,-7.714773817770330666e-01,6.440470531302693313e-01,-2.478083451136361623e-03,-4.278123802151851882e-03,3.688740321624174156e-03,1.423163056373596191e+00
6.876057010732858910e-01,-7.403674195755534093e-01,6.239329956464725324e-01,3.533706027148993296e-03,3.145399640071355296e-04,5.562962886746625852e-04,1.397239089012145996e+00
5.176879756188786930e-01,-8.235716851917344039e-01,6.864857191129927205e-01,1.055371522836036705e-02,-2.452240026519642013e-01,5.011431278007279742e-03,1.494886517524719238e+00
6.303726001663141343e-01,-7.509470139109868381e-01,6.812477985626549382e-01,-3.554097854534652660e-03,-2.837047570229131368e-03,3.829360161034390652e-03,1.407484650611877441e+00
6.398977985628857557e-01,-7.748582274910749135e-01,6.444513745067885768e-01,-2.230314495486666621e-03,1.004326748665606986e-03,1.246404950671207556e-03,1.417046308517456055e+00
3.384452276883593846e-01,-1.216564849724205644e+00,9.070020112644984200e-01,4.526880419695792496e-02,-3.080353666037154992e-01,1.315690697487311711e-01,1.992024421691894531e+00
3.903253085693220714e-01,-7.609654937853029821e-01,7.641219996934119907e-01,-1.344773037601104497e-02,1.067218540439936539e-02,4.971401510761299866e-03,1.377135276794433594e+00
4.688359567820741813e-01,-8.990737836948334838e-01,6.111876800887057204e-01,-1.936068911988706592e-02,-3.836778539986747116e-01,2.866649356641947505e-02,1.591031551361083984e+00
5.682559264608779692e-01,-7.807384180439846944e-01,6.355080853138548314e-01,-4.188661025826887624e-02,-7.715382303865432612e-02,-2.141655577195702292e-02,1.392669677734375000e+00
5.920791678027195193e-01,-8.954360712138969003e-01,6.344807178940343739e-01,-8.637464955875103975e-03,-2.908082783313934438e-01,4.649778507548062156e-02,1.593107223510742188e+00
4.574019053350227293e-01,-7.500352436690558289e-01,6.862859250958188717e-01,-1.610570055861101305e-03,-1.456376987771270393e-01,-1.381648630709312459e-02,1.360465645790100098e+00
7.536431725480773336e-01,-7.555628383466616027e-01,5.918099009225099572e-01,2.261823775392360000e-02,2.131846859891433840e-02,3.948609914957972727e-03,1.436174750328063965e+00
7.219230289541632706e-01,-7.847067819104662778e-01,5.626730045196787211e-01,-1.084860341015879068e-02,2.487640344996284308e-03,-2.295771267901475926e-02,1.434334635734558105e+00
6.760755601807655335e-01,-7.559246291989213384e-01,6.049616347435200492e-01,-7.661904542023830096e-03,7.726356317738448595e-03,7.662891085274137377e-03,1.397990703582763672e+00
6.836604532747777574e-01,-7.652544823460349921e-01,5.868352153153033601e-01,-1.324086461716970052e-02,1.330625975279006203e-02,-1.902165857536961685e-02,1.403773784637451172e+00
6.501472248361586104e-01,-7.587274034502019537e-01,6.109105896122172252e-01,-4.105951204825496019e-03,-2.360172057169848941e-03,1.338676608124494613e-02,1.389889478683471680e+00
6.960297563070031446e-01,-7.559395254245412366e-01,5.137049489155114390e-01,1.242564974787632032e-02,-1.227306414215757410e-02,2.333451598913443420e-02,1.370866775512695312e+00
6.983430060540786188e-01,-7.737443276104009060e-01,5.136569636539313199e-01,-6.374043404391875264e-03,3.630056308782228514e-03,3.104177136024189113e-02,1.390082120895385742e+00
7.177815438966492767e-01,-7.614622308266204564e-01,5.167342328082773495e-01,3.620729802657074968e-03,-1.129162320988749517e-02,2.805187118686949463e-02,1.390671372413635254e+00
6.378120481098230599e-01,-7.605313204392502024e-01,6.021292740297630175e-01,7.445553843698903863e-03,-2.191216817140960102e-02,3.040163866470676698e-03,1.381439566612243652e+00
8.008854261666862318e-01,-8.130185594797213477e-01,4.914350035671729566e-01,1.379359616200621051e-02,-7.175994289836745699e-02,-7.459159380592811361e-02,1.494567990303039551e+00
6.168261513030446341e-01,-7.570832575003006992e-01,6.317323430191810196e-01,6.041507022706523074e-03,-3.338981927998045662e-02,1.697107022130757079e-02,1.382984876632690430e+00
7.200748211437894009e-01,-7.632878865349049802e-01,4.521160112807974807e-01,9.815863708037183763e-03,-5.453959260154470079e-02,4.276216705823093767e-03,1.372572183609008789e+00
7.261243950093662081e-01,-7.666924074133381062e-01,4.134041681590209238e-01,8.444133711879193982e-03,-2.726489003851113521e-02,3.586802887612599439e-02,1.365930318832397461e+00
7.084181098592192694e-01,-7.638882380835768648e-01,5.104351919420154760e-01,4.704917850905366433e-03,3.935588225911188800e-04,2.726246348934540167e-02,1.384806275367736816e+00
7.498024610718492244e-01,-8.317689656535192100e-01,4.900120926262514498e-01,2.939776453862397512e-02,-1.030027781997184914e-02,1.663732966359339482e-02,1.470280051231384277e+00
6.446489472923601083e-01,-7.582303782563625250e-01,6.044008427012028672e-01,1.475050828813912439e-02,-1.085158255142599235e-03,-2.453765812119706666e-03,1.383438229560852051e+00
7.461613652893267501e-01,-7.609521265924111821e-01,4.088153638640703580e-01,2.055212912974113681e-02,-2.464871970273520979e-02,3.519186835576528644e-02,1.372435808181762695e+00
6.444838088702782297e-01,-7.757720110216412834e-01,6.529147461036413080e-01,2.232672079050553211e-03,2.024756039622321001e-03,-6.585441092525293888e-04,1.424499988555908203e+00
6.277927034198131917e-01,-7.607333254060932859e-01,6.682659114481099838e-01,-3.485676446782476953e-03,3.705092987634015368e-04,-3.126064374587976969e-03,1.409222126007080078e+00
6.169184619432459549e-01,-7.424275764968770730e-01,6.883180235225613286e-01,4.988362302785557785e-04,2.015093979266139017e-03,2.030027598939657639e-03,1.396424531936645508e+00
6.562019547362885064e-01,-7.604184579052963855e-01,6.168910684460282567e-01,-1.510645242917440373e-02,2.982551317796703293e-04,-6.783052621045137977e-04,1.397625327110290527e+00
6.227147390544671701e-01,-7.537745626035783353e-01,6.867730705358490173e-01,-1.169486340429271324e-03,-9.084404633479659487e-04,4.491433447137542674e-03,1.409634351730346680e+00
6.227208080544839319e-01,-7.421867146627775247e-01,6.837562519416424678e-01,1.267771093442676992e-03,2.959305304708770550e-03,1.493405645885362938e-03,1.396439552307128906e+00
6.284943237485498546e-01,-7.614169814080825605e-01,6.794705534178393513e-01,3.866866508395797573e-05,7.309425056024380050e-03,4.970146013666633736e-03,1.416170477867126465e+00
6.170281168127018656e-01,-7.190488622453888867e-01,6.799271567865647903e-01,-2.168472562358356290e-04,3.153991507261112541e-03,8.232926789880700563e-03,1.368696212768554688e+00
6.242767234359656303e-01,-7.609580241405715650e-01,6.769163028975440088e-01,-1.455666066748881153e-03,1.309900956528386833e-02,8.303042938425592503e-03,1.412548184394836426e+00
6.202664675298240615e-01,-7.445293428116622758e-01,6.826836371057988240e-01,-2.015164787180136891e-03,-6.014219034653923296e-03,2.036266004910559056e-03,1.397098183631896973e+00
6.391841409979184263e-01,-7.590857803554262873e-01,6.713277838848829004e-01,-3.940996821571589835e-03,1.416151932240237131e-02,7.362143121459905314e-03,1.414902210235595703e+00
6.366344113808894978e-01,-7.593236035886501423e-01,6.658675633506137004e-01,-6.244083308028103123e-03,2.108552495578227843e-03,-4.295091521745680527e-03,1.410867571830749512e+00
6.359705864543981901e-01,-7.656586104092365508e-01,6.689606732522399568e-01,-1.985453498056335194e-03,7.489334433066295767e-03,1.432746829046409581e-03,1.418477654457092285e+00
6.429816822667325793e-01,-7.694936314446153558e-01,6.267018618613965364e-01,-1.063403703011867735e-02,-4.840904604011703541e-03,7.944202199930243402e-03,1.404619336128234863e+00
6.312438550208747667e-01,-7.527352034510467194e-01,6.697186926801885765e-01,-3.744970174185070690e-03,-1.080985086642032196e-02,2.358028943997525842e-03,1.403757810592651367e+00
6.243315762137079394e-01,-7.672310603825641673e-01,6.265315932455706172e-01,-7.886861419550540361e-03,3.415646688266766109e-03,5.032948767729456159e-03,1.392770767211914062e+00
6.417239648410524300e-01,-7.664777272384988294e-01,6.584053455125180587e-01,-3.761721513114807142e-03,-9.764658715442495890e-03,2.001265977659079463e-03,1.416736245155334473e+00
6.405576196909954501e-01,-7.719213333903857110e-01,6.407075170808633757e-01,-5.341961094745619441e-03,-5.346535274345011468e-03,6.011522303263883669e-04,1.412614941596984863e+00
6.287783908495773177e-01,-7.664496165045422416e-01,6.273686529233508669e-01,-6.543625539657092413e-03,-2.390817356172138274e-04,4.396461518276700148e-03,1.394590616226196289e+00
5.797135756564303355e-01,-2.112306658540963333e-02,8.800876617187309847e-01,7.331884009584279001e-03,1.017127792887590060e-01,-2.216268963765716509e-03,8.141974806785583496e-01
6.291395134095985053e-01,-7.394495602880837293e-01,5.705353982112424394e-01,-9.779800699554058729e-03,1.155901568252098825e-02,2.012238135761960228e-03,1.340509414672851562e+00
6.598875797981440527e-01,-7.723720269153998563e-01,6.425720021343790389e-01,7.616865196020262529e-04,7.254412810733446536e-03,3.043682452129839889e-03,1.423746585845947266e+00
6.524363929068568435e-01,-7.639720824642659558e-01,6.428734776577793575e-01,4.523494694127829299e-03,1.053744851837737882e-02,9.973953685222787177e-03,1.411896705627441406e+00
6.453378966207591327e-01,-7.773207696086295027e-01,6.476147176954444307e-01,-5.347726642778107995e-04,2.183719582641456872e-04,-2.765177793653537856e-08,1.423798799514770508e+00
6.532012946182790269e-01,-7.733556349938153218e-01,6.450023696186131250e-01,-2.399841043257184506e-03,9.610308073594931930e-03,-7.922209432665932530e-04,1.422579288482666016e+00
6.559969979506108384e-01,-7.725671775808180541e-01,6.399767587580541539e-01,3.483476774066408734e-03,8.534342989633725979e-03,4.930574353734589431e-03,1.420737147331237793e+00
6.518459784457438788e-01,-7.729769577363482247e-01,6.480103730200320600e-01,1.652154463908670672e-03,9.610127608540687885e-03,7.047711700933873349e-03,1.423061609268188477e+00
6.224940448463245346e-01,-7.501815669865410374e-01,6.250812455569615400e-01,-9.263247469267653009e-03,6.375801809568456061e-03,8.527078704146689309e-03,1.374188423156738281e+00
6.104091243636093900e-01,-7.548804658601817597e-01,6.066803743696638218e-01,-9.200922742448375616e-03,1.585242908140685860e-03,6.593625686415747686e-03,1.363572716712951660e+00
6.272072804970977300e-01,-7.531243742448624490e-01,6.015724118627043815e-01,-9.335547799591609533e-03,-2.218679224760411331e-04,6.423301206774143998e-03,1.367835283279418945e+00
6.439801698935232466e-01,-7.701151562957526675e-01,6.218969944903851577e-01,-1.064810659344413157e-02,1.163313886995961726e-03,7.833470163428500263e-03,1.403372287750244141e+00
6.265090368217727246e-01,-7.671527954952075401e-01,6.258938716854400841e-01,-4.628228907032351860e-03,5.817064274381121385e-03,8.039423189572706893e-03,1.393483400344848633e+00
6.067818599000867064e-01,-7.546814951404058336e-01,6.127187183848331609e-01,-7.008772353407990291e-03,3.085339447344884536e-03,8.778856351407921671e-03,1.364590644836425781e+00
4.998443965485516172e-01,-7.930708795101450992e-01,6.943548125837218921e-01,5.760095702027635128e-02,6.016115776516912927e-02,-1.640402399840375572e-02,1.408037185668945312e+00
6.680087442518515273e-01,-5.007750632820603398e-01,6.397757415907966427e-01,-4.444136724283613560e-03,5.704021596779956793e-02,8.406842387594527788e-02,1.168279528617858887e+00
6.119515803045509905e-01,-7.764746379234088725e-01,6.518027102421546370e-01,-7.772723873915639986e-03,4.277432251573201789e-03,-1.812926179895916687e-02,1.409208297729492188e+00
6.538183198702767207e-01,-7.180452711698463997e-01,6.354523741350093236e-01,-2.316614056788032869e-03,-2.097224651250355690e-02,-4.219408172128878871e-03,1.363282918930053711e+00
5.272471612028442056e-01,-7.752545682239903035e-01,6.854457747673536883e-01,2.861620975465553607e-02,-1.391242731337139719e-03,-1.120712923163239526e-02,1.389399409294128418e+00
6.060698366247481150e-01,-7.669832238677106728e-01,6.666246500882682113e-01,-1.665435657977443890e-02,-3.299119381446948777e-03,-1.803627097567742869e-03,1.404621362686157227e+00
6.140841097188247666e-01,-7.606777626078129462e-01,6.636845733559317839e-01,1.290890554181503905e-03,1.455970374209138835e-04,-3.654051909944015710e-03,1.400237202644348145e+00
6.327087404478199950e-01,-7.506400925084223408e-01,6.715568351759932941e-01,1.883387623721063334e-03,-2.178881068520416471e-03,-6.464480224040533183e-04,1.403185606002807617e+00
6.159627590255867258e-01,-7.431446459842871999e-01,6.462002305156668847e-01,3.660007511107989109e-03,-3.237339255444676364e-03,-4.292533711004396270e-03,1.374521732330322266e+00
6.182385566873935812e-01,-7.615066630395046499e-01,6.462086628907827146e-01,8.516267938629824147e-03,5.535339963212847930e-05,-8.141390791187303258e-03,1.394090175628662109e+00
7.891630103217069925e-01,-7.325604443843384272e-01,5.952813344418040886e-01,-2.719123493665577193e-02,-3.167728994712832452e-02,-1.486912422847127824e-01,1.459367632865905762e+00
5.785838144600365940e-01,-3.193212445360623652e-01,6.145624561939955210e-01,7.977899087208979723e-03,8.835885659012981258e-03,-1.417784561051978198e-01,9.489793777465820312e-01
4.927556868666539969e-01,-7.573221033429482496e-01,7.304885753688473704e-01,1.562875533487866411e-02,1.270222864486130615e-02,5.948104070651626975e-03,1.384817361831665039e+00
6.015896690971118677e-01,-5.459674469947018993e-01,6.420440489645871107e-01,9.806440929956531521e-03,8.200661123664867991e-03,-5.009983799962666046e-02,1.171737074851989746e+00
7.004990810077671437e-01,-4.598003443877600738e-01,6.149242353282033946e-01,-9.059848602226694414e-02,-5.890748336633670063e-02,-1.118637334863401833e-01,1.151911616325378418e+00
6.313541571415113296e-01,-6.347961924579476056e-01,6.538127297522842163e-01,2.847333341077639898e-02,1.157405655748146821e-02,-3.637770017923633303e-02,1.280187964439392090e+00
7.102983465159186105e-01,-7.547493406836417451e-01,4.493935956478812832e-01,-2.086607581030136202e-02,3.531728447409161753e-02,3.960831393597830791e-02,1.357185602188110352e+00
7.618756759012572655e-01,-8.938353371402871783e-01,5.006852211043306689e-01,1.345516266000452814e-02,9.468328688057493780e-02,-5.071646271862999961e-02,1.553157448768615723e+00
6.540398803999958321e-01,-7.648423502283199227e-01,5.448599453594027420e-01,-2.985327456922648014e-03,1.226104894017263219e-01,-2.582947290216464076e-02,1.384688377380371094e+00
6.806525858107995708e-01,-7.652351047215248947e-01,5.314825713744788516e-01,-1.346772302752244181e-02,7.883556072928437491e-03,2.203866896511336507e-02,1.378168225288391113e+00
6.380824024071903855e-01,-7.697866333971177255e-01,6.441552373259784581e-01,7.011146823447848104e-04,-2.683700133756196458e-03,-7.497611760139750135e-03,1.410983204841613770e+00
6.267474967895148019e-01,-7.272623562370814643e-01,6.805602945522267744e-01,-1.440588998765500667e-03,8.659561188793801420e-03,-1.287639342663706235e-02,1.381965994834899902e+00
6.843577434662678760e-01,-7.552068763282941966e-01,6.272468507925550441e-01,2.033736039659229423e-03,-9.928756651747519188e-03,-3.597939367514259995e-03,1.411998629570007324e+00
6.287336965749499296e-01,-7.559316545330333481e-01,6.784035721020487131e-01,6.274639342510948681e-04,6.808643134742576979e-03,-4.291046073785337832e-03,1.410225868225097656e+00
6.274371274638976814e-01,-7.462101581132518646e-01,6.821077976112808194e-01,1.379626346958686073e-03,7.623673976147673191e-03,2.076118619340613577e-03,1.401851296424865723e+00
6.446567953261292949e-01,-7.716747363212103084e-01,6.494294749765443520e-01,4.285810995146807113e-03,-3.490508308931980063e-03,-7.620799232827611507e-04,1.418756842613220215e+00
6.510506408666911771e-01,-7.773076619679250010e-01,6.511965192246732537e-01,1.817290957884672457e-03,-4.273322689418436807e-03,-1.860678989221510636e-03,1.428457498550415039e+00
6.226327046844112312e-01,-7.416953283600674629e-01,6.871447910726558028e-01,-5.581752330692587997e-05,6.036362766630885487e-04,2.536931290169280179e-03,1.397708415985107422e+00
5.963166837745221827e-01,-7.262547437107141901e-01,5.832608394244885863e-01,-3.657240755878148238e-03,-2.190845758733837162e-02,-6.122899628009866556e-03,1.316697001457214355e+00
5.954568357756171437e-01,-7.329897766409064763e-01,5.853848206360690032e-01,-6.699596478025518845e-03,-2.326526351622353744e-02,-6.753302738318424717e-03,1.324155211448669434e+00
5.687393347759895912e-01,-7.269528387438400907e-01,5.880497549950016722e-01,-8.088452358099083687e-04,-1.911368475835601571e-02,-6.341904480607510157e-03,1.305921196937561035e+00
5.908272442660293944e-01,-7.322689927926413489e-01,5.917850197472811491e-01,-4.742754686789432683e-03,-4.466903529192458233e-04,-4.486767240920452871e-03,1.323623895645141602e+00
6.613468299381322080e-01,-7.622113489541293418e-01,6.393935172154574520e-01,4.473686837900480058e-03,-1.527331891609105124e-02,6.654885355876421571e-04,1.412978887557983398e+00
6.537950930962062035e-01,-7.675624403055759659e-01,6.410507248863105412e-01,-3.439357518178016212e-03,-1.067649731671727054e-02,7.179133543957129208e-03,1.415216445922851562e+00
6.379389034773715883e-01,-7.630463043668458401e-01,6.584227741644685938e-01,6.694546463774749510e-03,-1.977075836694683689e-02,2.090351921323761915e-03,1.411806225776672363e+00
6.660679526869126565e-01,-7.642909290513005827e-01,6.365392639630900184e-01,2.035812821343931794e-03,-6.694383253601416707e-03,2.323093437392504193e-03,1.415883064270019531e+00
6.239910240922955653e-01,-7.297409675923527406e-01,6.745159402204308208e-01,-1.243955677121451288e-03,8.126608201596474332e-03,1.328345647034196927e-02,1.379953742027282715e+00
6.504868017626506127e-01,-7.679938876550178595e-01,6.419322377612393105e-01,-4.180338459628574373e-03,-4.320789573065253464e-03,7.284815339880742514e-03,1.414317488670349121e+00
6.543394764481227366e-01,-7.673080739489098745e-01,6.409049298762727886e-01,-5.173073388659930015e-03,-7.551836768701190731e-04,6.933310622529040290e-03,1.415058016777038574e+00
6.432925844693198059e-01,-7.756002254149952924e-01,6.439143445575556957e-01,2.140626831840003637e-03,6.648997547645452881e-04,-2.441069956224222771e-03,1.419215440750122070e+00
6.393250491120356926e-01,-7.652909192155388229e-01,6.608315747478000768e-01,4.498030669577675507e-03,-3.706008935758146536e-03,-1.893532633770216283e-03,1.415531516075134277e+00
6.446733139268854273e-01,-7.777153656019015759e-01,6.511446125175491817e-01,1.807158130397289219e-03,-4.025455297407451796e-03,-7.020764319534948282e-04,1.425656318664550781e+00
6.471602907465161536e-01,-7.793280358402452368e-01,6.507862708833689336e-01,2.321159973724797564e-03,-2.400756248364234544e-03,-1.601651665795608692e-03,1.428319215774536133e+00
6.453838020229309969e-01,-7.797581721862697490e-01,6.475945451338327441e-01,2.452536135385497361e-04,4.961971996743150390e-04,2.879900624249165330e-08,1.426248908042907715e+00
6.408132854526605859e-01,-7.763902222729268665e-01,6.452263842700683982e-01,8.938595706918910913e-04,1.134798169607788548e-03,-1.896298827821597333e-03,1.419421195983886719e+00
6.447275256935138810e-01,-7.754676339578508992e-01,6.449546781012269747e-01,3.968404148130363907e-03,2.767617494564815635e-04,-1.370134718670193083e-03,1.420327425003051758e+00
5.826215578794486927e-01,-7.390783649219084817e-01,6.908149267545405925e-01,-1.363223339677938073e-02,-2.340115423045483617e-02,1.493800534879228398e-02,1.380023717880249023e+00
6.402040613002638603e-01,-7.692932191899956029e-01,6.409869351390373726e-01,1.053352455674575958e-02,-2.583085199696970053e-03,3.039805537933047089e-03,1.410023808479309082e+00
6.315986604227563639e-01,-4.841028388871680965e-01,5.987195262151649988e-01,-2.538377422470777453e-02,-3.088197298334668939e-02,4.008979354134301759e-02,1.103994250297546387e+00
6.453882662586358787e-01,-7.764298256492182526e-01,6.378999854086783161e-01,2.717018647228781718e-03,-4.231128715669102880e-04,-7.137596821039032076e-04,1.418097257614135742e+00
6.688882236580789842e-01,-7.638524408511595531e-01,6.384756515533949184e-01,7.409214967483606154e-03,-9.570051559143994552e-03,5.574464134392010869e-03,1.417966842651367188e+00
7.603916678612120394e-01,-7.462418001959547631e-01,3.519963175258750687e-01,-5.534593427179526105e-03,-4.881475156539058328e-03,3.902292650729281137e-03,1.349680781364440918e+00
6.676616446816334705e-01,-7.530385780250038463e-01,6.346979003011230525e-01,9.879218866330257906e-03,-1.073229991002782810e-02,1.292968435567218386e-03,1.404737472534179688e+00
6.618788497360694745e-01,-7.589073290452260645e-01,6.378794071513985697e-01,-6.367240465793588301e-03,-3.651322650182222654e-04,5.194478565795462334e-03,1.409011840820312500e+00
6.754181339892721958e-01,-7.572907359785164827e-01,6.289511354795138676e-01,2.935862176240783706e-03,-5.233914979763091072e-03,-1.753292194718555669e-04,1.410088062286376953e+00
5.615564140457254272e-01,-2.840317754313126386e-01,5.903374009970863145e-01,-3.078514270184437834e-03,-1.132734661871259707e-02,4.034340989295286811e-02,8.634122610092163086e-01
6.206676287898162947e-01,-7.562025839397447102e-01,6.296188931942874323e-01,-2.214070491000193902e-03,-6.747610995260096799e-03,2.886665673734340734e-04,1.381422400474548340e+00
6.398430635816263479e-01,-7.714199567463323470e-01,6.518286671412902855e-01,-3.298836857204612717e-03,-3.734146284777854763e-03,1.823533120064758711e-03,1.417323589324951172e+00
6.378740201307240287e-01,-7.647545036829100917e-01,6.633253710783966195e-01,-4.255140495539294632e-03,-9.820522375271084972e-03,1.108864681944551379e-03,1.415648460388183594e+00
6.244660343568633198e-01,-7.539239202021745800e-01,6.856183348184954340e-01,2.195955832871597093e-05,-2.315878151689771368e-03,1.332315792710936971e-04,1.409966826438903809e+00
5.881572569570951980e-01,-7.414863496558714573e-01,6.098706958015742696e-01,-2.020457674904147134e-03,-1.021621183410619665e-02,-1.784056279485968927e-02,1.341109633445739746e+00
6.370046332210601570e-01,-7.576563954530443068e-01,6.621823306892745675e-01,-6.594649511137852700e-03,-1.186660018549564113e-02,2.458457073687287005e-03,1.407621622085571289e+00
5.583635255286885091e-01,-7.236215012977675887e-01,6.063921067817095167e-01,8.461217056174643323e-04,-1.679702465463918729e-02,-5.186414612484263262e-03,1.307017087936401367e+00
6.622086830637936572e-01,-7.643986178058804759e-01,6.399037361685355751e-01,1.732618947290697929e-03,4.279589064177052003e-03,-1.092980303841101057e-03,1.415610432624816895e+00
4.596930216798111313e-01,-7.289252730730088059e-01,7.888374143060309374e-01,9.776224244774375793e-02,-3.394572597530311209e-02,-2.409952405147796836e-02,1.395079970359802246e+00
5.923021766195857296e-01,-7.386654812343160792e-01,6.117173276461485010e-01,-1.290041137666396963e-03,-9.849619996380171508e-03,4.545895451249386591e-04,1.340891242027282715e+00
6.407163123669459281e-01,-7.656097436243859411e-01,6.548935908402049311e-01,-5.701010986960802426e-03,-5.207299464016009079e-04,3.356835299762647284e-03,1.413514733314514160e+00
6.076677402999718369e-01,-7.594292136162329454e-01,6.552708090088134041e-01,5.046858698302942800e-03,6.503668698614902249e-04,-1.548797465202719943e-02,1.391795754432678223e+00
4.987374669528021331e-01,-7.283949877772104564e-01,6.585305764473248225e-01,-1.293765614680224578e-03,-2.093594179849195269e-02,9.265509772577359623e-03,1.314934492111206055e+00
5.774141672836561323e-01,-7.313621170843791486e-01,5.949298002498246696e-01,6.669197130535815636e-03,1.445523061572043765e-02,-9.603201710751513645e-03,1.318014860153198242e+00
5.866050941791236539e-01,-7.335635032746331552e-01,5.978407503802272149e-01,7.542017216058930981e-03,2.408748519956575851e-02,-9.037131840201891031e-03,1.326635122299194336e+00
5.845853407602052965e-01,-7.383040797667472788e-01,6.276656666735285217e-01,-1.825712657738755339e-03,-6.052866068413164519e-03,-8.389834262663655243e-03,1.345070242881774902e+00
5.885286862630174642e-01,-7.223475331565880619e-01,5.829134144568413056e-01,2.242378338232709368e-03,2.823088488157131717e-02,-2.713744041458844309e-03,1.309005379676818848e+00
5.666832099553560376e-01,-7.269582428276535335e-01,5.920325035470614949e-01,1.319110520830608750e-03,2.321297381384699807e-02,-6.597790137523845688e-03,1.307170987129211426e+00
6.411223513888147929e-01,-7.502039643326200435e-01,6.583894998137850285e-01,-2.145080866619881489e-03,-1.581720437102108329e-02,4.777959641938265591e-03,1.400337100028991699e+00
6.367432660789899002e-01,-7.498359458717865911e-01,6.710421729108433375e-01,-1.263445964470131123e-04,-1.284537299636373531e-02,6.436149211829566424e-03,1.404263496398925781e+00
6.385122127940221493e-01,-7.636953923745674055e-01,6.668376321837682363e-01,1.263221304057684331e-03,-8.960115291592636588e-03,2.260784246882919114e-03,1.416674852371215820e+00
6.143711174119916851e-01,-7.553428035520262096e-01,6.391607720506176094e-01,-1.742366671853260059e-03,-2.570469322670219242e-03,-8.829087995869504268e-03,1.382370471954345703e+00
6.177618528917774299e-01,-7.598157207887983322e-01,6.231197929996674656e-01,-2.323269768094925539e-03,-7.632316526856281792e-03,-1.802539739899951601e-02,1.380686521530151367e+00
6.242583872281268764e-01,-7.585881897391691941e-01,6.827512784196727580e-01,-2.957588639699714785e-03,1.639595625989465543e-03,5.639768251912569662e-03,1.413047194480895996e+00
5.515288837393890198e-01,-7.484021633476763968e-01,6.512392674530267378e-01,-4.556858435749142392e-04,-1.132758383307951554e-02,-2.024083617782914193e-02,1.353142380714416504e+00
6.406744570105682435e-01,-7.642152637656411951e-01,6.544232279745606506e-01,6.734991441524383962e-03,-9.364425749283248951e-04,-2.527648780753849553e-03,1.411870241165161133e+00
6.835674636617443678e-01,-7.407574355854926740e-01,6.181079230662716029e-01,8.577923881558278951e-03,2.150151197722458083e-03,-1.008820879182377190e-03,1.392834663391113281e+00
6.823745028818507530e-01,-7.509197054598619747e-01,6.247952969399950263e-01,3.450226209569838293e-03,1.804047199757368661e-03,5.224205428532915094e-04,1.405405998229980469e+00
6.858419309276664322e-01,-7.409407782393352404e-01,6.237095863295820664e-01,9.582347579557306400e-03,9.296331436288888389e-03,3.379596184767484635e-03,1.396957039833068848e+00
6.699734491458954055e-01,-7.411118114903798570e-01,6.313183656185883397e-01,-1.338660711664285533e-04,1.598881342351827790e-03,-3.478442659936376914e-04,1.392163157463073730e+00
5.678997446782987346e-01,-7.234202576299016973e-01,5.934400448180719989e-01,7.373318010756982127e-04,-1.558257575901150077e-02,1.483003462101155400e-03,1.304560065269470215e+00
5.786081847629593877e-01,-7.331163061446082096e-01,5.905999733737689050e-01,4.525084445185910235e-03,-1.560951371683011284e-02,6.617792590884957228e-03,1.318111777305603027e+00
5.334599762613146945e-01,-7.395174136209650140e-01,6.178825916064378809e-01,5.876776652689601373e-03,-2.888621211086897858e-02,1.207856064788168093e-02,1.318374514579772949e+00
4.895501633781003115e-01,-8.697482528939084467e-01,6.428316877325763734e-01,-3.725805709987630582e-02,3.142161038355780200e-01,4.596539493091619799e-02,1.544746279716491699e+00
5.600697684838724655e-01,-7.287803451307081071e-01,5.688774207540743255e-01,-3.801045944758652245e-03,5.837929040653895563e-02,1.441865052887598888e-03,1.297242403030395508e+00
6.350105191681085781e-01,-7.609599408425478106e-01,6.183941896208422495e-01,-2.397832323176104022e-02,1.039734227278755682e-02,2.003543890124585142e-02,1.388908624649047852e+00
4.966583127157117583e-01,-7.969231353329137013e-01,6.612920275681123394e-01,-4.735636298747242755e-03,2.798514297971591014e-01,2.938479448310086888e-03,1.465765357017517090e+00
1.077399837682372130e+00,-8.389658773014214699e-01,1.616267474949199534e-01,-9.448516319473834442e-04,1.866585303485088568e-02,1.798734858301399009e-01,1.689453482627868652e+00
4.438805748662962847e-01,-7.306348395361744741e-01,6.789631407499925331e-01,-7.323374440132481575e-04,4.862036512181142078e-02,-7.704223715794059069e-03,1.310774564743041992e+00
5.203147186624631493e-01,-7.274062592497838597e-01,6.187132619451101156e-01,-1.590165665871148305e-03,2.535826649496779328e-02,3.992893149393738662e-03,1.300480008125305176e+00
5.021490452095758172e-01,-7.267019475930501793e-01,6.538534545090155525e-01,5.728400990672779516e-04,-2.477068859148352092e-02,-9.751168163026395497e-03,1.312112092971801758e+00
6.461687654538632586e-01,-7.792593215113206018e-01,6.508063834297046490e-01,-1.777718947574605550e-03,2.074854754310161316e-03,-1.990115751820510127e-03,1.427764534950256348e+00
4.464432644247847692e-01,-7.363317586241381330e-01,6.812799034888428196e-01,-1.676118218670038552e-03,4.096867350100858590e-02,3.901129878796674028e-03,1.317935228347778320e+00
6.437039849682932857e-01,-7.573082939223574339e-01,6.479152430811347951e-01,6.233519831770022515e-03,1.262053085011495199e-02,3.760700120286627514e-03,1.403349518775939941e+00
6.460613374767094630e-01,-7.598390684708212772e-01,6.434888241569653999e-01,4.379601344651816094e-03,9.148195684484968296e-03,5.656102680717776075e-03,1.404759883880615234e+00
6.384379631321182025e-01,-7.665573099762331699e-01,6.196627084718935308e-01,1.209902635892421210e-02,-6.697002912104099356e-03,4.901612126525099061e-03,1.395933747291564941e+00
6.490850347582219904e-01,-7.556346972447940402e-01,6.546795027887983842e-01,2.043234461680863354e-03,1.954556659059656504e-02,3.226832363857110465e-03,1.407947897911071777e+00
6.449957655193259143e-01,-7.670786922400179009e-01,6.358892609884850833e-01,7.965128330751573837e-03,7.870928346172611318e-04,1.410898228031520069e-02,1.407823681831359863e+00
6.480583622024360668e-01,-7.656584596427182809e-01,6.521786240165664550e-01,-2.475719569318443874e-03,1.572888604203333957e-02,-3.780130683945173101e-03,1.416065216064453125e+00
6.400655776785020290e-01,-7.755499066256049678e-01,6.540949815081591456e-01,-3.441444902005319061e-03,2.864349703649816774e-03,5.747757221885007586e-04,1.422703504562377930e+00
6.309706921501154753e-01,-7.699369121287417128e-01,6.460405833323445979e-01,-1.095558829875684440e-02,1.624022151987676056e-03,2.128139104293776552e-03,1.408638477325439453e+00
6.197698644587329442e-01,-7.534503154487151022e-01,6.916194858159439018e-01,1.752191741249198905e-03,-4.349299878223003048e-03,-6.304902276951084440e-05,1.410541534423828125e+00
6.605070202750780162e-01,-6.267936192257052008e-01,6.060883896179827257e-01,-5.092860218230344654e-03,-1.783236455375344226e-02,1.506359261037415725e-03,1.261384129524230957e+00
6.802629792317690383e-01,-7.486935254885341839e-01,6.363700654459110151e-01,4.853338708052283047e-03,-3.619181669718344110e-03,1.268527558476357803e-03,1.407564163208007812e+00
6.803822742277363389e-01,-7.224039898751863920e-01,6.221728311083136731e-01,1.095348977957677321e-02,-1.958613164056672434e-03,1.030682353626308136e-03,1.374742507934570312e+00
6.652185897633500211e-01,-7.534642682986122386e-01,6.359494496150064347e-01,-1.674961001725228018e-03,-2.704823746158189351e-03,7.039000165200745129e-04,1.404288411140441895e+00
6.815132876506351245e-01,-7.477960661405284037e-01,6.272760529975061061e-01,5.418691783754345931e-03,-6.636678918656356736e-03,5.963600285577015485e-04,1.403056144714355469e+00
6.290003496938660899e-01,-7.484102281313069760e-01,6.848037624059856165e-01,-2.427915239884865118e-03,2.555405679910492233e-03,-3.284402461091373918e-03,1.406167745590209961e+00
6.419977388937697649e-01,-7.736087354308803787e-01,6.636740701670829079e-01,-4.679855486744493795e-03,4.210999644204883006e-03,2.160041082234069511e-03,1.426614761352539062e+00
6.801806795657174831e-01,-7.216175793579150399e-01,6.200883688188689735e-01,1.215676973863571465e-02,-4.964172841416236368e-03,6.555034204814594269e-04,1.372927784919738770e+00
5.816818061168129717e-01,-7.219589942019590811e-01,5.903491760356983642e-01,1.953569315877405448e-03,-2.699445183152234667e-02,1.500247077794241660e-03,1.308838367462158203e+00
5.985209737669990870e-01,-7.319334867996404315e-01,5.797284997879723623e-01,6.850688698620301109e-03,-1.305245535178316263e-02,5.328767921785854990e-03,1.321437358856201172e+00
6.476775559402075944e-01,-7.083900488278390695e-01,6.386004096508860473e-01,-7.012335201451532288e-03,3.357804024474049520e-02,-5.926131083238999307e-03,1.352896094322204590e+00
5.825160294009519291e-01,-7.245527403123400711e-01,5.835760903014932666e-01,6.079981664350566023e-04,-2.978357193330540692e-02,-2.162522400452772560e-03,1.308622121810913086e+00
5.871030866876372212e-01,-7.315216940508061372e-01,5.931847378407882898e-01,4.596638165006131267e-03,-2.094874711819731672e-03,6.657046570036819627e-03,1.321755409240722656e+00
6.436103975075868622e-01,-7.681744062104758353e-01,6.439989091889801731e-01,-1.039145473858710429e-02,1.886903532130425115e-03,3.341745510729981009e-03,1.412109494209289551e+00
5.774331975463391498e-01,-5.788345711026077201e-01,6.596341447255398283e-01,7.347114251012053232e-03,1.816248389302873092e-02,-2.141646152124625484e-03,1.199968218803405762e+00
5.880232554320283800e-01,-7.271663994985587687e-01,5.682133791344931018e-01,4.234504885107424031e-03,-2.408891982648564065e-02,8.889865870660584478e-04,1.306085586547851562e+00
6.464298663854327609e-01,-7.779089703438517578e-01,6.506504962196310027e-01,-7.737351274194775343e-04,4.935414005040389060e-03,-4.213861988225128634e-04,1.426480293273925781e+00
6.403509597584435831e-01,-7.670440863658197772e-01,6.636370225878165385e-01,2.902122519506957453e-04,1.840352236747143377e-02,-1.721480276795372055e-03,1.419542551040649414e+00
6.366662001187801678e-01,-7.636325190910946414e-01,6.735811931291219024e-01,-7.072477493609645102e-03,1.506940043709857971e-02,8.531804140341164508e-03,1.419486165046691895e+00
6.466488174054667581e-01,-7.669947672530631477e-01,6.512285676326781125e-01,1.579947747897448131e-03,1.216121746169512505e-02,6.356138858777167109e-04,1.416098713874816895e+00
6.308071549447289428e-01,-7.555253074436807381e-01,6.729308375317790691e-01,3.288131528300990754e-03,4.227030618892381464e-03,1.157486713537620696e-04,1.407897591590881348e+00
6.461596446606681088e-01,-7.734641892869947855e-01,6.480292025028460134e-01,-5.003494436961665459e-03,6.535318637832963559e-03,-4.231877919282276378e-03,1.420650005340576172e+00
6.419338044992015657e-01,-7.654756879940083358e-01,6.518619131175635850e-01,-5.288577294812512979e-03,5.678153530658754155e-04,-2.391841565631793592e-03,1.412435889244079590e+00
3.468845304545924435e-01,-8.733308174967698845e-01,8.319587723850697669e-01,-8.491674415140638976e-02,-1.883694373142891787e-01,1.508534943392015638e-02,1.563611865043640137e+00
6.830242946962156170e-01,-7.716641341854074687e-01,5.724866880053247620e-01,1.127070831027573820e-02,-2.738804876190466947e-02,8.373806863507115769e-03,1.403702616691589355e+00
6.884158339798851500e-01,-7.547779178972547909e-01,5.211247482002980824e-01,1.088208111147218569e-02,-1.007222026617406348e-02,2.604981541501191766e-02,1.368231177330017090e+00
6.423722338548223387e-01,-7.790346207848001248e-01,6.476733067419946366e-01,-2.247148392106108894e-03,8.080161834974474312e-04,-6.303848898743197402e-04,1.424071192741394043e+00
6.430862243868582517e-01,-7.655479515581633532e-01,6.462587506586714436e-01,3.130793722290679728e-03,2.158610304367953193e-03,-5.832340084171746056e-03,1.410274624824523926e+00
6.442943495203150572e-01,-7.625584773436545616e-01,6.510164574426018369e-01,5.310286956666837761e-03,8.203960267749698873e-03,-9.379189752142328904e-03,1.410421013832092285e+00
1.593810362750127108e-01,-1.033216063682731889e+00,1.041817047863708545e+00,1.476845361013079394e-01,-1.437697324509892294e-01,5.688651269067364347e-02,1.841336846351623535e+00
6.516735237486741550e-01,-7.770626034579507513e-01,6.465558832822096980e-01,-2.314355880004902806e-04,-2.029273801863543721e-03,-2.716288226805251525e-03,1.426196336746215820e+00
6.428234203585140305e-01,-7.731811722072846615e-01,6.266939347615246847e-01,-2.098079257820085249e-03,-2.949717135894537080e-03,-8.040466071000841944e-03,1.408092021942138672e+00
6.468889879068018267e-01,-7.783685214316288237e-01,6.467422585953851444e-01,9.700424699369548309e-09,-6.417095415646385847e-05,-6.386855802226853833e-04,1.425184607505798340e+00
6.434979087233523298e-01,-7.629823312918780909e-01,6.220118296843355488e-01,1.189534352354245685e-02,1.659949710059322727e-03,-5.632837292939092168e-03,1.396050333976745605e+00
6.550634367819789805e-01,-7.621576325706385102e-01,6.433809815184008407e-01,-7.465083932795421595e-03,-1.220968321160989176e-02,-8.468756271646964498e-04,1.411634564399719238e+00
6.501218686465315422e-01,-7.651464565368047976e-01,6.441934876140158472e-01,5.127320246919221496e-03,-5.001924216268352659e-03,-7.925464017569109482e-03,1.412434697151184082e+00
6.522395422270953480e-01,-7.739904155237355976e-01,6.424123431034252096e-01,2.235058761617066722e-04,-2.678967628865942807e-03,-2.987564927194009783e-03,1.421358942985534668e+00
6.487991719564843995e-01,-7.772295500189342343e-01,6.456969436331931878e-01,2.675711949732371628e-03,-2.057943450989633671e-03,-6.711199010460360383e-04,1.424492597579956055e+00
3.370154262582825688e-01,-7.386988799991777155e-01,7.685969933015648348e-01,-2.025467301744866919e-03,-1.544166852186879338e-02,-2.043747118011071673e-03,1.344776034355163574e+00
1.789328606825706380e-01,-7.305389216232243133e-01,1.050551632853599981e+00,1.845005126118080263e-01,-2.039024212820986226e-01,-8.148606507113995145e-02,1.620598912239074707e+00
6.452145240815096994e-01,-7.700833461576612748e-01,6.421930895968838149e-01,-2.105849951103892174e-03,-5.372670787757428262e-03,-8.948650788390112576e-03,1.413909912109375000e+00
6.250474872928013514e-01,-7.572583577336582383e-01,6.156945999728664631e-01,8.218220196548111159e-03,5.622981627792088700e-04,3.143036521692775553e-04,1.377727150917053223e+00
9.991710963793948297e-01,-1.308215545987152728e+00,3.543825825053739664e-01,-7.974460198192115379e-02,4.201889932837481467e-01,1.699405951646798529e-01,2.210747003555297852e+00
6.348412308271607074e-01,-7.639806445426839954e-01,6.563551974676586909e-01,-1.130630148445280724e-02,3.424248685737366158e-03,-3.225145659914280347e-03,1.409861564636230469e+00
6.482484039987486124e-01,-7.783492330140799886e-01,6.460215833950498920e-01,-8.548409307818633082e-04,-3.438328174466472129e-03,-9.076338986590865195e-04,1.425499558448791504e+00
6.433622836359893515e-01,-7.643212546716880995e-01,6.473583332663628287e-01,9.277218200162196116e-03,-1.190997660795938343e-02,-1.560622477036643484e-03,1.409930944442749023e+00
6.417678616854346485e-01,-7.678543718539760921e-01,6.464155906505137938e-01,6.587836986109482824e-03,1.435032809434837013e-03,-4.677982677892378966e-04,1.412000417709350586e+00
6.529489092283808915e-01,-7.588826766399349166e-01,6.639334253225840365e-01,7.290713222751267833e-03,5.428059808712514325e-03,5.599598384791979432e-03,1.417476415634155273e+00
6.461537477212839775e-01,-7.742274346616714320e-01,6.460240607630393095e-01,9.925649185368581526e-04,-3.757182723535383486e-03,-1.675392299523151230e-03,1.420335292816162109e+00
6.229254615794723726e-01,-7.576184695168888261e-01,6.155214849870209726e-01,8.895115744666707083e-03,-8.654824721244788266e-04,6.488982516549430526e-04,1.376944303512573242e+00
6.553115258122546027e-01,-7.509208584122157859e-01,6.359998956433539075e-01,-7.710195228905611028e-03,-9.449942310351122643e-03,7.116358027268052111e-03,1.396890878677368164e+00
6.432341857839536381e-01,-7.695272473182901418e-01,6.427488607754888728e-01,3.468864627621482018e-03,1.303713741817771670e-03,-7.309894211076028991e-03,1.412590146064758301e+00
6.378180624590381598e-01,-7.709370760221115892e-01,6.373505314170226921e-01,-1.285054834470851243e-03,1.542466159491037714e-03,-3.534203043146359399e-03,1.408539056777954102e+00
7.024880007125430259e-01,-7.539389231864016550e-01,4.932083722403909909e-01,-6.159532662428978539e-03,-2.331036593227113832e-02,7.748433969039878605e-03,1.364588141441345215e+00
6.293930552249940025e-01,-7.656917567852190576e-01,6.279117407762710990e-01,5.710022618903491318e-03,8.058248946186932684e-04,-3.850528110395399616e-03,1.394396424293518066e+00
5.860091214859138864e-01,-7.248216746591004123e-01,5.773483568916946140e-01,1.287548989120558584e-03,-1.878641878259614461e-03,1.639802732134422198e-03,1.306530952453613281e+00
1.123547364055256459e+00,-1.318556766314705531e+00,1.349602374238111635e-01,-1.307021308779540703e-01,2.438015958822331228e-02,5.388686662289371432e-02,2.142122268676757812e+00
6.415493447571558594e-01,-7.722562556049960003e-01,6.272790224554001259e-01,7.642480254964629377e-04,-7.786129683513698038e-03,9.006939832033576416e-04,1.406790852546691895e+00
6.437774989682891746e-01,-7.696672731729030659e-01,6.589614858405511422e-01,-5.085167590755199779e-03,1.229104475487367495e-02,-4.744775153595665387e-03,1.421308159828186035e+00
5.569568501512867087e-01,-7.234089617151648888e-01,6.083614014449358898e-01,6.227628638474802135e-04,-7.578499185753116707e-02,3.486297896373590985e-03,1.313416719436645508e+00
6.422991632557852881e-01,-7.572819241308187399e-01,6.627142327255632903e-01,-1.379935318952774884e-03,-9.913918416552688906e-03,1.900568907365441079e-03,1.410009860992431641e+00
3.111259564464601279e-01,-9.158497187912251203e-01,8.514653049312905786e-01,-6.351746400148093608e-02,-1.704996765481968934e-01,-3.318467862322030046e-03,1.599926829338073730e+00
6.483737204195585413e-01,-7.660775072511629702e-01,6.414723781519580115e-01,1.446234390170953290e-03,2.014107506959602126e-03,-8.280499809767158034e-03,1.411092638969421387e+00
4.365364596388068841e-01,-7.341952330274544858e-01,7.067320118759123915e-01,-1.330147265438262139e-03,-5.887855740227039558e-02,-5.662431449312806467e-03,1.330581188201904297e+00
5.349788776030909299e-01,-7.566107448314481898e-01,5.991616636576451160e-01,-2.367618679222572090e-02,-1.008379961812075343e-01,-2.388884749938549601e-02,1.337579727172851562e+00
6.018752808263834186e-01,-5.996008970021176054e-01,6.627132822392529654e-01,-1.755989438320709056e-03,-9.560748408865737263e-03,5.376743662725950307e-03,1.233171463012695312e+00
5.019493165280601854e-01,-7.369056779821365755e-01,6.253198986658428105e-01,1.350733218553207271e-02,-4.116936596749579125e-02,1.329656109634987267e-02,1.307280659675598145e+00
4.374175975670975824e-01,-7.341771976734075000e-01,6.911796557636875615e-01,-4.662227103083256899e-03,-6.592990542689768085e-02,-2.008442616339269765e-02,1.322365880012512207e+00
7.129839791355830902e-01,-7.536680835047671057e-01,4.855892609678712502e-01,-1.085505232615387172e-02,-7.322109186997950367e-03,8.694269728039766623e-03,1.367482662200927734e+00
6.563275027916206650e-01,-7.527770473157044950e-01,6.429212155008723339e-01,2.092335826222507041e-04,2.225937718669744256e-02,-1.181537551778751895e-02,1.403128623962402344e+00
5.850471150132129372e-01,-7.222715034847455584e-01,5.947731895990646667e-01,-4.362998964722235133e-03,3.322849351164066517e-02,4.360534210006240807e-03,1.313513636589050293e+00
6.066228559249000618e-01,-7.433721968652119427e-01,6.034504797860757996e-01,-1.666892184250430217e-02,2.328911511875279838e-02,1.611611873393544239e-02,1.349612474441528320e+00
5.878657242726421650e-01,-7.320907649674370798e-01,5.937582968689084639e-01,-3.929630892661432548e-03,2.868724143899649155e-03,6.776803194608937118e-03,1.322991490364074707e+00
5.822072929804222863e-01,-7.251814407252722416e-01,5.858705945384015124e-01,9.149541887237998749e-04,1.434322530595798012e-03,7.792922844601233223e-04,1.309228181838989258e+00
7.681290851447821755e-01,-7.344458762639799465e-01,3.500834873073084275e-01,4.502042460718303288e-03,-5.391764556230671177e-03,3.393027897948225607e-03,1.343328475952148438e+00
5.633953376196354501e-01,-7.249495184986309848e-01,5.970918758016898753e-01,-1.965225075579906180e-03,1.584773262293743060e-02,4.621050385572268368e-03,1.305836796760559082e+00
5.857737632087600677e-01,-7.237526016951506547e-01,5.827514209987283422e-01,-1.917458454909864258e-03,4.940113657335450277e-03,-1.597925251191745341e-04,1.308050036430358887e+00
4.961812476110277759e-01,-7.613729010002898701e-01,7.134948967305203560e-01,1.000373974547466918e-02,8.372857139383670447e-03,5.673820364748716032e-03,1.379332661628723145e+00
6.203590332991311129e-01,-7.685259250616028881e-01,6.450827754879862042e-01,-7.799074952654133988e-03,1.595857356962368794e-04,-1.185027876164634723e-02,1.401625871658325195e+00
6.453122088124140232e-01,-7.715368456628851623e-01,6.545072292622622356e-01,1.012487845625071985e-03,-1.276201094340704591e-02,-1.693662805793771844e-03,1.421644806861877441e+00
6.521567136630663786e-01,-7.760326418481600097e-01,6.449938771206417121e-01,1.894170254908899252e-03,-4.095091735464612311e-03,-1.496833648390386885e-03,1.424645185470581055e+00
6.417074139808692790e-01,-7.636049745872131034e-01,6.440171586758869360e-01,-8.987899905085300692e-03,1.937941414905870394e-03,3.220474209156519007e-03,1.406569957733154297e+00
6.362434248458077590e-01,-7.674918066463192190e-01,6.231964644142877763e-01,-1.255917914312708848e-02,-2.728912013565081354e-03,-9.663456217603927020e-03,1.397534966468811035e+00
6.397921594257791611e-01,-7.737273662770650651e-01,6.457045252850417416e-01,-6.659189799559367753e-03,5.826348105110191675e-03,3.020581631555287715e-03,1.416577577590942383e+00
6.075664209153200934e-01,-7.584376818888377558e-01,6.246338180664221529e-01,-1.058741292485975566e-02,-6.623236420019213214e-03,-1.438012559823631260e-03,1.374789714813232422e+00
6.415484314071713268e-01,-7.634292106761421115e-01,6.528089985986049726e-01,-8.471101110220270389e-03,7.405608312819797999e-04,-6.213001519287007605e-03,1.410759568214416504e+00
6.447263240608998025e-01,-7.602454431576349814e-01,6.569945926187696905e-01,-1.694248647772813665e-03,1.833153683944951581e-02,-3.066222181941619714e-03,1.411516070365905762e+00
6.047934242010624128e-01,-7.602166230369474809e-01,6.708611621814415393e-01,4.450806955190804784e-03,4.907783523049520993e-03,-9.072784404181480356e-03,1.399349570274353027e+00
6.399794618688741110e-01,-7.571752181431866680e-01,6.421896166953029450e-01,-5.064823523462024142e-03,5.301469295653513450e-03,2.963805753850991091e-03,1.398328185081481934e+00
6.277110917905757148e-01,-7.627606840917326991e-01,6.230751881276573867e-01,-5.927481283043100312e-03,-9.520458978286024110e-03,-6.740923868536383666e-03,1.388344645500183105e+00
6.372483307970865374e-01,-7.720080909244362299e-01,6.282294750077970225e-01,-5.587324904866913453e-04,2.905694111869589445e-03,2.846484650569252369e-04,1.404778122901916504e+00
6.555017760513253133e-01,-7.455882390135375459e-01,6.444367392594234634e-01,-1.153147955796560847e-02,-1.189082787960713330e-02,1.509753305978043213e-02,1.396130204200744629e+00
6.391915716652389889e-01,-7.166347265287449364e-01,6.595584164420337236e-01,2.889868068148791595e-03,-2.507839225100462477e-02,-3.935677357267534406e-03,1.366840124130249023e+00
6.315676813485804342e-01,-7.618979766838599454e-01,6.285408649090479249e-01,-4.966807953062720056e-03,-5.867475659854881707e-04,-7.133859489415289752e-03,1.392036557197570801e+00
5.043746791702167220e-01,-7.383053792068939858e-01,6.069761892881928578e-01,-6.444826241903212592e-03,1.001678317121827699e-01,8.308535740173915787e-03,1.308706998825073242e+00
6.266893164162681273e-01,-8.409712004635223614e-01,7.088273072610680181e-01,-6.275869961039062458e-03,1.601270848579765538e-01,5.656121981802168276e-03,1.535728096961975098e+00
6.455202545919529467e-01,-7.708511214648822163e-01,6.359704259063059251e-01,5.109006431419630193e-03,1.370850219118295620e-04,-3.908654719195246881e-03,1.411664724349975586e+00
5.679220491169312268e-01,-7.466937730147239494e-01,6.889451229989541625e-01,8.959727317313249256e-03,-1.096763931729532494e-02,-1.461210373772869886e-02,1.379566073417663574e+00
6.149382022011677940e-01,-7.487401107620550444e-01,6.078736544379308437e-01,9.022622745054548546e-03,6.595831687742018633e-03,-1.030013972692185066e-02,1.360414505004882812e+00
6.649948281081629053e-01,-7.474021288458413403e-01,6.367398154508172592e-01,8.220744121931704632e-03,1.131308938686775151e-02,2.300960568617878375e-03,1.398698925971984863e+00
5.265300569789712615e-01,-7.492721651888765155e-01,6.610197210502535281e-01,-2.860716635723231562e-03,1.440575707488750586e-02,-1.938499891577911624e-02,1.348745822906494141e+00
4.051659233050856623e-01,-7.305294234160151223e-01,7.254617259351413550e-01,-2.807385121373022225e-03,2.766445627487014794e-02,-1.161099827554505463e-02,1.326226115226745605e+00
6.204506624269181536e-01,-8.476524687574531480e-01,7.337353137317331742e-01,-2.709614120824146641e-02,5.410363834521036974e-02,9.940211408743106214e-03,1.531585574150085449e+00
5.252700472024296463e-01,-7.754122367488420764e-01,7.034405789678778165e-01,-3.426189256851381259e-05,2.896651567361351043e-02,2.348998271951225573e-03,1.399212718009948730e+00
6.119505449982625134e-01,-7.535020376451635471e-01,6.047067572640161259e-01,7.404093451853701637e-03,3.583927808772075126e-03,-5.749413417058058320e-03,1.361956119537353516e+00
6.582504565409794672e-01,-7.723092359196296330e-01,6.428289405049741889e-01,-1.011574474968734375e-03,7.201921002389648392e-03,1.997827308648733070e-03,1.422971606254577637e+00
6.510466116864521702e-01,-7.778126577274490083e-01,6.456852243837657435e-01,4.374258714161716102e-04,4.363992279361131148e-03,1.517639050768107697e-03,1.426208734512329102e+00
7.026910104806467494e-01,-7.637077362653265089e-01,5.842638603191572244e-01,-1.486522023930049289e-04,-2.103705575887829596e-03,1.147890635651626148e-02,1.411062598228454590e+00
6.690612926978694031e-01,-7.612316851268657869e-01,5.764185282845057934e-01,-1.304374839965075430e-02,1.275262515043307796e-03,1.269281385197417594e-02,1.386655330657958984e+00
6.516183689974832660e-01,-7.710221403955097585e-01,6.470025241413706052e-01,-2.441665033693688446e-04,8.546322816867230401e-03,1.989284154971023445e-03,1.420419573783874512e+00
5.863397729667836344e-01,-7.469970582709208884e-01,6.707743817468428960e-01,-4.368254226930302041e-03,-5.739750031771569810e-03,1.282888931727867166e-02,1.377732157707214355e+00
5.192255522564126480e-01,-7.697191622534542699e-01,6.965284446006807517e-01,2.776948243357084747e-02,-1.271752489064723740e-02,4.915073231378207230e-03,1.387162446975708008e+00
4.699469700706850328e-01,-7.912859372735203678e-01,7.366164828656708297e-01,5.108213092032613811e-02,-2.232164823611674023e-02,1.800332701090725379e-02,1.417197465896606445e+00
6.382958703156063063e-01,-7.428323350512012757e-01,6.616510666659809470e-01,5.990158341480538925e-03,1.651989769412495063e-02,7.278177034753964721e-03,1.393342137336730957e+00
6.120339275757160635e-01,-4.045720636484726462e-01,5.866946984127570097e-01,8.131942299049596534e-02,-2.058933546656145641e-02,-6.035228049244406590e-02,1.020003557205200195e+00
1.009863403625442801e+00,-6.666649835877197505e-01,3.497762409125006466e-01,-9.025797196865345540e-02,1.856838825957773942e-01,1.696747842284532237e-01,1.534291744232177734e+00
7.766038131245581733e-01,-3.921824284381608683e-01,5.773400273371203095e-01,-9.752539424122629030e-02,2.647772707597321751e-01,6.510056720785742379e-02,1.193498849868774414e+00
6.879450312499876263e-01,-7.573938004250746481e-01,5.166416151732640127e-01,1.105486516292757820e-02,-1.437587492936558305e-02,-6.946652788764284131e-03,1.368170022964477539e+00
5.038761571603116440e-01,-7.280316907549747585e-01,6.556739142479870441e-01,2.173307885381953273e-03,1.963721304535420015e-02,6.407525709665968204e-03,1.314889550209045410e+00
9.546065073546113888e-01,-1.192789745709299964e+00,3.354360290469522998e-01,-8.576093992148639544e-02,-5.260402324584011469e-01,-3.392726072910584589e-01,2.205133914947509766e+00
5.971054878663135668e-01,-7.773396634301414920e-01,7.640820541819060008e-01,-4.774638957075941909e-02,-4.502173724514195452e-02,-1.879023905888094204e-02,1.469850301742553711e+00
6.500944102651906586e-01,-7.610886425084889551e-01,6.563088174886870796e-01,-6.215842922301885974e-03,2.393678252040010168e-02,-6.369531249950115617e-03,1.414991974830627441e+00
5.531362039108072004e-01,-2.153915988766347267e-01,5.518715709999286734e-01,-1.015886681011507302e-03,5.048007016098631297e-03,-3.498351086782566614e-03,7.679719924926757812e-01
7.328790748676029532e-01,-7.720733418262220038e-01,3.241128823272032555e-01,-2.973204070040662630e-02,1.680399209129675997e-01,3.733428964964017466e-02,1.381428122520446777e+00
2.180804404102097971e-01,-6.869524395819025520e-01,9.143260534348786051e-01,1.870348921923123756e-02,-1.029296273762135422e-01,3.729607133534382224e-02,1.403913736343383789e+00
7.988245939163611808e-01,-8.224313295249896516e-01,3.776835184900459996e-01,-1.296593203266718612e-02,1.124120628937934213e-01,5.118529329423248536e-02,1.472863435745239258e+00
7.903806201261119879e-01,-7.647446558415935680e-01,3.476946463235754958e-01,-4.672582955306859437e-03,-2.754869964198780607e-02,-2.914030583007656480e-02,1.389547824859619141e+00
6.404413190675052325e-01,-7.544777129232973500e-01,6.552082585554788174e-01,-1.152445330225407120e-03,4.310134636318101696e-03,2.250021455941806844e-02,1.402923464775085449e+00
6.013439515108982558e-01,-7.521806800257974102e-01,6.126288739937084671e-01,-8.654589956240923976e-03,-1.397675981691603661e-02,-8.233207675071031392e-03,1.359575271606445312e+00
7.864381690612788356e-01,-7.376837843896263402e-01,3.043324168161584686e-01,2.694940136933878568e-03,1.270110757752883346e-02,3.214734967926765122e-03,1.349489688873291016e+00
7.717942363740312173e-01,-7.588421145863186723e-01,4.028028079408593753e-01,-1.301628680396043833e-02,1.156822091365023591e-02,2.592789631277171020e-02,1.384607195854187012e+00
6.472115218477793031e-01,-7.636590014499647916e-01,6.058629569039046814e-01,-1.692815193856828798e-02,-3.202857216136890863e-03,3.689554346459642930e-03,1.390992164611816406e+00
5.178222822207168008e-01,-7.348283034126590341e-01,5.243224461952389337e-01,-2.999907318081099228e-02,-3.327623828771312797e-01,3.367016831287772405e-02,1.384056210517883301e+00
7.257559246130327324e-01,-7.566457717623963353e-01,3.934895658318978695e-01,-2.596015625030156579e-02,1.004447077197841987e-01,2.658081289291276683e-02,1.360063314437866211e+00
6.532945214547882795e-01,-7.451308394476497954e-01,5.478462340234468986e-01,-1.868742148938430311e-02,-1.334618281652214834e-02,-1.429448118857961064e-03,1.349384784698486328e+00
6.843607811164922339e-01,-7.448998498170898985e-01,5.203973822319737375e-01,-1.284201231130715354e-02,-1.092481107624741939e-02,7.641158160567971570e-03,1.355120420455932617e+00
7.342655629904372150e-01,-7.562561320644726193e-01,4.819264689799063195e-01,-2.563145463794258387e-03,1.096236669924017951e-03,7.176287583415092222e-03,1.381807088851928711e+00
7.554261607981536120e-01,-7.534207771085909000e-01,3.978577125413466642e-01,-1.669227808058252813e-02,-2.915196443394948989e-02,-1.091643638778994757e-02,1.367004394531250000e+00
6.970049982504764596e-01,-7.846296795208519415e-01,5.228967128292858479e-01,8.444657018421897199e-03,2.681674970398199853e-02,2.874202675061671847e-02,1.404435753822326660e+00
5.376695002813789426e-01,-7.504736763863339988e-01,6.509070401359037250e-01,1.031430211644345125e-02,-2.268144819180291372e-02,-8.485316723822298665e-03,1.349103450775146484e+00
5.849682409182437315e-01,-7.385392539264203915e-01,6.246205160790530009e-01,-2.131324671518577268e-02,-4.127511970537012242e-02,-2.076386897304354634e-02,1.346659421920776367e+00
6.935654286345908082e-01,-7.302926868065358068e-01,4.589193738331693306e-01,-5.296670509905740745e-03,-1.132321958795663164e-01,-3.245746622108843047e-03,1.336752891540527344e+00
6.712663590570689953e-01,-7.341111376193808491e-01,5.221059431678248819e-01,1.211575028237378213e-02,-7.085445664667948396e-02,2.222917271553558321e-03,1.342841863632202148e+00
6.223938308667622543e-01,-7.628473497644296941e-01,6.083473591923178603e-01,-1.873636682176316182e-02,-7.496873204131131521e-03,-4.263328473257083566e-06,1.378714799880981445e+00
5.510832753045886712e-01,-7.547693940642603572e-01,6.461957719632400732e-01,-1.489735096231204446e-02,-2.862607903869382811e-02,-1.432343043674834393e-02,1.357291460037231445e+00
6.298944092278679907e-01,-7.383910182821293855e-01,5.587198618787606597e-01,-1.006638766421514251e-02,-1.612312823613451171e-02,-2.371529772071765720e-03,1.334535241127014160e+00
6.146737677260284416e-01,-7.275842502781392218e-01,5.607474185163159319e-01,-5.015197057884594571e-03,-5.764818735090702397e-03,1.064793579785847663e-03,1.316191554069519043e+00
5.777341509163674838e-01,-3.867492005841318692e-01,6.026265978872848983e-01,2.279019805498787646e-03,2.623979614988134011e-03,-5.582683635101925437e-04,9.771864414215087891e-01
5.760166298196748302e-01,-7.554683629825532654e-01,6.261709669799297995e-01,-5.499885580588149969e-03,-1.882986941011104837e-02,-1.165884997233017882e-02,1.357832670211791992e+00
6.111709891843215559e-01,-7.487415717920696823e-01,6.395856162199171635e-01,-1.160655321848656600e-02,-1.149914231833803167e-02,-2.141434427242236427e-02,1.375131845474243164e+00
5.255993319891245630e-01,-7.443320785070096646e-01,6.347708196090358079e-01,-1.885246541642527154e-02,-2.440585241466347241e-02,-2.319461992368973199e-02,1.329568266868591309e+00
6.432447941504011446e-01,-7.739755064068870594e-01,6.388375548759710476e-01,-4.295398189017453350e-03,3.496363737838490988e-03,-6.474900613781951059e-03,1.415098786354064941e+00
6.419048062989560766e-01,-7.600541920905724558e-01,6.578879371859462921e-01,3.962013793560060886e-03,-4.705732910327026230e-03,-1.486843328965442839e-03,1.410061120986938477e+00
6.442209040754378613e-01,-7.729785466976241137e-01,6.521865375579471991e-01,3.115713232565443021e-03,-2.058119561218889251e-03,-1.297934150954317776e-03,1.421215534210205078e+00
6.616966695512737084e-01,-7.572660939003309499e-01,5.298759716342160697e-01,2.514977474734357912e-02,1.304825570026767190e-01,-2.153727850218356901e-02,1.377733469009399414e+00
6.430796232055298045e-01,-7.628621194985711895e-01,6.237980433676872938e-01,1.950187496488275246e-02,3.600509598997753309e-03,-8.857544223760156418e-03,1.396907448768615723e+00
6.363571435658958997e-01,-7.532794345428367455e-01,6.680602057130308191e-01,2.071550134143722733e-03,-1.235667183155970787e-02,6.147252843812247257e-03,1.405964016914367676e+00
5.916463028618971220e-01,-7.393028150131136789e-01,6.000335729985764033e-01,1.092999603955813626e-03,-4.256731735752875001e-03,-1.269640222198229699e-03,1.335186004638671875e+00
6.369826311207594793e-01,-7.645903341082123106e-01,6.673441332342637811e-01,3.838724598576644803e-04,-6.941602058749499898e-03,2.133431365476343503e-03,1.417053699493408203e+00
5.739322752170405995e-01,-7.509884446007411007e-01,6.500513996375436587e-01,-2.051872251664788038e-02,6.635309477513376755e-03,2.091845695008737183e-02,1.365565299987792969e+00
6.393945287120526011e-01,-7.694346951908884735e-01,6.620563707942881404e-01,4.360257318765612192e-03,-3.547434781722797088e-03,-4.794058264172289968e-04,1.420329332351684570e+00
6.351226592554229944e-01,-7.435172105684240140e-01,6.570353695098457569e-01,-2.974091798883711675e-03,-1.863133767371226435e-02,6.833427311285875973e-03,1.390160322189331055e+00
6.659200273951793037e-01,-7.463402078385948935e-01,6.294161514066130003e-01,-1.552623142150150745e-03,-2.507936672885307475e-03,1.407838052245683706e-03,1.394378185272216797e+00
6.732594510804450483e-01,-7.607775344312674992e-01,6.333504969376497762e-01,1.588840154884282050e-03,-8.541009313443316889e-03,-8.862484665653052598e-05,1.414584875106811523e+00
6.922599709206168628e-01,-7.566916057856852840e-01,5.048911592432600015e-01,7.953115699239027975e-03,1.488315994810462950e-02,1.076942880446252887e-02,1.365386962890625000e+00
6.702684027011183154e-01,-7.635198037690594797e-01,6.341567079258219053e-01,-1.038514414147443266e-03,-8.277424768283761503e-03,1.818465609638849831e-04,1.416151523590087891e+00
6.602923354687547652e-01,-7.537265188367395785e-01,6.342620218126100440e-01,4.281566499544455819e-03,-4.067669516688244592e-03,-3.328918080715086245e-03,1.401234269142150879e+00
6.118213706546480335e-01,-7.410763864804639223e-01,5.852803600919526117e-01,1.049733378666417583e-02,3.172599273769608451e-03,-1.585495330330791933e-03,1.339961886405944824e+00
6.662675173695695729e-01,-7.528110765373179358e-01,6.374053930806516943e-01,3.473610339932364181e-03,-3.070413368602922192e-03,-3.920310823139034999e-03,1.404909253120422363e+00
9.923003391585306643e-01,-9.494606711052171466e-01,1.523706446789490632e-01,1.715946261163801400e-03,-1.602565230191381751e-01,-4.558816071122556018e-02,1.711217403411865234e+00
7.353312284925130893e-01,-6.943517307335692612e-01,5.755803821099404471e-01,1.598951555439133768e-02,1.264599526750326448e-02,4.986988344806764228e-02,1.360083937644958496e+00
7.471986902671368114e-01,-7.153065970976779653e-01,5.434514391236064945e-01,4.046853596949721854e-02,1.518715935834866757e-03,9.672505217114781007e-02,1.383994340896606445e+00
6.460934801347900658e-01,-7.772974218793454737e-01,6.479861232894119638e-01,3.492165867183452525e-04,-3.275953502480213539e-03,6.057225602524211145e-04,1.424350023269653320e+00
6.494290540426352898e-01,-7.449107902675672355e-01,5.532033650465775221e-01,1.712184870202313955e-02,1.299779970551541777e-02,2.034007826250241405e-03,1.349322199821472168e+00
5.704976382820188263e-01,-5.908835845953218646e-01,6.673488830924060311e-01,9.909290831357140533e-03,6.536647965923294938e-03,-1.121762960658203483e-03,1.212886691093444824e+00
7.144900881072501209e-01,-7.308502847154175752e-01,4.340685848211374154e-01,-4.484067521183050277e-03,-2.841612809528929959e-02,3.181622516952084707e-03,1.328477978706359863e+00
8.544282757929707595e-01,-8.089463405833232645e-01,5.437128321062539849e-01,-3.742541373982882780e-02,8.990310449753252664e-02,1.238592373891458584e-02,1.541243910789489746e+00
8.024392653088250338e-01,-7.846010644616986385e-01,4.698898235140943624e-01,1.770732022512707879e-02,-4.816363340557754807e-02,8.826731481567890586e-03,1.452463507652282715e+00
6.566127074396783669e-01,-7.328057200789592773e-01,5.205240560623806134e-01,-1.180603009648679633e-02,1.345672203708072646e-02,-3.927665933566770219e-03,1.326999306678771973e+00
6.517780082799164987e-01,-7.718988181086315903e-01,6.484398595378395580e-01,1.721560642450610306e-03,9.430782037695132139e-03,-9.646767895276611628e-04,1.422108650207519531e+00
6.994481890993975437e-01,-7.504225508699493563e-01,5.180233867470888098e-01,-8.845124077666932996e-03,-4.914397522450113590e-03,5.376579049976291588e-03,1.368353605270385742e+00
8.652001163691324104e-01,-8.468737424671937131e-01,3.154564687602690043e-01,-1.268347026122029417e-02,-4.854371996767381514e-02,3.327071238353395549e-02,1.517592191696166992e+00
9.834431168902574294e-01,-9.477976075906591191e-01,1.221307498165708078e-01,-6.560823098756007887e-02,-8.467898356215759759e-02,-3.125545846738189693e-02,1.686862111091613770e+00
1.029653940407093238e+00,-1.137456510450928215e+00,1.636430596020587436e-01,-1.680435828493208675e-02,-2.143213818619499056e-01,2.245071357212481411e-01,1.964550733566284180e+00
6.370615509565193957e-01,-7.674762208346253001e-01,6.695113537335140030e-01,3.121499913610793441e-06,9.571156746388188169e-03,2.677250935839084120e-03,1.421144843101501465e+00
8.919914187243664916e-01,-8.349402612864130768e-01,4.145314655581026630e-01,-1.752981339718369391e-02,-1.004683029085711166e-01,-2.795165156724492214e-02,1.555399537086486816e+00
6.191541840632842630e-01,-7.282944271952195292e-01,5.187509665871912201e-01,-6.188734918408406172e-03,-3.062633745864039997e-02,1.668700006420364848e-03,1.301286935806274414e+00
7.697411042634201284e-01,-7.502731560951736434e-01,3.512393968587829152e-01,-9.459825748814322229e-04,-1.306813382446388519e-02,-6.231782393281935610e-03,1.360180139541625977e+00
8.001486676972916490e-01,-5.846586773360763489e-01,2.740698242286475628e-01,-2.028412896191481019e-02,-1.468744481152422891e-02,3.444100137185750199e-02,1.213001489639282227e+00
9.727528901886690615e-01,-9.956590809563805600e-01,1.022821571023887210e-01,9.927488917995556938e-02,2.776779816127295519e-01,-1.320449591431181458e-01,1.797806739807128906e+00
6.648270467373146309e-01,-7.600342321932539447e-01,5.588400175470393805e-01,1.906681249184589283e-02,-6.891276310935542937e-03,1.619076822787209047e-02,1.375669121742248535e+00
6.081688341360278471e-01,-4.035102771201959371e-01,5.763280337222227434e-01,-4.363518493728886158e-03,-4.079756954611232431e-03,2.370843006037698202e-03,9.962026476860046387e-01
4.062674431444568413e-01,-7.386800503052115552e-01,7.261825512327781951e-01,-1.278341096397172258e-03,-2.554354378543006315e-02,4.061738126913149761e-03,1.334746479988098145e+00
7.420426846507781615e-01,-7.711503845006044688e-01,4.719767481605625647e-01,-2.420889024290822852e-02,5.387461417078640014e-02,1.811832829052446511e-02,1.401954889297485352e+00
5.460518269584591078e-01,-7.293049979880459333e-01,5.669028401742417511e-01,3.661739693469439651e-03,-7.638071492042854127e-02,1.010015918761931336e-02,1.292830467224121094e+00
9.283695825637565680e-01,-8.979486495717181604e-01,1.988915432417008577e-01,7.369604007325314052e-04,-1.411570097998950286e-02,8.597873511504346145e-02,1.599404215812683105e+00
6.640825068007021326e-01,-7.356070001289819471e-01,5.741557948841593539e-01,2.136776217281027498e-02,-2.073915611654291238e-02,3.795987974536279164e-03,1.357958555221557617e+00
7.640186769376636766e-01,-7.478534315350257033e-01,3.972699374085399970e-01,-1.442598318357831647e-03,1.415161009920753304e-02,-4.360178243886770472e-02,1.368245244026184082e+00
6.377820213671896443e-01,-7.631798103168949687e-01,6.721824429993628058e-01,4.082104589508478085e-03,1.120128642293897504e-02,1.236581100410954343e-03,1.418626785278320312e+00
7.247609310931051319e-01,-7.323557727039892162e-01,4.152215776490998933e-01,5.870679908461355796e-03,-2.557305209603839488e-02,-2.570074191625738597e-03,1.330433726310729980e+00
9.286646068611149607e-01,-8.215800576458346383e-01,1.246400110362082814e-01,-5.342049016381139603e-02,6.490959720399398780e-02,2.527778768621357849e-02,1.525021314620971680e+00
5.911368640627541193e-01,-7.384644262202882947e-01,5.959988678034655596e-01,-8.555173052654716642e-03,-3.751015916493921892e-03,-2.038364424743371092e-03,1.332141876220703125e+00
3.409364754037352285e-01,-7.801548009051006982e-01,8.227082948662782780e-01,8.988892714351034985e-03,-1.279290070131399171e-01,2.474954909299484015e-02,1.442302823066711426e+00
5.994537561381774182e-01,-5.756830741230695159e-01,6.581234551852864767e-01,7.840924752324196197e-04,3.778260786394647183e-03,-1.465928363592233601e-03,1.205564022064208984e+00
4.036606054989782533e-01,-7.471900529870190155e-01,7.562780152404700029e-01,8.654152953687731242e-03,-1.278732700834681393e-02,4.467910473020803366e-03,1.362123847007751465e+00
3.669262875235826948e-01,-7.361872116934684573e-01,7.651154792091769963e-01,-1.743635781514760782e-03,-3.712177097389964681e-02,8.646010138086362637e-03,1.348713994026184082e+00
6.378586903071044034e-01,-7.568016235658553414e-01,6.049350942820903576e-01,-8.974295286740732042e-03,-7.462050087834105894e-03,-4.245406129435752437e-06,1.378641605377197266e+00
6.159328194702626824e-01,-7.431675343853094695e-01,5.616923795704895639e-01,-1.870680673049321049e-02,-1.197852730346697821e-02,-1.657310684100721113e-03,1.333366513252258301e+00
3.975759297477527432e-01,-7.568609440763099938e-01,7.797812244001329773e-01,-1.327811607060631373e-02,4.110697332108843166e-02,-9.506332427572301499e-03,1.387770414352416992e+00
3.028680732675711473e-01,-7.585953157302453009e-01,7.967083062653391723e-01,-2.297422288544135466e-02,3.665115507977929205e-02,6.598244226309132529e-03,1.378593444824218750e+00
2.100420848074109892e-01,-1.201158338285492455e+00,9.792161792046770730e-01,1.070541390244497265e-01,-1.691202909417746925e-01,-3.603973935512946175e-02,1.947474718093872070e+00
3.413836691145210045e-01,-7.378282514262102243e-01,7.902501996381418037e-01,-2.101421252710750781e-03,2.777270984789488324e-03,2.956298728473121668e-03,1.360391259193420410e+00
3.409982920255544281e-01,-7.640890893199124845e-01,8.015976041851768930e-01,7.470048810561400951e-03,1.045914325038893589e-02,5.983422845278312148e-03,1.393906474113464355e+00
6.551632469778208012e-01,-7.631200052725392036e-01,6.462969968885565741e-01,-8.446266940948407532e-04,-2.170282933052063851e-02,3.890002721259777640e-03,1.414387345314025879e+00
6.526171947121894856e-01,-7.733225529500804551e-01,6.508970018806394808e-01,2.728088137744742736e-03,-1.011166743892462187e-02,-1.940801152026988736e-04,1.425195932388305664e+00
5.938079163365208579e-01,-7.258835943197531337e-01,5.793958626577953019e-01,1.235670417685996812e-03,8.629952177186836146e-03,6.525294830752171975e-04,1.312632203102111816e+00
6.545145443599680313e-01,-7.561059527379194733e-01,6.623817216417545728e-01,2.329903882748477970e-02,4.949840160160515548e-03,2.522521818320528752e-03,1.415178775787353516e+00
6.229731463239356337e-01,-7.643153057218698976e-01,6.351693182140016880e-01,4.034067635202229912e-03,8.834526821719911396e-03,-1.273556526825239503e-02,1.393702626228332520e+00
6.014632435900943985e-01,-7.676185293346005079e-01,6.750331031495132583e-01,2.095400433124922773e-02,1.303763145926373386e-02,-9.072896710271352583e-03,1.408046364784240723e+00
6.279891874181038336e-01,-7.679954332539579154e-01,6.280829119564919072e-01,5.604602355752867464e-03,-1.824055244856035273e-05,-5.498788207035532061e-03,1.396097779273986816e+00
6.253537435711924442e-01,-7.736140090079889342e-01,6.439984198934882720e-01,-1.619785851023896857e-03,-9.413344438057698327e-03,-2.090806402350026735e-03,1.408484458923339844e+00
6.159260884132717884e-01,-7.204796274386472410e-01,5.546124560148846250e-01,9.125237604443867806e-03,1.080446846285180659e-02,-1.537311329907996077e-03,1.307060360908508301e+00
8.876108698599215474e-01,-7.678958785528462450e-01,2.557289814903139780e-01,-3.109703279123930686e-02,-3.755996483267432656e-02,-7.400051698327851646e-03,1.449548244476318359e+00
6.405364528832326876e-01,-7.660924977571912375e-01,6.517711276547838439e-01,4.957157987480635686e-03,-3.829419879113805329e-03,-4.458594610309562188e-03,1.412342548370361328e+00
6.395886666453248770e-01,-7.702052473302529734e-01,6.418887984013790238e-01,6.728822321758647258e-03,-3.666518751329460573e-03,-1.044024770399947129e-03,1.411008954048156738e+00
6.435895212223827766e-01,-7.698330555724618440e-01,6.401590535917565106e-01,7.988428104814020853e-03,-3.983849869242327667e-03,-1.770798836443559891e-03,1.411798477172851562e+00
7.755180167417445869e-01,-7.481208398909388047e-01,3.611055005633130310e-01,2.657242319886976480e-03,4.590233157405480130e-03,-8.105587354126267408e-03,1.364580392837524414e+00
6.834864786075989240e-01,-7.148320213326937456e-01,6.267271544991356302e-01,3.602324624360969674e-02,-5.437000725075712138e-03,7.937689952710434574e-04,1.372272610664367676e+00
6.565309728266848222e-01,-7.580910368185898029e-01,6.648894460133863982e-01,2.122527387830709655e-02,-4.214156862800019082e-03,-1.767949400781997776e-02,1.419644951820373535e+00
6.631039063144251733e-01,-7.254423151320623653e-01,4.766762796697383564e-01,1.210920853231382301e-02,2.452786636115537877e-02,5.316095132916772272e-04,1.306215167045593262e+00
5.968886970497944144e-01,-7.300091616777907300e-01,6.041827026806443346e-01,-9.842504457129761311e-03,1.767021750571581493e-02,1.168194196706737013e-02,1.331174731254577637e+00
5.479848817668717675e-01,-7.470891315669740962e-01,7.097268232809482713e-01,2.754794885669434572e-03,-3.660291941813079153e-02,1.142245369928901640e-02,1.384658217430114746e+00
5.497598356871133962e-01,-7.742440049848012817e-01,7.021086496024409040e-01,2.835908223920377905e-02,-2.846831729327290936e-02,-1.156274859311008998e-02,1.408244252204895020e+00
6.635460483010713340e-01,-7.493393875472001975e-01,5.807452397590364690e-01,-2.307738334105754324e-02,4.752489951630084475e-02,-2.394504964572084522e-03,1.376409769058227539e+00
6.040790302317859961e-01,-4.241868862328244116e-01,5.819586203702213911e-01,7.275621781221205259e-04,1.501879763109735880e-02,3.023936560465362126e-03,1.017732858657836914e+00
7.599345983680255712e-01,-7.466443301062809512e-01,3.637103730594707374e-01,-3.876163448606524068e-03,4.036612640320110489e-03,-8.050663334683568623e-03,1.352818965911865234e+00
5.814874190883607685e-01,-6.288758372276608277e-01,6.959556723495616826e-01,7.403905709350885878e-02,-1.008678142785490381e-02,-7.952009584253862855e-04,1.278038620948791504e+00
6.062961027036344319e-01,-7.500230199457788016e-01,6.099737064377135365e-01,-2.208931253142545903e-03,-4.661552540600779867e-04,-7.565387981659132260e-03,1.358230471611022949e+00
6.043400809785521854e-01,-7.595628831180442075e-01,6.751251849885272494e-01,-1.228290980934849778e-02,3.310271231441582092e-03,-9.158727795666397539e-03,1.400900721549987793e+00
5.855100847423186927e-01,-7.366087086987578303e-01,6.829275410659518819e-01,-8.100354791543192684e-03,7.794302840327756079e-04,-3.228880047170326617e-02,1.374631643295288086e+00
6.115524161371758138e-01,-3.004423748696862795e-01,6.306061558463822436e-01,1.000606952841077563e-01,1.974052766636241740e-02,8.217624987785188129e-02,9.491779208183288574e-01
5.988160809696225773e-01,-7.279819467143003875e-01,5.734076109304144797e-01,-2.433282205615219015e-03,-5.424321770136145138e-03,-1.168173259902742771e-03,1.314319849014282227e+00
6.397948473422079285e-01,-7.679976741133710538e-01,6.636670156565545042e-01,-2.903700278440832401e-03,4.730334558536520954e-03,8.940818480140130895e-04,1.419912457466125488e+00
5.790234164311773846e-01,-2.209583078134500500e-01,5.874817066934220344e-01,3.699012053471679301e-02,5.262090287440382777e-03,3.408730705807178768e-02,8.090009093284606934e-01
7.120564957699507813e-01,-7.554006016646519495e-01,4.739536904852500454e-01,-9.130561273727737237e-03,1.119079329202212099e-02,-8.189424644839978992e-03,1.364384293556213379e+00
5.967961731895888855e-01,-4.278380363195943836e-02,9.465810322067986782e-01,2.687214143008026523e-02,3.868206950608113481e-02,3.336728847224951222e-02,8.747129440307617188e-01
5.824378323435217553e-01,-3.547463512259123597e-01,5.810732435146694908e-01,3.351628670344671684e-02,6.641560749696909932e-03,6.887654514023848484e-02,9.459236264228820801e-01
6.743330227974889679e-01,-7.547604820372679768e-01,6.111587802505553668e-01,-7.854875986041866959e-03,-3.012562812877903323e-03,1.340582945262338080e-02,1.398845553398132324e+00
5.380093438196682509e-01,-2.389508428604831813e-01,5.629361711321807515e-01,-5.330919042675929566e-04,-6.973416262032394557e-03,1.424619349282285185e-03,7.898154854774475098e-01
6.611228163192931495e-01,-7.288923508823070829e-01,4.933589408455233416e-01,-8.132809481749268474e-03,-2.197138511833077873e-02,1.249910844184720735e-03,1.314817070960998535e+00
6.410875268574055541e-01,-7.744174495432181171e-01,6.598423019137600321e-01,-4.140558562963604465e-03,8.585993810197548037e-03,6.001984188836565010e-07,1.425070524215698242e+00
6.064049683928067758e-01,-3.951225125099263602e-01,6.022881222609115515e-01,4.554767167307590021e-03,1.820679370228454191e-02,4.222170750491840985e-02,1.002674341201782227e+00
5.952423339374517397e-01,-3.342568757442717642e-01,5.954448228813407074e-01,-3.939338043278255846e-02,2.383345050633134052e-02,-4.423993784653535051e-03,9.330462813377380371e-01
5.998294032309743340e-01,-4.980326445382017297e-01,6.128035311113455563e-01,3.489866367786947920e-02,1.645426741866573214e-02,5.574330893348052735e-02,1.110630989074707031e+00
5.862180957717699759e-01,-2.736554533348265483e-01,5.656484829203050069e-01,4.738166748162554731e-02,9.877257208095038127e-03,3.154655985384484385e-02,8.556469082832336426e-01
5.338731068422728487e-01,-4.993247542038926623e-01,6.215969261618603525e-01,8.392158633928076261e-02,1.834411758527842440e-01,-1.812907198429900557e-01,1.177501082420349121e+00
5.844762434606836088e-01,-7.280809391891813753e-01,5.869451876724547379e-01,-2.551821352015566126e-03,-5.655592595854537670e-03,-1.282756743412712380e-03,1.313839197158813477e+00
5.477164821218203361e-01,-7.277179912064083434e-01,6.159360532854574188e-01,1.691305315118318527e-03,-1.672914867409252410e-02,7.636135206360777916e-03,1.311266422271728516e+00
5.954266020545071481e-01,-7.234341772023796802e-01,5.754691556061082292e-01,6.137656401116675479e-03,-1.874302060450065959e-03,1.636021146990484544e-03,1.309046387672424316e+00
5.823140537041000542e-01,-2.749389206948860132e-01,5.663068396324333342e-01,5.005854419219356310e-02,9.229577100637495826e-03,3.139617814634410031e-02,8.556558489799499512e-01
8.153830148062757299e-01,-7.362434040629051157e-01,3.705095481599167684e-01,-8.302903736354914910e-02,-2.476537689570939837e-01,2.789615356913117614e-02,1.456774830818176270e+00
6.973207287661720155e-01,-3.044580336884838978e-01,4.598743390987082846e-01,-4.155174296068773337e-02,-1.731222882801304042e-01,-1.901768199081111388e-01,1.012752652168273926e+00
5.895004344467986712e-01,-4.740592196892652321e-01,6.163900660602156245e-01,8.708036633782721995e-04,2.202735677705023459e-02,4.461113662019362130e-02,1.080698490142822266e+00
6.105470464550101228e-01,-7.249302497338174778e-01,5.504416491341168616e-01,-5.895880908897907502e-03,-1.073480784207610575e-02,1.891032431446808574e-03,1.306638240814208984e+00
6.207145718177907723e-01,-6.660897499331717153e-01,6.602743387331544422e-01,-3.831579622342842946e-03,1.685580588386234244e-02,-1.138273659846527133e-02,1.307524800300598145e+00
6.163079305671632646e-01,-5.565808803939271687e-01,6.419020600687204148e-01,-9.147717019001624580e-03,4.142542278223706369e-04,-7.610914527871978641e-02,1.193302869796752930e+00
6.816487564969753166e-01,-7.548690546599654549e-01,6.265924682279793156e-01,5.862575349162321623e-07,3.501143355858024001e-03,3.036062179296754055e-03,1.409819006919860840e+00
8.065212717334053760e-01,-4.992501428582023504e-01,2.047248450303368605e-01,-2.293108341590967270e-02,6.904250909327037077e-03,-1.221288100138489402e-01,1.152326464653015137e+00
7.654852191884834456e-01,-7.818811465652708570e-01,5.681710449393635454e-01,6.433258113630612590e-03,9.736183648992433395e-03,-5.935428183812741648e-02,1.462509989738464355e+00
6.191181680056248027e-01,-7.568736557207582649e-01,6.311365772881692981e-01,-7.663024985101012099e-04,7.666881485732674958e-03,-2.401773102593202439e-04,1.382104754447937012e+00
6.442789555581662775e-01,-7.734300073368480799e-01,6.584462164111328786e-01,-3.256839081147263910e-03,-3.355264004679872972e-03,3.835742488178484674e-03,1.424883961677551270e+00
7.950503499551822006e-01,-6.410998951714160787e-01,3.459123815672695557e-01,-6.660357119088170311e-03,-1.650309592456766783e-01,4.775615413252667918e-02,1.306867837905883789e+00
5.877784744594485300e-01,-7.249410130196206614e-01,5.712635661944627241e-01,3.489546331803004614e-04,1.537023801789536535e-02,-3.942094551624017803e-05,1.304812192916870117e+00
7.048116002985878037e-01,-7.811653101558350132e-01,6.073469295063700368e-01,-1.475787367911723241e-02,-2.067849383184584833e-02,1.471406904830706644e-02,1.440618634223937988e+00
6.003631539603522249e-01,-7.281665213227549449e-01,6.703159690300157791e-01,1.205677435574181895e-02,1.327200905077687530e-02,1.120368852236862910e-02,1.365342497825622559e+00
6.220148736209156759e-01,-7.360541554645025908e-01,6.822981961009702001e-01,4.290507000897090389e-03,-9.743648236736856399e-03,-1.431319170467677121e-02,1.389535546302795410e+00
6.139789504937688269e-01,-7.546256492614435984e-01,5.955368014207650385e-01,-7.504628724035546095e-03,2.674337184854889971e-02,1.373571283858078355e-02,1.360536336898803711e+00
6.177608986017231185e-01,-6.662295010473924251e-01,6.652604437318867525e-01,1.841872918111567975e-02,-1.108915580295119843e-02,-2.000886824161473426e-02,1.309375524520874023e+00
6.336737231918182500e-01,-7.416196310447537021e-01,6.594113889737309719e-01,1.253324609427463460e-03,-1.540810574447403630e-02,-5.352398085833470938e-03,1.388630270957946777e+00
6.370562405113244786e-01,-7.564541197032836894e-01,6.168304695826052342e-01,-8.862445172124268009e-03,2.402855513231545986e-03,-4.116137141109875376e-04,1.383599996566772461e+00
8.804515841244926477e-01,-7.627574476792928770e-01,2.980003143525938314e-01,3.857849283921165051e-02,1.583231768999746603e-01,3.035670300639758956e-02,1.471300244331359863e+00
6.608939188376281582e-01,-7.586693245480233827e-01,5.497411751474785557e-01,-1.558438176724742663e-02,2.742946875655458833e-02,1.196385799514081139e-02,1.368627667427062988e+00
6.981233385138370107e-01,-7.559946993134805115e-01,4.765129216347046004e-01,-1.579577162534129275e-02,6.759690664150263054e-03,-8.002749803761637082e-03,1.357350587844848633e+00
6.328054928583894956e-01,-7.636956338547509215e-01,6.211116901131498169e-01,-1.229618400408874837e-02,7.252520511531466638e-03,1.150875290105674020e-02,1.391053676605224609e+00
6.033207231718261676e-01,-7.533185581516655960e-01,6.071672529598703960e-01,-8.006706739812666576e-03,1.791876391410077846e-02,7.663034953845704669e-03,1.359056711196899414e+00
9.815267804431840881e-01,-9.149231108505107013e-01,9.927097468196921515e-02,8.193531999053566862e-04,-1.526935632701492962e-01,2.927848729774946632e-02,1.665611982345581055e+00
7.825079176603086939e-01,-7.412347052974933570e-01,3.583276981652738780e-01,1.499599814212874537e-03,4.003176822415054070e-02,-9.572360311325980864e-03,1.363989830017089844e+00
5.480793009201887500e-01,-3.430283356679043605e-01,6.056634573881323202e-01,1.799463762492035338e-04,9.975583231558022429e-03,2.517603552865756741e-04,9.214126467704772949e-01
1.075298811004953142e-01,-8.310550863449991388e-01,9.434666154812452188e-01,2.436295984416175786e-02,-8.550007697676578755e-02,2.333354351067329011e-02,1.545857191085815430e+00
2.809221191296065734e-01,-8.770515611690304913e-01,7.947273806765109416e-01,6.467545717488559776e-03,-2.891972687868020753e-01,5.756623295284811481e-02,1.568707823753356934e+00
6.619351029129327824e-01,-7.278347636258555298e-01,4.888315575128869828e-01,6.327147831671489468e-03,-2.536879347517324509e-02,8.877720321379879058e-04,1.312594413757324219e+00
3.303961707266355186e-01,-7.196858125032592479e-01,8.714188892612738657e-01,1.312098634118225304e-01,-4.090427288930065797e-01,-7.713433589983606509e-02,1.592149853706359863e+00
2.787170979290668482e-01,-7.426834934257944276e-01,7.853200639891575463e-01,5.234036234157659478e-03,-1.060561225156928661e-01,-1.044610563696698850e-02,1.360699653625488281e+00
1.002731809569055443e-01,-8.275080549334832281e-01,1.038785454210637837e+00,6.581816463245336590e-02,-2.057922082413820297e-01,-8.923597563476513839e-02,1.666209459304809570e+00
4.220867364464777061e-01,-7.548274327899727743e-01,7.525147218076487787e-01,8.219246379654761986e-03,-9.464631825105877111e-03,-1.366241354828718127e-02,1.372671246528625488e+00
2.809639675383680535e-01,-7.681562344577256285e-01,7.728085246736129399e-01,-2.864266729104626469e-04,-9.990848647144563721e-02,1.178317369854797909e-02,1.374383568763732910e+00
6.051396951222520748e-01,-5.183488606296328127e-01,6.048504358222359656e-01,3.761094603590022997e-03,2.185857339993169460e-02,5.613324441997363454e-03,1.124042749404907227e+00
5.326292750758196970e-01,-8.846426956375048611e-01,7.578946250103226756e-01,2.463505611607297655e-02,-2.117816353316562816e-01,4.861767364435225225e-02,1.588122367858886719e+00
2.720669776775622717e-01,-7.685999155534380956e-01,9.046178139553355813e-01,2.120178809373437535e-03,-3.643883912043423268e-02,4.964602176103150716e-02,1.467233419418334961e+00
2.525103141821821717e-01,-9.003445637666350754e-01,9.191798331880998152e-01,-5.151054852258368788e-02,-6.090163142089355386e-02,-6.287572938711181655e-03,1.600406646728515625e+00
7.917559917475491815e-01,-7.650742153192430228e-01,3.783034227594709309e-01,4.314203275402448204e-03,-1.166606992211088011e-02,1.680847520595651901e-02,1.397247195243835449e+00
2.276110007861671669e-01,-8.848147299110530328e-01,9.087867309598220977e-01,-8.347548644094772430e-02,-3.690799595562929691e-02,2.096236252936815869e-02,1.576565265655517578e+00
3.225110381117772262e-01,-8.792895072169393256e-01,8.931424464659506457e-01,7.169195004579309582e-02,-3.192705547779362690e-02,2.039010558219041258e-02,1.573357701301574707e+00
5.938929666369507920e-01,-7.309556085858452956e-01,5.868831105186590458e-01,6.124682567593620758e-03,-1.874096717489323822e-03,2.905202126386880520e-03,1.321413755416870117e+00
2.170416614531685551e-01,-1.523838878729120161e+00,1.206108220102168671e+00,-5.701568689944820634e-02,-3.574380687868736195e-01,8.913714211374280591e-03,2.474679946899414062e+00
3.701706274368784522e-01,-7.544238754037199124e-01,7.851597682364879205e-01,-5.534528883170038334e-03,6.026264059207160802e-03,7.759719312203264101e-03,1.379856824874877930e+00
3.193550354374271594e-01,-7.391532695852055523e-01,7.586475605615092821e-01,2.099582178649148437e-03,-8.475186520229154030e-02,6.642117959634843277e-03,1.341680526733398438e+00
7.899927108179994883e-01,-7.683952662796421640e-01,3.453881046591897319e-01,-3.459673294700908990e-03,3.777988071467578562e-02,2.630516058136186247e-02,1.392757534980773926e+00
7.405245142998970742e-01,-7.608063537536748910e-01,4.040752526338449724e-01,-2.313271392398512025e-02,-5.024017431055245730e-02,-2.125262986687612501e-02,1.368430972099304199e+00
8.545410619137447927e-01,-8.549526386515242660e-01,3.239538358934915263e-01,3.786665001778345848e-04,-5.371451051777725166e-02,-4.410276161106937119e-03,1.518410563468933105e+00
8.432140215972644404e-01,-8.680518110734810611e-01,3.841957633837763120e-01,-9.059359188758948911e-03,-1.128257333432737264e-01,-4.275719993993150336e-02,1.548401117324829102e+00
6.149031797460731141e-01,-7.253182616660699411e-01,5.496584920445086730e-01,7.411357054834522701e-03,-1.430090407759573162e-02,1.666432285597596596e-03,1.309119820594787598e+00
3.290580805887196036e-01,-8.319055341325211073e-01,7.124996090730448817e-01,-1.092117742054729418e-01,-3.013164464862457259e-01,-5.476469202249585611e-02,1.502391219139099121e+00
6.737111541807564441e-01,-1.136194013128055902e+00,5.676977540247739595e-01,8.800500918623210822e-02,-5.666215307066615470e-01,-1.091774840466308572e-02,2.020369529724121094e+00
8.411168414329139864e-01,-1.041276359482006253e-01,8.398170717324069390e-01,1.956681041033039511e-02,-9.626572363654904707e-02,-3.396643674342665620e-02,9.615982770919799805e-01
6.412282047161455001e-01,-7.775903669073468416e-01,6.479898604125333694e-01,-2.320460034565001353e-03,-1.258433294223325598e-03,7.791787046968730659e-04,1.422219395637512207e+00
6.870602884653562725e-01,-7.393017837982875928e-01,6.219814104927079423e-01,2.875582078917484317e-03,3.324084819046455811e-03,2.119953959153697814e-03,1.394987225532531738e+00
7.798584902220906390e-01,-7.873826244295190069e-01,4.494183981085528301e-01,-2.472720401684322389e-02,-2.477508317076882252e-02,-2.415623267976301988e-02,1.432823181152343750e+00
6.238332281077243469e-01,-7.589820900649005830e-01,6.074502981899803089e-01,-8.419998942399387846e-04,5.147598855860417016e-03,1.106295355782616931e-02,1.374860286712646484e+00
7.706892607931142836e-01,-7.482284357966256794e-01,3.775229784588560733e-01,-6.236365708450247042e-03,-3.724603752172868376e-02,-4.731427253804248306e-03,1.367058515548706055e+00
7.607008504905747870e-01,-7.559525508770418289e-01,3.820303737411528400e-01,5.680162556318712336e-03,-4.036823300017651495e-02,-6.359592290321996327e-03,1.369096040725708008e+00
8.350458230539261617e-01,-7.664876722108755480e-01,2.750520091477615114e-01,-1.329326098816079396e-02,-8.984326682854304469e-02,-2.346785560225549475e-02,1.417057394981384277e+00
6.447298703362982497e-01,-7.758181140728233061e-01,6.427549733639879026e-01,2.257025368560776693e-03,-5.283497677454616123e-04,4.075577295873077273e-03,1.419584751129150391e+00
6.438611502429816280e-01,-7.760302057045549429e-01,6.431511265337510608e-01,2.655133857919053566e-03,-1.165631215381095751e-04,3.752557504671636193e-03,1.419558763504028320e+00
6.131137657449485800e-01,-7.400705952051225278e-01,5.931568025960241020e-01,4.700940682736022688e-04,1.103381401868711378e-02,1.781699241382535357e-03,1.343456745147705078e+00
6.227967623132906194e-01,-7.660362757369379993e-01,6.263900301726533781e-01,4.669083823543669111e-03,-5.789777157296940521e-03,2.679846528572857843e-03,1.390700578689575195e+00
6.267982640385507676e-01,-7.647341621943152257e-01,6.307118181895110531e-01,3.716702788759205633e-03,-1.756258264270945746e-03,5.720071804158457021e-03,1.393546700477600098e+00
6.430378424405915894e-01,-7.553832536403263243e-01,6.505905256877656528e-01,4.826674548479996212e-03,2.664630358650318075e-03,2.613864346806763286e-02,1.402975916862487793e+00
6.117347164421091943e-01,-6.326005576916682305e-01,6.635886302032213413e-01,-3.337954413961903132e-03,1.258494893263971577e-02,2.758569618126488487e-02,1.272153377532958984e+00
5.786922367642040044e-01,-7.634862384410404657e-01,6.902070076854756042e-01,1.334440101112810244e-02,-7.771063917115377494e-03,9.639952644553875360e-04,1.401523947715759277e+00
6.590998113055230867e-01,-7.413880150454230655e-01,5.206509433410244636e-01,-1.553175005512502649e-02,1.950713630560556647e-02,3.189901312856411979e-03,1.337360858917236328e+00
6.261556233013609862e-01,-7.303719006430552385e-01,6.749463298841593684e-01,-1.479732791926287880e-03,1.394704070990106758e-02,1.579048169208006544e-02,1.382053375244140625e+00
6.126097262765107798e-01,-7.647285302809856411e-01,6.622268995645157474e-01,-1.797001519816398760e-02,1.490504337840133434e-02,1.222503034416076023e-02,1.403547525405883789e+00
6.355909153504131215e-01,-7.642993873541367167e-01,6.759009417348942339e-01,-7.106007657239774011e-03,1.340086903112921654e-02,9.247123262097456040e-03,1.420807600021362305e+00
6.126965858460680092e-01,-5.611484919557711004e-01,6.212463810830185507e-01,-5.490052237657547761e-03,2.275123008402641506e-02,-3.628648239313782167e-04,1.178840637207031250e+00
8.079305018587514819e-01,-7.453978507317490232e-01,3.103701035202179881e-01,2.148168600018524662e-03,-1.423968892148927239e-02,2.026633271932103911e-03,1.374101519584655762e+00
6.136346352865016396e-01,-6.982063071267763377e-01,6.488381556277144080e-01,-2.469348584254448756e-03,4.856122967227175999e-03,5.558073398334657973e-03,1.329860568046569824e+00
6.375768466756349673e-01,-7.054874373544615107e-01,6.540236179401353045e-01,2.920173313245620714e-03,2.360533167563276524e-02,1.355512141437649259e-03,1.351992607116699219e+00
6.350654456581803498e-01,-7.550364588447837644e-01,6.730978200543040746e-01,-1.489467947949500487e-04,-3.815447367161869507e-03,-3.860174840321708555e-03,1.409534335136413574e+00
6.097243784714899695e-01,-7.528636750156684210e-01,6.473399882154715623e-01,1.135094125344289148e-02,-2.016882376570839838e-03,-6.822083013127182771e-04,1.381924748420715332e+00
7.170304069192328100e-01,-7.548781281670193799e-01,4.730233052555211648e-01,-9.405758419523431793e-03,1.060265785600876705e-02,-8.125999935408044494e-03,1.366637825965881348e+00
6.572319099268552067e-01,-7.612159669171885135e-01,6.396112795306939658e-01,-5.093672524249215697e-03,-6.254123881674155880e-03,-3.274388311961823599e-03,1.409800767898559570e+00
6.669781699362935523e-01,-7.500676674548156786e-01,6.369524167604851961e-01,7.288257449276574519e-03,-2.913604376536816244e-03,2.148303656318831592e-03,1.402344942092895508e+00
6.722099871754003697e-01,-7.514489567508244594e-01,6.354241235976093582e-01,5.853046044292369021e-03,2.199174506831346777e-03,2.413851016733518061e-03,1.405675053596496582e+00
8.508697815972240397e-01,-7.717816434761306521e-01,4.142980641677670994e-01,-2.001148650820344654e-02,6.892005129288406896e-03,7.301775208658436989e-02,1.460317611694335938e+00
7.152465937553099673e-01,-7.570160004884459726e-01,4.738090361236503845e-01,-2.776311695859710188e-03,-3.423050434668251010e-03,-1.228996013027062670e-02,1.367808938026428223e+00
6.844406572254930765e-01,-7.484575064092866548e-01,6.143334906370041537e-01,-1.104623047738619718e-02,-5.856724236121269023e-03,6.756755030357282366e-04,1.399330615997314453e+00
6.620394021138245044e-01,-6.932493827302459444e-01,6.374675129057358891e-01,-1.629715204549781610e-02,3.033684219761154446e-02,-1.965849022380631098e-02,1.344926238059997559e+00
6.808095457175580290e-01,-7.273065551424623409e-01,6.265303616486741500e-01,-1.730007849712052875e-02,-8.841148641761468682e-03,1.078758743036717632e-03,1.382187247276306152e+00
6.824480044447780447e-01,-7.192091797071153980e-01,6.128205599229608058e-01,-1.768960896603665942e-02,-6.072769119678625080e-03,1.418675935127428935e-03,1.368558526039123535e+00
6.805381698860278883e-01,-7.472574284368871389e-01,6.342272503615611345e-01,-1.190402633887122606e-02,-8.866376694001375930e-03,2.270997405676651419e-03,1.405453205108642578e+00
6.819073765120250430e-01,-7.231648100183433181e-01,6.166938076775058120e-01,-1.686123635690965281e-02,-6.324144408205605028e-03,2.508631275841858785e-04,1.373981118202209473e+00
5.130738946383472943e-01,-7.439141542795308926e-01,6.760894039840776859e-01,-9.752852302374560509e-03,-6.215787238427161743e-02,-6.918407474683229037e-03,1.350378155708312988e+00
4.818773857436483565e-01,-8.110096579018191143e-01,7.315385207467746120e-01,-4.573625364064545784e-02,-3.471823079161614339e-02,-3.276995920573137766e-02,1.438674449920654297e+00
4.431536154004629413e-01,-7.652904147164836246e-01,7.207879674869486220e-01,5.139449747324320410e-03,-3.918403293281988442e-02,-2.028643520939154773e-03,1.370263218879699707e+00
6.288227852151514474e-01,-6.996078208962294154e-01,6.386584943743198739e-01,1.328383245331237091e-02,9.156475027324315411e-04,1.467890233428672045e-02,1.333817481994628906e+00
5.744039925134958313e-01,-7.274141110356331374e-01,7.013964440609512518e-01,-2.256088018869415249e-02,-2.712551537145876240e-02,-2.086682163043684750e-03,1.371103882789611816e+00
6.436991573269130740e-01,-7.627037815629301720e-01,6.402507556770675734e-01,1.283906630545497566e-03,3.107678276374619374e-03,6.007518637466118840e-03,1.404732465744018555e+00
6.764178937835813032e-01,-7.598749372617691344e-01,5.756754553292551257e-01,1.738087717171511032e-02,-4.185875383249875771e-03,-7.135518607333410541e-03,1.389065146446228027e+00
6.187125372414972180e-01,-8.178455503283699191e-01,6.654292868917891512e-01,-3.501046845881446157e-02,-1.433836688586392072e-01,-4.843174824609049016e-03,1.482706069946289062e+00
6.273440462753752112e-01,-7.587105086159422473e-01,5.770990546769023677e-01,1.444016240337617739e-02,-1.830059576530526297e-02,1.213223160045292723e-02,1.362388134002685547e+00
6.381007754717946678e-01,-7.637889551011499689e-01,6.366394037201406064e-01,1.128038744265953165e-02,5.743152233631879967e-03,1.014277964438969545e-02,1.401441216468811035e+00
6.641871979729809805e-01,-6.172751752919931612e-01,6.848392443615662906e-01,7.588930141017827258e-02,-4.542144677224727728e-02,-4.028425035250173848e-03,1.300981402397155762e+00
6.127746192404130987e-01,-7.391829850185047679e-01,5.932717814284467206e-01,1.009576326265824477e-02,-2.263909024162298557e-04,1.620950323640078621e-03,1.342429280281066895e+00
6.039141206916724958e-01,-7.065461929235683503e-01,6.800470573788910400e-01,1.187613611721141747e-03,5.931356150725916598e-04,-2.313946474327185227e-02,1.350734353065490723e+00
6.428994867159305571e-01,-7.591502150135788218e-01,6.553946832217085738e-01,2.066909997258349271e-03,-4.762301618111186401e-03,-1.693719488884182570e-02,1.408673048019409180e+00
6.262193024532921592e-01,-7.435176960198749407e-01,5.824799353244841660e-01,1.647851704397124833e-02,-3.410087579164138103e-03,6.893227190683697599e-04,1.348714947700500488e+00
5.087196447755443218e-01,-8.252474550900703587e-01,7.260272780314949159e-01,5.157228877014929241e-02,-3.046573796438435330e-02,-5.361073057975143837e-03,1.458568453788757324e+00
6.486184838333000080e-01,-7.772138272781059509e-01,6.310937225710128162e-01,2.393599739162135306e-03,3.018684599577742267e-03,1.742781519405403557e-03,1.417170166969299316e+00
6.383292806695248789e-01,-7.582930641628035096e-01,6.102704662801308189e-01,1.635063989178418137e-02,6.886245619085998217e-04,-1.528117618854951069e-03,1.383099436759948730e+00
6.125376815158828370e-01,-6.216569806635194873e-01,6.662255070198130902e-01,-3.969351477506723701e-03,2.650156367310855642e-03,-2.893942755658407417e-02,1.262917637825012207e+00
6.887659432188979469e-01,-7.397737415279189710e-01,6.175897437895250253e-01,3.026875083512363309e-03,1.314595456928229411e-03,1.394062531039016528e-03,1.394328594207763672e+00
6.168694598090842529e-01,-7.453028410700229811e-01,6.830832165906888243e-01,9.712723370428874353e-04,3.499155700588388405e-03,-8.450203119996885573e-03,1.396547913551330566e+00
6.361234884520119426e-01,-7.662609045986720213e-01,6.257784283608447407e-01,-1.144839795402036696e-02,7.849648512850578280e-04,5.177695898959697868e-03,1.397410750389099121e+00
6.682375254345492843e-01,-7.580863849308594471e-01,6.354765078486989127e-01,8.327808244232509996e-03,-1.144066011923123433e-02,6.068397400964950159e-03,1.410480976104736328e+00
6.452394739918593247e-01,-7.732779053738675357e-01,6.468786066773362098e-01,-6.193027374206806421e-03,-4.962147900430666746e-03,3.525051385081611963e-03,1.419417381286621094e+00
6.548296758454306143e-01,-7.628825714824699622e-01,6.478915321812834804e-01,-3.015438864165820125e-03,-1.443951981161099851e-02,3.605004293257246806e-03,1.414500474929809570e+00
6.152320948070770790e-01,-7.049346655288549757e-01,6.778644294759149647e-01,-1.057365566154214002e-03,3.205882978629723008e-03,-2.312447435677280824e-02,1.353176474571228027e+00
6.941862574268826691e-01,-7.571533902850877684e-01,6.377923950752595328e-01,2.298223056309158571e-03,1.004356098761218924e-01,-2.672428647345613181e-02,1.435319066047668457e+00
6.812936207020867663e-01,-7.524354775654745753e-01,6.259391823478974715e-01,-5.010936143139564126e-03,2.127987788548860941e-04,5.739995832435654819e-04,1.406895995140075684e+00
6.127422568043808804e-01,-4.200609789723003251e-01,6.185144890924417771e-01,-3.709523949323929523e-03,4.268604955915060819e-04,1.143804890211962411e-01,1.054498910903930664e+00
5.925198219392308063e-01,9.052188866343435780e-02,7.233012532599848443e-01,3.186376623643069617e-02,-2.666481842634191995e-02,5.213052683727079778e-02,5.899910330772399902e-01
6.487587234921394774e-01,-7.722646692378847266e-01,6.497572317522037899e-01,-2.481531618214143434e-03,-7.795831863295008858e-03,3.693870015738812736e-03,1.421607971191406250e+00
6.505639890679231208e-01,-3.483631746730991852e-02,6.014638474586868622e-01,-6.390499442374374117e-02,-7.704614797345029666e-03,4.561698055946214470e-02,6.761682629585266113e-01
6.128661476888352944e-01,-4.156202109563035263e-01,6.475923909429367464e-01,3.443875356020825555e-03,1.722035102083948081e-03,1.147985805717852831e-01,1.065028667449951172e+00
6.511811714539308404e-01,-7.584629388383565818e-01,5.954936876784033828e-01,-1.285011543549154263e-02,6.547447728640901597e-03,-3.574709565755394489e-03,1.382881164550781250e+00
6.420950669081028073e-01,-7.728437818079352262e-01,6.511789738775304315e-01,-2.439989595539293708e-03,-2.942885763058162782e-03,-3.873370942380530927e-04,1.419518232345581055e+00
6.672947792745062001e-01,-3.428268001037715340e-02,7.804384341439178918e-01,1.579728816403955585e-02,-1.134790980831184432e-01,2.166877819539565070e-02,7.906840443611145020e-01
6.188994073381002270e-01,-3.939966982693681175e-01,6.433144311640039970e-01,9.107741278784978189e-02,6.104511436351988361e-03,9.144822160897062013e-02,1.049461722373962402e+00
6.374500929629771662e-01,-8.613217993316912846e-02,6.174525541233294446e-01,-4.442845298467687498e-02,5.657671315681778862e-02,-5.631090793964314140e-02,7.311214208602905273e-01
6.600196202137912360e-01,-7.619940596025776003e-01,5.969737977713063248e-01,-1.582233773461314344e-02,1.078552746618784792e-03,-9.044391911842933340e-03,1.391921520233154297e+00
6.391980598605768726e-01,-7.632957969919942354e-01,6.618907581183799405e-01,-1.089703032008084143e-03,-4.269404877168905300e-03,-2.281776044759938494e-03,1.414002895355224609e+00
6.497501426795682100e-01,-2.141457635169355944e-01,6.025604436482557835e-01,-5.460833416772267052e-02,1.607931413926976666e-02,1.020779258310484799e-01,8.653078079223632812e-01
6.367740034497393342e-01,-7.488099228535037843e-01,6.665154350374691283e-01,-4.494052490256050282e-03,2.298263568990421661e-03,7.915364934041402636e-03,1.400785803794860840e+00
6.395213735948233058e-01,-7.615496262959938756e-01,6.569273202100811559e-01,1.611275186549944016e-03,6.065647795922758656e-03,-4.782908931435929031e-03,1.409920811653137207e+00
6.279186537388343758e-01,-7.351254638182813661e-01,6.761349083764764956e-01,6.284382743425510495e-06,-1.083343863447679481e-02,-9.574710175920261163e-03,1.388006567955017090e+00
6.375878906815184433e-01,-7.047847466456029775e-01,6.543163751295786312e-01,-1.906057614405031256e-03,-2.214636879131024350e-03,-1.730143279275801749e-02,1.351156353950500488e+00
6.236271989768010782e-01,-7.433897923485892623e-01,6.850726947820533486e-01,2.637180972267844613e-03,-3.708290504097406549e-03,-9.759275958416271241e-03,1.398876667022705078e+00
6.324910241522405663e-01,-7.623860463569672730e-01,6.741575873365073246e-01,-4.769226997944023966e-03,-4.322700391730893883e-03,-4.759491495188464261e-03,1.416238069534301758e+00
6.017494093440847180e-01,-6.223771825369768251e-01,6.700861539434188607e-01,-1.257524785909618515e-03,-7.618009686678963929e-03,-3.188975818067391055e-02,1.260967254638671875e+00
6.211920027272797018e-01,-7.171865644665308404e-01,6.803584154137252149e-01,2.374518347774707844e-03,-1.429975984377530700e-02,3.056207027684891293e-03,1.369161486625671387e+00
6.677211544290601042e-01,-7.648766819746427581e-01,5.905362072109814342e-01,-1.046824449769172792e-02,1.369956327031621917e-03,-1.201266480277899187e-02,1.395881891250610352e+00
6.556307196693789141e-01,-7.578569815174666102e-01,6.531408575487006596e-01,-1.129871177635967568e-02,2.592573067407299720e-03,-1.647222041462581554e-02,1.412675261497497559e+00
6.642085427611186255e-01,-7.437086819499183488e-01,6.294318041495104987e-01,4.584533429749758360e-03,5.185370278291062847e-03,1.031239194974951532e-03,1.390907764434814453e+00
6.157571999816771058e-01,-7.240362565765905423e-01,6.817854095283172322e-01,-1.746790100956828202e-04,3.656005555098058597e-03,-1.513739920210144946e-02,1.374262690544128418e+00
5.992225342913537478e-01,-7.522419063734469002e-01,6.055932952981577522e-01,1.476594545903100845e-02,-1.790191400926239434e-02,1.320346825765595505e-02,1.355450153350830078e+00
6.185299099846301996e-01,-7.487416325983229370e-01,6.042638383182091788e-01,6.975187657120226169e-03,-8.512411443902473049e-03,9.244876659507298561e-03,1.360422372817993164e+00
6.307439009439008704e-01,-7.554512719980940316e-01,6.802317773689123825e-01,7.194576130292035243e-04,1.868224045158376747e-03,-4.723624378775279423e-03,1.411617875099182129e+00
6.383007029450886716e-01,-7.620500437519769354e-01,6.552751205026274839e-01,5.715805885685477233e-03,3.202534160483455454e-03,-2.727618071014219908e-03,1.408968210220336914e+00
6.297293000264447826e-01,-7.671293960316577509e-01,6.457571001999369287e-01,-4.961095599308617057e-03,-8.963112067222272312e-04,1.533845277893606824e-03,1.404970765113830566e+00
6.419956806730587884e-01,-7.696023954121535837e-01,6.489151080597919119e-01,1.220763591605145311e-02,2.575810944701301987e-03,4.269175146948960974e-04,1.415235638618469238e+00
6.184660905128012143e-01,-7.637945878590478577e-01,6.096291800202320310e-01,8.753483786032269925e-03,-1.787519750328562390e-02,5.433524364221425929e-03,1.378326773643493652e+00
6.353234286417388521e-01,-7.592766186881791945e-01,6.723548606478677581e-01,2.325869028886101350e-03,8.561706034975503921e-03,2.843766611288125763e-03,1.413571715354919434e+00
6.806246865395693124e-01,-7.545484728683414799e-01,6.313152094873202280e-01,-6.139333932338690916e-03,3.498817409770816332e-04,1.420477139652161647e-03,1.411207079887390137e+00
6.484749154655752301e-01,-7.596582298018321744e-01,6.037791860411176881e-01,1.567841368959144513e-02,-1.217133508133744517e-03,-2.400508871715960248e-03,1.386599540710449219e+00
6.395702074990792241e-01,-7.639781286743012600e-01,6.233140834443036127e-01,7.106237005262036090e-03,1.792918142539712137e-03,6.268358669388592215e-03,1.395591259002685547e+00
6.288837855259064025e-01,-7.647605009801713427e-01,6.275301737832337245e-01,6.093621335716729176e-03,-8.670834277906236095e-04,3.476043853132603466e-03,1.393021821975708008e+00
1.692997023033619430e-01,-7.346913360076705590e-01,8.876903895072922879e-01,1.174830720354699994e-02,-1.586010493037048885e-02,-1.209590403480520233e-03,1.408501625061035156e+00
5.940254030993717960e-01,-7.281593437821392012e-01,6.462081101383672088e-01,1.500985458208203838e-03,6.166910913999197781e-03,-4.752997955096376244e-03,1.349103212356567383e+00
5.103451961254447111e-01,-7.866607096823249323e-01,7.472126573994133381e-01,7.368979681214986310e-02,-6.583369147829949697e-02,4.872094443315112128e-02,1.442900896072387695e+00
6.614076949960423502e-01,-7.009405489007257684e-01,6.253874030526580530e-01,1.868748020604969751e-02,6.375675867098472803e-03,2.217858661308264728e-03,1.345140337944030762e+00
6.214435159720812507e-01,-7.586645461846961425e-01,6.135453874826497511e-01,8.929353979048024192e-03,1.329432483425907344e-03,-1.583109877895302105e-03,1.376267552375793457e+00
5.867373886307079012e-01,-8.067098691884332373e-01,7.063689167414959336e-01,5.989400320791393728e-02,8.952800299248591526e-03,3.077412400864098369e-02,1.461694478988647461e+00
6.433200716580181888e-01,-6.679996890980413049e-01,6.327654364231096729e-01,4.220172552142016469e-03,2.622084922658626110e-02,-2.673916899614017101e-02,1.307704567909240723e+00
6.763645896608546648e-01,-7.558433069869131549e-01,6.279621112240083569e-01,-4.068570183313204545e-03,6.211881160408549984e-03,-1.009678532462715593e-03,1.408690333366394043e+00
6.467841588031786326e-01,-7.368368456168220559e-01,6.753918593984022944e-01,7.689360613439194525e-03,-5.245738654338466880e-03,2.322467479391965989e-02,1.398815870285034180e+00
7.647133033419003523e-01,-7.610131316332164886e-01,4.649180242258411089e-01,-1.973434270795380863e-02,1.656014278683589150e-02,7.278041186041437315e-03,1.400879263877868652e+00
6.456583943033702422e-01,-7.753432701375760905e-01,6.450623425838724057e-01,2.268955575444776916e-03,3.277708000518336079e-03,3.604230873822096212e-03,1.420734167098999023e+00
6.424167135109403182e-01,-7.779457358512653631e-01,6.498049990249075147e-01,3.507370296977648091e-04,5.518322976938681845e-04,4.028920714367407096e-04,1.424071550369262695e+00
6.257168336037526313e-01,-7.720363296826097121e-01,6.438685434987367895e-01,-7.525791142104192553e-03,2.692383877369337788e-03,2.050220104637253456e-03,1.406989455223083496e+00
6.113320846822536403e-01,-7.653675289695014428e-01,6.721347846794500924e-01,-1.977765956600943675e-03,9.346805330676310683e-03,1.531706287197336959e-02,1.408432960510253906e+00
6.507854547868217043e-01,-7.566202658737728459e-01,5.699869739666314494e-01,-2.349282939666158185e-02,1.012649488163862646e-02,1.912272629392776369e-02,1.369913697242736816e+00
6.465217670049310250e-01,-7.686010351004098906e-01,6.425234003098599933e-01,2.541760301552889977e-03,-2.600766310607000639e-03,9.999001686204782649e-03,1.413248062133789062e+00
6.674245656335290322e-01,-7.359074038890144331e-01,6.396405227902013380e-01,-3.926089419867251872e-03,-2.281107915702611233e-02,-6.785333953009051178e-03,1.390276193618774414e+00
6.432723544220992906e-01,-7.693899865331059740e-01,6.419141398409748955e-01,-2.236192901108209445e-03,-6.504876034782486501e-03,9.246493303296366914e-03,1.412124752998352051e+00
6.464644467283753304e-01,-7.788461819373115880e-01,6.424311788396590561e-01,-4.254359025905717225e-04,-6.974111116140186946e-04,2.951021475901507291e-03,1.423308134078979492e+00
6.428181437421526256e-01,-7.750799633049255677e-01,6.428454639321103947e-01,-2.764250866116862038e-03,-9.474184354793201406e-04,2.548209034851216595e-03,1.417927622795104980e+00
6.423065330006508811e-01,-7.662521105299449076e-01,6.405245022477789041e-01,1.560753117912619999e-03,-4.858519544790254954e-03,1.476169524175511205e-03,1.407698512077331543e+00
6.456027807329869361e-01,-7.778726913943491139e-01,6.508477167119306461e-01,-1.699665652423044786e-03,-2.093700586751765652e-03,1.409870939045325140e-03,1.426114916801452637e+00
6.408795687714372580e-01,-7.528379645675666865e-01,6.424381676969417310e-01,-2.133676166593093202e-03,-4.861644250657524285e-03,1.076600268026383159e-02,1.394652485847473145e+00
6.630512194772860690e-01,-7.312972024458883613e-01,6.959333406303475078e-01,5.034680086547776295e-02,8.369662092798954567e-02,-5.253374486969693974e-02,1.424091696739196777e+00
1.146645453915054180e-01,-1.653635582373856883e+00,1.226322310184776221e+00,-1.530393280815235679e-01,1.513818921644816302e-02,-4.288339206771534656e-02,2.530786514282226562e+00
6.577120606553725768e-01,-7.586360954718296412e-01,6.436242475094613447e-01,6.167884874744511414e-03,-2.022627520088337780e-02,3.262208653643068005e-03,1.409844160079956055e+00
6.465826351692671725e-01,-7.669822019432060989e-01,6.415639143846432191e-01,2.938553406640709818e-03,-2.343942158227334347e-03,9.624588787034621395e-03,1.411175608634948730e+00
6.439205206674905035e-01,-7.695884834492660032e-01,6.404821481470069910e-01,-6.191536840099654861e-03,-1.481201156230734428e-03,5.934878107315480489e-04,1.411836385726928711e+00
4.283451634230929228e-01,-9.187619968724973774e-01,8.742785379502892029e-01,1.983167039024196984e-02,-2.855930258246658707e-02,9.343098810550466357e-03,1.618073821067810059e+00
6.460357430184846539e-01,-7.630199170833343869e-01,6.559088376993232883e-01,-4.542986843402340748e-03,-1.503564235424982576e-02,4.933512058355576588e-03,1.414305567741394043e+00
6.408909503117468098e-01,-7.605968515146321884e-01,6.469918317326091017e-01,-1.297634747295276295e-02,1.041960957212253666e-02,-1.254343669635564658e-02,1.405011892318725586e+00
6.420397403426997274e-01,-7.698788937075525807e-01,6.497801796810107611e-01,-9.536472630867128333e-03,-2.854345329684076366e-03,-2.685366548085944913e-03,1.415917396545410156e+00
6.527765603090311952e-01,-7.740858558702468084e-01,6.464502906748358368e-01,3.126817889658440285e-03,7.578264629828345214e-03,9.318756695132308573e-04,1.423781514167785645e+00
6.242381418898628187e-01,-7.689548123185176998e-01,6.383550695058752833e-01,-8.227061512884766697e-03,-1.261825266054088538e-03,-1.109573920328402533e-02,1.400510907173156738e+00
7.263078816367033452e-01,-1.116016948353254046e+00,4.625842873691372592e-01,-1.203166360721792498e-02,4.420859197073894742e-01,-9.674419505366545213e-02,1.895436286926269531e+00
7.563429586972553187e-01,-7.660860840343243217e-01,3.912600480728380958e-01,-2.814332595327714761e-03,4.289576650009330888e-03,3.818649299278720211e-02,1.378301978111267090e+00
7.247500326483715671e-01,-7.547373329255311347e-01,5.007154975001731900e-01,1.266419886800434179e-02,-2.426288595823338640e-02,-1.300244359393738780e-02,1.382162213325500488e+00
6.640153387775442617e-01,-7.600768123332967141e-01,6.106240289276242406e-01,-1.047813042218166679e-02,2.077910277280837267e-03,8.640078630516561525e-03,1.398363709449768066e+00
6.452052933791695422e-01,-7.766713181564720569e-01,6.412327600502853997e-01,-1.793096227333771699e-03,6.109505213351105763e-04,-2.226626733095159009e-03,1.419903516769409180e+00
6.445735330284639852e-01,-7.770128000558641501e-01,6.524828055626590295e-01,-6.365906150299254981e-03,7.918628950045161069e-03,-6.957922688060590340e-03,1.425716996192932129e+00
6.358080141522304274e-01,-7.628019308963873701e-01,6.619460956559348741e-01,-6.757234041605929623e-03,-3.248904820697354093e-04,-6.879981272622882893e-03,1.411959409713745117e+00
6.419555850266431829e-01,-7.712069239927955566e-01,6.395317942114515652e-01,-8.484341917903235469e-04,4.806190744941587698e-03,-6.466048854731817723e-03,1.412021875381469727e+00
6.541171439072868132e-01,-7.585484654169798446e-01,6.581182992863163772e-01,3.067657966839784991e-03,-5.840825176525877259e-03,-7.245689520134654567e-03,1.414772272109985352e+00
5.305741734418010225e-01,-7.877480770755994621e-01,5.185401378823200069e-01,-3.487386864850997720e-02,-2.395175671827232955e-01,-3.726106363570300117e-02,1.379192948341369629e+00
6.332767486887870279e-01,-6.006922800557882303e-01,6.443110686167444756e-01,-2.650284093086582426e-03,-7.628718196957893181e-03,-7.897043058464742193e-02,1.247125506401062012e+00
6.344334744357804645e-01,-7.415579974128142515e-01,6.688715578903614567e-01,1.892363021899627932e-03,-2.199114605391171151e-02,2.154475758538442441e-03,1.394059062004089355e+00
6.201150052621440256e-01,-6.710809621255895419e-01,6.636054690607021689e-01,2.778516284665712415e-03,1.882963222368983988e-02,-6.629837588379031664e-03,1.313945174217224121e+00
6.346370852358664827e-01,-7.612488316294552249e-01,6.616846037557111426e-01,-1.723652885238726720e-03,7.939191164920852105e-04,-1.004804138665590582e-02,1.409715533256530762e+00
6.308226706702871889e-01,-7.662787241274277017e-01,4.068079925903073657e-01,-1.268158771000514259e-02,-2.260852559489473224e-01,-6.118132102225383624e-03,1.357586860656738281e+00
6.813095771293293801e-01,-7.437663731672305989e-01,4.753742254120007504e-01,-1.578932672169964385e-02,-4.463520466600254255e-02,-1.316266732554064074e-02,1.336795330047607422e+00
6.491451666507939144e-01,-7.643175187453778996e-01,6.533616055277656764e-01,9.176762351787317792e-03,2.102500274669061040e-05,-1.875014135768785254e-03,1.415668606758117676e+00
6.425351302904256379e-01,-7.396893489884779349e-01,5.326583820167138938e-01,-1.370453791004400124e-02,-2.270374797318048740e-02,-1.428129982767060817e-02,1.331714987754821777e+00
6.867017975487239578e-01,-7.528966670710240949e-01,4.760839489615710796e-01,-1.438347131289301022e-02,-3.347222927298067197e-02,-2.315590481187247696e-02,1.348773121833801270e+00
6.658717846600410439e-01,-7.696845697677088260e-01,4.891595015677733804e-01,3.403736392254359724e-03,-6.319631643680677369e-02,-2.245566753134539684e-02,1.360844492912292480e+00
6.804351576884137831e-01,-6.218541261045276158e-01,5.950556922702532336e-01,1.807240099628539681e-02,4.683778134362386221e-03,-7.329665059990926254e-03,1.262246012687683105e+00
2.983830955655175088e-01,-1.332778344159020412e+00,8.974902157657128621e-01,-1.073809554724076687e-01,-3.999961912691605836e-01,3.452230757802766253e-02,2.124856710433959961e+00
5.696889071175366137e-01,-7.395515543919853885e-01,6.306157499672209177e-01,1.785008721669337217e-02,-4.197026074266611839e-02,1.865360836763976793e-02,1.343456268310546875e+00
6.490613036913830403e-01,-7.815287260403359637e-01,6.425646209736757264e-01,4.613227567607288554e-04,3.222597962810255789e-03,-7.534592918078866081e-04,1.427364468574523926e+00
6.595400718113151317e-01,-7.731908572705309401e-01,6.446893465936038847e-01,9.096013248726498397e-04,7.000949064341232229e-03,3.027668026506695562e-03,1.425425648689270020e+00
6.383818248362169712e-01,-7.721096595167478149e-01,6.621101061645622288e-01,1.224125074768682951e-03,4.295791720547084865e-03,-8.811977419275419856e-04,1.422525882720947266e+00
6.526080332142274454e-01,-7.743878343129046993e-01,6.445100046600586996e-01,-8.498981694262179554e-05,1.633969836602242216e-03,2.807497156518423166e-03,1.422975301742553711e+00
6.457155027528027613e-01,-7.731862076782738402e-01,6.483401103418553468e-01,3.521923668046645934e-03,2.322326076664084794e-03,8.092153786119683388e-04,1.420235276222229004e+00
6.424054150996530987e-01,-7.769330028655158094e-01,6.494592676528501141e-01,-5.049242777344798160e-05,9.098327325307905417e-04,2.397515726251720945e-04,1.422879338264465332e+00
6.465518619056278560e-01,-7.730000981828217821e-01,6.486152515419707498e-01,4.512042382614774028e-03,3.505376860393468862e-03,2.630287947708568556e-03,1.420626521110534668e+00
6.679253601681738317e-01,-7.440171436596466625e-01,6.329691159105361731e-01,3.748507748865975622e-03,-4.224493178537272052e-04,2.797161441227445471e-03,1.394816637039184570e+00
6.485350557554310225e-01,-7.800050911185348879e-01,6.487924658916603970e-01,6.160015268436459931e-04,2.582194742920134272e-09,1.172397883451587524e-05,1.428669214248657227e+00
6.484470616594764092e-01,-7.758332019716244199e-01,6.475569200406499082e-01,4.817593906154480667e-03,1.240567154910785820e-02,5.287575036488949970e-03,1.424051403999328613e+00
7.540952453514885301e-01,-8.390928146782268282e-01,4.997800028410624984e-01,-2.222307766740239457e-02,-3.506270632254445546e-02,-3.171703637308019574e-02,1.485240817070007324e+00
7.308592827789525126e-01,-7.423610364813445495e-01,3.751320064199220594e-01,-7.965723436905110309e-05,-1.835446349915487857e-02,-2.794535052892666016e-02,1.332744836807250977e+00
7.204691656104109665e-01,-7.718731729751774351e-01,4.427340456666769009e-01,1.665800740319405351e-02,-1.078831372968516028e-01,-1.438967604231363925e-02,1.387845993041992188e+00
7.416732123192320003e-01,-7.546821553189545506e-01,4.111704949342167015e-01,-2.037014018140584359e-02,-7.208315519375858849e-02,7.620842191570032474e-03,1.367760539054870605e+00
7.481102657149539814e-01,-7.592402242501793408e-01,4.098392914669717335e-01,3.812819759883381756e-03,-3.341815688273705454e-02,-1.306083073689247656e-02,1.371329784393310547e+00
6.969263028637269208e-01,-7.314239181327075734e-01,4.478518128393110254e-01,-1.164383419548870209e-03,-4.286538095800289383e-02,-7.946318598234254193e-04,1.323621988296508789e+00
6.412138533324338585e-01,-7.028808837681256305e-01,6.528367981026930167e-01,6.873680850307756565e-03,3.191263462363610331e-02,7.220549795841876492e-03,1.351185202598571777e+00
6.294269850111344766e-01,-7.728314885515934485e-01,6.406990108237942128e-01,-7.902907553659189272e-04,5.380183715421305718e-03,1.401617770181152979e-03,1.407961964607238770e+00
6.343452661629020994e-01,-7.399349551461158470e-01,6.624716888611951182e-01,-6.578863368393436314e-04,-1.146600586794055762e-04,4.884757122615266886e-03,1.388583302497863770e+00
6.277446144277261109e-01,-7.406229270046938984e-01,6.746072786639111252e-01,-1.226623606872496519e-03,1.420495787934316842e-02,1.059663218982355437e-02,1.392730355262756348e+00
6.212035858158138080e-01,-7.035004622305727207e-01,6.564354549190583032e-01,-7.494817890728627113e-03,5.059581480062381835e-03,4.951820890185491125e-02,1.345494508743286133e+00
6.432351517600840562e-01,-7.631760654844625957e-01,6.489305451357990639e-01,-9.211936746146998783e-03,8.302415252964611553e-03,2.456306342948126175e-03,1.409437656402587891e+00
6.463699129675039012e-01,-7.614810906642529575e-01,5.969459002694758043e-01,1.196966418536681009e-02,-1.292191624106813624e-02,4.106767273359948275e-03,1.384155631065368652e+00
6.489865493903763660e-01,-7.501961153085678902e-01,6.112688940775927726e-01,-1.370768992447210857e-02,2.088185901153663624e-03,-1.154168601994862500e-02,1.381063818931579590e+00
6.265310766176768187e-01,-7.302540307810515552e-01,6.797166660476550160e-01,5.684544928143534827e-03,6.321808476061334392e-03,1.057687378090353160e-02,1.384343981742858887e+00
6.474859918151654181e-01,-7.789797918977474644e-01,6.512631738153467076e-01,1.793421142134467945e-03,1.595325610384772325e-03,1.966265687010883972e-03,1.428368210792541504e+00
6.019012057485582101e-01,-7.498167049612770585e-01,6.073888811070886629e-01,-1.243050444819390060e-02,-2.375715089818905210e-02,-1.281964510588199865e-02,1.355447888374328613e+00
6.686185164520365154e-01,-7.468643620263278882e-01,6.393492191716072526e-01,2.781382175420040685e-03,2.009904454314874120e-02,4.556512465172220597e-03,1.401540517807006836e+00
2.847505656718837819e-01,-8.204510535112025105e-01,7.835013735826242831e-01,-2.696443490774931215e-02,-3.811024908339250561e-01,-1.794705322548104109e-02,1.568536877632141113e+00
5.527956422187276786e-01,-7.253737161845528192e-01,6.220605922130502119e-01,-8.350943143895507917e-03,-7.191232175179441966e-02,-4.394137100145091221e-03,1.320162177085876465e+00
6.429070243854422273e-01,-7.794730872480345463e-01,6.482983479445408870e-01,-2.193728412099228860e-04,2.614580249985136787e-03,5.699909798499063276e-04,1.425091028213500977e+00
2.598307663256598232e-01,-7.891983428774862475e-01,8.023441190157919456e-01,-1.320920117279711370e-02,-9.593125670083020584e-02,3.812553695343130072e-03,1.411407351493835449e+00
7.025735690825634094e-01,-7.436453230210977594e-01,4.572470127092241321e-01,-9.528034323718509793e-03,-1.181458927792941593e-01,-7.686245988175185312e-03,1.356194376945495605e+00
6.146976389945923991e-01,-7.379272838053768657e-01,5.377268190954889171e-01,1.183612851664941207e-02,-2.871058556310444876e-02,2.534627337071456484e-03,1.316935300827026367e+00
5.820850481180899205e-01,-7.320383671405505943e-01,5.955744206881803393e-01,6.154315172585986780e-03,-2.024799102472525647e-02,7.827926303149327497e-03,1.321497797966003418e+00
6.299103305453672697e-01,-7.388177019337683893e-01,6.706204709758927240e-01,2.025131350091920624e-03,1.343644706735730270e-02,-6.520391313662955365e-03,1.389775633811950684e+00
5.966864965845387614e-01,-7.257385229401752680e-01,5.633789607421164636e-01,-6.285521966114968051e-03,-1.509935376032751214e-02,-2.396323803320856132e-03,1.306403636932373047e+00
6.386596233288990287e-01,-7.679384436640745992e-01,6.705748086879641523e-01,4.549459509813581597e-03,3.845438060517476948e-03,4.883403524737860504e-03,1.422886729240417480e+00
6.419294819022499654e-01,-7.693206216042912660e-01,6.591130779829581510e-01,4.395290796886183390e-03,1.001765238676703348e-02,3.051396306543416141e-03,1.420056104660034180e+00
6.208370262434852460e-01,-7.295454072960690928e-01,5.147231838305597051e-01,6.512659363576750807e-03,-3.873501413381599118e-02,8.251768052046560458e-04,1.302355170249938965e+00
5.814854856343448786e-01,-7.367424006762440802e-01,5.793996563499699270e-01,1.264863108653377539e-02,-2.197815762778769499e-02,1.655857340433136010e-02,1.318230271339416504e+00
6.085527631440630358e-01,-7.334656299026666160e-01,5.737225200839908279e-01,1.177860292957744019e-02,-1.172603303911914398e-02,5.386566402719484246e-03,1.325292229652404785e+00
6.322171033229430082e-01,-7.299913498880540308e-01,6.804919163842382268e-01,4.745476265490356470e-03,-3.177738498932010554e-03,2.761428166805627790e-02,1.387835741043090820e+00
6.493104884616338612e-01,-7.461809678043972438e-01,6.054582853924156405e-01,-1.022167176211173515e-03,3.369996914643900218e-03,-1.212191750249703472e-02,1.374264240264892578e+00
6.449813080523023601e-01,-7.732278297498337283e-01,6.513745767011824839e-01,4.326108066878843993e-03,4.403772205653990607e-03,1.368347049978225994e-03,1.421458721160888672e+00
6.099737171506015576e-01,-7.585814474875762770e-01,6.215361884578310958e-01,-4.075536620318920408e-04,4.985075286845695904e-03,8.596270259060265250e-04,1.374400973320007324e+00
6.377268681486250035e-01,-7.378120171957426310e-01,6.537960971138778721e-01,5.899364471372560599e-03,-2.384738276541138475e-03,5.450783338101255170e-03,1.383719563484191895e+00
6.355656055058227505e-01,-7.647030003097777806e-01,6.182573840008421806e-01,1.055623772293922367e-02,9.536165750505606539e-03,-4.043780736971812860e-03,1.391930937767028809e+00
6.191252214690833311e-01,-7.646185400278409094e-01,6.356932806437208816e-01,7.488815882918854576e-03,4.942795595496674368e-03,-1.270011532476995365e-02,1.392362236976623535e+00
5.339477857349554935e-01,-7.566694363616568442e-01,6.736558075815204383e-01,-1.880397632782332190e-03,-2.627123150259901008e-02,8.673285004186197591e-03,1.366684913635253906e+00
6.207064521994209993e-01,-7.718427461961667735e-01,6.477145311776232317e-01,1.343961285079710646e-02,2.358105142861985359e-03,-1.349974006996439158e-02,1.406640648841857910e+00
6.634893778072488146e-01,-7.380442653352641269e-01,5.684417692102204933e-01,1.809313904824239386e-02,-4.065065895019077599e-03,1.117792861277013862e-02,1.357027888298034668e+00
6.575394792648161513e-01,-7.591628519474237224e-01,6.393473669059737130e-01,-8.921839091763346039e-03,-8.191908383979542088e-03,-6.863737412745858288e-03,1.407900929450988770e+00
6.557652835371778899e-01,-7.626752874929800807e-01,6.411878974130721387e-01,8.373668034572265967e-03,-1.248003997842644366e-03,-6.808482090163625947e-03,1.411333799362182617e+00
6.483596978788239706e-01,-7.578537665252859101e-01,6.478825910043877201e-01,-3.137834484636880042e-03,-1.433782924504148522e-02,6.083280501583777922e-03,1.406244277954101562e+00
6.429676890243798404e-01,-7.548801673147524927e-01,6.488290727518861711e-01,2.305420481680873872e-03,-1.242302436831273053e-02,-3.074985541150169945e-03,1.400968790054321289e+00
6.493891121530229738e-01,-7.803629741209235915e-01,6.415171314333523167e-01,-6.374549665472005380e-04,-3.161541104881299309e-03,-3.776223131175556575e-05,1.425843358039855957e+00
6.457106336331619456e-01,-9.544179917723649709e-01,5.942605412663316544e-01,1.525022109701650204e-02,2.817584250122978085e-01,-4.248250980845881368e-03,1.649135351181030273e+00
4.857088882985580169e-01,-7.422713660698927463e-01,6.751988809738483921e-01,-4.242901191470087492e-03,9.182606539303711513e-02,2.198191836267904611e-02,1.342881798744201660e+00
4.916511815965795007e-01,-7.514725735119186512e-01,6.451089244051131377e-01,2.249093446864137286e-02,1.353046843228569440e-01,7.590088737784078448e-04,1.347632884979248047e+00
6.060909057421303148e-01,-7.816672463924640990e-01,5.686226955326105781e-01,3.603792407226667771e-02,8.473662343331944680e-02,-3.733885791723058623e-02,1.380180954933166504e+00
6.988234793225079899e-01,-7.612720045058543050e-01,4.744059251819206513e-01,1.303433177730256402e-02,1.006090711150349898e-01,-2.906684892772995119e-02,1.374038577079772949e+00
6.635433777675889822e-01,-8.285149104789137908e-01,6.718330787124764392e-01,1.513143736846679459e-02,9.582306443719752764e-02,-5.234235058940711963e-03,1.505652904510498047e+00
6.340655201910984085e-01,-7.460437934123100856e-01,6.800271334650547228e-01,-4.580760679886629327e-03,7.069436572392548412e-03,-1.066925868956236645e-02,1.403852105140686035e+00
6.345482898258664184e-01,-7.598221958954056721e-01,6.652557717837169760e-01,2.705377721241198838e-03,8.389698513293681117e-03,-1.061341465677400828e-02,1.410177469253540039e+00
6.306661568355067526e-01,-7.561924826082271345e-01,6.748692977635089019e-01,2.903388591760404803e-03,3.265310791532816722e-03,-3.145148058194791388e-03,1.409510970115661621e+00
6.775710170795634646e-01,-4.622122487912191380e-01,6.002982952206703526e-01,8.068294312054671846e-02,-1.384104064217352333e-02,-1.036085617556213451e-01,1.126636981964111328e+00
6.228137739170357401e-01,-7.046702712105467059e-01,6.619322385051065183e-01,1.730544145945232771e-04,1.454904911577538373e-02,-2.486262566129111146e-02,1.348392724990844727e+00
6.352290592334046693e-01,-7.486261150082167415e-01,6.831736833505372974e-01,-2.490506607173534510e-03,-1.486440998497766137e-03,-8.765344279137197298e-03,1.408530473709106445e+00
5.872492505489343984e-01,-7.263330897816361320e-01,5.712239602522761750e-01,8.953189341335103264e-04,1.397615425404268204e-02,1.217285616981181231e-03,1.305870413780212402e+00
5.972972743984624744e-01,-6.206180930956208819e-01,6.708309810263226591e-01,-3.885683394867343269e-03,6.223745022323078427e-03,-2.643012908735124442e-02,1.257195353507995605e+00
6.277620369166475589e-01,-7.572722963996750822e-01,6.825122175423981030e-01,3.383166183921328639e-03,6.564876360042801000e-03,-1.045721416618315865e-02,1.413379073143005371e+00
6.239347184524504097e-01,-7.603351309553307846e-01,6.764528453169653677e-01,1.273866944634915446e-04,1.406074202680138337e-02,-6.767575887754573478e-03,1.411520838737487793e+00
6.240278651994819459e-01,-7.513379448896311263e-01,6.834928194999856377e-01,-2.792870298947833967e-04,2.915895341965161537e-04,-3.772155517286782112e-03,1.406057000160217285e+00
6.737488581179986724e-01,-7.551118013077040558e-01,6.292314993834122738e-01,1.888678635912165995e-03,-4.172424731548571818e-03,2.940922023956114330e-03,1.407161831855773926e+00
6.113423363549499445e-01,-6.748956804893361250e-01,6.737540847713041625e-01,-1.224333711218739650e-02,1.901739120632177718e-02,-2.170944556751969526e-02,1.319669842720031738e+00
6.392938436316097928e-01,-7.712851136745519920e-01,6.491120818073755627e-01,-4.253803774803540348e-03,-1.982483267940492004e-03,2.149470324781145233e-03,1.415541887283325195e+00
6.156955259368038780e-01,-5.840748301308780199e-01,6.302360821158283777e-01,3.724581336690047616e-03,3.661285272174692740e-02,-3.446623602159295391e-02,1.210261344909667969e+00
6.624611967361639930e-01,-7.632223228252319469e-01,5.462538387804631856e-01,-1.720415951756403342e-02,-2.443606192916045194e-02,-1.994406967499676511e-02,1.372689127922058105e+00
6.812116761145730059e-01,-5.930316776919101196e-01,5.993742057985631533e-01,1.277103931776404216e-02,-3.045219155573351127e-03,9.455862569567873022e-02,1.246376276016235352e+00
6.564020846654887720e-01,-7.626760480410647025e-01,6.176333293965867721e-01,-1.824446869452945458e-02,2.850896071157826492e-03,-1.077601680631979676e-02,1.400586009025573730e+00
7.158471923973963591e-01,-7.322025901664259706e-01,4.259895617936853007e-01,-5.796151033267110675e-03,-2.229441921739284960e-02,1.302996175275785914e-03,1.327680110931396484e+00
6.601470704319526428e-01,-7.415708658916880802e-01,5.075125971845140249e-01,-1.592445771711973462e-02,-1.344488704448974781e-02,-1.065312865864084628e-02,1.332592725753784180e+00
6.239463164193458367e-01,-7.549294740208565280e-01,6.823333313207463613e-01,-3.188338369940831637e-03,-3.104100376924166620e-03,-5.978807960998669575e-03,1.409036040306091309e+00
6.055632379969406731e-01,-7.482712691476139932e-01,6.021552999942969553e-01,8.880063776783393356e-03,-1.139314562251869667e-02,8.068677796484069464e-03,1.352437376976013184e+00
6.468415507509319706e-01,-7.293948479071816760e-01,6.749897400066589004e-01,3.056948622784258496e-02,-4.737940736601223973e-03,-1.185706016953290941e-02,1.391707658767700195e+00
6.089926017255881119e-01,-7.477764041643372162e-01,5.352959535317386441e-01,1.536430113724683924e-02,-9.005024408263348490e-02,1.224695757826019596e-02,1.331070780754089355e+00
6.010161149955290938e-01,-7.049535839100700141e-01,6.869057125126294405e-01,-6.313708937812227522e-03,-5.202348507016599580e-03,1.549314779755270755e-03,1.351040720939636230e+00
5.907657231402325682e-01,-7.503015808091528793e-01,5.185245363547819064e-01,1.755217844376491879e-02,-1.490006248370608077e-01,1.668919326786649435e-02,1.332352519035339355e+00
7.116517700086500975e-01,-3.736332594671680774e-01,3.781910053180978504e-01,5.424669103220355892e-02,-2.000859943701095989e-01,9.124972215602004944e-02,1.039735794067382812e+00
3.734170646076536704e-01,-7.493063985725089138e-01,7.605811974216558635e-01,4.770069588795796886e-03,-8.159676181787298144e-02,3.363419695796368569e-02,1.366937637329101562e+00
5.600553731249108269e-01,-7.349187927278076904e-01,6.141969199479816455e-01,1.389379395727418677e-02,-1.342325781018028491e-02,1.408201389990286490e-02,1.323523998260498047e+00
6.198175159660357370e-01,-7.530422356162028708e-01,6.190448779700121751e-01,1.313473559179935239e-02,-8.632348347943307604e-03,1.035633552540955737e-02,1.372860789299011230e+00
6.259295587826164686e-01,-7.539982511767004958e-01,6.130887893167422664e-01,9.311874310052896050e-03,8.624503694042892979e-03,-1.205894080298939783e-02,1.373887181282043457e+00
5.275873953621925683e-01,-7.286876261269056299e-01,6.307738319102291769e-01,2.895447120272214491e-04,-3.851703623017427303e-02,4.371022818699012678e-03,1.312636017799377441e+00
7.316798317619137570e-01,-7.459848621845164285e-01,5.526595541158901836e-01,6.836855330094805845e-03,8.963779832402064829e-02,-7.294411936546609139e-03,1.405494213104248047e+00
6.091472201553493893e-01,-7.548233277116420670e-01,6.391530599944532653e-01,-5.768171973359896478e-04,3.500555072735849708e-03,-9.002117203702945589e-03,1.379320144653320312e+00
6.836290266894933243e-01,-7.021139536113867319e-01,6.126471690359331923e-01,-3.257772803295492115e-03,-3.357952294375887801e-03,-3.004923487153687671e-03,1.351684927940368652e+00
6.631892268491834663e-01,-6.641821361089401687e-01,6.158701398747032929e-01,2.148929855672934708e-02,-2.296359415448268396e-02,1.903276894826158670e-03,1.305496811866760254e+00
6.539701178908206014e-01,-7.440316600217604659e-01,5.495070200294847051e-01,-1.465572089858343391e-02,1.200925603823431789e-02,-1.478204381411866173e-03,1.349209189414978027e+00
6.703468125428577729e-01,-7.495849870650800328e-01,6.287218273066634833e-01,-3.175531481620733846e-03,-4.083626090304013322e-03,6.330466509173798481e-03,1.399655222892761230e+00
6.646935714376552840e-01,-6.056065567916951720e-01,6.104491114457692991e-01,3.494198723203324058e-02,-1.694585887393629253e-03,-1.616719528395226197e-03,1.245543003082275391e+00
6.511075433595581163e-01,-7.063848245344115373e-01,6.397743626759049285e-01,2.326800283150687321e-02,-3.691283527400389050e-03,-1.100129257387509434e-02,1.352611303329467773e+00
6.021649396158049727e-01,-7.544053610423619993e-01,6.427065492702863647e-01,-1.994095882584885973e-02,1.079985527708550094e-02,2.689358325881765002e-02,1.378635883331298828e+00
4.694422354211321702e-01,-7.161009829628915968e-01,8.097747465040163739e-01,2.098126565310750591e-01,3.509502294476691403e-02,-2.308582804447686584e-02,1.436027765274047852e+00
6.458297227538596363e-01,-7.764953492877438856e-01,6.501750021495416032e-01,-3.140255035750450993e-03,-2.012328991264125330e-03,4.548889549170762384e-05,1.424517273902893066e+00
6.404492327931166074e-01,-7.731014917551555232e-01,6.624391865825245418e-01,-4.575356259540939996e-03,-5.364265829559392539e-03,-1.923330070217844131e-03,1.424729228019714355e+00
6.254432348392937602e-01,-7.486039778237311149e-01,6.042274862578195238e-01,-5.492668682642991643e-03,8.011153520410442194e-03,8.992256049891943562e-03,1.363755822181701660e+00
6.434070301846557260e-01,-7.643499911147060288e-01,6.563286810676427496e-01,-2.252948668736597191e-03,1.082608363822624292e-02,4.377013110769883628e-03,1.414412140846252441e+00
6.226573258647505327e-01,-7.494950052881353963e-01,6.051324284306676127e-01,-6.872063800775445389e-03,-2.897646589876795662e-03,2.561853984744128909e-03,1.363542795181274414e+00
6.856071757891266660e-01,-7.515703511210789500e-01,6.154066659108916593e-01,7.974767356866797191e-03,-6.297485699874576931e-03,-1.955597086857637293e-03,1.403509140014648438e+00
6.696145668519761784e-01,-7.505301975360588740e-01,6.354958024187007393e-01,-5.752659782076921698e-03,-9.582897744693166667e-04,3.021789788263593273e-03,1.403442621231079102e+00
6.601101206120403297e-01,-7.563202259951039563e-01,6.411637283983881996e-01,-6.991797768914998629e-03,-4.217294870907737324e-03,-2.184794432872573609e-03,1.407128930091857910e+00
6.220000328421040336e-01,-7.640778577726171639e-01,6.374272576850981142e-01,6.852590735513282641e-03,1.401978169618970250e-03,-1.189642587106464616e-02,1.394060492515563965e+00
6.288006967676514902e-01,-7.663085449740185684e-01,6.290067404213423030e-01,-4.080176101974847432e-03,9.877829671258596313e-04,6.887298117153345216e-03,1.395282268524169922e+00
6.611489936502983333e-01,-7.703721916023480443e-01,6.399728895694166697e-01,-4.960084910400685415e-03,-5.853868789768242042e-03,4.193662128477227032e-03,1.421132206916809082e+00
6.455259385360184732e-01,-7.548715680926746385e-01,5.977097853127997240e-01,-1.747480248974149150e-02,5.385600479579259053e-03,-5.635532344331125633e-03,1.377510905265808105e+00
6.402735973783713064e-01,-7.506016279865219687e-01,6.580656639976345534e-01,-5.173499300358335232e-03,-1.864616199393283325e-02,3.903966513410815197e-03,1.400273561477661133e+00
6.587549778797898714e-01,-7.740271733545591726e-01,6.438330517498668248e-01,-1.791539884742591234e-03,-1.009098047584352890e-02,7.686553840434588725e-03,1.425552487373352051e+00
6.743415334428752850e-01,-7.504894226896648979e-01,6.256497296377068196e-01,5.602944011413007151e-03,-1.524371371309857226e-02,2.947562509864234959e-03,1.401411414146423340e+00
6.660956739632878376e-01,-7.513476767036948445e-01,6.346914559374021714e-01,-3.214014731950747255e-04,-2.956612967208757919e-03,3.725130290789233946e-03,1.402029395103454590e+00
6.504828216341311808e-01,-7.760636957910795886e-01,6.366336810591017858e-01,-1.046155248953545497e-03,-1.037299468797151262e-03,6.359664284486174317e-03,1.419717669486999512e+00
6.374287878179270006e-01,-7.707196524447356145e-01,6.246809545758573723e-01,-1.141627275395697139e-02,1.115981065502327785e-03,7.466624563449548134e-03,1.402018427848815918e+00
6.505069100254978753e-01,-7.803303713249448714e-01,6.495631738685923029e-01,4.045106072089783578e-05,-3.293211806765685822e-03,9.289866069413842218e-04,1.430377960205078125e+00
6.489338842863277002e-01,-7.752417269209532780e-01,6.460105850274159289e-01,5.767822576891883145e-04,-3.824853008083439320e-03,9.751555370932891249e-04,1.422732949256896973e+00
5.614492925182208438e-01,-7.570302262651392722e-01,6.566184516326871723e-01,4.619704982779907778e-04,2.645117423699533399e-02,1.680103450857228092e-02,1.369624257087707520e+00
6.742629536548365721e-01,-7.073978907811880878e-01,6.341539862100316061e-01,1.903898162991967194e-02,-1.452796845198501760e-02,-6.981060703842578707e-03,1.362734436988830566e+00
6.885806304902988284e-01,-8.760742411573718691e-01,5.702905635612649515e-01,-3.170468781257759078e-02,2.751494322720036134e-01,6.238738816860811554e-02,1.587094187736511230e+00
6.207789227842841484e-01,-7.166083288364500925e-01,6.786117266649909219e-01,-5.143651238949633470e-03,-2.138101555775228854e-02,6.749299341766616146e-03,1.367801785469055176e+00
7.422054007010665533e-01,-7.863308516001250581e-01,4.748055166775776437e-01,-2.407603232808431387e-02,2.905225309834545411e-01,-9.933629667557632159e-02,1.511207222938537598e+00
6.594981137530331328e-01,-7.764222940195792955e-01,6.467265604591082573e-01,5.579457158841564374e-04,-8.222216637008696732e-03,2.720243551887283062e-03,1.429656386375427246e+00
6.124329066115818954e-01,-7.619997636180978473e-01,6.388370816580024592e-01,-9.487588278125478518e-04,1.798326145014500889e-03,1.616959094868505517e-02,1.388110160827636719e+00
6.412386401678835668e-01,-7.695961031632074789e-01,6.464141546036301644e-01,-1.103299003942325579e-02,-2.138041137550000716e-03,-1.781559794124603149e-03,1.413566946983337402e+00
6.502996894467302225e-01,-7.646824310719207984e-01,6.001605040316462247e-01,-2.600389933383959185e-02,1.987876267729788218e-02,2.356804300518821130e-02,1.392344355583190918e+00
7.439334584810307627e-01,-7.065933505335836307e-01,4.432028821382593686e-01,-5.933781075872568596e-03,2.902763884694040675e-01,-9.046648305318925887e-02,1.426775574684143066e+00
6.468430298268366130e-01,-7.748233901378649424e-01,6.590897732832929901e-01,-3.736816025772176069e-03,-9.510067343438170784e-03,2.000846722467473568e-03,1.427943110466003418e+00
6.585977930536969227e-01,-6.441876040622770416e-01,6.193996708625713055e-01,5.704629508800492313e-03,2.648407189517072019e-02,4.840198956002326330e-03,1.284520030021667480e+00
4.613407577703174667e-01,-6.618979407317241437e-01,5.837528798065478863e-01,1.002978922586767740e-01,3.214144698283827317e-01,1.552950932641755698e-03,1.324483275413513184e+00
6.560689785891400394e-01,-7.479019787257552565e-01,6.457905463560551507e-01,5.665909038539807853e-03,2.468737560494121963e-02,5.579787932583017869e-03,1.399581193923950195e+00
6.110683623431030220e-01,-7.264619178762266039e-01,5.505487404871164392e-01,6.230759197849760657e-03,-1.349437789846763373e-02,-9.439469126659827511e-05,1.308573961257934570e+00
6.463027521278280618e-01,-7.583119585448819810e-01,6.562901093563244803e-01,1.146808381504352227e-03,1.939408581560196632e-02,3.047840215673558017e-03,1.410046339035034180e+00
5.850044671026997101e-01,-7.232561601401648055e-01,5.819913010806341269e-01,9.769470556691903229e-04,-1.504962251510882096e-03,-1.187693247180643223e-03,1.306761980056762695e+00
6.106415393795638913e-01,-7.466220641248414447e-01,6.075791549496589727e-01,8.277303561663080372e-03,-1.849442789841857469e-03,7.354984828536355150e-03,1.355874419212341309e+00
6.101096071126641540e-01,-7.336254488108566729e-01,5.707861347516707262e-01,1.062075492733393321e-02,-4.111633293932653171e-02,9.580883643050010917e-03,1.326655745506286621e+00
6.071271150005584927e-01,-7.468435801128870954e-01,6.104069339457303123e-01,6.371018514525860280e-03,-1.278167628871826333e-03,9.216804923072210998e-03,1.355754256248474121e+00
6.223837355810200034e-01,-7.748412841742705615e-01,6.213701511984848214e-01,-6.232027259257613694e-02,-1.529710475354859878e-01,-2.133285710987004036e-02,1.426197648048400879e+00
6.367233304822710327e-01,-7.460368980106484305e-01,5.263481475046465352e-01,2.319846365927744070e-02,-2.373303927283787126e-02,1.644827467992488954e-02,1.332554697990417480e+00
5.149511912916554524e-01,-7.281244454251387666e-01,6.281504004357938431e-01,1.014510230254438497e-03,3.859435781927086917e-02,-6.599648426872264592e-03,1.305131673812866211e+00
6.019582429031904436e-01,-7.707438372196022680e-01,6.178111880464151051e-01,2.030700974480826454e-02,7.439087155525872519e-02,-2.795302977244307902e-02,1.387986660003662109e+00
5.795405798750865589e-01,-7.396339019060000908e-01,6.296104631878641777e-01,8.632548901537682811e-05,1.089951075605259147e-02,-1.061810955217385236e-02,1.345166802406311035e+00
6.152966433881654762e-01,-7.334460378565221816e-01,5.526794212125892836e-01,1.956439888634054977e-02,7.049241872902173300e-02,-5.637710699362746304e-03,1.324660062789916992e+00
6.408044781297315140e-01,-7.589881312608413033e-01,6.593641703111551289e-01,-5.133090815749916276e-03,-2.774923987000739271e-03,-1.902922581716727859e-02,1.409585714340209961e+00
6.173671218590719434e-01,-7.068383876905577345e-01,6.840279461342886336e-01,-9.186042372702531980e-04,2.474907238702455520e-03,2.442510859116296500e-03,1.358777165412902832e+00
6.063980899573084837e-01,-7.350973454275154806e-01,6.059906747988050846e-01,1.451514361465356014e-02,1.936853564768603250e-02,-1.402388446533207531e-02,1.342166543006896973e+00
6.454101985170113132e-01,-7.636867147910385567e-01,6.352894893395217846e-01,2.085678590662168666e-02,7.169444360957327039e-03,1.874570987872805142e-02,1.404958724975585938e+00
6.953707560759441186e-01,-7.648613582330939797e-01,5.756621708174621821e-01,1.133731100793522809e-02,-2.449049788509366325e-03,-1.312974016779876012e-02,1.404537796974182129e+00
5.715552221449917703e-01,-7.395348063151858664e-01,6.131592057504274829e-01,9.322843525538179743e-03,1.903231350205022987e-02,-1.392749039106287029e-02,1.333103060722351074e+00
6.025621921119161950e-01,-7.095015743612718140e-01,6.830218474497220527e-01,-9.229184159116211178e-04,1.415183370969183736e-02,2.453960210908743850e-03,1.354317069053649902e+00
6.658545065241472383e-01,-7.694017087563502777e-01,5.153856394886482395e-01,3.840688657528937289e-02,8.782626667651220742e-02,-1.038389724888838864e-02,1.376418948173522949e+00
6.110279594074381482e-01,-7.363027864731541694e-01,5.816106176082235235e-01,1.258394583413890294e-02,2.277153662916945806e-02,-5.061828838026892659e-03,1.333655953407287598e+00
6.861235551234243779e-01,-7.178961064561429906e-01,6.203220427885789423e-01,-2.047914542761465270e-02,2.704089897989846777e-03,-6.523146099569586149e-04,1.372769355773925781e+00
6.165174561676223242e-01,-7.037235189379279499e-01,6.784386669766517830e-01,-2.794841813764446618e-03,-1.040269918082756088e-02,2.933837962575716954e-03,1.352403521537780762e+00
3.709160095352393993e-01,-4.277043930453537923e-01,9.908423077843621085e-01,1.229326421501909967e-02,1.564093168224354180e-01,-2.117968120959613787e-02,1.261895298957824707e+00
5.991425225269375598e-01,-5.935138962326909073e-01,6.657828506582359473e-01,3.237570727894890140e-03,8.006396201960629469e-03,6.363440172172482590e-03,1.227474808692932129e+00
5.420403861209042162e-01,-7.429391398726893359e-01,6.243250016768181476e-01,4.384179474073612165e-03,3.297407115413995143e-02,-1.257909456915473102e-02,1.329462885856628418e+00
6.381175317226789323e-01,-7.142478266361618200e-01,6.554114773182037057e-01,-5.259769066795480681e-03,-2.464613770611709040e-02,-7.275855254908765446e-03,1.361852765083312988e+00
1.314789868351790847e-01,-6.881648967534937933e-01,1.207403079160912718e+00,2.714252915403689848e-01,-1.223517925352677616e-01,4.744546957413735278e-02,1.727420449256896973e+00
6.436870093893101163e-01,-7.645150871247984314e-01,6.597115833689348730e-01,5.315554213547881462e-06,-9.636904512778623338e-03,-3.388109514327197844e-03,1.416392922401428223e+00
6.599944614226419537e-01,-7.696943038235772860e-01,6.402771415893289131e-01,2.766561603522449744e-03,-5.512175642271883481e-03,-3.613540977176051168e-03,1.419986724853515625e+00
6.098613588028338750e-01,-7.653263053162669971e-01,6.515730715669082462e-01,-1.358184231216823593e-02,-2.651706925831572199e-03,6.889897131951821727e-03,1.396767497062683105e+00
6.212889341482397132e-01,-6.404548608171314328e-01,6.494551787482276684e-01,-4.963717244251205502e-03,-3.055082099462013909e-02,4.654136301416821747e-03,1.277211189270019531e+00
6.818392253203566788e-01,-7.523466813352366334e-01,6.240439577177492314e-01,3.248019540606968038e-03,-1.372602868678158379e-03,5.731197676035680319e-07,1.406192660331726074e+00
6.316524685538940087e-01,-7.436430568471561475e-01,6.812133530442349150e-01,2.528534486164382873e-03,-7.804472930516883830e-03,-1.122145608941162165e-02,1.400940656661987305e+00
6.457124089290431357e-01,-7.475702241052409880e-01,6.083502543888669178e-01,-9.399811676243688754e-03,-1.300174943885744382e-03,8.548508096906397638e-03,1.375160217285156250e+00
6.546023066243813471e-01,-7.504035996113630480e-01,6.065545327885653037e-01,-6.889294914811068711e-03,8.823068252487061957e-04,7.307890909534519794e-03,1.381719112396240234e+00
6.269212556862200358e-01,-7.237592735088532736e-01,6.656376029558097596e-01,4.111523568414764650e-03,-1.550022243126538725e-02,-7.316234728602253636e-03,1.370788931846618652e+00
3.103045466364202642e-01,-7.650112329036947711e-01,8.201273023786215255e-01,-2.693611862980429747e-02,-5.527724573748183864e-03,-7.348378532727368323e-03,1.402452826499938965e+00
6.505573085756723994e-01,-7.701492023156323308e-01,6.390907374457629464e-01,-8.197099061927842854e-04,-3.937731522241259656e-03,8.953229564940568333e-03,1.415110230445861816e+00
6.797728108619077725e-01,-7.593197764956939322e-01,4.819105429946907715e-01,-8.623722729782880292e-03,3.027521852889930587e-02,2.536213577570398808e-02,1.352884888648986816e+00
6.363036006985138826e-01,-7.543781766473094397e-01,6.631915561016616945e-01,-2.392821135391193753e-03,-9.314852994951616089e-03,1.539317692734657080e-03,1.404420137405395508e+00
6.108795730637359700e-01,-6.403867863455371401e-01,6.605723971400134786e-01,-5.929175485759532495e-03,-3.102857716799181306e-02,3.590837175826089734e-03,1.278025150299072266e+00
7.521230932032624272e-01,-7.398055211890394167e-01,2.728563751683659167e-01,4.879570518938540491e-02,-3.655292460431787127e-01,1.385741722545980603e-01,1.485295295715332031e+00
6.504025840989615670e-01,-7.649413596526347670e-01,6.151209302285309821e-01,-1.246172278978708269e-02,4.694847958171654147e-04,6.706758244468842903e-03,1.398252129554748535e+00
6.463243644413896316e-01,-7.755567494656858685e-01,6.437940221057749657e-01,-2.035413971975418360e-03,1.239258412115285066e-03,5.365461569192911742e-03,1.420654058456420898e+00
6.320039319873771433e-01,-7.330063593330562455e-01,6.687501076559069224e-01,8.950674723972016494e-03,-1.849606563674607504e-02,6.491644595037859670e-03,1.384252667427062988e+00
6.507512857514052840e-01,-7.228229788253732746e-01,6.436075394071517630e-01,1.075553461972697869e-02,-2.467004397928756337e-02,6.186303788947558960e-03,1.370851039886474609e+00
6.100591418006108269e-01,-7.324434166847736405e-01,5.681046857576199649e-01,1.111998375479957869e-02,9.121907865075966002e-03,-3.545543537059398648e-03,1.322273612022399902e+00
6.358894046349355955e-01,-6.826707891170936682e-01,6.537338710202674763e-01,2.251102480325634439e-02,-2.858626233157349900e-02,-9.505420526189663558e-03,1.329169392585754395e+00
6.250171137528968135e-01,-5.542991193526941585e-01,6.462155743818538411e-01,7.004706805106437895e-02,-1.873797676946084914e-02,-3.414118326913540002e-02,1.198125958442687988e+00
6.795807797002160200e-01,-7.107352052561536349e-01,6.190844818860461451e-01,3.022691884512751330e-03,1.494896602081803062e-02,-3.929916198331539871e-03,1.361349940299987793e+00
5.135220104751914150e-01,-7.564930825086551014e-01,6.906307163667897431e-01,-3.706190355651860918e-02,1.915490730927983448e-03,3.579420746632897693e-03,1.368724465370178223e+00
4.932717918842378091e-01,-7.570830621093875834e-01,7.314596604789844747e-01,1.602086520524465332e-02,-3.441956376703208479e-03,-9.160325287629984478e-03,1.385278820991516113e+00
5.438767263237103133e-01,-9.130624479009619154e-01,7.147768954245714568e-01,5.876533008226687144e-02,7.068944114720808469e-02,2.838245599217886772e-02,1.558408617973327637e+00
6.622539747427890200e-01,-7.650118737533571078e-01,6.401972470339066801e-01,-1.936642364532665042e-03,4.381383465347400349e-03,1.635366870521357116e-03,1.416393399238586426e+00
6.477179467345079988e-01,-7.072461810553319905e-01,6.379725057984169112e-01,-1.772642974692544005e-02,6.096545847957770929e-03,7.393109552439281092e-03,1.350568890571594238e+00
4.590996114644234072e-01,-7.579266207898640584e-01,7.233494228420958017e-01,-2.421004160523805571e-02,4.810190508537573462e-02,1.379997306932972088e-02,1.371805667877197266e+00
6.116223113388525867e-01,-4.009131457320157521e-01,5.594283466533087612e-01,4.187996654442877748e-03,-1.723784252344954387e-02,-1.777538958865775790e-03,9.879562258720397949e-01
3.980919119915696802e-01,-8.909711530162905957e-01,7.690506828954063456e-01,-2.428625213760451235e-02,8.576170410338412875e-02,1.079350124428493131e-02,1.517124772071838379e+00
4.362717248523008129e-01,-7.591518716973452152e-01,7.244855791876239071e-01,-2.052939751206902738e-02,1.858893406409081392e-02,1.062562442138273791e-02,1.363554954528808594e+00
5.413563382518229439e-01,-7.602810283090601917e-01,6.837577989400756007e-01,-1.753805399354176064e-02,9.739586710903296030e-03,1.328134900044262989e-02,1.378995895385742188e+00
5.562426586995596889e-01,-7.452623948458657610e-01,6.603500692985772025e-01,5.338146668456664364e-03,-3.571099888178028842e-02,2.663063512418039833e-02,1.358782172203063965e+00
6.825861230682579439e-01,-7.530279961937025313e-01,6.280112034266804866e-01,-1.271516615434298281e-02,-9.021582762601402378e-03,-3.621716939108484204e-03,1.409392237663269043e+00
6.215258716354392643e-01,-6.508592705471678563e-01,6.619236361077460717e-01,3.788484622722478566e-03,2.647277217615633810e-02,5.740765259414354685e-03,1.293924927711486816e+00
6.720208981441028184e-01,-7.565718328513428848e-01,6.306919107301063310e-01,4.457793398020330712e-05,-3.573332877689913180e-03,-3.267419955635840999e-03,1.408408045768737793e+00
6.095563303246993581e-01,-4.969837302244904942e-01,6.380247665104430421e-01,-2.280043057372985876e-02,2.501837157519818874e-02,-5.263659233971601514e-02,1.126273512840270996e+00
6.553273794952949594e-01,-7.618292932156797148e-01,6.378899762412941765e-01,-4.264744164352509033e-03,-2.777123038744868690e-03,-4.935402136502778890e-03,1.408572435379028320e+00
6.575705491121359714e-01,-7.677888866500504061e-01,6.456285486810670049e-01,3.480163863477581197e-03,1.476800576720080534e-02,4.523045933888300736e-03,1.419690966606140137e+00
1.152475277073101712e+00,-1.046145989955405975e+00,2.160846117038394687e-01,-1.186008546701467457e-02,1.259709852491314522e-02,-1.825198587550560247e-01,1.937223076820373535e+00
6.117458005583105152e-01,-7.560926831613224985e-01,6.633128713901037532e-01,9.667312235440759724e-03,1.724619211669634446e-03,-4.015508040985868443e-03,1.394458413124084473e+00
6.099577007911343163e-01,-7.589798964519332003e-01,6.634368954129034046e-01,6.012590561518130552e-03,4.701492216826536259e-04,2.997276923199294896e-03,1.396494150161743164e+00
6.730323558329402989e-01,-7.276075491269231588e-01,6.241719674110406402e-01,-1.163615413032164682e-02,-1.577608988575888299e-02,5.447543359763342384e-03,1.377310991287231445e+00
6.143704011385728858e-01,-7.690137889195888254e-01,6.503873214140996062e-01,1.283428242242569059e-02,-1.482771353506141376e-03,-1.115475113408970383e-02,1.402051448822021484e+00
6.718447457181339066e-01,-7.648989842570922404e-01,6.349609433341537601e-01,-1.091653794883323597e-03,-4.206222194180855335e-03,-1.045297403304922164e-03,1.418682575225830078e+00
7.642450343731571616e-01,-4.551049700458383862e-01,4.209334663276483868e-01,-2.761369164742541113e-02,-2.416326519083134353e-02,-5.909413239146542318e-02,1.095707893371582031e+00
5.992492008079532972e-01,-5.858958968772002285e-01,6.591077790320615248e-01,-3.349044947938943726e-03,-1.776824274519748711e-02,7.500152840776881658e-03,1.216652154922485352e+00
6.319055593805642523e-01,-7.462798193896467147e-01,6.706603336198141418e-01,3.624906537107779807e-04,2.074818952383561312e-03,2.761310433044063175e-03,1.397978663444519043e+00
6.303923303786429511e-01,-5.362858048929852739e-01,6.239793834376174964e-01,-3.421557337791293618e-02,3.366899429747183953e-02,-2.735661132116554844e-02,1.167413949966430664e+00
6.648866378436684155e-01,-7.690086393575247259e-01,5.792833015310472344e-01,9.360204335103412474e-03,-7.768784430261980491e-03,-1.139668955536486152e-02,1.393366813659667969e+00
6.262004397535532174e-01,-7.288387325626288771e-01,6.806781744747355534e-01,-1.430768401422985578e-03,6.540464153046834060e-03,-1.566179194555324117e-02,1.383397579193115234e+00
5.708113373597141216e-01,-5.886094251218922935e-01,6.701509854404523736e-01,3.430872583568327300e-04,-5.535228370834380240e-03,8.403579765163482485e-03,1.212272882461547852e+00
5.497218594034012362e-01,-3.007314052187071152e-01,5.732495342481732647e-01,-3.138368144507558150e-04,1.821902270632128496e-03,-1.025229237859585571e-02,8.626465797424316406e-01
6.132193714690339359e-01,-6.507578631339593356e-01,6.716171707899927235e-01,-2.042505199363954180e-02,2.162627939080201400e-02,-2.972327198092408751e-02,1.296212673187255859e+00
6.486759424849593003e-01,-7.610524039082848802e-01,6.145317866172057553e-01,1.572703288176257111e-02,-5.750070622626678868e-04,1.144607635159535473e-02,1.393377900123596191e+00
5.807183404390900971e-01,-7.588102078870475609e-01,6.932306222626708481e-01,1.323205372342209363e-02,7.212983257938420691e-03,1.632749146207078958e-03,1.399427890777587891e+00
6.834557834795307318e-01,-7.544571033764451151e-01,6.229695801837913383e-01,6.625799366787375570e-03,2.547185971540258387e-03,-3.417182162034014190e-03,1.408710122108459473e+00
6.364300054354439240e-01,-7.594839012636005471e-01,6.641004851242326978e-01,4.543589443316032109e-03,2.510660921993508512e-03,6.309460788908273152e-03,1.410023808479309082e+00
6.420246637317243987e-01,-4.748821897237417433e-01,5.917263532035299534e-01,-7.084145905075503458e-02,-1.022380358174125765e-02,3.155591235730959183e-03,1.099650502204895020e+00
5.536518862714419065e-01,-2.334450858075673985e-01,5.543890570437417509e-01,-6.426571037280153637e-03,-7.392695790904770838e-03,5.691670263125337293e-04,7.876492142677307129e-01
6.675611153884820625e-01,-6.467138807867782724e-01,6.203931338236274851e-01,2.379596622025742861e-02,-1.484044352054963122e-02,-2.494114760136040016e-03,1.292257666587829590e+00
6.428662842682685286e-01,-7.657876524063992330e-01,6.510078804227619198e-01,1.170403286052842072e-02,6.523127104798343706e-03,-4.385549037485671556e-03,1.412953376770019531e+00
4.472256993756984489e-01,-7.448875060839338369e-01,6.805745625536958610e-01,-7.041811110748921569e-03,3.430339332958886461e-02,-1.032488605575809142e-03,1.325686931610107422e+00
6.518916902317366535e-01,-7.498076510481663792e-01,5.975336788905820651e-01,9.348278489160678772e-03,7.063613748513419832e-02,1.552361583686887384e-02,1.381114006042480469e+00
4.025202248928122506e-01,-8.139638341307883218e-01,7.761657774032687529e-01,-1.753856098422362092e-02,8.619028718592459948e-02,1.888200635196280591e-04,1.448166966438293457e+00
6.585360558190007652e-01,-7.686927239175718185e-01,6.402376191204017797e-01,-2.253416266405369392e-03,-8.452759942423811526e-03,7.779824594254108883e-03,1.418313026428222656e+00
8.426633295599611495e-02,-1.107283598941653846e+00,1.283514073196091676e+00,1.979161830735596816e-01,7.568653299107006016e-02,5.269144147707732068e-02,2.104751110076904297e+00
6.688381938420449035e-01,-7.636470092683645960e-01,6.431013448110954878e-01,-1.240656659494117874e-03,-2.628355157327229991e-02,5.052613886942951445e-03,1.420549988746643066e+00
3.957454615185735936e-01,-7.704726391849820999e-01,7.716968129310567415e-01,-4.349350890997194519e-03,7.248757418414743248e-02,1.091026785773614206e-02,1.398578763008117676e+00
6.920421304737740531e-01,-7.673626771311897743e-01,4.324082020815185334e-01,-8.437488213755983332e-03,8.541790188420443630e-02,-2.334116205968910559e-03,1.356642842292785645e+00
6.848033243065407838e-01,-7.400471943218257520e-01,6.176035448255088323e-01,1.461850754245630143e-02,9.388273979168875252e-03,8.020497167862362595e-03,1.392861723899841309e+00
6.779236895217802816e-01,-7.546867337665665865e-01,6.276439033138745405e-01,3.160156243010255918e-03,-6.921009322890234183e-03,1.302521221563699523e-03,1.408207416534423828e+00
4.084250232143438186e-01,-7.619826751002262144e-01,7.297402662492776804e-01,3.382812424289863892e-03,6.623627777329088584e-02,5.688150543665753366e-03,1.364719986915588379e+00
4.228062695442614816e-01,-7.496934407350477336e-01,7.283002856038658379e-01,-2.082488732488116043e-02,2.925290857369092570e-02,1.098013257759826444e-02,1.352961063385009766e+00
4.530094306974025709e-01,-7.538359681989447170e-01,7.143305897013075834e-01,-2.505091930301782399e-02,1.619192900280389674e-02,2.219258450388018195e-02,1.358044743537902832e+00
5.868410670397157247e-01,-7.414663679162026844e-01,6.024200891068540731e-01,2.040180328634037463e-03,2.122643774317852297e-02,-1.090350112001120704e-02,1.336808800697326660e+00
6.377519399792548338e-01,-7.705827257978176137e-01,6.259130064677880245e-01,1.403591874559002514e-02,1.558774268968286629e-04,-1.055647149998913126e-02,1.402782559394836426e+00
6.291658952688861106e-01,-7.570545489447328968e-01,5.944206538623788560e-01,1.302726398041276733e-02,6.153455429499664515e-03,-9.090268303600814934e-03,1.369496464729309082e+00
6.709943579099776345e-01,-7.543829632556671161e-01,6.310998251561970029e-01,2.433591699503857755e-03,1.140302602863723681e-02,3.844069168183057630e-03,1.406015515327453613e+00
6.151722641625907428e-01,-7.352986427563868999e-01,5.653571144209933452e-01,1.431292708488698419e-02,7.664241448852909290e-03,-7.441332791315534954e-03,1.326625823974609375e+00
6.061112205943293141e-01,-7.504179580893526325e-01,6.058141754731365403e-01,1.100264464851825538e-02,7.289972690952032167e-03,-1.419309386376657947e-02,1.356796026229858398e+00
6.236314722564583191e-01,-7.363699390248571452e-01,5.497390400071973104e-01,1.124829364795184618e-02,1.309032464444048575e-02,-4.397561589230286443e-03,1.324961066246032715e+00
6.736031642035799072e-01,-7.560288302314299713e-01,6.352196030993444431e-01,-4.078505156709003911e-03,4.113556923753867653e-03,-1.728331377772301936e-04,1.410867571830749512e+00
6.190221356589296064e-01,-7.579871032139714471e-01,5.887940460284236677e-01,2.350992206428443795e-02,1.669037348260371187e-02,-2.218573321632833287e-02,1.363603472709655762e+00
6.340040132817041929e-01,-7.667132363781623550e-01,6.221624193405748127e-01,1.098383298084788622e-02,1.056074023067282881e-02,-1.444999925523771968e-02,1.395308256149291992e+00
6.137157327610879287e-01,-7.383701472852577385e-01,5.028226259497019512e-01,8.440535294420754148e-03,1.130119405424871715e-01,-1.168677477470949147e-02,1.315079927444458008e+00
6.078259117230376818e-01,-7.502765250005952735e-01,6.051812159300589133e-01,1.296718204166317882e-02,1.397082114278105219e-02,-1.424153501296202169e-02,1.357407808303833008e+00
4.724429435662687582e-01,-7.369351594941984107e-01,6.739852476348735522e-01,9.482073937943020711e-03,4.374100856800200443e-02,-1.149842298877671101e-02,1.324145674705505371e+00
5.970508450129015099e-01,-7.491028328862606722e-01,6.236849567704310093e-01,1.067465299564781915e-02,5.449891358589962521e-03,-1.475101348789733223e-02,1.360064864158630371e+00
5.790275437624862187e-01,-7.508321191454556676e-01,6.305145646460339481e-01,8.947239197137371591e-03,1.392661536192600982e-02,-1.301180462655929931e-02,1.356826424598693848e+00
6.399962364768680967e-01,-7.634069268489025450e-01,6.603216575129717825e-01,7.042317276080793838e-03,9.783862363277514781e-03,-1.463178923944655088e-04,1.413829684257507324e+00
5.397279053222148182e-01,-7.329066700724296002e-01,6.227165878953750955e-01,6.019570549177373844e-03,2.011455154462907235e-02,-6.793196954264329492e-03,1.316647648811340332e+00
6.647363873056737482e-01,-7.584435938035170022e-01,6.367837528934638947e-01,-2.084206460611926978e-03,1.223195986642773223e-02,-5.964950129617702969e-03,1.409613251686096191e+00
6.699732685491663897e-01,-7.212172471475045699e-01,6.220810525538829072e-01,5.184569725389798558e-03,2.612360376758322486e-02,8.186022521751194162e-04,1.368651747703552246e+00
6.457977053269976508e-01,-7.691323890318466638e-01,6.479164680690883138e-01,-2.912699714120809726e-03,1.263357543413058670e-02,-7.608653164494098842e-03,1.416230082511901855e+00
5.715154959662793743e-01,-3.438534793933049061e-01,5.988222734921935242e-01,-3.555723199337833349e-03,-2.031984301622434541e-02,-1.705375141309089181e-04,9.300099611282348633e-01
6.516727344463917326e-01,-7.742933692313060945e-01,6.399081190301210142e-01,-2.673191082294548455e-03,2.232907684448429044e-03,-3.267416729833172179e-03,1.420144438743591309e+00
6.087860522513892647e-01,-4.230612204976295088e-01,5.702883774060185651e-01,1.739564982372557734e-03,1.195181618052237014e-02,5.523886588342430317e-04,1.013363599777221680e+00
6.632699368310078780e-01,-7.686743414482976045e-01,6.426702357116014230e-01,3.818627095826829763e-03,1.584130188910121140e-02,2.376258908178554077e-03,1.422042369842529297e+00
4.765933012837631488e-01,-7.900700502036580586e-01,7.470399652626419362e-01,5.189001920709879201e-02,3.449199109228752252e-04,1.400745127586263544e-02,1.424362659454345703e+00
5.414457941594962298e-01,-3.230572874972713615e-01,9.882191297295890298e-01,-5.587392741289305166e-03,-1.590598508765226349e-01,-9.658765112070566428e-02,1.198828697204589844e+00
5.815181641048483563e-01,-2.955189087070038134e-01,5.869332032978199498e-01,-9.112355646737395343e-03,5.892956034609923843e-03,-6.144658987038220145e-03,8.800222277641296387e-01
5.521630941843693741e-01,-2.712328474588537874e-01,5.743695795900700674e-01,7.639925055444021437e-03,1.230172534413185876e-03,-5.239850341933367101e-02,8.397470712661743164e-01
5.821493254920873106e-01,-4.507430334103800229e-01,6.047256993173029116e-01,-5.308162692034439772e-02,3.026784534795987427e-02,5.704639359394089206e-03,1.049759149551391602e+00
6.062313894832875860e-01,-4.932297803653797885e-01,6.116323835951571475e-01,1.883270144709302740e-03,2.576865282965153103e-02,-2.559548251171882478e-04,1.103079795837402344e+00
5.834207272384697163e-01,-5.442607246980607494e-01,6.497023795001632962e-01,-8.942737346080227925e-03,5.445645904346977338e-03,-4.167105673914925368e-02,1.164620757102966309e+00
5.558510225323960441e-01,-2.978736221446874888e-01,5.928512944348622860e-01,3.343591992203549280e-03,1.818482835019727406e-02,-4.606942529636101624e-03,8.734369277954101562e-01
6.199717378586160343e-01,-3.291006802155300726e-01,5.930828932733114289e-01,1.400174763316576736e-03,-1.671408220037287097e-03,-1.235921217075958561e-01,9.600944519042968750e-01
5.763632567408175644e-01,-2.911801878900068807e-01,6.884367021032875567e-01,3.436232569593178354e-02,-1.094118517807541810e-02,-8.916433627625193481e-02,9.434897899627685547e-01
5.513806511086489781e-01,-2.843174230052593066e-01,5.737001639490841853e-01,1.447722241336243595e-02,2.718475037197807045e-03,-5.672073847368661742e-02,8.531380295753479004e-01
5.799975421951224508e-01,-7.626462331598474753e-01,6.958428537209835341e-01,1.650963702868099917e-02,1.855727900918141245e-03,1.187176403242187935e-02,1.404600381851196289e+00
5.810016865854865653e-01,-3.566294131668544809e-01,5.883946004905602489e-01,-3.819885528676763425e-02,3.051198308350810615e-02,-5.420313746371777097e-02,9.498015046119689941e-01
6.962231702735188765e-01,-7.585899619128554372e-01,5.711830655041596483e-01,1.870792110291504419e-04,8.531740691754273118e-03,1.247087475265647172e-02,1.396743059158325195e+00
6.361788036975546401e-01,-7.574044381406380699e-01,6.775077088133554248e-01,1.012737759274031550e-03,4.866238948952423746e-03,6.165292321285934657e-03,1.414767026901245117e+00
6.136904404170935301e-01,-4.179021278745178591e-01,5.528031490657374647e-01,2.477901593237321156e-04,-2.911125163613632709e-03,4.944249657359914285e-03,1.002585887908935547e+00
6.521513140468568892e-01,-5.929263925119916401e-01,5.982730151412360975e-01,1.667192354028432591e-02,-8.890164866792281059e-03,-2.021874754169105878e-02,1.219973802566528320e+00
6.689898480254155011e-01,-7.461661320802631669e-01,6.381856118008994994e-01,-1.651500986869946629e-03,-1.551331596256911010e-03,1.222240958077286865e-03,1.400015115737915039e+00
6.811340305167385978e-01,-7.499672622202303574e-01,6.314911995713161641e-01,5.610882219182064187e-03,-1.234372759703662031e-03,-2.428581565495258228e-03,1.406978368759155273e+00
6.827608869710314332e-01,-7.566205504095907530e-01,6.256886055560081372e-01,6.721605420443744344e-03,-2.744496622406289183e-03,3.197548839114446907e-03,1.411777615547180176e+00
6.799170431112713242e-01,-7.236088387286839785e-01,6.165832138103100046e-01,-9.066797444932471592e-05,-1.981213359654141956e-02,4.768573170959228454e-03,1.373408555984497070e+00
6.501162251212424525e-01,-7.047363505166769349e-01,6.362603244336780817e-01,1.254842967569229709e-02,-5.652871471080743275e-03,-6.150419103228820308e-03,1.348230838775634766e+00
6.478676610363354182e-01,-6.390479427720454630e-01,6.170623370021466325e-01,-3.382663934658115823e-03,-2.893533524953358776e-02,4.234662273733624457e-03,1.272814512252807617e+00
5.522020980730144579e-01,-1.774624958546850428e-01,5.520776366140303093e-01,-1.155628473493072045e-02,-2.035089591723829132e-03,-3.819344798543010400e-02,7.328771352767944336e-01
5.651526329604661392e-01,-7.424804243343697818e-01,6.265533583385327621e-01,1.053674992394304857e-03,-1.562182037660296736e-02,-1.467957604399263045e-02,1.339905142784118652e+00
6.705166321599875801e-01,-6.229910802414915239e-01,6.134135309524180180e-01,3.141513126583012766e-02,1.007689975452584572e-03,1.022161295675989064e-03,1.267093777656555176e+00
5.585415022698596577e-01,-4.260079135392719207e-01,6.067132029344199928e-01,3.785115184443922729e-03,-4.141689312169283092e-03,-5.210309270362403246e-03,1.009584784507751465e+00
6.610570019784409723e-01,-6.385562867085259331e-01,6.074299229792644583e-01,-7.829757457596866338e-04,-3.142248201313699307e-02,5.879174854226546301e-03,1.274850487709045410e+00
5.886408357053545259e-01,-2.357321379365457936e-01,5.648832405049217797e-01,2.877707429252742907e-02,1.030136994563848711e-02,3.091819360470939373e-02,8.162356615066528320e-01
6.700203855527209207e-01,-6.239205840022329363e-01,6.022353714902823896e-01,3.256656927707087673e-02,-6.910882091247730862e-03,9.335692524350957004e-04,1.262733459472656250e+00
6.690452911301467687e-01,-7.237620289710772203e-01,6.261973028908360828e-01,-2.376951271809622530e-03,-1.891917030085983956e-02,2.865586197776078328e-03,1.372291684150695801e+00
6.434562413306084139e-01,-5.545642555216163672e-01,5.781521504036367665e-01,4.871143086520731552e-02,-2.265726518766104317e-03,5.648904621641436842e-03,1.169834017753601074e+00
6.718885083895079768e-01,-7.481298023626974381e-01,6.316113910937213305e-01,3.187412069316762978e-03,-2.450806978854864170e-03,-1.390650699790043406e-03,1.400333642959594727e+00
6.852042548580448145e-01,-7.213123101114561342e-01,6.212199337052348724e-01,1.727166448941909113e-02,1.367530533543505648e-03,-1.053246127064756807e-03,1.375969409942626953e+00
6.815199624759973318e-01,-7.500748432259257692e-01,6.274454422110098406e-01,-3.184763375875560455e-03,-6.340457256281364917e-03,6.989550671508952149e-04,1.405392289161682129e+00
5.600083539320916959e-01,-7.280520049954654072e-01,5.692070886314034572e-01,1.493203858262058450e-03,-5.961250500408216829e-02,9.707448390156087807e-04,1.296804904937744141e+00
6.583783920299819403e-01,-7.258752477769844225e-01,4.920487282947602625e-01,8.897322150222730999e-03,2.288728290122436088e-02,2.229643833439333509e-03,1.309734702110290527e+00
5.558361290898821139e-01,-7.229543267624641834e-01,6.091018877437177625e-01,6.968400472487325985e-04,-8.496495952319648229e-03,1.556548650808929797e-03,1.306324362754821777e+00
4.729487696624408710e-01,-7.436617053972158775e-01,6.599430677344744200e-01,1.001916190869599557e-02,-4.751247190090975014e-02,1.790299626831126298e-02,1.323118329048156738e+00
6.391916454868096231e-01,-7.706063384746464351e-01,6.612710013219283978e-01,1.867305006949665763e-03,-3.583631891877143202e-03,-7.702904111394545932e-04,1.420984148979187012e+00
5.235999297874800451e-01,-7.274954284383337022e-01,6.192436201256292794e-01,-1.033356810841275014e-03,-3.213579874746462506e-02,4.916550513463866477e-03,1.302774190902709961e+00
7.923039203207796755e-01,-9.170988349961273212e-01,4.251180897094444244e-01,-3.303018155072679624e-02,2.594265754383264788e-01,1.025147902556125014e-03,1.623082637786865234e+00
6.899397625943205492e-01,-7.428408525871639245e-01,6.165071378234709965e-01,1.922620918889165380e-03,-3.418137281777405140e-03,-8.694265593539817188e-04,1.397529363632202148e+00
6.887662290404638066e-01,-7.413501128719564015e-01,6.220539702837803997e-01,2.949000802664821560e-03,-6.535216895315624965e-04,4.539697976286851365e-04,1.397964596748352051e+00
5.689756210242424839e-01,-7.358404000658902433e-01,6.139349143588832547e-01,-2.705002109047084050e-03,-6.534748398634233207e-03,-1.228375405506101220e-02,1.328093528747558594e+00
5.198708856004705670e-01,-7.281645037907815698e-01,6.278364458703775686e-01,9.151388408044443170e-04,-2.719524591384341397e-02,-6.573054271536185947e-03,1.306271314620971680e+00
5.772625460532290198e-01,-7.343424127449378336e-01,6.090985934504004051e-01,-5.438311480402046628e-03,-1.209835119631105793e-02,-9.909568184105769367e-03,1.328118920326232910e+00
6.444253115399557474e-01,-4.471187226749160359e-01,5.682731298337886372e-01,-6.361339837484035475e-02,-3.022409665162938824e-03,4.921143482229540372e-03,1.061312437057495117e+00
5.834811343050152477e-01,-1.897612112562915287e-01,9.646163087568437877e-01,4.928208297776875968e-02,-1.157973021832558319e-01,-2.298681638487719975e-02,1.042581439018249512e+00
5.837882117812012162e-01,-7.566843970366148309e-01,5.877596192983094436e-01,2.232570212444630678e-02,-1.283411016514884873e-01,2.703106147410859472e-02,1.362096786499023438e+00
5.988980217621336921e-01,-7.287583012286039663e-01,5.638084007080286231e-01,-4.117649310447585309e-03,-1.477743121115560054e-02,-3.853841938774295491e-03,1.310750246047973633e+00
6.038965641144614649e-01,-7.805939114885295238e-01,6.049422317504208335e-01,-3.147212263739870841e-02,-7.987188189864079246e-02,-3.227254185904193662e-02,1.394093751907348633e+00
5.830917186375333960e-01,-3.235596816619835669e-01,5.960506245620253996e-01,5.766736346563703514e-02,2.248465554364448976e-02,3.831513756206852278e-02,9.218629598617553711e-01
6.066107311540362979e-01,-4.220983965830038542e-01,5.797969162737660609e-01,1.748051430852354260e-03,7.130294945688717134e-03,6.754252829200030773e-04,1.015648007392883301e+00
5.415162835192611768e-01,-5.528883020732858755e-01,5.171120523065919627e-01,1.311393819352272005e-01,-3.289626867139262556e-01,7.455982317951226346e-02,1.250811100006103516e+00
5.648599922857787670e-01,-1.872461764709258958e-01,6.290694985032743158e-01,1.181621298535813491e-02,-1.887416110000623244e-03,1.030892121557881042e-01,8.064680099487304688e-01
3.729445462272163447e-01,-4.679658591441856474e-01,7.299931154938538169e-01,-1.561047173655842890e-01,-1.858280067873419872e-01,1.142894019088450640e-02,1.145405530929565430e+00
5.274144721143005921e-01,-7.448485550860368676e-01,6.545239370458093564e-01,-1.508149363326170660e-03,1.649896276093779784e-02,-1.876161204204894808e-02,1.341046690940856934e+00
4.413178163143607891e-01,-1.633039178648785783e-01,6.487989295126795897e-01,-1.248263712814012272e-01,-7.789626292002457819e-02,4.831632204878407409e-03,7.740037441253662109e-01
6.189205686442559307e-01,-1.427573100365003844e-01,5.905227397339848361e-01,1.079696545835252125e-01,-4.018464978371455443e-02,-3.042813846147532017e-02,7.758376002311706543e-01
5.671014775985914191e-01,-2.540634082782523562e-01,8.485390001495540790e-01,-7.682547111482709856e-02,-1.746852250785372040e-01,-1.370579821306490698e-01,1.072488427162170410e+00
5.699736278209737161e-01,-2.291009031074019431e-01,5.843862987666718078e-01,1.881380482033473758e-02,4.714793949535230825e-04,4.012856741262046945e-02,8.100234866142272949e-01
6.443101819751204662e-01,-3.669202961155059173e-01,6.564712704891543238e-01,1.147937429254097530e-01,2.198892287235168150e-02,1.036792219849925062e-01,1.052741289138793945e+00
6.334396713318655170e-01,-7.638988375835212841e-01,6.325751729930181311e-01,-1.516226660006479710e-02,-7.161175927919577640e-03,-9.135058376936341235e-03,1.397297978401184082e+00
6.534127463436054661e-01,-5.692918235691478701e-01,5.783173862014009403e-01,-2.389277328050302181e-03,2.546980211882873563e-03,-1.704748424819872927e-03,1.186959028244018555e+00
6.384296259901336423e-01,-7.666164800217580844e-01,6.425700288592940401e-01,-1.200217999905595773e-02,3.340543769534986152e-03,-4.982877257139363761e-03,1.407312750816345215e+00
6.430036646595065353e-01,-7.362264612104072459e-01,6.387087670937033890e-01,-1.061683279955428702e-02,3.470281803643806423e-03,7.674078021312760560e-03,1.377287745475769043e+00
5.848905289056627321e-01,-3.036971990144066158e-01,5.660455057627487019e-01,-5.028139680921685922e-02,1.761764403246065744e-02,-2.549014247408702694e-02,8.852473497390747070e-01
6.417371646927121365e-01,-7.596660974896159990e-01,6.588359290445220395e-01,-3.552963045422857444e-03,3.794443390290324573e-03,-6.918360437916136647e-03,1.410110116004943848e+00
6.454741138050854588e-01,-7.659611720410900437e-01,6.522230061223817099e-01,8.290478150884972048e-04,-1.242554003403275112e-02,-1.491662097833794170e-03,1.414988517761230469e+00
6.459704938427028864e-01,-7.636986987492386803e-01,6.182222477759120594e-01,-1.391361121991353464e-02,-3.166054332444667892e-03,-1.134948515995882166e-02,1.396359086036682129e+00
9.334168677101217781e-01,-7.997344791564009459e-02,7.927748325999561807e-01,-8.877261147235495503e-03,-2.059161018733739537e-02,1.804442478072879746e-02,9.522080421447753906e-01
6.838869296982776902e-01,-7.222429776110185218e-01,6.138149839665509866e-01,1.551639897330331884e-02,-6.251393096528162253e-03,-1.865709560050616894e-03,1.372745871543884277e+00
6.428553358232380610e-01,-7.486297895722329176e-01,6.434829488808986309e-01,-4.106388838652425162e-03,1.209346000938529841e-02,1.770636772593444860e-03,1.391978144645690918e+00
6.395309455370945528e-01,-7.376141343551257945e-01,6.566524216276120596e-01,8.083712061392458667e-03,1.452346029292564053e-02,-7.809797178866152842e-04,1.386084794998168945e+00
6.405036238939780802e-01,-7.695100412988152838e-01,6.630005522983303257e-01,-6.403955876119460204e-03,-1.100928942791136976e-02,-7.095514457681313886e-04,1.421567320823669434e+00
7.978559621015169911e-01,-8.312190163162785916e-01,4.381128858644081636e-01,3.649443122642548071e-03,-6.070783470744928884e-02,7.693407446955928541e-02,1.492013692855834961e+00
6.041714438110787899e-01,-7.515773220032925250e-01,6.720265009382708765e-01,-1.405435113236729212e-02,-9.674439956291494514e-04,9.180182207105015701e-03,1.391223073005676270e+00
5.413693364957368193e-01,-7.669731592180171198e-01,6.676987474884700235e-01,2.473509744631605459e-02,2.080371244004866060e-01,2.674301208318369955e-02,1.423664569854736328e+00
6.853179341479780362e-01,-7.097264337303172965e-01,6.065646437376936984e-01,-4.597433192778198189e-04,-6.768966365871711792e-03,3.183018537380236795e-03,1.357444286346435547e+00
6.727229473602368559e-01,-7.681026088373597016e-01,6.374524370772458592e-01,8.205422548028017474e-03,-1.415038064075698453e-02,4.127769489283678560e-03,1.423817873001098633e+00
6.080865976558850194e-01,-7.409473514151978524e-01,6.043263163062688736e-01,-1.048018625873952410e-05,5.731945984004366973e-02,1.096424048016787084e-02,1.350944519042968750e+00
6.588730062477388127e-01,-7.597395199916091579e-01,6.530185113109600037e-01,1.041359185236331863e-02,8.212770936810441166e-03,5.923327466959682876e-04,1.415881037712097168e+00
6.721093287474109168e-01,-7.477772114678782334e-01,6.314656132693858837e-01,-2.733288582096782618e-03,-9.410632417910407607e-04,-2.876717214563522754e-03,1.400025010108947754e+00
6.200254995367910915e-01,-7.712400967982584454e-01,6.439959357027233988e-01,-9.492405092790496407e-03,5.445382505286213391e-03,1.305804129235823598e-02,1.403714537620544434e+00
7.006256046567610474e-01,-8.497964549605456774e-01,5.273298617761228435e-01,-3.706422167686509311e-02,-2.181019089900402552e-01,-4.636100583275147569e-02,1.522640109062194824e+00
5.492047577449405971e-01,-2.759385311974470456e-01,5.838202702476964490e-01,-8.574885012830141219e-04,9.205977606407175079e-03,5.826964866547631322e-02,8.491554260253906250e-01
6.652707031620133105e-01,-7.260557224212719207e-01,6.288323385163214763e-01,2.460834931137201483e-03,-1.787348298116329254e-02,-3.150471829200500538e-03,1.373836159706115723e+00
6.417349810120887010e-01,-7.615285994196419050e-01,6.489499032932251055e-01,-7.406574542615004114e-04,-1.136974386769062408e-02,7.444324278337217417e-03,1.407082438468933105e+00
6.722523460102293180e-01,-7.657788092669730595e-01,6.403257382944470555e-01,3.295274826440287245e-03,-1.192349697433867442e-02,-5.683302213557425535e-03,1.422532081604003906e+00
6.482544424125781246e-01,-7.716908224331696653e-01,6.516083908814873649e-01,-4.899451865701753318e-03,1.069392004568510933e-02,-3.969248007181284087e-03,1.421787858009338379e+00
6.414093652388264122e-01,-7.625150895757245584e-01,6.572341625431232792e-01,-3.003391240965150397e-03,8.911325905877032563e-03,4.694447041287270507e-03,1.412020683288574219e+00
7.772730350619354578e-01,-8.719412500848879866e-01,5.416209375393185033e-01,5.415102019446966369e-02,-1.310780390296304720e-01,-3.856554011148901479e-02,1.565759301185607910e+00
5.641263940057230641e-01,-7.305134503850773120e-01,6.144518569795798246e-01,7.370040936156817442e-03,7.930648045674792285e-03,-8.159311082548541608e-03,1.320730686187744141e+00
6.599057561980170572e-01,-7.627277758020206688e-01,5.886340549819477630e-01,-9.223659353021693846e-03,-2.397258954754391894e-02,2.735257529710571900e-03,1.389091134071350098e+00
6.158182960111039383e-01,-7.646344237518897247e-01,6.632154828769835087e-01,1.418401887746984814e-02,7.345265983401677709e-04,-6.667283317274278441e-03,1.405014038085937500e+00
6.463252271459334342e-01,-7.210682673929332820e-01,6.506844571647399933e-01,-5.105405385231551879e-03,2.811348952924723130e-02,7.823819684415254591e-03,1.370539188385009766e+00
6.337456065476487765e-01,-7.375041775819176637e-01,6.737007816023357076e-01,-5.480019874226403978e-04,1.275878865491161980e-02,1.757327116702201916e-02,1.392166137695312500e+00
5.677995176714086822e-01,-7.498222840213788487e-01,6.180691130844829795e-01,-6.885893461630855639e-02,-2.135339118313712703e-01,-1.210885372011429907e-02,1.398694157600402832e+00
6.418741242367884681e-01,-4.669046632132614061e-01,5.764986458368849265e-01,-5.536566380805785920e-02,1.083946571726425098e-02,1.720007842464168699e-03,1.082005023956298828e+00
6.437350376977782895e-01,-7.642870973702089454e-01,6.506293660515521937e-01,1.456820880680200370e-03,1.231681888999702247e-02,1.146091563843152847e-03,1.411646842956542969e+00
6.084661418045866910e-01,-3.605357821313178723e-01,5.454132167667400388e-01,-3.913510874002585943e-04,-3.188639621639594024e-03,8.678185602522477159e-04,9.390820860862731934e-01
6.443657739511858829e-01,-7.316207637844724943e-01,6.520934002108748073e-01,4.586246315131350254e-03,1.906520895807144525e-02,1.158304153705942349e-02,1.380430340766906738e+00
6.234526593594342803e-01,-7.454874803356463797e-01,6.813004366622519292e-01,1.241508044579527070e-02,-3.696591179012232277e-04,5.759195784189929945e-03,1.398962497711181641e+00
5.510315180877588537e-01,-2.542651426266233639e-01,5.490876476196450140e-01,5.288322870972020015e-03,-2.899190794109888798e-03,-1.620819664220823648e-03,8.043991923332214355e-01
6.372651120879931907e-01,-6.148971305952521949e-01,6.294922452205107266e-01,-2.943156613532880647e-02,3.051754041830832820e-02,-3.109796921285361629e-02,1.251611590385437012e+00
6.143356044750616363e-01,-6.074315935042183812e-01,6.678200079705870484e-01,-4.232844634770126582e-03,-1.282262232075406577e-03,3.695508159803156945e-02,1.251030325889587402e+00
6.245133884358813336e-01,-7.486304758377170243e-01,6.753009911217751071e-01,-1.480604821505067479e-03,-1.123003674077004523e-03,1.964189530338931490e-03,1.399236917495727539e+00
6.197596692166111865e-01,-7.349036830953232791e-01,6.809071404702187191e-01,-7.120768975216268393e-03,-3.991387392462155651e-04,5.938959203317065172e-03,1.386342167854309082e+00
6.586329132088748484e-01,-6.520988720918674542e-01,6.179100158217418759e-01,5.174518913381016784e-04,-3.255331963824231734e-02,-4.696335005206760636e-03,1.292108893394470215e+00
6.175499825512642538e-01,-6.881566790127384703e-01,6.756098148326599162e-01,1.316009943087680968e-02,6.372717031000214513e-03,2.101086846710955441e-02,1.336418986320495605e+00
6.391854841766523299e-01,-7.560254044690323250e-01,6.658193658851312424e-01,-6.732581714156408124e-03,2.607171659690093318e-02,1.895143448800587146e-02,1.409870624542236328e+00
5.989104296595635368e-01,-6.081509321821830794e-01,6.653606652960004642e-01,-3.474023922610503749e-03,9.449930317479857123e-03,3.651224733951187462e-02,1.243352651596069336e+00
6.091898479889956697e-01,-6.436359918795996338e-01,6.602121846637489799e-01,9.772596485558742233e-03,1.211490923561827499e-02,3.821639455749645860e-03,1.279401659965515137e+00
6.305709458090331676e-01,-7.547924101156379129e-01,6.845113765520061122e-01,2.164303830985753532e-03,-1.683622894534332094e-03,-4.013312286294051792e-06,1.413113832473754883e+00
6.072796751822064909e-01,-4.686845363799251318e-01,5.998515631975880336e-01,7.673025953811377087e-03,-2.274781971115264617e-02,2.566440578852853538e-02,1.073995709419250488e+00
5.738898021980485264e-01,-7.626394372365129515e-01,6.783982878507227587e-01,6.748482150303615132e-03,3.564341490783781621e-03,-1.424622359945936780e-04,1.391792297363281250e+00
6.296165243179949744e-01,-7.353848042112046679e-01,5.648797287485651797e-01,-1.695558618480714347e-02,-4.914754503619113424e-02,-1.759809036848596075e-02,1.337195396423339844e+00
5.011842146971614564e-01,-7.937461026094401184e-01,8.216527347738985521e-01,7.362688094544794781e-02,-2.873718154486984075e-02,4.546495171044181646e-03,1.487726926803588867e+00
5.883053763601295838e-01,-3.465242547904161530e-01,5.927083256354555019e-01,-2.382733603452095658e-02,-1.885974868414603753e-02,6.072659151554277851e-02,9.443914890289306641e-01
6.350485373209515672e-01,-7.609118295791117426e-01,6.580494963601389857e-01,-7.862211952514075453e-03,7.353927063009850062e-04,9.017472782563403302e-03,1.407754898071289062e+00
5.599887012098558881e-01,-2.534543823694512810e-01,5.479294034290502768e-01,3.300608880345759846e-03,-7.661566222852266017e-03,-1.675354748996529071e-03,8.076154589653015137e-01
8.768903714266873539e-01,-6.080932561203500342e-02,9.362341815048002003e-01,-3.006968260864182826e-02,-6.416166261658234893e-02,-1.364699387394429503e-02,9.767653346061706543e-01
6.080619606981652048e-01,-5.597430291129077418e-01,6.362478936101666482e-01,-5.577933241248676614e-03,3.754868982661888760e-02,-3.504904372171886284e-03,1.183992624282836914e+00
6.396440156528216958e-01,-7.676852081417362417e-01,6.631986403040374123e-01,-8.260354304711501824e-03,-5.754920734441044614e-04,-1.077692940269004210e-02,1.419448375701904297e+00
6.506677273474152923e-01,-7.563586880712975802e-01,6.101510344477502068e-01,-1.558136018621482377e-02,-1.112463587118515257e-02,-1.213609877946033970e-02,1.387767434120178223e+00
4.660794631683394251e-01,-8.164792225292811789e-01,8.098136264603394974e-01,3.890012956559139867e-02,7.887475504962290773e-02,-4.757185718852264406e-02,1.494644403457641602e+00
5.586378931821448512e-01,-3.651750745760455885e-01,5.250688266438646723e-01,1.426096917716136447e-01,2.594643195734823715e-01,-2.593801012809911211e-02,1.043332099914550781e+00
5.513932529742808786e-01,-2.222353193724735387e-02,9.593797393844432086e-01,6.315022752537184474e-03,-3.647014230130241758e-02,-3.938791149531199048e-02,8.592329025268554688e-01
2.922065699285458784e-01,-8.232548479735439795e-01,8.331909546445951387e-01,-4.919910615362044909e-02,1.018980501582162079e-01,9.064839156875623485e-03,1.476151466369628906e+00
6.508277965589754910e-01,-6.720980056477995346e-01,6.373071083071214504e-01,-6.483573839141471007e-03,2.912609961279686438e-02,1.658832676395654432e-02,1.317545175552368164e+00
6.537748948534671811e-01,-7.397004193496299340e-01,6.368649427642105731e-01,9.552346268790951923e-04,1.365556239945006287e-02,-5.773233892916579228e-03,1.385336756706237793e+00
6.493695416919829100e-01,-7.301986097733296210e-01,6.425263951514916805e-01,1.106605873892785828e-02,1.873827095381018146e-02,1.503061727488863185e-03,1.376677870750427246e+00
6.872829644930792403e-01,-7.600771865878543920e-01,5.702640397805329719e-01,-8.264584587419580158e-03,-1.102921857599988400e-03,1.927875831507909477e-02,1.393018245697021484e+00
6.723173613235949864e-01,-7.542409574323444277e-01,6.350703264197354869e-01,3.271946482283755436e-03,4.038408941651498371e-03,7.335471365662900442e-04,1.408333659172058105e+00
6.552835349401003873e-01,-5.688958111567294917e-01,5.793761887826009982e-01,-5.859454929768910270e-05,1.604649355103009850e-02,4.626592027637541245e-03,1.188397884368896484e+00
6.634731891003747828e-01,-7.585602136652754846e-01,6.370579043469067893e-01,-6.993072351496760000e-03,4.360241799244713432e-04,-5.666453617525124033e-03,1.409097909927368164e+00
6.557162516900532090e-01,-7.692499355032647035e-01,6.415187456835156343e-01,-6.262999435559463493e-03,1.017063705561715298e-03,-6.885230698049556522e-03,1.418013453483581543e+00
6.539979413956823473e-01,-7.654922092597780114e-01,6.393900982175650949e-01,3.915797057986978441e-03,2.582100388317042951e-03,-9.227400588077326604e-03,1.412356734275817871e+00
6.089336855474440924e-01,-7.618876450788660826e-01,6.477565998800453029e-01,-4.032867993991482748e-03,1.011899499982586714e-03,-1.466631102774046402e-02,1.390889883041381836e+00
5.833989885565957767e-01,-7.543224329367572700e-01,6.298590160824637518e-01,-1.407647081799062380e-02,-2.035630328624760815e-02,-1.766148283480134182e-02,1.362564206123352051e+00
6.589958287744861476e-01,-7.621649111774246865e-01,6.395886148047553732e-01,7.006983505520409002e-03,4.446666860463561674e-03,-1.875165089352886670e-03,1.411634087562561035e+00
6.713285926059642250e-01,-7.327689377597333964e-01,6.247784640253264410e-01,-5.407106926222258678e-03,2.436854398349839676e-02,-7.289540806512861872e-04,1.382087826728820801e+00
6.434927568370125694e-01,-7.659228455997383334e-01,6.422280835116987996e-01,8.312439549450439599e-03,4.516645924753911155e-03,-8.707677555489614848e-03,1.408959746360778809e+00
6.411851617026174122e-01,-7.644013453989422224e-01,6.536651596975848744e-01,8.302046095401888204e-03,1.637575457002950945e-03,-8.711150567495832414e-03,1.412024617195129395e+00
6.168589261291625991e-01,-7.663207818535321403e-01,6.476037742266238517e-01,-1.217638709570471878e-02,-3.361574637021745235e-03,-1.283385228291446592e-02,1.399153232574462891e+00
6.675143668151609644e-01,-7.550551899798477740e-01,6.374696017883483279e-01,-3.060371211272176501e-03,4.415489046148040990e-03,-1.799951211754742368e-03,1.407821893692016602e+00
6.417151398023031028e-01,-7.776178285399785173e-01,6.504645532143513709e-01,1.464853882515940598e-04,-2.506294042955380628e-03,5.029289546160873843e-04,1.423734784126281738e+00
6.450465864453359677e-01,-7.754643690535044653e-01,6.522200898327996654e-01,9.127826337086960900e-04,-3.865565857517702306e-03,-2.032240603992974386e-03,1.424132227897644043e+00
6.183338018846114004e-01,-5.435972550349051913e-01,6.185437253487549025e-01,4.859701927660396541e-03,-3.413269467763688919e-02,-4.109115302097310699e-03,1.163591146469116211e+00
6.522673209214702172e-01,-7.653254386765551143e-01,6.452472595736755689e-01,-4.919352915796630470e-03,-1.055487709384829616e-02,-2.110747433440741255e-03,1.414244413375854492e+00
6.430229184293101419e-01,-7.689193870262972519e-01,6.404149259657400117e-01,1.003513167392387599e-02,-2.298817014845131509e-03,2.955996359023116155e-03,1.410762071609497070e+00
6.734379407448429777e-01,-7.564819554341427610e-01,6.304205916400529297e-01,6.962392719961129966e-04,-4.151967738006293561e-03,-3.738839945966099601e-03,1.408937573432922363e+00
6.406927774393986752e-01,-7.558515857444860764e-01,6.408120483246159127e-01,-4.104573584372012834e-03,5.311423522321982553e-03,3.199837561473008359e-04,1.396652460098266602e+00
6.284587126124897560e-01,-7.629098402845145843e-01,6.455413839192483128e-01,-6.432045490101222576e-03,-2.379099902793300157e-03,-7.576043585546172500e-03,1.400099992752075195e+00
6.635781661203630222e-01,-6.436252944516399621e-01,6.093963680173308806e-01,2.323189370198469605e-02,1.928204596062436590e-02,1.423967697593714506e-02,1.282276391983032227e+00
6.511610209750183786e-01,-6.862076799054590559e-01,6.367885943261001325e-01,1.024423462376978025e-02,2.528258215818269747e-02,2.135572210205940666e-02,1.331593394279479980e+00
6.353868124061992084e-01,-7.590036749915008985e-01,6.566391371134755461e-01,-3.124314649681619264e-03,4.019256488364869075e-03,-7.643425483047422073e-04,1.405165433883666992e+00
6.677897865202251371e-01,-7.910193455994427580e-01,6.865717401295965416e-01,1.253243466862710431e-01,-5.551127770455868693e-02,4.390868578931779453e-02,1.489302873611450195e+00
6.065988541104929688e-01,-7.597921306229412641e-01,6.969396415074348150e-01,2.915290622175293472e-02,-6.298365531898320047e-02,4.099299432866901349e-02,1.420604944229125977e+00
4.139839501063667382e-01,-7.518182238429093056e-01,7.515094486712465827e-01,2.481980577357183887e-02,-3.461093967087017914e-02,1.750302800511772602e-02,1.368527293205261230e+00
5.264958651485465158e-01,-7.564344784556769063e-01,7.069600535973337152e-01,-5.866123853611557304e-03,-1.670751851783995046e-01,2.236167474568058131e-02,1.412567257881164551e+00
5.218142298209169638e-01,-8.929003401318911237e-01,7.223385220048772482e-01,3.371502883003171108e-02,-1.777583989517855234e-01,3.355023618638634797e-02,1.557848811149597168e+00
6.350050043545943934e-01,-7.642835547652341299e-01,6.711675015543281386e-01,8.932918271669735297e-04,-3.492585653946101570e-03,2.413033376513913121e-03,1.417735695838928223e+00
4.803043746400198488e-01,-7.525323589314251160e-01,6.794075004355586422e-01,1.878804236331372071e-02,-4.405226423165328059e-02,6.464531487373099267e-03,1.346104145050048828e+00
5.720554728838724845e-01,-4.202572286037664639e-01,5.731067874681277097e-01,-1.356989937504212984e-01,1.855003849161340201e-01,1.860296607745937081e-01,1.117149829864501953e+00
5.970853823716384401e-01,-2.501941655577372137e-01,6.191239330533149232e-01,1.008060363013705552e-01,-4.822141976512366035e-03,1.269430185660146496e-02,8.764016628265380859e-01
8.733039967499431899e-01,-3.449825359190883400e-02,9.021813666642728435e-01,3.802805122704195490e-02,-2.414233537101558719e-02,-4.136030288647091907e-02,9.286402463912963867e-01
6.530105424775727307e-01,-6.192646412805370426e-01,6.328545252197591564e-01,4.270272332839524648e-02,6.947117552937549095e-03,6.982385183489292144e-03,1.264598011970520020e+00
6.053540682646023630e-01,-1.188511411908605986e-01,6.037344791004235489e-01,-1.025248847224452947e-01,2.621778657885416239e-02,8.167091436093505685e-02,7.595455646514892578e-01
6.187623524835543787e-01,-6.607752283013186290e-01,6.555189632712747905e-01,7.478671824390985268e-03,-3.051010172731669773e-02,-5.205612347704832894e-03,1.299477100372314453e+00
6.414156311673258060e-01,-7.181815874360699681e-01,6.479634884992022670e-01,3.624355980070112851e-03,-2.731148920278906461e-02,-1.643875519850022558e-03,1.363721132278442383e+00
6.135782663444033780e-01,-8.036436586071677990e-01,6.181252539742143615e-01,3.568820073694480011e-02,9.878811855306431078e-02,-9.472080183112855517e-03,1.431205868721008301e+00
6.398201890031010031e-01,-6.026380278359479981e-01,6.192795919124980397e-01,1.453309564730561991e-02,-2.736310028752476572e-02,9.902283422473076926e-03,1.233603477478027344e+00
6.135144289135086026e-01,-5.638066730564119666e-01,6.023233724929751842e-01,-5.382861586433890233e-03,3.540727580367526717e-02,-1.520232277014376332e-03,1.173409461975097656e+00
6.159229406362891623e-01,-6.413567191665313638e-01,6.595913509107186323e-01,2.681017507313016197e-03,-2.370994232692035658e-02,3.484770874772988303e-02,1.281761884689331055e+00
6.533848784375522190e-01,-6.543340215106974167e-01,6.230452805014368156e-01,-5.957608741391614421e-03,2.465018624514628970e-02,-3.406726705445824264e-03,1.293575525283813477e+00
6.582774632585477459e-01,-7.492359874626043359e-01,6.280077026729914413e-01,1.426459127815625852e-03,1.829792110483697762e-02,3.696576444260342431e-02,1.394458770751953125e+00
6.279309169921296618e-01,-4.787788418631387932e-01,5.918104295537144344e-01,-3.777036399670824496e-02,-2.963260994665165016e-02,5.023902591968263526e-02,1.095729112625122070e+00
6.324730632507200578e-01,-4.999047110710195252e-01,5.949501946562378851e-01,-2.019744190379163529e-02,-3.349324060787514656e-02,3.429423895627433522e-02,1.117727518081665039e+00
6.123221009709569618e-01,-5.783755855856870243e-01,6.706179616310194991e-01,-6.986639007809422597e-02,-1.798442599170833184e-02,1.218570807976003811e-01,1.245284676551818848e+00
6.416335756423527936e-01,-7.705181912744348827e-01,6.440265986504563056e-01,-6.661106267074445864e-03,1.620668810626595168e-03,2.123749274717956145e-03,1.413404464721679688e+00
6.338696735703035490e-01,-5.107736074037007024e-01,5.951223936550233962e-01,-6.143386131261573124e-02,2.773526614751297553e-02,6.255694246538595626e-02,1.136981964111328125e+00
6.697702700592468306e-01,-7.542016689021210363e-01,6.318181158828529709e-01,-2.691282597428890349e-03,1.036538161223592158e-02,-3.463591151024922408e-03,1.405515432357788086e+00
6.294270406809991947e-01,-6.193955707773846076e-01,6.371723839278720103e-01,-6.099123447199630149e-02,-4.254853589032986383e-02,-2.754676585148206104e-03,1.259326815605163574e+00
6.675659831269420419e-01,-7.347828440328473265e-01,6.365226484934789486e-01,-5.979850724085104471e-03,3.029251086319699124e-02,-5.881184788197961998e-03,1.388155698776245117e+00
5.291275054720305793e-01,-6.362518557070483416e-01,6.847103093231690085e-01,2.738932333476070194e-02,3.524286874357877852e-02,1.199234630295706837e-02,1.253010869026184082e+00
6.534440633028065770e-01,-6.168030074724731859e-01,6.085763348194999089e-01,-6.150506074074450595e-03,2.403441788047846334e-02,1.762919863154913461e-02,1.249530434608459473e+00
6.571982814694710129e-01,-7.510568028024997567e-01,6.434004478850632314e-01,-5.634770641675963983e-03,2.418242599263428771e-02,-4.537402149951135118e-03,1.402088880538940430e+00
6.583435627221196906e-01,-7.726758402266594716e-01,6.422074138637359209e-01,8.087988528000448867e-04,7.258512401705984399e-03,-1.750569930988997262e-03,1.423079371452331543e+00
6.739715692671410796e-01,-7.058928553131467165e-01,6.263802303095515889e-01,-2.214170615041256493e-02,4.209779907613839418e-03,-7.356659816885009057e-03,1.357316255569458008e+00
6.771753085458062094e-01,-6.546071735686975757e-01,6.175376063728050813e-01,-4.114864661469446599e-02,1.669445209146899409e-02,-2.069432184711096287e-02,1.305747747421264648e+00
6.707133551071242650e-01,-7.411616295619828376e-01,6.285718004249603030e-01,-2.579397300048241227e-03,1.396378813869770565e-02,2.153890116116577609e-03,1.391505360603332520e+00
6.597299811565636718e-01,-7.677890617595634071e-01,6.408697701297424443e-01,1.721558934638961263e-03,-2.927391707782375785e-03,-5.452873886411534025e-03,1.418226599693298340e+00
6.438360366474958907e-01,-7.693098985046502580e-01,6.362869304618572475e-01,8.135863586829656172e-03,-7.051680506668269247e-03,-9.293098248456888380e-03,1.409601807594299316e+00
6.470075889726125684e-01,-4.951445492920667490e-01,6.343928520794379633e-01,6.333951859544291463e-02,4.389719473878993597e-03,9.157375679413154446e-02,1.152177691459655762e+00
5.876176958214959223e-01,-2.079011406940617368e-01,6.888626910747925880e-01,9.100867120391797904e-02,1.483821174910666431e-02,-3.586724319421669138e-02,8.677619099617004395e-01
6.270570678368626583e-01,-7.721199149021069630e-01,6.426081614908847328e-01,-8.119619507352186750e-04,-7.151032814098369321e-03,-6.752369386809910744e-04,1.407072663307189941e+00
6.541812945648738387e-01,-7.667012017246883637e-01,6.418503724513888731e-01,1.287763560222536042e-03,-2.267326097959162547e-03,-5.113674120396211574e-03,1.414792299270629883e+00
5.983819539725141468e-01,-3.935582446670550238e-01,6.290326623119575356e-01,2.364457959018012936e-02,-2.123605329004482276e-02,1.233736017358803699e-01,1.031494855880737305e+00
5.828918078384947021e-01,-3.271951898323079977e-01,6.342457193434164475e-01,6.195500629113488006e-02,2.764038337862881681e-02,8.690120012810104155e-02,9.560830593109130859e-01
6.608973040216457040e-01,-7.612406728050364890e-01,6.382453082419433654e-01,-7.609720849223169589e-03,3.083342256693180909e-04,-6.459414889490108650e-04,1.411010503768920898e+00
5.887040457898962131e-01,-1.364479723287974067e-01,6.041642646312891385e-01,7.299707963241831854e-02,-2.155091689222525184e-02,-2.353277402080571068e-02,7.458792924880981445e-01
6.195210120315826074e-01,-7.307083525342548125e-01,6.846036077862294178e-01,1.284843244009151132e-03,-6.296441121761670902e-03,2.889910440898178431e-02,1.384868502616882324e+00
6.343821703576116855e-01,-7.676615912143972542e-01,6.135720279512756337e-01,1.469921937700820018e-02,4.309714685730524526e-03,-7.411052731080481314e-03,1.392067432403564453e+00
6.431742339812133169e-01,-7.697385262614667711e-01,6.404454301630644331e-01,1.157064607187810457e-02,-3.843145502771375382e-03,3.312550625998012584e-03,1.411719918251037598e+00
6.505419845642679277e-01,-7.135811434902221695e-01,6.413250725558103937e-01,-3.758530103625455816e-03,-2.398974372188384524e-02,3.705115808037932282e-03,1.360203623771667480e+00
6.214591031587322068e-01,-7.154861667958092308e-01,6.779997133067119375e-01,3.848391929413835007e-03,-1.822291141773726975e-02,1.759066366838114501e-02,1.366813898086547852e+00
6.781213171996526290e-01,-7.474141649485841477e-01,5.995891931940698916e-01,-3.371425179511701020e-03,2.358391769984373616e-03,-1.030873690059597343e-02,1.388069868087768555e+00
9.980890106463433664e-01,-4.261022741922481094e-01,1.978109896625511177e-01,-9.981782191314793329e-02,1.246053831312053939e-01,1.638252719206175212e-01,1.298461914062500000e+00
6.238409344591213657e-01,-7.346038698449944837e-01,6.733840077811912295e-01,-4.529701971432101119e-03,-1.573805797286850772e-02,1.521531747662560087e-02,1.384423136711120605e+00
6.324374339491590780e-01,-6.124292066631421561e-01,6.547794469827828978e-01,2.278405029008827298e-02,9.313701904703366660e-03,5.064813886521490893e-02,1.259967565536499023e+00
6.286970272548332295e-01,-7.482871822030872089e-01,6.784078922528036237e-01,4.151824326177491406e-03,-4.334526960334853310e-03,-4.601866244905913721e-03,1.402561664581298828e+00
6.305707639251638685e-01,-7.396001559414213666e-01,6.678190459548893898e-01,2.481087757309441595e-03,-1.463192954833376913e-02,6.684111616625090790e-03,1.389455676078796387e+00
6.016392222801242307e-01,-5.991210915209727039e-01,6.544826587350929259e-01,2.516688790287326030e-03,-1.877963529365184528e-02,-2.030433071491818215e-04,1.228473544120788574e+00
6.017030156233913463e-01,-6.766950037818454389e-01,6.792181815827413871e-01,1.745395555911510518e-04,-4.634604681914418663e-03,-3.446272399765445364e-03,1.318903088569641113e+00
6.256794321453960084e-01,-6.604930739288623620e-01,6.503154068471463933e-01,6.132992083336028487e-03,-3.174420269497167657e-02,-6.089143153023231225e-03,1.299915313720703125e+00
6.313981932492025440e-01,-7.568714048641761449e-01,6.712879030518882351e-01,2.952713089866890444e-03,-2.634670168614388058e-03,7.787915830648795045e-04,1.408655405044555664e+00
6.345483335367979594e-01,-6.976617270645165680e-01,6.200760284977129277e-01,1.971227271413021707e-03,4.726545891448047723e-03,-2.521534617112481877e-02,1.325782418251037598e+00
6.332312578510679302e-01,-7.477301885722272834e-01,6.816223549295510331e-01,3.290670895015401082e-03,-1.032499561931702475e-02,-4.406375478358208649e-03,1.405927777290344238e+00
6.262863154135525079e-01,-7.478288197290825501e-01,5.374363822026406723e-01,-1.642246150167980812e-02,1.865110633957506869e-01,-1.142347023285408825e-02,1.370969176292419434e+00
6.766673823889407524e-01,-7.091825334364350031e-01,6.224317809024109138e-01,4.799377671909843372e-03,-1.654361321049089770e-02,3.966051642444085729e-03,1.359888434410095215e+00
6.473634299138762982e-01,-7.225104237355501891e-01,6.437565265711555629e-01,-1.302776895562520083e-02,1.952430252153381993e-02,-1.430040188314422693e-03,1.368680119514465332e+00
6.591069490495536920e-01,-6.727461454136447472e-01,6.310188353746278844e-01,-2.538602857528397816e-02,2.158424172136043373e-02,-2.370793314029743561e-03,1.319302916526794434e+00
6.507015772805284648e-01,-7.786164563476719591e-01,6.419881486562903916e-01,-9.322133867146196236e-04,-2.505212180766138753e-03,-1.063885307558043360e-03,1.424990057945251465e+00
6.657611503604199399e-01,-7.657072354606480058e-01,6.384037478188897552e-01,-6.297454047919616915e-04,9.965961967644740988e-03,-3.944879416614687287e-03,1.418109536170959473e+00
1.162765705475843570e+00,-9.584975041775616322e-01,1.613936526419642581e-01,8.941456415610127273e-02,-5.116494113487737860e-02,2.666210793011842273e-01,1.903530597686767578e+00
6.376680876331216608e-01,-7.514989093655344288e-01,6.815855773439192244e-01,-1.116577332547475558e-03,-8.611058192722646429e-03,8.474672310372952100e-03,1.411794662475585938e+00
6.276979051509860019e-01,-7.504554913843716202e-01,6.739765737922744915e-01,-2.468831692898533579e-03,1.162587055436414135e-02,-3.190781897913947795e-03,1.402027845382690430e+00
6.301589189337308827e-01,-7.493542518363166538e-01,5.726970195719528478e-01,-1.888672303365492716e-02,-1.882967979305043282e-02,-8.968986438228370231e-03,1.352576851844787598e+00
6.284105253570190230e-01,-7.547463848356921190e-01,6.779417549395502229e-01,1.457868303959341388e-03,-6.751457536033469119e-03,1.766028300701122421e-03,1.408629894256591797e+00
6.185701927384481547e-01,-7.215251144617141899e-01,6.809261848053187460e-01,1.306303440029523647e-03,-5.392834876339455859e-03,1.025427008448501730e-02,1.372484803199768066e+00
6.143782263750362516e-01,-7.048695052705314934e-01,6.612679339213801688e-01,-5.414634693090011365e-03,2.423897515497536962e-03,9.600548606943913946e-03,1.343448758125305176e+00
6.286870603162293403e-01,-7.637021551583366152e-01,6.293731126885826477e-01,-1.025382112189294689e-02,2.156329488496745456e-03,-9.578477192927401657e-03,1.392949461936950684e+00
6.477641759151571144e-01,-7.556947154937949662e-01,6.560976513172929181e-01,-6.304700929505729218e-03,2.691605693482938128e-02,-6.578988837262087809e-03,1.408504366874694824e+00
6.699993907777381796e-01,-7.497209685993693196e-01,6.384558665283041057e-01,-2.607456754410998698e-03,1.827623017299099401e-02,-3.907850685139224907e-03,1.404594659805297852e+00
6.382667856118752203e-01,-7.567755780575964319e-01,6.544350765933810710e-01,8.253327701964302196e-03,2.278689239310260277e-04,1.092830881656269015e-02,1.403396844863891602e+00
6.741565005059713123e-01,-7.556178188208394486e-01,6.341576972271097956e-01,2.014352509476666653e-03,1.581506509521100196e-02,-3.963479660910139771e-03,1.410487413406372070e+00
5.688445690683519018e-01,-3.965217428451758286e-01,6.162128413605620914e-01,2.595745006816070621e-02,1.323096598784640476e-01,-9.368160804191463797e-02,1.029937505722045898e+00
4.953739478202999758e-01,-3.643357601266230539e-01,7.045869736910657100e-01,5.857108196864250355e-02,3.808225573553852827e-02,4.008997155676920221e-02,9.910587668418884277e-01
6.501392079188030859e-01,-7.782386820596988164e-01,6.471521291990791624e-01,-3.570143882222850560e-04,4.755954123054861177e-03,-6.941589224889410875e-04,1.426911115646362305e+00
6.440052108027960465e-01,-7.713600592288072377e-01,6.347184424230332134e-01,-9.169627067581911494e-04,-7.530595364073648570e-04,-1.059628856093283202e-02,1.410865664482116699e+00
5.967972720200783732e-01,-1.729241159549151918e-01,6.091104171446620752e-01,2.366038533848817578e-03,7.538601435318532940e-02,-1.424779302424049321e-01,8.246612548828125000e-01
4.928592242683237923e-01,1.741813752979826102e-03,9.453006317973777772e-01,-1.296320278457421815e-02,-7.334886245173816155e-02,-1.013763096991495277e-01,8.459179401397705078e-01
6.537744297835814677e-01,-7.660045166160160957e-01,6.476199966997759905e-01,-3.010519118272517343e-03,3.717528908349066835e-05,-7.001906152191977352e-03,1.416773319244384766e+00
6.594307287107286086e-01,-7.728091935506760102e-01,6.444313101932770405e-01,1.129266388410413288e-03,-7.518678868443218373e-03,-3.357242994421017184e-03,1.424872159957885742e+00
5.910100300947185303e-01,-3.631597886958848331e-01,6.348008168861676292e-01,1.613900370919401500e-02,-1.883518743348425867e-02,-3.430559439423567364e-02,9.795498251914978027e-01
6.751154314994769479e-01,-6.794398549223509276e-01,6.083403510174705264e-01,1.899126294902603318e-02,1.034371821826396247e-02,3.055361953585273779e-02,1.324021100997924805e+00
6.447773517265892318e-01,-7.713744927520743699e-01,6.611671348019374506e-01,3.106863810440675579e-03,-9.246702806606837619e-03,-1.294244582506252818e-03,1.424519419670104980e+00
6.287008642720819385e-01,-6.918763307211154290e-01,6.519625533646737914e-01,5.997830177569796195e-02,1.591327327765753360e-03,-4.110565170555972175e-02,1.338302254676818848e+00
6.346472386076278394e-01,-7.719360982351449740e-01,6.422756733360175385e-01,5.009852429752524768e-03,-6.106250907259394047e-03,2.309374604496386429e-03,1.410485029220581055e+00
6.520345277237089565e-01,-7.739904492896422239e-01,6.448017386074096358e-01,1.131638736867185673e-03,-2.218778035699114914e-03,-3.364286578882153770e-03,1.422440886497497559e+00
6.099830596761905976e-01,-7.595681747504685610e-01,6.475167608962604238e-01,-1.351428019514533223e-02,-5.481245839531892830e-04,-1.791768047687811605e-03,1.388899564743041992e+00
6.707501276734935125e-01,-7.496913375257597822e-01,6.352151909600151081e-01,-5.450610415884598291e-03,1.972760524141886575e-04,-5.367331593114971558e-03,1.403074145317077637e+00
6.609911138071509207e-01,-7.619579646194289957e-01,6.379196923468684055e-01,7.285860314125469465e-03,-1.536884708307555917e-03,-2.588041659062710782e-03,1.411620855331420898e+00
6.212392389979786156e-01,-4.763725550729827063e-01,6.195724968018992973e-01,1.811825372976738624e-01,1.139046710085923333e-03,-2.704997336312897453e-03,1.140803337097167969e+00
6.753502281497301141e-01,-7.537254798886124929e-01,6.359101442240702173e-01,3.396900011134097882e-04,1.040819560680364929e-02,-1.600561835116606204e-03,1.409887552261352539e+00
6.378996315045347698e-01,-4.992597600662262991e-01,6.138406817717023678e-01,-5.489895552054727818e-02,-1.794520009402273894e-02,4.396926043092740100e-03,1.129786372184753418e+00
6.554063409860544365e-01,-7.738166797242449491e-01,6.391580383931702025e-01,-2.820700594424099990e-03,9.249255559840290075e-03,-3.898465586354897192e-03,1.421283245086669922e+00
6.571836544720499607e-01,-7.605814498120038181e-01,6.094497997547546619e-01,8.010623058913245512e-03,-6.847767688871635779e-04,-1.012500141762369063e-02,1.394690871238708496e+00
6.084494847613395319e-01,-1.953233781419334569e-01,5.363819162410060626e-01,1.227546150833223881e-01,1.872453118178266374e-01,-8.103843145167122231e-02,8.737326860427856445e-01
6.380667303351881259e-01,-7.676730560244242607e-01,6.738924228340206213e-01,4.359736991371867751e-03,-1.144146614166208567e-02,-6.228042619320618917e-04,1.424149036407470703e+00
6.220269034824830179e-01,-7.625334944067775345e-01,6.526923102929755860e-01,-8.706867568921248732e-03,-2.181313760855879864e-03,-1.027977481067703786e-02,1.400344491004943848e+00
6.368117975379719020e-01,-7.513090523523389130e-01,6.637465511255785655e-01,1.994007335300787467e-03,-4.633832746335586270e-03,-1.312737456212548511e-05,1.401809573173522949e+00
5.176301086668877449e-01,-7.487199016489168857e-01,6.746138933421466088e-01,-4.449568618339699855e-03,1.317650727949472647e-02,-1.736101498931058931e-02,1.352245211601257324e+00
5.089304923652988588e-01,-7.643423492807682740e-01,6.818833475254724164e-01,7.823290072017770325e-03,9.131058844584565015e-02,-8.798660083059297102e-03,1.377236843109130859e+00
6.252043103581137462e-01,-7.209381581364697755e-01,6.742247108063792460e-01,4.671328764179848506e-03,-2.339189501761922835e-02,-3.161553347949386857e-03,1.371943116188049316e+00
6.281327237328504509e-01,-7.532746710100156617e-01,6.859234752768805787e-01,4.201475563112540626e-03,-1.094243274152201240e-02,-1.428948478550431467e-03,1.411338686943054199e+00
6.353021002682222029e-01,-4.648391242243445909e-01,5.727844339723464628e-01,5.430292430804404408e-02,1.738551758580607039e-03,-2.638561760031628983e-03,1.074391603469848633e+00
6.440921034029591929e-01,-7.744918610117804691e-01,6.464126555289091414e-01,-2.293365966376453152e-03,-2.494380975083245952e-03,1.613227695819500606e-03,1.419760584831237793e+00
6.345598180786184983e-01,-7.608212720588325428e-01,6.428514155937821162e-01,-4.118200624466928608e-04,-2.435058438250404210e-03,4.181159921303929244e-03,1.399570584297180176e+00
5.688654220185835886e-01,-7.265147392639197399e-01,5.918231813319532186e-01,-1.135223174525878731e-04,1.596187644605058520e-02,1.821143215529584958e-03,1.307306408882141113e+00
5.652842397685948761e-01,-7.244529293777289825e-01,5.936999739128190345e-01,-1.444144968464789120e-03,1.604529913708929723e-02,-9.671210622748646125e-05,1.304475665092468262e+00
5.999580170626681586e-01,-7.293005703797954542e-01,5.849415874097041446e-01,-4.954670447695916358e-03,2.466335511927679122e-02,4.196201726881334734e-03,1.322552204132080078e+00
6.677550248825449009e-01,-7.568191060088136357e-01,6.060545116588225145e-01,1.609954960599099469e-02,6.038284684044387639e-03,-1.833041386752722610e-03,1.395069360733032227e+00
6.215362931335262076e-01,-7.480542283974442874e-01,6.016676234068499829e-01,9.654768748559845390e-03,2.348291921475636687e-02,-1.767585625575661401e-02,1.360820412635803223e+00
6.428604685867249646e-01,-7.618459240108516051e-01,6.607632520695732037e-01,-3.680732872516648702e-03,1.501539112732131268e-02,1.508601610678159772e-03,1.413998842239379883e+00
6.160124404132965026e-01,-7.147526374344470579e-01,6.723565596395408850e-01,4.459940799135873163e-04,2.390325467554585415e-02,-4.680923581255490816e-03,1.360467433929443359e+00
6.171678411501422268e-01,-7.291642637920483505e-01,5.615349343655459124e-01,-6.720342530460153910e-03,6.338641171031110522e-02,3.511424458874019914e-03,1.324020743370056152e+00
6.589997236138520620e-01,-7.637157369724535405e-01,6.427035135394375542e-01,-2.199114948650329141e-03,-1.783306949663232208e-02,-4.497053173941912077e-03,1.415001511573791504e+00
6.481248412152883498e-01,-7.666975009119226803e-01,6.189094912273842564e-01,-9.933201383598825457e-03,2.098041898176685946e-03,-5.805495625882520000e-05,1.400553584098815918e+00
6.438829340197790296e-01,-7.754010678254782407e-01,6.473588992322627522e-01,-3.205911583530259359e-03,2.356881633984474200e-03,-5.378457181182639754e-03,1.421072363853454590e+00
4.989265952480087529e-01,-8.515598327418176794e-01,7.208142796853915790e-01,4.964617006937446092e-02,7.102525224937930592e-02,1.878092735357755417e-03,1.481635093688964844e+00
5.446202723928283973e-01,-7.244588933512732254e-01,6.170372620028206079e-01,-2.896702049355558833e-03,5.729438840211713985e-02,3.875585607165358756e-03,1.310582756996154785e+00
6.487140120516379227e-01,-7.614435971618209731e-01,6.410550061074160588e-01,1.249214682885539142e-03,1.544870693990280791e-02,4.497867706599400529e-03,1.406621575355529785e+00
6.246549633468858609e-01,-7.125086330603411788e-01,6.770406716673280645e-01,-1.558823554114587961e-03,1.403008812335746619e-02,-3.311221605603728666e-03,1.364342212677001953e+00
6.404654378729515152e-01,-7.544461713844631268e-01,6.707203782315918072e-01,-6.290970188686932293e-03,2.140150625099683165e-02,-6.564663884146221609e-03,1.410857439041137695e+00
6.469205676468469113e-01,-7.683317965371472269e-01,6.571859686662282485e-01,-4.678888820579898272e-03,1.561909271873113646e-02,-5.309612240908164957e-03,1.420723319053649902e+00
6.289641870245722410e-01,-7.305568059410570969e-01,5.523545213028437928e-01,-8.821200571316974159e-03,5.181424190524727691e-02,4.193956371980851923e-03,1.326029539108276367e+00
6.134343545992587687e-01,-7.293388727054445075e-01,5.087649708148662686e-01,1.054953527828949786e-03,3.916244420216571931e-02,-1.334669695497721180e-03,1.295398831367492676e+00
6.239254134328449108e-01,-7.159999795894380625e-01,7.930949323448506227e-01,-1.113665465972377699e-01,3.212755812398463418e-01,1.250133801815128398e-01,1.563470363616943359e+00
6.495945559082880738e-01,-7.763073968277752757e-01,6.491984935926770062e-01,-1.767376707164581206e-03,6.830908589529756728e-03,-2.478248582024048918e-03,1.425762772560119629e+00
6.453013555866002893e-01,-7.776056931053340060e-01,6.532372034831241958e-01,-2.212921421217762998e-03,2.870123974038216869e-03,5.713523796379879442e-04,1.426905632019042969e+00
1.067201554580978318e+00,-5.981956030509032463e-01,1.896382168297663928e-01,9.884867576539155265e-03,-1.749518320804578989e-02,1.962573394305347496e-01,1.482880949974060059e+00
9.072912265182144775e-01,-4.732615020340946721e-02,9.028141044980078078e-01,4.707371239465966972e-02,6.964408647330287694e-02,6.708488934091082559e-03,9.635217189788818359e-01
5.847855221944344706e-01,-7.236014674657955670e-01,5.841938275276421511e-01,4.007278270910787587e-04,2.818128832574011075e-02,-2.952349067143340312e-03,1.309011816978454590e+00
5.838634470367721763e-01,-7.224423651419769055e-01,5.896360049547912929e-01,-2.254481598852822819e-03,2.471476889934816693e-02,-7.511467777761930676e-05,1.309907078742980957e+00
6.435803522606284854e-01,-7.698786454098948129e-01,6.420325538752222894e-01,1.200804030496300037e-02,-4.434470962963520807e-03,-8.656213725981776923e-04,1.412860512733459473e+00
6.410302646580552377e-01,-7.646331427059670505e-01,6.587273886115379007e-01,4.826465818993049862e-03,-4.540164822413676401e-03,-1.162361797352845418e-03,1.414642930030822754e+00
6.379912188281895435e-01,-7.402296658830290754e-01,5.378450757854078557e-01,1.912094512034877639e-02,4.382229563594684796e-02,-2.076220817665522592e-02,1.334035158157348633e+00
6.396064359487150242e-01,-7.587789402704584463e-01,6.056525025434996712e-01,1.567909981839193945e-02,-3.144894472944837881e-03,1.735881459991337546e-04,1.381998896598815918e+00
5.516430772901380619e-01,-7.240196618864211953e-01,6.107883429411946619e-01,-1.394736080992035714e-04,7.695538819981530623e-03,2.513135561283365380e-03,1.306315302848815918e+00
7.503552178149577312e-01,-6.520362396192690424e-01,5.700837916487382362e-01,9.812729527758207865e-03,3.042274301503712641e-02,4.627497390774395342e-02,1.325095534324645996e+00
6.435868897305172531e-01,-7.717486100485175804e-01,6.338648277468372783e-01,1.324165790865038366e-03,2.143703989998593362e-03,-1.241112247609806041e-02,1.410670161247253418e+00
6.387078883717385303e-01,-7.715915249161373612e-01,6.428666587320238657e-01,9.219312335102447433e-04,8.822565754765378330e-04,8.149684229310644179e-04,1.412385821342468262e+00
4.532544807726786584e-01,-7.460678525695653152e-01,6.945008538768745465e-01,2.679766357953472164e-02,5.643983896284041069e-02,-2.184421037510051941e-02,1.341286063194274902e+00
5.806530377353185113e-01,-7.239780900603993707e-01,5.860763591204941614e-01,3.320081933359499615e-04,7.505406267317889235e-03,-3.937024785426036615e-03,1.307433724403381348e+00
5.728716431264075926e-01,-7.328308395215852311e-01,6.087831326029793377e-01,-8.169118206973016369e-03,1.107774546613619210e-02,1.178186528742366374e-02,1.324395418167114258e+00
5.859945415740682728e-01,-7.255308788957121058e-01,5.823372872125159860e-01,6.054938803980558070e-04,2.660552049106531831e-03,2.549194358455389572e-04,1.309709191322326660e+00
6.282618242242121731e-01,-7.319984686836061849e-01,5.416002835082434075e-01,-8.782250409699781171e-03,1.527802942830086726e-02,5.395290909231409415e-03,1.319452524185180664e+00
5.393629238113254454e-01,-7.255041778892205029e-01,6.174623301001409548e-01,1.603611610808930357e-03,1.574338275260792411e-02,-3.413837916758822796e-03,1.305970907211303711e+00
5.203679930787592500e-01,-7.334242807830000377e-01,6.209004005211935517e-01,-1.743214324756800319e-03,2.528579263151393974e-02,1.960879146666682279e-03,1.307703137397766113e+00
6.086533610015734119e-01,-7.605149488245039890e-01,6.365948694253605877e-01,-1.384731563864840609e-03,1.177586284053324479e-03,-1.678477967219731484e-02,1.383659720420837402e+00
6.184175352842565809e-01,-6.750752918257454382e-01,6.721933405976099341e-01,4.748062544508021079e-03,-1.168932509319108373e-02,-2.277701596242198007e-03,1.321388363838195801e+00
8.533146896746408583e-01,-8.446760237545494210e-01,3.475344861108515260e-01,3.081850713907877820e-02,1.243620038932160554e-01,2.402485047077615454e-03,1.526250481605529785e+00
5.805309875225457272e-01,-7.245527538193293760e-01,5.945201716388699431e-01,8.343343337401694501e-04,4.009662728538577331e-03,4.903629394150888637e-03,1.312180876731872559e+00
5.344528423157759445e-01,-7.370557583267228763e-01,6.183498067909267704e-01,-6.610474767085997884e-03,2.615047337192372146e-02,1.284633695516731143e-02,1.316482543945312500e+00
5.610097048915387852e-01,-1.115360527008648628e+00,5.938464525492239687e-01,8.615738160240547783e-02,4.618884430801227237e-01,-6.592172110553254361e-02,1.881932854652404785e+00
6.462665882571652087e-01,-8.490616473105925266e-01,6.667989189331974265e-01,-2.280444531731209284e-02,-2.186467961191986276e-01,-1.605759732475357457e-02,1.553345918655395508e+00
5.801166948761793396e-01,-7.374892049552662643e-01,5.875012107734464140e-01,1.087027556255005904e-02,1.733472459704371235e-02,-6.550745624833922628e-03,1.321837544441223145e+00
5.229209072393425917e-01,-7.620750121011408140e-01,6.233041717015581629e-01,-3.082938663423901576e-02,1.217802094312109007e-01,2.724173346317632777e-02,1.356411576271057129e+00
9.992548989917177105e-01,-6.267956905737908091e-01,2.648597805384463322e-01,3.930565893103642183e-02,2.061481758851043539e-02,-8.020180409477625783e-02,1.419302582740783691e+00
5.903596044651331365e-01,-7.328133052869473252e-01,5.885391395365137113e-01,-6.697013170127445909e-03,9.029046730404265055e-04,3.769073694760704651e-03,1.322331547737121582e+00
6.605682528677440102e-01,-7.595416953023753637e-01,5.534927918132388491e-01,2.261829999626577964e-02,-2.021385653672654395e-02,3.166260535248766744e-02,1.371818780899047852e+00
6.685124594415015054e-01,-7.587838451841518728e-01,6.479048873191914915e-01,-2.327826987897579566e-03,1.263575226771126297e-02,-2.344254221984151329e-02,1.417861104011535645e+00
5.772631676427213421e-01,-7.335379737922130827e-01,5.947786603260796223e-01,-4.666059000916127596e-03,1.660362618954695779e-02,7.666932782551952492e-03,1.320050954818725586e+00
6.387930624579524208e-01,-7.666165247044685049e-01,6.718694181207500726e-01,-3.024693053052709101e-03,-1.149170855893958884e-02,-1.188905418204916744e-03,1.422386646270751953e+00
6.980015604976841370e-01,-7.689826991925009514e-01,5.132616116353978519e-01,3.121531075853675730e-02,-5.720165187876598972e-02,5.408535607907812709e-02,1.391645073890686035e+00
7.150337918340541332e-01,-7.528577956653138559e-01,4.751093818702967764e-01,1.200775855073938324e-02,3.996752739922398989e-02,-1.780078776693936812e-02,1.366111874580383301e+00
6.833405999190776958e-01,-7.608485846083404835e-01,5.414641654308075536e-01,2.505745495262614447e-02,-8.251526248039608297e-03,2.679379420164774289e-02,1.380274057388305664e+00
6.361785873368491773e-01,-7.064077694818610142e-01,6.540672954466718592e-01,-1.726086992021591765e-03,3.952720593345636357e-03,-1.546129606105497122e-02,1.351905465126037598e+00
6.403629274207023325e-01,-7.564261329576931203e-01,6.597419905888013414e-01,-2.510832032575076051e-03,-1.214003440685507834e-02,-1.322557925249203022e-03,1.406744480133056641e+00
6.424660045838068712e-01,-7.703854882650800207e-01,6.485075670609379284e-01,-6.142925482850109323e-03,-3.305223453338387591e-03,3.246792575996491903e-03,1.415944695472717285e+00
6.506554931777337458e-01,-7.795779375695139901e-01,6.478883464108539103e-01,-9.942419522241611584e-04,-1.290284160847941959e-02,-6.551059180620975343e-03,1.429072737693786621e+00
6.997417278595776668e-01,-7.629586539251471677e-01,5.167755337955453054e-01,1.824106218321675313e-02,-1.742580865916065064e-02,2.021294311538646485e-02,1.381477117538452148e+00
5.906634079880355159e-01,-7.630877025781572787e-01,6.769668686385770240e-01,4.878671217163709113e-03,-1.224902799862595017e-02,-5.064213571087688992e-03,1.399114847183227539e+00
6.664999563573517083e-01,-7.583725129975716905e-01,6.382039143880325893e-01,3.139236446887531864e-03,2.085135528861753115e-03,4.028659446272249596e-03,1.410969614982604980e+00
6.078987709241926440e-01,-7.598633121510944832e-01,6.218849970224935575e-01,-1.059994448907409202e-02,3.098123725610752843e-03,7.160963461826271026e-04,1.374942183494567871e+00
6.438324386497478180e-01,-7.782708688688565468e-01,6.424354700897669801e-01,-1.968128234507300709e-03,3.461275031533329102e-04,2.807807005979576481e-03,1.421417832374572754e+00
6.605325052643543637e-01,-7.667557075074329376e-01,6.396315027677819121e-01,3.189666146706730820e-03,4.541396339838974297e-03,4.624951724128968135e-03,1.417008519172668457e+00
6.382647908438099371e-01,-7.562984438403663745e-01,6.143072490815875142e-01,-8.815336065064823326e-03,2.748007824327695307e-03,1.872483604934391515e-03,1.382836461067199707e+00
7.175727916047205390e-01,-7.179136663409013686e-01,4.799158033986286043e-01,-1.242601390576590498e-01,-2.620938936845662592e-01,-1.020238620576896654e-01,1.435122609138488770e+00
6.448949082399129118e-01,-7.787651052657807993e-01,6.505341170162368680e-01,-1.603587396539159432e-03,-3.241728955611604748e-03,9.739073051864895626e-04,1.426502704620361328e+00
7.021533974969017544e-01,-7.560471846276004548e-01,4.834765089485160705e-01,-2.942462365433043273e-04,-9.685541613395648453e-02,2.929741163169803653e-02,1.373321533203125000e+00
6.409750668565186160e-01,-7.765194710455123328e-01,6.403593726451806134e-01,-5.905935644870831391e-03,-2.848872167660409117e-03,6.590562607129975096e-03,1.417278289794921875e+00
6.565319155929807415e-01,-7.692578531692084720e-01,6.563559402642225038e-01,-8.225646043295317504e-04,-2.297725688846265560e-02,1.182045627111487363e-03,1.426259279251098633e+00
6.265457072224824842e-01,-7.740158352469974634e-01,6.420148516056579657e-01,-7.494067822134291290e-03,9.520780777391012629e-04,1.681661129322933315e-03,1.408423662185668945e+00
6.323185427129149883e-01,-7.599418379524340850e-01,6.046422173625742857e-01,-1.351723331921064059e-02,1.051668943241637968e-02,-3.830835161389317157e-03,1.378965616226196289e+00
6.013507469488730273e-01,-6.768426027671887724e-01,6.787132283936836430e-01,3.411031063107415259e-03,1.030407502508680177e-02,-4.773658099928510846e-03,1.318737745285034180e+00
6.411034260182317812e-01,-7.690093730937096472e-01,6.496700916520583569e-01,1.011110561535563841e-02,-4.118435917435376084e-03,2.507702558641249253e-03,1.414548635482788086e+00
6.223220920864622752e-01,-7.570124959288180300e-01,5.930497097380407201e-01,-2.339542546082244712e-02,3.461591078820057399e-02,1.574823659903568790e-02,1.367123007774353027e+00
5.981321501345506775e-01,-7.537699299025875099e-01,6.094505287327220966e-01,-1.463712015630303821e-02,7.702662070027854919e-03,7.119583576503241487e-03,1.357954859733581543e+00
6.420280523932582195e-01,-7.668945788461015711e-01,6.478954484512196021e-01,-8.736375275834840429e-03,-1.159225270795944361e-02,3.113521261692228821e-03,1.412099599838256836e+00
6.019679086683705771e-01,-7.582509252948577139e-01,5.794026659519340150e-01,-2.512438618904358142e-02,3.797498942327276472e-02,2.819535843141932410e-02,1.352263212203979492e+00
5.027351891189558719e-01,-1.696867904988709208e-01,7.167320896758069271e-01,-1.102745130857930717e-01,-4.620329630854220354e-02,-1.590387943683334304e-02,8.279412388801574707e-01
6.285453555790437852e-01,-7.699185076204944078e-01,6.287134805745016042e-01,-1.410187053189798992e-02,8.526235690430107247e-03,1.365558379195549316e-02,1.399039149284362793e+00
6.444380829774631891e-01,-7.739214118541642984e-01,6.571250358362723532e-01,3.603402491567022671e-03,-2.258710365035259543e-03,-2.006821741624111293e-03,1.424768567085266113e+00
6.004217643991381914e-01,-1.102747091725131190e+00,5.404487308318968175e-01,-2.076313488166324495e-01,-4.952178982988841294e-01,-2.426002057126970257e-01,1.960575461387634277e+00
6.234889517697863592e-01,-7.420589566970942075e-01,6.841899159139652742e-01,-1.836974513682089168e-03,2.100777606939649867e-03,1.094986579958204340e-03,1.396897554397583008e+00
6.396953866577315129e-01,-7.636602460146881821e-01,6.606959352562337129e-01,6.432037347266792403e-03,-6.028889524027749094e-03,-3.962949397205085995e-03,1.414072036743164062e+00
1.121727951201128004e+00,-1.190606513034324632e+00,1.621718607659946854e-01,-1.175133340080384975e-01,3.518899057309370360e-01,3.028549592706549776e-01,2.176440954208374023e+00
6.165947043342264733e-01,-7.092813404333854210e-01,6.790412091721456100e-01,-3.022275843591382127e-03,1.158651025534445517e-02,-2.875783409337410133e-03,1.358343839645385742e+00
6.543091567042932377e-01,-7.587359396975994486e-01,6.652030035672880093e-01,6.921891277696406997e-03,3.989435121072539524e-03,7.973059599743984732e-03,1.418658137321472168e+00
6.428366292547482708e-01,-7.657776849427810895e-01,6.221037375244264922e-01,-1.147254571392950298e-02,-2.557247825131361905e-04,5.156204384499562567e-03,1.398532867431640625e+00
5.520608131009453468e-01,-7.526694022655308070e-01,6.111720907304863948e-01,2.573369440965831909e-02,-7.893986494191428116e-02,2.482044546941861163e-02,1.343677282333374023e+00
5.647532895996572044e-01,-7.423954045747547248e-01,6.273001950369150315e-01,-4.677233294800404399e-04,-1.571247315926804777e-02,1.538035089624919388e-02,1.340059280395507812e+00
5.991072282147982264e-01,-7.537289115698381226e-01,6.254057042088629892e-01,9.094740846159020051e-03,-5.240797960942593890e-03,1.309338491615909782e-02,1.366484403610229492e+00
6.430291924649684798e-01,-7.622281719294407010e-01,6.445514124323384886e-01,-2.587922488942464086e-03,8.854443971481853332e-03,-1.051870638508459101e-03,1.406111001968383789e+00
5.233800041132496972e-01,-7.632842938121368048e-01,6.765391457730107749e-01,1.238705022013532678e-02,-2.865601035013994047e-02,1.392170247551191391e-02,1.370960354804992676e+00
5.884248720381473063e-01,-7.301285710893486991e-01,5.851826423648573972e-01,3.570070758914541727e-03,1.988663688853014450e-02,-8.627949862155830443e-03,1.317484974861145020e+00
5.649405695519782444e-01,-7.381007282283663651e-01,6.204626734655729337e-01,-5.711403488475459396e-04,5.382083949563748471e-02,1.514140779191986037e-02,1.335187554359436035e+00
6.978231991610266416e-01,-6.687565639261056072e-01,4.658085062758309802e-01,3.577972652593468250e-02,1.648031406652268882e-01,-7.382809226537741243e-02,1.306130528450012207e+00
6.333193871102251737e-01,-7.574705482948519419e-01,6.691273859952378000e-01,-1.304339097944155887e-03,-2.595634223863340934e-03,9.006040653508115557e-03,1.409130573272705078e+00
6.365564957021176973e-01,-7.606468246036299785e-01,6.066804287762688208e-01,2.231822174552597002e-02,-1.600770248215310429e-02,1.867222656871800682e-02,1.383703589439392090e+00
5.761760243421111261e-01,-7.570759190298890218e-01,6.265452904039011672e-01,7.456228700770122994e-03,-1.752794892653372280e-02,1.346462718895212116e-02,1.359737157821655273e+00
6.506170297686748594e-01,-7.443893632410353289e-01,5.535451662810548790e-01,1.806655512132717897e-02,1.010465356549487999e-02,2.249475986200216888e-03,1.349574208259582520e+00
5.994699464926606103e-01,-7.415227389319350992e-01,5.879952437675554089e-01,1.035007147602210430e-02,-1.785355281320562953e-02,1.738473115841142162e-03,1.335774064064025879e+00
6.370659086710557251e-01,-7.665113227948185948e-01,6.372152731650697621e-01,7.884763040565687456e-03,2.685203266557748686e-03,1.092507536592875542e-02,1.403853654861450195e+00
5.746331852199582091e-01,-7.346089155230756118e-01,6.117613327775144327e-01,5.176378169195985056e-03,-5.043691113403205029e-02,1.201867352684837797e-02,1.331258177757263184e+00
6.165907108370128897e-01,-7.515436518170236502e-01,6.219652287332826379e-01,8.619773945878371132e-03,-2.675774050322349707e-03,1.302611180914363398e-02,1.371104359626770020e+00
6.285524894353091696e-01,-7.393039523961977277e-01,5.736314286368440207e-01,-8.737124510520310680e-03,1.061825692291149675e-02,-9.496007932063125784e-04,1.341452002525329590e+00
6.200843200563461721e-01,-7.254727450664982813e-01,5.373876180300212191e-01,-2.365764088575513478e-03,1.921156314140472568e-02,1.702748479565771881e-03,1.306607127189636230e+00
6.151611686570847004e-01,-7.577820305398937917e-01,6.388534407212341781e-01,1.350251829871959922e-02,-1.359632431490703439e-02,1.942324515596433043e-02,1.385747432708740234e+00
6.161576000768723693e-01,-7.520924696697011136e-01,6.191662627554332943e-01,5.688536511357200620e-03,-2.540169786408010694e-02,1.347570708975364025e-02,1.370697498321533203e+00
6.419765541561965883e-01,-7.651355836876869709e-01,5.742927228863210498e-01,2.158971525916248552e-02,-7.915516987306990548e-03,2.259645547641627242e-02,1.375654458999633789e+00
6.419966347708413457e-01,-7.597217811233936136e-01,6.586886514033392093e-01,-1.448519868117210951e-02,-2.213511634322462541e-04,6.867245475164349827e-03,1.410411953926086426e+00
7.667866359928832143e-01,-7.315847321851774998e-01,3.618592407830024116e-01,1.663759322789278494e-03,5.205863555191314607e-02,2.456926449646456255e-03,1.345551252365112305e+00
6.702260796321806158e-01,-7.665259610171096805e-01,5.287904542828142374e-01,-1.315134434263782147e-02,8.412404850358154440e-02,2.950643276792216940e-02,1.380367279052734375e+00
7.004317290853570022e-01,-7.389497379135335775e-01,4.645661951683047741e-01,-1.824612841430094112e-02,4.974450070195475526e-02,1.479965787124851335e-02,1.340533614158630371e+00
6.227712308946350417e-01,-7.718085534795675606e-01,6.376008557544100563e-01,-9.640829465665032641e-03,3.217682381687297141e-03,1.335606482712541065e-02,1.402354717254638672e+00
6.927751561624253540e-01,-7.086583531565602279e-01,5.974117878126536940e-01,4.051621510333676401e-03,5.945942849375446780e-03,3.409421866244178971e-03,1.356338739395141602e+00
7.518858335653434422e-01,-7.428784455972652356e-01,3.954218919699077350e-01,-5.628470099081159944e-04,2.712290304464972518e-02,-9.251647624562275157e-03,1.353152632713317871e+00
6.262378844329556937e-01,-7.604117257921955142e-01,6.853302282910529453e-01,-3.846953869784341517e-03,-8.792584447704424738e-03,-5.947181501335949486e-04,1.417217969894409180e+00
7.630372506426845725e-01,-7.535407842452664928e-01,4.013506333325322362e-01,-1.159289392528475328e-02,8.716512604298912170e-03,2.796067970476523099e-02,1.373053789138793945e+00
6.436897288362883884e-01,-7.712532546866470717e-01,6.416125899416333933e-01,-6.411768743727761649e-03,-2.363185151681231663e-03,6.293764218988351627e-05,1.413955092430114746e+00
7.377670780403913220e-01,-7.759108015079723142e-01,4.686772246881504844e-01,1.162521545412026000e-02,1.080420984083220182e-01,-2.598771728508720430e-02,1.412007570266723633e+00
5.785934740248708241e-01,-7.454945200733078536e-01,5.919632416890369120e-01,2.564925108094844725e-02,5.761890033127956695e-02,-2.028157907431174176e-02,1.335761189460754395e+00
6.837489254084954116e-01,-7.603969875199120265e-01,4.781674526937301772e-01,-1.027714277035268568e-02,1.101173907865924673e-01,2.042872696243742611e-02,1.367069125175476074e+00
6.569863532516082572e-01,-7.137478129737857557e-01,6.030677606819856429e-01,-9.303593942344210235e-03,-3.690699059078744043e-02,-1.467294190054089197e-02,1.346440911293029785e+00
6.338562829898366502e-01,-7.717984749140368583e-01,6.435541841662754114e-01,-1.090145248642451423e-02,5.866302819196219645e-04,-1.110507001987093458e-04,1.410655498504638672e+00
1.207780611222927791e-01,-8.345038993932862859e-01,1.069510505912496079e+00,7.827582100244215302e-02,-1.559241807613207242e-01,1.164394536433753652e-01,1.688477635383605957e+00
6.486699408713590964e-01,-7.719017942072756711e-01,6.484778722520168071e-01,-3.247282396417398680e-03,-1.115835359678966215e-02,3.611555696408018292e-03,1.420632123947143555e+00
6.438565818449897282e-01,-7.735695554754671299e-01,6.266650193243518130e-01,-1.081740494039741497e-03,-7.456844922891736789e-03,-8.147693110909368021e-05,1.408969521522521973e+00
6.352100356927135039e-01,-7.638414148222590905e-01,6.723436844051375871e-01,-3.735397601603686682e-03,-7.804322313540413072e-03,2.368365154445245101e-03,1.418068051338195801e+00
6.581835731807574863e-01,-7.540932119088439300e-01,5.897910296365784788e-01,-1.185838313291313374e-02,-1.123507344830412423e-03,-1.586432802831549277e-02,1.379780650138854980e+00
1.043732819688903551e-02,-8.988905856859954469e-01,1.003412757300085945e+00,3.761529311728484953e-02,7.780260369382797914e-02,-1.341686298399480219e-02,1.654920578002929688e+00
4.582852744872045192e-01,-7.429601572787981612e-01,7.109682552064993111e-01,2.381600342267133422e-02,-1.943283872850047264e-02,8.794196398389764538e-03,1.346640348434448242e+00
5.739906522143746193e-01,-5.634754430861040886e-01,6.512595076763683100e-01,-3.924935281499169516e-03,-2.099131464050515636e-02,-4.000424606569555688e-03,1.178603649139404297e+00
5.809469787180162603e-01,-5.271584452311142144e-01,6.634704432084457260e-01,-4.053298332385419853e-03,1.314213905126388436e-02,2.885303961948879406e-02,1.152916908264160156e+00
6.419755923216597937e-01,-7.586549508180686630e-01,6.041140894013385942e-01,1.668193748163155493e-02,2.347939733369725033e-03,4.942491450472992487e-03,1.382423281669616699e+00
4.705396303686538162e-01,-7.474054902539323253e-01,6.765378193806265150e-01,1.393430965469587973e-02,-5.055299127237793816e-02,3.221469962424378173e-04,1.336027622222900391e+00
6.498196864132983475e-01,-7.643183740631963596e-01,6.030468872305385641e-01,1.723357433504766473e-02,2.579800462444342517e-03,4.781145938687491118e-03,1.391693353652954102e+00
5.202134618503151398e-01,-7.588619962952751763e-01,6.493328427096092259e-01,-1.160365718570865838e-02,-1.253036704813580704e-01,-2.910371141790360494e-02,1.366714000701904297e+00
5.482661394792238685e-01,-7.669723600513884687e-01,6.787891668301887504e-01,2.602418403394939420e-02,3.041921864677834056e-02,-1.416293067739484227e-02,1.387071371078491211e+00
6.201810523304503997e-01,-7.583455900209976619e-01,6.246863076906932211e-01,6.533431244374362894e-03,7.306121268271566042e-03,-6.093414426017799285e-03,1.380929470062255859e+00
6.374326294996375264e-01,-7.582252955064835431e-01,6.704917639127903062e-01,1.334214851061433582e-03,-9.031001982215588683e-03,-1.954130026902002430e-03,1.412570238113403320e+00
6.298352847903703200e-01,-7.414373036437678088e-01,6.831189864350929453e-01,9.118612185756403213e-03,-1.888788853078277041e-03,9.815600345931330736e-04,1.398769855499267578e+00
4.377544253185707834e-01,-7.307438828284691379e-01,6.841554141844865544e-01,-2.209982013131628689e-03,-5.375524893645911712e-02,8.264383353855429479e-03,1.312596440315246582e+00
5.943669637845209186e-01,-7.774271036284801095e-01,4.911440248588012647e-01,8.478455194282759344e-03,2.159293628502287066e-01,-8.720330937020241008e-03,1.375206708908081055e+00
4.146219176781321680e-01,-7.491735434246573622e-01,7.334310702882818056e-01,1.252524506489011667e-02,-3.641155492086079609e-02,9.320358292550460361e-03,1.353438735008239746e+00
3.641081588415964188e-01,-7.383480889054598872e-01,7.582209907624531953e-01,-1.582340113928783730e-03,-3.218737153967762832e-02,-4.713775567859877953e-03,1.344771027565002441e+00
5.603819204211785143e-01,-7.609631277039196062e-01,8.415849353491340334e-01,1.308342626839826550e-01,-3.646268756918551457e-01,1.692259444814357694e-02,1.627164483070373535e+00
6.791693606578217413e-01,-7.429112631975325343e-01,6.266031570164701803e-01,-2.778305608161783964e-03,5.249985582088572203e-03,1.065195472884060152e-03,1.396578788757324219e+00
3.856800160109636333e-01,-7.359358626115822810e-01,7.611256472957519392e-01,4.248575412814018307e-03,-3.606853252374465912e-02,-3.662207511458014184e-03,1.350586771965026855e+00
3.692637630915921454e-01,-7.380527714842624043e-01,7.631028858832440420e-01,-6.369560969234007962e-03,1.225142827657910508e-02,-3.428331988395150187e-03,1.348321557044982910e+00
6.778058193396505615e-01,-7.122210196539372484e-01,6.170398446574446583e-01,-2.837513307032018747e-02,-5.414449349080648066e-03,-8.109483943409913353e-03,1.361653923988342285e+00
6.418605447674875508e-01,-7.668607254507942006e-01,6.518423761846399156e-01,6.802781537404641553e-03,-6.952488367752204280e-03,5.161156812466569793e-03,1.413867235183715820e+00
6.688022673105007421e-01,-7.443975678290942755e-01,6.373070507025396791e-01,5.713763078202291172e-03,2.996345163709169136e-03,5.376859714266940191e-03,1.397794127464294434e+00
7.796548495632457110e-01,-8.382432686368487262e-01,4.593531761647809408e-01,-2.201240491281764022e-02,-1.787841191040833999e-01,5.432471547835062385e-03,1.516379117965698242e+00
6.933882417384975572e-01,-7.589625474471692890e-01,5.097301566780780835e-01,6.658420429047465922e-03,1.538743550936398814e-02,6.429537511138026795e-03,1.370140314102172852e+00
5.658217216183653031e-01,-5.950040017759324895e-01,6.763114074644194229e-01,-6.624424061145077480e-02,-5.923452695459244938e-03,-2.521760145128215322e-02,1.226034879684448242e+00
6.069417659464835246e-01,-7.489253638634039145e-01,5.249183622138154925e-01,3.937277117705795942e-03,1.229198838374123554e-01,-3.951409770721656112e-02,1.335645556449890137e+00
6.060849506611876159e-01,-4.548875170592723283e-01,6.414206879721828791e-01,-9.165259815303629376e-02,5.366398430086227571e-03,2.385900075534769726e-04,1.090728521347045898e+00
6.619607598357268863e-01,-7.292749708257882935e-01,6.283842056239936635e-01,-1.675440760602697407e-02,1.216686116522913523e-02,7.063485755631047740e-03,1.375277161598205566e+00
6.375804565284410863e-01,-7.560642315568748550e-01,6.114372668343444062e-01,-7.965813001243805813e-03,-5.581173268548128216e-03,-1.863876411713546056e-03,1.380865216255187988e+00
6.751699448528653003e-01,-6.935668715297963471e-01,6.201814493402096895e-01,1.293786509964339922e-02,1.394914677502609446e-02,-2.418997699121343270e-03,1.342498779296875000e+00
7.127867185270418959e-01,-7.318509049089116925e-01,4.322135459960992909e-01,-3.456138246252425227e-03,1.937532366861409450e-02,-3.103144765625729003e-03,1.327239036560058594e+00
6.780362320505528562e-01,-7.443121042727547376e-01,6.355384269746389148e-01,-3.043469063546135837e-03,2.456518697924432205e-03,4.965231117360226210e-03,1.401625514030456543e+00
6.420306845494165859e-01,-7.654592245182821886e-01,6.584631254949677714e-01,-4.995363720234451133e-03,-6.455382331887488806e-03,1.702489350834887356e-03,1.415851354598999023e+00
6.719917956154257688e-01,-7.716295228943857998e-01,5.534903318672397265e-01,7.504613200411599030e-03,8.649334100830673167e-02,-4.006619199702441542e-02,1.398013591766357422e+00
6.825514571169261080e-01,-7.515605143105197339e-01,4.793833001784937875e-01,-1.425738717092714207e-02,5.912609761624534194e-02,4.595172496747893486e-03,1.348239421844482422e+00
6.460850146616206047e-01,-7.736579277996290527e-01,6.522062728959070466e-01,-6.646276958795369061e-03,-1.210574603387426680e-02,4.890463678075849217e-03,1.423039674758911133e+00
6.345597725134493050e-01,-7.461247984511165665e-01,6.664957535976725467e-01,2.454279200124384695e-03,-1.266487776370892439e-03,5.943618369727031447e-03,1.396972537040710449e+00
6.171143637268177162e-01,-7.230470048058683652e-01,6.816409741105979858e-01,2.385993946351045261e-04,-3.013225856941052425e-03,-1.472647233214393649e-02,1.373808622360229492e+00
1.909460027767846124e-01,-8.647053858492818046e-01,9.067344639028201980e-01,2.331422312699921520e-02,-1.704160658821750607e-01,-1.060886592386492237e-02,1.572090744972229004e+00
6.497979926834088760e-01,-7.566711269130379502e-01,5.970390219430714573e-01,-1.648619277848624790e-02,5.135324765819115726e-03,-5.526645238269868414e-03,1.381202816963195801e+00
3.303063738224373269e-01,-8.156470347615856209e-01,8.550251158665660434e-01,-6.270973416766914554e-02,1.501999299999979588e-02,9.578493790246982859e-03,1.484113097190856934e+00
7.848108002271356742e-01,-9.580622703381960203e-01,3.445559363274610654e-01,3.579170794983364129e-02,3.685100802427977995e-01,-5.983929861100859698e-02,1.698854565620422363e+00
6.427178946878626675e-01,-7.698958631435958155e-01,6.461522880980481442e-01,-1.054349855471572832e-02,-2.574300956773739515e-03,-1.667753036855108275e-03,1.414461970329284668e+00
7.713087267764855426e-01,-7.655157781200740974e-01,5.018057580017912800e-01,-1.718957493147900070e-02,-5.395051027439120434e-02,5.048348902853285608e-02,1.427426695823669434e+00
3.024178060501941934e-01,-6.690818008870496048e-01,7.998117620600515565e-01,8.343010462390544613e-02,-1.466047364654496643e-01,-2.914604518423252050e-02,1.327531337738037109e+00
3.277865943108239088e-01,-5.504708911625542100e-01,7.930470334336562344e-01,3.717937807962538171e-02,1.332842761066312665e-01,-7.596628026258718525e-02,1.212920308113098145e+00
4.495374395755382113e-01,-7.981106009058086537e-01,7.913952822700766054e-01,6.245192215174821815e-02,4.139252346526488963e-02,5.108068162915211166e-03,1.454967260360717773e+00
5.153272948352316529e-01,-7.651675755348136265e-01,7.053644920389536832e-01,-2.021678576220650031e-02,1.881209959678345131e-02,5.674503670787614702e-03,1.386184453964233398e+00
6.171319271970517883e-01,-7.417465030874005327e-01,6.881972931221703726e-01,-8.587491253416356307e-04,-2.815961036870425730e-04,2.154328578834337291e-03,1.395774483680725098e+00
3.091895130607557052e-01,-8.361345227273915270e-01,8.060364698086383006e-01,7.915119734157669007e-02,3.649700405709711826e-02,-7.604934898545785346e-03,1.466505765914916992e+00
3.826283441951343622e-01,-7.691870826907680758e-01,7.424204605768316423e-01,3.785295712645278532e-02,-1.339173276484455395e-02,-3.561835567863296057e-03,1.369458913803100586e+00
4.972003978742842722e-01,-7.636409976172668923e-01,7.136683426566401423e-01,-1.123120679873014158e-02,2.793045947535453127e-02,2.288168136260981811e-03,1.382839679718017578e+00
6.273123582969033496e-01,-7.319168855672087970e-01,6.691758303796537799e-01,-2.259075835077329914e-03,-1.069886689625151530e-02,-7.549671771260365455e-03,1.380828857421875000e+00
5.956773353877603538e-01,-7.588960618358818744e-01,6.800461474213641555e-01,-1.360066361923136305e-02,5.370682496709288517e-02,-1.578954089752043419e-02,1.402222156524658203e+00
5.164202664684777178e-01,-7.360915689865811240e-01,6.906513690676180373e-01,-1.477160836657063700e-02,1.028676822503904464e-02,-9.943648704519985129e-03,1.348568677902221680e+00
5.238253751649309953e-01,-7.584335073431346386e-01,7.080259769465681030e-01,-7.004407532192251894e-03,-9.398469347105501900e-03,-5.319920462505733916e-03,1.383765697479248047e+00
6.539910687197312278e-01,-7.587352507831220949e-01,6.239493199501591203e-01,-1.440511870176629065e-02,1.159663889715204736e-03,2.257403706364981624e-02,1.398718237876892090e+00
1.071216990408773606e+00,-1.015568058925677919e+00,2.303627614911242794e-01,6.872854703441294566e-02,-2.331268919464718758e-01,-2.060829149661757842e-01,1.900434494018554688e+00
6.392552571402945194e-01,-7.713879785064792216e-01,6.493576194185997075e-01,-4.311819458325760746e-03,-4.247367141394466604e-03,2.256173597876633987e-04,1.415760278701782227e+00
6.140529325740540223e-01,-7.683223569909204409e-01,6.476719225956366621e-01,1.028312772507033145e-02,-3.221826851755785811e-03,1.505616298629172504e-02,1.399855017662048340e+00
6.581985673316252949e-01,-7.665398040665809543e-01,6.430705004092498456e-01,2.602223017300949056e-04,1.437412908940126702e-02,1.940006744627368641e-03,1.417457580566406250e+00
6.417432874378015129e-01,-7.595385688919242817e-01,6.573347515099849936e-01,-4.086925138216162406e-03,1.773067429363319250e-02,-3.176279545318130230e-03,1.409505367279052734e+00
6.164030989129734017e-01,-7.684599484608686248e-01,6.422575180157621411e-01,1.132578536926482499e-02,-4.040878696654313582e-03,1.288487561693602013e-02,1.398302793502807617e+00
6.156398974994822249e-01,-6.602159189809412299e-01,6.491402876012986045e-01,-7.954271863098502995e-03,2.552937477603751601e-02,-6.556074576379873793e-03,1.293810606002807617e+00
6.484669550690091988e-01,-7.735014274365099585e-01,6.417381453040225114e-01,2.690668344469956258e-03,4.074350335926598407e-04,5.032893328467397467e-03,1.418650507926940918e+00
6.573854814612400954e-01,-7.413906137263318596e-01,6.410162045989866719e-01,-7.569373912580047888e-03,1.460680110269893875e-02,-6.577979556666931592e-03,1.391002297401428223e+00
6.610643667632432052e-01,-7.603147023351420897e-01,5.903327530404363088e-01,7.183537601518186211e-03,5.090425661085653218e-03,1.237107297523726106e-02,1.387615442276000977e+00
8.215357593530453473e-01,-7.548819109477400424e-01,3.485032541399644690e-01,6.024033006073490487e-02,1.298005580150366489e-01,7.778480623983697120e-03,1.422943592071533203e+00
6.403362227323753375e-01,-7.621538412006985119e-01,6.441578074786045160e-01,1.352405190110068413e-03,5.400633415046649129e-03,4.560161033475522777e-03,1.404460072517395020e+00
8.759337987619301158e-01,-5.599117017925913098e-01,2.529371145979782964e-01,-5.821086408059059775e-02,-1.176712405153885616e-01,1.036052360216352941e-01,1.280295848846435547e+00
6.542435083669034812e-01,-7.451300821725668211e-01,6.282366646109847075e-01,-7.741284403324943074e-03,-6.834440778081600672e-03,8.525044596507385872e-03,1.386747121810913086e+00
6.458634036932642264e-01,-7.555170520674356904e-01,6.549988469081646780e-01,-5.312000091698439522e-03,5.269366740995133462e-03,4.843146303821886482e-03,1.406055212020874023e+00
6.177119593501150252e-01,-7.611550895191974142e-01,6.653976778592918251e-01,2.167993521819596564e-02,-5.284080523551067977e-03,1.018089015961618979e-02,1.403960585594177246e+00
3.885852128990016641e-01,-1.481366296160098628e+00,1.016146483807131684e+00,6.011201272223883063e-02,4.148211009440284092e-01,-1.133685809268202525e-02,2.364638805389404297e+00
6.965740049849992177e-01,-7.149329979902854237e-01,6.073529478629375866e-01,5.795209262835095132e-02,-5.918419968110225776e-02,7.597792711969808543e-02,1.382851362228393555e+00
6.147363420768641173e-01,-2.685681745743838666e-01,5.325257493685485732e-01,6.954974362058381765e-02,-8.697832633212419784e-02,1.458021064473906947e-01,9.029675722122192383e-01
5.634240128281975402e-01,-7.253519152856113816e-01,5.937654447390339207e-01,7.023680142912660683e-04,1.960444629924600751e-02,-4.474765141141537166e-03,1.304676890373229980e+00
4.516778099550415315e-01,-7.606223742456592607e-01,7.139893852814037656e-01,1.397601363776803524e-02,1.570834405083510604e-02,-1.928239868846762239e-02,1.363422632217407227e+00
5.921298931670659904e-01,-4.072487598075553716e-01,6.313561797872839776e-01,1.516128393684235826e-02,-4.935525891773777721e-03,1.391927750146555731e-01,1.048038601875305176e+00
6.859311470779435593e-01,-5.690373825460941504e-01,7.117967831247460353e-01,-2.204434251021691535e-02,6.751613765420487467e-02,8.983086914172008774e-02,1.283517599105834961e+00
8.352693365177119578e-01,-7.643201551642890834e-01,5.530649380191787756e-01,-5.781375222527506026e-03,-5.257737724086766068e-02,5.438684229643268864e-02,1.484648704528808594e+00
6.253773735996306371e-01,-7.517770993676498037e-01,5.955255727304409330e-01,-1.527864977682648687e-02,4.797481990030191649e-03,6.747118258622359505e-03,1.362806320190429688e+00
6.478918348229802948e-01,-7.656185675782185562e-01,6.154777399250208614e-01,-1.495066438375579343e-02,4.942194194876277889e-03,1.059783206437389831e-02,1.397971868515014648e+00
6.601369908870937664e-01,-7.621368792513425472e-01,5.958222425039199077e-01,-1.189808539311727233e-02,-5.552387175926219330e-04,-7.310033123944252934e-03,1.391442418098449707e+00
6.652156504058313047e-01,-7.606092019593052589e-01,5.491977609183260611e-01,-1.734502469000595570e-02,1.727744094270101255e-02,2.163831685255004217e-02,1.372668266296386719e+00
6.811963251046753154e-01,-7.790115086360873686e-01,5.344607938470733455e-01,2.980005678528010668e-03,-1.344194129507901569e-01,-1.236440525675440785e-02,1.412149071693420410e+00
6.978726825369130360e-01,-7.426006898783216181e-01,4.822810369005230968e-01,-2.007177769826294297e-02,-1.118886708294755394e-01,-1.373982401792749226e-02,1.360228419303894043e+00
6.743266520689409349e-01,-7.779139574678282099e-01,5.386080680725344738e-01,-1.840174775216733144e-02,1.725619717537821562e-01,-5.837200196304723199e-02,1.425095438957214355e+00
6.898408545114873558e-01,-7.479024245101025814e-01,5.298354080567071467e-01,-1.598587945483352993e-02,1.040998550266227299e-02,-9.499836249175955261e-03,1.365292310714721680e+00
6.443230249106972618e-01,-7.433811450677503263e-01,6.628636607510780543e-01,-7.260980287626449779e-03,-2.896842376911291927e-02,-1.416247506535633222e-02,1.398239254951477051e+00
6.651568924568739272e-01,-7.290778746428572266e-01,4.762180663381578305e-01,-4.011995276955162767e-03,-2.793104125584554287e-02,-3.532783938175958639e-03,1.310949921607971191e+00
6.943238670870880425e-01,-7.409906074475158810e-01,5.285857957221097303e-01,-1.047964402293314994e-02,8.225912847544711651e-03,-1.153082756792788918e-02,1.360383033752441406e+00
4.863998457292970090e-01,-7.487283744871472413e-01,6.645998356317889266e-01,-2.455353302561198367e-02,1.152853167652002492e-01,1.565711067805398982e-02,1.349004387855529785e+00
6.790582805416218726e-01,-7.647275931568451313e-01,5.762877178289786961e-01,1.759601615754115278e-02,-4.035087173371589356e-03,-1.084696956461111972e-02,1.395718932151794434e+00
6.356141467419516022e-01,-7.545286202371243034e-01,6.727274383517016787e-01,2.382250078273778337e-03,-5.437760355311214294e-03,-2.732979071012979315e-03,1.409111499786376953e+00
6.398619507845519916e-01,-7.682433853627592679e-01,6.557480481569273323e-01,-7.945135899835484641e-03,-6.045163211954810573e-03,-8.589141799763288371e-03,1.416298866271972656e+00
6.371324895051743153e-01,-6.990940663592680737e-01,6.530105137981975227e-01,-8.913074712028139571e-03,-2.981630806230910029e-03,-1.711564805765441663e-02,1.344661235809326172e+00
6.286143756660074189e-01,-7.416559815246722698e-01,5.473532574720152422e-01,-1.688733596036784412e-02,2.018014041363918459e-02,2.045082666038642791e-03,1.332285404205322266e+00
6.330354004785826438e-01,-7.536808804123483752e-01,6.698184291385136380e-01,1.199238906914317122e-02,-1.185875171869273277e-02,-1.292498647092606666e-02,1.405950665473937988e+00
6.053497849539434261e-01,-5.537291493080944704e-01,6.504843993456282947e-01,9.002576226361387948e-03,-1.166024389622153344e-02,-7.623807606530383363e-02,1.189917445182800293e+00
6.439634843991060009e-01,-7.605104721619835306e-01,6.581096685906622223e-01,-1.931933905229623943e-03,-1.916312813579078983e-02,4.288561682011206820e-03,1.412013888359069824e+00
6.387729735442009282e-01,-7.385206754031347076e-01,6.161071489033755899e-01,-7.160259699319595703e-03,2.334376029396391383e-02,1.790750464876626757e-02,1.367108106613159180e+00
6.436907869990682318e-01,-7.455351914915425704e-01,6.567235940949325279e-01,-1.039594989554655687e-02,-1.031224548017728275e-02,8.681167275970624875e-03,1.396099448204040527e+00
6.617053612431804677e-01,-7.681473539790084626e-01,6.205134350700859391e-01,-8.357978649378772825e-04,6.379629175688232784e-04,-1.520975835378628530e-02,1.409955501556396484e+00
6.200807857950414448e-01,-6.779142152144285172e-01,6.686891564872141647e-01,-3.235792498586393447e-03,-2.629801601756726753e-02,-3.455937205632669124e-02,1.325117468833923340e+00
6.554649470354030338e-01,-7.571466371105405324e-01,6.483733453724960238e-01,1.263702620723037434e-03,1.665282464174239977e-03,1.982028800504266955e-02,1.409501910209655762e+00
3.837053396153722318e-01,-7.771308012153491651e-01,8.022186099383450397e-01,4.261030260058274247e-03,-2.140145339310124684e-02,-5.084772940256281244e-03,1.417753577232360840e+00
6.281636433344819359e-01,-7.489711772334146644e-01,6.667760603728873914e-01,4.823963230045036528e-03,-9.792559210367601536e-04,-3.720960589110622416e-03,1.396882176399230957e+00
7.108726791735390238e-01,-4.533440764841015769e-01,4.329216603658418983e-01,-5.192183665740980614e-02,1.683627864865277490e-01,-1.135467995576867062e-01,1.113941907882690430e+00
6.117530687541761214e-01,-6.480982774628401000e-01,6.612700706344409873e-01,1.517599697943494176e-02,1.712264535305945551e-02,2.369337029440172701e-02,1.286590814590454102e+00
6.741825292542839021e-01,-7.802479457336708446e-01,6.248542612684165887e-01,1.333009230978280529e-02,2.009225409865526141e-02,-2.750924813275803724e-02,1.431806921958923340e+00
6.585930113120372908e-01,-7.553041603855596975e-01,5.690883379208906412e-01,-1.669482539769397145e-02,3.951449786492273325e-02,7.113994915875638571e-03,1.373403787612915039e+00
6.375876365396155876e-01,-7.573771469250266675e-01,6.517947090524833786e-01,-6.454953449565747729e-03,3.573151812404178323e-03,1.971796183424726415e-02,1.402596354484558105e+00
6.629328287414589793e-01,-8.814718234031295729e-01,6.002973968166331886e-01,2.861510077809294866e-02,2.119944164986605206e-01,-6.545723452844719181e-02,1.562853097915649414e+00
6.207013784853521177e-01,-7.603932786751795847e-01,6.606510239690386310e-01,7.404464479312676713e-03,-5.812170596838260421e-03,-4.231188573778339387e-03,1.401610612869262695e+00
6.724772707867118227e-01,-7.622557282950099822e-01,5.726933982010387059e-01,-2.259198173184777739e-03,-1.718462470416700196e-03,1.411272490129952643e-02,1.387758612632751465e+00
6.219560710424386629e-01,-7.361134461996017286e-01,6.429457380346887962e-01,5.484789683052680720e-03,-2.998846430051810025e-03,4.183986789755108314e-03,1.368747115135192871e+00
7.817359655643787431e-01,-7.492011179151413236e-01,3.427586141329787561e-01,-2.600362112390811661e-03,4.147579677150936214e-03,-3.511313103350731032e-03,1.365478515625000000e+00
6.728507104184529020e-01,-7.472926381538663732e-01,6.256884977291564676e-01,4.434368029500606982e-03,-1.322016237539471589e-02,2.115021217811986461e-04,1.397368192672729492e+00
6.345062355844128810e-01,-7.446884444145027704e-01,5.637534135206405672e-01,-1.558946305695447371e-02,1.773052569440305634e-02,-1.981466724472204319e-03,1.345840215682983398e+00
6.913379002775837945e-01,-8.999089171114099672e-01,4.983996255643200479e-01,2.654817336391431665e-02,-2.664086929148632987e-01,-1.201483227050496351e-02,1.574086189270019531e+00
7.179005694408626681e-01,-7.650569143327696775e-01,4.754814826345052925e-01,-2.276316974596835976e-03,1.207646815660525647e-02,1.035291780018532393e-02,1.378117322921752930e+00
6.664772813793848893e-01,-7.437960826919881585e-01,6.350694805454600855e-01,1.257591399299450192e-02,-1.098602263495604414e-02,1.678945306213831519e-04,1.395134568214416504e+00
6.322003087285662515e-01,-7.410597751382403953e-01,6.718541574721869081e-01,-2.227451044577591702e-03,1.288944673785214282e-02,1.230430385789392858e-02,1.393857359886169434e+00
6.443791974582873117e-01,-7.591283493169923569e-01,6.428446317186806702e-01,-2.490657450813376500e-03,-5.788348605298605093e-03,1.330602193860399782e-02,1.402972698211669922e+00
6.716872341151941539e-01,-7.692998492811915501e-01,5.736203827301820102e-01,-1.007346818046864906e-02,-5.772459707376532100e-03,-1.561491366385248970e-02,1.394949316978454590e+00
9.143403011463103747e-01,-6.114403258894693938e-01,4.593231723688832036e-01,-4.832633448034769248e-03,-2.390425823673604788e-01,-1.428623191213997390e-01,1.439970135688781738e+00
6.618916555440232941e-01,-7.588082046060676822e-01,5.976878298844935378e-01,-6.280963804982764992e-03,-3.837429796250134417e-02,-7.864793493545725904e-04,1.391342401504516602e+00
6.584281851688527087e-01,-7.658806100312854914e-01,6.380812036140254273e-01,8.618266397590959582e-03,-3.481960273852561377e-03,1.746622090848418823e-03,1.414339900016784668e+00
4.036782226408838770e-01,-7.714878706054572044e-01,7.929814185086601075e-01,2.239098442774023132e-02,1.584439923163522002e-02,-1.196108020086541525e-02,1.411649584770202637e+00
1.416156353760901765e-01,-1.107900116370731602e+00,1.056906453381734279e+00,1.752057740741231884e-01,-1.276040506649142592e-01,7.019458942808728952e-02,1.923132538795471191e+00
3.461349898947047032e-01,-8.413041496389538354e-01,8.389812156808225119e-01,-2.311230808830535763e-02,1.019875165731260053e-01,-4.874822119713925761e-02,1.509327650070190430e+00
4.451500764295602819e-01,-7.328731500374757735e-01,6.815951152611544606e-01,3.179331571102154692e-04,-6.158047686463878623e-02,-1.151034206031248050e-02,1.316797971725463867e+00
8.975706554816054172e-01,-9.754482183549715302e-01,2.024271444557722566e-01,3.613430656428499171e-02,3.024503077368139170e-01,-1.847058466243679808e-02,1.723013758659362793e+00
1.605331265720840173e-01,-8.991679938167989050e-01,9.740744233277512931e-01,2.942864794945617563e-02,-5.951311883487069021e-03,3.483071717660395777e-02,1.628886222839355469e+00
6.254123175530283962e-01,-6.743356248396910058e-01,6.131629235394653321e-01,2.348527942156579743e-02,-6.006447887275464387e-02,-3.198199865422290261e-02,1.299661517143249512e+00
5.936369212741514634e-01,-7.404038972599298329e-01,6.059602592858238657e-01,-6.774451121875817508e-04,-1.025519102042948133e-02,-6.976509769473777760e-03,1.340417623519897461e+00
2.112803646212280118e-01,-8.838115979503999853e-01,9.313183213563520635e-01,5.696795899843918459e-02,1.483179637738424039e-01,2.430865990993680975e-02,1.607386827468872070e+00
6.993082531200208729e-01,-2.673834013833507051e-01,3.793895044295660379e-01,-9.758991956883464672e-03,9.141021481527043802e-02,-1.161339427360877224e-01,8.907257914543151855e-01
5.981986849765525971e-01,-3.732140011469323726e-01,4.944516050468555912e-01,1.916543712061148479e-03,1.964045369200047852e-01,-5.013821004367043782e-02,9.883833527565002441e-01
7.533756239287062728e-01,-7.508899337140432229e-01,4.460644802033517098e-01,1.132796102605894851e-03,4.150307398116409195e-04,-1.006869195976181457e-02,1.376693844795227051e+00
6.150117072730713064e-01,-7.289945408484846956e-01,5.666754401524631835e-01,9.333408302285090691e-03,6.071525480673585495e-02,-8.881097973340657328e-03,1.324870586395263672e+00
5.873095491253785827e-01,-7.303340642424671625e-01,5.925147678104776272e-01,8.011932637772495661e-03,2.485481745910911658e-02,-9.616318477241396143e-03,1.321133494377136230e+00
6.297441637611698173e-01,-7.507831762575084555e-01,6.808999068125010101e-01,1.236429914488405184e-03,-1.437025366209436451e-03,-5.259397922545061901e-03,1.406836271286010742e+00
6.306491937770490885e-01,-7.499184986806362030e-01,6.707292941053115687e-01,3.189919813432839577e-03,1.065618953269389067e-02,3.732013094077816454e-03,1.401185154914855957e+00
6.543478042666329708e-01,-7.595303957606697187e-01,6.585495342375145000e-01,3.789633490345222151e-04,-4.965739148821447617e-03,-9.784719886003993145e-03,1.416111469268798828e+00
6.878251330141009756e-01,-7.613143691716156569e-01,5.168504163667473339e-01,-3.712734831856621866e-03,-2.794531895216874687e-02,-6.757592481192670544e-03,1.372586131095886230e+00
6.048807762082635264e-01,-7.514035189822299010e-01,6.231800838326246872e-01,7.499007584089405556e-03,6.677725676800622297e-03,-7.306782984548184680e-03,1.365695357322692871e+00
6.456524843322395402e-01,-7.645384864401839620e-01,6.265815475632035003e-01,1.305308008298126932e-02,1.089508468471887251e-03,1.046926121002111042e-02,1.401053905487060547e+00
5.998943919623304089e-01,-7.391776074597100621e-01,5.926393625163794976e-01,1.378130753693785314e-03,-3.575112557647393188e-03,-9.825964422454458534e-04,1.335476875305175781e+00
5.243233466187545710e-01,-7.298207262229003955e-01,6.201883934713542379e-01,1.851339817563230896e-03,2.951946242879875323e-02,5.696732989124818868e-03,1.305763363838195801e+00
6.265025524527916279e-01,-6.979079689097963390e-01,6.444793258611244413e-01,1.769802003395814019e-03,-1.274461380106467305e-02,1.206756424904641654e-02,1.333839774131774902e+00
6.421034084974216460e-01,-7.617182774891860797e-01,6.600038312556920639e-01,6.323177549717302198e-03,-9.027918684698883756e-03,7.395117841174215015e-03,1.413043975830078125e+00
8.190710535470652198e-01,-6.302806312424433788e-01,3.091941849437649381e-01,4.318478766480246187e-03,9.579319290223045624e-02,2.470453261711386406e-01,1.353618502616882324e+00
6.651253036875253155e-01,-7.570394342417547939e-01,6.355135755138252573e-01,-1.136737719941837040e-02,-2.099341121736153157e-02,1.730166503500813260e-02,1.408518552780151367e+00
6.317013999360181487e-01,-7.551729326769858197e-01,6.728214443802249534e-01,-3.972421325005461197e-03,3.720123462233598279e-03,9.166984997962668432e-04,1.407917261123657227e+00
6.201263401261691843e-01,-8.145158900753235454e-01,6.298841362058953397e-01,5.798181337696101459e-03,3.892865773841611143e-02,-1.613290891092918067e-02,1.441429972648620605e+00
6.345389909423588826e-01,-7.641730281478938958e-01,6.239669737380832970e-01,-1.513897666894986442e-02,-2.900102993166631289e-03,-1.271869322193416169e-02,1.393885970115661621e+00
6.933584094841971357e-01,-7.979784259140034752e-01,6.089852446398296149e-01,-3.845406910298705683e-02,-1.170334485969020885e-02,-1.852877986947297148e-02,1.453014969825744629e+00
6.480576604849926925e-01,-7.532788491314228452e-01,6.106400794722159908e-01,1.121222898092742205e-02,3.648024418669316158e-04,-8.147465056434606556e-03,1.383215904235839844e+00
6.228577405781049459e-01,-7.277101904060370163e-01,6.720657547991372160e-01,-4.999830509907945975e-03,-1.514395166085889463e-02,6.686970149768803676e-03,1.376158118247985840e+00
4.917582167209681443e-01,-7.283749477610492740e-01,6.567072678671443953e-01,2.090921178537559228e-03,-1.787626184973856516e-02,-8.245286294221965476e-03,1.310865640640258789e+00
6.808692720022697653e-01,-7.297411992116903390e-01,6.210216233614144210e-01,-1.248374358271012261e-03,2.219700898113349460e-02,-5.276704136090729948e-03,1.382225871086120605e+00
6.184111483147183286e-01,-6.366690024970942385e-01,6.644940464928185131e-01,-4.304067321352743856e-03,-1.760619058855548980e-02,2.888458056747746777e-02,1.280107855796813965e+00
7.626101157425592136e-01,-7.351598391655669307e-01,3.520401430101731677e-01,-6.921913180808760349e-03,-9.583022744049873864e-03,5.613033935384491996e-03,1.340692758560180664e+00
6.201530472188003795e-01,-7.169690418166527746e-01,6.832453213826852334e-01,-5.023321149521165277e-03,-1.495139973382553916e-02,-4.652511114753551079e-03,1.370054602622985840e+00
6.433726172659024467e-01,-7.496937949878260676e-01,6.422519941790411080e-01,7.032990508367182800e-03,-1.245096249152426865e-02,-1.529982534169042809e-03,1.392729163169860840e+00
6.391404238064761767e-01,-7.021307244239014533e-01,6.517049414441205002e-01,-4.658878982658760221e-04,-2.225005560283761091e-02,7.300209235500840395e-03,1.348207831382751465e+00
6.580188817619312402e-01,-7.550523154440605955e-01,6.383835835883674426e-01,1.991626194883266022e-03,3.067537898363372362e-03,-2.944136713803271674e-03,1.403380155563354492e+00
6.447932860223639651e-01,-7.597106409336910060e-01,6.032153106706876766e-01,-1.589318982654007104e-02,-4.702975946265327244e-03,2.461004787553985711e-03,1.384487628936767578e+00
2.986990337252217742e-01,-5.244567866335173578e-01,6.927913125509131964e-01,1.418023502454005547e-01,-2.026549332343106635e-01,8.200398271822122165e-02,1.166618347167968750e+00
6.369945813898572062e-01,-7.494961148136324303e-01,6.599208070888002986e-01,5.173837685757017284e-04,2.309588857852284006e-03,9.305499472029519700e-03,1.398193717002868652e+00
6.404779263206017426e-01,-7.509405066665498785e-01,6.662013404899214120e-01,5.295090629607352925e-03,7.172734122942356870e-03,4.431078267909436576e-03,1.404562711715698242e+00
6.242756167780345589e-01,-7.130948396073123474e-01,6.792752944688777994e-01,-1.674523529104860646e-03,1.937110661886567650e-02,4.585425331520070688e-03,1.366139411926269531e+00
7.772607570700180712e-01,-7.551921624939103017e-01,3.498586081558401339e-01,6.823046168287048505e-03,-1.996978025632538400e-02,1.657264912224747783e-02,1.370500206947326660e+00
7.069990734482799466e-01,-8.955974273415782116e-01,4.788493110643805006e-01,-5.494948068533831581e-02,-1.783127050264833313e-01,-6.514088895129355183e-02,1.540100812911987305e+00
6.298905056048198503e-01,-7.501591834221333910e-01,6.680112643045116316e-01,1.630392909003173553e-03,4.362980925767266475e-03,2.506454317907875345e-03,1.399529457092285156e+00
4.142846822307449939e-01,-6.341400066092107712e-01,6.793210160392166852e-01,2.308730472817333845e-01,2.473899323853198662e-01,-1.889739075202656049e-01,1.377662897109985352e+00
9.246003581749262512e-01,-8.615482907002589563e-01,7.794869315933998510e-02,1.112199416052196861e-02,2.169432539285315320e-01,-7.403242033304489877e-02,1.597781896591186523e+00
6.188109118583376977e-01,-7.228333728266568281e-01,6.814055642128528101e-01,7.913941580627911060e-04,6.717287955616592539e-03,-1.278513078900646652e-02,1.374239683151245117e+00
6.464749284769745197e-01,-7.762264191479996134e-01,6.482781006039367577e-01,-4.289551658328417233e-04,6.685018475555261006e-03,-3.612449870886236063e-04,1.423651218414306641e+00
8.333205975153497036e-01,-8.370813497766342870e-01,5.387935714589656699e-01,-8.190900338424390859e-02,-3.801496824653345374e-01,-1.071672281115806230e-01,1.695032000541687012e+00
6.288003065938869707e-01,-7.483419260272793361e-01,6.820114924831692793e-01,3.181005139245246180e-03,3.609390469546991647e-03,3.721586496611701232e-03,1.404543519020080566e+00
6.402722466424610737e-01,-7.604732120204871215e-01,6.606663173891980101e-01,3.302245663542573411e-03,2.639942561194276536e-03,-7.514289602956589556e-03,1.411132097244262695e+00
6.179811141683104747e-01,-6.257390694221623972e-01,6.679783493865745214e-01,2.093737482244480488e-03,-1.370179811863593555e-02,-3.553298892744172904e-02,1.271175146102905273e+00
6.231883297752016659e-01,-7.423585889607523525e-01,6.871171514550209469e-01,-1.003147071046437203e-03,2.021972572668137710e-04,3.027353119275088492e-03,1.398618459701538086e+00
9.494271284766143681e-01,-7.344918826894449859e-01,8.756102456300082770e-02,9.862653699709134081e-02,-4.153541903028203780e-02,-4.715955693294529572e-02,1.472451329231262207e+00
7.522396780862020682e-01,-7.507698040241306270e-01,4.005158531292494772e-01,1.466362527113550772e-02,-4.755581466365278037e-03,-1.901681366067054391e-03,1.361920237541198730e+00
7.378844483504312102e-01,-7.561832407374255993e-01,3.505960057111676687e-01,1.264502307287764839e-02,-2.141289098560666612e-02,3.208702279926912287e-02,1.344819426536560059e+00
7.364339584805499328e-01,-7.994240170961024461e-01,2.673035184727557967e-01,5.981982490923490325e-02,3.308658396559614467e-01,-1.078728423979469359e-01,1.494150876998901367e+00
6.287931947799021426e-01,-7.563877058377193041e-01,6.766628771916198826e-01,-1.103131403179903559e-03,6.331716339534014873e-03,-3.290832961761270496e-03,1.409780859947204590e+00
6.539503083660365146e-01,-7.602192784047168139e-01,6.551646508506850930e-01,6.563923820760745979e-03,-2.181651935986455605e-03,-1.008470036002596937e-02,1.414935708045959473e+00
6.844854372773744311e-01,-7.659111492750605432e-01,5.720632659767264094e-01,-2.589314138135980197e-03,-2.159550535221160892e-03,-1.436975561606687081e-02,1.397814631462097168e+00
6.238041125413841259e-01,-7.516069819457739110e-01,6.812669952223684433e-01,-3.473508335060825807e-04,9.441049753140823980e-04,-4.218751316142915417e-03,1.405044198036193848e+00
6.443695431429624643e-01,-6.940749841985954793e-01,6.425545360387612259e-01,1.796298726371800547e-02,3.409831440588900059e-02,1.018278240028668881e-03,1.339203834533691406e+00
6.004694196475659496e-01,-4.794838466699032908e-01,6.296997561270984978e-01,3.674175738362960020e-02,-1.030552193796666766e-01,9.845209841314075949e-02,1.124148726463317871e+00
6.358047501962085235e-01,-7.626328231373591393e-01,6.588277458920530627e-01,-2.262178330712247623e-03,-3.030451369413300275e-03,-1.012677302380321324e-02,1.410214304924011230e+00
6.343451613003215916e-01,-7.501245104539541186e-01,6.813367347271861441e-01,3.013075719175044645e-03,5.766267675234010466e-03,-5.926565577354332703e-03,1.408635973930358887e+00
6.361486269826538420e-01,-6.008828946587988495e-01,6.345475282635519854e-01,3.919998402702531103e-03,7.876215465278535097e-03,6.742082123629832002e-02,1.241828441619873047e+00
6.522069055427182072e-01,-7.647130135692539188e-01,6.423172722044001581e-01,9.210001837081297285e-03,7.490626962772863615e-04,-9.800971284711268786e-03,1.412193775177001953e+00
4.882677461696960375e-01,-7.410522054006272175e-01,6.146186776635014226e-01,1.552416735679359658e-02,1.194364063964380857e-01,-1.575191744404425345e-02,1.314070105552673340e+00
6.054370016746466465e-01,-6.941278562542058106e-01,6.856183552966876871e-01,-9.931928659126986955e-05,9.384652482900464679e-03,2.352959957271246252e-02,1.342171311378479004e+00
6.423356742829858801e-01,-7.688707978079823979e-01,6.458812685266575038e-01,-2.757441035074754965e-03,2.699331603560318170e-03,-1.435744988795150659e-03,1.413000583648681641e+00
6.512557645248266969e-01,-7.731243027823492264e-01,6.379027054796373442e-01,-4.172816598949961875e-03,6.650755096887964180e-03,-6.629121824494318277e-03,1.417862415313720703e+00
4.316068899026671568e-01,-4.724318161739126110e-01,6.672204428736226989e-01,5.446304075277729612e-02,-1.775866639854059015e-01,7.616855736078005645e-02,1.098507285118103027e+00
6.709761163388650029e-01,-7.519704154692559150e-01,6.325348993292104760e-01,5.905519448230458525e-03,-7.625742927112725590e-04,2.504039961542814125e-03,1.404165267944335938e+00
6.752484414385300227e-01,-6.676496253183320517e-01,5.975998356212708362e-01,-1.329133712415096237e-02,-1.014383784614208972e-02,6.304929204056706343e-03,1.306173205375671387e+00
6.101797263125839921e-01,-7.270085649700995800e-01,6.723308047982712310e-01,2.793929746630025718e-02,2.842863917712857430e-02,5.435549702482871809e-03,1.371093750000000000e+00
6.414431018762963843e-01,-7.753993456486618641e-01,6.630734214883938771e-01,-4.954775754050112953e-03,5.613401738354492632e-03,8.647130398792937959e-04,1.427840232849121094e+00
6.721768055617798332e-01,-6.332509501138618990e-01,5.976702897401677816e-01,-2.705100773551063001e-02,9.860219595382363131e-03,-4.714424390815648985e-03,1.270820021629333496e+00
7.189723876210539766e-01,-7.294678852351422771e-01,4.252901460538870970e-01,-2.912474370529215349e-03,-2.132429078960838831e-02,1.812335083434131553e-03,1.326742887496948242e+00
6.711582721156112985e-01,-6.222224609591134881e-01,6.090761377483786543e-01,-2.797986190191658132e-02,-2.018067474128392488e-03,1.690484543272111019e-03,1.264421343803405762e+00
5.952539051315655083e-01,-7.540085825663591645e-01,6.270313844861215014e-01,-1.475992319234994965e-02,-6.526500904689105063e-03,-1.659065965274521964e-02,1.366016983985900879e+00
7.381685846918699667e-01,-7.498185854598007349e-01,4.270761374786898323e-01,2.451759908180957057e-03,-1.785457210774792774e-02,5.244563110453931854e-04,1.359763979911804199e+00
6.876654334743652619e-01,-7.454663282960662940e-01,6.217657449467708375e-01,-1.425330938933106091e-02,2.856356401705955391e-03,-2.529422355860469485e-03,1.401577591896057129e+00
6.200770779327153814e-01,-7.596288123178793761e-01,6.150412778447822415e-01,-1.736450036860577584e-02,-1.036606844009200883e-02,-2.148802456074283378e-03,1.377645254135131836e+00
6.529627873414317607e-01,-7.585141954185047330e-01,6.397069738493972313e-01,-2.584644691268855182e-02,2.985093582064655884e-03,-1.779070184843093740e-03,1.405622005462646484e+00
9.186761171153072780e-01,-2.514444180457741096e-01,4.913780519015506498e-01,4.033562732774982618e-02,-1.651818762819998454e-01,1.088041175172679426e-01,1.083525061607360840e+00
6.485220162600414673e-01,-7.571729229586812160e-01,6.023245696986730957e-01,-1.300452486570410904e-02,-3.819404658698006064e-03,2.809949750521671240e-03,1.383382678031921387e+00
6.775716266099209850e-01,-7.566560809235517437e-01,6.356546512777150326e-01,-5.781433012537784931e-03,7.196915875035238622e-03,4.294680692015597108e-03,1.413845300674438477e+00
6.619477000459647043e-01,-7.747728184477935542e-01,6.393119526834860622e-01,3.792267199118635849e-03,4.884631723810984628e-03,-5.017876045360037882e-04,1.425577998161315918e+00
6.137955018551131126e-01,-2.803207434838600465e-01,9.406635777868469495e-01,-2.778869878366136987e-03,-1.292446642005546931e-01,1.181817635671116376e-02,1.117631196975708008e+00
6.143028132755633530e-01,-7.456556482656639950e-01,5.767845439597854007e-01,-1.824301165950354200e-02,1.163623354439941374e-02,-7.165420368916873214e-04,1.342116832733154297e+00
6.743606371148960221e-01,-6.971794827580538589e-01,6.163614503376696474e-01,-1.604709798268324009e-02,-1.425276464476997636e-02,5.663602134057626331e-03,1.344029784202575684e+00
6.133449561787642779e-01,-7.511407029483284647e-01,6.472353760306110981e-01,8.882848654045460632e-03,-3.324164855253468418e-03,-5.813134737418814563e-03,1.381876945495605469e+00
6.738345181029683495e-01,-7.330702449766811624e-01,6.528813596066107561e-01,5.496841299068290672e-03,-1.044430271753874900e-01,9.069006296874693174e-02,1.416979432106018066e+00
7.514418574953901642e-01,-7.440140208309957703e-01,4.003096392114487423e-01,-1.718898448544718682e-03,-3.899798161250910521e-03,-2.034704184795600723e-03,1.354491114616394043e+00
6.586957240991093698e-01,-7.490947154606324432e-01,5.186355821711012837e-01,-1.785719295301651730e-02,-1.439254931136831062e-02,2.575213063280445795e-03,1.343842744827270508e+00
6.860245927231968244e-01,-7.483624458506739074e-01,6.203361514692457002e-01,-1.163172684556683031e-02,9.716400313344371320e-03,-2.618874747339619644e-03,1.402949810028076172e+00
6.764512108135964930e-01,-7.326367693097119993e-01,6.270652113597374733e-01,-1.178829259909530518e-02,1.136711150740272493e-02,-4.325741283754375817e-04,1.385346055030822754e+00
6.771892510789552233e-01,-7.513313799506503576e-01,6.281469491025390983e-01,-3.912915967899153503e-03,1.124519804378520081e-02,1.796669726552612431e-03,1.404796600341796875e+00
6.837999508101235691e-01,-7.562593412140736771e-01,6.239572758433507005e-01,-6.399499143670136017e-03,2.878576466629196966e-03,3.369409813202247587e-03,1.411154389381408691e+00
6.127103046341172421e-01,-7.596236346165395892e-01,6.600217957023466475e-01,1.194705514849607984e-02,-2.613569184805074504e-03,5.895394495608058914e-03,1.396788835525512695e+00
5.847974909614256367e-01,-7.620720719802693832e-01,6.756314414077151387e-01,-7.540702073485371255e-03,1.488927618412328856e-03,9.542919984210949252e-03,1.394668579101562500e+00
5.702380522668890617e-01,-7.451063352942519646e-01,6.327325510866196323e-01,1.607575824753414411e-03,-1.685637644975014615e-02,-1.404045527109665931e-02,1.348217248916625977e+00
6.601157011032224853e-01,-7.392205016519024507e-01,5.062021848023507964e-01,2.999460214428439648e-03,-2.046711317674444058e-02,-1.763082673752060887e-03,1.329566597938537598e+00
5.946509248383674562e-01,-7.246611318613860320e-01,5.791709612967890219e-01,4.201496878546610338e-03,-4.977293156017662153e-03,8.809494570393018153e-04,1.311689972877502441e+00
6.821734697512296108e-01,-7.512100336627850483e-01,6.303871905644711227e-01,-5.798489293376151051e-03,1.640276347057009840e-03,-1.751617610948517922e-03,1.408246636390686035e+00
7.107350774872546184e-01,-7.451310796556573912e-01,4.570377389339042029e-01,1.623818894810533792e-02,-1.703288934226207876e-02,-3.449248487885071238e-04,1.347672462463378906e+00
6.507908254715313312e-01,-7.384005956535520943e-01,6.545142399507393183e-01,8.887649046191449173e-03,-2.654409457856530749e-02,-1.353533863476104500e-02,1.392099022865295410e+00
5.832875605038112532e-01,-2.931395072172556793e-01,5.835867525459703664e-01,3.069136711162722200e-02,-2.304974366038231581e-02,-4.092907555434960321e-02,8.819478750228881836e-01
6.467153180923852496e-01,-7.691841442511824223e-01,6.435170879245979414e-01,-8.466451255332681702e-04,2.357596188681663173e-03,9.537768745257284991e-03,1.414406180381774902e+00
6.711248970691097160e-01,-2.191907144432018173e-01,5.253302340567727047e-01,-1.350094450927994544e-02,-7.495292162531809466e-02,-1.645795261587398584e-01,8.847455382347106934e-01
6.355813911414984752e-01,-7.637838575928432849e-01,6.745107198498441203e-01,1.311264842551999226e-03,3.267836650973021673e-03,-3.147582142542763081e-03,1.419253945350646973e+00
3.878388367805134518e-01,-9.710836752750859890e-01,7.771298757895754861e-01,-2.168222909311114666e-01,-2.222557906242942083e-01,-7.216559143117314001e-02,1.682880401611328125e+00
5.938701309959961705e-01,-1.112016273542284495e-01,7.237197039613451066e-01,-2.242570444565160706e-02,4.866004583732810168e-02,7.778563549430339563e-02,7.951756715774536133e-01
6.482232147401520983e-01,-7.736009849368165048e-01,6.484218805988974932e-01,1.519046828262057272e-03,9.528578612578272183e-03,3.654310454495668446e-04,1.422021865844726562e+00
6.425296296512745808e-01,-7.606838698242018859e-01,6.108827624750613472e-01,1.652101304744210686e-02,-7.858881046619446871e-04,-4.960469733363327867e-03,1.387982964515686035e+00
6.338794708351029872e-01,-7.602717262353636540e-01,6.625194081280657565e-01,-8.661745440894649123e-03,-4.987596674754326588e-03,-9.827770898081381393e-03,1.408898711204528809e+00
6.413581632086242656e-01,-7.641489780460312131e-01,6.443604074866924325e-01,4.905173361138275186e-03,-2.104841869034352871e-04,-9.685359643759893639e-03,1.407136321067810059e+00
5.911716423157543643e-01,-4.079351223522790226e-01,7.129819179731373691e-01,-7.033389660713972036e-02,-7.882799576681000231e-02,3.341476665928718587e-02,1.082397937774658203e+00
6.452833230962504718e-01,-7.632730307626885979e-01,6.484215075356686286e-01,-2.541779411366862969e-03,1.235699197587186542e-02,-2.142213174532007786e-03,1.410302281379699707e+00
6.397641867606960187e-01,-7.685035643633123525e-01,6.487429064671452750e-01,8.647997890389223438e-03,4.233153901079148712e-03,-1.427887686294138135e-03,1.412879109382629395e+00
5.994515692804615048e-01,-5.717527651663775190e-01,6.506791846734041318e-01,1.323310273335719447e-02,1.521722222146947891e-02,-3.250103867328085067e-02,1.199471116065979004e+00
6.581097399257431757e-01,-7.752533264833101345e-01,6.448520305010458920e-01,2.664986548935661947e-03,3.453906358399712762e-03,3.171883085529780214e-03,1.426810979843139648e+00
6.939957556379241499e-01,-4.210431699296899311e-01,5.888569755004200434e-01,2.193711891212384371e-02,3.446689477286250108e-02,-6.648034614085528149e-02,1.074894666671752930e+00
6.220722346486349252e-01,-1.885512594298642819e-01,6.429800751583938379e-01,-1.711317893579237040e-02,-1.279378134130046765e-03,-9.531974809838467122e-02,8.382344841957092285e-01
6.456309528750264759e-01,-7.728583782357172360e-01,6.421297801382224169e-01,-3.588538977290876321e-03,-7.941693560556579989e-04,-7.239953886600011650e-03,1.416811823844909668e+00
6.407203144680835294e-01,-7.641616218175273367e-01,6.454488878050710365e-01,-8.042081934953487429e-03,2.618379807077599736e-03,3.101843013907896931e-03,1.407338738441467285e+00
6.447282266959151187e-01,-7.708011544741510956e-01,6.331983010123105604e-01,-6.547077114172641932e-03,2.352597940266532277e-03,-5.356174306369349165e-04,1.409851551055908203e+00
6.433136934728678202e-01,-7.664279658738611944e-01,6.451237741773965251e-01,-8.028671725654232261e-03,2.543777959531869429e-03,3.162352343111838205e-03,1.410733580589294434e+00
8.634436661438802396e-01,-1.077418618963995600e+00,4.719120366840450775e-01,-1.472219054791056303e-01,-4.554797224919186482e-01,-2.355713295641901350e-01,2.003552913665771484e+00
6.523169511762443307e-01,-7.677528724383519965e-01,6.416630757106589478e-01,-6.465088238035611966e-03,4.991925193788011167e-03,-3.761133556250280483e-03,1.414858698844909668e+00
6.129089262714796371e-01,-7.659096810214131024e-01,6.477348868492902589e-01,-1.194776900910507131e-02,-3.406026835632990687e-03,-1.374270242694506858e-02,1.396925926208496094e+00
4.899349197445448389e-01,-7.443731258682734220e-01,6.781753165768740210e-01,1.701211313069110956e-02,-8.490284192221531079e-02,1.975876627769834054e-02,1.347205400466918945e+00
5.689202477832855376e-01,-8.943286318431793447e-01,7.332550125802325125e-01,3.297820496434700557e-03,-1.312872645371427893e-01,4.048283353591948866e-03,1.568552374839782715e+00
5.326308791068385950e-01,-7.407833302815364229e-01,6.835978263774907804e-01,1.225638347151351663e-02,-2.074965719752338844e-01,-1.173341505919825965e-02,1.402371644973754883e+00
4.319241720327082756e-01,-6.747767194865269547e-01,6.830424574541693605e-01,-1.535623025993373136e-01,-2.642027161892015474e-01,-1.711788668419561288e-01,1.390618562698364258e+00
6.150598846702253208e-01,-7.522795118423387661e-01,6.242199870442856069e-01,-1.231768479081039348e-02,-1.342677017108808921e-02,-1.646452976885112371e-02,1.372601628303527832e+00
6.867015677641126192e-01,-9.781762131557507622e-01,5.589993121610522531e-01,-2.660880460049594096e-02,-4.677254606411770377e-01,-6.222316241840934042e-02,1.801543116569519043e+00
5.764155412359035502e-01,-7.240640245166770628e-01,5.865984490137317042e-01,-8.871019957745480966e-03,-2.663449255773871205e-02,4.095075579399151157e-03,1.306525230407714844e+00
6.226886930998041247e-01,-7.583126450967364596e-01,6.082425332879788371e-01,-1.802804831767597154e-03,4.406515486182672851e-03,-2.377973789435992239e-04,1.373860001564025879e+00
5.592284140492229660e-01,-7.574931622513662033e-01,5.546190866942203312e-01,3.438490336823665089e-02,-4.081783672615689751e-01,-5.916926874470325448e-02,1.497192859649658203e+00
4.767853974272742157e-01,-7.586733369915785730e-01,7.198200041126212589e-01,-4.840974118516702153e-03,-1.490530916698414032e-02,2.974421913324267440e-03,1.373479723930358887e+00
5.603748017402274684e-01,-7.368508438954760598e-01,6.224762547261877277e-01,-1.330285892875886569e-02,-6.017320624100054582e-02,-1.257328795599981647e-02,1.333820939064025879e+00
7.492221019132894178e-01,-7.602726923528539960e-01,4.190192580439153769e-01,-1.040612133196607003e-02,-3.041725970801758758e-03,-2.258988449892521469e-02,1.375155448913574219e+00
6.858963253871923627e-01,-7.085559715236428024e-01,6.012545930700280428e-01,-1.329008085464044057e-03,5.380063980482533738e-03,-6.993078776807579860e-03,1.354205131530761719e+00
6.335096443513807962e-01,-7.586489943391853119e-01,6.278040685079044891e-01,1.323291993168187845e-02,-2.815272427810167240e-03,6.898185285914279485e-03,1.389563560485839844e+00
6.535675082910386013e-01,-5.119038763073380238e-01,6.444857957040048824e-01,9.023890838329426400e-02,-2.969243698623608152e-02,8.146746066227318617e-02,1.181019306182861328e+00
6.535857576981475292e-01,-7.420006088997274096e-01,5.407134159787980732e-01,1.465181463621837051e-02,-1.133752046535486772e-02,4.846308352627853150e-05,1.343096375465393066e+00
6.267457053473328710e-01,-7.663003784609138114e-01,6.261156505461540345e-01,4.149567302906394251e-03,-2.331914202911385646e-03,5.702155485556166872e-03,1.392790555953979492e+00
6.419309218637154757e-01,-7.722073887751703669e-01,6.504074110346347304e-01,4.556780483118040223e-03,2.258481578309059611e-03,2.486642648240253856e-03,1.418429493904113770e+00
6.410441480477826470e-01,-7.693593311168737126e-01,6.423307570317076109e-01,8.699492773069803994e-03,8.110650068177911731e-03,-1.471097112365902810e-03,1.411199927330017090e+00
6.179628922528529467e-01,-7.643372321087728016e-01,6.477637057125120723e-01,-8.387070569893141300e-03,5.916203481359127341e-04,1.487433170948526152e-02,1.397752165794372559e+00
6.504889924058805395e-01,-7.739779701603665130e-01,6.468180635050750915e-01,-3.595928482863882530e-03,-4.926318375323256692e-03,6.524021505815669371e-03,1.422719120979309082e+00
6.587101092435408978e-01,-7.301477513667522512e-01,5.058248672200693630e-01,7.018598558570893556e-03,-2.040774106484945574e-02,-2.003055784493869718e-03,1.319611072540283203e+00
6.503684731514527417e-01,-7.698486337362820953e-01,6.479045270050245442e-01,-9.659785289965259320e-05,-1.064629773131338906e-02,8.214499203559983646e-04,1.419107317924499512e+00
6.209622799449873165e-01,-7.631672526567262471e-01,6.442868993212880202e-01,-1.009844821149225198e-02,2.466979262411088739e-03,1.433812520979553702e-02,1.396275043487548828e+00
6.519070189450422159e-01,-7.744851507629034737e-01,6.479747099549824085e-01,-2.676977256306075845e-03,-1.214127180538680621e-02,6.811524508119904016e-03,1.424641728401184082e+00
6.601553285262637960e-01,-7.717225270729007880e-01,6.414510940384565707e-01,2.974486379722904089e-04,-2.805745585122671349e-03,3.884507062080158005e-03,1.422642230987548828e+00
6.719491058497415459e-01,-7.697490156528355998e-01,6.413729290529164295e-01,-1.382247828302482018e-03,-1.162069965304161900e-02,4.197409662202143850e-03,1.426818251609802246e+00
6.369514678820564768e-01,-7.646970731430322576e-01,6.677165087786762765e-01,6.681565517591358215e-04,7.345573247538504658e-03,-2.505813653649123507e-03,1.417345762252807617e+00
6.846736230536962786e-01,-7.407201037061736937e-01,6.176915581236757102e-01,9.825075852835325751e-03,9.322138252292163502e-03,4.802219464216126409e-03,1.393333196640014648e+00
6.460893125736002496e-01,-7.769911860551300675e-01,6.513800711978486868e-01,1.420530966149108126e-03,3.222210878991299543e-03,6.408293499780311339e-04,1.425746679306030273e+00
6.482835413283007941e-01,-7.517741722976094554e-01,5.771479562638565097e-01,-1.655548057520693159e-02,2.434299827033365587e-02,4.983585834789053433e-03,1.366858601570129395e+00
3.977632820167052996e-01,-8.051159887709961049e-01,7.800312102692598115e-01,5.423756862854961502e-02,-1.003478682981963632e-01,2.055219281188236380e-02,1.446779489517211914e+00
6.038221182298544321e-01,-8.305323650535294533e-01,7.660406293379590226e-01,-2.313570187789872057e-02,-1.496295596562294550e-01,4.830238695615052258e-03,1.544412255287170410e+00
6.156530640093724749e-01,-8.280907216948777405e-01,6.896014771870985216e-01,-4.464168087710738281e-02,-9.997216238662735843e-02,1.496530867585563196e-02,1.494409918785095215e+00
6.393185255944120460e-01,-7.654696561974209112e-01,6.512660900330907721e-01,-9.735695101403596396e-03,9.959246251958483315e-03,-7.179973598437139337e-03,1.411060929298400879e+00
5.432354730072381788e-01,-7.507865064597546434e-01,6.822763059733506497e-01,-2.065414615135423293e-02,-1.314768268222521637e-02,-2.584424139170853063e-02,1.370236992835998535e+00
5.967707067069485394e-01,-7.380039502196010792e-01,6.132812540095300413e-01,-1.329324990455725249e-03,1.957378935929918271e-03,1.084167885189751476e-02,1.343243598937988281e+00
6.466077919339279223e-01,-7.786261422713635083e-01,6.482697711754037417e-01,-1.869523082848347211e-03,5.750133506633354347e-03,6.046918309050674893e-04,1.426104545593261719e+00
5.926159948020093271e-01,-7.629931515934573749e-01,6.657856657700785830e-01,9.288788829642995876e-03,-8.446391208428204525e-03,-3.821357358891869400e-03,1.393820643424987793e+00
6.393987617246266186e-01,-5.905963446171249576e-01,6.359995832586267106e-01,4.338666207890253673e-02,3.298513013532886756e-02,2.945941849732092166e-02,1.232977390289306641e+00
7.225583191829597629e-01,-1.306478736981227851e+00,5.702292338045089615e-01,1.081003700084162550e-01,5.654707905409069868e-01,-9.737234621521545508e-02,2.203153848648071289e+00
6.113548999731216460e-01,-7.592348948605647241e-01,6.172748694106440226e-01,-1.026499276822506745e-02,-2.517964629596367802e-03,-1.819286482150953965e-03,1.373685002326965332e+00
5.442257733684551235e-01,-7.579990338926544391e-01,7.156439665018985430e-01,2.635171687132956131e-02,-1.709262389637697735e-02,-2.126299365224033552e-02,1.397395730018615723e+00
6.291162075800260656e-01,-7.633171752149850997e-01,6.279205465869417413e-01,-6.802651090955119141e-03,2.070150075833044907e-03,-5.229205909612931642e-03,1.391919851303100586e+00
5.902431304460014072e-01,-6.379645105370638225e-01,6.866262047599889229e-01,6.637573860972607875e-02,2.087447791421604207e-02,-7.043772214180116231e-02,1.290570020675659180e+00
6.361335247799964066e-01,-7.087996092690598271e-01,6.533376228058584978e-01,1.577217367582787891e-03,2.118172513016291364e-02,-7.072110881285580478e-03,1.354172468185424805e+00
6.424671490330366996e-01,-7.156400077948381622e-01,6.504582778027004908e-01,4.751806038816750073e-03,2.415143206523211183e-02,-1.094412239209692321e-02,1.362919211387634277e+00
6.464190082984195840e-01,-7.194214402956387033e-01,6.413689634121375605e-01,-3.161322089895306740e-03,6.117297880409748416e-03,-9.688839422898325171e-03,1.363477945327758789e+00
6.415642417790314855e-01,-7.634534205069584134e-01,6.589238949568158032e-01,4.911623027821677848e-04,9.588306205424270909e-03,-5.458959312483386596e-03,1.413906812667846680e+00
6.453035363597815488e-01,-7.246757196418953662e-01,6.496694298051284289e-01,-5.331724260512693374e-03,1.868837217336428644e-02,-1.385777252139336682e-02,1.372790098190307617e+00
6.487818831392156982e-01,-7.642517757691291713e-01,6.595619303423456703e-01,1.576382732261820060e-03,2.499549314349448076e-02,-1.151610796043941315e-02,1.419257760047912598e+00
6.154638798823085510e-01,-7.295688232138759499e-01,5.499739876636264846e-01,6.618785931693202049e-03,-1.228583545311727823e-02,-9.041335874127465894e-04,1.313736081123352051e+00
8.010471249035384655e-01,-4.740739247872451934e-01,2.423870860192697818e-01,-2.923942870734556887e-02,-8.792782870845941567e-02,-1.786318602041485903e-01,1.160673260688781738e+00
6.343772526984190474e-01,-7.590316867533307699e-01,5.986103602517260924e-01,2.298184744737797464e-03,-2.341220021762132134e-02,-1.994087236288601388e-03,1.376481771469116211e+00
6.533242479132655989e-01,-7.493894242936239847e-01,6.135962424140439797e-01,-1.298104799708654604e-02,-2.998269815708148617e-03,-1.242917754345080131e-02,1.383637547492980957e+00
7.175208703210960159e-01,-6.477567575506029129e-01,5.025381594397588803e-01,-5.503358643673993827e-02,-2.818067417134367258e-01,-1.581779939019301584e-01,1.392509102821350098e+00
6.488754166358901010e-01,-7.663126554720518513e-01,6.418975010823109173e-01,-6.387994916577226581e-03,1.017007156777841731e-02,1.369711269654809264e-02,1.412064552307128906e+00
6.823587544500224755e-01,-7.578418458442228722e-01,6.459148300608521520e-01,3.639722786235588103e-03,-7.010965872200482923e-03,-5.226787398784605437e-02,1.425272703170776367e+00
6.385991708665015310e-01,-7.599094928593553844e-01,6.111091571343139073e-01,-1.527401777412844275e-02,-1.429850395501728287e-02,-8.462709967825358601e-03,1.385519862174987793e+00
5.628961172409858715e-01,-6.036621122059503408e-01,6.424741400209774689e-01,8.003784116049512953e-02,2.850893455929387824e-02,-6.640884481375212804e-03,1.217296957969665527e+00
6.141731825158827096e-01,-7.279399536363663215e-01,5.627871026384414499e-01,-3.074330711481772487e-03,-7.004693811487595206e-03,1.199009883901658259e-03,1.317240357398986816e+00
6.247712343424833836e-01,-4.753861957098274305e-01,4.511135817735624221e-01,-1.047333059962378826e-01,-1.880210600383409592e-01,-1.529881009150886317e-01,1.121887564659118652e+00
7.031451073155476905e-01,-7.784686802844558162e-01,5.376801039987553210e-01,9.689118908998324564e-03,-2.219494571185974194e-02,3.065675326737568943e-02,1.407828807830810547e+00
5.789162010483643872e-01,-4.469432432841656810e-01,6.340101867554142068e-01,-1.422715881876278170e-02,-4.642171327060626469e-03,7.717355649110989313e-02,1.063240647315979004e+00
5.967784955613023579e-01,-7.311735482202668113e-01,5.867335734726504270e-01,6.775626839226828527e-03,-2.251484873400606129e-02,6.712235722964884563e-03,1.323635935783386230e+00
4.230532024796534452e-01,-7.611219617219568967e-01,7.511308989770072442e-01,-2.802550423732316082e-02,4.240202056006905224e-02,9.380163502228757236e-03,1.380732178688049316e+00
6.375335732401297140e-01,-7.624547752045218729e-01,6.716577266734942153e-01,6.523679674773137649e-03,-1.272635262456001809e-02,1.530943791903722822e-03,1.417577505111694336e+00
6.161780780400540891e-01,-6.854416488218932901e-01,6.820438179687446922e-01,-4.266366514652912903e-03,-1.367143173602657340e-03,3.008908741391305361e-02,1.336809873580932617e+00
6.129364119807906297e-01,-5.551755028259902636e-01,6.475549258193438185e-01,5.457383569647162452e-03,-2.387859498112495857e-02,-2.669010049596672127e-03,1.186567902565002441e+00
6.263546290242881787e-01,-7.480859206355999769e-01,6.834519700619219318e-01,2.899105311220583504e-03,-7.402295348031802738e-03,7.537397266607566253e-03,1.403988599777221680e+00
6.294049608818896857e-01,-7.469291546920043823e-01,6.722364438586176938e-01,1.672600294750289061e-03,-1.453233753682244174e-02,5.716897627937742032e-03,1.398506522178649902e+00
6.471718779636251861e-01,-7.807367515853117501e-01,6.432289444743319873e-01,8.887975317536085207e-05,-1.899622330502573776e-03,7.809711491458074537e-04,1.425945639610290527e+00
6.435182229166347412e-01,-7.807172459776129392e-01,6.469967565968207657e-01,-1.268067573545135973e-03,-1.812739909352899248e-03,-5.763782804050816442e-04,1.425983428955078125e+00
5.906462095843187932e-01,-7.396036043717367781e-01,6.081670796585448846e-01,1.278983201606034414e-03,-3.772312360848211442e-03,8.979093220876140785e-03,1.339204311370849609e+00
6.375662176033021211e-01,-7.590393374267638826e-01,6.209392159808108103e-01,1.152984425826017977e-02,-5.011016979104689767e-03,5.286358752631408267e-03,1.388567686080932617e+00
6.421792799425025677e-01,-7.708090604516751876e-01,6.570890815115476569e-01,3.480011042355850900e-03,-7.395479508198513595e-03,3.908059591416004354e-05,1.420572519302368164e+00
6.412078170207549110e-01,-7.701023765057913861e-01,6.617592101016458450e-01,4.005668474709314815e-03,-7.965330795239922157e-03,-2.341710301173578149e-03,1.421786904335021973e+00
6.438077593480813210e-01,-7.661479766839731642e-01,6.467141321215458261e-01,4.485008161794135778e-03,-6.918722693583608495e-03,-4.476526438701455574e-04,1.411483645439147949e+00
6.456873391275615992e-01,-7.640025932376091067e-01,6.536402909961485097e-01,6.564450209177968669e-03,-1.553864553303426106e-02,-2.930021131528406757e-03,1.413994193077087402e+00
6.682417625248209259e-01,-7.519719214963296317e-01,6.299927905812463536e-01,6.085144084815905831e-03,3.546351680262870443e-03,1.552799112939041905e-03,1.401536345481872559e+00
6.510480754226557476e-01,-7.792266921666370916e-01,6.462458786543792133e-01,1.794201759280249610e-03,2.699261750150807031e-03,1.967121537693348673e-03,1.427894830703735352e+00
6.424569364049752540e-01,-7.726797598388348565e-01,6.467822489976973177e-01,6.299792000103117406e-03,-8.850214566003957264e-05,4.196354202552530534e-03,1.417364954948425293e+00
6.483882662395702434e-01,-7.782620154737941442e-01,6.482129340335638368e-01,1.117107526439133167e-03,-4.415373690309577905e-07,-1.105704838693826299e-03,1.426565170288085938e+00
6.444330809789795556e-01,-7.699206322669048808e-01,6.356056180684489521e-01,1.093641968195243654e-02,5.488150037609388493e-03,7.117422315508417771e-04,1.410120487213134766e+00
6.553394046174327858e-01,-7.652275412257625309e-01,6.393042249717366676e-01,-3.820515601980956858e-03,-1.160716125365392204e-02,-3.324183735976593990e-03,1.412787914276123047e+00
5.968189039562994402e-01,-7.471615471523654906e-01,6.090291988521099320e-01,-2.906658494832293702e-02,-2.558117063060932547e-02,-2.820212262695942496e-02,1.352673888206481934e+00
6.295571671416062554e-01,-7.645525712901206639e-01,6.356441761480984276e-01,5.459903998725861886e-03,8.751039984375137779e-04,-1.494829528117528998e-02,1.397435903549194336e+00
5.499523429765210691e-01,-7.621126778013999070e-01,6.683748370782808257e-01,2.694268996775086092e-02,2.417745356322769171e-02,-2.055027519456652588e-02,1.376994848251342773e+00
6.497378496584076402e-01,-7.745092782956297661e-01,6.452882696892756620e-01,-9.566351587537656449e-05,-3.562800432526790507e-03,-4.460903342683525223e-03,1.422061920166015625e+00
6.403404425076990591e-01,-2.855986244627877202e-01,5.612388775079423242e-01,2.900647617282146092e-03,-2.669285881976278443e-03,-1.742631793157542464e-02,8.895699381828308105e-01
6.163023123703432748e-01,-6.747643105675775743e-01,6.435574744670794489e-01,-3.265643892962898781e-02,2.008524713940449541e-03,-1.088827601498989616e-03,1.306138992309570312e+00
5.895045703656339731e-01,-7.321076487066087157e-01,5.948841131199359422e-01,-3.191267050033463285e-03,-1.704509515225716360e-03,-6.028175045445469636e-03,1.324366211891174316e+00
6.282092474905613955e-01,-7.729497302952533788e-01,6.365682371617058521e-01,-7.370917504479472353e-03,1.678575965370383751e-03,-5.923882405867201498e-04,1.405418515205383301e+00
6.429648946497515949e-01,-7.702174123416776208e-01,6.334953289423445044e-01,3.000954263511403791e-04,-5.928527350919280021e-03,-9.058985616494585284e-04,1.408509850502014160e+00
6.410441922386056479e-01,-7.797367627123888978e-01,6.472112724542206097e-01,-2.564080737940201398e-03,1.164088998776053588e-03,2.615329510779220139e-04,1.423882961273193359e+00
6.398098373711873510e-01,-1.626679086264213314e-01,5.599796088641881830e-01,-1.165900733714074350e-01,-1.734023159979069389e-02,-2.974017279374499903e-02,7.941137552261352539e-01
6.866774789386098643e-01,-7.422682914166961465e-01,6.180161342282217696e-01,-6.616420962877327160e-04,2.881171890326791971e-03,-3.735510417592397990e-04,1.395891666412353516e+00
6.364815261437782867e-01,-7.709476027607343740e-01,6.398631240587490110e-01,-2.630953505404145403e-04,4.426041082803491844e-03,-6.464851446063816717e-03,1.409188389778137207e+00
5.846350787948545458e-01,-2.501347658149615238e-01,5.572302417895133031e-01,-7.857775725983469350e-02,1.074593021755622206e-02,-3.394629391747376601e-02,8.348903059959411621e-01
5.859270180927413918e-01,-7.287959731448938605e-01,5.845412123257491821e-01,-2.916430999354133538e-03,-5.561550971078991698e-03,-1.380406082188576728e-03,1.314077854156494141e+00
5.634178670861877958e-01,-2.940767341524652689e-03,6.216834288923229757e-01,2.428184504494784735e-02,1.657141201679953463e-02,-2.013903000532156484e-02,6.008040904998779297e-01
5.212541969875537085e-01,-8.514052141390149320e-02,6.452873859419727687e-01,-7.955565177263272669e-02,1.844584910646834830e-02,5.177003453637245289e-02,6.973953843116760254e-01
5.890446073440899211e-01,-7.372750033420188975e-01,6.035235981839128794e-01,-1.047561262412484602e-02,-7.414108537041504132e-03,-1.801328524749533366e-03,1.333806991577148438e+00
5.644133689941416288e-01,-2.246220670346186221e-01,6.387251975439653950e-01,-1.539719821507790076e-01,-8.687342071092210571e-02,5.647050072459318740e-03,8.835114836692810059e-01
6.071259958566055381e-01,-7.380208591287243935e-01,7.289948674613303536e-01,2.271631303120563369e-02,2.716839902159788600e-02,-5.346876194693533924e-02,1.414405465126037598e+00
5.921630111191173995e-01,-7.379410807571629149e-01,6.121521900981075071e-01,1.865931299674721379e-03,-8.536722020327687510e-03,-2.878758898877020918e-04,1.340296030044555664e+00
5.918969954780753939e-01,-7.254717408202396856e-01,5.831467854925777017e-01,1.375078055749305193e-03,-5.726531643278251829e-03,-1.436376345863166724e-03,1.313057422637939453e+00
9.204825769918386635e-01,-9.040797802563365071e-01,1.186117186099112236e-01,-9.879505304220717425e-04,2.197850216004206825e-01,-3.530520022741830827e-02,1.630220770835876465e+00
3.136846783351602275e-01,-5.449428705037586695e-01,8.192852673235958560e-01,4.755979191286250490e-02,6.018681567672006655e-02,5.282081993964439504e-02,1.205412387847900391e+00
1.455868129962952506e-01,-8.155021538231028710e-01,1.139432695291074271e+00,2.553009637539344762e-02,1.712749030882920742e-01,-4.143039022138016864e-02,1.720960736274719238e+00
6.403136445906969509e-01,-7.664005613696783792e-01,6.426830549969551054e-01,-4.426042758618366083e-04,2.290769932567837414e-03,-1.232879425782466322e-02,1.408068180084228516e+00
3.399187534037533265e-01,-5.677976647623883544e-01,7.812276282796060123e-01,2.626102024676380542e-01,1.280996368558546816e-01,1.735226920517285096e-02,1.294723987579345703e+00
6.005025472384537544e-01,-7.725860448266964609e-01,7.661466727970592805e-01,7.453704909978001170e-02,6.394966584689373845e-02,-3.450777528065052113e-02,1.474029421806335449e+00
6.652309196966214033e-01,-7.658482940613541290e-01,6.386742097559432452e-01,-2.436916588363770102e-04,1.200504738944879052e-02,4.379520483285572613e-03,1.418160200119018555e+00
5.863539250261831093e-01,-7.254650771918740304e-01,5.807946580832195060e-01,1.434949480479896463e-04,-3.452184419206623476e-03,8.648414947990247601e-04,1.309062719345092773e+00
5.844545391114566169e-01,-7.378306164915421350e-01,6.265624961850910779e-01,1.284388205876741676e-03,-5.917977018100468653e-03,8.920381933193015714e-03,1.343963742256164551e+00
6.479325231263752816e-01,-7.704167162178082728e-01,6.479825516197827984e-01,4.777602806524013090e-03,5.005101735979959783e-03,7.866216885347384474e-03,1.418490290641784668e+00
6.549690913563404049e-01,-7.695730467749680725e-01,6.419432716052668741e-01,6.790256838889120218e-03,1.113000418357441412e-03,7.446357023116564888e-03,1.418182849884033203e+00
6.183684187647937591e-01,-7.577981487582973186e-01,6.246176209509870514e-01,5.625266067083414855e-04,3.403997135362502643e-03,9.449446246540104538e-03,1.379411816596984863e+00
6.684080320130956210e-01,-7.645869011917696412e-01,6.366381643376087807e-01,-2.337940689831136815e-03,8.441024593586437044e-03,1.049343528325693414e-03,1.417459368705749512e+00
6.624554605768770976e-01,-7.654936145248476542e-01,6.440184924769125629e-01,-1.565803128018995738e-03,1.668875154573853589e-02,3.758846033279699891e-03,1.419132351875305176e+00
6.203731855618845881e-01,-7.521995773491891857e-01,6.234328139575602279e-01,-8.606398537759069392e-03,9.503341743489346696e-03,1.449684475923900505e-02,1.374513983726501465e+00
6.269242310317499900e-01,-7.409827657590587480e-01,5.728555589356378874e-01,1.798438333874426490e-02,-4.038844287713935777e-03,1.141471643069616676e-03,1.342071294784545898e+00
5.979624401681696844e-01,-7.550666307330726745e-01,6.272451508946028653e-01,-9.270595460911622634e-03,4.434467119592807975e-03,1.450397399497721680e-02,1.368251919746398926e+00
6.540294237357004992e-01,-7.703151757302224567e-01,6.408315621269393692e-01,-3.053106878892738844e-03,-1.024914887631546249e-02,5.747322986306009976e-03,1.417947649955749512e+00
6.482695109066525241e-01,-7.781785973646373478e-01,6.418509443725541885e-01,3.501006464192070607e-04,2.799554004396208329e-04,1.790342351516152446e-03,1.423253297805786133e+00
6.203447172878866489e-01,-7.644715553508905082e-01,6.377274268168440230e-01,-4.679383177241170158e-03,2.861057540886402257e-03,6.080485421108581222e-03,1.393661141395568848e+00
5.838469076069916497e-01,-7.533512694992059444e-01,6.244675360217200044e-01,-1.582733734187768970e-02,1.536230850254467241e-02,1.506981617754886080e-02,1.358752250671386719e+00
6.421936540969968021e-01,-7.696023888234525545e-01,6.408341031885772532e-01,1.923013717228450568e-03,-9.281922246297862056e-03,8.762631265728688945e-03,1.411293864250183105e+00
6.687513972902016102e-01,-7.468457805633109681e-01,6.281953339375738743e-01,-3.964843919849913266e-03,4.329127124892498575e-03,-1.748168414146220333e-04,1.395798206329345703e+00
6.850000064009140743e-01,-7.203247559667969036e-01,6.145102247488161140e-01,1.910145612175424834e-02,6.500912657194504729e-03,-1.406714522152906731e-03,1.371886610984802246e+00
6.780049806341154062e-01,-7.546729339169740980e-01,6.270026012656468861e-01,3.337524000244441753e-03,4.874438827036983203e-03,8.121932976822700094e-04,1.407907605171203613e+00
6.847629211933792259e-01,-7.464057524832564683e-01,6.323802873709347683e-01,1.044769727698409596e-02,3.360987754027796838e-05,-5.351159327523918874e-03,1.405856609344482422e+00
6.339605354793653724e-01,-7.705860935093746811e-01,6.446015250105077143e-01,-5.745090205675023026e-04,2.347190433548070575e-03,-7.400233152804273559e-03,1.409961700439453125e+00
6.089673420496071188e-01,-7.507437916594484895e-01,6.102671875414515945e-01,-7.844071477614782129e-03,-1.590400066876006312e-03,-7.171130054280173624e-03,1.360488891601562500e+00
6.482043912467669866e-01,-7.734481782291900975e-01,6.496388858577413217e-01,-2.448208881426250025e-03,1.078963893684990044e-02,-3.090173298620509709e-03,1.422509551048278809e+00
8.271900273255532454e-01,-9.479849882324803412e-01,2.453901359523708581e-01,9.874822622519404194e-03,-3.611315959933508180e-01,-5.421933807244384493e-03,1.687770605087280273e+00
1.051667312410256017e+00,-9.539423855074689040e-01,1.794249824111702196e-01,2.664455970323867037e-02,-3.463513627413506435e-01,-2.559680250812774657e-02,1.843331933021545410e+00
6.286928035319301333e-01,-7.378435956734501477e-01,5.608162823052238455e-01,-1.054708014826358752e-02,-1.814178582893512595e-02,-1.982064355840751357e-03,1.334393501281738281e+00
8.095816150405782397e-01,-8.023875345354665178e-01,2.534718789901487246e-01,-3.031583759575700102e-02,-1.392655858276654890e-01,-3.666716004225478026e-02,1.440918564796447754e+00
6.167772421648710646e-01,-7.582883073631417892e-01,6.217572471878661799e-01,9.833368951994052917e-04,-1.953271936940689714e-04,-9.735597007742381737e-03,1.377666592597961426e+00
8.052044748291284915e-01,-7.569767694532210101e-01,3.072754372502954912e-01,-1.806236601012533097e-02,-3.637536837927488054e-02,-2.993697247485898466e-02,1.384963870048522949e+00
6.611730940669808820e-01,-7.604590700641363776e-01,6.415531655809176836e-01,2.024140560398374547e-02,5.040701846425333331e-03,-1.959236453220006714e-03,1.412390708923339844e+00
5.534546311315465816e-01,-7.249418357687659187e-01,6.159576646676512279e-01,-1.318053226670501182e-03,-1.077766566443396148e-02,-8.780404069055121330e-03,1.310989260673522949e+00
6.131193867300973599e-01,-7.380830232669337576e-01,5.990349174884452843e-01,-3.218029297836059489e-04,-7.378302097472697225e-03,-1.792629008058785204e-03,1.344280004501342773e+00
9.324690616044331026e-01,-8.607209756992133531e-01,2.562598354960513580e-01,-1.191850646982681693e-02,1.381264924121693161e-01,4.701236990764739304e-02,1.588871002197265625e+00
5.573079517907498781e-01,-7.246916448486362405e-01,6.154191961544459577e-01,3.527360939255974213e-04,-1.175048546723083190e-02,3.320508506639592052e-03,1.312191367149353027e+00
6.261340108272329674e-01,-7.682706845233615578e-01,6.373210981519030760e-01,6.088183324384670650e-03,-6.120083247666643390e-04,1.125169031454330802e-02,1.400207519531250000e+00
6.822759357675893810e-01,-7.444208023149234688e-01,6.211908034802472445e-01,-1.777622493872533333e-03,-4.569109144223800455e-03,9.186857846256902974e-04,1.397182703018188477e+00
6.274193054556158611e-01,-7.303098550421812662e-01,6.695443970572481085e-01,1.916641253935377678e-03,1.194525503182762398e-02,5.764962432421479911e-03,1.379469513893127441e+00
5.617941511222730444e-01,-7.476638343225948669e-01,6.513705226169037577e-01,2.408109587018356090e-03,-8.840680829823780937e-03,-1.805073059718366804e-02,1.356919288635253906e+00
4.353744957136500560e-01,-7.599190019972512644e-01,7.435297357083212599e-01,-1.814250992189914841e-02,-2.222416593621507133e-02,6.830239602574361170e-03,1.376456022262573242e+00
6.024620665895104032e-01,-7.405312814918401099e-01,5.931127752690606991e-01,-1.685486080856366670e-03,5.030327172757989573e-03,-4.432995561440932603e-04,1.338374972343444824e+00
6.469063219856632241e-01,-1.300263836871187739e-01,4.820133247360670614e-01,3.810671610038129237e-02,-3.787139856169356722e-02,1.228618949402531801e-01,7.460882067680358887e-01
5.627795462868228071e-01,-7.444722324265431457e-01,6.448527366941713135e-01,2.471120055164112254e-03,-8.719347659517569585e-03,-1.681459144082970286e-02,1.350565910339355469e+00
5.989790806093898690e-01,-7.379995205039993067e-01,5.888281973917919299e-01,-1.067488991187112539e-02,-2.115207614461396199e-02,-1.897372852700901025e-03,1.332568287849426270e+00
3.715420609598902302e-01,-7.643039142691162580e-01,7.227902639262694384e-01,-2.518857428560504486e-02,-2.393393630673646966e-01,-1.054263739796794559e-02,1.409458041191101074e+00
2.165014068646670398e-01,-9.738588282914937277e-01,9.098948321235563741e-01,-2.686190244457681287e-01,-1.375018789854526302e-01,5.532835870594992635e-03,1.731017231941223145e+00
5.892909213051122919e-01,-7.303834034600478198e-01,5.817351780552555418e-01,9.084367030733578319e-03,-1.517760560862717843e-02,7.253094528695746765e-03,1.316329240798950195e+00
2.646632107261269740e-01,-7.899052704425690852e-01,8.399046039472143343e-01,4.046517164316856818e-02,-5.102714143486610648e-02,1.741822416741965057e-02,1.436413049697875977e+00
3.786514237233567504e-01,-1.182470156370977632e+00,9.675338664871090399e-01,8.054998526567344608e-02,-4.281327815596358000e-01,7.833490455401735664e-02,2.071465015411376953e+00
4.383602389716878545e-01,-9.282165559894457463e-01,8.502497395193300278e-01,1.422122979770563782e-02,-5.740794068372929992e-02,-5.933054662053384443e-03,1.615754604339599609e+00
5.845337545867490547e-01,-7.269049799447291349e-01,5.681981781160397871e-01,-2.650831702112091642e-04,-2.052967941759576212e-02,1.259056596599240430e-03,1.303834557533264160e+00
2.885501883320393812e-01,-8.167281736263953817e-01,9.344085660934468018e-01,-1.528474307986521785e-01,-2.420106718366363263e-01,-1.127141244025009481e-01,1.623740911483764648e+00
2.336751815377982877e-01,-8.789885322269924695e-01,8.863405630673633073e-01,5.758386740510604979e-02,-1.312727472479600643e-01,5.315703762809542016e-02,1.568538188934326172e+00
6.327388061635849104e-01,-7.565956242959172018e-01,6.169995539634682835e-01,1.036957015955954249e-02,1.487947716121900375e-03,9.533087300869877607e-04,1.381652235984802246e+00
3.369200257913847474e-01,-7.400075640531162957e-01,7.695795606322233251e-01,-1.040432371139049170e-03,-7.365591340869590692e-03,7.537523061354695596e-03,1.346568465232849121e+00
5.876123752728785732e-01,-7.413429544038625529e-01,6.111032487856962181e-01,1.673047589772582106e-03,-1.064439883564586437e-02,1.750301724301863565e-02,1.341327667236328125e+00
5.814262550444919686e-01,-7.344266728497010899e-01,5.870972459293490875e-01,-4.203683867210533144e-03,-1.518699323329499376e-02,-6.761299933567603559e-03,1.319031953811645508e+00
6.134718350236056938e-01,-6.332331877000685338e-01,6.587005996651429385e-01,-3.794999091946638092e-03,1.834245485834730752e-02,2.843500016623632526e-02,1.271292328834533691e+00
6.471603817345148446e-01,-7.558957615415425879e-01,6.549834521834835277e-01,7.514872492157249548e-03,-3.575555667462503029e-03,2.280552593793211749e-02,1.407612204551696777e+00
6.396319658483677895e-01,-7.636732941416900511e-01,6.584775734242114265e-01,-5.649054784821075890e-03,6.676090316855147130e-03,-5.478906814561390962e-03,1.412935376167297363e+00
5.934324344009491714e-01,-7.313668151464287615e-01,5.885533839771301956e-01,6.181271264248111574e-03,-3.353970055855098279e-03,4.956527914823790140e-03,1.322450399398803711e+00
6.359472097163091364e-01,-7.631269514983803903e-01,6.319956398107673401e-01,4.980656685128111334e-03,-6.290514080821796826e-03,1.283065708915589673e-02,1.397348403930664062e+00
6.358893973027786028e-01,-7.614198398892113584e-01,6.732466451072115499e-01,-3.299929308998801104e-04,1.001909064106337906e-02,-1.895984615508612041e-03,1.416467666625976562e+00
6.767509371414074382e-01,-7.446911233566521071e-01,4.402897363181179080e-01,-2.823896189569453236e-03,-7.417888358066131171e-02,1.115467766169461056e-02,1.325594305992126465e+00
6.205872711477693482e-01,-7.599623638844098528e-01,6.085167786739560380e-01,1.053429426744869951e-03,-2.575665701879240911e-03,1.053532395652873911e-02,1.374683737754821777e+00
7.810365230919784629e-01,-7.581281050771024876e-01,3.518710702284099101e-01,-2.793731372488002934e-03,5.948473534299174303e-02,2.517650830913449600e-02,1.380287885665893555e+00
6.265342855047181247e-01,-7.497100574830012354e-01,6.690330233681274219e-01,-4.544199412904489747e-03,1.172414777031424108e-03,-4.279012108208446116e-03,1.398021578788757324e+00
6.314611150716511467e-01,-7.657260272321031458e-01,6.273166775232514869e-01,5.803477644928068876e-03,-2.665223952699636179e-03,3.672915194139748669e-03,1.395177841186523438e+00
6.202478030536902054e-01,-7.601486992829314948e-01,6.215769230639687226e-01,1.334967452352160125e-03,-7.185108554719992109e-03,1.813053630958955803e-02,1.381476521492004395e+00
6.429170909876604778e-01,-7.756242348060191638e-01,6.426918010722797447e-01,1.387294046219068357e-03,2.873189889133249833e-04,1.787944283311465512e-03,1.418434143066406250e+00
3.018894370475403433e-01,-4.500966209111623151e-01,1.030204079827440555e+00,-1.693107988254949348e-01,-1.776267617398731846e-01,-1.017548631402725029e-01,1.362102031707763672e+00
6.313135622649477252e-01,-7.668357474209294145e-01,6.791739253968714918e-01,-5.561991745719976725e-03,6.482967461805494956e-03,8.168491225961346802e-03,1.422830700874328613e+00
6.249438981906192403e-01,-7.588000525148959063e-01,6.807834272245573137e-01,-1.934926945152368270e-03,2.659963955198336224e-03,4.654545225033183443e-03,1.412526249885559082e+00
6.461371270271469847e-01,-7.677989329205938684e-01,6.570394205526568498e-01,5.813476748825495248e-03,1.479700681497353280e-02,6.847822716336438020e-03,1.419735193252563477e+00
6.460771362254353889e-01,-7.585103357824963810e-01,6.684300416325079652e-01,-2.367814234544680582e-02,-1.284321071903857107e-04,-4.347326529666648665e-05,1.416490077972412109e+00
6.522388357102864020e-01,-7.686180307474750339e-01,6.429905920134570962e-01,4.547540132134288084e-04,9.256875970750136004e-03,1.234269403356906981e-03,1.416347980499267578e+00
6.429787372876507590e-01,-7.695906059987566161e-01,6.301373666240124294e-01,-1.129348125531579386e-02,1.052511553707541000e-02,-1.001519495505930751e-02,1.406553745269775391e+00
6.573600927949088124e-01,-7.746842219568464971e-01,6.443925024307121108e-01,3.587549960862279272e-03,8.293107472898434904e-03,-6.628268264689674678e-05,1.425690650939941406e+00
6.427400000916918543e-01,-7.711932261576640579e-01,6.321104734860325536e-01,-1.222097545785385099e-03,5.526189822413254613e-03,-5.509292792284626629e-03,1.408715009689331055e+00
6.498122415774123528e-01,-7.643481910321779926e-01,6.446552897926702830e-01,5.556967974077380934e-04,1.053290915040029814e-02,9.991394504379694924e-04,1.411708354949951172e+00
6.383348918755460399e-01,-7.432875400528096144e-01,6.590619816055767188e-01,-4.373944789655638023e-03,1.507046143175843830e-02,-5.035961361119432357e-03,1.392394304275512695e+00
6.357577718752857043e-01,-7.513354787936795676e-01,6.409467397916368547e-01,-3.919671181445976712e-05,1.551238627102654232e-03,3.842805146706910428e-03,1.389713525772094727e+00
6.831510895324239829e-01,-7.603758659483381699e-01,5.798298049447463409e-01,-1.457938086563307679e-02,-6.463664188399372533e-03,1.962882160311723440e-02,1.395427227020263672e+00
6.259225626818372135e-01,-7.355592599198415016e-01,6.421574264074387806e-01,1.109174966719652863e-02,2.695275002729198826e-03,-5.671068807453361581e-03,1.369849324226379395e+00
6.647019293999300027e-01,-7.312328470865127050e-01,4.764459142029840999e-01,-5.337830646026639307e-03,-2.777655241318789658e-02,-3.107865141337962187e-03,1.312901377677917480e+00
5.851989424618273539e-01,-7.718459454209993797e-01,6.652303855202262861e-01,1.180677752505863987e-02,-7.401653466042234543e-03,-9.585060002398929427e-03,1.399085521697998047e+00
6.424873302328006908e-01,-7.748518991698828406e-01,6.463821412964791957e-01,-6.765553911164217532e-03,2.639279123939417340e-03,-4.903345443086739100e-03,1.419371843338012695e+00
5.340554066423083279e-01,-7.742525454871961310e-01,5.984594489404718720e-01,-3.395215291939808477e-02,-9.795319131760840681e-02,-1.105907825141135697e-02,1.353767871856689453e+00
6.374852256711414089e-01,-7.581816424879709304e-01,6.067696818240999601e-01,-1.237265597074941118e-02,-4.178751060072898559e-03,2.518650257980861815e-03,1.380757570266723633e+00
5.986686286242915989e-01,-7.662067617022055854e-01,6.505724584582521786e-01,2.513752197296259365e-03,-2.281134761937190624e-03,-1.594394933953735202e-02,1.391839861869812012e+00
5.998401045755203942e-01,-7.282279216510655351e-01,5.747572701369202397e-01,-1.315561058640338059e-03,-7.172734038759926746e-03,-3.176961417177238890e-04,1.315766692161560059e+00
5.793083139766876943e-01,-7.444332599945442386e-01,6.278708682654206008e-01,9.409246583374222209e-04,-7.618276117223066538e-03,-1.538000870865405094e-02,1.349007368087768555e+00
6.234468459063173817e-01,-2.223711742863430096e-01,9.317019795346730415e-01,1.656020678022391418e-02,8.175457899356598779e-02,-1.832740105052317603e-02,1.045485019683837891e+00
6.378065097264389305e-01,-7.523874772940719602e-01,6.707155275113629855e-01,1.696953650124258207e-03,-1.057905217154004630e-02,-1.106382489331016915e-04,1.407059550285339355e+00
5.956402987160378526e-01,-7.530977895783866893e-01,6.254506993443020857e-01,-1.367050207894673908e-02,-6.077139431679499937e-03,-1.793186582235684404e-02,1.364487290382385254e+00
6.420190224900681475e-01,-7.689909668667256337e-01,6.249739301603417507e-01,-1.203553789364146358e-02,3.228528065922414269e-03,-7.592205479552626216e-03,1.402792811393737793e+00
6.678272672658540632e-01,-7.359469807441146871e-01,6.285367257108347427e-01,3.973393283375001826e-03,1.021164985370518093e-02,-1.858077516604268774e-03,1.384680986404418945e+00
5.933911478494091618e-01,-7.983471318850134946e-01,6.460167398956661033e-01,7.682420171455693093e-03,-1.820497677889280352e-01,6.004574620787108546e-02,1.457177400588989258e+00
6.395617220060838548e-01,-7.540309549550349155e-01,6.600785966651661063e-01,1.964543009372322815e-03,-3.660655170838016982e-03,-6.035559153185127146e-03,1.404020905494689941e+00
6.128732300989212511e-01,-7.585261489868441176e-01,6.609549370321434747e-01,-8.642483721032177824e-03,-2.683616066604998206e-03,-3.174709629679220175e-03,1.396160125732421875e+00
6.059729636881683312e-01,-5.068255967865887834e-01,6.287776400488267470e-01,-4.925522793580347503e-02,-1.141997876311094499e-02,9.051206497933662887e-02,1.138623952865600586e+00
6.219662597990386343e-01,-7.660780703558069948e-01,6.357548576024958376e-01,-8.996974472762379188e-03,-2.614255741015907280e-03,-1.294135618309095494e-02,1.395264148712158203e+00
5.494792922584135209e-01,-7.275158521542069989e-01,6.173169146864276868e-01,2.780583861682513203e-04,1.106084719689471273e-02,9.413344681582220055e-03,1.312470912933349609e+00
6.075840775428867913e-01,-7.233348619764373710e-01,5.567314802658869244e-01,1.835521437226712361e-04,7.312945937564447468e-03,-4.685358346648940708e-04,1.306296944618225098e+00
6.522553069716563456e-01,-7.134009895537414270e-01,6.388879348198918118e-01,2.825003018029860133e-02,9.135997489602575364e-03,5.403019839125202273e-04,1.359994888305664062e+00
6.631880797490308233e-01,-6.469515467851764123e-01,6.200925547509448243e-01,2.500494177303761584e-02,1.567421733010420162e-02,3.470058212301503024e-03,1.290159225463867188e+00
6.536729209119427342e-01,-7.685310756999499393e-01,6.619758515411673372e-01,1.389161965638653455e-02,-3.775569757823301828e-03,-1.004452544424988200e-02,1.426697611808776855e+00
6.139523674719823410e-01,-7.590777773869669121e-01,6.367661035108256318e-01,7.983416388806237980e-04,-1.530690532708570747e-03,-1.577063180992019018e-02,1.384850621223449707e+00
6.782253360319241420e-01,-7.010493159571264954e-01,6.165381718386988563e-01,1.844622781025799865e-02,6.987887837384888128e-04,2.602727589471845893e-03,1.349875092506408691e+00
5.073179690579927570e-01,-7.584128152753635277e-01,6.652345068706304598e-01,2.535058393532333646e-03,1.037107050848144474e-01,2.992674356173674610e-03,1.363526940345764160e+00
4.649119383847822862e-01,-8.359743022859863482e-01,7.673797842426282045e-01,1.581091910665538211e-02,2.467182135322597281e-01,-1.114345834031211895e-02,1.536554694175720215e+00
7.128875825045174475e-01,-7.532187373998249225e-01,4.832584057907226005e-01,-1.042737372656218735e-02,-4.287622155928321084e-03,1.094013939724966175e-02,1.366117477416992188e+00
5.260182064194063312e-01,-7.588409435764014166e-01,6.930201845518547676e-01,-2.387905751775258947e-02,-1.053007096291799197e-04,6.673685188757775416e-03,1.376652121543884277e+00
5.301168369193476337e-01,-7.387994175980353573e-01,6.342512902968449051e-01,1.426552549676331737e-02,-1.882742920542077730e-02,1.979467365528635864e-02,1.325133919715881348e+00
6.098264119859003740e-01,-7.568602908270714025e-01,6.739055316462788658e-01,-8.634030341511268053e-03,2.710473871080707701e-03,-1.062034527793952535e-03,1.399915695190429688e+00
6.805256192873468946e-01,-7.232655527756609581e-01,6.175400595891430422e-01,1.158616784422905437e-02,1.841884812010587255e-03,3.312572931478124515e-04,1.373532533645629883e+00
6.213748030650938503e-01,-7.672202905388828542e-01,6.412864397200910282e-01,-8.450781529485220517e-03,1.033617457870501842e-03,1.317989397362761932e-02,1.398921251296997070e+00
5.001274233591688212e-01,-8.806541793212894209e-01,7.225508741086907882e-01,5.225373599622415259e-03,1.848279369850647502e-01,2.848997047391409534e-02,1.538879275321960449e+00
6.284906113637341862e-01,-7.669738207470607749e-01,6.429261566058346311e-01,4.974069040361880738e-03,5.393326738081652590e-03,1.012160186833852005e-02,1.402904987335205078e+00
6.167727229294988067e-01,-7.559214511149598970e-01,6.381311062136555412e-01,8.474396364492253145e-04,-2.126745276306535575e-03,8.838563581594223104e-03,1.383587360382080078e+00
6.209186032042748327e-01,-7.592716400527225185e-01,6.117153928596519297e-01,1.110014030617377696e-02,-3.302568301141031899e-03,-1.765501468808594859e-03,1.375761389732360840e+00
6.226919117356017885e-01,-7.497378201801651043e-01,5.985856478247538748e-01,1.605300216068662397e-02,-6.216336213066071120e-03,7.941396043566877408e-03,1.360932946205139160e+00
6.018114908710125999e-01,-7.588032750912755420e-01,6.486982275627826144e-01,-5.115648273304312758e-03,-3.146832461520240008e-03,1.507069645759200049e-02,1.384938716888427734e+00
6.498117993210869026e-01,-7.618152425316443432e-01,6.214855612951644126e-01,8.839400417986103056e-03,-2.177061363737937440e-03,1.416140498837942761e-02,1.397983312606811523e+00
4.115492469842063628e-01,-7.503999557711132917e-01,7.009643076184152166e-01,-1.546064834259075309e-02,8.457426113061095041e-02,7.957555600354207156e-03,1.338857054710388184e+00
6.455589899026501488e-01,-7.753898495305129313e-01,6.414612637811518692e-01,2.593956699951840972e-03,-1.833112696920970988e-04,1.159411501958318392e-03,1.418913006782531738e+00
5.528801612882527916e-01,-7.670726608707415517e-01,6.638979378123862629e-01,-2.597262032680509522e-02,2.212723958470218244e-02,1.861101439098932289e-02,1.380460143089294434e+00
5.865162031462988201e-01,-7.534627329448164712e-01,6.266160530232983694e-01,-2.493612757659482634e-02,3.698096845691080381e-02,3.036067549029754231e-02,1.363678097724914551e+00
6.318952755364952711e-01,-7.621186840655004291e-01,6.200209124970718078e-01,-6.460628693155935805e-03,3.075919711482129164e-03,1.094298175683941672e-02,1.388299584388732910e+00
6.701768072772920082e-01,-7.642961569348829531e-01,6.393062338097381669e-01,3.998978830585805250e-03,4.042696421824148664e-03,4.279901624238503788e-03,1.419342994689941406e+00
6.577966319143963014e-01,-7.658082561191721371e-01,6.427309429860419421e-01,2.625760258779900706e-03,1.078375388961959336e-02,4.179166341592994126e-03,1.416281104087829590e+00
6.433944681485537220e-01,-7.712844552588825620e-01,6.342182906480529070e-01,1.522254899877654229e-04,-2.339321786010616566e-04,1.087025952872562075e-02,1.410238981246948242e+00
5.316529571613963778e-01,-7.405722707884229150e-01,6.339928223548843000e-01,-1.431262522960329020e-02,1.690164745130971757e-02,1.807499603847005296e-02,1.327283501625061035e+00
6.273310519942880692e-01,-7.505688973582921308e-01,6.826049130901274964e-01,1.977657680168520317e-03,-7.497032900341190319e-03,-2.204549978900777370e-03,1.406421065330505371e+00
5.265177491743409099e-01,-7.378606705955531586e-01,6.034322413212989122e-01,-1.454463366508929913e-02,9.441245358260699772e-02,1.026673742457929160e-02,1.315108180046081543e+00
5.009729891775298594e-01,-5.359644236617945312e-01,9.561601483649257993e-01,1.696834802882826732e-01,-1.822120251089671406e-01,1.024468129423827673e-01,1.404244422912597656e+00
5.992463632418481012e-01,-7.601210450132697138e-01,6.451193323812159930e-01,2.380315472564002287e-03,-2.407878720514634082e-03,-1.662702729263133145e-02,1.383186936378479004e+00
6.638471508110600494e-01,-7.658725514386569566e-01,5.784823867631244676e-01,8.969815481668306709e-03,-7.480679608290533890e-03,-8.031736225252432415e-03,1.389223098754882812e+00
6.009808408840523475e-01,-7.398362839139016600e-01,5.919006679095439871e-01,-1.190986289622178017e-03,-3.988823328502122921e-03,6.212114430914281171e-04,1.336320042610168457e+00
7.481205590486131873e-01,-1.436518712906815765e-01,9.001548024908163637e-01,-3.233890288173648254e-03,-7.479188461124812448e-02,6.652281738826484880e-02,9.919884800910949707e-01
5.839631830402036705e-01,-4.357025444987339124e-01,6.173450369450466102e-01,-7.317829535134687258e-02,-4.001121213528432627e-03,-1.420380093616699846e-03,1.044504761695861816e+00
6.609794283970082951e-01,-7.657501125684100796e-01,6.364096088548230057e-01,1.088297244067509655e-02,-7.720691583757709501e-04,6.693282046607437578e-03,1.414778351783752441e+00
6.681739411891842728e-01,-7.470192033893147121e-01,6.337135149991862670e-01,-1.724327904566071894e-03,2.148695374134974249e-03,1.497889830747475663e-03,1.398291945457458496e+00
5.715988180857447531e-01,-7.941996495741112660e-01,6.685626760914664679e-01,9.610528710347237321e-04,-5.987814757791672104e-02,-1.954004223830833886e-02,1.420966148376464844e+00
5.559699016767128965e-01,-1.540355735175331087e-01,6.037055728678405453e-01,1.943639867503296412e-02,-1.128231118679596384e-02,1.344850376749389398e-01,7.720446586608886719e-01
3.251407949568326239e-01,-7.386269261781787110e-01,7.719128496524163552e-01,3.989087884775503398e-03,-1.655809570418892570e-04,6.374269498552314998e-03,1.344112515449523926e+00
6.138401405538622679e-01,-7.398982584087167025e-01,5.734251676739436920e-01,-1.680788989363477329e-02,1.159747823748815548e-02,2.018930031129122660e-03,1.334463596343994141e+00
6.513685176360799467e-01,-7.652606230418068645e-01,6.489716025426943702e-01,3.854132080981277370e-03,-6.360469559811973358e-03,6.470267734200191127e-03,1.415535211563110352e+00
6.535514120966050555e-01,-4.483842233524647503e-01,5.880448683312671232e-01,-7.345782716231717691e-02,-1.554176399332707348e-02,6.077870588246526290e-02,1.083680868148803711e+00
6.092486275020753128e-01,-7.594596147841454759e-01,6.368238129818906135e-01,-3.777226529111885663e-03,-3.998730851223111782e-03,1.297441264613446825e-02,1.382917523384094238e+00
8.712624042707775018e-01,-7.216159221423945613e-01,4.263936539483613175e-01,1.744771961299834695e-01,3.818495136633150988e-01,-1.109966853092487632e-01,1.610050439834594727e+00
3.721019631451917831e-01,-5.869226271727482347e-01,9.859427787812006239e-01,1.757695784317976073e-01,2.004546861148596704e-01,-3.739552850079614493e-02,1.450049519538879395e+00
6.223564568442049305e-01,-4.393200569595130389e-01,6.777501235401515167e-01,-1.440064453516369525e-01,8.604750749857167230e-03,6.463583765012893834e-02,1.124279618263244629e+00
9.584125825663417642e-01,-8.739955145854250151e-01,1.314378168220161069e-01,-4.123593309284263875e-02,1.786776573151563005e-02,3.646867151535747309e-02,1.592576622962951660e+00
8.500282409647007542e-01,-8.188854149703517216e-01,3.307035256895017872e-01,1.065190452634345170e-02,9.506767127076150986e-03,-8.115011901012283979e-02,1.486146211624145508e+00
1.792037100799022675e-01,-8.465780486717358055e-01,1.103952951668953464e+00,2.061633804457329022e-01,-3.447655850774583152e-03,-4.413199874187238858e-02,1.728979110717773438e+00
7.746597116054887433e-01,-7.355869669726650129e-01,3.500261297306314079e-01,-1.460253547367478064e-03,-8.654603326188751652e-03,5.515284093500267930e-03,1.349140286445617676e+00
5.504257947537405382e-01,-7.405717928237677272e-01,6.550221603240803381e-01,-3.856343261277352108e-04,-1.035512139054644253e-02,1.511843557389598407e-02,1.346720695495605469e+00
7.403919535653086248e-01,-7.768993550455959296e-01,4.703612249953500468e-01,9.305106572823844402e-03,-9.479353963711313266e-03,1.234006520877541264e-02,1.402269721031188965e+00
8.506419252857507773e-01,-8.148476207834451923e-01,2.185609071383832758e-01,-4.718766788345711734e-03,-2.282961117375585103e-01,9.744077508794217468e-02,1.518409013748168945e+00
6.577304802059980027e-01,-7.723896304190844830e-01,6.405480869800931343e-01,1.545657863194629250e-03,-7.496553529473293752e-03,1.479412512585906924e-03,1.421670913696289062e+00
6.310687949953877052e-01,-7.553421994591305033e-01,6.716499909262154677e-01,3.189711480468210812e-03,-3.853492579381657263e-03,9.795739891343663676e-05,1.407167196273803711e+00
8.513077873876977453e-01,-8.495660493696201021e-01,2.938186685857707703e-01,-4.790381508293463375e-02,-1.881914157195386239e-01,1.900935847804564177e-02,1.539403676986694336e+00
5.155146325709973887e-01,-7.732373151463411975e-01,7.135729554284836462e-01,-2.477504304042949315e-02,-6.284938750747376922e-03,-7.130164039133972571e-03,1.399095892906188965e+00
5.017053563310747144e-01,-7.251111111688035571e-01,6.544515891616492498e-01,-2.072740001331499146e-03,-2.236030507387294988e-02,8.341298097542271597e-03,1.310543060302734375e+00
3.779141459635685374e-01,-7.684173455572917977e-01,7.727136514373268428e-01,-2.568876036451868405e-02,-1.517348280537662679e-02,-9.075369019181432281e-03,1.387599110603332520e+00
4.169506858874309496e-01,-7.641626619451906688e-01,7.567423235275585469e-01,-3.164842856809288452e-02,-2.843569311281361409e-02,-2.543551061218856171e-02,1.385348677635192871e+00
3.988700693314101708e-01,-7.671920824345875856e-01,7.564903977802345247e-01,-2.762819275877463274e-02,-9.776298908467220827e-03,-1.143026095474091938e-02,1.381147861480712891e+00
3.863698013147277566e-01,-8.345499896018045982e-01,8.598578319884521148e-01,2.972681593539000175e-02,-1.263204659316018719e-01,5.516771738349172255e-02,1.533811926841735840e+00
6.349067346754875274e-01,-7.635146409792975541e-01,6.715437435163584823e-01,8.601230221488451134e-04,-4.843226363215854917e-03,2.053376784863744729e-03,1.417125225067138672e+00
5.524378800798683820e-01,-7.624658049753743061e-01,6.741031314190886192e-01,2.869223155837087591e-02,-1.947616826489494135e-02,-5.334779195523829329e-03,1.381102919578552246e+00
5.123703702739207388e-01,-7.562524269686409228e-01,6.937803883861541898e-01,-3.687326178239692942e-02,1.478749643985376346e-02,-2.812851181096023053e-03,1.370114207267761230e+00
6.509565809304411754e-01,-7.606976827684136522e-01,6.124476728656249591e-01,-7.403253921047193639e-03,-5.182122322086503245e-03,-7.680427364320408998e-03,1.392950654029846191e+00
8.146974262704308467e-01,-8.348640074506809006e-01,4.948621569230479134e-01,2.049782636860888671e-02,9.444321245138241616e-02,-1.641742498741896941e-02,1.524659752845764160e+00
5.082994337363008208e-01,-7.526156120235737434e-01,7.018345645055709126e-01,-1.174907785789355450e-03,-7.857241118405720176e-03,1.302906110290252828e-02,1.368244290351867676e+00
4.035476753054632049e-01,-7.352357660666528627e-01,7.258488228687596244e-01,-2.338285527895986315e-03,-2.097037086979100864e-02,7.676482836692286732e-03,1.330131411552429199e+00
7.718685647430713059e-01,-4.141658222535965495e-01,2.884666103302602758e-01,5.146419119925037255e-02,-4.245626143709169825e-02,-1.249218832593857326e-01,1.061693668365478516e+00
6.471774333082326303e-01,-7.679353840693647903e-01,6.406191113778139101e-01,-1.219483633013509821e-03,1.514944576640959214e-03,1.017530502241182667e-02,1.411959052085876465e+00
5.995479994824362002e-01,-4.958572730468048251e-01,6.381097003985471972e-01,-2.427210507721360138e-03,1.248871268903337627e-02,-4.169451488288739710e-02,1.117739319801330566e+00
6.690935598637917092e-01,-7.382898719992677661e-01,6.334743211818256725e-01,1.894052701044401151e-03,2.219997720350133305e-02,-2.627482706084957858e-03,1.390459299087524414e+00
6.572605411313130475e-01,-7.612713093600638192e-01,6.446839176286092155e-01,1.475118592168640818e-03,1.962491191423717043e-02,-1.384154530883652864e-03,1.412698864936828613e+00
6.828965270149915945e-01,-7.524966564585523487e-01,6.304132246356882741e-01,4.280948955482680521e-03,3.007701228292377835e-03,3.573801148580449307e-03,1.409927129745483398e+00
6.331854070240017229e-01,-7.042803155289905082e-01,6.751379157902676065e-01,-7.388629463852360892e-03,-1.159831314667390291e-03,-2.396638745491580513e-02,1.359623312950134277e+00
6.853483742304649073e-01,-7.343344717035550362e-01,6.195379518717696321e-01,-1.820068096930849838e-02,9.782978595003224975e-03,-5.990439297687588302e-03,1.388448476791381836e+00
6.354326930760143544e-01,-7.497451422526555387e-01,6.636616989885046891e-01,4.981624222740711760e-03,-2.497861858819103598e-03,-2.095208202816427161e-03,1.399543881416320801e+00
5.823016234722147022e-01,-7.646315279368458562e-01,6.777199895805348095e-01,1.084016711971697369e-02,-4.637421925213302751e-03,-1.854221533176229203e-02,1.397606611251831055e+00
6.144505314192176826e-01,-7.559937285672668761e-01,6.490843573628471974e-01,-9.063494235932417764e-03,1.647358789060749491e-03,-7.944212911897706626e-04,1.388177633285522461e+00
6.701197381386821972e-01,-7.139457444385525209e-01,6.184483911671212475e-01,2.365595734010279838e-02,-2.284906634371563702e-02,3.371458011755573865e-03,1.360172748565673828e+00
6.262279192619936152e-01,-7.281177229852650035e-01,6.801478442005941538e-01,-1.698289781323278390e-03,-7.133924957620422884e-03,1.184673625950322801e-02,1.382305383682250977e+00
6.379479553280058557e-01,-7.034291947390820532e-01,6.441124140085043859e-01,3.052854437512497049e-02,-2.091707059517432937e-02,-6.621420801868945633e-03,1.346045970916748047e+00
6.003423853555609480e-01,-7.606121551874731601e-01,6.457183176435107308e-01,-5.014912343810409021e-04,4.194628436790684076e-03,1.681856708862611641e-02,1.384526252746582031e+00
6.554339190240636714e-01,-6.811113250960035836e-01,6.204029661675936058e-01,3.133669300215080611e-02,-2.251087322455486150e-02,-4.043432433498064284e-03,1.321088671684265137e+00
7.361821609146657064e-01,-7.626470557784249538e-01,5.401703284384131720e-01,-1.536075515371089148e-02,7.576304132009659999e-03,-2.954336496182738414e-02,1.412310123443603516e+00
5.880902639829976852e-01,-6.182967136187846879e-01,6.303440611027650853e-01,4.978728375907965492e-02,2.017175225384250717e-02,-2.544006466560916769e-03,1.231586694717407227e+00
6.538968205479955831e-01,-7.739456437122073096e-01,6.473858554365475859e-01,1.914094058027430599e-03,1.236190390679099173e-02,1.516559533554841374e-03,1.424765348434448242e+00
6.482293388176660898e-01,-7.782792513765530718e-01,6.471685718931934339e-01,2.622874073692827313e-03,2.610973304524552216e-03,5.692056030757840094e-04,1.425993204116821289e+00
5.190260581207218893e-01,-5.931154479731781670e-02,9.958999281464084863e-01,5.747698913612503402e-02,1.380980505483702936e-01,-1.632590336769935979e-01,9.923515915870666504e-01
6.809660228603424681e-01,-7.240438866173604104e-01,6.178751039815606472e-01,1.284525457630215049e-02,3.716587331916822515e-03,3.230944108961916040e-05,1.374745965003967285e+00
6.473385402802136479e-01,-7.789543090527588642e-01,6.469444922196885273e-01,3.497966986005915293e-04,2.797098125871765842e-04,2.315390365022919517e-08,1.426096081733703613e+00
6.464498645948302258e-01,-7.780908736308498330e-01,6.500634044855368998e-01,1.610289894331421844e-03,3.455380283005190546e-03,-4.427435038981220126e-04,1.426366448402404785e+00
5.525421112062937068e-01,-2.491275217851345314e-01,9.538832710288879246e-01,6.849525558617135246e-02,1.272708185988094265e-01,-8.774703639835390589e-02,1.100572109222412109e+00
2.233090630048138459e-01,-8.668708017023692980e-01,8.141103500388736647e-01,1.513547247379046787e-03,-3.362290078574868835e-01,-1.507483797669512300e-02,1.587909460067749023e+00
4.741497806269022175e-01,-7.564013950121618590e-01,7.426025952419378351e-01,1.325832034853484213e-02,-9.283981980781381635e-03,-1.676918831712557231e-03,1.384724617004394531e+00
5.827361935045072272e-01,-7.591265751961296937e-01,6.669584495942474378e-01,1.469349463378285744e-02,-2.389881568724315855e-03,8.970939615757437050e-03,1.386221528053283691e+00
4.807577224392026727e-01,-7.530043568202866577e-01,6.970002081074129219e-01,1.592964427085591600e-03,-1.845838552946806738e-02,-1.164317499723791817e-02,1.355417966842651367e+00
6.868421143935253825e-01,-5.800781015894640458e-01,4.443356747035281940e-01,9.229691700661840983e-03,1.832296326281762922e-01,-2.157879921145580415e-01,1.263854503631591797e+00
5.851187572868010722e-01,-7.274356441075431334e-01,5.811570724783658992e-01,-3.379606492006750288e-03,6.031244147615159520e-03,5.194591621537166708e-04,1.310633063316345215e+00
6.501061547561497456e-01,-7.772037195316390257e-01,6.458213672996213628e-01,3.344412710029748812e-04,4.675584686595413327e-03,1.772110441079241192e-03,1.425198793411254883e+00
6.436245641275153417e-01,-7.754548036974242553e-01,6.430006278436655176e-01,2.304827337574750883e-03,-4.821345864724636940e-04,8.695985339838576376e-04,1.418774127960205078e+00
5.762747678656594541e-01,-4.106304896160083429e-01,6.086440296152850760e-01,4.891765829006470417e-02,1.389510308221449802e-02,4.959615775626699530e-02,1.010995864868164062e+00
5.868200163540584491e-01,-5.268634627406721949e-01,6.235474095239936787e-01,-4.828197570148853694e-03,2.478348540558450094e-02,-2.866981802654770557e-03,1.133348941802978516e+00
6.823651803897408108e-01,-1.394986752888112802e+00,6.898145738070077249e-01,-1.065875283946015641e-02,-5.662506143190799701e-01,4.526784169252924886e-03,2.300704956054687500e+00
5.500840582114446820e-01,-2.633947965331685515e-01,5.880999027501571108e-01,-5.309778877351021359e-06,5.792031215427590266e-03,7.654030299770754608e-02,8.436788916587829590e-01
6.134348893304896189e-01,-2.293944923550800263e-01,5.742732927277358623e-01,2.748363360446770542e-02,1.476005314257439714e-02,4.980081777524675291e-02,8.302098512649536133e-01
6.621946716630067176e-01,-3.898985235372973701e-01,6.469249116981876657e-01,-7.668639863542865698e-02,-3.134762075978785468e-03,1.257211631934709306e-01,1.075247526168823242e+00
5.754851598910180055e-01,-2.268823968280325731e-01,6.086968060886159826e-01,1.857457772695318005e-02,1.596223816847715596e-02,3.864568692501921948e-02,8.233010172843933105e-01
6.560796988507309191e-01,-7.597672644173546486e-01,6.516898576721223968e-01,-8.760629524771553281e-03,6.029065251968861693e-03,-1.939952803485353768e-03,1.413781166076660156e+00
6.670187783191446895e-01,-7.657144785551528443e-01,6.384834255489408861e-01,2.344876760833962751e-03,-9.054645914799349174e-03,-1.496927576719624640e-03,1.418775677680969238e+00
6.128780360170076325e-01,-7.346913986788076167e-01,5.718540551801324368e-01,1.371945620580353187e-02,1.488949410771900871e-02,-7.716783190494003013e-03,1.328063249588012695e+00
6.120698838747338222e-01,-7.672839223705741896e-01,6.596378478663442735e-01,-1.268757561458849770e-02,4.191002226049260135e-03,8.897343097696082392e-03,1.404017686843872070e+00
7.217732603506665789e-01,-7.387815835663507080e-01,4.332586508838084383e-01,-5.269301165767154883e-03,-2.659960319830593709e-02,1.322847421109774914e-03,1.340627074241638184e+00
6.846678880789673904e-01,-7.025764049468612438e-01,6.031449434858711101e-01,1.606869258015258817e-03,-7.275798465035802388e-03,-4.326706178449926318e-03,1.348415017127990723e+00
6.541837062785067491e-01,-7.179227751132687407e-01,6.361168743348073473e-01,1.037611057075858538e-02,-2.981069112000334607e-03,6.159043522328947785e-03,1.363332867622375488e+00
6.577680604450361068e-01,-7.589418138348161813e-01,6.404863405852897484e-01,6.053256094090089801e-03,-3.071815646539452493e-02,-4.526360289684484839e-03,1.409214138984680176e+00
6.103887120208970618e-01,-7.514753569982500769e-01,6.468132556352097495e-01,-9.799811453009957957e-03,-2.221527161062143273e-03,8.072258286435349955e-03,1.380617260932922363e+00
6.847276924676535259e-01,-7.428995448340043328e-01,6.169507493823960242e-01,2.356979896411508322e-03,6.166712436713543341e-03,1.143968257363881490e-03,1.395022511482238770e+00
6.786473431412800572e-01,-7.188690814884611813e-01,6.273386880836612223e-01,2.694464389437238681e-03,1.578045544768282710e-02,2.552786273172269124e-03,1.372868657112121582e+00
3.597342464802324447e-01,-8.817022218009807899e-01,8.142026197646785590e-01,6.731866938428669733e-02,-1.555738436727756822e-02,1.226333101074541382e-02,1.525343298912048340e+00
3.764076929280875117e-01,-7.602370592364813273e-01,7.636565062583096086e-01,-1.066054698555820267e-02,1.113068116862035543e-02,-4.060728633685065786e-03,1.372169613838195801e+00
5.754332851688692685e-01,-4.230990285867199940e-01,6.128970510184768017e-01,4.096409816986113818e-03,-1.921874698551581662e-02,-5.339609942139346074e-03,1.018392443656921387e+00
3.781757848958512969e-01,-7.354448507101413179e-01,7.645194859110805430e-01,-4.563194878887922093e-03,1.769377885293114613e-02,-4.372186822812896938e-03,1.349337458610534668e+00
3.935231398746547593e-01,-7.665582731556296325e-01,7.789911469955236312e-01,3.185617309543602171e-02,2.428578480969045827e-02,-6.525958457742528883e-03,1.395166754722595215e+00
3.972863404660874620e-01,-7.712656152877048754e-01,7.895950954199970617e-01,-1.849037942369406717e-02,-2.931628428609796971e-02,1.605333101366126364e-02,1.407916903495788574e+00
6.546874755653584455e-01,-7.625186098918735889e-01,6.495377857819982781e-01,-5.354256101023688492e-03,6.063494049088949053e-03,4.120620433574652061e-03,1.414725661277770996e+00
6.737165574697028259e-01,-7.483866837729910015e-01,6.244982616030440026e-01,4.173222596810054370e-03,-4.187903067167629838e-04,-2.244754245037328382e-03,1.398168206214904785e+00
7.386403421131305658e-01,-7.545342146955422713e-01,4.694614464049636782e-01,6.016563601806589534e-04,1.174022619225009853e-03,-1.115896387148550446e-02,1.378577232360839844e+00
6.411023683655086014e-01,-7.417517491499073801e-01,6.416046486398345738e-01,-7.856234398867269209e-03,-9.012528972967536953e-03,1.120032605716612083e-02,1.383396387100219727e+00
2.386876108051460554e-01,-7.665542973290523365e-01,8.247686222848249482e-01,1.756677450483059774e-02,-2.924835393521082669e-02,5.747278193492948856e-03,1.395258665084838867e+00
5.812853859324647043e-01,-7.698579212960274809e-01,6.731522185692203619e-01,-2.554145325777252076e-02,5.694076503752846033e-03,-8.298519675538275353e-03,1.400147795677185059e+00
7.070490126249366902e-01,-7.494544135915583993e-01,4.434929423627940182e-01,9.504338282223209408e-03,9.208518405485538461e-02,-1.612417193997885828e-02,1.354061961174011230e+00
5.941067212454325119e-01,-7.648606508928593728e-01,6.651281708199106024e-01,1.614395205437904254e-02,-5.873274695571293648e-03,3.570757084842309751e-03,1.396164655685424805e+00
6.644065113307319193e-01,-6.689679191328113950e-01,6.204308687421881130e-01,-6.024520851088432244e-02,-2.736760683975232936e-02,-3.046515766183351646e-03,1.316946625709533691e+00
6.299029422620956442e-01,-6.123522413278802423e-01,6.456078474074100626e-01,-3.312668245439055054e-02,-3.205613566294224920e-02,3.915923355606743678e-02,1.254563450813293457e+00
5.147736529813398132e-01,-7.428361255959945453e-01,6.567940905406938201e-01,1.885208145315658834e-02,-1.591313466339988256e-02,2.176326911185271287e-02,1.335516810417175293e+00
6.385507450885676839e-01,-5.483139017579276020e-01,6.154965892713500919e-01,-9.261774897406255605e-03,-4.400119606862364086e-02,3.235485425772374746e-02,1.179416418075561523e+00
5.879430870460838898e-01,-7.661265231530736131e-01,6.983417154975403163e-01,1.621486192049494818e-02,-4.420890613253987758e-03,-1.010304864760822041e-02,1.412916660308837891e+00
4.745108731808638236e-01,-9.228257869205722663e-01,7.202847025081928756e-01,-4.073143917352978899e-02,-1.891501748549081208e-01,4.109994526187416009e-02,1.572819590568542480e+00
6.083888060985362944e-01,-7.340223354801844735e-01,5.575774192453033518e-01,-9.997207966818372898e-03,1.345007633066730088e-02,1.850023553641430563e-03,1.318063974380493164e+00
6.958123551046885291e-02,-7.578661710669333251e-01,9.428622153258576777e-01,1.406419179431579736e-01,-2.811872415937643685e-02,-4.725702518490138004e-02,1.496093273162841797e+00
5.912712941395059651e-01,-2.591982858878383311e-01,7.484304771033609693e-01,-6.631173435722426644e-03,1.236390114665252976e-01,-5.576010139290820539e-02,9.679751396179199219e-01
5.659420177566041321e-01,-7.440401223945561915e-01,6.271902223651832919e-01,3.375385785577255109e-04,1.468140197643254957e-02,1.446138914889738385e-02,1.342130064964294434e+00
4.668767574129396025e-01,-7.416965275342312092e-01,6.777958572821679573e-01,2.318871923738598587e-02,-3.384486281242037042e-02,2.773691981854629895e-02,1.329437851905822754e+00
5.272228034158339405e-01,-7.741274142852023754e-01,6.973470080381349856e-01,3.251157371780016153e-02,-4.350562028233867506e-02,2.314454994581394837e-02,1.397963523864746094e+00
4.346327719375672749e-01,-7.837437130889239878e-01,7.119385263628104088e-01,8.859125931921306429e-03,-1.802717085067801484e-01,2.878263194873887168e-02,1.414007425308227539e+00
4.264722328573850030e-01,-7.654461105527545772e-01,7.313283463931200545e-01,1.036891300027066240e-02,-1.672434165523211877e-02,1.614701487360085085e-03,1.370452404022216797e+00
4.138165022320352548e-01,-7.446437521065176757e-01,7.314153219194851063e-01,1.761365138994714849e-02,-3.797827120556264424e-02,2.068954279534991614e-02,1.348097443580627441e+00
6.442813255720480914e-01,-7.608875145363547254e-01,5.975038476994938286e-01,1.804824405368447848e-02,6.046163407174101959e-03,3.508665638225882521e-03,1.382780194282531738e+00
6.457811407531888204e-01,-7.717654575662687977e-01,6.487016651857953065e-01,3.501518731880123685e-03,1.213515301035920924e-02,3.061261767811406919e-03,1.419187664985656738e+00
6.124527961212185012e-01,-7.393745253613693835e-01,5.960848558919568108e-01,1.012452681412861870e-02,1.931846090757205004e-03,-1.842220770929272559e-03,1.343840479850769043e+00
5.861510810116303816e-01,-7.634133944449962295e-01,6.655554942396101348e-01,-1.136927359922727462e-02,5.794642712397768619e-04,1.077633663294242684e-02,1.391232490539550781e+00
6.392419067530518140e-01,-7.646969028936257962e-01,6.592780717978516947e-01,4.355535060987942783e-03,5.499788608098748685e-03,4.043731644323822656e-03,1.414132952690124512e+00
3.356608060764196266e-01,-7.401480683391105098e-01,7.770495721170901371e-01,-1.300106745394680966e-03,-1.074072471738615059e-02,4.062445276188157879e-03,1.351828217506408691e+00
5.131581579511743652e-01,-7.628931431113992190e-01,6.889933651449575702e-01,-5.432141030286820500e-03,1.325238847007830130e-02,-7.981451951602347786e-03,1.372736811637878418e+00
6.203890849355999659e-01,-7.610018331495455035e-01,6.656325446567263882e-01,1.340850489962378683e-02,3.856369606571800716e-03,9.297171691404019014e-03,1.404859423637390137e+00
6.401308627027132436e-01,-7.644908628198913148e-01,6.536293110359218117e-01,5.500081894365723388e-03,5.485109087251452539e-04,3.339122030687372272e-03,1.411463737487792969e+00
6.420697790978031616e-01,-7.727173500218973423e-01,6.573372285593184206e-01,2.710904423292466274e-03,6.704169686336558173e-03,-2.456567755565366561e-04,1.422537565231323242e+00
6.478395301752566393e-01,-7.731182865768539969e-01,6.426868380443628848e-01,9.348450893308652213e-03,8.220757892064960506e-03,-1.229797841654516576e-02,1.418712258338928223e+00
6.823193922196049144e-01,-6.953962326721027098e-01,5.980174414399870297e-01,1.704306581469478736e-03,1.329411594845002730e-02,-5.244999386534978693e-03,1.337790846824645996e+00
6.350189699537850396e-01,-6.062444554425755472e-01,6.481724868840215148e-01,-8.860996484047502925e-03,9.426188347467709394e-03,-7.554153692189963243e-02,1.254932880401611328e+00
6.103534846109031076e-01,-6.194241074110177214e-01,6.505903742858887284e-01,-7.952375226742239289e-02,-3.697037924381174623e-02,-1.137869037232572093e-02,1.259728312492370605e+00
6.669178417368480938e-01,-7.539212848842998804e-01,6.400691976040125963e-01,-2.449578976868140023e-02,1.862444704838062039e-03,1.431390555700425395e-03,1.408252000808715820e+00
4.775264205849371613e-01,-7.627230686876830257e-01,7.425940078381847442e-01,-5.305076726113233491e-03,4.304475958558441270e-03,7.466760418262442280e-04,1.391894817352294922e+00
5.385110083366877465e-01,-7.586004307906974997e-01,7.018091208067560594e-01,-1.099293426288616531e-02,-1.552867330755974351e-04,1.991603950284231289e-03,1.386129379272460938e+00
6.843660069585317807e-01,-7.427909642036216731e-01,6.221663764023401821e-01,1.222303332859221627e-03,-3.503581531384851021e-03,-1.585589948537017690e-03,1.397113442420959473e+00
7.237467060633245852e-01,-7.753596362042093348e-01,5.137494226254313290e-01,2.439801184857956322e-03,-1.700717207054435257e-02,1.589785443785304841e-02,1.406504273414611816e+00
5.515359627907894247e-01,-7.736792998612099792e-01,5.477876486279242840e-01,7.298459444927692108e-03,-1.962135284353761222e-01,-2.315791647611737010e-03,1.366351842880249023e+00
5.394474977895203915e-01,-7.685145396661943185e-01,6.853350710243076849e-01,2.399238162739049038e-02,-8.226559827773415393e-03,2.129410571588047363e-02,1.387859344482421875e+00
7.306876738243263114e-01,-7.345948702792938212e-01,4.296998607289942429e-01,1.668593076304267231e-02,-7.467948078463575168e-02,1.144112456870911149e-02,1.347061038017272949e+00
5.747801407926167450e-01,-7.412157725863307567e-01,6.136444435984674817e-01,1.819915855215598066e-03,6.805442532137558065e-03,1.091179649990469541e-02,1.336041569709777832e+00
6.772533372570832544e-01,-7.015890880998355561e-01,6.162202359173905020e-01,2.628805847038161517e-03,-1.145574109524194993e-02,-1.888367864958654784e-03,1.349519014358520508e+00
8.521687535767231703e-01,-1.101605313412965526e-01,6.691597296787771265e-01,-2.960428518409823073e-03,1.035078195305411397e-01,1.199103003379984288e-02,9.033572077751159668e-01
6.973955242443889979e-01,-7.656117380742192280e-01,5.201420454751053413e-01,1.548941342246826398e-02,-1.321310467092854518e-02,2.114115344107045033e-02,1.383860588073730469e+00
5.658235128157762528e-01,-8.022761705346902472e-01,8.086560257639306970e-01,5.432177273137225176e-02,-2.098671143874809158e-02,7.628743051422762211e-03,1.507724046707153320e+00
6.796678498189200335e-01,-7.085828495980639463e-01,6.054556891096876114e-01,-4.167941034657543856e-03,-1.335814335360833299e-02,-4.225606059279149104e-03,1.352909207344055176e+00
9.336033647388409795e-01,-4.772550678841729344e-01,5.695959867065897297e-01,3.955800035069351878e-02,1.338444393191863813e-01,-7.794441807716905035e-02,1.298508167266845703e+00
8.137541838482809098e-01,-7.685538723159521801e-01,3.663739576173017376e-01,-2.530991089454801002e-03,-1.064807206950699331e-01,-1.463907893549428602e-02,1.425002098083496094e+00
7.395800400628390614e-01,-7.721235470939777912e-01,4.925130596602013133e-01,8.730310931153281023e-03,-1.074185670096726442e-02,2.082592634390660266e-02,1.405230879783630371e+00
6.509868034964092498e-01,-7.393054125794860099e-01,6.488435999778350283e-01,2.885311460921747076e-02,-1.005443881796727265e-02,-3.732413565015378631e-02,1.391731858253479004e+00
7.584451983972678724e-01,-7.527138861004859516e-01,4.311178999272727852e-01,-8.575636214963213225e-03,3.539225345561553687e-02,-7.821768795600776009e-03,1.378500342369079590e+00
6.574492643077594067e-01,-7.600774930575100452e-01,6.525548456572785039e-01,1.156054209019877384e-02,-5.304848031319264051e-03,-2.912561436622578079e-03,1.415266394615173340e+00
5.993449516080229245e-01,-7.580683911166763433e-01,6.500149423872367827e-01,7.143334975935875899e-06,2.693532151888218366e-03,1.367485662059020855e-02,1.383655071258544922e+00
6.531365331679278574e-01,-7.661392950110234024e-01,6.401064299345791131e-01,3.935404472414446957e-03,-3.706526691208464515e-03,1.068846013283790246e-02,1.412958145141601562e+00
7.411260642242659680e-01,-7.481855094388411009e-01,4.264481832810848583e-01,1.171469621597145440e-02,-1.985642119532135888e-02,4.079933834761610852e-04,1.360151767730712891e+00
7.588705921738330140e-01,-7.589208029307660253e-01,3.487983209239849947e-01,1.511543981769223298e-02,-3.674403351429553211e-02,2.529566866761321850e-02,1.362388014793395996e+00
6.517271784773246424e-01,-7.386141186728202301e-01,6.430863072379190415e-01,6.200783068353735508e-03,-2.403733735297456514e-02,-8.896971490038502878e-03,1.386793375015258789e+00
8.116697265242827086e-01,-6.675991890044157273e-01,3.976793580433704567e-01,-9.012759506036781276e-02,-1.783433985048582873e-02,8.711752922127054960e-03,1.331454992294311523e+00
6.506381243939471926e-01,-7.662087185983968984e-01,6.421506097908337152e-01,3.244087352370379502e-03,-5.839493009265978897e-03,9.304854952611806701e-03,1.412761569023132324e+00
5.922389518351551807e-01,-7.566728933030851811e-01,6.729420608156927441e-01,7.549037477263056094e-03,-1.955993464733985724e-03,9.877445574891709212e-03,1.391191124916076660e+00
3.739116229090619359e-01,-7.359109637590089958e-01,7.325851197576069840e-01,-1.358915231172203595e-03,2.140579299894510359e-02,2.474430577674632207e-03,1.326580286026000977e+00
8.484848658342182270e-01,-9.273316927788242126e-01,3.605544579697016472e-01,1.636067296881960152e-03,-1.286661434266413162e-01,-8.048173926509695486e-02,1.610661506652832031e+00
6.281910823256313670e-01,-7.435508364342029441e-01,5.823747441229003563e-01,1.637830271396065532e-02,3.163607462524681887e-03,-1.581005005883225241e-03,1.349729299545288086e+00
5.615831624058460481e-01,-7.628247009173513282e-01,6.604786197163448058e-01,1.417402506918881075e-02,-9.663664124655819282e-03,1.821431235980951191e-02,1.377204656600952148e+00
6.461384830415154434e-01,-7.642075032385161615e-01,5.968700627218718191e-01,-1.791213501866043695e-02,6.927647128534596480e-03,-3.323961525156924734e-03,1.386779427528381348e+00
6.014181792144948080e-01,-1.015146659275829033e-01,6.687682501205611807e-01,-3.060115485064110116e-02,-1.666831368088342313e-02,3.930773959454570560e-02,7.444939613342285156e-01
6.078150453867730008e-01,-7.252972832536704884e-01,5.564874435356139681e-01,3.112604602463004549e-03,1.083539936212199808e-02,-1.541712230518970436e-03,1.308352351188659668e+00
5.966071124795249148e-01,-1.458602280416136932e-01,5.598798190157818766e-01,1.020082683976592935e-01,2.227022911114963366e-02,5.534729564986416543e-03,7.470841407775878906e-01
3.241826634149946873e-01,-8.321107943224387293e-01,8.507396437580860837e-01,8.252116885683881409e-02,-1.703247325133166318e-02,-5.210810250792505434e-03,1.498169660568237305e+00
5.851019297813050413e-01,-9.576509101798691415e-01,4.916995130334371189e-01,-1.661161085041649998e-02,4.237730527739849151e-01,5.750014375877034178e-02,1.671589374542236328e+00
5.983172961164915371e-01,-2.500351120868817834e-01,5.580139144220016556e-01,3.749800634038587266e-02,1.307496432168156735e-03,-1.443623837652526637e-02,8.318553566932678223e-01
3.555605741505227235e-01,-7.371134155587307779e-01,7.795913099895541709e-01,-3.549070564045016512e-03,1.081723645217010088e-02,-3.275240631564539390e-03,1.355539321899414062e+00
6.011045861942238000e-01,-3.040543065293928038e-01,5.554985212792380445e-01,5.193703188465997878e-02,1.564661493606507624e-04,2.309316003116021390e-03,8.878176808357238770e-01
3.747310366787689473e-01,-7.392531269287928586e-01,7.289554114987037980e-01,-6.251389186984222584e-04,2.016528950275386575e-02,5.984765665522678163e-03,1.327540755271911621e+00
5.268601719234105030e-01,-7.485872177089866186e-01,6.211096266796618526e-01,1.651464522931919351e-02,8.507651762260487471e-02,-1.359182795246561930e-02,1.333771228790283203e+00
6.779257507044628150e-01,-7.251461568320344275e-01,6.220048868893972571e-01,3.598212820537912077e-04,-2.213567119060249125e-02,-3.955106102819469852e-03,1.376515269279479980e+00
5.511042131316077342e-01,-1.816264648051805208e-01,5.622715369007621478e-01,3.195723770333216973e-02,3.336083281860651676e-03,-1.521358781314704166e-02,7.409406900405883789e-01
6.628491845784698633e-01,-7.615874585661193130e-01,6.342488047284368102e-01,-9.241182270319314371e-03,1.632650166642126484e-06,2.593562849749266389e-03,1.410451889038085938e+00
5.329412647322382401e-01,-7.536064513439542090e-01,7.305617187448881777e-01,-1.150565403577864798e-02,1.380043143704547635e-02,-1.315757157402064684e-02,1.396422147750854492e+00
6.310620164225966278e-01,-7.563585468252760347e-01,6.154756640220850894e-01,9.798910557968608034e-03,-3.274870373399336662e-03,-9.999900453387890100e-04,1.379810571670532227e+00
6.581016295880178779e-01,-7.051175535638180003e-01,6.355323483941723861e-01,-2.037306543573553369e-02,-5.058116684078710866e-03,-1.087778214994170219e-03,1.352565884590148926e+00
6.015325992707105662e-01,-7.519310797818479220e-01,5.982240239541782856e-01,6.483341846866073899e-02,1.220891339684613830e-01,-6.325892505178949687e-02,1.377218008041381836e+00
2.609258520701583373e-01,-7.724576115368287921e-01,8.114149962668835148e-01,3.070833408801857192e-02,8.925541709958306757e-02,-1.544411486316105489e-02,1.402579784393310547e+00
2.342152297476595979e-01,-8.444477799194761714e-01,8.454991913674972936e-01,5.274799771794396602e-02,2.328210935887137789e-01,-6.604049155820444772e-02,1.542919158935546875e+00
6.171967895641259361e-01,-2.899912242019947461e-01,4.969788957007118535e-01,-8.700045481624125998e-03,1.301658449411025875e-01,-8.845779849969546971e-02,8.960541486740112305e-01
6.448423457722872731e-01,-5.345245960206801428e-01,6.356870729239018081e-01,-5.358135726757341094e-02,-2.835554042739817787e-02,1.517036042172494048e-01,1.208412051200866699e+00
6.220483021112306332e-01,-2.618980668639161458e-01,5.781150301061933616e-01,-3.284465304318478357e-02,-6.535186326623747266e-03,3.844388108719416081e-02,8.673263192176818848e-01
6.768065874236357526e-01,-7.560238773940524126e-01,6.291935252457754313e-01,-2.925817782461450495e-03,-7.070589859871983032e-03,6.924491864608971073e-04,1.409690022468566895e+00
6.383956268092918496e-01,4.780616718240737750e-02,6.065878880157016262e-01,3.477598389960930708e-02,-1.704576208139028243e-02,3.026486936924561305e-02,5.816098451614379883e-01
5.890298049685920301e-01,-2.580093621111618774e-01,5.754932156556988865e-01,-9.988244207895017462e-03,1.392007549531120991e-01,1.179065222297681070e-01,8.979578018188476562e-01
6.619148706645265889e-01,-7.655772458868332908e-01,6.408194566041287565e-01,-1.163198783188532743e-03,-1.013394432868782238e-02,-1.134408395718961016e-03,1.417173624038696289e+00
8.924819518220039605e-01,-1.996074525308459968e-01,5.424996479345914890e-01,-1.146130958010630890e-01,1.355677480304292581e-01,9.545424916834761853e-02,1.027041316032409668e+00
6.651992067236707218e-01,-5.850944019135151386e-01,5.756118538649497296e-01,-2.564626196318987514e-03,-1.852280019877535627e-02,-8.025460565843405003e-03,1.208508014678955078e+00
7.495145342446207781e-01,-5.221235157266872484e-01,6.443551294886700198e-01,4.156275615502700443e-02,-4.474958032278023023e-02,8.999703394564181891e-02,1.236885428428649902e+00
5.837101746906216970e-01,-3.322025701863273728e-01,6.046802761811592708e-01,1.632874310192413900e-02,3.068119801558557604e-03,1.162859829238248044e-01,9.486506581306457520e-01
6.323532396082398588e-01,-1.005918701265567372e-01,5.173628098627937044e-01,7.551246252904099399e-02,1.806379552795985347e-02,5.885705860059586153e-02,7.032975554466247559e-01
6.109923735000279965e-01,-5.728091655096545498e-01,6.494518225368351994e-01,2.223984087210927746e-02,7.345620623942183264e-03,6.570760590890549480e-02,1.209541916847229004e+00
9.596056958382445101e-01,-6.983870663489692987e-01,4.101312986313280229e-01,4.541971912043087437e-03,2.670218258784926579e-01,-1.157723167921433788e-01,1.547259211540222168e+00
6.659047990946003193e-01,-7.720503680188753881e-01,6.402950443395282187e-01,-2.503408895750058698e-03,-4.758792047875450536e-03,-4.619670545956338498e-03,1.425375699996948242e+00
6.740631932579060903e-01,-7.525255061257533074e-01,6.319970370828243977e-01,-4.822640871997073940e-03,-1.115552536908040633e-02,-3.158132343505205743e-03,1.406195878982543945e+00
5.953347187888967662e-01,-5.012774328198580376e-01,6.433279333265513600e-01,6.741415670925043555e-03,-5.270525171157211530e-03,3.635865988891765627e-02,1.123243927955627441e+00
6.481078172361889322e-01,-6.782156287226015490e-01,3.527947889274190008e-01,-1.655412193729751402e-01,3.993902851214424232e-01,1.630694631739041112e-01,1.447476267814636230e+00
5.775068862148722282e-01,-7.049748432096311079e-01,7.133998641298969767e-01,-1.055062969085925062e-01,4.262507531583411557e-01,1.473532111607830375e-01,1.575153708457946777e+00
3.925485850993443160e-01,-7.079134821343938677e-01,7.303218471185863869e-01,-7.428032034323416022e-02,3.087864999869192051e-01,1.470594465632777958e-01,1.436764955520629883e+00
6.301343699614407878e-01,-6.540841383065811865e-01,6.372887293431659383e-01,3.458494814939550022e-02,-6.648418771338399959e-03,-2.067341063328563544e-02,1.289751648902893066e+00
7.268978787822175658e-01,-7.493930138657290962e-01,3.996333941045036031e-01,-1.517999513097163800e-02,1.882810835344739600e-02,-1.548860141488857603e-02,1.343827962875366211e+00
8.104985432662143996e-01,-8.055253824118936423e-01,2.972099353068655692e-01,1.530345488112568736e-02,8.976115905954126784e-02,-3.086582040113157455e-02,1.439876317977905273e+00
5.835025791786123683e-01,-7.390418179630876550e-01,6.284489610408405813e-01,-2.506904479606872783e-03,5.319810820181055354e-03,8.383286531766814820e-03,1.345697641372680664e+00
9.206148055101818217e-01,-1.207380759053158004e+00,4.105710459421861303e-01,9.616928900282713244e-02,4.576951776064469568e-01,-1.314164847146659099e-01,2.100273847579956055e+00
3.796576985449825470e-01,-7.388316018335649993e-01,7.568210383250164597e-01,-1.973016405489020578e-03,-1.095640893029543005e-02,-2.518980946773141313e-03,1.347410321235656738e+00
6.581923134296886468e-01,-7.603694212508874672e-01,6.375868830345132743e-01,-4.597464570971139183e-03,-4.154020002169037974e-03,6.253335221159374291e-03,1.408454656600952148e+00
5.608336231374750902e-01,-2.381119483171447726e-01,5.796840685087802925e-01,-2.709987589772701669e-02,1.967687951258560719e-02,-2.259156173352045924e-02,8.115575909614562988e-01
3.923115556076445243e-01,-9.966881000992280359e-01,6.169533839558937194e-01,8.362280077287904956e-02,4.562529463938642116e-01,-7.016038501467657118e-02,1.718155264854431152e+00
7.746755941894881703e-01,-9.862539881516381168e-01,2.577661356459231001e-01,-3.968654330068686897e-02,4.222012078539807423e-01,1.369985787622395590e-01,1.747460961341857910e+00
7.250542775513676430e-01,-1.300769981192453351e+00,4.251716414680531408e-01,-2.489283005446512598e-01,4.403979210898183450e-01,1.638148120474902936e-01,2.105857610702514648e+00
6.725497459482120410e-01,-7.447925633797570777e-01,4.526771487170040964e-01,2.090723087906650249e-02,8.750884871097114326e-02,-2.119434541678801714e-02,1.330864667892456055e+00
5.908004186990685191e-01,-7.357934028214628830e-01,5.777693264189125433e-01,7.484972237012566150e-03,1.870807431399348214e-02,-4.360566719051077976e-03,1.320609331130981445e+00
8.125489195339080650e-01,-8.965558488741027787e-01,4.064025551342581033e-01,6.126021572496536879e-03,-2.176466868729957649e-01,-3.513267208213075032e-02,1.593038916587829590e+00
6.695423927014205745e-01,-7.452738247956214312e-01,5.426742118534442216e-01,-1.687771518195130271e-02,-2.652157360175429884e-02,-1.619232276159001532e-02,1.357223868370056152e+00
7.298241765181370244e-01,-7.626625433857762149e-01,4.085291565769025302e-01,-1.147867350335040650e-02,-1.797192905207893945e-02,-3.383391902720247341e-02,1.362357139587402344e+00
7.464948478269914922e-01,-4.451956479257169752e-01,5.397337671833830619e-01,-5.940008725566698483e-02,1.628085783144803469e-02,-1.104828131352172949e-01,1.124491333961486816e+00
6.826749834360551494e-01,-6.961318019539385338e-01,6.114138979682491870e-01,3.658254920970782816e-03,-4.535523849577831335e-03,2.100509294435435638e-03,1.344636082649230957e+00
6.815388041183129131e-01,-7.669381084492697953e-01,5.459144137374890571e-01,-9.242828386020997961e-03,-2.507079612595554743e-03,-1.071254996667056654e-02,1.385875105857849121e+00
5.835004636380929366e-01,-7.592658507428332593e-01,6.321763673380882409e-01,-3.502953575026925438e-03,1.996384062245385935e-02,-1.424020480856519333e-02,1.368426799774169922e+00
5.103061159039365968e-01,-7.465331165923481116e-01,6.985337172682374307e-01,-5.581022588712970453e-03,1.334326836975147611e-02,-2.055697318094704129e-02,1.361448407173156738e+00
7.120757222642871698e-01,-7.527858056679747056e-01,4.867084704551394303e-01,-6.088106216258992731e-03,-1.471414806609429825e-02,1.009362122877355793e-02,1.366581201553344727e+00
6.608858824066157212e-01,-7.523860658435382875e-01,6.049894536665375577e-01,8.289520619335348506e-03,-3.985308575130883796e-03,1.478837050803745272e-02,1.386497378349304199e+00
6.303424228146712327e-01,-2.320836663910361697e-01,6.859495685728673742e-01,6.847552719612770566e-02,1.953281098158202167e-02,-3.902795494330849740e-02,9.025568366050720215e-01
5.556948835356919636e-01,-1.725033926938573936e-01,8.578818108136144760e-01,9.798367642919876552e-02,-5.682272490831657800e-03,-6.926220159193696713e-03,9.331049323081970215e-01
6.382191221283938232e-01,-1.595646292228647400e-01,8.757931198980517529e-01,-4.904632662689097089e-02,-9.070747918134688947e-02,1.854449009365485845e-02,9.567469954490661621e-01
6.072485186658802547e-01,-7.605138831073593453e-01,6.561645499679631399e-01,-3.734308465611928338e-03,3.454967018710659084e-03,-6.038694204280463905e-03,1.392931938171386719e+00
6.044231630876394368e-01,-7.589949754620216593e-01,6.704993420714484564e-01,-3.722794702870714512e-03,3.382040097978686582e-03,-1.290377155322345627e-02,1.397834062576293945e+00
5.655850306582953513e-01,-7.587690498518493420e-01,6.541367107657620750e-01,-5.517162310844054424e-03,1.014921164310684208e-02,-1.803133547649981433e-02,1.371278524398803711e+00
6.517628299576461171e-01,-2.172176767492162153e-01,6.701422958367806437e-01,9.527465010916964794e-02,3.310342242484461822e-02,-1.821275686800363563e-03,8.955252766609191895e-01
6.421277886550407210e-01,-7.706793419256355859e-01,6.405806456447437069e-01,1.627912554399935866e-04,3.341783099142305556e-03,2.018043875729811330e-03,1.412050366401672363e+00
6.005409163901456182e-01,-1.921997779292909936e-01,6.057404182497843070e-01,1.325261329020138990e-01,3.270532750728210539e-03,-1.744299187463587558e-02,8.283846378326416016e-01
6.626863275175098877e-01,-7.460800637142308567e-01,6.356362272161710791e-01,1.529128029259703078e-02,-1.403590095704143094e-02,2.529658441715301222e-03,1.395907878875732422e+00
9.447419960069123324e-01,3.001143680563267413e-02,6.825202163955355061e-01,1.177521094810430463e-01,2.081149392987586833e-01,4.315013664070039764e-03,9.149961471557617188e-01
4.462851849414024019e-01,-8.699687537499007917e-01,7.979001155012024338e-01,6.856174320242634963e-03,1.459840128032222906e-01,3.943756274714191323e-02,1.545222640037536621e+00
4.737986370754452281e-01,-1.383778233762285481e+00,7.703260117802315232e-01,-9.611132208584800135e-03,4.453649563745724627e-01,2.292090238872510066e-02,2.164773941040039062e+00
6.214675594419978299e-01,-3.811029525707172461e-01,6.411731350012026542e-01,1.095550466460925958e-02,1.586382530680493716e-02,-7.918867097794611565e-02,1.022359848022460938e+00
5.587242677043757766e-01,-8.392378956458247385e-01,6.715127367843468642e-01,-8.580271441299038016e-02,2.734239740989888867e-01,1.041638185026210785e-02,1.539930939674377441e+00
5.408390891237627729e-01,-7.630975673986118979e-01,6.485742387734990677e-01,-6.644679692145601807e-03,7.208654992799456984e-02,9.728353474288076175e-03,1.366873502731323242e+00
6.343089530447185709e-01,-7.720998741056460668e-01,6.335405366133670668e-01,-6.206550728524376373e-04,2.177685595094399490e-03,1.135279153306503926e-02,1.406167745590209961e+00
6.926812672726159192e-01,-7.598644816932711432e-01,5.875788387185092443e-01,1.238413649366696366e-02,-8.267109068457791435e-03,-1.177536946568208745e-02,1.403335571289062500e+00
5.461419565037441970e-01,-7.715540180307765006e-01,7.004979184039038520e-01,-3.415125613692761991e-02,1.713216571325894555e-01,6.420918434230429850e-02,1.437867641448974609e+00
2.658485136076451094e-01,-7.809437577732228908e-01,7.518489736238955778e-01,1.019703083512967477e-02,2.245938269477863181e-01,1.272915560640616901e-02,1.411678910255432129e+00
5.541272453814310994e-01,-7.489949761306066156e-01,6.478168224012047505e-01,-7.447686135702985544e-04,1.177659202552858685e-02,2.064750867932959796e-02,1.353030323982238770e+00
7.053448841441227746e-01,-7.521792511650261526e-01,4.181187614335323821e-01,1.553880996783996160e-02,-8.802741537075813028e-02,5.359587200346018279e-03,1.346214532852172852e+00
6.010854515657613195e-01,-7.413343835643407820e-01,5.852223286300630711e-01,-9.535267206627100894e-03,1.516362287277877446e-02,2.170401496057557198e-03,1.334924817085266113e+00
6.372060812228277360e-01,-7.621517705752278715e-01,6.609894133870948263e-01,4.679639677193193209e-03,9.856751839295361042e-03,-2.046716981499776275e-04,1.411526322364807129e+00
4.565267758617649330e-01,-8.349505238464126622e-01,6.296567060606562682e-01,-4.826705821135054975e-02,2.735237380599641055e-01,6.021489906420505328e-02,1.470983743667602539e+00
6.344737758513807613e-01,-7.441404147922727752e-01,6.714270726529469879e-01,4.503984716512291061e-04,1.329570082616148528e-02,-1.220002210646777864e-02,1.397807002067565918e+00
6.393268116043707705e-01,-7.587506931742912242e-01,6.623670633002469721e-01,2.602263826513858715e-03,1.517232439711320956e-02,-2.361086119807794849e-03,1.409996867179870605e+00
6.367146058343653436e-01,-7.643019784273018535e-01,6.668486376449680453e-01,2.128044735318938927e-03,8.301019810833592735e-03,-1.948802301549185708e-03,1.416405797004699707e+00
5.724615092720297671e-01,-7.418889896694644825e-01,6.138472627938609261e-01,2.742489209067923862e-03,8.786421560706676390e-03,-9.501416859801296508e-03,1.335720896720886230e+00
6.097389260085965823e-01,-7.548137629150082351e-01,5.984791293655733480e-01,6.926859481167365121e-03,1.200414033646079147e-02,-4.299544469441067378e-03,1.359190225601196289e+00
7.904614092141055703e-01,-7.626464068745391067e-01,3.860131890917856134e-01,6.045717299362588469e-03,-5.867940270828482345e-03,3.430046295841936849e-02,1.396894097328186035e+00
6.129543440771847429e-01,-7.878313634336536753e-01,6.133557598795987831e-01,-6.169956506866220748e-03,-7.646370587756397275e-02,4.490414439977273575e-02,1.409420609474182129e+00
7.881113069711180863e-01,-8.740689986666609901e-01,5.025334122934418390e-01,-7.071071879612267526e-03,-6.359147515238769421e-02,-3.283734778901832574e-02,1.544419884681701660e+00
4.979355223692744081e-01,-7.292408621080223030e-01,6.559936965968794498e-01,6.195974680913989181e-04,2.079515465767933780e-02,-6.882400225354459375e-03,1.313906431198120117e+00
5.913374086031156773e-01,-7.236207041445731347e-01,5.707240720361876907e-01,2.188902763865157707e-03,1.657429369405552175e-02,5.294364148405039531e-04,1.305095195770263672e+00
8.547074118963329248e-01,-8.005215767330848831e-01,3.491668096112883757e-01,-1.625316396635397009e-02,3.380411912924259632e-02,5.753783837363185029e-03,1.470676302909851074e+00
6.238526205795815738e-01,-7.468747563094265685e-01,5.645116090593411684e-01,1.392663269441512391e-02,1.991984175048658323e-02,9.482730748069787734e-04,1.342702269554138184e+00
6.282325163029591764e-01,-7.656842288530855134e-01,6.282210776958340182e-01,-4.937677585605177756e-03,-1.782806044481004444e-03,2.017789730900506218e-03,1.393945097923278809e+00
7.316805780477998455e-01,-7.444259283122626192e-01,4.075785161319278593e-01,1.852686408500105360e-03,2.447010086172718771e-02,-1.013235287015490718e-03,1.344370961189270020e+00
6.470075298803266151e-01,-7.735866760204586079e-01,6.431013473432246608e-01,-6.039097262692530270e-03,-2.254359119856697100e-03,3.932651640704716393e-03,1.418705463409423828e+00
6.492138555639743736e-01,-7.671224695628340307e-01,6.459848310749770617e-01,6.686421819317635122e-03,-6.602917653453439610e-03,-9.295936591355413725e-03,1.414909839630126953e+00
6.449052414173107595e-01,-7.765557576178206967e-01,6.508808726279606827e-01,-6.248837229727100331e-04,-3.513271578200559582e-03,8.061832621887607495e-04,1.424472332000732422e+00
6.497026219967518834e-01,-7.757480462684955835e-01,6.462482167589580495e-01,-2.487316532082491289e-04,-5.057360838910143937e-03,5.093344481983786516e-04,1.423753857612609863e+00
6.523963281271918380e-01,-7.472738596103809527e-01,6.485414985573239033e-01,3.798725363130221831e-03,-1.899706608450629775e-02,1.505439939003005902e-03,1.398151874542236328e+00
5.851744363744785238e-01,-8.234163694630358687e-01,6.850902137336584152e-01,3.908178893725857556e-02,3.001080001049664936e-02,-1.950915169668479554e-02,1.463993668556213379e+00
6.340934213187734425e-01,-7.567049584003229246e-01,5.904693923190337257e-01,1.177765502452221384e-02,2.382572159505530647e-03,-7.124571250464974831e-03,1.369721293449401855e+00
6.463063604348355806e-01,-7.772650539605796549e-01,6.469770217065780038e-01,1.066893016721266953e-07,6.662497819228199464e-04,6.764896315202683242e-04,1.423907756805419922e+00
6.479871320046076688e-01,-7.782254290832764099e-01,6.391330975864633057e-01,-3.742510004114090252e-03,-3.181795978887251488e-03,6.322102691247455560e-03,1.421873807907104492e+00
6.497589763756982384e-01,-7.778545781410184379e-01,6.467979608237148792e-01,-2.041092359680960356e-03,-2.013344114903370050e-03,1.738179991082365117e-03,1.426147222518920898e+00
5.723509115683498294e-01,-2.327557808397037187e-01,5.719988047856727764e-01,-2.264320124639782744e-02,5.192380783101841748e-04,4.478612716456974868e-02,8.096109032630920410e-01
5.805625826659395194e-01,-1.624020722170843589e-01,5.672147971365338881e-01,-1.106765820313023035e-01,-1.460120730822441273e-02,4.504143272177150992e-02,7.653309106826782227e-01
6.210086951322588700e-01,-2.725130077405125695e-01,5.830605417263948764e-01,7.028618316165970506e-03,-7.764039515683949025e-03,-4.280694580473744931e-02,8.784872889518737793e-01
5.831931568296429003e-01,-1.633930277684718102e-01,5.676570088609704801e-01,-7.331003506182154350e-02,-1.080502824112432488e-02,1.200355333280132414e-01,7.782879471778869629e-01
5.838630404415243724e-01,-8.096470094462996370e-01,7.248967176666281098e-01,1.042091663766337925e-02,2.390295292602613326e-03,7.227843163671606071e-03,1.469282865524291992e+00
6.409369462649323612e-01,-7.715670555280250698e-01,6.280947246034911391e-01,-7.904152276324970944e-04,3.387100844739744394e-03,7.292447676051276237e-03,1.406196475028991699e+00
6.548727884419160983e-01,-7.727658515310930065e-01,6.411509590761512722e-01,1.135847512623834165e-03,-4.071810051698936291e-03,2.294999457590973617e-03,1.420851826667785645e+00
6.336217990501429309e-01,-7.657486214011327563e-01,6.311764479107495607e-01,-4.886638833968956833e-03,4.126222975410430080e-03,2.385080417673705443e-03,1.398199319839477539e+00
6.014552971310344054e-01,-7.576221207367074273e-01,6.387382162033408139e-01,-6.847842926114191663e-04,8.742534121630198690e-03,9.608936506454061194e-03,1.378281354904174805e+00
6.318746982262049006e-01,-7.702111819139051407e-01,6.454075972897912461e-01,-6.188565457883801876e-04,2.171383932026471446e-03,5.311394249187227808e-03,1.408936500549316406e+00
6.613674611747515364e-01,-7.682314692009249990e-01,6.400284185590283670e-01,6.847534304353478790e-03,-1.478389077029337167e-02,-5.389591800644639996e-03,1.419360995292663574e+00
6.356004313500185354e-01,-7.580434750114768416e-01,6.692872810768456526e-01,-1.626866056894763672e-03,-7.595702422637406158e-03,3.820438620381694586e-04,1.410853266716003418e+00
6.342038718391616037e-01,-7.645401251584850177e-01,6.407657645792339540e-01,-8.136099657326974904e-03,2.735156694510057517e-04,9.689136753396807716e-03,1.402207732200622559e+00
6.430236939631479576e-01,-7.751790458896086200e-01,6.474695984008989047e-01,-4.312775778807056634e-03,-4.677269174228865234e-03,3.273336234272455555e-03,1.420485019683837891e+00
6.409503255266915112e-01,-7.654420544320914566e-01,6.619003513606738220e-01,-6.811576741788623324e-03,-1.081303945058722724e-02,-5.136107647047327609e-05,1.417156457901000977e+00
6.145132727490174585e-01,-7.579822682446246684e-01,6.231521803377265689e-01,-6.428090295394958133e-05,2.732107271117416823e-03,1.009346601420067074e-02,1.376954436302185059e+00
6.093832183038281336e-01,-7.601086305101585339e-01,6.211634233957066265e-01,-9.612972672181785069e-03,2.916365612909057464e-03,1.019788251815860469e-03,1.375530958175659180e+00
5.599226247102038201e-01,-7.369368042411700293e-01,6.319508097792734258e-01,-1.609146138931054695e-02,4.677134038900569724e-02,1.801414678359303939e-02,1.337443828582763672e+00
6.212829216291773093e-01,-7.592600820013803986e-01,6.200488901168587086e-01,-1.711396379090301956e-02,7.196238268199536998e-03,-2.316783923681090050e-04,1.380301117897033691e+00
6.001521852842190974e-01,-7.539273257578061882e-01,6.067357406314060064e-01,-1.416196243892262063e-02,2.062515400063093945e-02,1.381841490906077219e-02,1.358285665512084961e+00
5.852175146593580068e-01,-7.315587818125579567e-01,5.869959177506668402e-01,-1.012570499172502601e-02,2.944646668487730171e-02,5.171656918362617025e-03,1.318800210952758789e+00
5.869350427789425950e-01,-7.431578087917252162e-01,6.117831937675037857e-01,-3.007590377242475629e-03,1.042252155603128581e-02,1.780032525368538399e-02,1.343174695968627930e+00
6.011661074247374170e-01,-7.511095041272337625e-01,6.091498180721318656e-01,-6.143793989729961005e-03,8.253817273872272181e-03,8.857132042172767214e-03,1.356488943099975586e+00
5.964838507232007592e-01,-7.423906626294265454e-01,5.924439641655462330e-01,-1.862194927030208632e-03,5.112491017263486037e-03,8.926049203461594930e-03,1.336981773376464844e+00
6.303687616951503259e-01,-7.362150929869086813e-01,5.065022593438391896e-01,-1.276866150216088465e-02,3.029235359156145710e-02,1.235839778415998708e-02,1.310465812683105469e+00
5.900776182883675780e-01,-7.409452464168468921e-01,6.087924475194750329e-01,-2.084117321074747432e-03,2.967567909477856255e-03,9.291891765237798514e-03,1.340589642524719238e+00
6.405732192976415496e-01,-7.584683674031020839e-01,6.572166328638910926e-01,2.024079082848414136e-03,-1.722837099288239068e-02,6.056882791303791133e-03,1.407796859741210938e+00
5.783598597168915223e-01,-7.258058757371000924e-01,5.872138787112082259e-01,-4.095768859113528863e-04,5.261963488561624894e-03,2.465090663707833561e-03,1.308654069900512695e+00
6.190526791401023132e-01,-7.185117877618507620e-01,6.732535417899916386e-01,4.642747698279841087e-04,-2.357004126441182915e-02,1.343506349076271922e-02,1.366280436515808105e+00
5.560863064143213297e-01,-7.266271370042222122e-01,6.101909389389756910e-01,5.346225509757343347e-04,1.307075863198061197e-02,6.984004846911806563e-03,1.310855269432067871e+00
6.178075304888548391e-01,-6.437768013117856070e-01,6.749194786265293455e-01,-3.468989565367948218e-03,-1.831846816052317903e-02,3.585499455810950420e-02,1.292984127998352051e+00
5.782706426829433699e-01,-7.247934009651432197e-01,5.955546228266319631e-01,7.231440643439074811e-04,5.056432835323146184e-03,-5.280508202807203920e-03,1.311853170394897461e+00
5.486278909407775739e-01,-7.271168212135875608e-01,6.171302105193287035e-01,2.281822183596220882e-03,1.000670217089846652e-02,-6.469546611173396244e-03,1.311506867408752441e+00
5.496516391433636795e-01,-7.266650794928387613e-01,6.114171545190432155e-01,2.532702514544876281e-03,1.170703261166359567e-02,-4.159521372559712472e-03,1.308477759361267090e+00
7.093456849989669966e-01,-7.697183801109093171e-01,5.992290540769422691e-01,2.201967894920674185e-02,5.164062839466029148e-02,8.725013351079783513e-03,1.430583715438842773e+00
5.798506148760325107e-01,-7.341452182580430197e-01,5.735925060428974653e-01,6.218771979764175714e-03,4.480123622789961707e-02,-7.838612067734311226e-03,1.313287019729614258e+00
5.959393105535387702e-01,-7.385059911789948472e-01,6.131786175295870223e-01,1.765265403604530242e-03,2.452319803063633067e-03,-1.026523312480401295e-02,1.343275785446166992e+00
6.253390344111124932e-01,-6.801338174489147681e-01,6.588272736265143870e-01,4.034590811138050181e-03,-2.426984092400103626e-02,2.235927844867969735e-02,1.323787927627563477e+00
6.336939744905278893e-01,-6.947252628732617508e-01,6.566638044809025576e-01,-2.220811180918983579e-02,-2.141306492736467365e-02,2.991703772520020940e-02,1.342117428779602051e+00
6.028877022627762150e-01,-7.506221601513397568e-01,6.074640216273584636e-01,6.441370556393766211e-03,-7.839702221691335904e-03,9.266447243434203923e-03,1.356012701988220215e+00
5.697412396296951398e-01,-7.421736536580183508e-01,6.283792108832748635e-01,2.290071393810999296e-03,4.455548139181478989e-03,-1.571458844155168566e-02,1.342498898506164551e+00
6.117381051878396647e-01,-7.490981968637721033e-01,6.084142288744565086e-01,8.484640094680894959e-03,-2.759775818468643890e-03,5.707140639949096622e-03,1.359301209449768066e+00
6.158369024540872871e-01,-7.570424627442042809e-01,6.310509156036211431e-01,8.540912876003365229e-04,-2.569479740680317374e-03,-9.323099009518274680e-03,1.380651593208312988e+00
6.539358933520582617e-01,-7.639477744718564667e-01,6.377267998419657857e-01,2.366556133610464834e-03,-1.196083662737518205e-02,-1.612478885865309755e-02,1.410283684730529785e+00
6.110587382768293274e-01,-7.592313334105436073e-01,6.217905788827062796e-01,3.098915742594260544e-04,1.893499254714181698e-03,-8.733981726402354970e-03,1.375774621963500977e+00
6.383030740637706257e-01,-7.640250152585094101e-01,6.281402121269679117e-01,7.590683543087253099e-03,2.435541957579100917e-03,4.653910441932574554e-03,1.397365808486938477e+00
6.239634345538704885e-01,-7.679946834204757211e-01,6.412233951590982084e-01,6.043167500712971416e-03,3.559567212966641120e-05,1.132888348853522582e-02,1.400844454765319824e+00
6.161118245988896902e-01,-7.562600041224887271e-01,6.302922832193876834e-01,1.173591972020546388e-03,-6.223095638771007979e-03,-7.362422202971547749e-04,1.379560947418212891e+00
6.268553820865644388e-01,-7.662025456215030284e-01,6.290184151214519570e-01,3.901126857193287258e-03,-4.635553135539512387e-04,5.580793650390470338e-03,1.394190788269042969e+00
5.896905453088845395e-01,-3.614662671992333598e-01,5.963607116347708903e-01,-6.673567967888353880e-02,-1.539317025348828707e-02,3.271447199862427546e-02,9.635199308395385742e-01
6.563119534175380076e-01,-7.677957759243974056e-01,6.594475085428990191e-01,4.040029978182459180e-03,-2.647119146774832774e-02,-1.793344045033180151e-02,1.426770448684692383e+00
6.343075418963195489e-01,-5.902404201592299504e-01,6.184215685603563495e-01,-2.496807052537922469e-02,-3.363272968815796821e-02,-3.543217698106865265e-03,1.218859434127807617e+00
6.442868512720014706e-01,-7.708613698843854722e-01,6.391659887253261507e-01,7.141638229015368801e-03,-1.970821104915722582e-03,-9.002275465458649609e-04,1.412653923034667969e+00
6.345648027682500025e-01,-7.733011734495612854e-01,6.447424522118960777e-01,-4.003630065794827261e-03,-1.863110866965673367e-03,-1.135954355871571578e-02,1.413139939308166504e+00
6.555359831596914155e-01,-7.491960884410003851e-01,6.398245363130701246e-01,5.184214007490365456e-03,1.677121596119589969e-02,-7.065136955949166686e-03,1.397327065467834473e+00
6.635873958691665964e-01,-7.374315317158512961e-01,6.359069671756227837e-01,-1.738096968739223647e-02,-2.070715913362598110e-02,-5.487330503200400951e-03,1.388208389282226562e+00
7.343043434768805611e-01,-9.345610958642540655e-01,2.884191529050650349e-01,-2.366203580301149204e-02,-3.955168496186609595e-01,-2.239137710100801495e-02,1.646902441978454590e+00
4.652114948290303476e-01,-7.563869834897493094e-01,7.451177241980387889e-01,-8.401150501011827101e-03,-2.854946829751113491e-05,1.487202205966042584e-03,1.383040785789489746e+00
5.863909781125207221e-01,-7.624806512926890489e-01,6.391748268972492486e-01,1.319811584459534837e-02,-2.782448199426623692e-02,1.633455964645011763e-02,1.377347111701965332e+00
5.083010241771125370e-01,-1.466339651957161427e-01,9.024375999543892135e-01,-6.263966938225080938e-02,5.774326170156750260e-02,3.739918688169729249e-02,9.318730831146240234e-01
6.635831247761125873e-01,-5.866624103520516886e-01,5.713851331596051519e-01,5.073946440697021595e-03,-3.156524750831380972e-03,5.061088239454615036e-03,1.206867098808288574e+00
3.710648749024410553e-01,-7.382924466366138638e-01,7.589090831164010398e-01,5.277375553135885133e-03,-1.192599583674771799e-02,-6.270058691258596599e-03,1.346099138259887695e+00
6.480407506436427489e-01,-7.642223674190863347e-01,6.462262293282535763e-01,1.848971735792945921e-03,9.757053783943051006e-03,1.332585088596293776e-03,1.411463379859924316e+00
6.015777483982109874e-01,-4.647086590550371099e-01,6.224479740209640788e-01,-9.201181840124847411e-02,1.429160564676803385e-02,3.941134670411656354e-02,1.091021060943603516e+00
8.560066669099407610e-01,-5.647268419860029809e-02,5.837875745274486716e-01,3.893708099042231252e-02,1.468135690390852677e-01,9.769652423019871412e-02,8.695816993713378906e-01
6.083657784978040439e-01,-4.596431469452399998e-02,9.174813351987032295e-01,-1.985132117865562665e-02,-1.146722360064610230e-01,-2.710234189059666787e-02,8.768118023872375488e-01
7.838220528238840634e-01,-7.785320055544486806e-01,3.833041413072626469e-01,2.254897801004606891e-03,-5.597611659839675687e-03,-4.905478161593294917e-02,1.408169865608215332e+00
8.820042977035470466e-01,-8.267954176453441439e-01,1.874968179566123272e-01,4.794719227912731807e-02,-1.727851933169277654e-01,-1.807137678418150317e-01,1.552416324615478516e+00
6.608305623352146441e-01,-6.219291467150632746e-01,6.159850153344643697e-01,-7.995109634474018706e-03,-2.735227553356707128e-02,9.083527354312052882e-03,1.261998891830444336e+00
6.431338835638227280e-01,-7.644837506372840208e-01,6.516505573619496561e-01,1.226358758516971114e-03,-1.411146098370160730e-02,-2.891196972828918074e-03,1.412117242813110352e+00
7.390507597387535599e-01,-7.615693445726301469e-01,4.790549788122359653e-01,-2.891614102381493290e-03,5.948748346766198451e-03,7.487542085397325305e-03,1.389101505279541016e+00
5.516944573950195441e-01,-7.465113968532658406e-01,6.503909696639793570e-01,7.408442978436830363e-04,-1.177539089207018178e-02,2.018089451233940484e-02,1.350869059562683105e+00
2.609586038308331357e-01,-9.016751810284489022e-01,1.066598385349009082e+00,2.000041475358881049e-01,-1.216319688380390757e-01,6.315015762272840893e-02,1.764593005180358887e+00
1.654322819603755157e-01,-9.095656442566346644e-01,8.744411348735524614e-01,1.366048911981233849e-01,2.299871177963386526e-01,-8.699570941974545460e-03,1.623388171195983887e+00
5.616170360692068764e-01,-2.834758829860727358e-01,1.009786601234892611e+00,-2.690307649825933456e-02,-3.399232719142533665e-02,5.293283892317465072e-02,1.143602371215820312e+00
6.342147089647531821e-01,-5.921829931459672292e-01,6.275234419660413732e-01,2.277565064094435807e-02,-3.518836127032059363e-02,-4.033291051188944709e-02,1.227208614349365234e+00
6.473995109579295804e-01,-7.122982504291699435e-01,6.801535598092708357e-01,-5.359744415538083423e-02,-3.609316272647539528e-03,-1.430997288500450958e-02,1.379731059074401855e+00
5.531831088909300309e-01,-1.801829817893408903e-01,6.941340806427892529e-01,-4.527380742778959466e-02,-1.156259271550062334e-01,-9.816654200543764586e-02,8.580378293991088867e-01
3.584224402002454402e-01,-8.632100813638181602e-01,8.590321375137028870e-01,9.988591277064792773e-03,1.142752039173852430e-01,-2.107960912225317548e-02,1.547696948051452637e+00
6.430877003263492098e-01,-6.341708633279252716e-02,9.927462947891103617e-01,-8.279260993713419281e-02,6.608046483185479880e-02,-1.854206505197700250e-02,9.503371715545654297e-01
3.226357388518059643e-01,-7.388282410276352241e-01,7.868619640581646646e-01,4.306547275063328864e-03,4.437189050769411482e-03,-6.421662089895358591e-04,1.354653835296630859e+00
6.255060652846800018e-01,-6.993144610463821742e-01,7.489235400621411243e-01,9.014448923567860983e-02,3.207573489367800956e-01,-1.197559115558121529e-01,1.519850492477416992e+00
6.553456401122519370e-01,-6.492002953862631154e-01,6.134956193671357028e-01,-9.035875710944222400e-03,-3.514064609017998608e-02,9.707695041212062101e-03,1.285779356956481934e+00
6.618283568482992152e-01,-5.854430882382464230e-01,5.762404821886790707e-01,-4.684168376240411928e-03,2.866251310791475670e-03,2.160665828059034517e-03,1.206799268722534180e+00
6.509279924354847147e-01,-7.678978553490681813e-01,6.490078797235017127e-01,1.821574600683436651e-03,-1.138379720092645361e-02,2.219293663112882533e-03,1.418012619018554688e+00
5.090636148415951245e-01,-1.951060344303719996e-01,6.793829992601467804e-01,-2.228521203814198479e-02,1.188411884381426614e-01,1.188715453072035910e-01,8.550136089324951172e-01
5.252772529978178007e-01,-2.017571521906592613e-01,9.776335330910828070e-01,-1.234778169311710888e-01,-8.825178468953562283e-02,-4.731141642816168863e-02,1.066725969314575195e+00
7.469870504972010439e-01,-7.579030247330424963e-01,4.698013059115220269e-01,1.447781577042302724e-02,7.020092757529931490e-03,9.758810164015032165e-03,1.387607455253601074e+00
6.526361457844923608e-01,-7.469306994587159299e-01,6.243191133899275158e-01,5.240325808774202662e-03,2.268942981385098367e-02,1.936304816870412478e-03,1.386216282844543457e+00
6.260320021624434794e-01,-7.593860914699894771e-01,6.844388223493210743e-01,-1.224498574104490372e-03,6.501644978189566673e-03,8.013147810850568958e-03,1.415639996528625488e+00
4.246752459964993620e-01,-9.763954051102272658e-01,9.443522638875524455e-01,2.042222089477783442e-01,3.501752903942117467e-01,-1.500849752544833049e-01,1.876627922058105469e+00
5.824113897145846153e-01,-2.975962049880466198e-01,5.505293825161463594e-01,5.062741877107917315e-02,9.118993793443502457e-03,-5.776570312168731805e-03,8.691446185111999512e-01
6.523685807917714019e-01,-7.640036153956364373e-01,6.100132918334691956e-01,2.904379972470297767e-03,1.031641249525583164e-02,-3.269358004324623545e-03,1.395811557769775391e+00
6.215592445952620171e-01,-7.446046501477209256e-01,6.889927621227697196e-01,-9.134865092569184565e-04,-1.670930912810479922e-03,-1.236313375421119274e-03,1.401103734970092773e+00
3.356619226455716531e-01,-7.403810621098332323e-01,7.770925632570007124e-01,-1.314305906383393891e-03,-1.218168972990849377e-02,-5.157830129032428372e-03,1.352130889892578125e+00
6.230526460307197478e-01,-7.538350257560271217e-01,6.860699968142687233e-01,-2.463341652973294977e-04,-6.359278355419926889e-04,3.561148050457609536e-03,1.409467339515686035e+00
6.838996067446793115e-01,-7.498603021218378517e-01,6.251770031647460035e-01,-9.053892527362183886e-04,-9.512472864582253995e-03,2.780878418911814608e-03,1.405424833297729492e+00
6.095651465400165891e-01,-4.349396050742362352e-01,5.859068761440526796e-01,-5.761765803508698408e-02,-1.939813687353413203e-03,-2.116092600781769445e-02,1.038341283798217773e+00
8.207630906065392917e-01,-8.511322806241445882e-01,3.320607797286326823e-01,2.980776366860699716e-02,3.448123889543321802e-02,-9.768441147633631638e-02,1.500621199607849121e+00
2.185338860594930599e-01,-8.577080907686868150e-01,8.990918363484207143e-01,2.842775403672849477e-02,1.419717330038919867e-01,4.789525587368408804e-02,1.556815743446350098e+00
6.301281931004401038e-01,-7.533160815176008773e-01,6.846685033907242701e-01,2.967324682206645692e-03,-7.634017410290431724e-04,3.562000714635270727e-03,1.411528348922729492e+00
6.233917648423821234e-01,-7.440130547230600078e-01,6.789364283176100301e-01,-1.546016103168141231e-03,-2.359545034510922117e-03,-5.164675871483928073e-03,1.396043419837951660e+00
6.170500221691618270e-01,-7.078703731849034231e-01,6.836959880800476119e-01,7.753737740358850744e-04,2.637798293165846534e-04,-5.876946868963321517e-03,1.359508037567138672e+00
6.240779281234627440e-01,-7.607940620751120209e-01,6.876999778331556179e-01,-3.733361080729086755e-03,4.456822335643576341e-03,8.770983449653577818e-03,1.417871236801147461e+00
4.634816974945560886e-01,-3.437630993106711719e-01,8.316666476560602428e-01,-1.067227419340664729e-01,2.766092088716181480e-02,5.696222712980385933e-02,1.063305377960205078e+00
6.174297967556923172e-01,-4.375505918853356269e-01,7.314569761020397465e-01,1.393670682914228964e-01,3.233259070165136473e-01,-8.205752397205584581e-02,1.279988646507263184e+00
6.514091729132268638e-01,-7.656415688089769356e-01,6.440385210902499491e-01,-7.704045385684251540e-03,8.583844366163132997e-03,-4.958360705537690968e-03,1.413547158241271973e+00
2.580809579248949936e-01,-6.721554915556054999e-01,8.348343449273899486e-01,1.173235902555148369e-01,-1.922322481795012417e-01,-4.212697517731973235e-02,1.375492453575134277e+00
6.260003691611766286e-01,-6.725951334675893678e-01,7.268938135448735904e-01,-1.518486837685869562e-01,2.342234344764140830e-02,3.915183037984910908e-02,1.379481077194213867e+00
3.965408006225928927e-01,-7.473916800002924354e-01,8.039871996864330628e-01,-2.830057515894408501e-02,2.627096147386989017e-02,-1.126755319933554593e-02,1.394825935363769531e+00
6.386021414507847549e-01,-7.626273289958908075e-01,6.569173160195886929e-01,-1.185147079348927365e-02,5.539997617003412402e-03,5.012362044423904900e-03,1.410684943199157715e+00
4.019637378717000886e-01,-7.318158933272448374e-01,7.468122291497522047e-01,6.842087212547234842e-02,-2.917643100884499963e-01,1.012496934465542953e-01,1.447596907615661621e+00
6.379169176988169765e-01,-7.359919032309053533e-01,6.648366892237038694e-01,5.337899075015708171e-03,2.118972878592051065e-02,-3.289693275093231832e-03,1.388092398643493652e+00
6.410188572575068466e-01,-7.061066694544956279e-01,6.440593021746660041e-01,1.161915967578542631e-02,-1.850238062101544753e-03,6.269954878011335837e-03,1.348845958709716797e+00
7.269114084427477085e-01,-7.068734701082575178e-01,6.452760326650961442e-01,3.778568454833728350e-03,-8.519712837502690927e-03,7.802714536785157473e-02,1.401385426521301270e+00
6.597173224635555222e-01,-1.791858464904561021e-01,4.925880421883628291e-01,9.827965337154158029e-03,7.231383594347985666e-02,1.528495171352884097e-01,8.231354951858520508e-01
9.175850022400628969e-01,-9.594331532729234446e-01,2.743533766227838622e-01,-8.764257490731101885e-02,-3.715385162880752712e-01,-4.756176093517656966e-02,1.781442999839782715e+00
5.740022498244607974e-01,-7.869063293902390788e-01,8.199374409751459813e-01,-2.780722834366385759e-02,2.359698465826893035e-03,-5.218761608469935608e-03,1.499889850616455078e+00
5.924128711211786857e-01,-5.200922635878858502e-01,4.067043242365528388e-01,-1.022482325389673236e-01,-3.275000524601635044e-01,-1.602430586436806581e-01,1.222996354103088379e+00
6.196336717302888264e-01,-7.508624366819226514e-01,5.659189311286986213e-01,-2.553351769675357708e-02,-2.585974628262460717e-02,-2.034171427126530221e-02,1.346377491950988770e+00
6.520952436623694837e-01,-5.823993877895075055e-01,5.973846067113942615e-01,4.321614228970089081e-03,1.925851690697095997e-02,5.777079369264128024e-03,1.208593845367431641e+00
6.433770406333469971e-01,-7.651119042430292172e-01,6.611945037706115080e-01,-1.311227908055380767e-03,1.346585170569297718e-02,-4.706738276827686016e-03,1.417698740959167480e+00
6.198725698079032842e-01,-7.645150153897584122e-01,6.384461421325131614e-01,4.402694558494313695e-03,-1.458892726564327193e-03,7.255173777942470169e-03,1.393846988677978516e+00
6.408518011343993237e-01,-2.258446679075757357e-01,5.768294099426699573e-01,-9.247551811762530494e-02,5.289925640141571878e-02,4.581528169993371452e-03,8.566719293594360352e-01
2.921118838911450633e-01,-7.565464159870567418e-01,8.253566365827613716e-01,-9.577552935321351213e-03,1.144144058664244151e-01,-2.652938895797671628e-02,1.408859252929687500e+00
4.492423783838880302e-01,-2.372097098907933743e-01,7.188909653004517120e-01,-1.309081142454350810e-01,4.850875895891276768e-02,-4.511254806398076744e-02,8.908441066741943359e-01
6.715434581672156122e-01,-5.208869266838751511e-01,6.278113863327448030e-01,-5.731967618121425884e-02,6.348237152676126580e-03,-1.076526929584586956e-01,1.190126061439514160e+00
9.185706096767105588e-01,-3.713696814137013025e-02,8.463766406245185614e-01,-3.730006802554076267e-02,-2.905373188196924347e-03,-4.143056825004100274e-02,9.267908930778503418e-01
6.380670035193455325e-01,-7.503753879532991666e-01,6.629201917665621391e-01,7.266439195110818532e-03,-2.855859324262514931e-02,-6.924954338474896207e-03,1.402015089988708496e+00
6.445317842096526251e-01,-7.049550680043404904e-01,6.389817840654539172e-01,-2.212709932710361233e-02,-1.621318497058860716e-03,-1.497920307185898053e-03,1.347271084785461426e+00
5.895033563013913902e-01,-8.680305228367640735e-02,5.956730963495081577e-01,-1.597861804384362663e-02,4.930657652832289017e-02,-1.002889803892516862e-01,7.069894075393676758e-01
8.684329932027481380e-01,-7.785959622542948377e-02,8.522034172408867736e-01,1.114633067830730385e-02,2.144864341633733254e-02,-4.540087006447536544e-02,9.425029158592224121e-01
6.367292611695809512e-01,-7.572247398791379647e-01,6.651743749342012846e-01,-6.622732283228779070e-03,-1.389784849300334081e-04,4.800739876953702412e-03,1.408463239669799805e+00
9.238073203658990762e-01,-4.457648177964235181e-03,9.249477855788286185e-01,-1.700337261987320409e-02,-2.296697372467167500e-02,3.551045276795701533e-02,9.321848154067993164e-01
3.681843043312287289e-01,-7.400288921550086663e-01,7.763627336321511363e-01,4.367014422213137508e-03,-5.738182066645982661e-03,9.927363867176439410e-04,1.359137177467346191e+00
6.507353264446436025e-01,-7.444811020360243559e-01,5.527137483764638093e-01,1.681251337343436444e-02,-1.038593957413999277e-02,-2.875111641347937504e-03,1.349322915077209473e+00
8.935017488984668965e-01,-2.880250173291865057e-02,6.905141135660197715e-01,-5.168943785545660266e-03,-1.356475999875023652e-01,-5.895420814583605257e-02,8.776904344558715820e-01
7.476231507788243524e-01,-7.099863773719787829e-01,4.582770593496419687e-01,-1.276848336421726286e-02,-1.075245141960541606e-02,4.738782496922522292e-02,1.339464783668518066e+00
6.545599523652916307e-01,-6.557173884266258579e-01,6.103957826315355994e-01,2.237144777784154728e-03,2.554312066804435497e-02,5.887389971559115961e-03,1.289568185806274414e+00
8.972965659383080883e-01,-5.895997689328913438e-03,9.144808105752044725e-01,7.419578283828318077e-03,-7.119427211939696742e-02,3.454285114170496662e-02,9.222382903099060059e-01
6.229272227738718026e-01,-7.289661713001569510e-01,6.734236693147657160e-01,1.811460057016732114e-02,-2.680447225674771963e-02,-1.846063432730062417e-02,1.379345417022705078e+00
6.215523422846226387e-01,-6.542780032349779784e-01,6.437492402382909429e-01,1.090204580122144246e-02,-1.250225649746368461e-02,-4.300038499700080397e-02,1.289545536041259766e+00
6.180985633478535135e-01,-4.013164337202201892e-02,6.238733760521800731e-01,4.277999999122612806e-02,1.164245336472283796e-03,2.536083231457740561e-02,6.667274236679077148e-01
6.735483688547512227e-01,-7.540492261622554482e-01,5.338038804547611260e-01,-1.466259027774651988e-02,-7.107945412498851978e-02,-2.309726929810146032e-02,1.369476795196533203e+00
6.592540866920990617e-01,-8.828750231457246356e-01,5.067854183456880213e-01,-1.884214566683606873e-01,-4.460171880438634218e-01,-1.650447322700479558e-01,1.717935919761657715e+00
6.193707707137905416e-01,-7.581571313647595955e-01,6.472061615545132707e-01,-1.997508713804984487e-02,-4.187872097562094290e-03,-1.003874858290392316e-02,1.392211914062500000e+00
5.846303008934539136e-01,-3.258422905024465077e-01,5.623891276582819732e-01,-5.657289431033466626e-02,1.841364567875053079e-02,1.723279480267867880e-03,9.054460525512695312e-01
6.622764249670410885e-01,-7.263159775475711566e-01,4.929787734054782988e-01,-6.285293125138593888e-03,-2.160437055704627490e-02,1.723748570998474621e-03,1.312742471694946289e+00
5.921126111674808179e-01,-7.260581696050326661e-01,5.853428217907278297e-01,1.822868797614366106e-03,-4.951063201510889911e-03,-1.199756044297460838e-03,1.314832329750061035e+00
2.990307199544658401e-01,-8.888423020010643993e-01,8.040717410752766803e-01,-7.404761777031003411e-02,-3.231524805067857442e-01,-5.894250273248303335e-02,1.614369153976440430e+00
5.848556885108592285e-01,-7.334569796785818108e-01,5.777909622556247626e-01,7.148518575952720819e-03,-1.583656826805499018e-02,4.261293215260850142e-03,1.315159678459167480e+00
1.153865507212122665e+00,-1.151597434941351583e+00,1.880764218963402734e-01,-2.099680336812758275e-03,-5.583831796303075773e-02,-1.285408102899421312e-01,2.019963502883911133e+00
6.260110049729858961e-01,-7.666904389245533524e-01,6.532937611285977164e-01,8.359208915445030461e-03,1.056339055934629213e-02,1.200858570081875590e-02,1.406888604164123535e+00
6.530423287818901690e-01,-2.196603511199797243e-01,6.365648203040839004e-01,-1.246356556518241621e-01,-1.396272226080493180e-02,-3.037305988795244507e-02,8.930039405822753906e-01
5.185532861596826582e-01,-2.721435319016424215e-02,6.441571805675652129e-01,1.612985167772307488e-03,-4.694663509019146586e-02,3.351702823997841640e-02,6.262421011924743652e-01
6.328373096388362207e-01,-1.519386813622775056e-01,6.380245278549916410e-01,-3.245915969545186408e-02,9.295637378840955825e-03,-2.880420700260328051e-02,7.911258935928344727e-01
6.175278561979664627e-01,-6.326344973102974167e-01,7.011531874755230209e-01,-1.491252228116513590e-01,1.292376968683413459e-02,4.700319878960135256e-02,1.322228550910949707e+00
1.187406688473525929e+00,-1.276919328912522023e+00,1.546715465566747549e-01,-3.977056601043948980e-02,-1.241309673542931730e-01,-2.170767021016346832e-01,2.187872409820556641e+00
6.573627733620925895e-01,-7.552096066294472498e-01,6.377278337698581989e-01,4.096325220310025050e-03,4.531764352173124621e-03,4.403452041464200536e-03,1.402918577194213867e+00
6.566328080968906189e-01,-7.395964952034639328e-01,5.468480939748363578e-01,-1.440451373892182550e-02,-1.229124347103143639e-02,-3.581194153586567076e-04,1.345102429389953613e+00
5.574917001830851371e-01,-1.379599267710630572e-01,6.438937007315932437e-01,-3.849889136390446248e-02,2.045008531821948874e-02,-2.265008163378670614e-02,7.472930550575256348e-01
4.861068736375535049e-01,-8.703568499509415357e-01,8.177568059779977139e-01,-1.227414011328720363e-02,-9.218999762687767052e-02,-2.859970511281717791e-03,1.557507634162902832e+00
6.577032864954337477e-01,-7.594518706756229198e-01,5.926025596790840400e-01,1.769925280087922270e-02,-1.424296560451605333e-02,-4.276471061806106028e-04,1.386310935020446777e+00
6.390323545297195151e-01,-7.394783392440602565e-01,6.674330654686917441e-01,1.193182755899449207e-02,-4.396605986538769557e-03,6.938734279359147494e-02,1.398276805877685547e+00
4.512298517006353982e-01,-8.151100646310175390e-01,7.275997009074615107e-01,-3.254555581021718186e-02,-9.339637342851901669e-02,-2.654327270449599943e-02,1.435769915580749512e+00
7.465357035757469450e-01,-1.716000787553774165e-01,6.011810890663330520e-01,-2.216982788740800431e-02,-1.691552282208766134e-01,7.754239567461669244e-03,9.045116901397705078e-01
6.804604149055251128e-01,-7.243400353895039778e-01,6.181082581436613266e-01,-1.088629563931120536e-02,2.787919881524329475e-03,8.071408133212897929e-04,1.374823808670043945e+00
6.682647946364517200e-01,-7.416108375632070038e-01,6.279110436461750044e-01,8.063556374748220889e-04,5.331406338449083335e-03,-1.294336294796155033e-03,1.390171289443969727e+00
4.743295796898520655e-01,-7.582041870236351233e-01,7.146520430754185194e-01,1.046252546604254860e-02,-5.804980412807504708e-03,-1.191905454775547650e-02,1.368924975395202637e+00
4.697376100302148583e-01,-7.596640922441373345e-01,7.406981438463551282e-01,9.504399059545039219e-03,1.504308445673619094e-03,-8.409396094113071908e-04,1.385008096694946289e+00
5.898205032164571815e-01,-3.752798593016153372e-01,6.004930962527924576e-01,2.991232429887090427e-02,-2.522386129303190103e-02,-2.993607287268672951e-02,9.742249250411987305e-01
5.489490597308266384e-01,-7.493080023314128146e-01,6.612007618862458802e-01,-2.328985850191573823e-02,-1.682886027685285765e-02,-2.320762925048201059e-02,1.359373450279235840e+00
3.966766247489084130e-01,-1.182839198660046831e+00,9.223954078175726767e-01,1.379015981641923128e-01,-3.872194328516332940e-01,7.152514359315403913e-02,2.030725479125976562e+00
4.862564357105316759e-01,-7.667398181700902926e-01,7.127779887751219956e-01,-7.248611805558431709e-02,-8.594511050937680974e-02,-3.507051853013071208e-02,1.395261406898498535e+00
6.360214232001185630e-01,-7.439664290095227006e-01,6.665685712242123140e-01,-9.756946218092573363e-04,-1.181290110774132346e-02,8.446857836783089324e-03,1.395739912986755371e+00
6.805471669376637056e-01,-8.109120053349708757e-01,6.458464794161316025e-01,-7.453822710388707633e-03,-1.038580201518191082e-01,-8.573463938898595940e-03,1.485478520393371582e+00
8.614753627547006021e-01,-8.000925438343711171e-01,2.765252883224239566e-01,1.281832365352300433e-02,2.090398577868945174e-01,-1.229942200118806436e-02,1.504353642463684082e+00
4.544848152087014315e-01,-7.694362093644183664e-01,7.362326691266264378e-01,-4.538992548864229787e-02,-2.479600332811001881e-02,3.144798664698415531e-03,1.389336705207824707e+00
5.504254324742861026e-01,-3.901722077103809694e-01,6.028520817820512967e-01,6.662299534567274126e-03,2.019375180061932715e-02,-1.092285751720132453e-03,9.685788154602050781e-01
9.938204932796000923e-01,-3.883489352572152553e-01,4.199836889845235399e-01,-7.527843066641196068e-02,6.713071444401474096e-03,1.351446533261280725e-01,1.232261896133422852e+00
6.609075328833865504e-01,-7.385098519755467494e-01,5.061648321133643824e-01,-2.190283546642980694e-02,-1.644659641713841491e-02,-1.915789077806912682e-02,1.330081343650817871e+00
5.284962725177266840e-01,-5.822781266981685855e-01,7.127861598405715871e-01,1.726190761606115343e-01,-2.511886131177587522e-01,4.368747443165897637e-02,1.325478076934814453e+00
7.314924091846043419e-01,-7.434683800115007291e-01,4.079643198954874261e-01,-1.091223728590095046e-02,2.721264871896945936e-02,-2.262362797065236696e-03,1.343719720840454102e+00
5.363623338496025239e-01,-1.310217233396106185e+00,8.235233184692815067e-01,-2.122596824998452814e-01,-4.931353630162457757e-01,-7.745060959515011334e-02,2.214788675308227539e+00
5.764520602443501396e-01,-7.454530933808353188e-01,6.945851987547951856e-01,2.409173640908460548e-02,-4.872402630893486047e-02,-2.904913737194208048e-02,1.388864398002624512e+00
1.657711709891688256e-01,-1.059433751254769129e+00,1.172514188180239669e+00,2.829837083576304257e-01,1.685111855339616882e-01,-2.660681595770240937e-02,2.018830537796020508e+00
6.418849063342069172e-01,-5.629696265270446309e-01,6.050592464792325931e-01,6.949581982468508445e-02,1.196014696100368598e-02,7.344834132699370327e-03,1.193206191062927246e+00
6.782525835243683465e-01,-7.623925653671036473e-01,5.872337227289590178e-01,1.353226067525255608e-02,9.761713415132195967e-03,1.144868407369415558e-02,1.397800207138061523e+00
6.552796668303590977e-01,-4.050440216908404167e-01,6.146906130843581284e-01,-1.014392952462934844e-01,-1.825465535212365126e-02,4.114700670450647385e-02,1.058227300643920898e+00
6.507794065985071930e-01,-7.270970353442864909e-01,6.391439797503017939e-01,-6.848548390298125725e-03,1.705677360405790516e-02,-4.804787544481192371e-03,1.372490286827087402e+00
5.949424924365211975e-01,-7.593267564456883667e-01,6.594755122987194795e-01,7.380361301608178749e-03,1.739429893628319582e-03,1.709606751315422349e-02,1.388039708137512207e+00
3.311311183643234068e-01,-7.529324450044790895e-01,7.868739950053650345e-01,1.446432159193599028e-02,5.286506299976124514e-03,1.626768154188994479e-03,1.370280623435974121e+00
4.067085044170999919e-01,-7.366426756348375404e-01,7.186344517951641642e-01,-3.841735511681429634e-03,2.957794481716470580e-02,-5.217149659906931969e-03,1.328134417533874512e+00
7.605187841704150742e-01,-7.541766520766213233e-01,3.950009659389416283e-01,-6.574777040312536694e-03,5.166672576665531924e-02,-1.256408166556146656e-02,1.372176766395568848e+00
4.057593371257445236e-01,-9.290863959372801517e-01,9.789546187603349603e-01,2.255892421478205012e-01,3.264146918003343889e-01,-4.243391514220706817e-02,1.831176161766052246e+00
3.259268350231703248e-01,-8.941807867415696442e-01,9.001203893146659807e-01,-4.756912464960796894e-02,7.003352154134108269e-03,-1.829178262459407733e-02,1.589615702629089355e+00
5.894285448988725307e-01,-7.677596266999016095e-01,6.869980371194031044e-01,-8.840715934958182781e-03,5.675843286403727201e-04,8.456028926485573138e-03,1.408669471740722656e+00
7.918730974147889512e-01,-7.677494391710902866e-01,3.858944041520006030e-01,6.023580655736143069e-03,-3.116590770976382374e-02,-2.264980426800395838e-02,1.403078556060791016e+00
7.919251006540273252e-01,-3.347920474531846935e-01,6.581238714265803535e-01,4.239535197799258054e-02,-1.853893676861192163e-01,6.443227283040214685e-03,1.115913271903991699e+00
7.299919887330195145e-01,-7.565778324345469041e-01,4.132086322521864030e-01,-1.473572934270541909e-02,-3.488384819968563810e-02,-1.727284696788371210e-02,1.358130335807800293e+00
8.089785553725925560e-01,-7.629968822673364182e-01,3.486016818766577430e-01,-1.448219563675934816e-02,5.213921958718106126e-02,2.021528210925494992e-02,1.403339982032775879e+00
8.809569201052593890e-01,-7.738869603871036951e-01,3.100460793042811858e-01,-1.037955951995323412e-03,-8.662785365660029269e-03,-1.839739765123894408e-02,1.456338882446289062e+00
9.230315670619279045e-01,-8.827401452581754571e-01,1.814791152758792325e-01,1.288358604829966704e-02,-6.389398233647206049e-02,-5.155394542491432280e-02,1.578719615936279297e+00
6.657631693476300239e-01,-6.487504173747060676e-01,6.059291914373341470e-01,2.500519814950549757e-02,1.234430583569518305e-02,4.210664412418825032e-03,1.286568880081176758e+00
1.269707170039803545e-01,-1.382606149894811010e+00,1.247901538030052659e+00,2.181807859188378967e-02,-1.223046654502144420e-01,8.791986422424737449e-03,2.296513557434082031e+00
4.041857113660825562e-01,-7.310006472192207561e-01,7.207979877963927029e-01,-2.018746008391187133e-03,-2.056221282037410183e-02,7.784458164496515543e-03,1.322787880897521973e+00
8.225213100798735022e-01,-7.997473655912413770e-01,2.452067287265507489e-01,-7.939596772528288021e-03,1.038874351752010761e-01,2.411213736541554381e-02,1.436244964599609375e+00
6.402277284611346264e-01,-1.182110226155013710e-01,5.554281127609781432e-01,2.163786057866580459e-02,8.888941117749377119e-03,8.583856355654992387e-03,7.210878729820251465e-01
4.823419470835955680e-01,-7.550927021578913712e-01,7.133029774417910529e-01,-8.007165952188890351e-03,-5.032333685050825040e-03,1.006484512377643463e-02,1.367830038070678711e+00
5.874799627688507275e-01,-3.642118297850986952e-01,5.749134227610581682e-01,-4.215474242160369145e-02,-7.258900979010785189e-03,3.188706034446799065e-02,9.499764442443847656e-01
3.580906635380880498e-01,-7.381695027422784383e-01,7.649466882952768998e-01,-3.536659321720198382e-03,1.300990888233551253e-02,4.179434867041414460e-03,1.346824407577514648e+00
5.344253366043215658e-01,-7.699513406794169512e-01,6.878198366550390963e-01,-2.285005071078289457e-02,6.197343028530231251e-03,1.379813745433393531e-02,1.388259887695312500e+00
5.730627479118670653e-01,-7.433303224017399069e-01,6.881877715935462714e-01,-3.787887494206476635e-02,-2.354145827081351519e-02,7.576338681419536418e-03,1.379794716835021973e+00
6.544887131809731251e-01,-7.400749905036938525e-01,5.404058404732385856e-01,1.602333493472072462e-02,-1.159098902528002580e-02,-3.000792455632063501e-04,1.341603755950927734e+00
4.742844858832350741e-01,-7.557464551767638650e-01,7.476920775710818035e-01,1.454614849610109603e-02,3.480159541380210136e-02,6.754936273382654635e-03,1.388680219650268555e+00
3.633246879836953269e-01,-7.531178002922875869e-01,7.870944189234178046e-01,6.876608997052669793e-03,3.080131083069394607e-02,-6.037659501245376710e-03,1.379215955734252930e+00
9.006883607038920214e-01,-9.066900276939612313e-01,2.375356970091660747e-01,-8.260923020548933959e-02,-2.434827123920202049e-02,-8.340302973095856456e-03,1.590685486793518066e+00
5.183853823398083538e-01,-7.310268701439998074e-01,6.202751987580874538e-01,1.273926797215588127e-03,3.046864464164995498e-02,-5.487980791909301097e-03,1.304452061653137207e+00
4.972020252099078608e-01,-7.253991733350574345e-01,6.585776055978475041e-01,1.408335745788971520e-03,1.992912468623873889e-02,-1.001303085252034167e-02,1.311332106590270996e+00
6.698105450268280192e-01,-7.350522461428570242e-01,6.270586426441282502e-01,4.587452695956761514e-03,6.594091482363476260e-03,-3.131896926117454217e-04,1.384052157402038574e+00
5.523510460201552785e-01,-2.361328013978798435e-01,5.646726501432448586e-01,2.690660155072943302e-04,3.456714247927105983e-03,2.713165313153341387e-03,7.947528958320617676e-01
5.029564760185054606e-01,-1.198782283349800526e+00,8.178283433246187339e-01,1.627175950528085280e-01,5.000462912010709138e-01,-9.067610925351568540e-02,2.094069004058837891e+00
6.634676480487716743e-01,-7.343944085463958160e-01,4.772263741026083750e-01,7.657159148691004141e-03,2.473491536753443659e-02,2.823916065643572275e-03,1.315446615219116211e+00
5.735812963184214741e-01,-3.347172109505673898e-01,5.670505323904357908e-01,2.894175638672485604e-02,1.200667185747122424e-02,2.465232906979648170e-02,9.076814055442810059e-01
4.692385695951047930e-01,-7.458295940152447345e-01,6.633365823996526522e-01,-1.231353885114880309e-02,4.719931645292255867e-02,1.984748645400168793e-02,1.325981497764587402e+00
6.094557975373373626e-01,-3.197740735826788416e-01,6.458327408628564692e-01,9.058221891126309877e-03,-1.691497390450094488e-03,8.721035878947523690e-02,9.600341916084289551e-01
5.699160645830259053e-01,-1.358535947359613139e-01,5.578554755868336823e-01,2.219687198263981670e-02,7.741062765649632180e-03,5.473850044086756017e-02,7.073832750320434570e-01
6.815249915966381522e-01,-7.542958408388290570e-01,6.300618462654228313e-01,3.180386363014060976e-03,1.268473689414650147e-03,-7.437289414704481832e-04,1.410806417465209961e+00
1.075920379994882214e+00,-1.272190717604594346e+00,3.344648986289799897e-01,7.930999790374705649e-02,3.951308457686660836e-01,-1.896943877386729760e-01,2.217559337615966797e+00
2.973895313406916263e-01,-1.327647736363837927e+00,9.250180840588368980e-01,-1.719918356810509405e-02,4.450191094982880458e-01,5.414322152413209022e-02,2.158330678939819336e+00
7.766115876267879470e-01,-7.408890829339787043e-01,3.893453458178049997e-01,-4.734937193940408698e-03,3.593475535429725698e-02,-8.793836370503889041e-03,1.367216110229492188e+00
8.366591821684012942e-01,-8.845818400496392453e-01,2.711785298117230236e-01,-4.579220870525158200e-03,8.817152061365150784e-02,3.117305436469915148e-02,1.528205275535583496e+00
6.678005716672741343e-01,-7.202536813516730030e-01,6.224319440210723808e-01,6.560441493860403282e-03,-2.397392135397904966e-02,-2.446994555597760586e-03,1.366619944572448730e+00
6.285833525578811143e-01,-2.292287912960966345e-02,7.043329574410501781e-01,2.823652081958499815e-02,7.000087914340516471e-02,-7.408430000649170177e-02,7.163151502609252930e-01
6.327238788029910799e-01,-7.614196421398206072e-01,6.726342637544704406e-01,-3.854029870156333842e-03,-4.165493978936354001e-03,-5.958161374337063313e-04,1.414555549621582031e+00
6.461785801614651215e-01,-7.588770255912536955e-01,6.459017879593823563e-01,-5.917071142959699943e-03,-1.297667996510104907e-02,4.285619983842256530e-04,1.405134558677673340e+00
6.621192058976610451e-01,-7.597560895829015282e-01,6.124276668903692045e-01,6.028948213923569950e-03,-1.554051277759037645e-03,1.533878632374885247e-02,1.397986292839050293e+00
6.824281215372660636e-01,-7.510404393161685954e-01,6.240424841484515373e-01,3.260610300051218404e-03,1.415486349236461669e-03,2.208272402965812359e-04,1.405199289321899414e+00
9.136769551355694574e-01,-2.871813328061483261e-01,5.859137627711371588e-01,1.404376684795995492e-02,-1.386880391787158606e-01,-1.182803562561317995e-01,1.120784401893615723e+00
6.364320137889045714e-01,-6.654226494861222863e-01,6.420870529182771680e-01,1.632626238958696666e-03,7.986708758708315273e-03,-4.021318826114714945e-02,1.306625485420227051e+00
5.525527723356555843e-01,-3.469348329830300726e-01,5.917062758259108435e-01,3.618110520000505015e-04,-3.833743075153453039e-03,-2.060073098345756824e-03,9.197207689285278320e-01
7.796855980691410615e-01,-7.459330393762592104e-01,3.663290395954023060e-01,-3.681733352287509028e-03,-2.991807861632857918e-02,-3.041246060145005783e-03,1.367664098739624023e+00
6.220388627133481840e-01,-2.006684941626574181e-01,5.948626483860961489e-01,-7.006843885393909677e-02,-5.147313680138389941e-02,-5.923733288400601094e-02,8.297181725502014160e-01
7.011036903287902744e-01,-7.483235304562526613e-01,4.589704003772041019e-01,1.022756096875328084e-02,-2.031843164133479915e-02,-9.025860815426417060e-04,1.345387697219848633e+00
6.855003790029339239e-01,-4.459558511948259474e-01,7.961904361194007684e-01,-3.350916354776597994e-02,-2.064921241211528369e-01,-5.020896068592538980e-02,1.247611641883850098e+00
3.890070698250169823e-01,-7.679558709341829381e-01,7.452148669733253961e-01,-3.593364461922389508e-02,5.536751174353263943e-03,6.388030817580937250e-03,1.371734142303466797e+00
6.075631800079853706e-01,-6.181389187537680296e-01,6.597073029838237401e-01,8.875419112299293839e-03,-2.025861457065781038e-02,9.427429283124738255e-03,1.253280520439147949e+00
6.169451893708834955e-01,-4.944457770528690732e-01,5.923901843252832311e-01,3.196785692440077230e-04,3.155414594291361396e-02,-3.760322855927592661e-03,1.100696325302124023e+00
5.454221923652873283e-01,-2.339071380452458770e-01,5.581871813239972502e-01,-6.416585286267620543e-03,-4.705356175681816265e-03,5.765653248867870896e-04,7.859110832214355469e-01
5.701420670357846276e-01,-2.642129359467877414e-01,5.852820391951027990e-01,-3.691986009230936727e-02,8.805518710484530609e-03,-4.044296375976482588e-02,8.474894165992736816e-01
5.840409181568921859e-01,-4.795069535668083915e-01,6.694624427579138892e-01,-7.830330826508441477e-02,4.112366807300073257e-03,-1.267822218384740685e-01,1.138396620750427246e+00
8.317755542118768775e-01,-1.131748452467025157e+00,4.404940209636247772e-01,2.406612696599262895e-03,-4.464476149655984827e-01,-6.369114376669707256e-02,1.962236166000366211e+00
4.821146993026170779e-01,-7.354466866599954633e-01,6.594349357990295646e-01,1.201630505807015428e-02,-2.883897899790673416e-02,1.423724056495922347e-02,1.316560983657836914e+00
6.464630423308899143e-01,-7.517074177834579540e-01,6.593858053081544934e-01,-8.219302942765906519e-03,2.408517621124265165e-02,-5.790688765173860903e-04,1.405368208885192871e+00
6.999351318884102779e-01,-7.446024727296749468e-01,5.026884912380720216e-01,1.755599289633358664e-02,1.591446636119892705e-02,1.180438313480432731e-02,1.357485651969909668e+00
4.222380427934284142e-01,-7.669502339968747862e-01,7.289631113159740217e-01,-2.925399623259280699e-02,-3.113064076592388096e-02,-9.605910147311139471e-03,1.370676636695861816e+00
5.840131779244333021e-01,-3.401345609108991086e-01,5.845905539463869260e-01,2.711578721961634131e-02,-2.464101693063213208e-02,-5.152610969300210758e-02,9.309001564979553223e-01
6.393707809522506391e-01,-7.183914689983149637e-01,6.484665405271964334e-01,2.030749871550517616e-03,-1.707474383244823174e-02,9.725458205989426447e-04,1.362659454345703125e+00
6.067639992790818670e-01,-3.576550154637475609e-01,5.706236765095467067e-01,-1.662837322152742054e-04,-1.816612913173113950e-02,-2.942159046323260946e-03,9.474026560783386230e-01
6.446195630089968098e-01,-2.588630391089724592e-01,9.110211119809467073e-01,1.574209204138741006e-02,1.386014719138100038e-01,2.397321035791348184e-02,1.089971780776977539e+00
5.788533399194918383e-01,-2.928656655441462808e-01,5.873392746587156044e-01,3.058273782001619603e-02,-2.155006555441140587e-02,-4.200811731542279659e-02,8.813946843147277832e-01
5.853117825627881521e-01,-4.257656143119549208e-01,6.000570966731815226e-01,2.589237688278162378e-02,-2.664421554012903759e-02,5.334426069311386243e-03,1.020602703094482422e+00
8.573285270561696869e-01,-2.523547284953884251e-01,6.969256237875995907e-01,-3.958308723927708717e-02,-1.109043260923039953e-01,1.995980256735918178e-03,1.058650732040405273e+00
6.715465351356875168e-01,-6.056496986026679297e-01,5.928309575338523985e-01,2.973940627255878752e-02,-2.843784714258329373e-03,9.336243424775982763e-03,1.240898966789245605e+00
7.283084862885677024e-01,-7.000430633025890304e-01,6.007270917953456690e-01,1.523243581029592834e-02,1.001967672920326367e-02,-7.626453822181184297e-03,1.369454622268676758e+00
4.317748843057301888e-01,-8.462958289006553558e-01,7.005258656732669120e-01,-6.085949715118509074e-02,1.458134432000277592e-01,4.528281084082393798e-02,1.459528207778930664e+00
5.809701622362539730e-01,-4.979680927050523787e-01,6.410242895011334374e-01,5.322666304967549680e-03,1.800069219616525287e-02,-4.607192103137987271e-02,1.113523244857788086e+00
5.387910367757355878e-01,-7.646119345843441772e-01,7.023658899093114805e-01,-1.042588934141113095e-02,3.039654078769204841e-03,-1.053450177334739821e-02,1.392661690711975098e+00
6.528301191437850814e-01,-7.419578945938256620e-01,6.442553735118980995e-01,5.442513504510757341e-03,-2.418014100090131596e-02,-4.817207994729225638e-03,1.391208052635192871e+00
5.150690084267448565e-01,-7.759711266789335316e-01,7.086704910723095052e-01,3.512583168282494561e-02,1.880769505052810788e-03,8.201976294313835167e-03,1.399331092834472656e+00
5.102593245429003499e-01,-7.473828267045441454e-01,6.891476793563201531e-01,-2.556662100238971981e-03,-1.120954929174441429e-02,1.609447680186481058e-02,1.356398224830627441e+00
5.872371584721481907e-01,-7.621536946834425175e-01,6.626408586411890456e-01,-7.757785188079236761e-03,-6.868128696771014620e-04,1.529521447697467298e-02,1.388947129249572754e+00
6.507790754174573866e-01,-6.465246972453838614e-01,6.126538558261747092e-01,5.467351906833998153e-03,3.700660026629470217e-02,5.094140349133345971e-03,1.280338525772094727e+00
5.996381108612780508e-01,-3.136078173932328461e-01,5.650453707893239308e-01,-1.237161279754839388e-01,2.126961474562690489e-04,7.251736597905263440e-03,9.217906594276428223e-01
7.885379389100377612e-01,-7.725687634094425826e-01,3.162994212866964139e-01,-3.538181647315644714e-03,1.118983130410476645e-02,2.408695955231280814e-02,1.387444496154785156e+00
8.167509302237777602e-01,-7.763842476766580347e-01,3.276401369223550519e-01,2.714367078121120765e-03,-2.199860138836897544e-02,-1.380281024669383072e-02,1.414261221885681152e+00
7.753766624334245128e-01,-7.841700670418865204e-01,3.804519150030099550e-01,-1.674068856823835230e-02,1.055014381754737218e-01,2.600536154408223700e-03,1.416509985923767090e+00
8.791345915574412251e-01,-9.228762823834357754e-01,3.361128009669624994e-01,3.059013768150387665e-03,1.774412905277890917e-01,6.202028823557751563e-03,1.630393981933593750e+00
8.902680558319223669e-01,-7.791779494077140100e-01,1.814221201040663034e-01,-6.993560358263919974e-02,2.055283233921569308e-01,1.851570784050534102e-01,1.533095121383666992e+00
4.221720436446014246e-01,-7.339849463757301962e-01,7.171021100364293188e-01,-8.872688655016239051e-04,2.442367804907395051e-02,-6.973077481502078061e-03,1.329137325286865234e+00
3.381231998915317227e-01,-7.339600697836116128e-01,7.776887367584667254e-01,1.197535394112744670e-04,1.553397096347776916e-02,7.021599130581391950e-03,1.347109198570251465e+00
5.517585970542950857e-01,-2.633426882339187092e-01,5.775439352039688501e-01,2.026941399213881122e-03,-6.395398268542619620e-03,-5.435939468012457310e-02,8.337100744247436523e-01
8.388732733874310066e-01,-7.807668080920473486e-01,3.151311447050616499e-01,-1.461997907186878606e-03,-6.353771760817149283e-02,-5.401963272270452789e-03,1.435782432556152344e+00
7.984609266429704144e-01,-7.871596913124999650e-01,2.846518890455793649e-01,9.575321549458285647e-03,6.856074622955371511e-02,-2.416651471056549538e-02,1.406987905502319336e+00
8.377075981890834688e-01,-9.095989680148579559e-01,2.675765746222544261e-01,3.787646720601423739e-02,3.535234109368052269e-01,-1.802658551010213189e-02,1.661972045898437500e+00
6.581608357193813319e-01,-7.755298790041853518e-01,6.452211946666435161e-01,-2.398486111895501999e-03,3.358317988611604892e-03,-2.657276884657092022e-03,1.427290201187133789e+00
5.518439868143942828e-01,-2.230411553140829728e-01,5.483279952239739075e-01,3.677243851455035345e-04,5.655917877799294079e-03,-1.256406668221621541e-04,7.731955051422119141e-01
6.589523349800544549e-01,-7.595048956417883579e-01,6.379494531680052205e-01,-5.668946120635401202e-03,4.707007187045668915e-03,-6.215061158118245950e-03,1.408172249794006348e+00
5.818785116477320773e-01,-5.963088062080232898e-01,6.651138984886021399e-01,4.011919554132731963e-03,2.067626970907677011e-02,6.236082718070635501e-03,1.222525238990783691e+00
6.224684438259636687e-01,-6.814589980744094611e-01,6.665398392923383986e-01,3.189877810914847674e-03,2.531025500111182616e-02,-2.421723221517299227e-02,1.327910661697387695e+00
5.549342212014193310e-01,-2.550457316075235292e-01,5.577106853203893655e-01,-2.361803171121112932e-02,-5.621720751519872564e-03,-6.123603334454036655e-05,8.124606609344482422e-01
6.678218153642863086e-01,-7.497997666470446188e-01,5.376471255221224599e-01,-7.860885671841649769e-03,1.656701563454518467e-02,-7.569356223729248843e-03,1.357659220695495605e+00
5.800061881245913709e-01,-3.894137747240090652e-01,6.335265603377215893e-01,2.460161694957893608e-02,-1.410114157062061953e-02,-1.246015708971175279e-01,1.021524429321289062e+00
5.886924757965145139e-01,-2.692555738582793623e-01,5.726382721894158756e-01,6.872080056395223069e-02,4.191860540204125733e-03,3.592155179864761193e-03,8.583810329437255859e-01
8.566765724805756044e-01,-7.850547663662688080e-02,9.042413005070883969e-01,-1.238666766189513296e-02,-3.715889013026598547e-02,-3.983381857159868505e-02,9.647136330604553223e-01
6.359669921193866760e-01,-5.435287625099604059e-01,6.339547174324271506e-01,1.165762798494811431e-01,1.392141267716980567e-02,4.833197366433283904e-02,1.198832869529724121e+00
7.088454025996433483e-01,-8.013087397338308771e-02,5.618648916651367564e-01,7.159268252438222291e-02,8.433413863706967772e-02,-2.425898736668248915e-02,7.527293562889099121e-01
8.539851807387718319e-01,-3.015488540004288565e-01,5.868800433547491924e-01,3.561319114527745217e-02,2.245574811453899533e-01,-1.031905231138815493e-01,1.133570909500122070e+00
5.660485950277083234e-01,-1.943683779502789477e-01,6.279880603047882648e-01,1.486557086762002643e-03,4.076088299865378989e-02,8.429255438602657746e-03,7.964762449264526367e-01
6.596392770480801193e-01,-7.615033471846051061e-01,6.366260757647242974e-01,8.715595576135914610e-03,-2.452980999798122768e-03,2.929431238010067520e-03,1.409873247146606445e+00
3.643544199339503464e-01,-7.611177995226815485e-01,7.735592649346122451e-01,-2.016889575996054160e-02,6.398437167974907469e-02,9.305536134797233808e-03,1.381465554237365723e+00
6.457792204973711314e-01,-5.318239829849021882e-01,5.805521702181684063e-01,5.059755700164846048e-02,4.522217111028782772e-03,1.594973897542380573e-02,1.150085687637329102e+00
5.785762833342307232e-01,-7.615215414391911519e-01,6.774272415526368940e-01,7.447508007413077349e-03,3.605157354415036708e-03,1.432313378380690831e-02,1.392452716827392578e+00
5.529632900103864657e-01,-2.735250045857587908e-01,5.772538554071358075e-01,-2.538668908973348848e-02,-8.683802944768486548e-03,-5.710889809788542715e-02,8.459862470626831055e-01
5.595364731178413820e-01,-3.012567480747672111e-01,5.585091361935587972e-01,1.168200084381782041e-03,4.879461957024805625e-03,-7.795732968354280971e-03,8.604298830032348633e-01
6.127588932967182878e-01,-6.093610809853532428e-01,6.557420147744481564e-01,-5.390783453420128386e-03,2.434628731478728422e-02,-8.655788491606286258e-03,1.245008230209350586e+00
6.096123912719280113e-01,-5.872948499223537011e-01,6.510044682482737377e-01,-1.814515986471414502e-02,2.822447413249964607e-02,3.729875506876845735e-03,1.219533562660217285e+00
6.382897079533125240e-01,-5.344273928662970352e-01,6.360389435721873763e-01,4.971989654950748766e-02,-3.516489754604256064e-03,9.413718427441849015e-03,1.174883008003234863e+00
6.049730505468369213e-01,-5.946396834103833129e-01,6.512463672597641473e-01,3.233489376504349727e-02,2.575720445734542771e-02,4.559939083758762085e-02,1.228041887283325195e+00
6.506829060934324893e-01,-6.160428333435904458e-01,6.350823305198369795e-01,6.385752920435192048e-02,1.700393843470199414e-03,3.951355680180528018e-02,1.265702128410339355e+00
4.819022343600158909e-01,-7.309303477557264062e-01,6.649876330936969060e-01,-4.763043126526713160e-04,2.000134342170469676e-02,8.646520780749235649e-03,1.314519047737121582e+00
5.212845870318689734e-01,-8.774952382807625906e-01,5.916696350322119269e-01,-4.038363887770089755e-02,1.925903256188811474e-01,3.411097770256948242e-02,1.476363301277160645e+00
6.367653708331213469e-01,-8.768999612376500163e-01,6.882684738369232447e-01,-2.874112311811695408e-02,1.824805198820474428e-01,-3.764994668086595747e-02,1.574300408363342285e+00
2.696198769972958931e-01,-6.065963012354179673e-01,9.506258425821961788e-01,1.475410891815368830e-01,2.206386341902271397e-01,1.932197046950276734e-02,1.428531289100646973e+00
6.417652046440585067e-01,-4.657202079352170676e-01,5.962698118334688324e-01,9.473517899849577539e-02,1.032875594324549409e-02,2.148312653105127756e-02,1.098561406135559082e+00
1.008708978337417683e+00,-6.624409078966213560e-01,3.677374280583846633e-01,7.931689890399086507e-02,2.211562740634787083e-01,-1.885081321263220588e-01,1.550689101219177246e+00
5.729842551678727691e-01,-2.728471699381804783e-01,6.015286806505217854e-01,8.363897926053137644e-02,8.837134824567410840e-03,8.466268527841509794e-02,8.849369287490844727e-01
6.297968012639322266e-01,-7.164591302729339528e-01,6.556731396778003873e-01,1.897418260328532363e-02,3.628641924262805685e-02,4.501086017701613068e-02,1.363458395004272461e+00
6.202235617217962682e-01,-2.030877263960033652e-01,5.970235528100130695e-01,-5.880325609757634103e-02,-1.527264978014348379e-02,-1.004625524174900947e-01,8.370366096496582031e-01
6.821744875825784815e-01,-7.404998176897799045e-01,6.234051299673226687e-01,6.951379565140199980e-03,-1.215315429862888355e-03,2.784625655593289133e-05,1.394272446632385254e+00
6.163938360761302970e-01,-8.091710153853833853e-01,5.024730471351274153e-01,-5.942104645021075576e-02,3.384580668735387432e-01,-4.098503312045668340e-02,1.497366070747375488e+00
6.567422479769315924e-01,-7.288034084857031303e-01,5.017947291147514255e-01,-8.282340838612949063e-03,2.159583869543109727e-02,-5.611565245979879260e-04,1.315547227859497070e+00
7.075492609244674602e-01,-5.909475606937453218e-02,7.499722404209308024e-01,-3.485647192882785489e-02,-2.657293976040436823e-01,-9.155198604559671230e-03,9.153134822845458984e-01
5.493857937548460857e-01,-1.963432797982948008e-01,5.530951608610709114e-01,1.397530146801707418e-03,-7.543304070250511813e-03,3.007215126982251685e-02,7.495207786560058594e-01
6.851080951302037647e-01,-7.084779656531003944e-01,6.126618406281820750e-01,3.596438762163772784e-02,-2.154857196180833771e-03,-7.885320008868187134e-04,1.360244989395141602e+00
6.801585579499764833e-01,-7.658384315452838598e-01,5.864919985101211264e-01,-8.063649108667110890e-03,4.295951779543503643e-03,-1.865987834917042648e-02,1.401975035667419434e+00
6.043613602223728565e-01,-5.799729151697088358e-01,6.649149650140921963e-01,4.820887152569878348e-02,3.054650498846442352e-02,-1.797051414733710772e-01,1.258842110633850098e+00
6.366227360752324538e-01,-6.341176266707804210e-01,6.493919890276667051e-01,1.476391546290438395e-02,-2.431804187670435352e-02,-3.545176944895581800e-02,1.279597163200378418e+00
6.538292446296496419e-01,-7.499784527581162541e-01,5.499541637961506968e-01,-1.771471106230589759e-02,1.205569528357097742e-02,-1.266712023059127223e-03,1.355369925498962402e+00
6.586812232982321991e-01,-7.652545754594999305e-01,6.435910073580684010e-01,-3.814559014308128385e-03,-1.906293580086545342e-02,5.463508248191709972e-03,1.416882753372192383e+00
6.700678186841650952e-01,-7.591713601204670425e-01,6.354276738805546554e-01,-2.162131102512960656e-03,-6.378020263405339077e-03,2.069430606865674607e-03,1.412290453910827637e+00
5.691301044701921885e-01,-2.202445928688593346e-01,5.725002375407886035e-01,-5.305662992753640977e-02,-1.368075541478188176e-02,1.677361611868326274e-02,7.972669601440429688e-01
6.249829801026752785e-01,-5.013239165721145030e-02,5.776921474606540041e-01,-8.343437576168484526e-02,-4.953698216521153913e-02,-3.315417878006771818e-02,6.764862537384033203e-01
8.367939059801705604e-01,-2.714815929412798257e-01,5.055711139697274259e-01,-4.489155671694262245e-02,-9.406712202309831794e-02,-1.135348115811373876e-01,1.020861983299255371e+00
6.342881807672352545e-01,-8.340347445659224146e-02,6.294134617799082010e-01,2.023924800467647930e-02,6.436491572343692319e-03,4.959941558070299350e-02,7.213459610939025879e-01
9.874151408708684574e-01,6.235681167935380742e-02,8.510178350011932125e-01,8.758433390093262050e-02,8.302068925735972549e-02,1.114598725890012937e-01,9.105613231658935547e-01
1.032823071576842278e+00,-6.494202413839423871e-01,3.406234430218643694e-01,-1.185111071832909563e-02,1.095001422642684769e-01,-1.948381149045128602e-01,1.514896869659423828e+00
6.370050145235455208e-01,7.895131371933289399e-02,1.013390903066658799e+00,1.380642285335252455e-02,-6.730395638137272318e-02,-1.076148945843537555e-02,8.231904506683349609e-01
5.931178137233272807e-01,-2.891028387991922965e-02,6.662492764140603985e-01,-3.825488571315166508e-02,2.113451220396091179e-02,-1.141755191529118529e-01,6.946908831596374512e-01
6.242383950815113547e-01,-7.149192789299201323e-01,6.554123915240646081e-01,-3.593632003131861340e-03,-3.940852885626452279e-02,3.116933653804937823e-02,1.357819676399230957e+00
9.623783584912216638e-01,-1.191118508978206147e-02,5.876902077318267859e-01,8.152146339419127224e-03,3.054372674866079329e-02,9.562689064300270922e-03,8.531407117843627930e-01
4.754887855058245738e-01,-1.005579384455016934e+00,8.628472044980570743e-01,-2.139855003520523824e-01,-3.753538712684538203e-01,-1.071437158384146160e-01,1.873978137969970703e+00
4.287380531736147415e-01,-7.742988211788853770e-01,7.783294122081476640e-01,2.126201951148265490e-03,4.685704736305973395e-02,-7.917501268598010553e-03,1.413107037544250488e+00
6.489865988965151100e-01,-7.030540630368296018e-01,6.440248257259308939e-01,7.028907715732274700e-03,3.268126458040668952e-02,7.406757482646561530e-03,1.350868940353393555e+00
6.567479800668316603e-01,-7.630563506184949718e-01,6.183277276587115789e-01,1.415699010000057850e-02,-2.334992769534096745e-03,1.058940070527764586e-02,1.401329755783081055e+00
6.457274881874769390e-01,-7.699673445650718762e-01,6.398289243114705371e-01,-9.460792364880092490e-04,5.762798966639730465e-03,9.746316990370750347e-03,1.412891864776611328e+00
6.569817993916093890e-01,-7.665425277075589294e-01,6.391674022680940981e-01,-4.776789568796122216e-03,2.906778379727782257e-03,1.049783132284289218e-02,1.414851188659667969e+00
6.469190313913865120e-01,-7.642251677524269926e-01,6.103137442499957377e-01,1.664334745477724295e-02,-1.350892476847511585e-03,-4.529400699564722389e-03,1.393524527549743652e+00
6.388567585384450354e-01,-7.526559746728122002e-01,6.690581497380310161e-01,4.956730246734701584e-03,1.854110469272721162e-02,4.991063846922024275e-03,1.407275795936584473e+00
5.772680102364939891e-01,-2.019250318403705835e-01,5.604546238909399181e-01,-2.954834531695530245e-02,-1.484746226021763094e-02,9.609912233381263935e-03,7.732278704643249512e-01
5.566656063598162119e-01,-1.885789548699022267e-01,5.529358724065491781e-01,-6.055639833593454494e-03,-5.251129091994276993e-03,2.791126251137880307e-02,7.450863122940063477e-01
5.064395173984911347e-01,-6.787011152961143212e-01,5.250125809775992858e-01,-1.123984559273297767e-01,-3.194216501060230251e-01,-6.424460395126481427e-02,1.335398077964782715e+00
6.115437748489820358e-01,-7.415450896046507090e-01,5.758063179158097178e-01,1.098751154935353851e-02,-8.640817720363191262e-03,1.417781621628573172e-03,1.335800409317016602e+00
6.883321502797544733e-01,-6.959475459036927880e-01,6.807640373052510352e-01,-1.140082783318573378e-01,-3.228323401684127236e-01,-9.636811051159883956e-02,1.511729955673217773e+00
6.709482318999062667e-01,-7.568297225082682989e-01,6.360092359182990540e-01,2.740559222581104206e-03,-3.427939729461811341e-03,1.917376364662691035e-04,1.410653591156005859e+00
1.003856578998782112e+00,-3.128256147130252796e-01,4.937798334820341362e-01,2.335507611152331034e-02,-8.671128092656667230e-02,3.616417690928074025e-02,1.162040352821350098e+00
6.370000865763474351e-01,-5.484946197347483343e-01,5.843648665934497721e-01,-1.364666264219486363e-02,-1.607828219776194500e-02,-5.338411251937368734e-02,1.164325237274169922e+00
6.066701912589679280e-01,-6.108574913544403406e-01,6.619196810856722291e-01,-7.765282703646518569e-02,-2.195822898832247225e-02,6.476724298935861851e-03,1.253936290740966797e+00
5.175296495663330720e-01,-7.679283550735418462e-01,7.158784107984514922e-01,-3.820649077698735213e-03,5.965027106254833407e-03,-8.695367456922498822e-03,1.395381927490234375e+00
6.414869450466347267e-01,-7.702045716240660811e-01,6.436688329566364608e-01,1.922916138329679408e-04,2.610441848972128512e-03,6.284846234513309128e-03,1.412832975387573242e+00
6.112170276353603438e-01,-6.298711976275055413e-01,6.648135557304485355e-01,-2.296236511059444874e-02,2.305233533814912000e-02,-2.577205907863872048e-02,1.270771145820617676e+00
6.558366175764662742e-01,-1.880843973213245368e-01,5.547759809009706888e-01,-4.931541598323658376e-02,-4.750771753592648340e-03,7.076765970383460704e-03,8.028964400291442871e-01
5.565483402938535828e-01,-2.839304460646150385e-01,5.901909655976065316e-01,-1.176588905544844951e-02,-5.846097664239703791e-03,5.784649699374576348e-02,8.639264106750488281e-01
4.125571541954266008e-01,-4.482042603032379002e-01,7.404555467184723572e-01,-1.233233367814043496e-01,-1.268917975931262709e-01,2.453286726167942453e-02,1.107432126998901367e+00
6.263852545989779808e-01,-1.412565343204797430e-01,5.526216571257083210e-01,-3.153159161143739148e-02,-6.316045693409276518e-02,6.944043959519831388e-02,7.533308267593383789e-01
3.463716911283707400e-01,-5.557663177798289889e-01,7.850682070376928667e-01,-6.538446012642250282e-02,-9.499974566834232248e-02,3.502550366141768401e-02,1.202353119850158691e+00
4.394904403444150898e-01,-7.395492211823040396e-01,6.963267183980073050e-01,-3.639441065718343297e-03,-6.259955954764047370e-02,1.763534865674515686e-02,1.331032872200012207e+00
9.975972013501148705e-01,-3.397411073581790841e-01,5.036878497083568940e-01,8.084667615101374938e-02,-1.409445056433171993e-02,-1.043516408879117952e-01,1.193636775016784668e+00
6.514374967461833421e-01,-7.641337040128489688e-01,5.671705081476454691e-01,2.392123009309610887e-02,-7.197237148792752851e-03,2.256310382388761193e-02,1.376610398292541504e+00
1.980654535914905257e-01,-8.233282590594542816e-01,1.089358490209639374e+00,-4.391716633448645990e-02,-1.257360608560610105e-01,-4.674367572712886942e-02,1.675642967224121094e+00
5.914480266055686108e-01,-5.040777997173540026e-01,6.143237763043875033e-01,-3.000101096238843093e-02,-2.102029555581522505e-02,-6.472665212060049050e-03,1.109014272689819336e+00
2.239300481537117582e-01,-4.686136190731420292e-01,9.334873923768203241e-01,-1.789637104925356770e-01,-4.827481283521840860e-02,-1.140287399248113981e-01,1.271444439888000488e+00
2.668659662082525363e-01,-9.168063506827375253e-01,1.054477521779624727e+00,-2.036019039981595835e-01,-2.925676630158081104e-01,-1.893455241518725574e-01,1.855367898941040039e+00
4.382080533711747439e-01,-5.391694390946072390e-01,6.426397422101879364e-01,-1.131481748262333081e-01,-2.145587453287209345e-01,-1.093351021217229685e-01,1.187115192413330078e+00
1.053268425304943801e+00,-8.792735700200895455e-01,3.399644662542800067e-01,-2.472092838906018303e-02,3.370304081479193470e-01,1.910977865050778324e-01,1.821314930915832520e+00
9.767457014861525844e-01,-2.867474850003018938e-01,5.499674870006382443e-01,-8.871466858247584186e-02,3.152441810573616832e-02,4.391809852917201440e-02,1.127697587013244629e+00
5.584876980240838229e-01,-7.239295237073334333e-01,6.087059150424690701e-01,3.551858060223943805e-06,-1.374935789953853418e-02,5.929179595970266760e-03,1.308506488800048828e+00
6.716568748607392170e-01,-7.472917380545506250e-01,6.336537915809682397e-01,-1.890972828680118414e-02,2.516001725241099121e-02,7.791227208469313388e-03,1.401459574699401855e+00
8.812962972995803668e-01,-3.249415338023819988e-02,5.776369988984022541e-01,1.177291635007679527e-02,8.826532318800421606e-02,2.621221567313213388e-02,8.219430446624755859e-01
6.579029018808819629e-01,-7.635491185786924540e-01,6.402018133726348204e-01,-6.437514100202912024e-03,1.465216628711893398e-03,3.072006076463599297e-03,1.412740945816040039e+00
5.666601368769439429e-01,-7.596983315827734451e-01,6.943383866341845678e-01,-1.466851572090605363e-02,-1.890015653083758351e-02,6.718884612834283808e-03,1.395251989364624023e+00
1.337283442952520995e-01,-1.411918498090388496e+00,1.265708369321125071e+00,-7.584037664771632603e-02,-1.271476711736175824e-01,-5.229911427670587420e-02,2.343929290771484375e+00
4.785117574545622032e-01,-3.974680986844608688e-01,6.646612396426160307e-01,-2.136198420502592732e-01,1.187608656497229215e-01,2.426259724121032635e-02,1.070529937744140625e+00
3.472695293197964328e-01,-5.291832374894062108e-01,1.004180563536448689e+00,-5.287874448713240222e-02,-1.855291917994593143e-01,4.034546049685774557e-03,1.373737096786499023e+00
3.837814462877878197e-01,-8.206561017710074513e-01,7.657267832080605352e-01,-3.352647971587164460e-02,-1.005643427269577311e-01,-3.059489573985023358e-02,1.446755409240722656e+00
5.930918968217624432e-01,-2.226286543568767318e-01,6.106015500055180789e-01,-4.368386475353162879e-02,2.720301517281810411e-02,1.009432243906321497e-01,8.476455807685852051e-01
1.223622885462525511e+00,-1.275168561907711773e+00,1.300069867333617513e-01,-5.099251215256844771e-02,1.351231125635215524e-01,-6.247853685357243614e-02,2.186669349670410156e+00
1.129657041084007219e+00,-1.154176548263047275e+00,2.128591716318648519e-01,4.775599725355338110e-02,2.933117989630202871e-01,-1.624084275811233657e-01,2.075251102447509766e+00
1.089446586349231527e+00,-1.195332417586789431e+00,2.084266713927840908e-01,-2.578682662971182402e-03,-3.303033712147353529e-01,-3.078556340320590667e-01,2.143623352050781250e+00
6.950347002530034013e-01,-7.614700687483758612e-01,5.851859770932794635e-01,3.120586808938597811e-03,-5.014234340457455856e-03,-1.192931388889977365e-02,1.404994368553161621e+00
8.753872861882791012e-01,-9.250302079543697431e-01,3.940704138931859224e-01,-5.190344059078437489e-02,3.369983727386204053e-02,1.309824929234315871e-01,1.633877635002136230e+00
1.762545371253664561e-01,-7.708078554672671556e-01,1.115994923020484642e+00,-2.597952449340540926e-01,2.015510494546476992e-03,-3.208340837911964616e-02,1.695763230323791504e+00
1.008155435834887204e+00,-9.175641249967496638e-01,6.819972779937323593e-02,-4.830697417386431956e-03,-8.016944620653533582e-02,6.655395256241800062e-02,1.677635550498962402e+00
8.303607473227359037e-01,-1.391441081160520232e+00,5.200930176933402649e-01,-2.196621088481832268e-02,5.362047732461169280e-01,5.084158804875531928e-02,2.283651590347290039e+00
5.350637728230651646e-01,-7.495128724897662797e-01,6.127517654825789251e-01,2.165506348297037420e-02,9.170705639057678826e-02,-2.184058293715452140e-02,1.335678577423095703e+00
7.735712016693341297e-01,-7.843688432688544765e-01,4.493124926180470102e-01,7.229811673562756835e-03,3.789280647472216546e-02,-2.136802863003944841e-02,1.425825834274291992e+00
7.166245618877739032e-01,-7.316285915838353082e-01,4.256233154662373841e-01,5.083220121880698515e-03,2.292086450593703098e-02,3.969204926561423555e-03,1.327545285224914551e+00
7.935848890387178223e-01,-8.208421038065037978e-01,4.386503283688996113e-01,-1.226909096426198956e-02,6.673548618546350231e-02,3.981864483688106471e-02,1.475773096084594727e+00
7.132070296251973307e-01,-7.653569082823998837e-01,5.064800601700110150e-01,3.947828852368533842e-03,3.684341780608395983e-02,-3.789570943480929238e-02,1.389840126037597656e+00
7.869816779344858126e-01,-9.952314569394522525e-01,5.455139554479344621e-01,1.609518989866517424e-01,5.100418940236431942e-01,-2.172586656909221425e-01,1.950382590293884277e+00
8.364691738789656883e-01,-1.316753656555605945e+00,5.327577994909171721e-01,6.796493212790828686e-02,5.773299813775584211e-01,-8.312092728038816825e-02,2.260346412658691406e+00
6.632949763468549698e-01,-7.622422307927847474e-01,6.340364958329500755e-01,1.232569741418976933e-02,-5.856220110097648751e-04,3.204335542320602484e-03,1.411308288574218750e+00
7.895574979662584036e-01,-7.682675515270813715e-01,3.737306673005487689e-01,-2.250400950602028573e-03,1.486602723288402150e-02,-2.469538717373430739e-02,1.398017525672912598e+00
7.817424342217166311e-01,-7.628184436941203295e-01,3.763011926504102322e-01,8.273387344442769548e-03,1.483779813229762351e-02,-1.918975706796298419e-02,1.387729406356811523e+00
3.924561831456639949e-01,-7.723132744119401982e-01,7.691295937519914139e-01,-1.719688957270438731e-02,-5.796233927217761539e-02,-2.868525192900330326e-02,1.396690011024475098e+00
9.489171828038007739e-01,-8.682176128681970972e-01,4.097757280473325325e-01,3.917413769236226251e-02,3.522215256346371559e-01,-2.421712879658767803e-01,1.779237031936645508e+00
1.155915299134254864e-01,-1.363592251093713736e+00,1.255236345238712525e+00,3.427607398900065633e-02,1.409054118338328998e-01,-3.283252007480309733e-03,2.288151979446411133e+00
7.014313200731436826e-01,-7.443538043352032618e-01,5.073011377696493573e-01,1.768903137775356543e-02,1.484206873118298388e-02,5.872328830816021458e-03,1.359784364700317383e+00
7.848560935853496900e-01,-7.390523747341117833e-01,3.222116060194348819e-01,6.385148222209273763e-03,5.673539296000012708e-03,1.609816539616901318e-03,1.353342413902282715e+00
1.125327380230390473e+00,-8.489344823360975845e-01,1.116213235340401677e-01,-1.092558565668113740e-01,-2.583858160583036301e-01,-5.497491536234212078e-02,1.780212283134460449e+00
7.473993995090026932e-01,-7.589884176504672064e-01,3.998181736779125028e-01,2.090371866301982476e-02,2.077967711498176356e-02,-3.442430975090239598e-02,1.368424773216247559e+00
8.013477921844183172e-01,-8.805214882195416815e-01,3.573245867557602318e-01,4.561848992884088433e-02,1.932888326070776042e-01,-2.881897361508523395e-02,1.549150824546813965e+00
7.201957651063115584e-01,-7.448906629408585944e-01,4.316806773059225222e-01,-6.859646998502144308e-03,1.752626969826796138e-02,1.419742697682473251e-04,1.344649553298950195e+00
8.779515973037291809e-01,-8.459130849731427704e-01,3.140095880528018801e-01,6.383524794791705335e-03,-4.589534673200881820e-02,1.448536709282025048e-02,1.524680733680725098e+00
2.249344875583439429e-01,-7.053162486409719767e-01,8.809247915503659598e-01,8.933253900077008092e-03,-3.009624811172171427e-02,-3.777541992647954344e-02,1.383171319961547852e+00
7.021095323405507349e-01,-7.515650052707838480e-01,5.034282305009754044e-01,-1.284845196847325503e-02,-7.843437747371336671e-03,4.236370704359616358e-03,1.365488767623901367e+00
6.071537586302333533e-01,-1.924565244390099572e-01,6.219945669523241349e-01,1.667312438435216912e-02,1.170070815327125223e-02,1.117159493321346203e-01,8.307525515556335449e-01
1.070948876523167836e+00,-1.409669606680051590e+00,3.414486897775690921e-01,7.416950069454052163e-02,4.816512900456446089e-01,-6.896254587460026730e-02,2.367015361785888672e+00
5.819802706943335568e-01,-2.574498285583920465e-01,5.780181875537608871e-01,2.722298692472983200e-02,2.005151386992724480e-03,-1.335811894867171105e-02,8.391086459159851074e-01
5.648318930669942173e-01,-1.516238236734757105e-01,5.641442866518253663e-01,-2.078668428003610166e-02,7.318614379614266433e-03,7.173022809184079369e-03,7.172363400459289551e-01
5.545311007541516846e-01,-2.310442933192603521e-01,5.531367238881258475e-01,-1.174329623803946863e-02,-2.230244985771260343e-03,-7.511849253143703178e-03,7.852599620819091797e-01
7.431498118631002514e-01,-7.713403164424326164e-01,4.082150311887942640e-01,6.372469737189592753e-03,4.180020546424220024e-02,-2.624153617190888230e-02,1.380592465400695801e+00
8.247757327520058857e-01,-7.806636174787503490e-01,2.809314099942206155e-01,1.587897632218289445e-03,3.927468186308431114e-02,-1.918398215755686212e-02,1.416274070739746094e+00
7.970550939176926919e-01,-7.659341230731899763e-01,3.979279687145689803e-01,3.374935800031736519e-03,2.624973334451856377e-02,-2.540821868823636698e-02,1.407993078231811523e+00
8.258077216925966413e-01,-8.228916239995065496e-01,2.701479602086322429e-01,-1.928685954362035354e-02,1.118808090139270101e-01,3.926833930748901968e-02,1.467700719833374023e+00
2.930634597506164285e-01,-8.522582003053511546e-01,8.414711833301629085e-01,5.736362388258568583e-03,-1.567384282933216022e-01,6.688974682778638103e-02,1.525725483894348145e+00
5.712531031105239077e-01,-7.801335305709731216e-01,7.129635263474838336e-01,1.849698228356630100e-02,-7.744932638707021678e-03,-5.427673587233869217e-04,1.427949786186218262e+00
8.680276513124419724e-01,-8.561905319513836154e-01,3.070414491249506828e-01,-2.215000820127368750e-02,1.684940643170654284e-01,2.779185491252180243e-02,1.552201986312866211e+00
7.559630177442756560e-01,-7.468474156996671720e-01,3.911691760698879916e-01,1.327922346624801561e-02,1.132097520000198004e-01,-9.017681992434814497e-03,1.372049570083618164e+00
8.154232845290744214e-01,-7.771381438207526360e-01,2.577155522650744768e-01,-6.773489622643921173e-05,2.680880945533067189e-02,-7.642757150560897973e-03,1.400513291358947754e+00
8.272168196475525592e-01,-7.897409286976254661e-01,2.671981848030438034e-01,-9.899495926820806643e-04,4.823633128205582349e-02,4.597730822070129376e-03,1.424673080444335938e+00
6.223188119482156999e-01,-7.674721541486501097e-01,6.263300562207857469e-01,4.902061152815577992e-03,5.430002938349175884e-03,-4.151861078153846855e-03,1.391877174377441406e+00
8.078268063085185524e-01,-7.626774298322546164e-01,3.996765502381218749e-01,-3.351110363865615616e-03,-1.247579185484339916e-02,-1.827186664971038261e-04,1.411583900451660156e+00
1.081646034416249957e+00,-1.422706754237087257e+00,3.438995227362592888e-01,2.083513313284005714e-02,4.742729075469455102e-01,-2.490330850976850072e-02,2.376224517822265625e+00
6.792041601205041079e-01,-7.453004187646717904e-01,4.699714873885272315e-01,1.874329508287499169e-02,-4.342829117642468817e-02,2.173115936175385246e-02,1.335315465927124023e+00
7.860992304416201115e-01,-7.596067126626425692e-01,3.290140150603164670e-01,-1.324206085501138802e-03,3.230098463159269007e-03,9.924957796611564784e-03,1.375480413436889648e+00
5.861846654682987268e-01,-4.783840516612070104e-01,6.434606924570888120e-01,-1.505162424156647645e-02,1.804525773292104118e-01,1.056449535553077440e-01,1.153001785278320312e+00
8.195520973028315170e-01,-8.505397992974076393e-01,3.515246849787076466e-01,3.361166070867051270e-02,-6.654419501204660026e-02,-6.841163775892450047e-03,1.497805714607238770e+00
7.807093781051446246e-01,-7.656378601028251962e-01,4.009007934195035205e-01,-3.790310095755923449e-03,2.915371962523570504e-02,-2.304931350131081066e-02,1.397252678871154785e+00
7.664392864845647191e-01,-7.693321407552489166e-01,3.838770122338809876e-01,2.590295928663665335e-03,4.821028368819949179e-03,-1.853401145413870882e-02,1.385113716125488281e+00
6.941750673215967282e-01,-7.599528159385060544e-01,5.702406894580637209e-01,2.494261202805728855e-02,-3.680536206006635586e-02,-5.650179551700728470e-03,1.398448109626770020e+00
7.808847670560852272e-01,-7.520776294417172991e-01,3.832372072684301356e-01,-4.423354074663023161e-03,-6.206802790532792852e-03,-1.884209617161488465e-02,1.378316998481750488e+00
7.700172592847960296e-01,-7.648186924590697489e-01,3.166676543583357706e-01,-2.559679830103686778e-03,-6.087821685539487188e-02,1.679153613599997791e-02,1.370187520980834961e+00
8.610295713989756239e-01,-7.736454554811317275e-01,2.789450432439667948e-01,-1.573140202579861868e-02,7.584747225042188200e-03,-1.520186092305943724e-02,1.435644149780273438e+00
4.318938563530491659e-01,-8.418849275376699692e-01,6.856859311187851747e-01,4.962535603264982276e-02,-1.942374577032444927e-01,-1.671046278970575796e-02,1.460002779960632324e+00
6.510750134280396395e-01,-7.762034401493963509e-01,6.492941797429049311e-01,3.059096665128119980e-03,-7.473269738021069003e-03,-3.834449687687647469e-03,1.426472902297973633e+00
4.528026470946142079e-01,-7.694078264195091110e-01,6.157094180925398730e-01,1.449812470447716002e-02,-1.911897997398917248e-01,1.429384451603211287e-02,1.352903366088867188e+00
6.208930478690684041e-01,-7.276746755938767741e-01,5.537941244807966790e-01,5.033742758635526698e-03,-6.571437891199007064e-02,1.336085565372205743e-03,1.321244239807128906e+00
6.877268336415938155e-01,-7.488511515516479422e-01,4.265092370285583079e-01,-1.869658335336180782e-02,-6.737415488780754136e-02,-2.346088491048041805e-02,1.331558942794799805e+00
6.397245727236836599e-01,-7.354126757532308822e-01,5.021610064980055466e-01,1.240711152035317306e-04,-9.940906896323020714e-02,-9.136703951875978572e-03,1.323122978210449219e+00
6.088022515858129147e-01,-4.596973192804254538e-01,5.465630666744576427e-01,1.543087720414218766e-01,2.166123886374625995e-01,-6.121832416191685944e-02,1.141272068023681641e+00
6.149912875512821842e-01,-5.303335353246362294e-01,6.413824153485883084e-01,6.420466577864322733e-02,2.825362036309893299e-02,-3.735518290615015297e-03,1.165115952491760254e+00
5.861907648426198936e-01,-7.343986171481120540e-01,5.504350404453943746e-01,2.787091618157223113e-03,-1.637426759428620704e-01,-9.441022598104132496e-03,1.333694815635681152e+00
6.403442754678868587e-01,-7.393229861990527896e-01,4.591282054182228567e-01,-1.947852825789393258e-05,-6.286612895158927294e-02,2.794420290610271566e-04,1.303134560585021973e+00
6.239810398332570340e-01,-7.321963009103414910e-01,5.136099851900768343e-01,9.185975439024684748e-04,-3.074690208182717308e-02,3.197023544299374895e-03,1.305597662925720215e+00
9.892998676740407671e-01,-8.616289257862177475e-01,3.448583837219151293e-01,7.956015503214469708e-02,-3.458577678298025426e-01,2.343835338786453837e-01,1.786358356475830078e+00
6.403563725253500483e-01,-6.810231761691051267e-01,6.525686703515365394e-01,-2.584387290663860137e-02,-4.846757402436845905e-05,5.171736691206890030e-02,1.331299304962158203e+00
6.080927194955104698e-01,-6.299396343114455066e-02,5.892877327046942559e-01,4.584564520929800685e-02,5.583072416844908105e-03,-2.935013433576241088e-02,6.686362624168395996e-01
1.195218709539966229e+00,-8.914607751882781539e-01,6.960540435758560962e-02,4.167998192135811963e-02,6.690509508386767445e-02,9.442750039356255509e-02,1.821491837501525879e+00
7.151243917036038678e-01,-7.529525588380155954e-01,4.480540564196117681e-01,7.241661161808745154e-03,-1.120250800660509000e-01,-4.278471112245903381e-03,1.368341207504272461e+00
6.519799467904781043e-01,-5.776910569880499002e-01,6.328795202383690199e-01,-2.851572030845005851e-02,-2.243077249112217838e-03,3.511331476964776183e-02,1.222751736640930176e+00
1.125301625510065850e+00,-1.407094042471110029e+00,1.005077824643751672e-01,-1.066334077390165315e-02,-1.319692451463286564e-01,7.318366269195937523e-02,2.221869230270385742e+00
9.272518939787965930e-01,-3.488798215618167387e-01,3.792026858042982784e-01,8.675875354829466757e-02,-1.763729151766048331e-01,1.102698128254549353e-01,1.175529241561889648e+00
1.276743915580355271e+00,-1.344640769713192352e+00,1.227425212335934990e-01,5.991856804278278270e-02,6.669175074555672156e-02,1.138957086796230783e-01,2.289394140243530273e+00
5.891118210217154427e-01,-4.509917049024667612e-01,4.742310433686532378e-01,6.739004476007684485e-02,-2.292092578605907649e-01,1.101961621554014975e-01,1.087745189666748047e+00
8.159420856360607432e-01,-8.484388465054025774e-01,4.866313095046410075e-01,1.143548288820731007e-01,-3.617771655171039269e-01,1.621808105500568975e-01,1.685615062713623047e+00
5.723909922949471651e-01,-5.877340911586137473e-02,8.754766394306978672e-01,2.764915153976268793e-05,-4.294360290375862088e-02,2.648198161934319297e-02,8.301581740379333496e-01
6.888866281484642418e-01,-2.930020863263280706e-01,3.587736621837586126e-01,4.166540159433913815e-02,-6.648590674736938599e-02,1.286779591289705371e-01,9.039297699928283691e-01
6.735048545937258879e-01,-7.602160551871215421e-01,5.901205145616439385e-01,-9.731598548742070171e-03,2.632105085196358250e-03,1.059870244440089954e-02,1.394130825996398926e+00
6.134535992832339524e-01,-3.022152046250543567e-01,6.022906584919880402e-01,1.001510979306152876e-01,2.642358068038816801e-02,8.328454293727330371e-02,9.388006925582885742e-01
6.233797763169999229e-01,-5.532633695784483496e-01,6.280326854859779040e-01,-3.008959496188418070e-02,-3.768452425990734961e-02,9.397935132886676979e-02,1.193087816238403320e+00
1.120842602121116860e+00,-1.367430802973006010e+00,2.123790961041222558e-01,1.060838007917186826e-01,-3.783236703196978801e-01,2.502377675874254415e-01,2.325362205505371094e+00
6.300977295328680228e-01,-1.534571717832150517e-01,5.312674025791510601e-01,4.818717441885349284e-02,1.647358459785829704e-02,1.227408768580327270e-01,7.741206884384155273e-01
6.435056670661019051e-01,-7.637440294784497707e-01,6.413267038358569927e-01,7.818718077637214908e-03,-1.882955024176009027e-03,-3.823108613183623210e-03,1.406246066093444824e+00
4.995780285525400766e-01,-8.580973065051138438e-01,7.531603583087468357e-01,-1.203055280450113645e-01,-4.070784628211042699e-01,-2.544206677846937506e-02,1.671636819839477539e+00
3.124513411485308478e-01,-8.715538345408280207e-01,8.076342545706303166e-01,2.796165873348958539e-02,-3.347806018212274304e-01,1.987388759623923834e-02,1.604100465774536133e+00
4.847058594005355103e-01,-5.818225352811153828e-01,5.200300362736869353e-01,1.909631109316352049e-01,-3.685845894524846234e-01,8.608278558014272053e-02,1.309809207916259766e+00
6.063074979454836644e-01,-5.249018094638816523e-01,6.278190878887885962e-01,1.857453856472344664e-02,1.784135509035470607e-02,1.164350937103447309e-01,1.160643219947814941e+00
8.111950486140040439e-01,-1.287034502468343833e-01,8.759235057374381572e-01,-3.166481843885732284e-02,8.468573140136147204e-02,5.012886056460720552e-02,9.902014136314392090e-01
7.088636015093090492e-01,-1.213545912829931739e+00,5.738398619664500933e-01,-1.702581890133973708e-01,5.735163570575376735e-01,2.788585961703817784e-01,2.182047605514526367e+00
6.672957655410097777e-01,-7.152216196867671183e-01,6.203345019702685148e-01,-5.626152344823341471e-03,-2.623937044221140089e-02,4.390142849985206874e-03,1.360460638999938965e+00
6.466244359529567109e-01,-6.035573209078184398e-01,6.726861840159117367e-01,8.086134006153482268e-02,1.595828208884986568e-02,1.023773830075433017e-01,1.283759593963623047e+00
8.614376480451946261e-01,-3.437976147870394072e-01,6.492990647004683868e-01,-5.712667070770251210e-02,1.602915208362001576e-01,3.006374538522853593e-02,1.153906345367431641e+00
6.380624412257986933e-01,-7.366143294395326446e-01,5.581183117714119124e-01,-1.328379545284830501e-02,-4.368364340140255125e-02,-1.580332343001648182e-02,1.339116573333740234e+00
6.210397728727192757e-01,-7.394383158492243702e-01,6.529206712502195753e-01,4.591173477365742550e-02,-1.739359874967393027e-02,6.790639473134460480e-02,1.384324908256530762e+00
6.825600715864370560e-01,-7.522786898923334853e-01,6.237281623039034884e-01,4.529258724603093221e-03,-1.821356416079713755e-03,-1.646726298749472475e-03,1.406374335289001465e+00
6.796490793530376440e-01,-7.119354944358031734e-01,6.191267634814132670e-01,-1.614097560621348751e-02,1.428435926970447745e-02,2.604995895551742388e-04,1.362843513488769531e+00
7.454765552997050237e-01,-7.523375685330239149e-01,4.256786382852573714e-01,-6.736261800963099997e-03,-3.107593425123905337e-03,-1.972761127802551487e-02,1.366767287254333496e+00
8.873544230844563341e-01,-7.953496017139091157e-01,4.047142236831384743e-01,5.761932705387363962e-02,-2.708560665923214275e-02,8.220739034502203002e-02,1.511531949043273926e+00
9.130441647347148360e-01,-8.088387538241349484e-01,1.607438258864741787e-01,1.850373994363016181e-02,-7.921335371652829527e-02,4.251682290498814965e-02,1.503575086593627930e+00
6.877407487647022588e-01,-7.391407691885490960e-01,6.211702036619050071e-01,-2.626094410701316530e-03,-7.763385762413415421e-04,-6.716454309095064388e-04,1.394796729087829590e+00
6.767892851853576364e-01,-7.561472707568952512e-01,5.968072982822354433e-01,-5.788509282631757466e-04,9.166267699114047330e-04,-4.968767068566449195e-03,1.394694566726684570e+00
6.431803996731868533e-01,-5.774206640782002520e-01,6.342255305844834989e-01,7.662529071727117169e-02,4.411309466379110438e-04,-3.223323061259018851e-03,1.223381757736206055e+00
8.326186104277520927e-01,-3.697479357570432335e-01,6.183443161371504626e-01,1.800913427959256394e-02,-2.789949752048456744e-01,-8.771161011771359817e-02,1.221282124519348145e+00
9.742256943787204193e-01,-2.548169092809789982e-01,6.332210905997798234e-01,-2.667990526453399916e-02,-8.408437280110393763e-02,4.243018052800487383e-03,1.109558820724487305e+00
6.179572879420414111e-01,-6.089429797936283251e-01,6.559890932574152789e-01,1.679651594426860572e-02,-2.404260344578492553e-02,6.164119261374928667e-03,1.247431874275207520e+00
6.454287354043330982e-01,-7.598449986787875199e-01,6.395736414378101475e-01,-7.871137320242863750e-03,3.189655348137450299e-03,-3.632033950308458884e-03,1.402446627616882324e+00
6.093665320327372736e-01,-7.408420740858551179e-01,5.854628568952604528e-01,1.048423788595362859e-02,-3.419949821273813965e-03,6.913162780362010294e-04,1.338553667068481445e+00
7.132270006120395855e-01,-8.035377100997539435e-01,5.880198888641462451e-01,9.508028065547136098e-05,-3.116562984284149823e-02,8.405044751836740838e-03,1.459269762039184570e+00
6.423812742533273612e-01,-7.515157099613761771e-01,6.473296845116691678e-01,9.465127761609520504e-03,5.293822549238715383e-03,1.304882272859986172e-03,1.396505951881408691e+00
5.610602904521262424e-01,-2.112307263781338929e-01,8.516918185331288083e-01,-9.812720002499064620e-02,-1.560213146119215910e-01,-5.559455578127316111e-02,1.008235692977905273e+00
7.590671205100599783e-01,-7.554930338524247224e-01,4.041889824755790506e-01,1.179467709313109479e-02,-1.226965898996964198e-02,2.454864026788809023e-02,1.372961640357971191e+00
5.282906453341207342e-01,-6.708519236186931689e-01,6.941452712064506425e-01,-6.204436228619169408e-02,1.898588442385504282e-02,2.556340133317177785e-02,1.295733094215393066e+00
9.115349626831257268e-01,-6.210985805377673419e-01,3.079896360479223993e-01,3.055327930178668161e-02,3.658259749060177035e-01,1.714652384483278391e-01,1.510200738906860352e+00
6.606464264261933117e-01,-6.973440578000534851e-01,6.350676542246288525e-01,-2.298602784837935550e-02,-2.713628169788882133e-02,1.817970514393834475e-02,1.347160816192626953e+00
6.747380917710579240e-01,-7.429620206254842207e-01,6.301169443161966921e-01,9.152574843388676731e-03,1.466800776602031862e-02,-1.829859198373772573e-03,1.396249294281005859e+00
6.728013497520486386e-01,-7.521740021873595250e-01,6.255431348625062338e-01,-5.466682292372824353e-03,-4.110524521170079155e-04,8.485902699045740375e-04,1.401976704597473145e+00
6.414210629702021826e-01,-3.853335682175607069e-01,4.356369659821357487e-01,-1.291798438879895004e-02,-1.986975105981120815e-01,1.232479005001992783e-01,1.024595141410827637e+00
6.825899538119354348e-01,-7.408314568207895467e-01,6.162862104695705501e-01,-1.907479419273345978e-03,6.701721357951492125e-03,-1.361730564495345665e-03,1.391509175300598145e+00
6.342781218668560594e-01,-6.691011362225218750e-01,6.493421737155224971e-01,-1.752695017329763266e-02,-2.757110782174115524e-02,-5.381142131275689321e-03,1.312229990959167480e+00
6.760809249821321254e-01,-9.816049152618100404e-01,4.406504654882534844e-01,1.363310416767786297e-02,4.405905181570329843e-01,-4.439013418263563354e-02,1.732601881027221680e+00
9.164255958694457194e-01,-1.870405921988818054e-01,7.313882065876309291e-01,-3.543191715666348107e-02,-7.971524041774390168e-02,-1.691990144420225592e-02,1.035076141357421875e+00
6.706378987883581111e-01,-6.139577865286501845e-01,5.945444284789296319e-01,3.493124229605329423e-02,9.573153504245406759e-03,1.134969960620238081e-03,1.249866485595703125e+00
6.816138680708218045e-01,-7.209466308289069758e-01,6.169931407212813079e-01,-2.833620558388316724e-03,1.533652238282598446e-02,5.531794049703966237e-03,1.371691942214965820e+00
4.053957261303037796e-01,-7.496127729912664961e-01,7.553696375745180269e-01,-1.620601186959506196e-02,-7.084593704587888174e-03,-7.521697450821277810e-03,1.364498972892761230e+00
8.875663853628382727e-01,-9.882794401505816673e-01,1.794197939601000213e-01,-3.224849407662580547e-02,3.786792478957612951e-01,1.150855307721324883e-01,1.779028773307800293e+00
5.730974190274034097e-01,-4.551030242277953608e-01,6.363849036687903027e-01,2.833804339134151414e-03,-1.336851379416212349e-02,6.581665882619426589e-02,1.067627906799316406e+00
6.402247264147715722e-01,-7.696523591988841950e-01,6.502944167308470913e-01,9.429061602139632292e-03,3.620398919018350502e-03,-4.007338663837766921e-03,1.415063977241516113e+00
6.341184081514064097e-01,-7.603826682344495547e-01,6.676608992062624814e-01,-1.360752184861245681e-03,-1.833897395613593123e-04,5.867973123477747410e-03,1.411609888076782227e+00
8.945532945895402488e-01,-6.789910051602776608e-02,9.358031689758719018e-01,-2.502210795035663196e-02,-4.180102000447297184e-02,1.553790187358021317e-02,9.877052903175354004e-01
7.908860113934830238e-01,-5.739035996416012031e-01,4.756123007697026228e-01,4.606811972164301383e-02,-3.136785714677968184e-01,1.257316266279261963e-01,1.371401071548461914e+00
2.583131206849346162e-01,-7.742382782715705458e-01,8.271822890000977146e-01,-2.819357583815279567e-02,-1.483503700835444271e-02,-3.622658552173243281e-03,1.407211899757385254e+00
4.747182292057945951e-01,-8.790019199245278081e-01,7.992880354137714694e-01,4.880274225212122979e-02,7.942153840412587151e-02,-1.132023911837734022e-02,1.550397872924804688e+00
3.529203324244076789e-01,-7.328986372875874178e-01,7.873981963171219345e-01,-7.485261212296144637e-04,3.379351403394229014e-02,3.612740428874501261e-04,1.357558965682983398e+00
2.390067228140137223e-01,-7.753381959446792315e-01,8.345784834398931595e-01,1.320795151246958142e-02,-1.778270058242976959e-02,1.146439595937821798e-02,1.410525679588317871e+00
6.780218025931866732e-01,-7.332991641081302303e-01,4.717913383996944487e-01,4.044549699784552935e-03,1.995173061196996861e-02,5.649491093802581562e-03,1.320847988128662109e+00
5.971667100619957314e-01,-9.912519516223763372e-01,7.282230890556494751e-01,-1.495646036130814649e-01,4.515382234839179221e-01,7.664752509244189549e-02,1.856021404266357422e+00
5.381436299683690638e-01,-7.627154031553851077e-01,6.839354774975392459e-01,3.006746717064865890e-02,8.753888326888380547e-03,-1.829029396692838719e-02,1.380974173545837402e+00
3.812687227517877475e-01,-7.625785175694362872e-01,7.628487818471555437e-01,-3.346996386491665754e-02,8.769916778189687165e-03,1.518586895894967655e-02,1.376496434211730957e+00
2.827793990655587120e-01,-8.813978298921908427e-01,8.283372983707615322e-01,-4.772446562652089136e-02,7.798450652858934795e-02,2.877737125988602540e-02,1.521719455718994141e+00
3.711898521513211646e-01,-7.493718716135705504e-01,7.869905156632207577e-01,3.909021670328222120e-03,-1.538699663078928540e-02,2.862550341980720382e-03,1.376684308052062988e+00
6.412354322101148085e-01,-7.752938085255084433e-01,6.410922454601695186e-01,-2.208900254114862152e-03,1.569423649709809519e-03,1.826727407995185374e-03,1.416468977928161621e+00
6.523959620889133726e-01,-7.351935201875507975e-01,6.396015497622820067e-01,-7.016946160160577976e-03,2.101095223895999009e-02,-5.121697851580134242e-03,1.381798028945922852e+00
3.266797682205306863e-01,-7.604633472875920175e-01,7.788404337736087868e-01,-5.421390392777952066e-02,2.003147622312448917e-01,-1.919872176530458899e-02,1.417107582092285156e+00
7.189836956149812108e-01,-8.421964603096725455e-01,5.681968828627006474e-01,-2.702895180579877391e-02,6.874204478565067167e-02,-5.624515437024286621e-03,1.497022986412048340e+00
6.090701458098459753e-01,-1.587870398126277616e+00,8.060031614871588923e-01,-6.429158592179373688e-02,6.285537667855213284e-01,1.142746927213440372e-01,2.556324720382690430e+00
3.831265828819813701e-01,-9.430700868031398620e-01,8.130437920442499244e-01,-2.361418608293028298e-02,4.253783849208992440e-01,-6.466416721181489358e-02,1.752380847930908203e+00
2.974255823988763980e-01,-7.612204442245237290e-01,7.982453802565235845e-01,-6.087573426206715349e-02,1.065233757782214213e-01,-1.560223423483619821e-03,1.395316958427429199e+00
3.070879519238941535e-01,-7.525793919936911713e-01,7.991238610834842104e-01,7.267389023722989685e-03,5.497315946211520088e-02,-6.369726514304571187e-03,1.376856923103332520e+00
5.766489623695707500e-01,-7.346118341013609943e-01,6.002691410600058397e-01,6.096981021617851187e-03,1.385824071413681476e-02,-9.020498195435525460e-03,1.323581099510192871e+00
5.025762411873412328e-01,-2.255045631693949337e-01,6.947251116353077016e-01,-1.462811976077496301e-01,2.797170352681356206e-02,-9.480843914733064551e-03,8.796216249465942383e-01
1.090895709057691620e+00,-1.396050459684975209e+00,3.031219019561874339e-01,1.276396222689487048e-01,4.459044548765935256e-01,-2.551760304801831691e-01,2.384753704071044922e+00
1.269445189196514390e+00,-1.522239420164752888e+00,1.440750792960976689e-01,-9.131455866641535746e-02,2.606613686659394191e-01,2.203483285878508335e-01,2.508543491363525391e+00
6.567331378660620222e-01,-7.633142147161678936e-01,6.431213839846019464e-01,3.163189000117435420e-03,1.900609939720357758e-02,3.794522270430540200e-03,1.413699865341186523e+00
8.005309567088340073e-01,-1.448221034934749296e+00,6.083889105403026409e-01,3.451792931147724952e-02,5.742558876703676152e-01,-9.145849259845408030e-02,2.383212566375732422e+00
7.278152289562644928e-01,-2.135679442720693766e-01,4.949745414160866552e-01,-1.880857429486668467e-02,2.914731038401119356e-02,1.687297496455066603e-01,9.001355171203613281e-01
9.081750711107515750e-01,-6.756846875584057166e-01,4.407992215918812295e-01,1.609998914888033372e-02,3.048048314990070007e-01,2.084965176222715877e-01,1.548128604888916016e+00
3.158059199592646582e-01,-4.738751907340473801e-01,9.165682878967957858e-01,-1.116062119553152127e-01,1.185849962499570115e-01,1.338840116403834934e-01,1.261844754219055176e+00
6.994266086760319023e-01,-7.587038165696695646e-01,5.653920848859005366e-01,1.185507407843575285e-02,-6.818021691906630145e-04,1.084571469839246127e-02,1.396225571632385254e+00
5.285512234509158747e-01,-2.175151012390461602e-01,6.938023245857884991e-01,-7.268748396217100671e-02,5.741383696170906242e-02,-6.066693066353061325e-02,8.625497221946716309e-01
5.739769592849588431e-01,-4.599065543409851520e-01,7.026971216677452281e-01,-8.474609744421869595e-02,-6.072012789432553945e-03,4.689356514427488881e-02,1.116610527038574219e+00
7.129945732449134432e-01,-6.345248002179735280e-01,6.550975507678842291e-01,-1.100300653778508164e-01,-4.280940118021012847e-02,-2.421680146344307605e-03,1.335282206535339355e+00
7.846027795815186945e-01,-7.990720541764899654e-01,3.175629721840204645e-01,3.214431277989955940e-03,1.543088834866678805e-01,-7.007509304190551527e-03,1.434616684913635254e+00
6.642831455906512694e-01,-7.531405359848201142e-01,6.402504188360653714e-01,-9.214704921381291353e-03,5.623371270486047027e-03,-4.540404597092788028e-03,1.405707836151123047e+00
2.723133776886276225e-01,-1.027176772087129653e+00,8.293274834928943129e-01,-1.463861958153171161e-01,-3.344704447357984001e-01,-5.878914753504822094e-02,1.770039677619934082e+00
6.568340573637825308e-01,-7.013184488014878593e-01,6.245271903896668642e-01,-1.831377004788354787e-02,-1.212932212485036236e-02,1.973440233790984318e-03,1.342834115028381348e+00
6.889446644789032348e-01,-7.418168283718821199e-01,6.213071868962043443e-01,3.200044247764217541e-03,-1.099039514814916614e-03,9.482440069855289054e-04,1.398183584213256836e+00
6.824598177910814467e-01,-7.524131790720430812e-01,6.231538171889458022e-01,-4.348672421842005378e-03,-1.359770004648566850e-03,1.330595905985242295e-04,1.406180500984191895e+00
6.812869574309632359e-01,-7.550742919535793352e-01,6.303289168629400141e-01,-4.730614681178191283e-03,-2.324361490414555368e-03,-1.599578509786713648e-03,1.411604523658752441e+00
1.192257658232383832e+00,-1.008886364561308202e+00,1.430834260964500559e-01,-7.597799364588822546e-02,3.524326540803769670e-02,2.921214742213589233e-01,1.978248476982116699e+00
6.063136771108259548e-01,-7.628212913488270353e-01,6.730922743018401544e-01,-8.713323923289030548e-03,8.563644663507818597e-04,1.266866161006582371e-03,1.403799772262573242e+00
6.524703015170021381e-01,-7.071422883201173848e-01,6.412491208230250983e-01,-7.324553109384801704e-03,2.806271580604627683e-02,-5.693770642195559659e-03,1.355004310607910156e+00
5.459606018606728561e-01,-7.858086265357812072e-01,7.978213173099203415e-01,6.798226044213328406e-03,-6.496862434067167402e-02,3.698864368776108580e-02,1.479651808738708496e+00
6.378737902630169376e-01,-7.593585011240845395e-01,6.594945795517803688e-01,7.352265717145690244e-03,5.470676289700705103e-03,4.199076487647879913e-03,1.408275365829467773e+00
6.402991818457426376e-01,-7.591504860831851387e-01,6.595148710177778373e-01,5.777860854224639922e-03,3.515321729638989923e-03,6.005644791552010656e-03,1.409242868423461914e+00
6.276499865568454517e-01,-7.413466950457006099e-01,6.736380116334670376e-01,1.157125097468333702e-03,1.403731804951392249e-02,-1.028720715525803173e-02,1.392887949943542480e+00
6.306265650289182290e-01,-7.600232330647884726e-01,6.683264170434397577e-01,3.455753323996972690e-03,3.821986254484309800e-03,6.452102278319243010e-03,1.409950375556945801e+00
6.980427706000227328e-01,-7.377831001391412791e-01,5.854156199966535912e-01,-1.578025991730657926e-02,2.721924506941422565e-04,3.011573871803757251e-03,1.383236169815063477e+00
5.789791320504542593e-01,-7.367989732648907442e-01,5.877210252153124426e-01,5.542122837921778858e-03,1.708872482797420961e-02,-9.210269567545101288e-03,1.320633769035339355e+00
6.031268410698280569e-01,-8.344916239894256682e-01,7.197886497238528136e-01,1.616941009206787627e-01,-3.371754473482681536e-01,9.171506154126934929e-02,1.640976428985595703e+00
5.747280843680497853e-01,-8.741330940986586917e-01,5.380021102387875231e-01,-2.927836618428817858e-02,-3.044692226732462204e-01,1.638500328637330569e-02,1.526046633720397949e+00
6.859782309227565600e-01,-1.473806176936019563e+00,7.127504593360998175e-01,8.567739284328690363e-02,-5.893614810628309275e-01,3.053244364231093647e-02,2.406255722045898438e+00
2.136301416457021540e-01,-1.047875212657066291e+00,1.184576935382553931e+00,2.106977027434779326e-01,-3.310293342234307268e-01,2.045430224006246356e-02,2.054790735244750977e+00
4.533815093054617829e-01,-8.938719127971155309e-01,7.873357682539465774e-01,-1.549352874881197023e-02,-3.664831202459405829e-02,2.251308256946252251e-02,1.543634772300720215e+00
6.412606917928243000e-01,-7.495064088474564512e-01,6.400506303549398091e-01,2.917821962213091886e-03,4.746501182806767312e-03,-7.586612230718024937e-03,1.390258073806762695e+00
6.385501963894011368e-01,-7.486854359719686824e-01,5.614912222464656377e-01,-1.880889889966877448e-02,-4.125143300032363403e-02,-1.717491674888862660e-02,1.352964520454406738e+00
6.076856532409606881e-01,-8.026512555045077768e-01,7.364766397768836015e-01,-5.508139107515410554e-02,-1.349391569586358593e-02,5.011094151706217692e-03,1.482227921485900879e+00
8.340709811736752854e-01,-9.238330995554711045e-01,4.185128823676484977e-01,1.819917493095545361e-02,-1.402957471551015967e-01,1.002441651321218652e-01,1.619442224502563477e+00
5.585634939004596733e-01,-7.718593805821296616e-01,5.921055305857803042e-01,-2.558635491459802791e-02,-1.438884428884560918e-01,-3.674478605635774636e-02,1.372552871704101562e+00
3.036111616150776737e-01,-5.604734422964702256e-01,1.021717199637833806e+00,-1.482750439998775926e-01,-1.425434783608856282e-01,-9.145975847832508998e-02,1.426474690437316895e+00
6.197659431008775144e-01,-5.744980255046935325e-01,6.883351680993757826e-01,-1.023530392828290447e-01,-6.394704243847681990e-02,-2.990180639860708436e-02,1.248693823814392090e+00
3.496138453670463164e-01,-9.015230746435418663e-01,8.359113105605062710e-01,-1.629806380434322549e-02,9.960194961034693484e-02,-2.301424303600127508e-02,1.562818288803100586e+00
4.942940214580906488e-01,-3.939137189345716106e-01,6.677748517304995524e-01,-1.998806666505384064e-02,-2.065715689891124418e-01,-9.411836972381597277e-02,1.062489748001098633e+00
3.951950424915568472e-01,-7.684378971413611259e-01,7.639199486331383904e-01,-3.945755195216815031e-02,9.880362645093787588e-03,1.176402532211514099e-02,1.387241482734680176e+00
6.120790799238173818e-01,-7.337062514092321797e-01,5.682128838434381546e-01,1.328127786845614659e-02,-6.703376432094764956e-03,4.713124018490358509e-03,1.324672937393188477e+00
4.226458468615746922e-01,-3.812736349657926960e-01,6.829744912003279378e-01,-7.085825234623725766e-02,-1.246303711249224927e-01,1.343672330097769527e-02,9.927453398704528809e-01
6.293837380291926742e-01,-7.495297357270389593e-01,5.660950915932507765e-01,-2.418717021727092090e-02,-4.161889016275704262e-02,-2.039285091202275996e-02,1.351420521736145020e+00
4.420559062994561250e-01,-7.380951486833645658e-01,7.006332711206395558e-01,3.352979507239544493e-03,-6.464699882977180401e-02,3.714071775904539182e-03,1.333188652992248535e+00
5.675861515215059327e-01,-7.729527615450940692e-01,7.181479196219118233e-01,-1.276934090049946895e-02,6.510534871609045468e-03,-1.022479181990636893e-02,1.422138333320617676e+00
4.544780037891364421e-01,-7.448798634884228331e-01,7.165055412112419919e-01,-3.648183442872079442e-03,-7.044338656135148090e-05,-1.008454715738626647e-02,1.349713921546936035e+00
6.386025029705504341e-01,-7.649335415795133208e-01,6.608708192842099871e-01,3.892568510869581343e-03,3.331020109555579093e-03,-3.296908472660416644e-04,1.414829611778259277e+00
5.880138595681483338e-01,-7.417415557822013561e-01,6.763905830839331834e-01,-2.857504246273397802e-02,-3.141606111437250659e-02,7.512451466953042924e-03,1.378099799156188965e+00
5.698812982157861473e-01,-1.045010795608834475e-01,5.738477953765376283e-01,6.649090510416336142e-02,-1.676186635166347638e-02,-7.397061256031438325e-02,6.985722780227661133e-01
6.087902417547947920e-01,-4.268013397918392071e-01,6.102986024528455067e-01,5.106631167251125814e-02,-1.972899587844314205e-04,-4.078028110346688245e-02,1.042509794235229492e+00
5.956066195077056591e-01,-7.563276140017728411e-01,6.565542240656530026e-01,-1.258645494152338395e-02,1.836623933108820148e-02,2.117253068191336449e-02,1.384438514709472656e+00
4.585495466556058775e-01,-7.541276626021898855e-01,5.522980974062255966e-01,3.273611164828402198e-02,-3.553107782448771679e-01,1.767824927408045282e-02,1.405685305595397949e+00
7.968781663875096344e-02,-1.315079424288113641e+00,1.345294472109429318e+00,1.486895893903085464e-01,-9.481971296319360865e-02,-8.630146686558483674e-03,2.325055837631225586e+00
5.906874944030389152e-01,-2.961709269799738253e-01,5.793556408690638815e-01,3.822014643717365490e-02,-7.595702448250547106e-03,-2.399398800215605740e-02,8.848045468330383301e-01
6.102245366530937298e-01,-4.635152436459457626e-01,5.965271420511244482e-01,8.637467116794898814e-02,1.350285481267753281e-02,-9.463152121553430884e-02,1.090041875839233398e+00
4.494481711823403725e-01,-7.342374091544136006e-01,6.829870697757566278e-01,-6.930084691460174475e-04,3.625767097855839977e-02,-6.631214518574486162e-03,1.317636489868164062e+00
4.758613857640254796e-01,-7.667541505881636521e-01,6.682007056277899926e-01,-3.380038058695077757e-02,-5.827070560944704047e-02,-2.148770598560910405e-02,1.354655146598815918e+00
5.821736410615954149e-01,-3.384809385709678375e-01,5.688452739391385293e-01,3.397870994826905633e-02,-1.721068531040761615e-02,-4.576387808057141848e-02,9.198624491691589355e-01
1.732426123123876893e-01,-7.444655105949748997e-01,8.855208227144726330e-01,2.517069934039442569e-02,-1.874432219708628555e-01,-4.750569834472820330e-02,1.455083489418029785e+00
5.840482752480413708e-01,-3.265904012824282221e-01,5.795508825510604645e-01,5.979488220725320130e-02,-3.992510620319245085e-03,-2.994036552017032005e-02,9.157788753509521484e-01
6.719109921920959350e-01,-7.637797629344911243e-01,6.337817129373601865e-01,4.080677518780869394e-03,-4.125941187838867881e-03,4.477079480689693906e-03,1.417067766189575195e+00
6.472711831736948085e-01,-7.726164968035262870e-01,6.426192453298105178e-01,-5.996046002378288206e-03,-7.937951855135738210e-04,7.686956174862594887e-03,1.417668700218200684e+00
6.785922496539580351e-01,-7.050943865259999832e-01,6.217872429339960094e-01,3.607769260172331849e-03,-1.677065652875782756e-02,6.738710767229073861e-03,1.356552362442016602e+00
4.189029852444291491e-01,-1.368406730647785174e+00,9.135052717442103676e-01,-1.106307905722946593e-02,4.599428345448995925e-01,3.145724808271582826e-03,2.226691246032714844e+00
5.186741684241800154e-01,-7.271754663938466701e-01,6.087427617488814224e-01,7.257072843644860397e-03,-4.747257147170873270e-02,-1.843709767618125113e-03,1.295914649963378906e+00
1.178353854692419933e-01,-7.990823091066415751e-01,9.846535474403762533e-01,3.389244440624568540e-03,-3.956912930899781494e-02,-3.018958620619261249e-02,1.547377943992614746e+00
5.937552962690735292e-01,-7.557138402566687674e-01,6.279034446974973704e-01,-7.380284633431958771e-03,1.473120819697506341e-03,1.466600169220463358e-02,1.367161273956298828e+00
7.545101803696693255e-01,-1.381084306963877406e+00,5.788032265474837290e-01,-1.624958041922766883e-01,5.931771399150110868e-01,2.226149164350792742e-01,2.345178604125976562e+00
6.548030205703521123e-01,-9.026163577966326290e-01,4.061612711343962623e-01,-3.857801093812326509e-03,4.495240484874547526e-01,-1.869848519359303476e-02,1.645432353019714355e+00
5.832488064674150596e-01,-7.498902800577872396e-01,6.342240350321686204e-01,1.891709082075854545e-02,3.799151831961598835e-02,-2.390243668662987708e-02,1.361959218978881836e+00
6.441582270339064609e-01,-7.632541578702002338e-01,6.264258758194735099e-01,-1.189571070202549881e-02,-3.516434517413425612e-03,2.971510805411423876e-03,1.398805022239685059e+00
6.088414779664537146e-01,-7.565359867983454389e-01,6.358849984675909450e-01,-1.894388536523284108e-02,5.633520462649464072e-02,3.780502865329260498e-02,1.384484291076660156e+00
7.493254706964447287e-01,-8.698307797894198057e-01,4.084400524022833157e-01,-3.345143905587525529e-02,-1.184105948085733412e-01,-5.304738048772272840e-02,1.496591210365295410e+00
6.634849443363509680e-01,-8.484222974442736653e-01,6.542482377300090635e-01,1.880694857567255796e-01,4.310100019329983767e-01,-6.887613239565242018e-02,1.717450141906738281e+00
9.392215815549279645e-01,-9.010872164597849565e-01,1.837116916164533431e-01,-1.949647675250060393e-03,-3.355373223758371937e-02,8.084901461143426116e-02,1.609397053718566895e+00
6.341387782615406365e-01,-7.702810391631329523e-01,6.446282063996834344e-01,1.288681466609200568e-03,4.628147366329440730e-03,1.144058024589309462e-02,1.409857630729675293e+00
5.265634171773940775e-01,-1.700252954558704732e-01,5.565044590411002412e-01,-1.403207740497375566e-01,-1.435843084254531665e-01,-4.786378198627705416e-02,7.967313528060913086e-01
3.930557812449209654e-01,-7.694968391248144801e-01,6.077968351724439833e-01,9.093240529244613068e-02,3.511589054366490714e-01,-5.945081448521971623e-02,1.432702779769897461e+00
1.053266050218816030e+00,-8.406648874246214209e-01,1.672837133797485942e-01,8.042897691240871727e-02,-2.258717725717536429e-01,5.866437592974023396e-02,1.696094036102294922e+00
6.583485757222617973e-01,-7.731815597679230212e-01,6.429474517107374165e-01,-2.784112395771482689e-04,8.493438989356486349e-03,4.043397996581192359e-03,1.423985362052917480e+00
4.476504724783441636e-01,-1.342318222052868881e+00,8.872482360748851216e-01,-2.200971345262520418e-01,4.537994086340874644e-01,1.304020423740611667e-01,2.235675334930419922e+00
2.508303006084753317e-01,-6.261895084787427734e-01,8.654510265706278904e-01,-2.164264389277679168e-01,-1.205427469790898605e-02,1.166032766420492355e-02,1.351784706115722656e+00
7.685713953006002574e-01,-7.712629399226266225e-01,4.361002837455407177e-01,-4.142614629663714590e-03,-1.044384637239291619e-01,-6.897794295062016114e-04,1.415080070495605469e+00
7.612093249968580055e-01,-7.616048748200682228e-01,2.874241037202889815e-01,-5.512639447024763294e-03,-1.216317804190059637e-01,-1.092263071390127405e-02,1.366301774978637695e+00
8.072143940818468089e-01,-8.559426237077518707e-01,2.624664996399777017e-01,8.260862383282059629e-02,-3.142805158627465789e-01,9.471594853379140810e-02,1.581310510635375977e+00
6.540223030817158278e-01,-7.041443483245906076e-01,6.384949790859762997e-01,-2.737013979473742076e-03,-3.728497925733091634e-02,-4.142144082579755915e-03,1.352040529251098633e+00
6.211042450915915669e-02,-1.301841103526951482e+00,1.333204096253885584e+00,6.765469406960422649e-02,-1.461901618524369950e-01,-2.708913819428680758e-02,2.299956560134887695e+00
6.579702008377714684e-01,-6.719716654845594439e-01,6.021552030787962195e-01,1.669565168603513727e-02,8.008978236053480512e-03,4.886028710834601496e-02,1.306070685386657715e+00
1.002496206502795584e+00,-6.529948643663403551e-01,2.604942145424825606e-01,1.505647622831422089e-02,5.216844763648480210e-02,2.628732333699343796e-02,1.440054774284362793e+00
5.882446404565682130e-01,-7.422033320632117626e-01,4.987052337555844539e-01,-1.846733436004633581e-03,-1.277505055538726286e-01,2.924010988128896305e-03,1.306896328926086426e+00
6.027246982093772409e-01,-4.590858016439188782e-01,5.987951518834604414e-01,-3.320526256879429913e-03,2.674194496723789755e-02,3.935399005759317170e-02,1.063066005706787109e+00
6.463228137292829079e-01,-7.630228676043234737e-01,6.357038528007656897e-01,3.880438732230151889e-03,-1.884302782170755924e-03,9.135083059154001581e-03,1.404175400733947754e+00
6.181594752485740640e-01,-7.714310883473524116e-01,6.509076782084988189e-01,6.740594865787537943e-03,2.145472771742489189e-03,-6.056737603103709740e-03,1.406343221664428711e+00
5.063677750739370431e-01,-7.385799682576769110e-01,6.648433321722246880e-01,7.454682580118529404e-03,-8.563861976695637257e-02,1.855488422975373405e-02,1.339964389801025391e+00
6.709808495793242455e-01,-7.456594120733976983e-01,6.331067071094607090e-01,-1.075525258523826050e-02,-1.080970120938274867e-02,2.246388159004584443e-03,1.398342847824096680e+00
6.633818819713996895e-01,-7.536588247569719901e-01,6.359985945197910162e-01,4.085740757156276076e-03,2.330941110106728642e-04,-4.425914651789128289e-03,1.403588294982910156e+00
6.095654966657961804e-01,-3.971024772376944290e-01,5.715754502196600528e-01,-5.185276450551561805e-02,-4.571394842150706267e-03,1.393434054809720990e-02,9.926185607910156250e-01
7.929852596532943609e-01,-1.025144948956586699e-01,8.932011860335624664e-01,-5.235156043128758735e-02,6.436327116195378339e-02,3.298401971315748776e-02,9.620915651321411133e-01
6.614168084737716002e-01,-7.471124501094974502e-01,5.258274051191255127e-01,1.458770585575338771e-02,2.896567841235142549e-02,4.890371736286015791e-03,1.347065210342407227e+00
6.776432602298729790e-01,-7.473569564090015716e-01,4.965334469910172022e-01,1.996687378650367425e-02,7.248375802223469555e-02,-1.456752905758847486e-02,1.350162625312805176e+00
7.043460058452867267e-01,-8.273342430041390472e-01,5.543164131778754999e-01,-1.563272946823737186e-01,4.427199817932253034e-01,2.205141292173209699e-01,1.716377854347229004e+00
6.429497892885934762e-01,-7.638880679787196648e-01,6.500446199668210578e-01,9.196857291121889738e-03,-3.791109516037876898e-03,-4.488618196682619618e-03,1.410525321960449219e+00
1.101164620698690699e+00,-1.206844529012436107e+00,2.949250718168801022e-01,-1.023127072971569268e-01,4.112464008154728123e-01,3.216158297359155704e-01,2.228273868560791016e+00
6.739445763099642939e-01,-7.613200203142812539e-01,6.670245423595064782e-01,-4.469375474235548658e-03,-5.414866560439982567e-03,1.570444299565148735e-02,1.432127118110656738e+00
6.355840813033704073e-01,-6.380272795471412239e-01,6.361617346455035182e-01,-9.673162277796569508e-03,-2.775147750386745132e-02,1.227873934263692957e-02,1.275094270706176758e+00
6.472221758563962979e-01,-7.230254057989164984e-01,6.710499309905724186e-01,-4.132108276849451312e-02,-9.805637061536883956e-03,-4.773987887661820112e-02,1.386738657951354980e+00
6.949082266831776433e-01,-7.648070231239781913e-01,5.689603522469977026e-01,2.310177116831953897e-03,5.172844709740261797e-04,-1.519220363260464016e-02,1.401246786117553711e+00
9.148944530438525291e-01,1.202576148436529380e-02,9.969405172676789606e-01,-5.484906972288020044e-02,-7.397750113011790710e-03,-3.824521029598189348e-02,9.537073969841003418e-01
6.288839771720865501e-01,-6.337206255943735878e-01,6.313953377725011196e-01,-1.724535544654524303e-03,2.450091193087053018e-02,-4.080034085973661961e-03,1.264597654342651367e+00
6.165245566250335818e-01,-7.248358138597823519e-01,6.811011413789933577e-01,-1.009221486364834724e-03,-1.760969412859817547e-03,-1.364593844930392201e-02,1.374994277954101562e+00
1.272399596260399113e+00,-1.376205400864918937e+00,1.106647012569528521e-01,-3.937017069913579387e-02,1.263733646492307648e-02,5.218587836479275655e-02,2.302402734756469727e+00
7.319971001141306610e-01,-7.609426640991435731e-01,4.159130836011876720e-01,-1.380925474827876184e-02,3.610605945214036966e-02,2.681183962333101231e-02,1.365109324455261230e+00
6.866755541244887739e-01,-7.641585230143469465e-01,5.378778304447475733e-01,2.201608193412170345e-02,-6.168031710253866172e-03,2.708335543247880964e-02,1.383816599845886230e+00
1.130260329725393253e+00,-8.207381534863210648e-01,8.953762326606796995e-02,-1.195280121037434196e-01,9.280706674164974912e-02,-1.124079113077669917e-01,1.722108364105224609e+00
7.661675177347609944e-01,-7.797390556511454296e-01,4.519864085262165210e-01,-8.894544366293312410e-03,3.300318906202081432e-02,1.528233914820639576e-02,1.416703224182128906e+00
8.309399922541597094e-01,-8.247935942096684681e-01,4.437805223818313549e-01,-2.230353696037229612e-03,-2.843162767769173531e-03,7.444462028864684555e-02,1.505648851394653320e+00
9.183820469370926887e-01,-1.486802189288398468e+00,3.004264627609105620e-01,-5.822197596097267863e-02,-4.068100023384655373e-01,2.495936695979736886e-01,2.318194627761840820e+00
1.040532729954081193e+00,-6.582026209745079903e-01,1.863383867851523545e-01,-7.332537079400153202e-02,-9.315823154483858504e-02,-7.215775473746080526e-02,1.490666031837463379e+00
6.723530852800434499e-01,-7.624502003563350394e-01,5.906249304316441018e-01,-1.598865450054481625e-03,8.380200343049514985e-03,-1.744886527268326229e-02,1.396140336990356445e+00
7.277065263890860614e-01,-7.649139281693297931e-01,5.077605159251566969e-01,-7.034896116246967465e-03,3.385449370325937461e-03,2.417370790487588864e-02,1.396399736404418945e+00
9.269371580681141642e-01,-1.437822433553284096e+00,4.367715878153465292e-01,-1.394664136640345331e-01,-5.415840372825788673e-01,-1.292485889017720713e-01,2.379418849945068359e+00
8.215992771516218429e-01,-8.231132941110995693e-01,3.023154426751687995e-01,-1.337067847308947011e-01,-3.079388549031962241e-01,-1.019418277454757216e-01,1.577957630157470703e+00
5.772098424627662983e-01,-7.521794690726797405e-01,6.258020422908274760e-01,1.141621431946530756e-02,-2.093948013384432441e-02,1.763415433975024094e-02,1.355313420295715332e+00
8.822679719488961680e-01,-7.382054740674327542e-01,2.296301657242582062e-01,8.741246079519281176e-02,-8.351562522887079343e-02,-4.724659365301257796e-02,1.429976344108581543e+00
7.442143911606816653e-01,-8.985066719343128838e-01,4.843778076874140082e-01,1.485333316187632258e-01,-4.865217974676108725e-01,7.799868089266125126e-02,1.770241975784301758e+00
6.891379941191784209e-01,-7.468944695810081358e-01,5.054717361078264748e-01,-1.633552282110774939e-02,-1.124968081444916237e-02,5.497542997453839370e-03,1.354046821594238281e+00
6.538524529505165273e-01,-7.205233044949791443e-01,6.420166783542404776e-01,3.764312576780021007e-03,2.557985497770215791e-02,-4.162652936353665803e-03,1.369247794151306152e+00
6.296906426780066734e-01,-7.142163849588172297e-01,6.396428865678848164e-01,-1.177855841060392126e-03,5.134922230692144304e-03,-7.140411545528082930e-03,1.348998188972473145e+00
7.024682721324946311e-01,-7.572880650010138659e-01,5.033584839754727813e-01,-2.124112071436608847e-03,-9.856329093256174789e-02,4.319550236925445534e-03,1.381700158119201660e+00
6.360353278780310760e-01,-6.386463876327652667e-01,6.375851276315962490e-01,9.299157421781825347e-03,2.982493962009036617e-02,1.179117275642718385e-02,1.276767969131469727e+00
7.574867596631519318e-01,-7.322920141483539869e-01,3.774872029894098535e-01,4.134838760148592564e-03,-4.562361618123972340e-02,-1.856258265600613504e-03,1.343142390251159668e+00
6.601731192344769683e-01,-7.712770640039662284e-01,6.406596648938126526e-01,-2.530671256963006824e-03,2.626459446904606029e-03,2.965561381418846832e-03,1.421817183494567871e+00
6.660168726416163532e-01,-7.728979900118072566e-01,6.360359134121305047e-01,-3.431602970659828732e-03,4.997369012129502901e-03,-1.014256175279092321e-04,1.424199819564819336e+00
6.934076461164548899e-01,-7.306631829615904961e-01,4.531012716695160814e-01,3.915291857994759005e-03,-3.320008054284756538e-02,-7.982126981233658323e-04,1.321690678596496582e+00
6.753191933200261010e-01,-7.726246217098271529e-01,6.611540143328696884e-01,-1.828112446635751440e-02,-3.808557553396451668e-03,5.808932459897397232e-02,1.444784045219421387e+00
7.454590879669809045e-01,-5.222414663675842839e-01,6.585083285767903138e-01,7.785209439690120303e-02,-2.635121403838662224e-01,7.961424130465273585e-02,1.322842240333557129e+00
6.843460595463214391e-01,-9.323483829799332767e-01,4.918038966795925671e-01,-1.872924380294498092e-02,-2.768601104193670337e-01,-2.853719587505951574e-02,1.604039192199707031e+00
6.408546004779920313e-01,-7.463051448608852834e-01,6.637836545517381559e-01,-2.664701323455942808e-03,-3.595746277137339478e-03,-7.579013981228741384e-04,1.398787379264831543e+00
5.070206343649779068e-01,-7.460642361036897707e-01,7.622165139811936108e-01,-3.962548597331488204e-02,-9.887173004131739884e-02,-2.819594245479632375e-02,1.411223292350769043e+00
6.762341593290046582e-01,-7.419245725287052506e-01,4.740533925385420622e-01,9.124322600912376097e-03,-4.538231730766209560e-02,1.119606287956443659e-02,1.331214189529418945e+00
7.586209618490898920e-01,-7.637650636557079542e-01,4.100740568479032677e-01,2.904026527125571147e-03,-4.881806065216674761e-02,3.716364964107188827e-03,1.384101748466491699e+00
7.248313103695771531e-01,-7.359933264959223065e-01,4.172268380857968584e-01,1.136580878887081050e-02,-3.147473902380278077e-02,-1.991645557961722185e-03,1.335157036781311035e+00
6.022547679112610908e-01,-4.238523363030465285e-01,6.039302720035282235e-01,-7.935246449909230670e-02,-2.256154955635586781e-02,-1.327145670696214122e-03,1.036841630935668945e+00
6.108267936963247546e-01,-6.488592021329153692e-01,6.729952622006969420e-01,2.021893904880370588e-02,2.098531909212174654e-02,3.438514273751577116e-02,1.294249176979064941e+00
3.903004194673263538e-01,-8.058770227914406892e-01,8.077021221256299732e-01,3.609697948600414791e-02,-1.357840690815353690e-01,-2.817249913998366717e-02,1.471717715263366699e+00
8.697003847925578457e-01,-7.833567747991323493e-01,3.028651403808330089e-01,-1.259546221841388938e-02,-5.563712504114504825e-02,1.354733840920360061e-02,1.458493113517761230e+00
4.999601646901645213e-01,-9.790673309473243435e-01,8.162878279321301722e-01,2.522219643621230745e-01,-4.764065221092119717e-01,1.200661913939212733e-01,1.915836095809936523e+00
1.134523409456209331e+00,-1.270984563065323147e+00,2.178084116782494084e-01,4.514478268008807749e-02,-3.332837317862843429e-01,2.108823459918251209e-01,2.212336301803588867e+00
3.155099525069157140e-01,-6.848862126273627116e-01,8.103784550084500715e-01,5.479804728422852517e-02,-2.877656022626856602e-01,1.553941674584256027e-01,1.438968181610107422e+00
7.580950546169431536e-01,-7.826524688904390459e-01,2.980559709561531601e-01,1.478844990352237362e-02,-1.239739779864058727e-01,2.133363329415027126e-02,1.387395024299621582e+00
4.707901776081673262e-01,-7.310683727230317119e-01,6.685735231162586167e-01,-1.214685567341462248e-02,-1.171011916510192180e-01,-6.446757747519100447e-03,1.327778339385986328e+00
6.248021659441149733e-01,-7.701028333917787627e-01,6.372452166441943122e-01,-2.376533576939953221e-02,-1.945979372955815301e-02,-1.524673728457030808e-02,1.402426242828369141e+00
7.339515728134952122e-01,-7.487205252701684133e-01,4.139590829639163694e-01,8.028396659739797658e-03,-5.010466744809318612e-02,6.632959203565783057e-03,1.354298591613769531e+00
1.919024077836766484e-01,-1.106172513316742378e+00,1.107427173000768983e+00,1.415940929010714722e-01,-2.066748365215497762e-01,3.362684843172648874e-02,1.975673675537109375e+00
7.348176999369286921e-01,-7.534661384415808350e-01,3.731934440677325271e-01,-9.966801064159164919e-03,-1.716728675027679452e-01,-5.891123509539867610e-03,1.377090454101562500e+00
6.484716479834924385e-01,-3.768023300787575192e-01,6.215907075394218051e-01,-8.369368899419475649e-02,-1.649999705857177132e-02,-4.783644172889697441e-03,1.022862792015075684e+00
5.997454648120156273e-01,-3.717524384587488351e-01,6.307327125553094938e-01,2.110957542880052829e-02,1.408723799724280745e-01,3.764492213539105681e-02,1.019801855087280273e+00
6.390879995224557630e-01,-6.447493114391958935e-01,6.404503061882473869e-01,-1.491419067740936966e-01,1.206282624070749258e-02,2.870259140578362497e-02,1.311345458030700684e+00
1.162891380691083887e+00,-1.488393990017907509e+00,2.506448622100575507e-01,3.174428974272178097e-03,-3.320838070619321347e-01,-2.964037258933027372e-02,2.403411388397216797e+00
6.472977403312589750e-01,-4.755511474044162856e-01,6.984704217394482884e-01,-6.500126418104977544e-02,2.084613380116765238e-02,5.060982120487198671e-02,1.158676266670227051e+00
8.002502270808480311e-01,-1.242195579032127739e+00,3.734214077918768804e-01,-7.464126362639988965e-02,4.428191423635781665e-01,3.451932835525352017e-01,2.108186006546020508e+00
6.550669788972380836e-01,-7.680771490571020044e-01,6.637680888562667025e-01,-1.483498506403495461e-02,6.279391763677985051e-03,-1.205621338699122864e-02,1.427939891815185547e+00
6.277544496981273259e-01,-6.313558948345509014e-01,6.437694156420659120e-01,-1.112672539669153776e-01,-1.480244119664365400e-02,2.878966017733534596e-02,1.282990694046020508e+00
7.234465570612487184e-01,-7.414531931828010070e-01,4.146781717941274148e-01,1.296476428333504828e-02,3.057835129872605098e-02,-5.562577169084801688e-03,1.338789224624633789e+00
7.587487186300246877e-01,-7.434644358176936141e-01,3.620588329835735530e-01,-8.935632553875362885e-03,-3.998346408583455108e-02,-1.186956522895323517e-02,1.350389838218688965e+00
4.934002964313405348e-01,-2.165583760848346362e-01,9.465975489349555128e-01,-9.795686918432360002e-02,-1.153489244574711498e-01,-4.906182979760325552e-02,1.052190303802490234e+00
5.111817963558076272e-01,-3.104363827355378636e-01,8.173892234206536767e-01,-3.202963341841126577e-02,1.092373769809347334e-01,3.850726051623691581e-02,1.031372666358947754e+00
1.205943764819369823e+00,-1.528773931659128005e+00,2.058078422845144306e-01,-5.806126902014294849e-02,3.427688152859877935e-01,2.635549599162017448e-02,2.471544504165649414e+00
5.012002439374626528e-01,-4.360510175249044940e-01,7.353370158697793979e-01,1.176750583976517578e-01,4.850878467592267124e-02,-9.245758822788394116e-02,1.107678532600402832e+00
4.381073639387811913e-01,-4.014657570492641270e-01,7.118844823211221140e-01,-7.184711811863479791e-02,1.123708716225850224e-01,-3.081497629182643194e-02,1.032428741455078125e+00
3.169217999988194756e-01,-7.749553167797822439e-01,7.953756454927168873e-01,-5.508519053541659216e-02,-5.018584362845979890e-02,-1.501930446155324943e-02,1.400307893753051758e+00
3.057258488388769901e-01,-9.736155072320797910e-01,9.490797310398956244e-01,1.121535338638041668e-01,-2.003937066335962497e-02,2.744816413132328964e-02,1.707304239273071289e+00
6.185699357633733797e-01,-7.317226124583895430e-01,6.835271279815536838e-01,-3.435599823234339757e-04,-4.279442578528611546e-05,1.857861193035307071e-02,1.384289145469665527e+00
6.693309577425883283e-01,-6.459041097580162649e-01,6.056019352706381031e-01,2.358169555544275056e-02,-1.090243115812507442e-02,-3.504367498790956982e-04,1.285344839096069336e+00
3.680862343104259748e-01,-4.393266666456692171e-01,1.040291187927513850e+00,9.763265440048682353e-02,3.480717402973913105e-02,-3.233211489023662955e-02,1.296876668930053711e+00
6.420199122230902944e-01,-7.634773189839371144e-01,6.224500215010518867e-01,-1.458151164475824865e-02,-5.571174640939259050e-03,-8.917577865465381101e-03,1.396162390708923340e+00
6.008154310550837263e-01,-7.505156524445519839e-01,6.227009570472770150e-01,-9.434371526477261516e-03,2.960360058809805364e-02,1.595584840397886242e-02,1.363748192787170410e+00
6.204062518036466134e-01,-7.586147853962053045e-01,6.197079225587019957e-01,-8.247665448594107551e-03,-3.224494694784431001e-03,-8.676486742881245199e-05,1.378757357597351074e+00
6.021455878539632156e-01,-7.667975562809263845e-01,7.276949325432248150e-01,-2.824739622873814054e-02,1.119626850713642541e-01,4.395316967363377576e-03,1.449722886085510254e+00
5.748284520300205314e-01,-4.039631647405990122e-01,8.887905239932294421e-01,5.163144101111127870e-02,-1.616674492910729066e-01,-7.601061459735930850e-03,1.204362273216247559e+00
6.408117221588288670e-01,-7.573540161941654247e-01,6.596923255397859620e-01,-2.464684484538315259e-03,-1.205359642718479077e-02,-4.592320801975423132e-03,1.407884716987609863e+00
2.952808058183584716e-01,-4.510016958352363048e-01,1.151711742739912170e+00,9.265467529494544885e-02,-1.279008141451990488e-01,4.385694888158571392e-02,1.417798161506652832e+00
5.793069230290412985e-01,-4.577833680171852215e-01,6.337748302538755985e-01,1.419659086973305145e-02,6.958060946553662994e-03,5.930843784708900862e-02,1.070660352706909180e+00
6.450096105302750571e-01,-7.767839057894473376e-01,6.490154303449207074e-01,-1.240149641275649622e-03,-4.626907854505607313e-03,3.567930386542794545e-05,1.423824787139892578e+00
6.468274648920386838e-01,-7.617889541435999279e-01,6.156697378774005358e-01,-1.039958021481159935e-02,-2.045394100706825983e-03,1.022805697311351264e-02,1.393532395362854004e+00
6.550250195465213698e-01,-7.513378329028714830e-01,6.112231965934764588e-01,7.568893489447719482e-03,-1.070060913919792731e-02,-1.717219579991293918e-02,1.385486841201782227e+00
6.023406687795119785e-01,-4.159493948534761509e-01,5.791797056124143861e-01,-1.219361278594308399e-03,-1.273514806415717779e-02,2.567748318317442514e-04,1.007153272628784180e+00
6.511774639729963621e-01,-7.757210731944368387e-01,6.509855103287982558e-01,1.360907355976308936e-03,-1.215347762430055156e-02,-8.104902453543183245e-04,1.426960468292236328e+00
6.141829586572074007e-01,-1.378405002017397685e-01,5.952253977616099867e-01,-5.781001447217029056e-03,-8.941287189679947983e-03,1.340104676768847369e-01,7.783692479133605957e-01
6.306740093453785390e-01,-1.335094686205335446e+00,6.928973625366490197e-01,-1.708399159395447009e-01,-6.148353765033988116e-01,-2.264199409021669385e-01,2.316432476043701172e+00
3.901649731768380147e-01,-7.851184256313755716e-01,7.413765877548428307e-01,-5.244601194601015981e-02,-1.444338714428338444e-01,-3.588133866429994018e-02,1.411421775817871094e+00
6.396852453332977362e-01,-7.666108344337086988e-01,6.546281782386861314e-01,-7.671155319441258849e-03,-5.149055635119387242e-03,-4.158840592164404770e-03,1.413935661315917969e+00
5.897443287432562187e-01,-2.557632223787134063e-01,5.877756005088601299e-01,-3.113589626995848236e-02,1.867049041814940798e-03,4.647948963783891940e-02,8.500718474388122559e-01
6.153464502378163115e-01,-7.422129192634239203e-01,5.636431277099417381e-01,-1.870525384003026217e-02,-1.429549460537958040e-02,-1.359916013856375758e-03,1.333086133003234863e+00
6.363341904789032721e-01,-4.647554912409330719e-01,5.775304333634407872e-01,5.616560220601327091e-02,6.332645670414772769e-03,-1.620283603573520947e-03,1.077357888221740723e+00
7.832551677605272822e-01,-8.363042455697182742e-01,4.721499416693915041e-01,5.357622790795935931e-04,1.713280224734132356e-02,-6.250901912485223866e-02,1.492819309234619141e+00
7.665779269121144601e-01,-7.849741602927392536e-01,5.228757813530582332e-01,-3.941237146651931089e-02,7.846305602610351843e-03,1.054341339084940016e-01,1.458348989486694336e+00
6.787533051376583026e-01,-6.901169017160623254e-01,6.030712690214180549e-01,-4.092608509926115579e-02,-1.774990105813620614e-02,1.428967904734700436e-02,1.335109353065490723e+00
7.963045780448408939e-01,-8.154865181584035616e-01,3.800579341868495775e-01,-1.391760353636462867e-02,-6.984068623767891726e-02,-6.053040791156301392e-02,1.458230137825012207e+00
5.547126666435804321e-01,-7.259517268995469008e-01,6.095931698582528480e-01,-1.247219305966759456e-03,-1.271104239991988766e-02,-5.452041882087343624e-03,1.309188723564147949e+00
6.626843798938670815e-01,-6.831713394106346815e-01,6.384810931689145486e-01,-6.536056428699818857e-04,-3.773213498194862014e-02,-1.073291885369543610e-03,1.335520505905151367e+00
6.720340111076344991e-01,-7.384504363824171413e-01,5.140936526603681056e-01,-2.101017244216773702e-02,-9.744243607914182537e-02,-5.027768457333380535e-03,1.349638581275939941e+00
7.699647261465741854e-01,-1.220560971988057020e+00,5.602496899152868970e-01,1.328314329183161169e-01,-5.004093303103482882e-01,1.374717401555519136e-01,2.109404325485229492e+00
6.182319502170199321e-01,-7.581177610778743192e-01,6.213510617640966016e-01,8.650400924039821152e-05,-1.936779914319447212e-03,-7.879598534788046990e-03,1.377983570098876953e+00
8.290643961856387634e-01,-9.448641699666793237e-01,4.800502569583278700e-01,-5.000930599784556702e-02,1.003272367907211277e-01,-1.986048585021227275e-02,1.639631032943725586e+00
9.947632953834176783e-01,-1.100539519811467581e+00,3.228803227158549283e-01,1.122287138067840605e-02,3.838168259096031432e-01,1.653060209206468067e-01,1.989528656005859375e+00
1.244247896829954847e+00,-1.275980697008499920e+00,1.513767714927417019e-01,4.091609831970810518e-02,1.922393769876454273e-01,6.341805100455198685e-02,2.218014955520629883e+00
9.877896150095076822e-01,-9.700382132479841157e-01,2.482053903244789139e-01,-4.720967506633046845e-02,1.927299919202152545e-01,2.033292696528626320e-01,1.781641125679016113e+00
6.830009200406900183e-01,-7.228016773918728433e-01,5.914200384874499505e-01,3.480916878044647278e-02,1.957579053813917822e-02,-4.834538895959977073e-02,1.366645455360412598e+00
5.081715196107783328e-01,-7.933827642096634714e-01,6.518689943986226698e-01,1.609029038320601221e-02,2.745818947820768408e-01,6.200729193421042514e-03,1.459040880203247070e+00
8.431923321715155684e-01,-8.333810106334911261e-01,4.645369531198705326e-01,1.402367477476762492e-02,4.524408456172147180e-02,5.733735569082429318e-02,1.528407096862792969e+00
5.469284130610095884e-01,-7.605910012881198501e-01,6.527316914895394673e-01,-1.869671343286719023e-02,2.223191628046257071e-02,1.835443518112475636e-02,1.364801526069641113e+00
7.143516288913893675e-01,-1.025164032535883507e+00,5.709907275461905130e-01,-3.426868959885899513e-02,5.270512815433296971e-01,-1.098981540290335096e-01,1.915774941444396973e+00
1.182704292162570781e-01,-1.472236931817641592e+00,1.135828074670099719e+00,-2.334050546587371558e-02,-2.071333597631066503e-01,-4.089649837046776398e-03,2.305204391479492188e+00
5.870902310959150716e-01,-2.745795832004471748e-01,5.883473214473912138e-01,-2.556768327636861626e-02,-1.896663533234184060e-02,4.961584901905390088e-02,8.683232069015502930e-01
3.878651769682082695e-01,-1.035633114658875087e+00,8.862843662098414121e-01,1.451885602559450095e-01,3.804159592893841535e-01,-1.123457207047715706e-01,1.876038551330566406e+00
2.917343373734563317e-01,-7.210106409299080754e-01,1.045143397294580945e+00,1.387375996584092885e-01,1.540381525075422420e-01,3.840635997659330812e-03,1.576470971107482910e+00
5.896002841040464126e-01,-5.232069097787725998e-01,6.368513214098345809e-01,-2.880072686664198953e-02,-1.086926626980241201e-02,4.944574368423796523e-02,1.141635417938232422e+00
1.433818711339297780e-01,-1.502083900333851529e+00,1.257525701787253425e+00,-1.318543055977965672e-01,2.565366092198018699e-01,2.256576887559145345e-02,2.456273078918457031e+00
6.743668700667172500e-01,-9.657974471716173070e-01,5.175416737492327668e-01,-6.422113060039560256e-03,2.928958370617443241e-01,5.703491777386233974e-02,1.650684952735900879e+00
6.146446312931186373e-01,-5.631286753899235054e-01,6.467225416915396430e-01,4.575781921528335530e-03,-3.462708720861471662e-02,6.398237200923544143e-02,1.200791716575622559e+00
6.378858330322589865e-01,-7.610606762328744335e-01,6.438279608598208581e-01,-3.203472721066465394e-03,4.026220434453092918e-03,1.019155831082043870e-02,1.402066469192504883e+00
1.661417404083698202e-01,-9.296250156226477657e-01,1.148855181407944848e+00,3.292208864583630323e-02,1.111512083493987058e-01,-1.307102327335564647e-02,1.812203884124755859e+00
6.353448452631456078e-01,-4.639313831566627133e-01,5.763054250990229388e-01,5.485968738699609215e-02,-6.795644649180306290e-04,-3.821944513201860644e-03,1.075205683708190918e+00
6.198406844162114293e-01,-6.202706060589651127e-01,6.527499283170894451e-01,-1.737388906998091342e-02,-3.086062571055988440e-02,-4.671944245326835159e-03,1.258411049842834473e+00
6.835080525748249425e-01,-7.205409163208763568e-01,5.989741443039129365e-01,1.349101216387373937e-02,-1.270585569780247059e-02,-4.033689677671303125e-02,1.365914106369018555e+00
6.614925499939043885e-01,-7.645797336897139918e-01,6.393197378355504057e-01,2.855294520936333975e-03,-4.019292724527724105e-03,1.177647304606395428e-03,1.415143370628356934e+00
2.065167271474268595e-01,-6.003816759234242850e-01,1.176829763005599938e+00,1.920052860564387953e-01,-1.043743161299209576e-01,1.457116962818979719e-02,1.587278604507446289e+00
6.368952659943907246e-01,-7.705338335237832403e-01,6.417963950971337095e-01,-6.040602122236954884e-03,-3.751622935594602689e-03,6.763199062122890069e-04,1.409940361976623535e+00
1.502200108857921351e-02,-1.429364888006828593e+00,1.399960746956284030e+00,2.245859950822594320e-01,-1.264113181940665909e-01,8.742926307934849317e-03,2.490819454193115234e+00
6.354832732196463718e-01,-7.244160193625879263e-01,6.662993849561662518e-01,-1.534258983722166722e-02,2.483189868001094841e-02,-1.292424631203286343e-02,1.376677036285400391e+00
6.619620159287662453e-01,-7.718080303349952320e-01,6.397773049211298302e-01,3.787581920395289865e-03,-4.022424859849603115e-03,4.477127891563342267e-03,1.422860741615295410e+00
4.024381384117018956e-01,-7.767756568226308334e-01,8.067291886432669257e-01,-1.377798415646541014e-02,-1.441696848777421491e-01,4.186761822294862018e-02,1.448766708374023438e+00
6.493084282566939924e-01,-7.776958834417545541e-01,6.464414048870343876e-01,8.826089962158357397e-04,-5.927263069123655040e-03,1.212659502958297235e-03,1.425612330436706543e+00
5.200667816545718747e-01,-7.668346808592005903e-01,6.853045183704721266e-01,2.765931891647161606e-02,9.202480965356776149e-03,-1.971563473104782221e-02,1.378324627876281738e+00
1.758599125706330479e-01,-6.304222928752649668e-01,8.941154487001510276e-01,-1.574031864119751489e-01,-5.420086867658858304e-02,5.254790012254089565e-02,1.355183720588684082e+00
2.796280775183245249e-01,-5.126041632153711669e-01,7.708609868819727984e-01,-1.727375567716038507e-01,2.935513935324326942e-03,5.253232335469205927e-02,1.164444804191589355e+00
3.800185422619140052e-01,-7.789635510062512536e-01,7.979917502066379287e-01,-7.644618350209947573e-03,1.633893614118398993e-02,-3.142543512010115541e-03,1.415404677391052246e+00
6.325084452089428932e-01,-3.188033704500249366e-01,8.456450231835483944e-01,-1.987579152050758524e-02,-1.721918276837907658e-01,-4.312486057522018496e-02,1.117539763450622559e+00
6.432579013574498683e-01,-7.418307108938498873e-01,5.137804481489482988e-01,-1.682090142895964133e-02,5.732536562145656295e-02,9.386693476604248895e-03,1.329236149787902832e+00
6.538762728107407052e-02,-1.581528204204939003e+00,1.370798126850304666e+00,-7.028489595684371538e-02,-1.409251137937082010e-01,-7.290106111458996563e-02,2.580052852630615234e+00
5.103044009019253036e-02,-1.658124975823830782e+00,1.455965146782315811e+00,-1.178773759475236216e-01,-7.408524862435479641e-02,-7.337501470544813276e-02,2.714886426925659180e+00
5.720094789999201623e-01,-4.662885336299529282e-01,6.323398226136569544e-01,-9.680454729611990194e-04,-1.310832531195689835e-02,8.553783466767345134e-02,1.080190658569335938e+00
6.525188106464474558e-01,-7.702595687115276757e-01,6.446178811208833626e-01,-1.866562890923447859e-03,-1.415456574350305689e-02,5.584775899492679281e-03,1.419092893600463867e+00
1.192777288118677670e-01,-1.355210516643416963e+00,1.291187672492132288e+00,-3.401390555884012401e-02,1.575796242100162281e-01,6.363714302397606437e-02,2.316370010375976562e+00
3.851195650548493998e-01,-7.370396990910070834e-01,7.520293506177126996e-01,-5.482686930151310645e-03,3.259385838429360721e-02,-1.077972200770779734e-03,1.344944715499877930e+00
6.515867049334560512e-01,-7.700646613067367863e-01,6.506339375959619975e-01,-2.597649919831824909e-03,-1.260148884909648853e-02,5.014597268855223652e-04,1.421350240707397461e+00
6.507860243044911730e-01,-7.707420667673402503e-01,6.414830101986785937e-01,-3.799223422326137179e-03,-3.854126164171386808e-03,5.757118959942787023e-03,1.416965603828430176e+00
1.636427070217037205e-01,-7.421123768030579715e-01,1.142916717563071671e+00,-1.229247787260451114e-01,4.610701591985180009e-02,-9.707387128056059467e-02,1.657205939292907715e+00
6.543828479337432391e-01,-7.770179470760522067e-01,6.453751490888417486e-01,2.234068849805140831e-03,-2.890070932989949846e-03,2.561698229481395965e-03,1.426939249038696289e+00
6.065446759748948091e-01,-7.642325114190274826e-01,6.994986042198005904e-01,-6.138850069396996345e-02,-1.286304750685631215e-01,-2.192856670898370858e-02,1.441344976425170898e+00
5.414475368964483115e-01,-3.496194652562776284e-01,9.564862530243466443e-01,-5.672341681026686622e-02,-1.088538748872662637e-01,-4.177056318265374990e-02,1.177505493164062500e+00
3.671625611566479153e-01,-1.004372417709287646e+00,9.740240084660899411e-01,-1.773468991499919101e-01,-3.494183993568782398e-01,7.829330668180044944e-03,1.882163643836975098e+00
6.104433843846676089e-01,-7.294309114067361044e-01,5.576304732853781809e-01,-6.110916083267563942e-03,-6.035466381355139576e-02,-7.999237496096421943e-03,1.318530082702636719e+00
5.948163543126123720e-01,-3.954657252607739482e-01,6.556569131305041154e-01,-7.498510321859790106e-02,-1.633964711165325837e-02,1.047624788519022077e-01,1.046520113945007324e+00
3.272201686669701237e-01,-8.250908716991568470e-01,7.512242110103094506e-01,-4.168002811150738063e-02,-3.116143279033797286e-01,-6.027652142916897077e-02,1.517763733863830566e+00
4.142339584072986525e-01,-7.654650097378310480e-01,7.296521516595598777e-01,2.877797137642838180e-03,-6.437832077127539354e-02,8.789162761053719713e-03,1.369659543037414551e+00
7.643858238456826548e-01,-7.409567566333797872e-01,3.585405562433537363e-01,1.679412876183018419e-02,-2.938937602340158106e-02,3.081298002714518390e-03,1.350294947624206543e+00
6.528316417664503657e-01,-6.541201722091634085e-01,6.223983551815266413e-01,2.121508259170164744e-03,3.288541788763015700e-02,3.227191279747332851e-03,1.293276309967041016e+00
6.009894027445109588e-01,-7.675187412846531387e-01,6.691557110857345725e-01,-9.139913679836998706e-03,-8.220130628538571205e-04,-1.043978627012625074e-02,1.404039502143859863e+00
8.118596530145281154e-01,-7.528863638845346706e-01,6.113799789915910221e-01,1.255742571230796141e-02,1.260716176760633307e-02,-1.731047937646198673e-02,1.475388526916503906e+00
5.645061630596054369e-01,-7.613182538152667433e-01,6.999366466032478362e-01,-1.558748816213109852e-02,-3.287677735940817969e-03,5.514934687823086663e-03,1.398771405220031738e+00
6.282483095728186306e-01,-7.458013847161755194e-01,5.653340068060442869e-01,1.423319279068203762e-02,-1.482773790343331829e-02,-1.604591080927524711e-03,1.344172000885009766e+00
9.273929897486087315e-01,-3.583254833663718220e-02,8.541366137998998020e-01,-2.605320362774123794e-02,3.943104491996068245e-02,-6.412303589937028321e-03,9.324331879615783691e-01
3.709792134397181806e-01,-8.175456363436995888e-01,8.279889104589459592e-01,-3.467721120953894814e-02,-1.220155332836970058e-01,-4.183769696510603042e-02,1.489341735839843750e+00
5.666037244372481574e-01,-3.158800741580124471e-01,5.915455005765323238e-01,-1.215090467226138254e-03,-2.031245612537760717e-02,-6.889788211150164876e-02,9.038215875625610352e-01
9.279545491965401904e-01,4.355350003820446236e-02,1.010040483784085064e+00,2.653698824297132802e-02,-3.957674576062987677e-03,6.975581325744014023e-03,9.294115304946899414e-01
5.535441330054082787e-01,-1.932863089044415950e-01,5.427372791288388454e-01,3.883355436420114076e-02,-1.538812106409386156e-03,1.255657628405569852e-03,7.445384860038757324e-01
5.379951960441651249e-01,-1.962725511206912521e-01,5.528600102914933423e-01,1.883731001983187953e-03,-1.444854036069779949e-03,3.998650149663062620e-02,7.450493574142456055e-01
7.022644129053569051e-01,-4.315165657748516459e-01,7.464611335357831390e-01,-7.387304558790847020e-02,2.681813223303687876e-01,2.876614667653026869e-02,1.253849983215332031e+00
6.938013000245831785e-01,-7.538174536770348988e-01,5.201513415474072755e-01,2.843498025611290725e-03,2.544091546265480827e-02,2.237401664420592823e-02,1.370344161987304688e+00
4.776410020191496630e-01,-7.434208594521576341e-01,6.951065383107842832e-01,-1.994823533277691185e-02,3.285385577030404403e-02,2.395705420687741297e-02,1.345353484153747559e+00
6.362228042097366476e-01,-4.663360679176111745e-01,5.765366096718600453e-01,-6.867363609863433305e-02,-2.186903541643920451e-02,2.530593468046431292e-03,1.081199884414672852e+00
7.990237948883759378e-01,-8.478739915470177024e-01,3.611561451604418105e-01,4.032341153022679647e-02,-1.818062617061621047e-02,1.058361645107855657e-03,1.479442477226257324e+00
5.732144655274904466e-01,-3.640853769200567136e-01,6.012810308835343509e-01,-1.542488501816103924e-03,-1.135640879932371845e-02,1.862342790943482109e-04,9.518506526947021484e-01
8.653200720579670158e-01,-9.234287975856230180e-01,4.021279735173433623e-01,4.135926293794099651e-02,5.619337609148813278e-02,-1.047716409251376810e-02,1.612628102302551270e+00
5.681257228952607541e-01,-3.119200990591878275e-01,5.636150887393815978e-01,5.254587555376407509e-02,-1.547629657923526580e-01,1.417432623742634068e-01,9.544332623481750488e-01
8.808621324257619456e-01,-3.114633057244087233e-02,9.961603044693387865e-01,-1.374633988234199439e-02,-1.860856027817897954e-02,-5.143170215286326646e-02,9.796670079231262207e-01
6.252562838298116876e-01,-7.333058802404051058e-01,5.710929549450045606e-01,-1.841941885377183178e-03,-6.304848566713384950e-02,-1.776039236300005347e-02,1.337132096290588379e+00
5.579160527161728389e-01,-3.239804222438842363e-01,5.769089502929587443e-01,3.198745535600545052e-03,-1.028123405518896992e-02,3.716476089806309419e-02,8.940600156784057617e-01
3.380241824097430792e-01,-7.475412958429606958e-01,7.723696130438540974e-01,-2.533211420213749010e-02,-4.907281067887718506e-02,-5.063777347162142124e-03,1.359354734420776367e+00
2.737157525961651516e-01,-1.223276609592856667e+00,9.593209372745998831e-01,6.270327728363248032e-02,-3.790406061175928820e-01,1.080973325308306893e-01,2.053107738494873047e+00
5.752554475438560466e-01,-7.743541017711140784e-01,6.874772715428403291e-01,-1.752086667076767704e-02,4.947839955415661399e-03,1.062545608749255500e-02,1.409548997879028320e+00
1.711852896286007730e-01,-1.044175952105689920e+00,9.613362490785080094e-01,3.400256060373651329e-03,-7.761846499162797230e-02,6.330490805732355564e-02,1.758377552032470703e+00
9.778154204029754215e-01,-8.094865938932482852e-02,7.147048610037385341e-01,-4.945623552930801525e-02,1.696480812159810447e-02,-3.988130816049384464e-02,9.615660309791564941e-01
5.964975052068739458e-01,-5.179337109505738335e-01,6.437659803586069929e-01,-3.396008336208947154e-02,1.313079895534849904e-02,-3.123600477536324534e-03,1.140559077262878418e+00
6.061132371865771695e-01,-5.633217993726469253e-01,6.501149371721137715e-01,-3.948820163981939246e-02,-1.591701124668094477e-02,6.886239825106622858e-02,1.200264811515808105e+00
2.616891858331036880e-01,-7.706005097949766292e-01,1.074659551277704184e+00,-9.271124198925542736e-02,1.391873693130281364e-01,1.124152649487116309e-02,1.627896904945373535e+00
6.807085022463170709e-01,-7.456839409725577461e-01,6.259893171516350829e-01,-6.529656750030990442e-03,9.778793797027560738e-04,-2.818175594518110543e-03,1.399890422821044922e+00
2.988645619265715148e-01,-7.630784065108885406e-01,8.053612072138089939e-01,3.015469828570598726e-02,-2.324024918013018262e-02,7.969152790711057574e-03,1.388045787811279297e+00
6.533457347296295348e-01,-7.302661818664293314e-01,6.386267277265741393e-01,-1.047161356811097781e-02,-1.707383963176072050e-02,-1.633615421173305327e-02,1.377039313316345215e+00
6.499561961852389214e-01,-5.849446795837847102e-01,5.823320733732392229e-01,5.439584060497285045e-03,7.274029295069412912e-03,9.358387783942458821e-03,1.202727913856506348e+00
6.450820121741710489e-01,-7.665705292116284930e-01,6.459833253252360574e-01,-7.236739367390577007e-03,6.983498112200951097e-03,6.545075704231602745e-03,1.412256360054016113e+00
4.809949649684637230e-01,-4.535932525923009884e-01,9.973797784600061389e-01,-7.217353787403259224e-02,1.353231089706710966e-01,2.936551659122493135e-02,1.302254438400268555e+00
5.856795963494729751e-01,-4.881981873832693664e-01,6.327787473789472372e-01,-2.211749439399904316e-02,1.568124830132309674e-02,-5.876059260623004571e-02,1.103890538215637207e+00
6.802681745631997678e-01,-3.476202328263920949e-01,7.510706214281492876e-01,-6.312321595626520232e-02,2.319056048536756176e-01,-1.348494070868203921e-02,1.143758893013000488e+00
6.393669455747186259e-01,-7.226148963572176509e-01,6.447562924045814325e-01,-1.540568313046043747e-02,-6.079825647333740070e-03,1.319472886411476691e-02,1.365177273750305176e+00
6.620274885251123953e-01,-7.509548585134288023e-01,6.405561639907286775e-01,2.348130012878962575e-03,4.049589299732058757e-03,-9.918942584387943455e-04,1.402394413948059082e+00
7.220309071442699844e-01,-1.083265639963058025e-01,9.799978628191081675e-01,1.469481344020981926e-02,1.146112459082189970e-02,3.581007220625214045e-03,9.855585098266601562e-01
3.900640635306136805e-01,-8.885047881690144589e-01,8.556267465242570758e-01,-2.113075881999779831e-02,-7.106402343842793679e-02,2.015492989397368179e-02,1.569856524467468262e+00
4.091872156180978992e-01,-1.134826449136243198e+00,9.403795737306613889e-01,-1.265569455659177056e-01,-3.434872580679705356e-01,-8.208902198028363018e-02,1.976999759674072266e+00
1.837108010224874077e-01,-1.126782242291445968e+00,9.238651677905216353e-01,-1.557864232471039279e-01,3.312711070529249513e-01,9.038687162872385827e-03,1.907213330268859863e+00
3.866653468851063979e-01,-8.433727402991005873e-01,8.337719074029052990e-01,7.998117952020675214e-02,2.071247780415693129e-01,-2.450112780256542833e-02,1.553238511085510254e+00
4.172006183173770366e-01,-8.063635260824938422e-01,7.515781278801239029e-01,-7.254328809812458922e-02,1.908584408284914880e-02,5.832603602196301945e-03,1.426545619964599609e+00
1.314923214930725781e-01,-1.158262636222540332e+00,1.113100206530379666e+00,1.811623631798789935e-01,-2.686134855183988090e-01,-1.970800293534184511e-01,2.079542398452758789e+00
3.622946409316429861e-01,-7.471092704157672459e-01,7.664574775469941148e-01,1.782695614856899535e-02,1.854835008112662165e-01,-1.476300964865967166e-02,1.395465493202209473e+00
1.078193518324117584e-01,-1.372515165404907922e+00,1.100406259750983828e+00,7.022852858499906148e-02,1.917597608837011414e-02,-1.472457832590160498e-01,2.174148797988891602e+00
4.289602023828203992e-01,-8.515424158605752192e-01,7.565867466006865882e-01,-9.814998425918837477e-02,-3.416664933339892407e-01,-1.184050649269303146e-01,1.608639240264892578e+00
5.752571322705697376e-01,-8.933304797784364926e-01,5.890258998983123329e-01,-3.688086053027041233e-02,-3.484184456471727254e-01,-2.315366630529040563e-03,1.595444321632385254e+00
3.902908627596809454e-01,-7.794783223093071367e-01,7.449137498768952925e-01,-2.216770258866808049e-03,1.022512305151984657e-01,-4.024268904925468876e-04,1.392955660820007324e+00
6.387276158257496617e-01,-7.713476615699865757e-01,6.471567197537935190e-01,-3.525067068032390703e-03,2.729590265190199282e-03,-3.818439826659150715e-03,1.414345264434814453e+00
6.541148735135060566e-01,-7.636303127695698301e-01,5.708701073683188909e-01,-2.261482708172817338e-02,-7.671851331535349885e-03,-1.947989812886532709e-02,1.379043340682983398e+00
1.555954800479955324e-01,-9.432714590878891192e-01,8.970462092005357935e-01,-1.253850575591910210e-01,3.136525699108231313e-01,3.839767387770572776e-02,1.708430409431457520e+00
4.686275532834814350e-01,-7.407386555761616975e-01,7.063063907959600263e-01,2.201179913659232976e-02,1.248106872478398077e-02,-1.988434290978152719e-02,1.345215797424316406e+00
5.757192157202559724e-01,-7.618023586394538915e-01,6.786311123177926063e-01,2.017017185307707489e-02,-5.994718602231243615e-04,5.092151510552598952e-03,1.392300605773925781e+00
8.611451768364245529e-01,-9.502333727495047011e-01,4.703572896878183696e-01,5.308707890584719868e-02,-3.649647425828865810e-01,2.140865225860335286e-01,1.808727264404296875e+00
4.400981975568676874e-01,-7.663760137197411781e-01,7.635605368388757030e-01,-1.086401689859882187e-03,6.699352064350128089e-02,-2.564314512857719316e-02,1.402104735374450684e+00
6.129203475079512131e-01,-6.751862803942725311e-01,6.771031339412477701e-01,-7.762429077857333154e-04,3.046529266016778561e-03,-4.547646244229793314e-03,1.321402311325073242e+00
6.612492603390055512e-01,-7.346741227001725161e-01,6.599924051279237869e-01,-3.266805153054842814e-02,3.714550208236640661e-03,-2.539397891600954360e-02,1.397149562835693359e+00
6.667761058099210825e-01,-7.553325249671362096e-01,6.145414039080366875e-01,-8.019081857007051214e-03,4.616859857049976194e-03,4.357460876994353723e-04,1.396816134452819824e+00
6.654158822212927760e-01,-7.964705019652978946e-01,6.058724330625983034e-01,9.668385914178055998e-03,4.135882803884079195e-02,-2.325136768701588710e-02,1.435494780540466309e+00
6.422037606935362408e-01,-7.747830670537362296e-01,6.506492969673718374e-01,-2.919064326482816770e-03,-2.768880593302943706e-03,1.669626733255871721e-04,1.421245574951171875e+00
1.087355352160048527e+00,-1.145966855038009991e+00,2.238466316356542696e-01,6.439934714230577395e-02,-2.504360534987001841e-01,2.332909141472498671e-01,2.041752338409423828e+00
9.084060908899478370e-01,-1.334900939697768907e+00,3.186448625319562300e-01,-1.253738320136228435e-01,-3.877272069761528162e-01,-4.949079429579328337e-02,2.136054754257202148e+00
5.305256269640916678e-01,-7.831542158979150070e-01,7.058033314736096298e-01,3.337040250814613668e-02,1.253390465140562064e-02,-1.423197953781233857e-02,1.411083102226257324e+00
5.392900265211553190e-01,-7.312260220918967990e-01,6.245400275329369144e-01,8.169629185935264881e-03,3.165539547477752569e-02,-6.320471175378581698e-03,1.316478729248046875e+00
5.885015872141392546e-01,-7.253985587545785929e-01,5.685432854642322731e-01,-3.545033746923037261e-03,2.206904801537705810e-02,6.449626210200989614e-04,1.304610610008239746e+00
5.972357651761277531e-01,-8.362398741697338878e-01,7.343069195014729766e-01,-1.743022847508849116e-01,-4.196576065567769187e-01,-9.908065594332851611e-02,1.708526134490966797e+00
7.834271928449496603e-01,-1.157691092619326900e+00,4.577017846547066782e-01,-3.437294816721324087e-01,-6.141908237101373347e-01,-2.093128981282150469e-01,2.204391717910766602e+00
5.989332735427524979e-01,-7.264015254957298939e-01,5.799766205660759066e-01,5.865280592761636276e-03,4.517946396035103264e-03,-8.508067710362580800e-06,1.316021323204040527e+00
6.514027322791775543e-01,-7.580075488592028510e-01,6.432696565813679213e-01,-1.030262572970600324e-02,2.481450091784217875e-03,2.309448730037590679e-03,1.405486941337585449e+00
7.590137796137044202e-01,-8.826782375537667313e-01,5.025524085303393340e-01,-2.465135917118937703e-01,-5.250318210629939530e-01,-8.441915700075904028e-02,1.835907459259033203e+00
6.415966996296581515e-01,-7.676186683014563084e-01,6.433661394525200805e-01,-2.607196290582227110e-03,2.387138826632466057e-03,1.120165927698602709e-02,1.410247683525085449e+00
6.438642830852927545e-01,-7.604938598019018725e-01,5.719211687356950957e-01,2.230216000722708147e-02,-1.272348060242616333e-02,1.931836843016579430e-02,1.370934367179870605e+00
9.758153884556364233e-01,-1.523423531386266960e+00,4.402659874567655396e-01,-4.037332203525537816e-02,-5.503857127432100205e-01,-4.830825050937905679e-02,2.472894430160522461e+00
5.518382742142993180e-01,-7.366392477334146038e-01,6.240040349828324118e-01,4.348011088377302588e-03,6.396599871625531508e-02,-8.228587842437282140e-03,1.330752015113830566e+00
5.789122533948796168e-01,-7.246628479899652753e-01,5.956661853320126543e-01,2.965270351349823144e-04,7.733214532026089390e-03,-3.986556035989119792e-05,1.312100768089294434e+00
8.678117355246731668e-01,-1.520388555286454668e+00,5.679009466520474891e-01,-1.362434948074486320e-02,-5.718857338769831600e-01,-6.785485769821866797e-02,2.464290857315063477e+00
4.629546737022892100e-01,-9.604274004045232349e-01,6.317607369863801337e-01,-6.474832144886981562e-03,-4.656296537274672298e-01,3.378713250424791176e-02,1.717198610305786133e+00
5.855213223492532482e-01,-7.242696576458126367e-01,5.884377718095874510e-01,3.572951768966832692e-04,2.839857368157660752e-02,1.227377803133538172e-03,1.312175750732421875e+00
1.130058050933286262e+00,-1.372736534588298918e+00,2.646031655206017019e-01,-3.725127491161756704e-02,-3.491634961829549466e-01,-5.631661297139342603e-02,2.286123514175415039e+00
6.182181278247308454e-01,-8.023610814309053429e-01,5.670611991276678365e-01,3.247686724073446662e-02,-9.722622720660534235e-02,1.923058385198418360e-02,1.407345890998840332e+00
7.015476420087455312e-01,-1.264885630041584497e+00,6.542242535334781284e-01,-1.213483196998035862e-01,-5.799033002858445807e-01,-1.061519767632572026e-01,2.205195188522338867e+00
6.506836078075570740e-01,-7.441520954251129583e-01,5.660376907418180892e-01,-1.652530056377151876e-02,-1.153205564327760245e-02,-1.884858689101245530e-02,1.355340719223022461e+00
1.030563225445054520e+00,-1.352578827509139270e+00,3.279397559236203463e-01,-2.370672326455283002e-02,-5.017437660605646998e-01,9.007565375669900065e-02,2.297794818878173828e+00
6.156706756126331115e-01,-7.286528403476780769e-01,5.305445150328429449e-01,-7.487011730146557811e-03,-3.886599013214590143e-02,-4.600648482523996170e-03,1.305671691894531250e+00
6.521162058511282833e-01,-7.625749474268597172e-01,6.409419815064150150e-01,7.983666295923504824e-03,2.762372784920217391e-04,7.948357127751009069e-03,1.409272432327270508e+00
6.417465758392348896e-01,-7.454504177895396877e-01,6.111003243619159697e-01,-2.318987210506103999e-02,-3.028003328144353648e-02,-2.298889727142345435e-02,1.374296784400939941e+00
2.023152151108877084e-01,-8.598417277032894823e-01,8.829487642011583093e-01,-6.834928814050215962e-02,-1.737937995872246566e-01,1.675870486431054601e-02,1.555586457252502441e+00
6.727489614420238961e-01,-7.691894791292044342e-01,6.404847892877907345e-01,-1.128682466765041975e-03,1.195333537229489873e-02,3.215404115301852533e-03,1.426242589950561523e+00
7.621921905067745584e-01,-7.867221288345418451e-01,5.193608768954115495e-01,1.309690043780690517e-02,-1.091930542622151779e-01,4.510742520737018313e-02,1.457520365715026855e+00
6.180483343808551577e-01,-7.756176806569849980e-01,6.398012522639158206e-01,2.614265301485944881e-02,-5.663910208822018483e-02,3.133946608117738064e-02,1.409863591194152832e+00
5.047202643473862604e-01,-7.762783122493405186e-01,7.131406027154536531e-01,3.772589014107208261e-02,-3.060893549828175905e-03,1.454970980096750507e-02,1.398683428764343262e+00
2.554353082052666091e-01,-1.532199912977340928e+00,1.110281707347357871e+00,-5.820060938007112078e-02,-3.657939799843848983e-01,4.832609330894065483e-03,2.422024726867675781e+00
3.371263030684799045e-01,-1.180958654589249868e+00,9.100383449969433602e-01,-2.032443882802050517e-01,-4.550346336210783216e-01,-1.296465277465620458e-01,2.073175907135009766e+00
3.835130467913749341e-01,-7.769101002232373654e-01,7.096225406613230202e-01,1.414452428226639115e-02,-2.166100305283432947e-01,-2.514504603165603966e-02,1.405208587646484375e+00
6.679647479219809059e-01,-7.469558595299621295e-01,4.901022631219943970e-01,-2.656240935257013838e-02,-7.069900715616923847e-02,-1.738136208877621644e-02,1.341637849807739258e+00
3.997340259213784663e-01,-7.743021188768959284e-01,6.119883741133173016e-01,1.885179421602380459e-02,-2.362932529356410738e-01,2.303627209702826736e-02,1.357486128807067871e+00
6.341923042722164006e-01,-7.446397352646071388e-01,5.779557179001288958e-01,-1.260997112264190291e-02,-2.498437890034916134e-02,-1.141865261309669977e-02,1.352604985237121582e+00
7.685478251673727446e-01,-8.845363284847750363e-01,4.165312358987850461e-01,6.532068789531512466e-03,-2.506768278878656053e-01,5.535661837530835364e-03,1.569530606269836426e+00
5.493665443803210646e-01,-1.938608545913866332e-01,5.519596407359639301e-01,1.297191690309681868e-03,2.357394887158106595e-04,-4.147861867477595221e-02,7.479890584945678711e-01
8.446294003439340781e-01,-5.791475953030222890e-02,9.813949856935979543e-01,5.197004942151143420e-02,4.434982944537158717e-02,-1.978492037464820580e-02,9.858526587486267090e-01
5.442927632658848269e-01,-2.217987888712427136e-01,5.679868689916409696e-01,1.379741119139099061e-03,-1.645388492699231472e-03,3.234909633605040184e-03,7.782382369041442871e-01
6.141588251147035438e-01,-5.584724796864202201e-01,6.446575637107968548e-01,4.214326700112609389e-03,-2.523753891857034512e-02,-5.502010125001977406e-03,1.189038753509521484e+00
7.937417397318418111e-01,-8.136142641280054155e-01,3.094791162208616608e-01,8.095312887342222393e-04,7.732944734015549659e-02,-8.572147810201984075e-02,1.442119002342224121e+00
6.445819860162029791e-01,-7.664780139663978087e-01,6.574923924068408754e-01,-7.944275760129582533e-04,9.298925296868642068e-03,3.067049411456210326e-03,1.417661428451538086e+00
6.428450898735553753e-01,-7.706053470742724176e-01,6.441122200576382406e-01,-2.157845379829415673e-04,-2.417548139202507860e-03,1.134274206083656610e-02,1.414227128028869629e+00
6.459424706082947942e-01,-7.779571991389843122e-01,6.501698553965047367e-01,-2.869251899581316736e-03,-1.654414928712860840e-03,-7.158372264852279083e-04,1.426030158996582031e+00
6.380266109253067697e-01,-7.492070867866723605e-01,6.688281869984464834e-01,-5.160475352580565743e-03,-2.496856384754645233e-02,3.894136825263837601e-03,1.403599262237548828e+00
3.419231740859512425e-01,-8.125989595335340043e-01,8.361467652526661798e-01,-1.993679097667861930e-02,-1.126900276677781781e-01,4.209975266321264002e-03,1.478889107704162598e+00
6.800367651261743918e-01,-7.675957048066974764e-01,5.227831491952639187e-01,-3.697623546852908671e-02,7.941153112646628931e-02,3.341944464909638035e-02,1.385313630104064941e+00
6.500080236319560889e-01,-7.677953137380802984e-01,6.148340247059118635e-01,9.465464981416669976e-03,-5.146487138867092241e-03,9.660751986091531754e-03,1.400771856307983398e+00
6.447870378080968745e-01,-7.749320614325532208e-01,6.444194365884732267e-01,3.946602128900248557e-03,4.331297087353524491e-04,-2.374456886280770177e-03,1.419557929039001465e+00
4.747346985251075790e-01,-7.692763522792047670e-01,7.299428509367892337e-01,-5.257305520253848993e-03,2.452542729097836188e-02,1.440046749548102092e-02,1.390210747718811035e+00
6.164886817595292001e-01,-7.311767873072538837e-01,6.817709620545622240e-01,3.009829112602400384e-03,3.510838955760626958e-03,1.958366952295157240e-02,1.381903529167175293e+00
6.535794492274377143e-01,-7.610951208773458765e-01,6.476857719250947998e-01,7.130986541591448520e-03,-1.446356611045328429e-02,-6.286680687421771635e-03,1.412055253982543945e+00
4.900329694516626367e-01,-7.565221662112427969e-01,7.231354738132660387e-01,1.633161863237510281e-02,-8.097625429292428650e-03,-4.992351566629861861e-03,1.378362536430358887e+00
5.214087358808927597e-01,-7.705957099067757277e-01,6.891217825313725731e-01,-3.297683397622176021e-02,-4.602871535595736731e-03,-2.035393711846208639e-03,1.384712100028991699e+00
6.576418814343751862e-01,-7.711669628730032366e-01,6.390124749814776184e-01,1.176031654083203870e-02,-5.841640283422391833e-03,-1.378147853934258947e-02,1.419968605041503906e+00
3.191034643508818824e-01,-7.940846079049185269e-01,7.471384538138872156e-01,2.712422337365583136e-02,3.233676382661634929e-01,-7.600098057815962704e-02,1.494028329849243164e+00
3.299572145037849014e-01,-7.781309072427977647e-01,7.925066683216501762e-01,-5.207149123185059181e-02,1.788191324802745064e-01,2.318430340552351393e-02,1.435281395912170410e+00
6.104907375913477541e-01,-7.570193369282894880e-01,6.424715345340508144e-01,2.446362785694334782e-02,-7.749972336220650217e-03,2.622526761271983670e-02,1.385236263275146484e+00
9.511122668543434688e-01,-8.099069718353973935e-01,1.520665699971399942e-01,2.728308537482226209e-02,1.524615431677127930e-01,4.503601884512177522e-02,1.552604079246520996e+00
8.466105442950830895e-01,-8.770025075585519136e-01,3.833453561788644492e-01,3.636538935708088626e-03,2.120053035250536733e-01,8.407188486005140113e-03,1.588098645210266113e+00
8.248157361895332995e-01,-7.840243629697715155e-01,2.320365350819960648e-01,5.780114573935642326e-04,4.734780126953336277e-02,-2.186612385361031211e-02,1.412171244621276855e+00
7.037196534088419053e-01,-7.946005748932553070e-01,3.401925277751138288e-01,-3.573694773173759914e-03,2.003946427646668138e-01,6.019152199090414997e-03,1.397517919540405273e+00
7.020460173535354453e-01,-7.716666606449157362e-01,4.548789206212500158e-01,-7.220966675377990182e-03,3.406532403320944313e-02,4.511907280563615119e-02,1.370551824569702148e+00
6.715994355163965590e-01,-7.296380735109495586e-01,4.321036430521760785e-01,-4.031322694039429604e-03,5.271595117564074201e-02,-9.731889765021249769e-04,1.301392674446105957e+00
7.784910237796471844e-01,-7.516596038038321215e-01,4.034337600267732249e-01,-2.248359624425506562e-02,2.689301067146351865e-02,3.187054675640689505e-02,1.383787631988525391e+00
6.622490948957204804e-01,-6.453391702681616771e-01,6.130320371131707802e-01,1.950121561558588665e-02,2.041171102346740762e-02,1.161844392746719766e-02,1.284776091575622559e+00
6.374784423413071277e-01,-7.618272260367422444e-01,6.087278225567014367e-01,1.693789220772748752e-02,1.568441891227037761e-03,-2.810431666344006402e-03,1.385475993156433105e+00
2.505241266970278380e-01,-8.078243517300677246e-01,9.394137068456509532e-01,4.401715293403519330e-02,-2.490817172847814912e-02,-1.899820908944699870e-03,1.526905417442321777e+00
2.745825568484083212e-01,-8.039377122028955602e-01,8.340570714203673353e-01,3.817144263327275355e-02,1.559601423225992767e-01,-4.008458687891233024e-03,1.468677043914794922e+00
5.995777197940375947e-02,-8.039985079786888811e-01,1.149775384740482576e+00,-9.173814276697069003e-02,2.202100398523368363e-01,2.214883466957937308e-01,1.787057399749755859e+00
6.518947527220362304e-01,-7.792877474801453985e-01,6.462921650318322886e-01,2.366209121021894957e-03,-2.218776213585928019e-03,-1.643319202471619838e-03,1.428403377532958984e+00
6.222237022918719607e-01,-7.631668538646395605e-01,6.234426843733262835e-01,-8.183370143455348869e-03,8.604648209321861391e-03,1.080167836364330676e-02,1.386279344558715820e+00
6.440557335229710745e-01,-7.539209019668239309e-01,6.564017917305977612e-01,4.967743664380084960e-03,2.414705252111025088e-02,5.002159011073709603e-03,1.404866218566894531e+00
2.475110894334987127e-02,-1.007324186996517490e+00,1.099006301101049798e+00,6.667965909702792959e-02,4.725022298026245599e-02,1.201077836651059071e-02,1.829859256744384766e+00
4.244073822091404269e-01,-8.572231256722865345e-01,8.280117846862752318e-01,-2.894369085621743137e-02,-4.065009321105710338e-01,1.038158581352979504e-01,1.689177393913269043e+00
6.950549296696009183e-01,-7.508848782152516277e-01,4.795926344237712025e-01,8.312320463266695617e-03,-1.173273863566588193e-01,6.658101535531316811e-03,1.366476416587829590e+00
6.157690298906268733e-01,-7.278075799519273525e-01,5.202529080564526343e-01,-6.162868641839679444e-04,3.332036808651256399e-02,3.910629095672296142e-03,1.299756169319152832e+00
5.738031324158398006e-01,-7.333808303394513395e-01,6.277005472978238743e-01,1.319890410375663785e-02,-3.921328172305185711e-02,1.979647336773505614e-02,1.337310791015625000e+00
6.073269216775040169e-01,-7.287623973219438112e-01,5.805877058725148476e-01,9.979116484341927357e-03,-5.429626880355929025e-02,1.560527234712447966e-03,1.326376318931579590e+00
9.628624463452916116e-01,-1.005489804713179280e+00,2.343940692455496744e-01,-4.021475923831686200e-02,3.319227697134605748e-01,-1.299127397290862074e-01,1.832265377044677734e+00
4.236377069901510195e-01,-7.756806046848456759e-01,7.430216331108252525e-01,-3.520155123983790407e-02,-5.853494737260595687e-02,-2.731623888056531127e-02,1.392712593078613281e+00
5.677470152549024540e-01,-7.350329010379192951e-01,6.143346963274847194e-01,7.272746015649034224e-03,-5.626573402614134037e-03,1.344848601380101670e-02,1.326987385749816895e+00
6.452984247284305752e-01,-7.781469142861394683e-01,6.483821092968549138e-01,-2.011978428708676835e-04,2.125831412868030030e-03,-2.728761444680592382e-03,1.425002336502075195e+00
6.297330784474606258e-01,-7.590446441564172586e-01,4.917741744849510321e-01,2.014237874664690647e-02,-1.254372925986668441e-01,7.699418661662146487e-03,1.343406319618225098e+00
6.171496061538801481e-01,-7.623886849429997170e-01,6.612664042012008636e-01,1.421690564401168096e-02,3.642755521809969057e-03,-4.726808095885847100e-04,1.402347922325134277e+00
6.146774629067337514e-01,-7.431266423784287367e-01,6.581437404181140760e-01,3.212211349637259222e-03,8.758929615064585134e-04,-6.122608195587194747e-03,1.380103468894958496e+00
6.502732861667775976e-01,-7.792323267303539192e-01,6.468581612014890903e-01,-1.452254838059912311e-03,1.955558487026626095e-03,-1.683267686285222237e-03,1.427810311317443848e+00
5.733767382934140677e-01,-6.345575136748449196e-01,6.882228166117032586e-01,-6.727619626471836867e-02,2.842052611529344384e-03,-4.931330777287936534e-03,1.274635910987854004e+00
3.843649971587923542e-01,-7.941150549197162345e-01,8.265264163076087023e-01,2.056218124477588512e-04,-5.327539655675653935e-02,1.475162235849448999e-02,1.454155445098876953e+00
6.119327650605512758e-01,-6.981270348735686415e-01,6.670505247192902720e-01,2.973495262539371103e-02,4.855955495381548276e-02,-4.069903570075782129e-02,1.343948721885681152e+00
6.597157165526681410e-01,-7.687307949201831470e-01,6.398946569725112443e-01,-1.081647213342224996e-03,-7.700531505295303905e-03,1.650697707015145229e-03,1.418706655502319336e+00
6.651393886252778831e-01,-6.994029092315555696e-01,6.390838538242491484e-01,-2.475215220275903821e-02,-3.311346539464878752e-02,1.765292030474812160e-02,1.353943586349487305e+00
6.484089362277921653e-01,-7.675569386529008664e-01,6.485744175850730597e-01,-2.488701073078259177e-02,-5.437644947042887845e-03,-6.983098943545353911e-03,1.416787505149841309e+00
6.412773191696210517e-01,-7.655783132266447133e-01,6.482220280752768460e-01,1.071005314948476547e-02,3.723928382302130972e-03,-2.048942858888592403e-03,1.410482048988342285e+00
6.459156209407963534e-01,-7.782928505346473624e-01,6.486981828315696585e-01,1.477632030898461298e-04,-2.150538919923682818e-03,-2.733997430202792390e-03,1.425614595413208008e+00
6.500414640458658244e-01,-7.211881079063712230e-01,6.433038794042222897e-01,-1.396273717092326276e-02,-2.536818014091724374e-02,-4.246833939030559245e-03,1.368812203407287598e+00
6.417759802991810369e-01,-7.642216649815166685e-01,6.498329125559942909e-01,6.680662131806058661e-03,2.523135557395927292e-03,2.975925021182656248e-03,1.410107016563415527e+00
6.550230059702384366e-01,-7.523787582593859380e-01,6.382077450171144140e-01,-1.638160936750965692e-03,-2.278783313807654712e-02,8.113494494118659792e-03,1.399699926376342773e+00
5.318474143068843141e-01,-7.598806646024971467e-01,7.075771505477844725e-01,-1.937071047299037188e-02,2.329039663305218239e-03,-4.333405210454551598e-03,1.388393163681030273e+00
3.111728227383892542e-01,-8.018327769368933655e-01,8.315758142881453097e-01,9.366179702705226817e-02,8.946445471918199055e-02,-5.947563777825515263e-03,1.462616682052612305e+00
4.828532503282830790e-01,-7.313882128139450600e-01,6.588841254008552806e-01,-3.540417337582283872e-03,-2.768462452181044350e-02,-1.729197244817440651e-02,1.312382221221923828e+00
3.880241678722420318e-01,-4.373815699091928577e-01,6.423274998053706275e-01,2.624909660534816003e-02,2.397799131121143290e-01,-5.271795329601575153e-02,1.067125082015991211e+00
1.607202652234539231e-01,-1.046483797633626311e+00,9.491442987740589254e-01,1.598851047067845754e-01,2.429797399057338769e-01,-9.262284593796733800e-02,1.819419384002685547e+00
4.301632485130721384e-01,-7.960789578313071102e-01,7.210383565369702374e-01,4.908347465666518944e-02,1.317255439349358237e-01,-4.546304277307165048e-02,1.417901515960693359e+00
5.820900510716739973e-01,-7.412465532827700043e-01,6.118677786547616071e-01,1.789203687024403357e-03,-4.218085438923696757e-03,-1.000008460516261730e-02,1.338609457015991211e+00
6.708364983595321851e-01,-7.413854982959431350e-01,6.261872933980952016e-01,-8.740918822089549945e-04,-1.789393205523640061e-04,-1.411573171650424294e-03,1.390438199043273926e+00
5.535215233533430368e-01,-8.531640203354829977e-01,6.420934984598104522e-01,1.214169477344717758e-02,1.678366223810859315e-01,-1.190592321231683263e-03,1.481943368911743164e+00
4.320258465140955906e-01,-8.373068692749517927e-01,5.586724596874684812e-01,5.499160145196108074e-02,4.225392384268929491e-01,-3.473001538245387015e-02,1.528499484062194824e+00
5.359281334661920582e-01,-8.503674855458303039e-01,5.845212981537337704e-01,-3.576700039811790688e-02,4.200872820422918985e-01,5.946571136187005918e-02,1.592296361923217773e+00
1.845252265136941017e-01,-9.486368417253107088e-01,8.961422537019988477e-01,-3.917674016328766273e-02,1.078595072210598443e-01,1.337764552463467822e-02,1.623845696449279785e+00
3.515979920456845376e-01,-8.579632528793086355e-01,6.483063830996712573e-01,-7.197428280212667118e-02,-4.534062940916912532e-01,-8.481382789902158770e-02,1.601191520690917969e+00
4.737607031534185609e-01,-9.333123816699679942e-01,7.203080061650863897e-01,-5.686488925615146989e-02,-3.070264270216212510e-01,-5.222690058651328904e-02,1.639582157135009766e+00
6.478941558717974392e-01,-7.756426558745823652e-01,6.509276497348307489e-01,2.877919594178184135e-03,6.259398046935238900e-03,1.901406973678842214e-03,1.425109744071960449e+00
6.446072048762958584e-01,-7.742454845297747079e-01,6.466631034355069252e-01,1.443005032855851095e-03,9.096744186584201789e-04,4.339054961878656760e-03,1.419904708862304688e+00
3.464335651273500183e-01,-7.446012232180150292e-01,7.618379543595942271e-01,-4.399695813830764406e-03,-6.123694767671027106e-02,2.412130819017282990e-03,1.351837158203125000e+00
4.476343160782921271e-01,-7.348628614544240323e-01,6.688647919502023198e-01,4.734093894617458220e-03,-7.237671527981248687e-02,-9.891419203412805949e-03,1.313363194465637207e+00
6.554938927475404409e-01,-7.630024074786152521e-01,5.922743768373177620e-01,5.226871959305955974e-03,3.575830049851023811e-03,1.630134684762107877e-02,1.388297319412231445e+00
6.799674150235364145e-01,-7.630622926431765984e-01,5.692987963361783033e-01,1.356798990225266052e-02,4.799218067761012139e-03,1.073157866509841067e-02,1.391348600387573242e+00
5.047993664010839154e-01,-7.481711032206941336e-01,6.582159533424009057e-01,-6.628993880973447529e-03,-2.520537918479492240e-02,-1.374430149242743607e-02,1.337274312973022461e+00
3.737433797513846079e-01,-7.504458203258459470e-01,7.110583004735380186e-01,1.175453023820262170e-02,-2.020911485312731903e-01,-1.544327980083069242e-04,1.371030807495117188e+00
6.403997550204247879e-01,-7.662443788236023012e-01,6.393586417876786498e-01,-6.391319857838788192e-03,2.355893811734963931e-03,-1.222204187375093912e-02,1.406332731246948242e+00
6.398061578692250118e-01,-7.679581938357810111e-01,6.729949621116941838e-01,-5.037254234352764315e-03,4.700000445481077559e-03,-4.356354600253713703e-03,1.424718618392944336e+00
8.926177159870531952e-01,-8.119312243488074898e-02,8.757372526803097745e-01,1.064682609539571983e-03,-3.795325294500177110e-02,2.434970597573297545e-03,9.677276015281677246e-01
6.483575409663833167e-01,-7.635258483132582041e-01,5.969262181464928263e-01,1.848772869383552217e-02,4.983727578486593125e-03,4.168682157830056259e-03,1.387298464775085449e+00
6.491641766833720073e-01,-6.651816355113593371e-01,6.292628232868380245e-01,-5.277061608124945791e-02,-3.433719927391679083e-02,8.749163987609578225e-03,1.309146523475646973e+00
6.208124955605971440e-01,-4.968890729862210920e-01,5.968537712937376227e-01,8.114090955344517575e-02,2.589905024531359221e-02,3.211901236074674731e-02,1.117099285125732422e+00
6.301674072769800627e-01,-1.479771760506864986e-01,5.438622528733934036e-01,1.073404154719668352e-01,-8.172211813147099713e-02,8.252876616071146143e-02,7.879302501678466797e-01
5.897608442845535537e-01,-2.752009382325576459e-01,5.735227990844428136e-01,1.565532197694166627e-02,-1.069159717839602078e-02,3.404873356069191420e-02,8.596123456954956055e-01
5.727142230470124717e-01,-3.345297952671050234e-01,5.876206395255281212e-01,2.241892153761531128e-02,3.277008228584171214e-03,6.906317837802863902e-02,9.234104752540588379e-01
6.140597098190940795e-01,5.564517951777203653e-03,6.610653169708213817e-01,4.617532486607356379e-02,-1.176389214814726504e-02,-6.502296586683008021e-03,6.387621760368347168e-01
4.054896687223580320e-01,-7.653519087555318290e-01,7.260424993291241247e-01,3.927575226542705938e-02,4.664942208350358888e-02,-6.703527361676341577e-03,1.363903164863586426e+00
6.147661259781471710e-01,-7.194225071129926041e-01,6.814451010758233451e-01,-9.792791304500914843e-04,3.402684347009356149e-03,2.183151944270233374e-02,1.369282722473144531e+00
5.842654629854404646e-01,-7.278361990567876472e-01,6.765144147382782247e-01,2.503929457330179506e-02,2.624968645420486246e-02,-1.002275836455750885e-02,1.362134337425231934e+00
5.634031765207707654e-01,-2.732843615162570128e-01,5.536812818015122151e-01,-4.551560918154454877e-02,5.748685419290371426e-03,2.315252357088051424e-02,8.366173505783081055e-01
4.806372827593629049e-01,-1.705335279520265868e-01,6.801871915400281576e-01,1.269060932270292819e-01,1.023705704089832441e-01,-5.990988657307777521e-02,8.272284865379333496e-01
6.300468387070563558e-01,-1.384080034414323368e-01,6.759556308530363378e-01,4.849563024903318087e-02,-4.566070026907355361e-02,-5.291980322704191442e-02,8.059906959533691406e-01
4.610940885188725691e-01,-3.751810769791986688e-01,1.033284164514031378e+00,3.196158754594219387e-02,8.304261775507161547e-02,-5.439882191816453050e-02,1.240119576454162598e+00
6.363523392513505961e-01,-7.715978401981067325e-01,6.348531591449557698e-01,-3.943036967406308296e-03,-1.579294156114605368e-03,-7.992151381521895095e-03,1.407288551330566406e+00
6.729390239849646349e-01,-7.430535298737396266e-01,6.285482926076351173e-01,-8.947543716639390701e-03,-1.500264555956531444e-02,-1.653576607556736609e-03,1.394658446311950684e+00
4.582481729482660859e-01,-7.327562921046316680e-01,6.800886739165629136e-01,2.847515016902331646e-03,-1.305183372124619490e-01,-2.665788854213427522e-03,1.335315942764282227e+00
6.092230594233360996e-01,-5.662206992843604736e-02,6.209233909755715874e-01,-5.957150946160081478e-02,2.009974712383409690e-02,-1.775477666512789363e-02,6.812350749969482422e-01
5.602492714596117862e-01,-7.678494277672659463e-02,5.519269269625639573e-01,2.553056192449918577e-02,2.455208263695525008e-03,-1.376824475179816952e-02,6.349192261695861816e-01
4.183407093608056959e-01,-8.609402585931545948e-01,8.102648886015213492e-01,2.617471572450566844e-02,-1.569053466375712191e-01,5.381924634546435098e-03,1.538683056831359863e+00
6.049275018875406307e-01,-2.021579719096349148e-01,6.146647577787748284e-01,7.258305264292669833e-03,2.887091628929124368e-02,-1.161413527293864295e-01,8.381322622299194336e-01
6.339342950986257552e-01,-3.881344876460564031e-01,6.708647189279624001e-01,-5.373298753284691531e-02,-8.710514767901456762e-03,-9.078606957539839262e-02,1.057047605514526367e+00
5.129630546484065245e-01,-7.518167971548195272e-01,7.018245101866238400e-01,3.741458864615838584e-03,5.867504029686350549e-03,1.255994832282739809e-02,1.369241952896118164e+00
5.910364429605048375e-01,-3.392985483771322475e-01,5.914363278019388881e-01,-9.211543414115442446e-03,1.964716347449313796e-02,-6.396112395867012412e-02,9.378598332405090332e-01
8.152319736673787620e-01,-4.628173797233616771e-01,3.379760639434447045e-01,4.479294127646124557e-02,-1.548102158716077315e-01,2.205830271481743765e-01,1.214543223381042480e+00
8.485223782369684109e-01,-1.046976219960939147e+00,5.300115686335662435e-01,1.458430662848633486e-01,-4.441133603617744008e-01,2.063241325243613811e-01,1.968211531639099121e+00
9.204319311814384008e-01,-1.049764843541677095e+00,3.184838938732657554e-01,1.459146117685354658e-03,-5.084666449311747716e-01,1.255333255416337668e-01,1.970014691352844238e+00
6.802224199925255288e-01,-7.306654684684470435e-01,6.283063755046816024e-01,-2.943032689232766719e-03,1.510758675296400115e-02,-2.045122485451895174e-03,1.385920405387878418e+00
8.088711887906081532e-01,-1.155435521956252432e+00,5.128798557358345001e-01,6.459278978878840727e-02,-5.358801930016092729e-01,1.529245703636790132e-01,2.075782060623168945e+00
6.533087191077242561e-01,-7.692395648030877497e-01,6.423656432471471778e-01,3.966607420629906589e-04,9.350727047461345268e-03,-4.475069431715010451e-04,1.417201399803161621e+00
5.905064567877018611e-01,-7.290541827914741591e-01,5.924859410167000462e-01,-2.705029325787544365e-03,-4.647790811322423258e-04,-3.615365664427627659e-03,1.320574879646301270e+00
6.121797966953015369e-01,-7.386384326903473463e-01,5.920267478070979639e-01,6.066398520022782620e-04,-9.887728679733387774e-03,-1.431622352282201256e-03,1.340967416763305664e+00
6.591323963471393821e-01,-5.935570536000936981e-01,5.776890446560360992e-01,4.092105109789473914e-03,-1.768021451067824240e-02,-1.495605775088181032e-03,1.214427947998046875e+00
6.405957542447543451e-01,-4.550687133496843506e-01,5.959488131811014888e-01,4.316979733180369150e-03,-5.521571353492131691e-03,7.485493305914948936e-02,1.081902503967285156e+00
6.546943411309553706e-01,-5.874318898334709438e-01,5.960058179198708395e-01,-4.031449995319563023e-02,2.395749260096671079e-02,9.467268929755643173e-03,1.216671705245971680e+00
6.823495850151795050e-01,-7.463175145287072043e-01,6.258398675379657217e-01,1.859631624305478452e-03,-4.043409093364988896e-03,-1.696061087538245759e-03,1.401291370391845703e+00
5.767550451667742273e-01,-3.308309375780545958e-01,5.992454967902680618e-01,3.056377036771930691e-02,1.266680654325361144e-02,8.059718743746228931e-02,9.313440322875976562e-01
4.871919615586399743e-01,-7.522239867810731617e-01,7.057298257885031845e-01,-1.044521728053826766e-02,1.159965563383738053e-02,-1.449174430897355592e-02,1.362398982048034668e+00
6.079531206532636789e-01,-7.618849514990932992e-01,6.790973372175713729e-01,1.680043681310148390e-02,-6.646585666323974071e-04,5.999393949108401680e-03,1.407099843025207520e+00
6.338833226905787877e-01,-7.672615413811249008e-01,5.823472012016766008e-01,2.582113844029327102e-02,-6.715784351456149937e-02,3.138606699638039205e-02,1.382801294326782227e+00
6.647033532865473937e-01,-6.310358658977670565e-01,6.048040002527046433e-01,-2.375020221880800447e-02,-2.329251892404501575e-02,2.090454305998414725e-02,1.268678426742553711e+00
3.268128905150567420e-01,-7.525612952588405236e-01,8.025857983941623308e-01,-2.488075849905678205e-01,-1.830686646278890939e-01,-4.017041296014349505e-02,1.481905698776245117e+00
5.702729050500829899e-01,-7.626761095476427554e-01,6.648804173609980106e-01,-1.135009685426572809e-02,1.097162779192424826e-03,6.943289690770357639e-03,1.382875800132751465e+00
6.147350445608861236e-01,-7.546520483047469696e-01,6.554968900146964650e-01,2.186813483051032458e-02,2.934315086798494881e-03,8.915396662580244921e-03,1.390827178955078125e+00
3.740518699273649439e-01,-7.632149939869967703e-01,7.973411046231939636e-01,3.364454134009321751e-02,7.185143399836126619e-03,-4.897247590476773785e-03,1.399130105972290039e+00
6.699277520516997431e-01,-7.158672184734780064e-01,6.233630798366824877e-01,-7.984640392162352385e-03,-1.371998322927773031e-02,9.369113515001494669e-03,1.363483071327209473e+00
6.027146971351429183e-01,-7.638000221559662073e-01,6.585974355040270511e-01,-1.025090576029973402e-02,2.124542684899467966e-03,-1.322839188189280958e-02,1.395601511001586914e+00
6.169343164886644804e-01,-7.603101284304065732e-01,6.555224783155358947e-01,7.503477693761430832e-03,3.505126245828980337e-03,-1.012463218875865600e-02,1.397122025489807129e+00
6.706390020945338093e-02,-1.025725711312750477e+00,1.231001083902695470e+00,-1.833015894255871359e-01,-1.217235496740254608e-01,-1.737190665971670434e-02,1.991740703582763672e+00
1.128462529298488726e-01,-1.161131293911691786e+00,1.257840228195875598e+00,-1.785713856051689419e-01,-8.815483418268264815e-02,-3.679303366446326495e-02,2.125032901763916016e+00
6.660342188933433549e-01,-6.844211618868186742e-01,6.218654530874814235e-01,-2.674386016662365362e-02,3.142606480514886780e-02,2.466326907161519536e-03,1.330849170684814453e+00
3.841658673234938925e-01,-7.373712249105131011e-01,7.650241426006934020e-01,-1.289532979848334766e-03,-2.203036007304389615e-02,3.973819722279553837e-03,1.353348970413208008e+00
5.093302389546745523e-01,-7.789249531055562059e-01,7.127546731321706686e-01,3.963599660017715076e-02,2.244694122502499667e-03,-3.503069541152961132e-03,1.402786731719970703e+00
4.225406405630266482e-03,-1.070199506826963409e+00,1.320785485323082931e+00,-5.943408553950203094e-02,-1.188855544064770370e-01,1.088706796376527480e-01,2.095428705215454102e+00
8.908850704903914508e-01,-3.035680437692326317e-01,6.579036414391287169e-01,8.085648300731092253e-02,-1.678085758993055621e-01,6.135687480632655982e-02,1.148085236549377441e+00
6.674574339119925259e-01,-7.640748933512042651e-01,6.366484335719911902e-01,1.764247439573440185e-03,7.608288133202301996e-03,-1.052824544864208386e-03,1.416444897651672363e+00
6.527482571417457802e-01,-6.549289360705607965e-01,6.200113163187206400e-01,-6.013364305094096897e-03,2.731022386295318613e-02,-3.279887529016041903e-03,1.292540192604064941e+00
6.695770715969484588e-01,-4.644210857540568282e-01,7.523664917511123651e-01,1.129550979378844688e-01,-2.227036787864868084e-01,8.657011907836475312e-03,1.254584074020385742e+00
6.413483028040209977e-01,-7.714385273274306787e-01,6.526611005918334651e-01,-5.033637552136384884e-03,1.080270813069438701e-02,-4.607528716328167413e-03,1.418649673461914062e+00
6.391188420531236369e-01,-7.711679767796127960e-01,6.426009512352079955e-01,-4.580060831687427642e-03,4.624597449490311547e-03,7.333485937096133594e-04,1.412076711654663086e+00
6.577774260950208784e-01,-7.682084755868835435e-01,6.470199946109741473e-01,-2.428438006725196566e-03,1.508736040822125472e-02,-3.272181216750868864e-03,1.420895576477050781e+00
4.887198262438599561e-01,-7.584123859314384486e-01,7.432213097725597351e-01,1.139880418673759610e-02,9.349859886451780330e-03,1.082623723449182424e-02,1.392304062843322754e+00
5.972890927881767675e-01,-7.521774266696313882e-01,6.264011133764934014e-01,-7.485862614544619431e-03,-2.232190300277666229e-03,-1.368716234037593675e-02,1.364528536796569824e+00
1.765546716456637202e-02,-1.029089247138675889e+00,1.129810113993887644e+00,4.064972588808948850e-02,9.356029288553080817e-03,1.034215386811943201e-02,1.871428608894348145e+00
3.841494377040122754e-01,-1.497629977727128248e+00,9.775840968723770175e-01,1.882079964835161462e-02,-4.554588972913456990e-01,4.370508536999714866e-02,2.374677419662475586e+00
3.296746413151216415e-01,-8.484254970124722739e-01,8.600414900198538604e-01,-5.101244698031438124e-02,-9.691140898827642347e-02,-1.050828035977396761e-02,1.526547670364379883e+00
4.913648585457068840e-01,-7.558103661172962395e-01,7.130965749228413975e-01,1.030951373999786091e-02,-2.963019299724361025e-02,-1.159287089372725010e-02,1.372772812843322754e+00
6.442453690649330156e-01,-7.724442239226946283e-01,6.542285322664200820e-01,9.513531544643740682e-04,8.243105480475666769e-03,-6.908902980511089607e-04,1.421780586242675781e+00
6.314506676999805945e-01,-7.717049585046805715e-01,6.511307351890414097e-01,6.733529724283910875e-03,7.064850763706191292e-03,6.564768748958758199e-04,1.413200020790100098e+00
6.205665861021130159e-01,-7.662754632381141295e-01,6.531061545753380493e-01,-1.052582015216891632e-02,3.424925992634029765e-03,-1.051931501950712639e-02,1.403643965721130371e+00
2.059184286881432513e-01,-4.689087207759465858e-01,8.601383809624816301e-01,2.066528259154138680e-01,-1.824811760262952665e-01,-8.222605765571192049e-02,1.254264116287231445e+00
6.276139402805243073e-01,-6.688165841571648285e-01,6.470452234221570897e-01,3.956551416374786551e-02,6.124694456729316665e-03,4.348478389923354087e-02,1.310260534286499023e+00
5.150956793130572198e-01,-6.477268664660464914e-01,7.183614609271927742e-01,1.237858187408702459e-02,-1.171036308807873148e-02,9.301207657105279615e-04,1.276992201805114746e+00
6.318664045369031257e-01,-7.468230267984020676e-01,6.196728014373577009e-01,-1.729342719051333091e-02,-5.424751739960340102e-02,-1.039141282967486445e-02,1.376289010047912598e+00
6.589317202879920732e-01,-6.774452694778994033e-01,6.317636845236713761e-01,2.529467154939633866e-02,1.983151293023168935e-02,8.578332688818831328e-04,1.324173808097839355e+00
6.404280591777797849e-01,-7.154337713022799194e-01,6.630565671727122190e-01,-1.705395274019164478e-02,-2.925744468959571437e-02,2.622922366072898831e-02,1.369327902793884277e+00
6.198362541540367587e-01,-7.564898118804720406e-01,6.001675385888947112e-01,2.167558385462719020e-02,2.621387111345180321e-02,-2.335267021963964226e-02,1.368465065956115723e+00
6.850006085453260729e-01,-7.667210702855303817e-01,5.831511830361251203e-01,-4.576246939569438921e-04,9.581089705903152870e-03,1.173362384793269486e-02,1.403816699981689453e+00
1.074452695100096999e+00,-5.965953507200617567e-01,2.107834567202530041e-01,-1.325513029350095240e-01,7.407712840665890697e-02,1.505281301336629796e-01,1.494068741798400879e+00
6.217077535121768861e-01,-5.588139555031053085e-01,6.572692431682267689e-01,-1.196490634473784329e-02,-1.018501239060269452e-02,1.063518362119729721e-01,1.213074684143066406e+00
6.089273891207536149e-01,-5.455551452272059398e-01,6.139085645039001893e-01,6.576895409329807166e-03,-2.456140950875497497e-02,-5.153328390349001809e-03,1.157853484153747559e+00
5.839003511671139179e-01,-3.472507043761471346e-01,5.963651140140877605e-01,9.887603239735399951e-02,2.968825383699308026e-02,-4.149784342395568607e-03,9.543738961219787598e-01
6.557843987559837107e-01,-7.345973548968224298e-01,6.391024704605966500e-01,-2.698823925598170179e-02,-1.696893023732429229e-02,8.295048258751127473e-03,1.383293509483337402e+00
6.305569863760365212e-01,-7.220998982005557565e-01,6.615309797843846873e-01,4.337575221573697522e-03,-1.802039251208882586e-02,-4.546860208021523408e-03,1.368806004524230957e+00
6.487638365971406529e-01,-6.261618238064128317e-01,5.869915808847079308e-01,2.294524488754527344e-02,5.580554979266758031e-02,-1.294687943566037247e-03,1.249569296836853027e+00
6.333374583713349271e-01,-7.725024525938265496e-01,6.427500392611613655e-01,-1.216029760960394071e-02,1.740941318301523349e-03,9.388499297604143388e-04,1.410731196403503418e+00
6.515885425478691317e-01,-6.891898763195704047e-01,6.308456711575325393e-01,3.838298012846223795e-02,-1.943718317182453054e-02,-2.319618669371435737e-02,1.333218932151794434e+00
6.565491490353132509e-01,-7.436893637249658573e-01,6.425919197188201260e-01,-1.369578265234583890e-02,-1.997052507602596963e-02,4.028098051723930616e-03,1.393960952758789062e+00
6.413540175355225692e-01,-7.671566107564801174e-01,6.497037668761587170e-01,-8.509862266998841421e-03,-2.698923560055543815e-03,-3.323520638089094530e-03,1.412800312042236328e+00
6.494019160175698024e-01,-8.800442127272052328e-01,6.532923839889177575e-01,-1.410365463553154078e-02,1.385872365784311111e-01,-1.446255356975915431e-02,1.550488471984863281e+00
7.395713394264258334e-01,-7.832863875972443379e-01,3.720403311121083800e-01,5.769228465223264803e-03,-2.696206704882505023e-01,-2.703122540291706677e-02,1.454254150390625000e+00
5.665082944838857326e-01,-7.255526934817877471e-01,5.882071493951730456e-01,1.210193038983713425e-03,1.932632781072353076e-02,-2.985751905796674242e-03,1.303487777709960938e+00
6.127126256236034019e-01,-2.096843861538513210e-01,6.279915933912787462e-01,1.227799683091171795e-01,-2.009595305890239311e-02,-3.095525841958926896e-02,8.593291640281677246e-01
6.797154600191124274e-01,-7.326351632947175618e-01,6.267208264830288478e-01,1.070434776779867481e-02,-6.604100575699889571e-03,-1.921401547510999961e-03,1.386788129806518555e+00
6.288989209530477797e-01,-7.406705095430961006e-01,6.444509531002129421e-01,1.202121774914511124e-02,-5.839182310070848390e-03,-1.646881533039551426e-02,1.377901077270507812e+00
2.981724737643765000e-01,-8.803557841808559159e-01,9.065808423048715703e-01,-5.330667199444285437e-02,-1.755724961011533858e-01,-3.164129848349517965e-02,1.606275677680969238e+00
6.846945361867571300e-01,-6.089867015093486380e-01,5.654356459118294875e-01,-2.222000631051838926e-02,1.870588939509054346e-02,-7.218975132086967450e-02,1.245678901672363281e+00
6.596081174473127362e-01,-7.592233678771252992e-01,6.520466571881082807e-01,1.239892228105184818e-02,-5.887242150591999804e-03,-5.865524279842061414e-03,1.415302038192749023e+00
6.699557916962981530e-01,-6.526646666258137941e-01,6.104969976949716770e-01,2.858782066120843166e-02,-9.577596360438556458e-03,-7.610673046286134738e-03,1.295036554336547852e+00
7.038802133660251314e-01,-6.702134131333039591e-01,5.705336608024753620e-01,-6.006108425477355017e-02,3.286568823457233779e-02,1.726456314148295812e-01,1.351357102394104004e+00
6.405362935934069135e-01,-7.652690890062467943e-01,6.676694523323808417e-01,-3.357695951207256141e-03,5.225561636484521433e-03,-7.389390039078663069e-03,1.419664859771728516e+00
6.112921710496919125e-01,-4.298562298100400136e-01,5.748987316438050055e-01,-4.111880854912784711e-03,3.631455696191119090e-03,5.443253673443851359e-03,1.023524641990661621e+00
6.469102209936493653e-01,-7.631532743876259239e-01,6.170064937080865786e-01,-1.335191096284390859e-02,-3.237505202967378044e-03,-8.087013060686921301e-03,1.395625114440917969e+00
6.363487363745630176e-01,-7.608699731989342352e-01,6.069599944171213401e-01,-1.443041611805749060e-02,1.983640884590388842e-03,4.216302834796547758e-03,1.383008003234863281e+00
4.844299540048948582e-01,-8.337073799188782219e-01,7.218761063666645494e-01,-5.089431859404023456e-02,-2.326296342813839735e-02,-3.017106173368195969e-03,1.454742193222045898e+00
6.340981507795364625e-01,-7.416620707457340922e-01,5.544057655879452984e-01,-1.537973056074970132e-02,-1.098944412084110374e-02,3.456359921701936800e-05,1.338096141815185547e+00
7.223441228203933973e-01,-7.633943885001429619e-01,4.100559163352363590e-01,-1.478484869705578263e-02,-2.685412708078941182e-02,-3.788638512051550195e-02,1.359444618225097656e+00
9.548914589266044306e-01,-5.833100264494220921e-01,4.096959430645044642e-01,7.102548721558055167e-02,-2.152088682153884547e-01,1.794653759953124816e-01,1.440619111061096191e+00
6.206270141752145975e-01,-7.673270036064894217e-01,6.466335652300132519e-01,-8.341799694941424287e-03,2.508591814845459022e-03,1.372916471456796239e-02,1.401421308517456055e+00
3.897315345234117490e-01,-7.380396245749683004e-01,7.467791675503361315e-01,-2.756152134121043259e-03,-2.577235262815219877e-02,-2.025238300203559445e-03,1.343147993087768555e+00
6.070187756019536085e-01,-3.520922891962754431e-01,5.764007949652798501e-01,5.984696385421778980e-02,1.138157213995825501e-03,-7.330779960262014117e-02,9.582986831665039062e-01
6.175819841003629129e-01,-2.937913071325208847e-01,6.912187206861197808e-01,1.643933405810602544e-01,7.407130223388514768e-03,1.141027026583850933e-02,9.923532009124755859e-01
6.389512117470739216e-01,-7.663374535916699370e-01,6.570635439402066069e-01,-1.028370672587136485e-02,-2.350726752650980200e-03,-5.465530367727710823e-03,1.414581537246704102e+00
6.487525505833319217e-01,-7.617955538926624026e-01,6.548394089040187049e-01,-3.899647078465727848e-03,-5.348463352980595623e-03,-6.176005497948902634e-03,1.413688302040100098e+00
6.579454443069604475e-01,-7.591103364823833521e-01,6.411766757066806877e-01,2.311466119311468212e-02,-2.887150004552773742e-03,-1.729160363616779467e-03,1.409327030181884766e+00
6.585670262970211297e-01,-7.545850972197797324e-01,5.216730353386547225e-01,-2.251892833342516997e-02,1.911952453386151288e-02,4.557235050275956442e-04,1.350890636444091797e+00
6.578749276785575972e-01,-7.660190604511872836e-01,6.407299763934461989e-01,-3.599961640617798438e-03,-3.678747185150305684e-03,5.740877381309841473e-03,1.415462374687194824e+00
6.703740119899157524e-01,-7.547661048316506305e-01,6.321023775291123581e-01,-4.724559535131876015e-03,-9.515821477598041672e-03,2.809276443996268444e-03,1.406523704528808594e+00
6.404262163660037199e-01,-7.589944004655064802e-01,6.479103614128163269e-01,-1.065566925198351000e-02,-8.751638812058258263e-03,5.955630155878298719e-04,1.403381228446960449e+00
6.262143810670051103e-01,-7.458531630289602088e-01,6.720055340754957918e-01,2.558779512701457419e-03,3.901164230612428610e-04,4.446610175436425949e-03,1.395555138587951660e+00
4.095869363282177433e-01,-8.302159670046744822e-01,7.812441358141101189e-01,2.450008940962219994e-01,2.515453977611833980e-01,-8.078496648258053081e-02,1.589182853698730469e+00
6.375058308506953431e-01,-7.212433793415354844e-01,6.497983706152825611e-01,-8.218454474700605250e-03,-5.251950028386740028e-03,-8.692262141020172181e-03,1.365124583244323730e+00
6.751344867658608528e-01,-7.631109689632796789e-01,5.942149032715098311e-01,-9.751054454504191546e-03,-2.799347929841442765e-03,-8.425135715779331902e-03,1.399727582931518555e+00
5.569439911001935473e-01,-7.342266921582477623e-01,6.174816074211419981e-01,-9.515294871102419894e-03,5.922845325330036714e-02,1.255780447464290538e-02,1.326732754707336426e+00
1.709618337938659804e-01,-7.530118562589931397e-01,8.932275245706395861e-01,-3.894946679826866848e-02,3.517164750643427679e-02,3.322525418897825933e-02,1.433291196823120117e+00
4.845777189052584699e-01,-1.586791627168696150e+00,9.285721647115390276e-01,-8.874168866240812747e-02,5.368419908109391958e-01,7.870412519610887891e-02,2.512804269790649414e+00
5.041443608247627717e-01,-7.296511714243019142e-01,6.548035841193942108e-01,1.848575268562841325e-03,1.992911179549885711e-02,7.630408926109025387e-03,1.316133975982666016e+00
4.277034102469647325e-01,-7.645636130710399270e-01,6.161904848294135206e-01,3.493050400647746464e-03,2.161714527844708356e-01,2.010582202357013085e-02,1.350257277488708496e+00
1.172465270313028940e-01,-1.329656136255625842e+00,1.229428980756063883e+00,-2.259986209357371656e-01,1.165281157207729568e-01,9.419902732286742492e-03,2.265816688537597656e+00
1.193553784490567343e-01,-1.305414934795396498e+00,1.248707367628587361e+00,1.563491846911493621e-01,1.554295465042057900e-01,4.973254652462853580e-03,2.249523878097534180e+00
3.236794323558378483e-01,-7.369093983036660855e-01,8.031481535919620107e-01,2.495479129161168839e-03,-5.624288552751044445e-03,4.051021720202859291e-03,1.365071773529052734e+00
7.445062930318457894e-01,-9.156109962092513488e-01,5.476454409351732000e-01,3.368586651576711138e-02,1.372520658886268452e-01,3.569776975043523204e-02,1.591123223304748535e+00
6.575724254005803626e-01,-7.384871179577809919e-01,5.150949985485203664e-01,1.078266018015040101e-02,-1.945598448639034375e-02,8.624466467104177289e-03,1.331195950508117676e+00
6.469586132138744894e-01,-6.915400497466035468e-01,6.388984357070695008e-01,5.388937983333334791e-03,-3.247240787414786001e-02,-7.450506640979409276e-03,1.335766434669494629e+00
6.752713047777456623e-01,-7.539089993330734263e-01,6.109048048376768403e-01,6.577177931766320590e-04,6.301055313160852135e-03,-1.508995710253623751e-02,1.398396134376525879e+00
6.402608902809594493e-01,-7.717999916981891362e-01,6.594321020477456052e-01,1.027035971083389192e-03,-4.193499760848594902e-03,4.228020761149630280e-04,1.421763300895690918e+00
9.296849258028601071e-01,-8.572130284756996899e-01,1.262923918373867194e-01,-1.554597390811081892e-01,2.098591484033573429e-01,2.148927763809250213e-01,1.657113671302795410e+00
6.487491670187737203e-01,-7.750671692714166117e-01,6.521082109193134801e-01,6.167135088280498601e-04,-1.311722402659092589e-02,-1.353925528401180413e-03,1.425682187080383301e+00
6.430351113678649533e-01,-7.610690037347155323e-01,6.583534826060436496e-01,3.666616978265695593e-03,-1.435817264459652957e-02,-2.758331337801640977e-03,1.412067055702209473e+00
6.400149496652665082e-01,-7.659940707692297623e-01,6.534866583012315377e-01,5.111683283915213934e-03,-7.914655144653257729e-03,-3.533773849964597492e-05,1.412887334823608398e+00
6.387966013701806833e-01,-7.655818776107853330e-01,6.707978012960960079e-01,4.443685269450018023e-03,-4.095036883774876013e-03,-5.855070997838046978e-03,1.420724153518676758e+00
6.414019083189553827e-01,-7.691120777887553439e-01,6.441412672895703295e-01,1.032455678304675063e-03,-9.822858433290195240e-04,-6.711478397273085844e-03,1.411935687065124512e+00
7.802703802814777712e-01,-7.647900906043375580e-01,4.070834634670864594e-01,2.098562141565011099e-02,3.524587967886675527e-02,1.516909011863048704e-02,1.398435711860656738e+00
7.194914646293909533e-01,-7.602749712481712274e-01,4.785342888706576869e-01,3.844222422495596238e-03,2.516352184915733939e-02,8.609629280351359035e-03,1.375999689102172852e+00
1.000557127710637095e+00,-3.595402962211166065e-01,4.908097336723886706e-01,3.422446369368129654e-02,-5.487961983545296824e-02,-6.630820039809846855e-02,1.200891733169555664e+00
6.689263407071625034e-01,-7.669025386011215639e-01,5.807774104651012292e-01,-1.114011467424168636e-03,-6.523344283221924576e-03,-1.306788597330651482e-02,1.394077420234680176e+00
7.171844423080657727e-01,-7.639632255970619790e-01,4.949845258328089415e-01,1.074704550937041064e-02,9.344986695293627799e-03,-2.336851120652250896e-02,1.384307384490966797e+00
5.741289933433129100e-01,-4.413451162028908525e-01,6.149417642946832796e-01,-2.343075714170480064e-02,2.163152399740984888e-02,-5.411213096430156355e-02,1.042176961898803711e+00
6.157505249125737601e-01,-6.530709186613571360e-01,6.540282205382770275e-01,4.348473024255936938e-03,3.637191309863230942e-02,5.078919169532893248e-03,1.289978027343750000e+00
6.272407817561335142e-01,-7.225120624804579617e-01,6.794111730063016052e-01,3.372668510687760416e-03,1.576635678029089313e-02,6.839538316559045511e-03,1.376913905143737793e+00
6.348878170839508117e-01,-7.445202757630076107e-01,6.685701920483854144e-01,3.667371784447581652e-04,1.170603382600073072e-02,-9.522435610581881163e-03,1.396798610687255859e+00
6.711813974153415518e-01,-7.620338876717384080e-01,6.079726050068512411e-01,1.198470591074872818e-02,-2.383842331174014159e-03,1.048167892556228949e-02,1.402956604957580566e+00
6.521986970617587032e-01,-7.294681996159360082e-01,6.448160075459786755e-01,8.104427681629165423e-03,1.833724359598559728e-02,3.317662886262145137e-03,1.378439784049987793e+00
6.562745968311110012e-01,-7.279557203444468882e-01,6.268618385275747107e-01,-2.089170300501860377e-03,1.711827168943274094e-02,-1.362795579765299983e-02,1.370289802551269531e+00
6.617656415408137427e-01,-6.943624948159723420e-01,6.445841446775953942e-01,2.328980584824513062e-02,3.117988084352460790e-02,1.927299454300454573e-02,1.349717259407043457e+00
6.808574205563189263e-01,-6.837607065555681984e-01,6.254890415818132876e-01,-1.006052547816796254e-02,-9.022034049884415652e-02,3.843469952176303134e-02,1.348646044731140137e+00
9.546790665876927484e-01,2.396075671272868135e-03,9.141657189305514297e-01,2.034542951527857496e-02,3.472292534041696022e-02,2.136931962687001890e-02,9.360196590423583984e-01
8.443456704590091011e-01,-6.395000300890840705e-02,8.823698475690089360e-01,5.191970259364638018e-02,6.794120533594995293e-02,-5.162482002853378479e-03,9.396802783012390137e-01
5.968276246095980397e-01,-4.025670399304701608e-01,5.756426667155483123e-01,7.212074007814452126e-02,2.539392578775096984e-03,-1.692730432866176860e-03,9.968442916870117188e-01
6.399749490818196218e-01,-4.900480242433790101e-01,6.044336485407165727e-01,6.457433435012807643e-02,2.147673374198324700e-02,1.590411483015059801e-02,1.119242906570434570e+00
5.850660045828717237e-01,-2.675599069846860134e-01,5.516303916187732526e-01,6.790706761496194399e-02,-8.135383447646653624e-03,6.418454647526781196e-04,8.447571992874145508e-01
6.775075186716283948e-01,-7.196907933963344606e-01,6.152390716994822206e-01,-1.079938081680444258e-02,1.986284786026464716e-02,-8.404532057366307166e-03,1.367766261100769043e+00
5.830654430917763253e-01,-2.750882906767914138e-01,5.502461348498164373e-01,-8.834165833190264772e-02,5.871636349832863588e-03,-5.089694111101068785e-02,8.605977892875671387e-01
6.110776359390546197e-01,-6.051757529599892660e-01,6.608213913880329748e-01,-1.770300094285499892e-02,2.451433630014328291e-02,6.890835340526864188e-03,1.243033885955810547e+00
6.005055606588264316e-01,-5.860900553669948776e-01,6.651240138019488546e-01,-1.292602623172897083e-03,3.596737058902016535e-03,9.525992638093188150e-03,1.220318317413330078e+00
6.303974309652387031e-01,-6.624507838688907801e-01,6.474687317998968350e-01,4.154050026541180663e-04,1.379647659630880811e-02,-3.373265905009149856e-02,1.302997946739196777e+00
6.269022328235446251e-01,-7.281835956874712634e-01,6.444588181187766995e-01,4.243580280782854701e-03,4.923490037512912032e-03,-3.562422912131800630e-03,1.364009261131286621e+00
6.449084461944072366e-01,-7.379168583815678417e-01,6.405044770467267501e-01,-5.013710299167585885e-03,7.695857310610652174e-03,7.937327264723004899e-03,1.380788683891296387e+00
6.308111017644851826e-01,-7.548867523235689436e-01,6.824645607094030897e-01,8.621137795123498147e-04,1.596823722088886116e-03,-4.453214852589172483e-03,1.412257790565490723e+00
6.221433337390454010e-01,-7.250598125638523239e-01,6.807664383134561792e-01,5.206126718742824962e-04,3.758943070799700137e-03,-1.029534241179523926e-02,1.377581715583801270e+00
6.227890050178845893e-01,-7.429533277922533152e-01,6.872110455933913009e-01,5.099486798798583348e-04,1.307695746748875837e-03,1.986642901987132389e-03,1.399072527885437012e+00
5.678791152708819734e-01,-7.362955438319447321e-01,7.020996441922319198e-01,-9.991636404545863796e-05,-8.558440150659828854e-04,-1.405404396109469038e-02,1.376418709754943848e+00
6.448922189619874512e-01,-5.829254762354503239e-01,6.151186014536644819e-01,4.004344428829144376e-02,4.053878431894188117e-02,-2.321984966626095600e-03,1.217219352722167969e+00
4.277996210497008178e-01,-2.827612320503866128e-01,9.624026313953754075e-01,3.363774548555764632e-02,2.098912946804963042e-01,-8.008841483681605755e-02,1.151244997978210449e+00
5.831653992255669827e-01,-3.022551421914343450e-01,5.767330509228059121e-01,4.902716678493818092e-02,-1.558494579439894615e-03,-3.766774348988222946e-03,8.863275051116943359e-01
6.370965115595181860e-01,-5.531025483869735915e-01,6.113958957347627177e-01,1.101941419360986246e-02,-4.153549226877784745e-02,1.170952630872642251e-02,1.180083394050598145e+00
6.325036067604594692e-01,2.913292511730536383e-02,6.448358696788836220e-01,9.308336344276375157e-03,3.220178834499807120e-03,8.466701702716167288e-02,6.272525191307067871e-01
6.627998852421570497e-01,-7.157718857494183018e-01,6.342057570673758082e-01,3.486912907481305723e-02,-2.719437044851787458e-02,-1.781077011948687186e-02,1.366995453834533691e+00
6.484194793177298077e-01,-7.053535341694301408e-01,6.366045644099450618e-01,7.260485382598766586e-03,-2.132128059487050503e-02,-1.527028620135141524e-03,1.348471403121948242e+00
6.578858185202214326e-01,-6.415895200253517450e-01,6.174457811898981241e-01,-2.134844862057518056e-02,-2.988610505482485608e-02,-2.729748855322923756e-03,1.281323432922363281e+00
4.531735014609329926e-01,-7.475440481723741870e-01,7.134509456586640708e-01,-3.802277378203663266e-02,1.634417775187716262e-02,9.484454032384565317e-03,1.351811766624450684e+00
6.428567303406904632e-01,-7.258199729064883643e-01,6.458847503130800138e-01,1.785699856688669276e-02,-2.215257048498374751e-02,3.455810205415183259e-03,1.371092319488525391e+00
6.435646554893890148e-01,-7.579234360228664924e-01,6.559980397414284514e-01,-2.207539493369545421e-03,-1.895143671901100904e-02,2.415501897238219071e-03,1.408140063285827637e+00
4.785064042466673495e-01,-7.524538515158748497e-01,7.091855384506267068e-01,1.729811566457062398e-03,-1.525487464755304751e-02,-1.737911720562322973e-02,1.361633658409118652e+00
4.575800095095300390e-01,-4.119760072104705628e-01,7.658439755701813567e-01,1.242542514052593222e-01,7.638346296633455323e-02,6.509000493978661650e-02,1.093497991561889648e+00
4.808811066883124652e-01,-7.469734820652003116e-01,6.737461740928961662e-01,-1.794283257432201933e-02,-3.609525752608104543e-02,-2.231489919768519375e-02,1.337162017822265625e+00
5.008767449423454643e-01,-8.426602738111093061e-01,7.200184551192978510e-01,8.733068738022622957e-02,-1.348105537669413434e-01,-3.905542502878809469e-02,1.493156909942626953e+00
6.225188787404822843e-01,-7.505303688314013399e-01,6.011625145459624786e-01,-7.485962671341371034e-03,-1.139863122286515797e-02,-4.800396538185267362e-03,1.362726688385009766e+00
1.053399151992415073e+00,-7.550770992028272843e-01,2.958495901594610511e-01,-4.901242964020169346e-02,-2.518305549331517623e-01,2.244115886148005390e-01,1.680178999900817871e+00
6.474781624559093895e-01,-7.502267783693540304e-01,6.544923841291536704e-01,1.964226683828628958e-02,3.016958119410612441e-02,-8.887764091042059996e-04,1.402612805366516113e+00
6.437795260765504235e-01,-6.708954306112134836e-01,6.362127484815498502e-01,2.678150543893585700e-02,1.361553443285818885e-02,9.942210023134809282e-02,1.323193788528442383e+00
6.607008323876757405e-01,-7.420092570643455065e-01,6.040511048971111130e-01,-1.781324561181515031e-03,-6.400937899504207003e-03,-6.598115575062080303e-03,1.375356197357177734e+00
4.810537471488033345e-01,-6.899004847315018951e-01,7.109482865459086920e-01,6.917912236431456030e-02,-1.333798466444210129e-01,-1.803749075981572400e-02,1.327360272407531738e+00
6.381371096945280819e-01,-7.450039312964018556e-01,6.728656500805503260e-01,2.191823101910878903e-03,-6.261733217263989147e-03,1.366552409146424944e-02,1.401075243949890137e+00
6.352765189272365776e-01,-6.769196168892653853e-01,6.500885633831122723e-01,1.888018931173701676e-02,2.417911299993691365e-02,7.215628263260994574e-03,1.320792913436889648e+00
7.306063515568081979e-01,-7.621352674184640463e-01,4.824271443813377136e-01,7.648766094629281392e-03,2.174567956270154721e-03,1.788183689859889833e-02,1.385839819908142090e+00
6.247125204347464544e-01,-7.502992424984957776e-01,5.869776362494329991e-01,-1.713425997242859142e-02,-9.875674554205871383e-03,-1.033418216976736241e-02,1.357088446617126465e+00
6.340022478661306859e-01,-7.432276497999638076e-01,5.780136821817620785e-01,-1.208553047837034565e-02,-2.507167339164406705e-02,-1.189828329568829585e-02,1.351124167442321777e+00
6.607924998239816938e-01,-7.600785443190863910e-01,5.600405052709724885e-01,-1.578721836478728588e-02,-1.216131145793256790e-02,-1.116414793549776706e-02,1.373839616775512695e+00
6.387151406547491028e-01,-7.720851135666645382e-01,6.380566899447310814e-01,-1.876450818904280317e-03,-5.110562819758432494e-04,-1.614813060418712884e-03,1.410477995872497559e+00
1.193135225420534296e+00,-1.268177420072324812e+00,1.232038030740149892e-01,1.746844789290119201e-02,1.845174234503089289e-02,8.031644908424617757e-02,2.142584085464477539e+00
6.420496261547259387e-01,-7.694679202735238421e-01,6.459561438225074337e-01,9.207117562601556393e-03,-6.482706786740318264e-03,1.693976214092076564e-03,1.413612484931945801e+00
6.424426801238745099e-01,-7.656199698102603701e-01,6.534006717163125533e-01,6.623301472663302436e-04,-9.154660427850590254e-03,1.972904821431819850e-03,1.413667082786560059e+00
6.247061929472728092e-01,-7.562817048199094172e-01,6.735849372535692714e-01,-3.402397299148935371e-03,-1.566073380164441017e-02,-2.147191947943175895e-03,1.406343460083007812e+00
6.307991765956368901e-01,-7.659029791842294488e-01,6.284385963743047698e-01,-1.903362140936936189e-03,5.153028470331502513e-04,-5.716698180186886337e-03,1.395562648773193359e+00
6.302060003197849092e-01,-7.561952094095466537e-01,6.201134733178994551e-01,3.231376683096905534e-04,-3.350650034746910800e-03,-1.496979370685238859e-03,1.381397366523742676e+00
5.969678659129888931e-01,-7.498694240059050609e-01,6.045983504659389052e-01,-1.335300786248853899e-02,-2.272280415577374382e-02,-1.463266694461983451e-02,1.351677536964416504e+00
6.243703172150500968e-01,-7.479097916239278998e-01,5.915811878854611017e-01,-1.763703455346184168e-02,-6.687419670478975293e-03,-1.163669161793213017e-02,1.356726050376892090e+00
6.008363843119086667e-01,-7.500570527009853272e-01,6.084894943145497948e-01,-2.923670575901471651e-03,-6.958827813784545721e-03,-9.761567849042685624e-03,1.354904770851135254e+00
6.468230854973187061e-01,-7.699235618149854465e-01,6.405387063462556485e-01,6.031817197399119267e-04,5.767493662311849734e-03,-9.051623303517318878e-03,1.413737535476684570e+00
6.087141958978832257e-01,-7.590249207371260187e-01,6.371385541835066224e-01,1.463717954842349515e-03,-4.226787904281621017e-03,-1.409118919003218146e-02,1.382407665252685547e+00
7.832034528066271761e-01,-7.559029919790922758e-01,4.328857640148758290e-01,7.603423166573483084e-03,-1.965065529515661741e-02,3.464382549826759434e-03,1.397770643234252930e+00
6.708722215039786274e-01,-7.537358115571224371e-01,6.247203628006534615e-01,1.708177092017034576e-02,1.008597665681693067e-02,1.994360248687635298e-02,1.402948141098022461e+00
1.175585318497170517e+00,-1.387258458074664969e+00,1.957880869843786620e-01,6.421199130079485728e-02,-2.672155217540922445e-01,-6.128342730748213840e-03,2.289934158325195312e+00
1.194869070218138374e+00,-1.122303476991464377e+00,1.529725998556275557e-01,-2.209121294623345513e-02,-1.218962202301768633e-01,2.104710574893893238e-01,2.054146289825439453e+00
8.633404889563678353e-01,-8.329173647612329034e-01,3.212849760685813072e-01,-3.321741750328812554e-02,-3.239253487436829365e-02,2.468397843345720988e-02,1.503307938575744629e+00
6.945559635591207481e-01,-7.588578473768756716e-01,5.098954120870216045e-01,-2.758148926316007169e-03,-2.905922292044282873e-03,-2.917653845032967125e-02,1.371395230293273926e+00
1.014434194234729691e+00,-7.011490305351628649e-01,2.824535706108444177e-01,5.105725174888416096e-02,1.161374273602924362e-01,2.522099719119592631e-01,1.569191336631774902e+00
7.093692312697607028e-01,-7.568542374598360434e-01,4.622609401245571514e-01,-1.542254910110347869e-02,1.345520189259444103e-02,2.614585299918630729e-02,1.360832571983337402e+00
7.751084638470375765e-01,-7.515118229749720991e-01,3.440036607985785810e-01,-6.994824817787169760e-03,1.961513382960876350e-03,-3.937055680033876501e-03,1.363265275955200195e+00
7.724346090308544799e-01,-8.725084249266710223e-01,5.390825125890164049e-01,2.642593386200051131e-02,-8.333028259025518185e-04,6.192957938224118858e-02,1.545976281166076660e+00
6.350546038378521718e-01,-7.631068878184099624e-01,6.241717870543025404e-01,-1.262079977662449413e-02,-6.071682056415536426e-03,-7.954546209267705434e-03,1.393031358718872070e+00
6.414678004285661039e-01,-5.802829745633202307e-01,6.176688393660902943e-01,3.497850494367493734e-02,2.928237154918470614e-02,-1.509146326853477932e-03,1.212606549263000488e+00
6.422660108551682123e-01,-7.513468307166403237e-01,6.454353750859055383e-01,-5.908038362706238096e-04,1.126675166861123949e-02,-8.148551827608426640e-03,1.395408391952514648e+00
6.354813575688869065e-01,-5.996674753887942799e-01,6.335741406928154795e-01,7.630757495918316646e-02,3.774197664717024447e-02,-3.052133749638897674e-03,1.242984533309936523e+00
5.424985437421367962e-01,-6.924461939777776243e-02,5.507089390740838031e-01,1.191620489591982412e-01,-6.398274473265729012e-02,8.524878195429208549e-02,6.752792000770568848e-01
6.561959110428200459e-01,-7.591301364723387346e-01,6.392844063854743464e-01,-8.787918019053076422e-04,2.407725247738006641e-03,-6.757021541332203229e-03,1.407002210617065430e+00
6.471848475692394409e-01,-7.741546599768907022e-01,6.429185435208825128e-01,-4.994319556324075884e-03,3.809433718626256248e-03,-3.553168842944820494e-03,1.419266223907470703e+00
5.721697773091833916e-01,-7.590154467811703887e-01,6.503675201963725616e-01,-1.297282659136108664e-02,-7.345519562405300289e-03,-2.211756820957764755e-02,1.372734069824218750e+00
5.684758288760882738e-01,-7.580332930419955151e-01,6.582667914423856459e-01,-5.137189358491767860e-03,-5.234141733999254052e-03,-1.250694103509782801e-02,1.373836994171142578e+00
6.185240474065448746e-01,-7.583963238836993748e-01,6.155093629399022159e-01,-9.322301934471128801e-03,1.059732762104457880e-04,-1.184162658610279917e-03,1.375511765480041504e+00
6.232326451698427805e-01,-7.677168520056104617e-01,5.984192266422201367e-01,-2.649563184786941222e-02,-3.867634769517029614e-02,-2.213489001809221257e-02,1.381631493568420410e+00
5.055309907033541661e-01,-7.881774495706238559e-01,6.634969328654539700e-01,-3.770547129903567551e-02,-2.672601919226766931e-01,-3.625832732614343162e-02,1.457906007766723633e+00
6.403162292935278277e-01,-5.862489435787171521e-01,6.298941025289291895e-01,-1.240223365510819548e-01,2.108081643159270130e-02,-9.562810189801242144e-02,1.251678586006164551e+00
6.302094113570813061e-01,-8.132139278376849800e-01,6.640356365840277553e-01,4.251813512007017633e-03,-2.051772912877282765e-02,2.370015304478272512e-03,1.461086869239807129e+00
6.707139891216010730e-01,-7.423022270328657468e-01,5.170586698024990380e-01,1.990832787510116511e-02,-5.533643607058078701e-02,9.929228732816791636e-03,1.346765875816345215e+00
9.668244707407648297e-01,-7.399141621448129813e-01,3.814132923523781971e-01,-2.493127369130370904e-02,-3.254779042270638523e-01,-1.889554515995503503e-01,1.638079285621643066e+00
6.980221441124946358e-01,-7.496098058547846499e-01,5.142663855653458738e-01,1.946757336810033337e-02,-1.354651226491841200e-02,-6.551356280379821290e-03,1.365726947784423828e+00
6.434208552629234745e-01,-7.631163395792462945e-01,6.471544248615974659e-01,9.291395976123224820e-03,1.264168453890410692e-03,-3.206729162481520602e-03,1.408512234687805176e+00
6.064043320095162670e-01,-6.871917920823161774e-01,6.749475859927496213e-01,-3.335310218806709047e-03,1.119898226571845387e-02,-1.650724990092328551e-02,1.329655408859252930e+00
6.387540312272459442e-01,-7.586274340588400333e-01,6.076897238600033058e-01,1.482445994700706468e-02,-1.849361456926223741e-03,-2.486062329125739070e-03,1.382360100746154785e+00
5.828294712143666789e-01,-3.929259680641039587e-01,7.402526787881228421e-01,-7.742809516791011870e-02,-3.306339518259500676e-01,2.771969732862296018e-02,1.216032147407531738e+00
5.989010232485749707e-01,-7.390855429957643441e-01,5.841320861278659349e-01,-9.816030125958906394e-03,-1.603122119761778847e-02,-2.622635879001051964e-03,1.331069588661193848e+00
6.145963555438607173e-01,-7.500038793351161415e-01,6.235859276416475527e-01,-8.291225254621456889e-03,-4.330957553428005542e-03,-1.369383032220638716e-02,1.369418382644653320e+00
5.961372916791038978e-01,-7.520536615227977340e-01,6.280071980509992491e-01,-7.205436413747895279e-03,-1.708189183502483973e-03,-1.431796683811555754e-02,1.364690780639648438e+00
5.984616164184504150e-01,-7.316143804017456453e-01,5.766735035138204069e-01,-3.660261856850051572e-03,-1.151669802647609271e-02,-8.576226362736139031e-03,1.319566488265991211e+00
6.106343075736915260e-01,-7.509727246226569619e-01,6.198034081559748998e-01,-2.209518648005769428e-03,-2.634204272699072064e-02,-1.192695462828828774e-02,1.367137789726257324e+00
5.950874429139427768e-01,-7.496908248745383085e-01,6.106085141252766135e-01,-1.396414047251243531e-02,-1.002874100336277607e-02,-9.348081692120263284e-03,1.353030204772949219e+00
5.764097684199980254e-01,-7.330891165269224352e-01,6.054354385270671601e-01,-8.616038528530952853e-03,-1.316924644397556368e-02,-1.388326478452584639e-02,1.324749112129211426e+00
7.817957005419510219e-01,-6.884835424185911101e-01,2.579328645206174220e-01,-4.511656536694980818e-02,-2.545489501833294588e-01,-2.210802280575695222e-01,1.418819904327392578e+00
8.921759696590068067e-01,-1.005940886065934681e-01,6.001968610940925375e-01,-3.490217474033947831e-02,-1.089230114701814495e-01,3.157324206155649043e-02,9.073113203048706055e-01
8.432115674184996745e-01,-8.743571849123507045e-01,1.810724891403839854e-01,-2.893148205605432580e-02,-2.700673353176367142e-01,-7.574904708115846874e-02,1.577889442443847656e+00
6.446300957157411471e-01,-7.370244531211953554e-01,6.415750556643387004e-01,1.412205851833610521e-03,3.882453358658440740e-03,-1.720356896082615369e-03,1.380151391029357910e+00
7.737583678534715181e-01,-8.017609056865876438e-02,5.100939997533683323e-01,-1.080169246881076822e-01,-6.794591830349755446e-02,-6.690117420082918043e-02,7.974027395248413086e-01
6.194737698045158503e-01,-7.043823361879757439e-01,6.573846531000562265e-01,5.194736333895721330e-04,-6.107319050936072143e-03,-1.746599120839067293e-02,1.343595385551452637e+00
6.727111209112758283e-01,-3.844783197072865200e-02,7.867450120236252342e-01,6.002839102467857901e-02,1.126732048946288839e-01,5.148271423133021774e-02,8.103668093681335449e-01
5.489837979903684495e-01,-7.259339244424263260e-01,6.083767078371326020e-01,1.592686126510047288e-03,-1.637977152051586435e-02,5.178928075405399116e-03,1.305969715118408203e+00
7.158826859162293887e-01,-7.312488194760716764e-01,4.167122644780755780e-01,2.361376217498510188e-03,-2.394198176918841195e-02,-2.855972798941279912e-03,1.323825716972351074e+00
6.105584620612777291e-01,-7.249100608121783473e-01,5.504308055502332708e-01,5.686716526439715251e-03,-1.568459878741288588e-02,1.885856438989588811e-03,1.306766510009765625e+00
4.876598809679571489e-01,-7.594067094230104731e-01,6.102986608625641241e-01,2.325289446390732540e-02,-1.309594125678919529e-01,2.491106893164631367e-02,1.333450078964233398e+00
6.525890133999115994e-01,-7.602721239733680747e-01,5.650418088753564883e-01,2.228585081617723285e-02,-8.517962503895188178e-03,1.904076872492570585e-02,1.372204184532165527e+00
6.515446377905669273e-01,-7.591720299622866097e-01,6.568493332111707828e-01,1.234030092077114706e-03,2.355681235536455018e-02,-1.814360007245607864e-03,1.413970351219177246e+00
5.816179026477401592e-01,-7.825061541330033954e-01,6.774789620478973706e-01,4.311167434346320493e-03,-6.346623799328278415e-02,1.963485655177619679e-02,1.419185161590576172e+00
6.225235039466776588e-01,-7.613301410923084545e-01,5.935077088670180911e-01,1.964375456451968385e-02,-2.547787196514984115e-02,2.130099280699506575e-02,1.371205806732177734e+00
6.482073721078095430e-01,-5.656937881297973147e-01,5.806844393156960216e-01,4.248650823619773420e-02,2.735684375456657897e-03,4.352643308303842315e-03,1.183910369873046875e+00
5.106802026225973901e-01,-7.533889941994537098e-01,6.670599588319913176e-01,2.169211549809989953e-03,-4.257947978640150288e-02,-1.852825776382878431e-02,1.351474523544311523e+00
4.040638564141235678e-01,-7.604516855872387460e-01,7.331199331477351588e-01,-1.206873662303840737e-02,-7.752448669208622523e-02,1.239792163413769473e-02,1.366196751594543457e+00
3.725533960807305145e-01,-7.581713841735934212e-01,7.905009913846119396e-01,2.630671497523484614e-02,-1.120421687870620103e-02,1.317711410916126702e-02,1.388803839683532715e+00
7.195251102883363226e-01,-7.901380201921023305e-01,5.413050353901597278e-01,1.377613670887142469e-02,3.581093204412539883e-03,-2.348594059962357330e-02,1.429704666137695312e+00
2.691624231877828288e-01,-7.795151280382728309e-01,8.971345876724762247e-01,-1.754003463544335367e-03,5.137620273925004588e-02,-2.345592883983923030e-02,1.470439434051513672e+00
2.414350204829627533e-01,-1.459934200992574427e+00,1.198826626451880095e+00,-3.776733723635777862e-02,-3.042795646591371361e-01,-2.838000270767487843e-02,2.392610788345336914e+00
3.249190256529363441e-01,-7.605637782609063757e-01,7.601148573395899444e-01,4.699976106939778887e-03,-8.203660485303147787e-02,2.005794319156995516e-03,1.363940715789794922e+00
4.057558318354852478e-01,-7.330474770800782247e-01,7.251459833654675391e-01,-1.458331820859004460e-03,-2.165756444268496575e-02,-6.977033324319563933e-03,1.328218817710876465e+00
3.416181751948329515e-01,-1.231426042316015712e+00,9.510949419451663056e-01,7.225007670673168347e-02,-4.244492167874621136e-01,7.761135510257223535e-02,2.092574119567871094e+00
6.775689590875313417e-01,-7.720403366026801217e-01,6.214316438551219512e-01,1.041804580242008255e-02,-2.005643140558761861e-02,-1.175906757300908961e-02,1.423056006431579590e+00
6.910867793987363061e-01,-7.189627753162767254e-01,4.922252524112167849e-01,3.244903807640742155e-02,-4.051762861433110818e-01,1.596229256035706090e-01,1.522984504699707031e+00
6.636386296521721295e-01,-7.188099280857360718e-01,6.383891326442318048e-01,1.168403173229146629e-02,2.063776870009947917e-02,6.251831462464555594e-03,1.370656728744506836e+00
7.563159513178616677e-01,-2.435955087701713317e-01,5.347510995121432797e-01,-3.943608132039732456e-02,-1.007024613074105207e-01,1.201161547338897850e-01,9.517042040824890137e-01
5.961249812152895622e-01,-7.518761396325710500e-01,6.052197959911448377e-01,-1.526241253587425593e-02,-1.599032376378281203e-02,-1.112263718216629366e-02,1.353250384330749512e+00
6.230332855564221228e-01,-6.634136090603954816e-01,6.660755225606120877e-01,-1.771932897781858945e-02,-1.278366315536639923e-02,2.597358370589192278e-02,1.309818983078002930e+00
7.126515033315571346e-01,-7.529823888182803904e-01,4.527490607460419314e-01,-1.948529906798025790e-02,-1.471404780541877254e-02,-2.081672928002750375e-02,1.355654358863830566e+00
5.612517178257723227e-01,-4.233502472897265889e-01,5.713502098737275325e-01,1.836979019686339198e-01,-1.792640230918547406e-01,1.321176305169411702e-01,1.108824968338012695e+00
6.441024569178698256e-01,-5.563668902920526627e-01,6.123902176854958412e-01,3.109153281717984968e-02,2.853019102154805142e-02,1.096547202485187271e-02,1.187335491180419922e+00
6.175778495207544516e-01,-5.191041032625938190e-01,6.440072999800277032e-01,-3.293832757390353222e-02,-3.349835077233533770e-02,5.052780416179110390e-02,1.156316041946411133e+00
6.638811489627045592e-01,-7.511788203944050890e-01,6.461029300128078301e-01,7.217461064093350087e-04,-2.481087465782777154e-02,-1.630494826295071772e-03,1.406914949417114258e+00
6.343598185407322010e-01,-7.202443448458348829e-01,6.606998341695368149e-01,6.602999776529709479e-03,-2.233299638822393990e-02,-6.044175924851663724e-03,1.368598937988281250e+00
6.566822136565841905e-01,-5.943816324885921043e-01,6.386087416634339542e-01,-5.871738966310328239e-02,-2.677829833153948236e-02,4.617199440534040800e-02,1.249706506729125977e+00
6.455297235430359493e-01,-7.552955460903180152e-01,6.582071013236364676e-01,8.718830559268640409e-03,-1.384490280356336783e-02,-3.143417141765783487e-03,1.407502651214599609e+00
8.304463713453456020e-01,-5.709986719148617551e-01,5.722407595432643657e-01,-2.466286048161071831e-02,2.750163953988589149e-01,7.863895942559714913e-02,1.384245753288269043e+00
7.259727539322823331e-01,-7.025351751665702693e-01,6.147906847381603423e-01,1.058422457997019832e-02,4.624704297326017594e-02,-1.191081759693036479e-01,1.394089221954345703e+00
6.369288506492931656e-01,-7.593250877096043849e-01,6.616600810704256208e-01,-2.110425272630346225e-03,-9.037846087497749051e-03,-2.552883932383875117e-03,1.408881068229675293e+00
7.513441119275395819e-01,-7.800812378710031414e-01,4.458735315707359481e-01,6.270360309948438439e-03,-2.310214908508414437e-03,2.583449711981248079e-02,1.404601931571960449e+00
6.294092139918570084e-01,-5.613561062248338951e-01,6.318448341567045601e-01,9.876910754767342926e-02,-2.015303054043799530e-02,-1.036662132533634623e-01,1.218011736869812012e+00
5.837528348285834223e-01,-5.245170158134011551e-01,6.451919805083669024e-01,1.745701722300211853e-02,-9.771653711277422313e-03,-5.531754156550820062e-02,1.144774556159973145e+00
6.444775667571205346e-01,-7.687281246425409220e-01,6.473571300751461699e-01,-1.393605423623404949e-02,-8.103439313842148925e-03,-6.057950869057289120e-03,1.414962053298950195e+00
5.828635570268982935e-01,-7.527586506438397329e-01,6.475570753382993150e-01,1.716286921976850144e-03,1.499440068462506992e-02,1.568193460303203557e-02,1.369634628295898438e+00
6.123961265508172103e-01,-6.844453902708691473e-01,6.504320540693004915e-01,2.948642358228133545e-02,-8.423857518111581885e-05,8.730445345246702626e-03,1.317348957061767578e+00
4.740364442444272575e-01,-8.496981264302815307e-01,7.733355724622021921e-01,6.966789157258505838e-02,4.198964305564530375e-01,-3.412137034103287364e-02,1.668843507766723633e+00
3.346865487853732390e-01,-1.212753974696108905e+00,8.907461540479076900e-01,1.147408754902100453e-01,3.881125298780377375e-01,-1.499402852855213734e-02,2.014027833938598633e+00
6.553780808050504447e-01,-7.363198634597282188e-01,4.975807692469330634e-01,-1.500739105351702254e-02,3.272203187285359360e-02,9.009262570068846815e-03,1.321456909179687500e+00
6.820362147010172738e-01,-7.503686916323791811e-01,6.291136252041928945e-01,3.234192556830842169e-03,-2.132345413442769070e-03,-2.721675339759550144e-03,1.406714320182800293e+00
3.287860686576437041e-01,-5.258132579153683706e-01,7.183824200920254643e-01,-1.867207154247762790e-01,1.975295745320277130e-01,1.924160005270643750e-02,1.199096560478210449e+00
6.362372189638012543e-01,-7.636731227598829719e-01,6.249689331811771886e-01,1.210164507551493053e-02,1.104370741502414509e-03,-5.683321419084991395e-03,1.394503951072692871e+00
5.214526912703018047e-01,-7.432382999461923934e-01,6.538118829293283474e-01,-1.969153094430655098e-03,1.778872708192699367e-02,-2.063437617328259255e-02,1.336635351181030273e+00
6.058550805552748164e-01,-7.515615288750768785e-01,6.340471541844762138e-01,-3.083531987796628380e-03,-1.962390268343817273e-02,-1.377870972707763604e-02,1.372368931770324707e+00
6.512238333543175495e-01,-7.749465580344954141e-01,6.454109914250281133e-01,-4.168391274430406808e-03,1.114864503691563417e-02,-3.769183887361956652e-03,1.423437118530273438e+00
6.752444687211613950e-01,-7.049630911008348821e-01,6.069254850410876756e-01,2.140988561307945182e-02,9.782384708925664571e-03,-3.483357982314507374e-03,1.347977995872497559e+00
5.684448106941382139e-01,-7.529666593942213604e-01,6.979015113255100378e-01,-5.170931789979160351e-03,-5.728457964328263069e-02,9.102858005003034575e-03,1.394319295883178711e+00
6.478361242526777808e-01,-7.754837865649413242e-01,6.422896003792312181e-01,-9.031763473601704673e-03,1.082294539571285012e-02,-4.864430156438742485e-03,1.420789599418640137e+00
6.612777558698745839e-01,-7.614779483139703098e-01,6.405662557901424803e-01,1.019804086167866615e-02,2.153788048351516868e-04,-1.388834927829375862e-03,1.412626385688781738e+00
5.812667070929419255e-01,-3.300103703899505136e-01,5.665066777381855267e-01,4.418311520134424186e-02,7.759711366993987149e-03,1.145528416261560635e-02,9.075373411178588867e-01
6.694437094616729755e-01,-7.304453553000164190e-01,6.278892600585098682e-01,-3.300584154954462092e-03,1.886086165090761560e-02,-4.340119589423596658e-03,1.380000352859497070e+00
6.554475780752176961e-01,-7.693165606725959060e-01,6.473123576462552764e-01,1.997600565677270634e-03,1.908459985897210942e-02,-2.583498811926134009e-03,1.421109795570373535e+00
6.702160538609596152e-01,-7.390690986100861837e-01,6.285864120627608909e-01,2.835872258796110108e-03,7.486898148273856378e-03,-3.440695631918842031e-03,1.389020323753356934e+00
6.841468216567667682e-01,-7.325958801847296531e-01,6.234036081361638004e-01,1.266884054895980535e-02,9.967464777804583426e-03,3.670347471341244699e-03,1.387664198875427246e+00
6.643923756692704519e-01,-7.522993417761080215e-01,6.365956488026998095e-01,-5.216671837065747427e-03,1.336866663616516349e-02,-3.604201358089959342e-05,1.403220057487487793e+00
6.418658786202515731e-01,-7.645765747144392943e-01,6.208224948470143501e-01,1.370431549108573448e-02,-1.656502077669374856e-03,1.015516181808402349e-02,1.396355271339416504e+00
6.452939086924954770e-01,-7.597504648736039812e-01,6.349615437834065235e-01,4.681489033597219240e-03,5.351788296166398382e-03,3.001956194303841748e-03,1.399970650672912598e+00
6.165977267637281489e-01,-7.216272210629137707e-01,6.745399025660816505e-01,-1.727356303958532679e-02,2.674088401509808199e-02,-1.581647311788914045e-02,1.369501352310180664e+00
1.035329519308192392e+00,-8.809664388534590440e-01,2.026792738399099125e-01,3.246627710659457516e-02,-1.906559799456319093e-01,-6.735822011326325111e-03,1.697715997695922852e+00
7.933716751353826480e-01,-7.484336489798065761e-01,3.501182443680141976e-01,-2.984737911563925192e-02,-6.978380921229956901e-02,-1.417910322469526085e-02,1.381344199180603027e+00
6.977715836238127523e-01,-1.492781014824772212e-01,6.219193440811514595e-01,4.528441755539913682e-02,9.616693370675404376e-03,-4.169677564815755383e-02,8.189269900321960449e-01
7.266815589076788262e-01,-7.680801327879622775e-01,4.999387657377113992e-01,6.393265867622928769e-03,-2.150846302407976446e-02,4.661267767154111952e-02,1.398151278495788574e+00
4.381681465556886979e-01,-7.050805281601939534e-01,5.332352028543094757e-01,-2.150955409385655465e-02,-4.645233416551246552e-01,9.268876241503347380e-02,1.448878169059753418e+00
3.895452553587903100e-01,-8.538192063565706036e-01,6.249094200466752680e-01,-9.293574652392016036e-03,-4.086737929218005605e-01,-5.761475590612947714e-03,1.547706842422485352e+00
6.239066442436331794e-01,-7.501962372643836696e-01,5.785751988711698157e-01,3.276514733981521210e-02,-4.441438003606654888e-02,2.537844616131200437e-02,1.356095314025878906e+00
6.450477113343047186e-01,-7.282200379992626038e-01,6.778828581870024461e-01,-7.057748008725699129e-02,1.913363701140794945e-02,-6.742583550410101434e-02,1.400612235069274902e+00
5.010395292367770814e-01,-7.255407581144764917e-01,6.583311818290911166e-01,-1.890803853363066988e-03,-2.127179835406147954e-02,6.799924425685392043e-03,1.312888979911804199e+00
5.128391071707690818e-01,-7.446052773836113747e-01,6.547015431127246599e-01,-2.349908886871929226e-02,-1.258440531285258575e-02,-2.090288456660688299e-02,1.335334420204162598e+00
5.255426054254279666e-01,-7.465481224749903610e-01,6.415925981124789290e-01,-2.231611132733042624e-02,-1.907160516217013338e-02,-1.621351907149620394e-02,1.335171341896057129e+00
5.470025483648883746e-01,-7.546104774775799218e-01,6.198901079031160499e-01,3.811507002666712773e-03,-1.049807729737525647e-01,-1.234604831537844101e-04,1.351845741271972656e+00
6.162862867749063778e-01,-7.912889060172627609e-01,6.571367438421772400e-01,-1.560870778586695255e-02,-6.795902917679196020e-03,-2.551684794919200847e-02,1.429426312446594238e+00
6.738326180024848400e-01,-7.604448584368815878e-01,5.877318339191817120e-01,-1.344853933755021068e-02,-1.340942927617675383e-02,2.027766021651104811e-03,1.393616557121276855e+00
4.779560710078015751e-01,-7.446238251726710056e-01,6.842940205998264691e-01,-2.126922235269468331e-02,-3.883404996801442105e-02,-1.566144159866824162e-02,1.340208530426025391e+00
5.537007778322339258e-01,-1.017201963014086274e+00,5.886395019663236416e-01,2.756135056409210193e-01,-4.563199553499481254e-01,6.526257957113654196e-02,1.840975642204284668e+00
5.257196372091612613e-01,-5.463172320838063367e-01,7.080853521041170495e-01,1.227256171324423717e-01,-2.614276437993359181e-01,6.716021042702935429e-02,1.281316757202148438e+00
4.890429450306653103e-01,-7.450451352966290797e-01,6.652187334308392597e-01,1.838397268114156822e-03,-7.464494127915662081e-02,-2.189653316637385841e-02,1.337756276130676270e+00
7.076951775660546007e-01,-8.895707078775284549e-01,2.441433975163690706e-01,4.356843182560898864e-02,-4.156513621714906792e-01,5.462471498562102012e-02,1.599583506584167480e+00
6.423311151742477909e-01,-7.643737593166575195e-01,6.565275964504538875e-01,-5.605833546448432464e-04,1.003119307467495794e-02,3.505897479708394542e-03,1.413976669311523438e+00
6.439410516184596034e-01,-7.752349335355218640e-01,6.593536685781631324e-01,-3.322398834783702945e-03,3.979257854091953345e-03,-3.764753582656687678e-03,1.426987886428833008e+00
6.432194393188718218e-01,-7.741220982718014509e-01,6.594046255554320002e-01,-2.651417594350304312e-03,6.358335056898299989e-03,1.152321359380860574e-06,1.425552964210510254e+00
6.409656381081179077e-01,-7.685907047454065832e-01,6.441311828235611880e-01,-9.647696347482821039e-03,3.867542830584005074e-03,2.549077054980302716e-03,1.411263465881347656e+00
6.417228062530695443e-01,-7.641207311446660544e-01,6.035745220891785001e-01,-1.503652566955568717e-02,-1.553314068378493229e-02,-7.482815591606642447e-03,1.387728691101074219e+00
6.505472581135660626e-01,-7.713032315311428855e-01,6.279760172799431217e-01,-2.411872878341460129e-03,-3.021478219967245124e-03,-1.771609218922236967e-02,1.411049842834472656e+00
7.620609466102218343e-01,-7.587059483529420278e-01,3.793247336320852425e-01,-8.399635745475511964e-03,7.906912326130808438e-03,-2.947640740385785649e-02,1.371193766593933105e+00
6.488662516582605067e-01,-7.759771332900003982e-01,6.500304227863586970e-01,-2.685365457478250915e-03,7.303073805028466835e-03,-2.007751257194240625e-03,1.425493836402893066e+00
6.730470897915583617e-01,-7.378735724669555074e-01,6.263791889338645724e-01,1.029569959381242995e-02,-1.435669654867135873e-02,9.608560981081911171e-04,1.388513326644897461e+00
6.704110435621203345e-01,-7.440283624189689693e-01,6.340494630547480748e-01,-1.853650757035348777e-03,2.008125476371994816e-02,8.080236797177984837e-04,1.397051095962524414e+00
6.110900982535788506e-01,-4.418542409457817399e-01,5.803160056514938825e-01,-2.882311519104752921e-03,5.770646109310128592e-03,-1.568430128831610091e-03,1.037963151931762695e+00
3.127744125918556217e-01,-3.672636691089995464e-01,7.858096594241259503e-01,2.154232282930889086e-01,-3.591387911005710504e-02,-1.073309217395652590e-02,1.073001742362976074e+00
6.482466525060428530e-01,-4.992947311760896900e-01,5.859722029414919930e-01,7.021158222092142853e-02,-1.406483106964692871e-02,-1.836076661540285079e-02,1.125015854835510254e+00
5.912234115953545199e-01,-4.695654973164110624e-01,6.333478575421802592e-01,-5.688790267651723694e-03,1.097365582256228621e-02,5.358634142591905264e-02,1.086648821830749512e+00
6.785453549376557758e-01,-7.088979010601177411e-01,6.180403392963398357e-01,-1.612663608254591733e-03,-1.025441492256279168e-02,6.072153568277055460e-04,1.358321309089660645e+00
6.303150260008987260e-01,-3.936823331042815788e-01,6.326914300797603641e-01,1.027142785573574302e-01,6.516921039919774256e-03,9.279501767983810989e-02,1.052910447120666504e+00
8.240232560763779412e-01,-8.981637762213732223e-01,4.374141634946050461e-01,6.421641031203109695e-02,2.332932160604046512e-01,-2.584729507028374895e-01,1.680968403816223145e+00
7.664508741889645149e-01,-7.605752014870481581e-01,3.937527042407068523e-01,1.859836970072215739e-02,1.099580270188967902e-02,-2.898434651209684521e-02,1.380403399467468262e+00
6.313553513334682066e-01,-7.336049534342001799e-01,5.384810520199638795e-01,-7.756097047602374291e-03,1.062124045333142676e-02,-3.705913304438813267e-04,1.321170687675476074e+00
7.266692184536512888e-01,-7.572754087679520740e-01,4.857161490641453971e-01,-1.025287711869582279e-02,7.067665401995615326e-02,-7.943880206138273503e-02,1.391697406768798828e+00
6.819906933151126394e-01,-7.355127851923366489e-01,4.755779485031953469e-01,-7.325313708026965145e-03,1.086484235258208114e-01,1.071520643755710829e-02,1.339869499206542969e+00
2.664303349552273881e-01,-1.076249641328401951e+00,8.797732101359208023e-01,2.235112153027526694e-01,-2.663220054511347135e-01,4.026920230141113610e-02,1.835761666297912598e+00
6.650230867844175719e-01,-7.450298382405904363e-01,4.637530518834491744e-01,-1.978909838580890021e-02,-5.431425811031388717e-02,-1.281948221133734876e-02,1.324943542480468750e+00
6.658848907396186512e-01,-7.342306988012669011e-01,4.534314804935939414e-01,-5.158860259522422137e-03,-5.907230627652619581e-02,3.302452904554115196e-03,1.310946941375732422e+00
4.801964855600845405e-01,-7.390488608324837783e-01,5.992010755100644070e-01,6.931623988180844048e-03,-1.420846330761206533e-01,4.997416791696797714e-03,1.306369185447692871e+00
4.406892340340188285e-01,-7.706651801582854455e-01,7.498557631092442888e-01,-7.282331328768331530e-03,-1.874974935737738768e-02,-6.851010016168039389e-03,1.392418146133422852e+00
6.079255798270224442e-01,-7.257998995559599154e-01,5.564138915616285708e-01,-7.310140970513907648e-03,-1.361925189971939509e-02,-6.576614837506112145e-04,1.309004426002502441e+00
6.402850310413730206e-01,-7.529777599973898061e-01,6.602223839950200901e-01,-6.474415251193363710e-03,2.690273647257599918e-02,-9.547801268976342359e-04,1.404156804084777832e+00
4.508072724546881571e-01,-9.102495811490837196e-01,7.122216436592578859e-01,-4.267408312372478890e-02,-2.243394316220042317e-01,-2.036641270540174437e-02,1.560225963592529297e+00
7.769991530470105046e-01,-8.327819600978174641e-01,4.165737050742685521e-01,6.900225388044192547e-03,-9.072966674896326689e-02,6.299894085924297171e-02,1.475750923156738281e+00
5.050095063657888961e-01,-7.485289913757647851e-01,6.969297737404619442e-01,5.708923589355909857e-03,1.554882199136285378e-02,1.785072734679044384e-02,1.360349416732788086e+00
4.597024627663413021e-01,-8.831464122456077481e-01,7.050336344945103972e-01,5.940358167946852008e-02,3.101660385705065637e-01,-8.427382680310120666e-02,1.585362672805786133e+00
1.633166603803880568e-01,-8.301718602404511982e-01,9.582074718023370075e-01,7.180996851277272885e-03,-7.707348606811495299e-03,2.214303497121486095e-02,1.552542924880981445e+00
4.680269287833954683e-01,-7.388261218549708742e-01,6.632310672261576556e-01,-1.390762541296189543e-02,6.092142891175676700e-02,1.390616222835130110e-02,1.320028901100158691e+00
5.823929910447375180e-01,-7.649422691859480983e-01,6.783042117794005899e-01,1.365222169591599928e-02,-3.448556027688402543e-03,2.106907252980668626e-04,1.397973775863647461e+00
1.554240617625722021e-01,-1.605597465795878032e+00,1.341740261536285006e+00,-9.036700963151297894e-02,1.720536649336059931e-01,4.287054327769457968e-02,2.591619253158569336e+00
5.500580071597875875e-01,-8.927554872809495556e-01,7.101402297862998703e-01,8.987103129907879351e-03,-8.722335498719235858e-02,-1.926078332511485525e-02,1.537037730216979980e+00
5.455253108240565307e-01,-5.840583840580562125e-01,6.960384119837261796e-01,5.853924095009156725e-02,6.989882450037739926e-03,2.536200971253388392e-02,1.216958284378051758e+00
5.692660982115533841e-01,-4.520578759846503036e-01,6.335159320944241390e-01,1.418091170719283992e-03,1.810322835368128463e-02,-6.816127271825704603e-02,1.061968803405761719e+00
6.336578585705603395e-01,-7.457948572839032675e-01,6.523784190176007414e-01,1.319094918290146523e-02,1.042455318665688573e-02,-1.681205991162562901e-03,1.389215946197509766e+00
6.650735622691616999e-01,-6.951728145821518545e-01,6.354857863065951351e-01,2.518417802474912440e-02,3.238373919067727424e-02,1.615663541524421307e-02,1.347861647605895996e+00
6.297439432775779888e-01,-3.881940764943514477e-01,6.226307737645848661e-01,1.343464770888559423e-01,-8.554276494077237003e-03,1.265482687109670268e-01,1.063681125640869141e+00
6.187743201529587456e-01,-5.652850300147878038e-01,6.984316564768084934e-01,8.314731007712083954e-02,6.437883209824453098e-03,3.211427138560466604e-02,1.235564470291137695e+00
6.449215156563821161e-01,-6.654020291065388948e-01,6.371883034395560141e-01,-4.776038060712843418e-03,3.108450859105885838e-02,1.576074870662155444e-02,1.307894110679626465e+00
7.798108606702610635e-01,-4.964530998248739557e-02,6.667488423563635580e-01,-8.267579383453943498e-02,1.361799498485379567e-01,-9.882579428111933767e-03,8.267008662223815918e-01
7.400576919585232227e-01,-8.186915860907566511e-01,6.497925767847363421e-01,1.926055995365924881e-02,-8.664071355199320923e-02,5.341614061837831468e-02,1.526217222213745117e+00
6.396293184652831476e-01,-6.158068631669738613e-01,6.300470994490753318e-01,3.801904547159792348e-03,2.705988767825348237e-02,1.317900411364146367e-02,1.251775979995727539e+00
6.383498675411224399e-01,-1.133404154826592736e-01,6.830788269340447583e-01,6.640741384700925287e-02,2.767708620232600322e-02,-5.704852901773793672e-02,7.911717891693115234e-01
6.680346706726720818e-01,-7.609077106125913259e-01,6.384532860000686760e-01,-1.492817346775821181e-03,7.620467297689489071e-03,-7.172618443627646299e-03,1.414502263069152832e+00
5.434851989029648722e-01,-7.659904408852872271e-01,6.776624378633880896e-01,-1.005999526829011621e-02,1.224647121066903613e-02,9.997398313025640353e-04,1.381733775138854980e+00
6.751615173347692567e-01,-6.639841767305171283e-01,6.107382870336204306e-01,-1.554192012337655623e-02,-1.475651091331307233e-03,2.001181248893928351e-03,1.308408498764038086e+00
2.452052899927680274e-01,-8.126898321235370704e-01,1.052427536395933449e+00,-2.600167288501270546e-01,1.522254656871892819e-01,8.862824094573829026e-02,1.708980679512023926e+00
6.674450718300362073e-01,-6.336269891778817387e-01,6.166788620669847454e-01,-2.891898983788593683e-02,1.341670547459002799e-02,-2.727299898172167152e-03,1.277648806571960449e+00
6.141438341775755649e-01,-7.302362073860160230e-01,5.671763892297765342e-01,-8.569986266319981616e-03,6.592349136458854585e-03,5.188682291414272937e-03,1.321685671806335449e+00
5.449262551213740480e-01,-7.462292676449621132e-01,6.258881203069187604e-01,6.488413261717985991e-04,2.511188374960914710e-02,-1.416621832668379585e-02,1.334416270256042480e+00
6.415639723431744157e-01,-7.349053770070911318e-01,5.443242574853153215e-01,9.117745937631847181e-03,5.102921659968193829e-02,-1.188553582012874879e-02,1.333701968193054199e+00
5.624093676293275834e-01,-1.585628333275512225e-01,5.810971946900092000e-01,-3.659844128683308051e-02,1.635716108025357662e-02,6.705980513232883550e-03,7.338797450065612793e-01
3.946794574615654083e-01,-8.853938873620031957e-01,5.923623262931341227e-01,-7.602628013317909439e-02,4.554983590617031619e-01,8.788997591918659702e-02,1.610485911369323730e+00
5.827557959903881812e-01,-5.429465136078296394e-01,6.435309900978658515e-01,1.908644638951749505e-03,2.469162690183960771e-03,-4.505588897292833739e-02,1.159928202629089355e+00
7.506741041819581239e-01,-9.357292987920773353e-01,5.647150554892441665e-01,3.924372593437773504e-02,2.058954264559683667e-01,-3.900270360454002189e-02,1.643562555313110352e+00
6.511725810333013342e-01,-6.030674019221020643e-01,6.090088769978573291e-01,5.688485133011625394e-02,-1.380735288121018312e-02,-6.837325664507128142e-03,1.237914443016052246e+00
6.829983157833598995e-01,-7.063503682684662000e-01,6.160566442577322110e-01,-4.142666847901523008e-03,1.793557724657943121e-03,-8.127090632000379027e-06,1.357139229774475098e+00
6.615524566313968347e-01,-6.278470596646266166e-01,6.129893482198449650e-01,-9.438494052448691621e-03,2.291961857636031288e-02,5.809706960002184936e-03,1.266584634780883789e+00
6.112335574713486652e-01,-7.560819734007160342e-01,6.701486194605521529e-01,-8.250789096030778508e-03,-5.125259284331742243e-03,1.835363976250860979e-03,1.397809505462646484e+00
4.782049084775213954e-01,-7.609246806832395960e-01,7.143404799986520226e-01,1.007420400709394676e-02,3.262979234760398500e-02,-2.445111342156078890e-03,1.373798131942749023e+00
6.133814489135070991e-01,-7.595766175028507705e-01,6.695045627782736375e-01,-1.311416550547389766e-02,3.662395208603936789e-03,-1.256471784583995839e-02,1.402229666709899902e+00
5.561631314188506536e-01,-5.040663622333879657e-01,6.315609773634254243e-01,1.211756148554075790e-01,-1.504394777657592705e-02,6.346664800684870267e-02,1.125399470329284668e+00
6.026800811778763034e-01,-3.478298958182283185e-01,5.835913965909445000e-01,2.558927330066719519e-03,1.917271369850880383e-02,-5.229753479087612122e-02,9.460534453392028809e-01
6.527138700908559077e-01,-7.611082386431123892e-01,6.655727211283899436e-01,2.059262111576384488e-02,-5.614950315754057945e-03,8.048173623408657424e-04,1.420776963233947754e+00
6.220822887132997359e-01,-6.732929338404164410e-01,6.628780665353104506e-01,-3.469116926780887664e-03,-2.278648015640935554e-02,-1.726467843557676768e-02,1.317192077636718750e+00
6.533785661304392089e-01,-2.362297574762415309e-01,5.691274626718543228e-01,8.263740814771046439e-02,-8.084483986391027832e-03,-1.082578484112950018e-01,8.828323483467102051e-01
6.500785583922321642e-01,-7.211190439061962998e-01,6.636323005398967467e-01,3.684034521327070322e-02,-3.187804028562523512e-02,7.806326767998088278e-02,1.387210607528686523e+00
6.029873054002570232e-01,-4.248341161442815705e-01,5.930932216077215990e-01,-5.472325577823700452e-03,-2.221034682818140427e-02,-1.932849898177102163e-02,1.024224519729614258e+00
5.878405987798827059e-01,-4.935631810712259870e-01,6.332479855911885558e-01,-4.203959904335891756e-02,1.764510345606953856e-02,-6.350875503002358091e-02,1.113074898719787598e+00
6.337724796137937933e-01,-6.653173672147251194e-01,6.502818228995447258e-01,1.517195480381163149e-02,-3.469407082253402053e-02,4.942765665577352786e-03,1.309094667434692383e+00
6.516397245646512459e-01,-7.499302596355599260e-01,5.947271700476334244e-01,-1.942606752314589291e-02,-2.487312582498641886e-02,-2.294047235011646008e-03,1.375090718269348145e+00
6.582685979895969153e-01,-7.449517548674867706e-01,5.152738648418797585e-01,2.530139336859186378e-02,-1.957543604775735177e-02,1.495425478498723683e-02,1.338866233825683594e+00
5.133832118382244403e-01,-7.350780745801158700e-01,6.277133277502822128e-01,1.257827155623762565e-02,-5.096443192777300180e-02,1.306049154284187087e-02,1.312723159790039062e+00
6.665780414817062960e-01,-7.460600030464223931e-01,5.290758038951675069e-01,-9.538966760943755341e-03,-1.932215030047941887e-02,6.683151448409621088e-03,1.349718213081359863e+00
6.662198165068337063e-01,-7.344161005836471467e-01,4.456095088950990935e-01,-3.252922311127730021e-03,-5.521586861755093528e-02,-1.983330792006984464e-03,1.307916283607482910e+00
6.455075161872469991e-01,-7.748176339250059108e-01,6.507590409170583845e-01,3.592009206238442297e-03,-6.266534015254890920e-03,-2.482180932819800633e-03,1.423019647598266602e+00
8.545320285722889375e-01,-7.433007773449717970e-02,7.151049013529425791e-01,-1.039606605881474325e-03,7.572513302007892466e-02,-1.184582871115455981e-02,8.776919841766357422e-01
3.174040901317884966e-01,-7.542868403502912544e-01,7.926722875219357478e-01,-1.818633516830596084e-02,-1.181941276149889135e-02,5.157027051560944758e-04,1.373009085655212402e+00
6.760178153884314201e-01,-7.377713681003004176e-01,6.262362712721658564e-01,6.879038804115814379e-03,1.210060671535482732e-02,1.398771629215570531e-03,1.389778614044189453e+00
6.159949218178057961e-01,-7.593793088760988352e-01,6.609103342519392355e-01,-1.553477724487644165e-02,-1.079086153351883556e-02,4.512775227391633529e-04,1.398756980895996094e+00
6.488725218971433950e-01,-6.221176925638868260e-01,6.268025810161235167e-01,3.952346848059604817e-02,-2.247897961351548717e-03,3.332623714027729790e-04,1.261964440345764160e+00
6.728610111029146301e-01,-7.510186382747020550e-01,6.291157861067491197e-01,3.048771891271317633e-04,-4.232859637212439338e-03,2.995412647182590319e-03,1.402547597885131836e+00
4.562387930666412794e-01,-7.503983626673975671e-01,6.848970545254075004e-01,-1.234385574570089940e-02,7.764650072254987434e-02,6.985894238207990964e-03,1.342704653739929199e+00
2.723310209611669030e-01,-8.021722343970509872e-01,8.719657771384656808e-01,1.375150671685289837e-02,-3.281658303562989126e-02,-1.980413292302595982e-02,1.470851182937622070e+00
6.659212605433830756e-01,-7.712336799891309491e-01,6.376323904168240686e-01,1.804285949462754168e-02,5.409280021942901957e-04,-1.974075631597402465e-03,1.423568844795227051e+00
6.429005878269375973e-01,-7.727050990219447302e-01,6.462402046155877322e-01,-5.051801790163413727e-03,-1.543193657734393421e-03,3.994424383698068869e-03,1.417324900627136230e+00
5.150842450377239867e-01,-8.884195656468290014e-01,7.829435303481395714e-01,5.501512743600778937e-02,1.649264973731207617e-01,2.030118745703926239e-02,1.584118604660034180e+00
5.927125869607130504e-01,-5.802136661257223382e-01,6.594694803432151753e-01,-9.336983294872348849e-03,-2.626758372994749107e-03,-2.414876093425985092e-03,1.207813382148742676e+00
6.217930889522633731e-01,-7.308339753115377091e-01,5.164315570518756005e-01,-6.174871778105175957e-03,-3.253628733669108875e-02,-1.117727037310672781e-03,1.304407954216003418e+00
6.357559897675870708e-01,-6.890156460199228228e-01,6.562783748617738722e-01,-1.623472601518094818e-02,-1.092825911081474330e-03,4.764368067595762396e-02,1.337995767593383789e+00
5.892165973672727208e-01,-3.488998111417676018e-01,6.007413849914695625e-01,5.125447505244007385e-02,2.422127883340060434e-02,3.677501867590456802e-02,9.511598944664001465e-01
5.925987489934457786e-01,-3.922205573597312700e-01,6.016053047717653257e-01,4.006007677016572982e-02,2.655642384672293049e-02,1.138968163923298992e-02,9.930455088615417480e-01
6.376356341384148418e-01,-7.221988978036190110e-01,6.585816133458191057e-01,1.425476101264023165e-03,7.463202034404237649e-03,7.850903908913065693e-03,1.370558261871337891e+00
6.399844882327312412e-01,-7.699482027341827406e-01,6.406897513725768878e-01,-1.915619329138147425e-03,6.066620179032799001e-03,8.231548026371292293e-03,1.410400509834289551e+00
6.520627802782656968e-01,-7.679532246496114656e-01,6.445109984852279705e-01,-1.656689578771085129e-03,1.070021705753000825e-02,7.315984090379989719e-04,1.416379928588867188e+00
6.460568364297250010e-01,-7.731991359129354313e-01,6.600690012258639827e-01,4.453998568909168718e-03,8.715662713001882250e-03,2.202832077496038286e-03,1.426419496536254883e+00
6.423830201386813155e-01,-7.704894334030767400e-01,6.605727944608885682e-01,1.345772659869874958e-03,7.973206495401516727e-03,2.433162563239200937e-03,1.422129750251770020e+00
6.388214023433569366e-01,-7.603908107906319769e-01,6.553794293731189935e-01,6.701061357040520756e-03,1.155984441343568120e-03,2.607605036160375294e-03,1.407620787620544434e+00
6.421511763446523524e-01,-7.694869653764356832e-01,6.492903747437248629e-01,7.516310646296705394e-03,3.091629794285464909e-03,-2.304407332759166645e-03,1.415296912193298340e+00
6.531489235649374780e-01,-5.729316806504307635e-01,6.027888729338561902e-01,-4.284776207454887853e-02,3.338345781368774745e-02,-3.749183905708908943e-02,1.207117438316345215e+00
6.330683257506936057e-01,-6.127474864241444497e-01,6.341075932420761063e-01,-3.887623434920899762e-02,2.893064113240018803e-02,-4.565504739474466472e-02,1.251659274101257324e+00
6.198247521751441003e-01,-7.497794305826503969e-01,6.175963400095652034e-01,8.332535626444290827e-03,-9.386417181042222210e-03,5.749198121824823302e-03,1.368700265884399414e+00
6.670335878255655437e-01,-5.843698877423751936e-01,5.861882092488219786e-01,-7.559212291537577115e-04,-1.123722525426315046e-02,-5.577482699293825896e-03,1.213198423385620117e+00
6.403223483991407061e-01,-7.527770809176401734e-01,5.817623701177960793e-01,-1.457339919609406537e-02,4.340786051002572948e-03,8.759742572858723181e-03,1.365100502967834473e+00
6.435822195198879214e-01,-7.549775255010686692e-01,6.392085759889817309e-01,2.182338431743940932e-02,6.601775499073258245e-03,-3.316330436605799403e-02,1.398116827011108398e+00
5.191228272044831060e-01,-7.567672240457423705e-01,6.617645414804311788e-01,-4.158940863446652231e-02,8.212319102212591038e-02,2.474813057499122837e-02,1.362900018692016602e+00
5.901552476342566411e-01,-2.587613385601287286e-01,5.728350522689942270e-01,7.699564172590245281e-02,5.140179070450556775e-03,-2.862858615597143469e-02,8.523960113525390625e-01
5.957021690520738488e-01,-3.371769675200165794e-01,6.117407380671634476e-01,1.618557395257730347e-01,1.704067351653076878e-01,-5.508179567200820193e-02,1.029704809188842773e+00
5.963873227441056635e-01,-5.181975718540743348e-01,6.302180846589060526e-01,2.696816336198135100e-02,-3.099852456416852045e-02,-2.917267453675025102e-02,1.135239601135253906e+00
6.407904531084471778e-01,-7.730875523399542981e-01,6.268737983265821878e-01,1.274995369489586401e-03,-2.732099603408378371e-03,7.404775537056401680e-03,1.407039403915405273e+00
6.374286733985774500e-01,-7.710696810525369260e-01,6.433998289343816346e-01,1.270043193037392925e-03,-2.721503046219731718e-03,-6.648183026230897446e-04,1.411503434181213379e+00
6.442365562660341549e-01,-7.696486345898637671e-01,6.375755563353386890e-01,7.078056519699406010e-03,5.359725359889148076e-03,1.396288064695378481e-03,1.410652399063110352e+00
6.455873434354872931e-01,-7.735853226966503682e-01,6.431279672787902912e-01,3.065315193814972198e-03,1.126891273692329307e-03,3.847794473550490355e-03,1.417971491813659668e+00
6.379046927987690463e-01,-7.603424366086277697e-01,6.646872303871079746e-01,1.139091589682894763e-02,2.661023939878293804e-02,-6.917515749317520307e-03,1.412769675254821777e+00
6.533075908608250160e-01,-7.733437144058038504e-01,6.416163032527681942e-01,-3.433416553487482416e-04,2.557864915645207630e-03,2.669522875613269085e-03,1.420856237411499023e+00
6.656731117043990231e-01,-7.512874791606500846e-01,6.370078881946532601e-01,-8.519906582280916893e-03,3.038161083979297461e-02,-8.856841336168095810e-03,1.403995633125305176e+00
6.187916505202736284e-01,-7.613999201598254940e-01,6.253389017107126024e-01,1.185831201037610902e-02,-5.779544798598297041e-03,8.472336953225068773e-03,1.383743286132812500e+00
6.292794124839923287e-01,-7.030431047343125295e-01,6.661846438938971993e-01,-1.066037031614876663e-03,-1.766355565729494162e-02,9.573083877398597813e-03,1.351602435111999512e+00
7.214970423303747049e-01,-8.680950306677714945e-01,3.450149519420189215e-01,-1.006788995326603764e-01,3.833650543126562171e-01,2.510117281678645451e-01,1.652399659156799316e+00
5.541216035424076924e-01,-7.987303040793610753e-01,6.547018655375240748e-01,-6.127649334370606493e-03,2.139771159147239865e-01,5.538757496318928719e-03,1.453945755958557129e+00
8.301126396437987776e-01,-1.304899860047888938e+00,4.064338888084821910e-01,1.104545749465920823e-01,4.762315137713142854e-01,1.500372152850348341e-02,2.133280992507934570e+00
6.708506836344293456e-01,-7.702066207230867656e-01,5.917049639883051881e-01,1.927955188605334422e-02,1.613293170846027622e-02,-1.470408867804276487e-02,1.404065966606140137e+00
9.004037164537789240e-01,-3.806247222139985675e-01,5.614992520088942785e-01,-1.516707647116377448e-02,1.815291991544842054e-01,6.916265651927820668e-02,1.198183178901672363e+00
6.721840550212065946e-01,-7.922576642403716951e-01,5.491208892483103732e-01,7.187084935504616315e-03,-8.998276437462456381e-03,-4.070993440993304208e-02,1.408859491348266602e+00
6.831775380424653932e-01,-7.473013336124799677e-01,6.268503495461344999e-01,2.314903423179973802e-03,6.112777335471331931e-03,1.466680507604520636e-03,1.403211474418640137e+00
6.534432722221430456e-01,-7.668135287753143903e-01,6.410122077375824956e-01,-3.479271789857981464e-03,6.527819337828275580e-03,7.900578070347283668e-03,1.414206504821777344e+00
6.747059482845830791e-01,-7.641925787154634220e-01,6.327583233117428652e-01,-4.913592568135489655e-03,4.527594660499296118e-03,4.790363794899829726e-03,1.418461441993713379e+00
6.704402561451560105e-01,-7.591895671870116935e-01,6.358974718511269941e-01,1.158671885115143295e-03,9.103710750705333934e-03,1.628743115840497338e-03,1.412767410278320312e+00
6.319020528857671737e-01,-7.669315877725446651e-01,6.237836942694638953e-01,1.226044693656344782e-02,1.323033610817886049e-02,-1.796540242029106074e-02,1.395488977432250977e+00
6.656473849966642042e-01,-7.598655287369331379e-01,6.370089952253265020e-01,5.297300729380484408e-03,4.560706033871882929e-04,6.446133747099722956e-03,1.411485791206359863e+00
6.638359999358669494e-01,-6.645637162975269741e-01,6.196398878456743642e-01,-1.955109171949723224e-02,2.246412211748459106e-02,3.513996452638464170e-03,1.307893991470336914e+00
6.963707268392057559e-01,-7.593339825966596290e-01,5.680377968299327174e-01,2.687138368872546163e-03,8.292017373464553821e-04,1.489104847910987378e-02,1.396216154098510742e+00
5.987078046194593828e-01,-4.000591322769465608e-01,6.901024931633233939e-01,1.237134615716299624e-01,-2.371465316054407746e-01,2.115711624027668061e-02,1.145924806594848633e+00
6.594854930151679007e-01,-4.673914222483828151e-01,3.790266099063189231e-01,1.278253376237524497e-01,-2.328493833073670971e-01,1.230944220021628482e-01,1.135604381561279297e+00
7.299368266959238571e-01,-7.602304539319834076e-01,4.050087155761858959e-01,-6.609460725844374133e-04,-1.186611430543956305e-02,-3.620096498374507192e-03,1.357366085052490234e+00
7.065900405739770074e-01,-7.538218737272517345e-01,5.143890315048278428e-01,1.500380350869139241e-02,-5.061720543806869782e-03,2.439972789928350136e-02,1.375350832939147949e+00
6.186560881743592422e-01,-6.618065544644511355e-01,6.961272336849433362e-01,1.912476993070830189e-01,1.096398049790789885e-02,3.569686256917116440e-02,1.363339900970458984e+00
7.315625317486632584e-01,-7.513354516735724076e-01,2.998714292599345410e-01,1.555821906523793992e-02,3.018199359101699786e-01,-5.138883016733183234e-02,1.423771142959594727e+00
9.863108170237825378e-01,-1.187057849528108555e+00,1.785493152976005138e-01,1.778938458036842807e-01,1.565715084616779718e-01,-1.088553404863904922e-01,1.955627083778381348e+00
7.505124343623895689e-01,-7.627274939962414013e-01,4.408966699719186200e-01,-2.075005118569182155e-02,-1.840238852182421447e-02,1.073381871446345455e-02,1.385599970817565918e+00
9.896823730404918917e-01,-9.193882483454102195e-01,7.979047509891823431e-02,-6.921812810656759879e-04,1.626405713842015710e-01,1.133311020116871265e-01,1.689170002937316895e+00
5.950070948617909306e-01,-1.567653787503509033e-02,6.385341609954352515e-01,-4.418001674133122808e-02,2.473363045212952777e-02,-7.409198239896359894e-02,6.523573398590087891e-01
5.517266914677740886e-01,-7.269515851909681414e-01,6.211350725686435315e-01,-1.745961782525579445e-02,-6.529531172638715353e-02,-1.555609608662911723e-02,1.320233941078186035e+00
7.086617245497542905e-01,-7.740372950317421230e-01,5.140002301579413846e-01,2.150982818764975591e-03,-7.292907086272717651e-03,1.839761762868650022e-02,1.396013617515563965e+00
7.137404445866032399e-01,-7.396572207822181833e-01,4.561941319447622711e-01,8.037908769579681090e-03,-1.298963838797919171e-02,-2.767014751058787577e-03,1.343540310859680176e+00
7.610471202391507761e-01,-7.733547363942023800e-01,2.575405714095392318e-01,4.750870161684834364e-02,-3.825135867092280817e-01,1.891881513439329920e-01,1.545452713966369629e+00
8.556126670554220492e-01,-1.398914310738064382e+00,5.103981505936856511e-01,1.133512638884272422e-01,-5.412209191245475060e-01,5.370158709684607484e-02,2.312947750091552734e+00
4.196093773292911000e-01,-9.003004586567088241e-01,5.606434259385537633e-01,6.116434240801170430e-02,-4.785433529838301059e-01,7.676541789189568477e-02,1.632212638854980469e+00
6.951709653382545095e-01,-7.605454784156815418e-01,6.117035095528278177e-01,-2.232092692199436415e-03,-3.096584783495167498e-02,-3.582103359975804049e-03,1.416863560676574707e+00
6.630048663741725523e-01,-7.301088881928855523e-01,4.841795204256882368e-01,8.919728027342246554e-03,-2.236809406972110198e-02,8.880409630079404149e-03,1.313619732856750488e+00
7.552627157038260819e-01,-7.617087423450931150e-01,4.018855462819925783e-01,-2.041938406962082869e-02,-1.168640401440433629e-02,-3.188511008213022746e-02,1.376490235328674316e+00
9.878946107683913569e-01,-9.690360832235982436e-01,1.373335483443989535e-01,7.216908845348973811e-02,-1.683090328878222852e-02,-9.915977683729580716e-02,1.713042855262756348e+00
9.633959307484499801e-01,-7.652539200212233883e-01,2.580392409247448948e-01,4.962408831550207261e-02,2.738952325831103818e-01,-6.356768605211698953e-02,1.584616541862487793e+00
8.467862914211654601e-01,-5.990909648693696354e-01,2.235629014213218746e-01,-1.355074396383461159e-02,-1.014402705621747780e-01,-2.307161108047546261e-01,1.330028176307678223e+00
7.397341901005801690e-01,-7.561518620170046834e-01,3.916245658085686365e-01,-4.907853726694597941e-03,9.656539292071891767e-02,2.369292461644504494e-02,1.366694569587707520e+00
5.935155915010148497e-01,-1.817098195291048102e-01,6.047466598515925940e-01,2.212241132606857300e-02,-1.660747878310711578e-02,-6.114833968431619693e-02,7.895062565803527832e-01
7.934775592834683033e-01,-7.666899948997955017e-01,2.695747121655992506e-01,-7.394063427335824910e-03,4.723828455828810169e-02,3.119882980379964227e-02,1.378767251968383789e+00
8.031679045467559064e-01,-6.291204782992408928e-01,4.952021343859025482e-01,3.129034749837943108e-02,2.819799080108816303e-01,-1.091401042237189339e-01,1.407979846000671387e+00
5.542064888680294787e-01,-1.141629146076670320e-01,1.033908964003288800e+00,-3.326649915323461049e-02,3.670074444234763290e-03,-9.044768614156956099e-02,1.012597322463989258e+00
7.710079877380845437e-01,-9.009995967914123938e-01,2.834566830397712289e-01,5.595000406672200055e-02,-2.565170651196124196e-01,-3.885462947804757539e-03,1.557230114936828613e+00
6.564408602367397538e-01,-7.290696257631326116e-01,6.167903570496178212e-01,-2.093341246032792095e-03,-3.149389628237728861e-02,3.490415387906230238e-02,1.368546247482299805e+00
6.368678425747407168e-01,-6.387836473698152995e-01,6.583735752188822898e-01,-3.011036539970934553e-02,2.011870617178858345e-02,-3.213172212890205021e-02,1.289268970489501953e+00
5.575907422189052554e-01,-7.534094387866043796e-01,6.530937790012453226e-01,1.232156207936957286e-02,1.135977523956872327e-02,-2.288542636741645181e-02,1.362152934074401855e+00
5.462473129207741085e-01,-7.394534686890440467e-01,6.269849595957772692e-01,-1.785921013551131998e-03,3.868049188580358760e-02,-1.664604632196063985e-02,1.329916834831237793e+00
3.880744418087012648e-01,-7.648451869794112845e-01,7.623455660545073176e-01,3.169324575572310398e-02,1.088915302717676642e-02,-8.627986228461821325e-03,1.379999876022338867e+00
6.247772438814611640e-01,-7.652823306971818784e-01,6.278854551718882071e-01,7.439999951122911424e-03,-7.732116806831639075e-04,-1.056129751783961394e-02,1.391796827316284180e+00
5.815693173213634104e-01,-7.504076037526002940e-01,6.303980871761181159e-01,2.028200223459189488e-02,1.573124641626115483e-02,-2.501099744182824769e-02,1.358469247817993164e+00
6.865346633681658206e-01,-7.510130826362507728e-01,4.750334125231892024e-01,1.961014685686384221e-02,4.260794723820608004e-02,-2.911089967971660850e-02,1.347729802131652832e+00
1.663294107615414519e-01,-8.667196654520935573e-01,9.540110586500912815e-01,5.524620846099344978e-02,1.600442063822621053e-01,4.804130081048128831e-02,1.610673546791076660e+00
5.875035337215266384e-01,-7.228256661932772609e-01,5.724732670293648518e-01,-1.668439228052193525e-03,1.981336272570168033e-02,-2.367591174657218862e-03,1.303340673446655273e+00
6.808533340935052358e-01,-7.365056478645232163e-01,4.719584342225462970e-01,8.421079853274447344e-03,4.806012459568983347e-02,-1.304874902109335461e-02,1.328200817108154297e+00
4.676291348618486499e-01,-7.678297192273114691e-01,6.615368591100970752e-01,-2.244643365142658803e-02,1.308055502852495666e-01,3.102652378710325093e-02,1.363544464111328125e+00
6.500583596868891867e-01,-7.319815855618015954e-01,6.485123343395597928e-01,-1.541192473910728798e-02,-1.991180825285392836e-02,8.196027402585863778e-03,1.382028818130493164e+00
6.992227847962110276e-01,-4.948461826774671612e-01,6.105204593819426595e-01,-4.598682628471641165e-02,-2.882307166491588912e-01,-1.212105696727926313e-01,1.275697231292724609e+00
6.593874327186195483e-01,-5.835578586704944781e-01,5.958370392664423809e-01,1.825507618683098977e-03,7.960388156168380844e-03,9.599757445333293674e-04,1.212503552436828613e+00
7.162276143110417603e-01,-8.609996455397126436e-01,4.106022388332233319e-01,-2.565400430065934920e-02,-3.501634790389653862e-01,1.472055604923421836e-02,1.571457862854003906e+00
6.536332569902734146e-01,-6.664022212509341792e-01,6.371521076724838695e-01,-5.008620880041018270e-02,2.016865596596348689e-02,-1.764441802396918280e-02,1.315556883811950684e+00
5.739744610577247608e-01,-4.217837478588827294e-01,5.459125874086414587e-01,-1.438792096127011200e-01,-1.729282435937040396e-01,-6.494133389713316329e-02,1.062472343444824219e+00
6.341397785310717294e-01,-6.070462401995957435e-01,6.260891638365456702e-01,-5.814171636886098643e-02,-1.223739302190736920e-02,-1.839702150592257765e-02,1.241862058639526367e+00
6.025190959489576947e-01,-3.585187265979168370e-01,5.893144279116002693e-01,-1.249585937117848600e-01,-1.029190690306466989e-02,-1.320143797992161805e-01,1.005247712135314941e+00
6.022172361883928460e-01,-6.981981425655341411e-01,7.055061443341825722e-01,-1.316548848582587139e-01,-3.355256108526713521e-02,-1.016618989981240007e-01,1.386524081230163574e+00
6.491076777365956119e-01,-7.446469676202538412e-01,6.432560288693933703e-01,-3.851835061906659771e-04,-1.525378351428892040e-02,-5.517833233791143328e-03,1.391121983528137207e+00
6.539896685427449841e-01,-7.593199670969617010e-01,5.962676780157156742e-01,-8.876061482501258759e-03,-4.388956591055879000e-03,8.312423694178738137e-03,1.385531783103942871e+00
6.447021113334095999e-01,-7.639341274978643792e-01,6.222431083489727843e-01,-7.867573606508953404e-03,-3.241114015918127034e-02,2.515361411485437723e-02,1.399413824081420898e+00
5.963664485608176635e-01,-4.291561231065977866e-01,6.730560613434449779e-01,-4.334689303040545338e-02,-2.234770828443798790e-02,-2.876923697977792210e-02,1.070440530776977539e+00
7.717335828583251622e-01,-5.259746460568331949e-01,4.764429883678029665e-01,7.600965152928090829e-02,-2.974778071597841134e-01,7.641988298296258086e-02,1.299374341964721680e+00
6.375495272938100921e-01,-7.252014756524978178e-01,6.790568611873331051e-01,1.775589945947375972e-02,-1.102636867589859397e-02,-2.514465287423980899e-02,1.385129809379577637e+00
6.742479200831228425e-01,-7.634184340468752605e-01,6.141862680769479832e-01,-7.170215732636109514e-03,-2.315387575984314411e-03,-1.363741302592172237e-02,1.408854722976684570e+00
7.840128029911700436e-01,-7.904354515227828282e-01,3.999555923468498531e-01,3.355819324051125679e-02,-2.256296500318734632e-01,-8.976047695243809590e-03,1.475823640823364258e+00
6.400102663681466186e-01,-8.623902344833764833e-01,6.012576474931469184e-01,9.964510377890214553e-04,-1.096069335124913030e-01,-5.309828578085704076e-02,1.498328804969787598e+00
7.681275979555582945e-01,-8.573067216406113911e-01,3.462662918796853839e-01,7.178031201626208779e-02,-2.327288535575054440e-01,2.444141251898031275e-01,1.578434705734252930e+00
6.467433299504534716e-01,-7.640578494444201230e-01,5.148746728258541960e-01,-1.437989407254603759e-02,1.271294119743496820e-01,3.768555646968736045e-02,1.369333982467651367e+00
6.185187724552047017e-01,-7.708545277480595148e-01,4.681005899484283472e-01,-1.404103634418620850e-01,3.301218042216412241e-01,1.111448117875536157e-01,1.472121834754943848e+00
6.587458750154838727e-01,-7.430628182199964238e-01,5.217367204912393142e-01,-1.905636900795235761e-02,1.286217251396313578e-02,1.689163717065446726e-02,1.339485049247741699e+00
5.512541137572023464e-01,-7.268980511791613974e-01,6.075362838780835606e-01,6.491319691271656188e-04,8.308837441131828455e-03,5.389913684737185004e-03,1.307315349578857422e+00
9.986799912970513171e-01,-1.208269591956628419e+00,2.288585430942125798e-01,9.661506662409705126e-02,3.407536366942210959e-01,3.131223995357702156e-02,2.035578012466430664e+00
8.009997851395985746e-01,-9.316975197323169589e-01,2.483141335141630657e-01,-2.515451933007992538e-02,3.708760200092441894e-01,1.008104611358414393e-01,1.671854615211486816e+00
5.623973346337698409e-01,-2.580429098363083984e-01,5.634837331506403757e-01,-5.524074802881837748e-02,8.335321396243274006e-03,-3.514682231203750812e-02,8.289051055908203125e-01
6.301417905113562146e-01,-9.308235142204931423e-01,4.847529396938766721e-01,-2.672428424385240864e-01,3.193093834793676589e-01,1.287530024141458618e-01,1.673519492149353027e+00
4.865492017757572230e-01,-1.223318421921528287e+00,6.196223421161016764e-01,-2.620988004341278099e-01,5.315640378323651660e-01,2.495907461239535718e-01,2.099892377853393555e+00
6.364444549605854373e-01,-7.317228219485799601e-01,6.697981161162518404e-01,2.909353299654047608e-03,2.375940538734383142e-02,-4.513327240976105527e-03,1.385787725448608398e+00
6.248980612924870393e-01,-7.481718984558772823e-01,6.760646231252571692e-01,-4.604592571036468344e-03,8.218636994823370900e-03,7.607995301181091560e-03,1.399512171745300293e+00
7.021663439124594674e-01,-7.754652485530330042e-01,5.028770168936489426e-01,-6.923382630696329858e-03,4.294354378573408092e-03,-3.610189113359326546e-02,1.390231728553771973e+00
6.708907592660920960e-01,-7.220162803072882607e-01,6.036995188753303543e-01,-3.306816119796891773e-03,-4.637467137189737326e-02,2.135039924471449947e-03,1.362942337989807129e+00
6.169971545565000604e-01,-7.247095410580234320e-01,6.815686963503895246e-01,-1.923210654122772291e-04,3.817756812454815071e-03,-1.494025376429972303e-02,1.375389337539672852e+00
6.378108661350443409e-01,-7.510399287182814021e-01,6.702348055423226203e-01,-2.512736434877288483e-03,-9.542499391286456221e-04,4.204899886516268170e-03,1.405369877815246582e+00
6.314489070378519475e-01,-7.504277176703280094e-01,6.804367218694742370e-01,1.443043251969961362e-03,-1.742451446616048076e-03,-4.824144752304451202e-03,1.407040596008300781e+00
6.224598867598024610e-01,-7.227429870336329332e-01,6.841526124480932225e-01,4.508431440535793744e-04,-3.598222568957199809e-03,-1.616144474821729418e-02,1.377384901046752930e+00
6.277486664322982080e-01,-7.472738516234942452e-01,6.814666502361087508e-01,-1.856632476777112352e-03,-5.948407469543505813e-03,1.995415999968011122e-03,1.402698993682861328e+00
7.210589423232476314e-01,-7.755454260328634719e-01,5.102102851971483943e-01,-7.101404180107403347e-03,-1.030877954254678583e-02,-3.031182514410892676e-02,1.404261827468872070e+00
6.523806319835379064e-01,-7.591711316299913914e-01,6.581231408020971063e-01,6.772092488371559728e-03,-4.509426357562149566e-03,-9.932278972109428658e-03,1.414606571197509766e+00
6.255610405682102693e-01,-7.551920165306874599e-01,6.819335025181965104e-01,-3.316800767177026290e-03,-2.593495553725657255e-03,-5.252197518826384748e-03,1.409833073616027832e+00
6.071443291320259839e-01,-4.525862177116506402e-01,5.914242059156832321e-01,4.279038221503987660e-03,1.990802703283022987e-02,-3.359991294680025192e-02,1.054157257080078125e+00
5.996812555192665428e-01,-6.212077930586158425e-01,6.668593416593259215e-01,-9.806524688654059616e-04,-1.144778888608349345e-02,-3.029354875437739736e-02,1.257079601287841797e+00
6.778892484315186540e-01,-8.296074511553819253e-01,6.510678238576570465e-01,-3.250855188350236513e-02,-6.807002957607659333e-02,3.400623431048014744e-03,1.499979376792907715e+00
6.318427524461737166e-01,-7.137861975592737496e-01,6.923294487925424345e-01,-5.724190822025833347e-02,-3.631363781147570885e-02,-8.925568739908086580e-02,1.390487074851989746e+00
6.239986047566010718e-01,-5.537852534755931533e-01,6.390175715843368076e-01,-1.145929947849850215e-02,-1.788749732635106730e-05,-4.797128454032682787e-02,1.188439011573791504e+00
6.370247027698557885e-01,-6.693068979256464601e-01,6.513449065806971028e-01,-1.997121412423951553e-02,3.633790101515814441e-02,4.920780408920718066e-03,1.315539717674255371e+00
6.750382901318940920e-01,-7.005241689205476963e-01,6.168645647276975730e-01,2.080797199500273101e-02,1.152920194856496723e-02,4.896531829162657778e-03,1.348074316978454590e+00
5.820182942734652976e-01,-7.606881588415701501e-01,6.799215056394709578e-01,1.167563442966210174e-02,-9.953326106632300833e-04,-2.012439889777245137e-04,1.394386291503906250e+00
3.067852082550542869e-01,-5.136170953839866993e-01,7.405404751885833470e-01,1.120760747005956487e-01,2.454136433168973563e-01,-1.144666681880537190e-01,1.214385390281677246e+00
6.088120716577893887e-01,-7.526444782576593440e-01,6.119777886372013143e-01,-3.297213632395665575e-03,-1.754517355794006986e-02,-8.878053323588246809e-03,1.363479614257812500e+00
6.469448251524340110e-01,-8.907159293548134738e-01,4.978486259919671086e-01,1.505576378443671537e-01,-2.970571983874753519e-01,1.847517888651497020e-01,1.610124945640563965e+00
6.559234035387223605e-01,-7.452303203001026111e-01,6.433022792622922204e-01,3.913726273201536404e-02,2.358243427847960677e-02,6.880706357631256875e-02,1.402203202247619629e+00
6.226540218267878624e-01,-7.674406172789487446e-01,6.351558656938207648e-01,-1.238731530859638920e-02,-5.295716568071077816e-03,-1.367380456926356284e-02,1.396783232688903809e+00
6.838751992982275985e-01,-7.850639577401706815e-01,6.197760071637832269e-01,-2.774397125605008313e-02,-8.566475904058588886e-03,3.774415140259120439e-03,1.438855528831481934e+00
6.339078563597209115e-01,-7.691760457937952822e-01,6.761927948381885045e-01,-9.993056709546175448e-03,8.956699519985351909e-03,3.950915644926449206e-03,1.424903154373168945e+00
6.250460557980805909e-01,-3.963505254462251770e-01,6.214436799920013410e-01,9.371615202029066893e-02,-4.153489600791510951e-03,9.419673298469653788e-02,1.045276761054992676e+00
4.675874108315800082e-01,-6.187440659377649865e-01,8.120162006643811825e-01,-4.084845838646689736e-02,2.430911676461237625e-01,-1.533995584974488513e-01,1.387728810310363770e+00
7.220014169919664049e-01,-7.937323932143286465e-01,4.718223940306121023e-01,3.766399789081843752e-02,1.497569918965013236e-01,-4.507608131808335528e-02,1.434735655784606934e+00
4.194497388719634068e-01,-1.030033629267770534e+00,8.418669380775181121e-01,8.492052639312380746e-02,4.357200859638288293e-01,7.147329403353679111e-02,1.870358467102050781e+00
7.324754091066597583e-01,-7.425575623399433001e-01,4.836880109714715159e-01,3.409922214520608869e-02,3.426687547534304490e-02,-2.622736609729241566e-02,1.371029734611511230e+00
5.541758045369987729e-01,-2.507890873334542858e-01,5.717195586080054959e-01,-3.940923766495714464e-02,6.771983750819129608e-03,-5.217732956206309197e-02,8.218045234680175781e-01
4.859087914941159769e-01,-7.451270799774545317e-01,6.878272333829541507e-01,7.678200834030379524e-04,1.014599518365624231e-01,4.409034956914109626e-04,1.354870438575744629e+00
6.414011759721922612e-01,-7.650359413961391741e-01,6.599625114393099512e-01,5.295734943477595387e-03,-1.587746987714825503e-02,-2.172856309384926451e-03,1.416110754013061523e+00
6.524331376461918186e-01,-7.259699030556000521e-01,6.600086149048015605e-01,-9.371711643961701255e-02,1.062351359864617678e-01,4.408013180090464972e-02,1.405891180038452148e+00
5.785484393911484169e-01,-7.473810618243588166e-01,6.338972009539327601e-01,1.488780134272114399e-02,1.620888863489421822e-02,-1.679147557061569027e-02,1.355300784111022949e+00
5.752266138257234873e-01,-7.801749492009786291e-01,6.972310240789006963e-01,1.439898837838642434e-03,-2.647158475857658115e-03,2.182667995816049700e-02,1.420851826667785645e+00
2.399792370197011970e-01,-9.014558272006893969e-01,9.969543863654105609e-01,6.708038086695090885e-02,-9.456911719174818792e-03,-8.530981489453812530e-03,1.659490704536437988e+00
5.562843941252614277e-01,-7.624766008828773867e-01,6.617665136465914477e-01,1.445769292896232835e-02,1.213948209755925760e-02,-1.568818204572096711e-02,1.375198245048522949e+00
6.425775504344625189e-01,-7.666487745882358817e-01,6.520307252789311336e-01,-4.479355141184255228e-03,-1.868358353267001934e-02,-2.075225973216920233e-03,1.414372682571411133e+00
5.508081542309235523e-01,-2.778943805696439950e-01,5.649960148420432038e-01,2.704306751642231599e-03,2.180378169925763221e-02,3.020712291513400708e-03,8.367689251899719238e-01
6.108756350231636656e-01,-7.376586957364923425e-01,5.968337651286235168e-01,3.219746937558407430e-04,7.336593794211569534e-03,2.244420761846080588e-03,1.341634392738342285e+00
5.440215244825565843e-01,-7.262261006868308000e-01,6.113370759929843690e-01,-8.680066030991906477e-04,7.920069402318648255e-02,5.539131126257123769e-03,1.312433004379272461e+00
6.229559876192745094e-01,-7.586745163947605786e-01,6.099252500942260458e-01,1.858816448155842737e-04,-5.377432268284674556e-03,3.077920725162056428e-04,1.375193119049072266e+00
5.886293233737391883e-01,-7.410308861511042400e-01,6.013232865384250392e-01,-1.111263407553456616e-02,6.286641707657668506e-03,2.228852493158247228e-03,1.336241006851196289e+00
6.400806296492898007e-01,-7.282988504371125105e-01,6.348688546533507449e-01,6.969111922476463328e-02,3.939380968776442365e-02,-1.074779560341063422e-01,1.385365843772888184e+00
6.503148084934227136e-01,-7.590374235510828349e-01,6.158196581059240948e-01,1.356789792257226054e-02,-2.250568335144766043e-04,-1.017365892993928912e-02,1.392735004425048828e+00
6.466455169979532513e-01,-7.655157608325049434e-01,6.197858481372438000e-01,1.664682187180086329e-02,2.774653957846816808e-03,-1.076970899745734699e-02,1.399354577064514160e+00
6.435905448192839051e-01,-7.424558688822038288e-01,5.639420750738967092e-01,1.397430492528504639e-02,1.817866543377443661e-02,3.819697721884874296e-04,1.348573207855224609e+00
6.569514854313849295e-01,-7.589815938298791753e-01,6.110116897285178261e-01,1.075054684050577060e-02,2.896381634422658894e-03,-8.688691908868777236e-03,1.393745899200439453e+00
6.235772125991276837e-01,-6.769195841026401927e-01,6.614680497033462725e-01,-6.149526671606916559e-03,-2.294106873250736228e-02,5.747344343555521422e-03,1.320528626441955566e+00
6.380651570338597978e-01,-7.423456945177492328e-01,6.722612432517769410e-01,8.310850962457203396e-04,-2.295951582215362621e-02,-4.182816550551815733e-03,1.398407697677612305e+00
4.500069095169524358e-01,-9.172859446621404178e-01,7.882055860261102387e-01,1.131484785528107939e-01,-4.656069461881314209e-01,-7.807253498610156051e-02,1.775766849517822266e+00
6.743458330108303977e-01,-8.101476356933414724e-01,6.449737075562008703e-01,-3.985605908363570177e-02,-7.341955759834149775e-02,-7.422795180955907204e-04,1.477132081985473633e+00
6.247907843724330723e-01,-7.477394084891230142e-01,6.096847492032295701e-01,1.562015237475613411e-02,-2.251507471011417183e-02,6.377591708086510595e-03,1.365909457206726074e+00
6.238235648815044776e-01,-8.169090915672152509e-01,5.108945059618872353e-01,2.670198811653348714e-02,-2.939160326253170141e-01,2.629602619210761466e-02,1.479573011398315430e+00
6.942018236696297917e-01,-7.996045916767768880e-01,5.500273769872232599e-01,2.049496826343484221e-02,-4.597348309136214256e-02,2.446435539754108698e-02,1.430479407310485840e+00
6.695127542171208646e-01,-7.633842342408729831e-01,5.564675228732115508e-01,1.573993888228928870e-02,-2.429361361036697087e-02,3.034898681654701197e-02,1.381762623786926270e+00
6.575618968326746305e-01,-7.652761229660071107e-01,5.932680051210741379e-01,1.058822232262833854e-02,-1.658671878510955058e-02,-7.700618035144648696e-03,1.392286419868469238e+00
6.141546458925062346e-01,-7.321253360698548596e-01,5.338405704054757228e-01,-6.394066072438712479e-03,-3.800720792156613709e-02,-6.099642786948533853e-03,1.309718608856201172e+00
5.736244290018863712e-01,-7.386390544783417722e-01,6.364917200358399807e-01,-1.334259351172106464e-02,-4.266974053310888804e-02,-1.892148983427135653e-02,1.347425818443298340e+00
6.102434178484528182e-01,-7.782536476480955701e-01,6.279308580976966647e-01,2.480449098161803534e-02,-8.778740353189015688e-02,-2.540848622583318644e-02,1.407017588615417480e+00
4.493179440552973469e-01,-7.514144125549933051e-01,7.085245301644975680e-01,-3.015174612242071950e-02,1.515403522110612619e-02,1.781276870795553760e-02,1.350759863853454590e+00
5.993843962166041095e-01,-7.492462856589084952e-01,6.005000369095376822e-01,-1.068516823108118033e-02,-1.555861121545257762e-02,-5.815030412740374542e-03,1.349622488021850586e+00
6.517945910174196555e-01,-7.564768866751306886e-01,5.662613820798851894e-01,-2.192097935284097188e-02,-1.032609958616687203e-02,-1.659674621534103223e-02,1.368458390235900879e+00
6.793046395004770366e-01,-7.473905689697560861e-01,5.110031516772235438e-01,-1.384699436569683355e-02,-1.368060235315052449e-02,4.363470573319376718e-03,1.350875139236450195e+00
3.865608034912701441e-01,-7.367082552531368789e-01,7.299954896875783250e-01,1.415102086132735866e-02,2.011325398570059861e-02,-4.135956615198867203e-04,1.329385280609130859e+00
4.155628398985972138e-01,-7.412753414244290795e-01,6.820722767088299721e-01,-6.253384819847523923e-03,9.501933491258687803e-02,4.537624733320513339e-03,1.320937275886535645e+00
5.208026316326548333e-01,-7.327032648184881314e-01,6.546314910233156370e-01,9.110553084367895016e-03,1.509617651340744264e-02,-1.425542735992778136e-02,1.326078772544860840e+00
3.940554686602618650e-01,-7.578184280537143547e-01,7.058661430361665712e-01,-1.056962054780214702e-03,1.363893247331240677e-01,7.731363571430641297e-03,1.356169104576110840e+00
3.376172675540388135e-01,-9.973230738963596576e-01,7.792675735751715127e-01,1.010071967947359928e-01,3.965094618848046815e-01,-6.787677279100826078e-02,1.755786418914794922e+00
5.981019610084503668e-01,-7.604338543016341267e-01,6.653907768271172252e-01,-1.357517952659242043e-02,4.211868704849407695e-03,4.834315306534001794e-03,1.393641948699951172e+00
4.961692164325959276e-01,-7.328307137204078670e-01,6.607695355155936978e-01,-7.333140269162128494e-03,1.123302943902337037e-01,3.736228098035180960e-03,1.333373665809631348e+00
5.309741105448943788e-02,-9.202804362653079773e-01,9.957397797390590277e-01,-4.521355333727884729e-02,6.285152203002596083e-02,9.749612362287050568e-03,1.664888978004455566e+00
6.073522882326021222e-01,-7.544697351249330941e-01,6.391474363726403762e-01,9.159202184603940609e-04,-3.358245692190437500e-03,-1.853352594097587569e-02,1.378381729125976562e+00
1.025648364705516347e+00,-1.290088776826602057e+00,1.724052945931860426e-01,-4.870114893042828963e-02,3.299797998844983260e-01,2.258369498979941881e-01,2.145124197006225586e+00
4.290243558307851313e-01,-7.453676348596081080e-01,7.309217582759236498e-01,2.914608715684199533e-02,8.868343557631395979e-02,-1.932407458557201460e-02,1.360936284065246582e+00
7.220790848979141696e-01,-3.944153290729615069e-01,3.191726458248290710e-01,-2.990964772546090417e-02,-1.449417779469175105e-01,1.491640139748230676e-01,1.044752836227416992e+00
7.007778903210890586e-01,-7.811120280059674625e-01,6.554333960693439209e-01,3.431441764424662810e-02,-7.479550347158668566e-02,3.790584204139237079e-02,1.468156814575195312e+00
6.794738828199343716e-01,-7.451492102226318082e-01,5.901520192548777022e-01,9.802524044308130909e-04,1.709602528346286380e-03,1.709306077168363386e-02,1.382449865341186523e+00
1.010760209224177864e+00,-7.583478583302248888e-01,2.215869668268482529e-01,5.724195084167044839e-02,-3.290949185340197314e-01,1.215743260050931307e-01,1.653930544853210449e+00
2.848927440733701744e-01,-7.545929248631872976e-01,8.287244817559661358e-01,-2.600569451007090499e-02,1.064954993828810120e-01,-2.345729080494151492e-02,1.406873226165771484e+00
6.156637491948493413e-01,-7.615672979344596527e-01,6.462269075678417352e-01,9.194194409750767322e-03,-3.399770615378318057e-03,1.436317925766473873e-02,1.393089771270751953e+00
6.102478791829951676e-01,-7.330866232168732344e-01,6.655819612736917357e-01,-2.499353166590397371e-02,-3.565827847441843668e-02,8.815162880172448465e-03,1.373995423316955566e+00
5.113893156087958580e-01,-7.297159919591175159e-01,6.055672601914982023e-01,2.122917304012414408e-03,-4.473196877315545328e-02,3.007656207442836824e-03,1.293112516403198242e+00
6.561423156156989123e-01,-7.581174957422319727e-01,6.599872466264622428e-01,-4.214154381136445832e-02,-1.488211548612025995e-02,8.851077367515763211e-03,1.418383121490478516e+00
5.624626233534972819e-01,-7.481589690468352094e-01,6.121624643148322331e-01,3.444725726729067072e-02,1.450671315287788421e-01,-2.259208839437354052e-02,1.361455559730529785e+00
8.729747025151632922e-01,-8.981800473768672965e-01,3.670996806051057271e-01,3.190901896097505380e-02,1.682844416262197496e-01,5.242943694653656728e-02,1.610334038734436035e+00
5.702380360638539258e-01,-7.846696122990374223e-01,5.782002371820466058e-01,5.169034887639667800e-03,1.608112179284266197e-01,1.496883805740633830e-02,1.387428998947143555e+00
6.406760453445492498e-01,-7.720439572158880326e-01,6.410026161146846757e-01,-3.227182712826580195e-03,2.855128799021349698e-03,-2.906096478692477957e-03,1.412912011146545410e+00
4.699478516992378063e-01,-7.827301406392852545e-01,7.064903677974152529e-01,-5.841662376531248958e-03,-1.869244574980093998e-01,2.086331158078836776e-02,1.423972129821777344e+00
4.899830308918539656e-01,-7.541993725572800900e-01,7.110914357189921375e-01,-6.705960632130149833e-03,-1.661109655060026211e-02,6.628813302734411217e-03,1.368602395057678223e+00
6.766280897554918239e-01,-6.701125000100053297e-01,6.013368367223368427e-01,-1.312301379304083894e-02,4.733727329090729567e-03,-4.997280420379635393e-03,1.310969114303588867e+00
5.710258131779106794e-01,-5.400634263342352082e-01,6.868711373443268098e-01,-1.513719674448986141e-01,2.073459061791818048e-01,-4.893366216549194930e-03,1.254768133163452148e+00
4.075912150972255121e-01,-7.830878973397779053e-01,7.528082956476275234e-01,1.378057558109837925e-02,7.802084867950850877e-02,-6.010076950769564254e-03,1.402452945709228516e+00
4.000049380447635583e-01,-7.584041007046683491e-01,7.583903151112793006e-01,2.918772633949028028e-02,-1.426223259277538576e-02,1.795220956612591720e-02,1.374642252922058105e+00
5.067789054493151424e-01,-4.482207748420196092e-01,9.147230343086167892e-01,-1.453697038404652420e-01,2.101711121239976665e-01,1.165885223185672420e-01,1.305649518966674805e+00
2.992673402406146321e-01,-9.315392882043325162e-01,8.384669815333973819e-01,4.287640095899306059e-02,3.393651149247350896e-01,2.379704164738337402e-02,1.679878473281860352e+00
3.769014257303130444e-01,-8.274901522360836870e-01,7.516772848154122943e-01,-2.149782990092761678e-02,2.514659620155605957e-01,2.521575107761322987e-02,1.495122790336608887e+00
6.153322637346027024e-01,-2.855396152332781989e-01,4.930143092194340104e-01,-1.176238085326032634e-02,1.335061426980911348e-01,-8.489087465762584772e-02,8.898568153381347656e-01
6.483490283414847788e-01,-7.610237164952866618e-01,6.412326735943817413e-01,-2.112765536734512260e-03,-1.016263448372055345e-02,7.856705744585141009e-04,1.405943632125854492e+00
6.234820035277157668e-01,-7.229419324493006060e-01,5.650613504074126769e-01,9.946090246319659600e-02,1.961408768127707591e-01,-1.180235162671052079e-01,1.387260317802429199e+00
8.831880505601382714e-01,-5.515660401892117370e-01,4.187647739181263873e-01,8.881609664853187813e-02,2.720088875104149650e-01,-1.460740275405384148e-01,1.384745240211486816e+00
6.240127758385292100e-01,-6.479259295215532566e-01,6.522585166977359350e-01,6.658411844380662976e-03,-2.985823173869964903e-02,-2.649400222844621594e-02,1.288202643394470215e+00
6.266156214824527559e-01,-5.385966978320347875e-01,6.158737743642774820e-01,3.785043468296778180e-02,-2.266314191484868762e-02,-9.813405901042593707e-03,1.162517189979553223e+00
5.048663580783094851e-01,-8.695486810247431420e-01,6.866507526959542140e-01,-3.981280616579312842e-02,2.163571844091448648e-01,2.764117898535173659e-02,1.522953748703002930e+00
6.630813168294749094e-01,-7.247197477552186351e-01,6.384745487947837139e-01,3.191746290855562024e-02,-2.010207199672753645e-02,-1.103468789598754767e-02,1.377345919609069824e+00
5.351591737271617077e-01,-9.172332341925721888e-01,7.223872399412807344e-01,5.266285204828446628e-03,2.222655511394703576e-01,-9.420640409378400843e-04,1.601473808288574219e+00
4.184129934092428171e-01,-9.234741624816878991e-01,6.281077748559021900e-01,-1.891942982891284958e-02,4.035473106820664513e-01,1.127146793080678611e-02,1.617413401603698730e+00
7.947846938902076719e-01,-7.467010605486532615e-01,3.558415110651939051e-01,-2.101554179753762491e-03,8.300603813274467016e-03,-7.185373044551843225e-03,1.375717878341674805e+00
6.135153566519793156e-01,-7.571083695521849677e-01,6.158513890733792184e-01,1.582188127207411615e-02,9.565133887890311590e-03,-1.311697794751733905e-02,1.372354984283447266e+00
6.555359864623002686e-01,-7.647585837185371105e-01,5.938231693988460513e-01,3.548495024022108556e-03,9.176785067734326631e-03,1.326694499887461944e-02,1.390759944915771484e+00
5.146763760690420408e-01,-7.520542926486037949e-01,6.712472807273505149e-01,-4.431158926534042169e-02,8.781549674568388253e-02,4.357831269523565476e-02,1.364615917205810547e+00
6.420443373695172706e-01,-5.681235876749628488e-01,6.336883507786911229e-01,-3.181765986057789181e-02,-6.371653026119213255e-03,1.129411896879769089e-01,1.223065853118896484e+00
4.655675124621482808e-01,-7.473101871756919756e-01,7.010099294967594430e-01,-1.163003945025556547e-02,1.009904053069578950e-01,8.099299578242413061e-03,1.357670068740844727e+00
7.643553118528721990e-01,-7.513472617521643748e-01,3.827842419950923114e-01,1.248807991518120601e-02,4.834143307209975288e-03,-4.180351230515447214e-02,1.367619514465332031e+00
6.589244600518207040e-01,-8.822529234878190296e-02,4.979270471166547529e-01,1.421129161832228316e-02,6.951597364872517948e-02,8.264353912082814113e-02,7.067226767539978027e-01
7.395411954557720158e-01,-7.493537171928488227e-01,4.032459656284091976e-01,2.418321678514241332e-02,6.458383671273436322e-02,4.776600826668027204e-03,1.357766747474670410e+00
6.976486404239095052e-01,-7.663226153032894894e-01,5.872101864687867545e-01,1.156397439431045004e-02,5.130012884352799958e-03,-1.398546104884008934e-02,1.412372708320617676e+00
6.440066335278126219e-01,-6.094816303199250829e-01,6.266520431849031958e-01,9.524276450657501170e-02,-2.877725017577130104e-03,-5.530441213050839994e-02,1.259442090988159180e+00
5.654527413115495449e-01,-7.723942999833265377e-01,7.123778641394092892e-01,3.120894507127759676e-02,1.325909499203630111e-02,-2.605554092939069144e-02,1.418968319892883301e+00
6.423874606284178945e-01,-4.755799109441116723e-01,5.940211962981996052e-01,6.688701630018464850e-02,-9.971041822088392084e-03,5.975390219868113644e-04,1.100835800170898438e+00
5.225644590736922002e-01,-7.700106995572961743e-01,6.803659043262939576e-01,-2.868890300099731158e-02,-6.660238180289981477e-03,-3.591760887664234483e-03,1.379225492477416992e+00
6.677341723547420838e-01,-5.943306927877172186e-01,5.958446034082611753e-01,1.942906924481825268e-02,-6.443844797922381601e-03,-2.083145660858355674e-02,1.228741407394409180e+00
6.300624541333779138e-01,-6.079060006484530154e-01,6.345502878046098694e-01,6.879737387687050176e-02,6.060997240904416467e-03,6.413112922621535920e-03,1.246023535728454590e+00
3.202797363586739610e-01,-7.759272225924690458e-01,8.404965828377426451e-01,4.355115442286938698e-02,-1.127205773512244408e-01,2.436959959501169143e-02,1.445043325424194336e+00
4.594762904346245125e-01,-7.394600845920115129e-01,6.782493566059345502e-01,4.690555589389103393e-03,-1.284102228274190127e-01,-6.957983074025189674e-03,1.340628147125244141e+00
6.000376455602065562e-01,-7.512351146637351595e-01,5.797266325815280119e-01,-2.209141171340875051e-02,-3.615376652464896701e-02,-2.343603147695569322e-02,1.343851923942565918e+00
5.106812877262187911e-01,-7.633413405700362198e-01,6.771795853676630950e-01,-3.405196380000058420e-02,-1.021741859504345928e-01,-3.913032648574944761e-02,1.379263877868652344e+00
6.145193258913899115e-01,-7.625618947652593738e-01,5.225448867808271114e-01,-2.929515754598523841e-02,-9.613100437896483774e-02,-2.777068792787821747e-02,1.345647573471069336e+00
5.825245891700583378e-01,-7.384351652595243509e-01,5.961844724221347924e-01,1.154920048149448569e-02,-3.022358486220996787e-02,1.199493966218840788e-02,1.329186797142028809e+00
5.680302655389735111e-01,-7.333201176824910572e-01,6.129994781440485374e-01,-7.752121522694123065e-03,-6.793070744102592921e-03,-1.493916648924332666e-02,1.324780702590942383e+00
5.763242604558601601e-01,-4.631219196807532246e-01,6.118076436974048127e-01,-2.134518299916467188e-02,1.958196991654323135e-02,2.045269236721787010e-01,1.116513133049011230e+00
5.808751249424282115e-01,-7.240443274845377308e-01,5.880681704431978130e-01,1.923813086290394663e-03,-6.037156455743151670e-03,9.979264588135786009e-04,1.308578014373779297e+00
5.604787386581370212e-01,-7.439768285042688278e-01,6.295067705044836703e-01,-8.222249892555106047e-04,-1.345258990796660212e-02,1.424165570710364710e-02,1.340733647346496582e+00
6.066048472531151425e-01,-7.405994214701473455e-01,5.898464277631716435e-01,9.439775859115201798e-03,-7.618035625616526897e-03,1.210375840793942795e-03,1.339070200920104980e+00
3.144739335333182062e-01,-8.357240585237094566e-01,8.640896030899170022e-01,5.899019395782840319e-02,-1.161466149518285418e-01,3.088835256864821271e-02,1.520187973976135254e+00
6.627866357727379976e-01,-7.568369031568344951e-01,6.122632204852067606e-01,-5.292421175780388787e-03,4.281544550385134144e-03,1.151928843843745380e-02,1.395240664482116699e+00
6.928902982138746003e-01,-7.486476218365668567e-01,5.291227844288266535e-01,-1.697676459663406343e-02,3.810228578118274312e-02,-9.566025626278101129e-03,1.369039416313171387e+00
6.620026145789731364e-01,-7.382872390123744744e-01,4.681678489120036923e-01,-1.040519176442737496e-02,6.461143379084653693e-02,1.097002334862711044e-02,1.319154500961303711e+00
5.924569574194867849e-01,-4.464711521931831184e-01,6.033032600357248754e-01,-2.776467592188138975e-02,2.165807140431078373e-02,5.403096451634073483e-03,1.046214699745178223e+00
6.027934296495609523e-01,-5.108896483677272116e-01,6.425221799934548450e-01,-1.977341390209078672e-03,-4.030008852279445830e-02,-8.402595271682476719e-02,1.145503640174865723e+00
6.681850888422616874e-01,-3.995042623505056234e-01,6.029645550024365086e-01,-7.563936222135167475e-02,4.917228747863653000e-04,1.037055664172942954e-01,1.060192584991455078e+00
6.700593348109958880e-01,-7.565887584985775405e-01,6.562721376831874842e-01,-2.365299106251364438e-03,-9.854151852745270460e-03,-1.845426233067104863e-02,1.420272946357727051e+00
9.476113795284072383e-01,-1.045822239558739541e+00,2.164638318179432086e-01,4.527566957794488915e-03,-1.111737215105581128e-01,-1.894532484111728921e-01,1.787645936012268066e+00
9.554681791985255579e-01,-8.978495968464845767e-01,1.320059270720905231e-01,3.661601856653011466e-02,1.943998146614463684e-04,-1.293224279831898561e-02,1.609740257263183594e+00
7.811122401420852457e-01,-8.865121546659331386e-01,4.280063817109986402e-01,-4.470368924353246981e-02,1.927456906875668896e-01,2.391210592344891750e-02,1.560759544372558594e+00
7.197706863042191427e-01,-7.527337710032921958e-01,4.338789450449602736e-01,-1.238128321523984318e-02,7.379964920419250507e-02,-1.019031443116566633e-02,1.358726263046264648e+00
1.007550760919894817e+00,-9.481698267952338721e-01,4.391660535186703990e-02,-4.624577664730399745e-02,2.709332320560829677e-02,-8.697684222234045026e-02,1.702981948852539062e+00
7.986616449276976448e-01,-1.034497774826467431e+00,3.927544431110934764e-01,1.021050088762189278e-01,-4.316467758504034524e-01,-7.392904508207949477e-02,1.840589880943298340e+00
7.653160341141891365e-01,-7.386176769062443581e-01,3.719019126593366975e-01,9.975168704914307016e-03,-4.929607604121316600e-02,3.490663077153821712e-03,1.353716373443603516e+00
5.793061900733158520e-01,-7.288136751610091446e-01,5.564762912734917411e-01,-6.941682084919797990e-03,-5.625667747231254817e-02,-3.969749790652393230e-03,1.300584793090820312e+00
5.850389071968640220e-01,-7.368108382264755285e-01,5.381228656411949363e-01,-1.237653249086844744e-02,-6.449067919090141487e-02,-1.474090781333349358e-02,1.304247140884399414e+00
7.133489309334510864e-01,-7.560839029352668383e-01,4.534272521215199081e-01,-2.396562277366407964e-02,-2.199954569101396709e-02,-2.593685797398414747e-02,1.360164642333984375e+00
8.007694015530376630e-01,-7.668185307333598155e-01,3.257855341622402090e-01,1.433472481065176454e-02,-1.981104419394247654e-02,2.195327541505354141e-02,1.393413901329040527e+00
7.414113753374226290e-01,-7.506225536727737513e-01,3.603049012103870519e-01,1.561998028426640414e-02,7.374877598425663705e-02,-1.859999983183222710e-02,1.349396228790283203e+00
8.384306492448042603e-01,-5.618852008442184465e-01,2.665774930518452490e-01,1.115933276868522062e-01,1.372533367865233500e-01,-1.052715269586977781e-01,1.270529985427856445e+00
6.098664627454157827e-01,-4.315162767491192986e-01,4.513909699084370231e-01,-4.080883005031260558e-02,-2.717217005036710598e-01,-9.279288746261130094e-02,1.094022154808044434e+00
9.186884395361928357e-01,-8.695726741943645699e-01,3.927800664580146095e-01,7.089245176024438176e-03,-4.307328702534225506e-01,-1.886814960657282325e-01,1.788166999816894531e+00
6.568651727022073450e-01,-7.659217007130891819e-01,6.139227096309007869e-01,-1.242885741621274631e-02,5.853496006626558810e-04,7.920673773982171359e-03,1.402041792869567871e+00
6.385398125853284368e-01,-7.626761061693044796e-01,6.598992756809944904e-01,-4.407685072671057268e-03,-1.473163429651826693e-03,-5.701589666035173157e-03,1.412074327468872070e+00
6.470448949894596069e-01,-7.589166133623816979e-01,6.140036363406344844e-01,-4.100900333433512776e-03,-1.987312411513867446e-03,1.220709745170961945e-02,1.389918684959411621e+00
6.509985442882394446e-01,-8.340194540871945783e-01,4.723208536259013157e-01,3.151368620786890867e-02,4.008949739974633220e-01,-1.681949869519399898e-01,1.594322085380554199e+00
6.528019428795124313e-01,-7.661058826951722134e-01,6.409341010892406487e-01,6.607767627612305510e-04,-9.752984434643527031e-03,9.812831603191907604e-04,1.413113713264465332e+00
6.289442486132064136e-01,-7.512008214766300318e-01,6.768910657138427212e-01,-3.386599253361903625e-03,-1.086848225323357349e-02,-3.224817853766634695e-03,1.404881834983825684e+00
5.812382398664739380e-01,-5.805106039158974829e-02,5.679159626389429505e-01,-2.509765949779900127e-02,5.576877272826581688e-02,1.997845441170043035e-02,6.424710750579833984e-01
6.419475095534215026e-01,-7.629708119262429422e-01,6.605721331538242369e-01,2.377057634170613937e-04,-1.037327194147129837e-02,-4.855857831474063094e-03,1.414461851119995117e+00
6.361293993496108801e-01,-7.532613506947239967e-01,6.614721928612118385e-01,-9.090123575564246303e-04,-1.109388363879791617e-02,-2.363174215388506947e-03,1.402372479438781738e+00
6.348202082675120650e-01,-7.545057940411260544e-01,6.765934737652357089e-01,-5.421113272172569178e-03,-8.610336399789631640e-03,-4.211427455584143553e-03,1.410805463790893555e+00
6.091988614001524471e-01,-7.229241861881633424e-01,5.506866042911704451e-01,7.298773425089153050e-04,9.567198863709613227e-03,-6.294196616878365395e-03,1.304003477096557617e+00
5.731111132690758225e-01,-7.400661790408794571e-01,5.920744536969063665e-01,-5.468490852913435521e-03,4.770798373225095673e-02,7.143754842968043015e-03,1.325430989265441895e+00
6.451096606788232490e-01,-7.418217549935570698e-01,5.366630784306914981e-01,-1.488265418577707638e-02,2.476460185678122303e-02,2.037337679190730222e-02,1.337415814399719238e+00
6.135855913167080899e-01,-7.602764037566518418e-01,6.485521766044126668e-01,1.256893121337474863e-02,2.227152734209140571e-03,4.162226331664256596e-03,1.391869068145751953e+00
6.077370000807713613e-01,-7.525230579799745412e-01,6.036703486432832833e-01,-1.407571842717812889e-02,2.347716286122865370e-02,1.979222350384910248e-02,1.359490871429443359e+00
6.150208309069591373e-01,-7.470102647599231593e-01,5.614762449215293660e-01,-1.673452648859371020e-02,2.291129266003726767e-02,1.705258002464416292e-02,1.337293386459350586e+00
5.922107904644308141e-01,-7.298934907073197920e-01,5.895871977936613106e-01,-4.374666821103772793e-03,2.100223520625721808e-03,3.394926407659188891e-03,1.320834279060363770e+00
5.656923983586753524e-01,-7.329965585113743520e-01,6.149487427755297997e-01,-7.309598115550349287e-03,5.116328982748032106e-03,1.351651047022456135e-02,1.324301600456237793e+00
6.214206835257524153e-01,-7.567111713381082794e-01,5.899038859540244317e-01,-2.083323877070900748e-02,1.640552291719213698e-02,1.403083338846632111e-02,1.363637208938598633e+00
5.996522843543214965e-01,-7.301684592354359404e-01,5.793942175668445049e-01,-5.636618286271415784e-03,1.079812051963269411e-02,3.461923664350074516e-03,1.319990515708923340e+00
5.926257546231511464e-01,-7.403261549166847422e-01,6.118884089964919948e-01,-1.823362674413866145e-03,8.633067590840339672e-03,-6.418077969752008843e-04,1.342774271965026855e+00
6.110891168077672297e-01,-7.501556354563998497e-01,6.080509329659331552e-01,-8.055426831030918638e-03,1.309428350015501676e-03,4.043714096476648187e-03,1.359819769859313965e+00
7.243204188858209935e-01,-7.567572008724274824e-01,4.157944559614096258e-01,-1.824170901728503630e-02,1.793268377749791115e-02,3.324427215715847206e-02,1.355399131774902344e+00
4.530115677524569895e-01,-7.655877411217282269e-01,5.818112590130575246e-01,7.352024336136658844e-03,2.262226086095972255e-01,-8.527880494822134491e-03,1.346268653869628906e+00
6.020069258247505717e-01,-1.005609705894843664e+00,5.085173518191739017e-01,7.468963965352179435e-02,4.003300699945708807e-01,-9.963333740716395770e-02,1.723422408103942871e+00
6.628315458537281657e-01,-7.524211976672937618e-01,5.281581884886114020e-01,1.177269058886120691e-02,-2.939814417678649622e-02,-4.877443333289784196e-03,1.354090213775634766e+00
7.458486065455032232e-01,-7.570202313352214496e-01,4.682983256252420401e-01,1.099734816984884560e-02,-1.184734026925739550e-02,-1.153196871130545732e-02,1.385536074638366699e+00
6.716284978026776376e-01,-7.454940830432323917e-01,4.940867425331241236e-01,1.949049594339035199e-02,-3.048851386022099347e-02,1.167474859886822106e-02,1.338841438293457031e+00
6.556235184748953060e-01,-7.611116283342160838e-01,5.876859953963111671e-01,1.237643564976000955e-02,-1.090966877182005489e-02,-5.010643098715678381e-03,1.384339690208435059e+00
7.524308263363133076e-01,-7.405223580178177389e-01,3.973205616281405006e-01,3.450820380461578317e-03,-4.154553311089190237e-02,7.485998816506098628e-03,1.352860450744628906e+00
6.793308722123697629e-01,-7.632277886713724202e-01,5.896098267388820702e-01,1.025124325599634147e-03,2.036018683530029568e-03,-1.019330469570327649e-02,1.399973154067993164e+00
6.756239286174565706e-01,-7.560951074416074613e-01,5.137343786627350806e-01,2.299861806717906978e-02,-7.287099166622014457e-02,2.857530793903263408e-02,1.365362286567687988e+00
6.565528567787470848e-01,-7.586710285834076251e-01,6.126661468567420332e-01,1.241413674033366686e-02,-3.689886188320403403e-03,1.279579069094530404e-02,1.394155502319335938e+00
6.393534986447264590e-01,-7.024801565739805520e-01,6.111106545450009087e-01,8.209784115431124213e-03,-3.198123721132254370e-03,-1.600180767283329933e-02,1.328314423561096191e+00
9.238931134544730028e-01,-1.322721379713408529e-01,5.479256895309695397e-01,-3.026499962596339646e-03,-1.288709431243834636e-01,5.136807346826376131e-02,9.578723907470703125e-01
6.762890737348159487e-01,-7.454678055273032955e-01,6.267069301342205190e-01,6.403220435555823445e-04,1.209903003728887878e-02,8.096435075268124603e-05,1.397783160209655762e+00
6.580977883567233899e-01,-7.628204482528301300e-01,6.432371975485569049e-01,-9.977685263891011500e-04,1.856009040075283154e-02,1.251037956095328108e-03,1.413914799690246582e+00
5.808164965053261852e-01,-1.001918367250117736e+00,5.727095660884229389e-01,-3.765296268803395435e-02,6.047916848944330237e-01,2.019112346191029306e-01,1.927734613418579102e+00
5.575641804967559345e-01,-7.297802342710533186e-01,6.167127848854070393e-01,-7.560279748678294318e-03,5.588630292818389661e-02,3.272805854206198555e-03,1.321541666984558105e+00
4.945710042697732400e-01,-7.285617439293937680e-01,6.783367794847515730e-01,5.021634288670730195e-02,8.620950726624172777e-02,-2.383777210929472617e-02,1.336472749710083008e+00
6.473296236502110723e-01,-8.795270641160137792e-01,4.061668695440684984e-01,-5.928922542106364324e-02,4.683870630747086761e-01,1.765148590511774959e-02,1.640387058258056641e+00
5.766822310754555758e-01,-7.320107311533478045e-01,5.897085002161841505e-01,-2.799955945605251458e-03,1.767038259620994436e-02,4.372772347479830964e-03,1.315641283988952637e+00
7.436405582450844598e-01,-7.558980160354930034e-01,4.761075180794798190e-01,-8.676208785517223673e-03,-2.256406639779384715e-02,1.614274958634587601e-02,1.386199355125427246e+00
5.969896002022947457e-01,-7.540382264560754333e-01,6.255272177559547675e-01,8.438000491454322738e-03,-2.527096615778391762e-03,1.442890546008103979e-02,1.365834236145019531e+00
6.098741551145168138e-01,-7.619384876669875739e-01,6.581571995857270485e-01,1.354380284148242429e-02,-2.783574937559674025e-03,1.155472319972616208e-02,1.396929025650024414e+00
5.720809654861525040e-01,-7.551196269807995964e-01,6.463913276397657004e-01,-1.852528004255555097e-02,-2.416610224381625285e-03,-2.037579751039624715e-02,1.366711616516113281e+00
6.228105689593339545e-01,-7.450582743780835848e-01,6.103699263734282399e-01,-1.888720542065678090e-02,-2.296441854416011313e-02,-4.921479157683075235e-03,1.362691402435302734e+00
5.727243379005813040e-01,-7.541667291277551755e-01,6.518062190301641134e-01,-1.820170044559422246e-02,-6.410539772677094003e-03,-2.090563354453631520e-02,1.369034409523010254e+00
5.773184788774246012e-01,-7.359807955116693945e-01,6.173749317066615783e-01,1.218771706634395879e-02,-3.792592121462082938e-02,9.871574176872299072e-03,1.335671663284301758e+00
4.437482622812564115e-01,-7.335196194823737637e-01,6.683876272464031043e-01,2.100559520212892835e-03,-6.972081686057199357e-02,-7.805155785958678601e-03,1.309832930564880371e+00
4.850834130346348139e-01,-7.288734539205400376e-01,6.574538901758437692e-01,-9.852977390743181477e-03,-2.637681640930077467e-02,-1.145178991203203885e-02,1.309742331504821777e+00
5.521187025725076136e-01,-7.236903748460552510e-01,6.075629608014927463e-01,-1.945482623142052179e-03,-1.225918458334440860e-02,-1.405788015267763012e-03,1.304594635963439941e+00
5.983383224168061787e-01,-7.303143078996462423e-01,5.834286955130330021e-01,-5.599659210370209854e-03,-2.720399382381532075e-02,-6.784229388218111431e-03,1.322188615798950195e+00
7.462698919475821979e-01,-7.611993580024182249e-01,5.491318227159542875e-01,4.939521408987272710e-02,-4.782075512418695329e-01,7.584938044130524158e-03,1.645505070686340332e+00
6.931313512319702275e-01,-7.418788338662909432e-01,4.683697510420886112e-01,9.171587290061836292e-05,-3.973776043028849625e-02,3.766120720785335902e-03,1.338662266731262207e+00
4.709900675985247975e-01,-8.010324701888593690e-01,6.417248559247300532e-01,8.509174339949663463e-03,-1.684467583342955377e-01,1.312681664887796647e-02,1.396505355834960938e+00
6.815847545175596212e-01,-8.186503196616127243e-01,5.772698559207851687e-01,4.147240168085369362e-03,-1.843858397204960475e-01,4.312250635961020762e-02,1.487519621849060059e+00
1.627333861853177133e-01,-9.259829054847209528e-01,8.613099068078772236e-01,7.306078619323010115e-02,-2.625712709217553620e-01,5.377513441289035606e-02,1.632600307464599609e+00
5.712888678440211088e-01,-7.643325120885422486e-01,6.530943195348988262e-01,1.611042862846006826e-02,-6.626660672686718323e-03,2.190028749315186055e-02,1.379197955131530762e+00
6.480345651719967570e-01,-7.137892027860893718e-01,6.411431564363692104e-01,3.489465718017011487e-03,-2.721640282009694586e-02,1.731776533500767670e-02,1.359553217887878418e+00
6.326105183671759669e-01,-7.689282009610031166e-01,6.924516343815023678e-01,-1.509971867617581898e-01,6.941622916843438740e-02,5.326481563366104038e-02,1.463943004608154297e+00
6.666257774779194012e-01,-7.274926801784411534e-01,6.329093703494295120e-01,-6.342690916511345423e-02,5.280651314486027419e-04,1.119928728993316996e-02,1.382079720497131348e+00
6.308182088996905357e-01,-7.113815806706484945e-01,6.530325928769484811e-01,-2.125565864541276509e-02,-1.862276238846111848e-02,2.568220730465735693e-02,1.355058789253234863e+00
6.782321000228306307e-01,-7.429786177046213691e-01,6.515547812079330869e-01,-3.584640053402999432e-02,5.976571504638074350e-02,1.317777325079154405e-01,1.431539177894592285e+00
4.155290768109162203e-01,-5.858505906405339081e-01,8.593813090795072718e-01,1.523386472573590167e-01,2.564115897000712185e-01,-2.293266071125525316e-02,1.382993221282958984e+00
6.133296436121926654e-01,-7.607776275926450005e-01,6.559926433954204050e-01,-1.023836365490872653e-02,3.140807515604951330e-03,1.443016468302442228e-02,1.396274805068969727e+00
5.838827390903778003e-01,-7.579110899884905495e-01,6.734419029632733311e-01,1.324763283424531049e-02,4.307298923635463454e-03,3.703800007080653052e-03,1.388965368270874023e+00
5.156126256712300071e-01,-6.727004203504778346e-01,6.960607873176820615e-01,1.887067757366338652e-02,-3.876198138484836242e-02,-1.357907317650928342e-02,1.290429115295410156e+00
3.810562109602120828e-01,-7.686881941870354895e-01,7.792494860083692965e-01,-3.937138058471126301e-02,3.652489149458498612e-03,1.526208042315440466e-02,1.394159197807312012e+00
3.699000466723276204e-01,-7.830741496131554680e-01,7.031937045637135508e-01,3.346469648923952600e-02,1.519218183255594823e-01,-1.238916660559043030e-02,1.377597212791442871e+00
6.244342851896758084e-01,-5.789723251073753962e-01,6.466080131409979170e-01,4.660374905278464285e-03,3.601952258491533665e-02,2.112849599648865609e-02,1.216823697090148926e+00
6.395653961850535918e-01,-5.083200101012530503e-01,5.984677006922249909e-01,5.628864591005995621e-02,-2.033575071415704219e-02,-3.357115228175638899e-02,1.134143471717834473e+00
6.436207743563602257e-01,-7.402472996084911161e-01,6.418844580891183149e-01,1.762482701885631975e-03,8.597961895100057761e-03,-3.274650825594564978e-03,1.383095860481262207e+00
6.376532463609552170e-01,-4.874632301065946471e-01,6.004806414492708244e-01,4.085690387110268301e-02,-1.865225059985730141e-02,6.841722713808127791e-03,1.109791636466979980e+00
8.543787010501204815e-01,-9.543085046208177324e-01,4.024838467251924401e-01,-2.642581118216056138e-02,-7.316596060589358481e-04,-2.271177322318079436e-02,1.631522536277770996e+00
9.262213926714981671e-01,-3.844631203813848597e-01,3.498156437813670916e-01,7.831429107908245701e-02,1.547140526280733064e-01,-1.461905115811294731e-01,1.203733801841735840e+00
6.566084604718449569e-01,-7.501953788342573537e-01,6.122277052754578897e-01,-2.714067969581522837e-03,6.393915515595809985e-03,1.175540788045749754e-02,1.385348677635192871e+00
6.705932212256385805e-01,-4.263566294202802975e-01,6.325428913354103067e-01,6.625591649282074058e-02,3.931666921320834396e-01,-7.543924865518161771e-02,1.287241458892822266e+00
6.138245638188659647e-01,-7.539417164267171456e-01,6.091544793333376617e-01,6.492140708374919897e-03,-1.442605130665627726e-02,1.092749370830459719e-02,1.365843296051025391e+00
6.437994427762516736e-01,-7.684663272884244556e-01,6.504247324672076669e-01,-6.076744875370530645e-03,-7.090130990721591614e-03,-6.715634087310842423e-03,1.415730237960815430e+00
6.585626879532732181e-01,-7.405768467383830878e-01,4.414985978511822284e-01,-2.578381255102521388e-03,6.067306581837318691e-02,2.837786007562712737e-03,1.308469772338867188e+00
1.006783153743813886e+00,-1.365576625227441054e+00,2.040490319114924844e-01,2.217545855438677327e-01,-1.759413185116350531e-01,-1.657497610781858144e-01,2.165850639343261719e+00
6.445376493725529787e-01,-7.671074965344990559e-01,6.632396002501446119e-01,-6.705360379378006927e-03,1.359556835651376874e-02,-8.216260585024675808e-03,1.421402215957641602e+00
6.180853652387138242e-01,-7.672134890880591973e-01,6.275744857183547243e-01,4.284095568183324959e-03,-3.554282838269295225e-02,9.304954039014169329e-03,1.391543388366699219e+00
6.649498374879385665e-01,-7.592002069567925782e-01,6.360472060436905828e-01,-3.583098137157297945e-03,1.208876007310895166e-02,6.396652332185616754e-03,1.410133600234985352e+00
6.361783714425647274e-01,-7.342644411500378610e-01,6.656932129111312602e-01,-3.406893084334472813e-03,2.076363956593011220e-02,3.208899090580766278e-03,1.385926485061645508e+00
5.568247276804907386e-01,-7.643239857581592966e-01,6.778405970547576320e-01,1.704192977064118708e-02,-1.083354698124308624e-02,1.177047438681788107e-02,1.386217117309570312e+00
5.945195819404669457e-01,-7.595006558486169235e-01,6.697179219527261695e-01,-6.881274808127858626e-03,-1.288076398542989040e-02,1.045831617844696776e-02,1.393489718437194824e+00
6.135766177475875383e-01,-8.540123916546932259e-02,6.078630603652817044e-01,-1.023213735971140459e-01,-5.995682470140219905e-02,-7.222162077719976314e-02,7.365123033523559570e-01
6.633290312223705243e-01,-7.463155921367041756e-01,6.346233720252277832e-01,-8.076000270688582505e-03,1.090621262139569725e-02,-3.886705405116073998e-04,1.395711302757263184e+00
6.646708608663920437e-01,-6.660899238793448474e-01,6.196011505170602174e-01,-2.274265576833944119e-02,-2.551604886055522034e-02,-1.063697068279358896e-03,1.310147643089294434e+00
6.456851924730531156e-01,-6.542723162031059969e-01,6.397419022576517067e-01,4.013379307900591386e-03,-3.186327570642513013e-02,1.461593690566804875e-02,1.298435091972351074e+00
5.824492442961055616e-01,-7.610153817166945833e-01,6.773427850004596351e-01,1.154661836987177712e-02,6.386793115752058096e-04,4.698157611263824827e-03,1.393504738807678223e+00
5.992146215962819156e-01,-7.786675297229467274e-01,6.882626566043639205e-01,6.934305068464528300e-03,1.112142243131984502e-02,-1.643742933831571001e-03,1.424678921699523926e+00
6.596912372946681646e-01,-7.612584184310074997e-01,6.381397245167906851e-01,6.678785563370992669e-03,-3.377088267076220826e-03,6.983657466010156564e-03,1.410408854484558105e+00
3.008387874149944796e-01,-9.302768548640132362e-01,9.415993919078640140e-01,-1.068224064672108203e-02,6.390187477709929204e-03,3.522003818469489345e-02,1.649016857147216797e+00
5.907235950475309139e-01,-7.312155791570590369e-01,6.515009398793437656e-01,-4.670687273844483303e-03,-2.673880640627061822e-03,9.898345116883113665e-03,1.353492498397827148e+00
4.332099148284109802e-01,-4.740178314212727395e-01,6.689558092912530896e-01,-2.670486144014786248e-02,2.843828410649596461e-01,-1.013047841404820237e-01,1.169641733169555664e+00
6.284877320351608398e-01,-7.632224572790002881e-01,6.354157492833449883e-01,-2.497501903271794228e-03,-1.691073147814995455e-03,5.929189430936036495e-03,1.395234704017639160e+00
6.332131669769582860e-01,-7.642344133316378851e-01,6.426106634396989703e-01,-7.678661211941551802e-03,-1.690562710136985511e-03,9.183702768686203416e-03,1.402326345443725586e+00
6.086893234886801007e-01,-7.505519611476630937e-01,6.096534614674791186e-01,-5.313613274174828691e-03,6.558134338373667379e-04,6.747498376931588583e-03,1.359805464744567871e+00
6.302671842446971873e-01,-7.639531127355732032e-01,6.295501444885265308e-01,-2.077193403031087418e-03,9.675418709855523837e-04,5.242318155846555430e-03,1.393897175788879395e+00
5.721060103022080900e-01,-7.545314473317070725e-01,6.403254566192539965e-01,-1.533954497138171474e-02,4.198117086719676400e-02,1.797542552488167258e-02,1.364582657814025879e+00
6.378154422641781895e-01,-7.419750976508684426e-01,6.510034525310455233e-01,-4.459355439695516024e-03,-1.382491716694605501e-02,-7.753390682315479052e-04,1.386660575866699219e+00
6.406669023077742331e-01,-7.047397764364946582e-01,6.400788890043432877e-01,-2.334325328875309739e-03,-1.927962410819421268e-02,-2.455485072616332351e-02,1.346205234527587891e+00
6.392393124186013242e-01,-6.997467024756158782e-01,6.595694953012816164e-01,6.419931649156197795e-03,7.196392272255928112e-03,-1.010633268602615653e-01,1.360675930976867676e+00
6.389730974268498231e-01,-7.588128509415638101e-01,6.560767917552450257e-01,-4.137167702356139148e-03,-3.053307280799185883e-03,-1.244043242832982947e-02,1.406609058380126953e+00
6.174883279750031928e-01,-7.604354318994372974e-01,6.326370976806499069e-01,1.177535907179265429e-02,-1.063043259804121149e-04,7.669662389215968316e-03,1.385774016380310059e+00
6.366040054422226202e-01,-7.561828961162321283e-01,6.677000575679736816e-01,-5.591174219661849444e-03,-2.228273857952149228e-03,3.520209150834340949e-03,1.408644199371337891e+00
5.506698205260647239e-01,-7.650693097786988028e-01,6.634247839390895463e-01,1.954134539359873857e-02,-1.944047796398458081e-02,1.953493008484566765e-02,1.376830935478210449e+00
6.738387874240828745e-01,-6.991166524374478053e-01,6.218822425850702995e-01,-1.583792353864878211e-02,-1.651704734829668314e-02,1.095001061795719544e-03,1.348312497138977051e+00
6.744381169508841811e-01,-7.372477709027772663e-01,6.292769065945112983e-01,-1.492884948180842747e-02,1.531122842076173586e-02,2.307337049064264820e-03,1.390155076980590820e+00
6.605874035190290039e-01,-7.604826790183026874e-01,6.379138502500900643e-01,4.598001025234086520e-03,5.598153573814720375e-03,6.283645974028724025e-03,1.409967899322509766e+00
6.527184608873786154e-01,-7.767310463620342720e-01,6.460050362959226522e-01,-3.433046196230301900e-04,2.557596629234940716e-03,2.447440086799583525e-03,1.426117897033691406e+00
6.735883845952781446e-01,-7.562651876461233824e-01,6.338748472860818994e-01,-6.322844883226790523e-03,1.652152783441364348e-02,1.471254125140450267e-03,1.410751223564147949e+00
6.625653256292789450e-01,-7.718399305455856396e-01,6.413065046829128368e-01,-2.921757437800026787e-03,4.258851506118438955e-03,4.463943698334347544e-03,1.423943996429443359e+00
6.581280500555879431e-01,-7.700854695342008727e-01,6.426932641886196063e-01,9.626804024546792884e-06,6.703947134237488344e-03,1.583843066573007016e-03,1.420609116554260254e+00
6.736526379511786899e-01,-7.524032086365403105e-01,6.335628917329305665e-01,-1.070022249584357162e-02,1.677823539379985976e-02,-4.898255657273024866e-03,1.406887412071228027e+00
6.627451412720795076e-01,-7.682104373894788063e-01,6.441365572508722659e-01,-4.313278937196649530e-03,1.684130057282715379e-02,-2.541117651693188852e-03,1.422068238258361816e+00
6.412433105272556944e-01,-7.711686862516208274e-01,6.381066075730517095e-01,1.907259928809988681e-04,6.105355610265011945e-03,6.299575687502638986e-03,1.410928130149841309e+00
6.645956891800859356e-01,-7.597077573195649691e-01,6.372522818414633194e-01,3.931659294220521319e-04,1.332324020477868715e-02,6.070148951974139312e-03,1.411058545112609863e+00
6.151865307587645049e-01,-7.615468028156543445e-01,6.540627306098045768e-01,1.458004190464493380e-02,-8.117733399151540186e-03,9.829270402427257511e-03,1.396980166435241699e+00
5.152789865935203384e-01,-7.774812176927540230e-01,6.997513196611214736e-01,3.574882160756143179e-02,-5.566435154281720865e-03,1.085782651665679992e-02,1.395714163780212402e+00
7.032149667330897524e-02,-1.079246780667885375e+00,1.077385786605737916e+00,-7.131345099937143328e-02,-1.217497834270336171e-01,1.036298623721887691e-01,1.893493652343750000e+00
4.322022530867953294e-01,-6.512869435102699445e-01,6.612518783721434978e-01,-1.719522119338739718e-01,2.617030497184492654e-01,1.623904568395846126e-01,1.359362125396728516e+00
9.129519359495448516e-02,-1.188409894438554604e+00,1.122090607219324854e+00,-1.626088207332502533e-01,3.093792712212466503e-02,-9.116347540697439245e-02,2.031360864639282227e+00
4.629791232200957118e-01,-7.499803196356709112e-01,7.156707102281819610e-01,2.513318366916279800e-02,-1.805453004319382965e-02,1.156378233299671515e-02,1.358271837234497070e+00
4.910356128605292136e-01,-3.601149729658866816e-01,7.236105100844754112e-01,-4.892932029581345543e-02,-5.360437085220796233e-02,3.009019865270154762e-02,9.975086450576782227e-01
5.002152506795193299e-01,-7.854014542482107286e-01,7.863532952776214335e-01,3.536365969306875384e-02,2.847097067413961388e-02,-7.611638367559136337e-03,1.452207446098327637e+00
6.721306689766229914e-01,-7.189246561365096877e-01,6.119239171802671740e-01,-1.783925831824938885e-02,-2.720580795918422709e-02,1.566464040309584541e-02,1.363385558128356934e+00
5.919503717908927154e-01,-7.277124048195332540e-01,6.845552613842141865e-01,-1.353734346240669699e-03,-1.105317743196387002e-02,2.927585954219159869e-04,1.368453502655029297e+00
6.560253331800244281e-01,-7.570388184849562441e-01,6.532808830335669059e-01,-9.033171457281755426e-03,3.627398513701046972e-03,-7.417212378179713524e-03,1.411853075027465820e+00
5.919595395474035460e-01,-6.355387035422627173e-01,7.188246819862069703e-01,-1.943269155914100488e-01,-2.347163940449289998e-02,-8.067979946108159994e-02,1.346492767333984375e+00
6.395972859410781197e-01,-7.707333377256031515e-01,6.619741383766979403e-01,4.735526002114415732e-03,9.959497444838080749e-03,1.711951502772786479e-03,1.421782493591308594e+00
6.389190929466962432e-01,-7.606022168673992612e-01,7.385605817192030242e-01,-2.167984888373027802e-02,-4.304111428243767579e-02,-1.825646242603705047e-02,1.454649925231933594e+00
5.867130695184757938e-01,-7.660080929647760106e-01,5.523871857158364485e-01,-1.062203800513825819e-02,3.858063827747450492e-01,1.178321400988303902e-01,1.507690548896789551e+00
7.148707044566383617e-01,-7.728128607940532024e-01,5.067705090203874496e-01,9.388637271599272610e-03,2.279669928803972762e-02,-2.211683008248855817e-02,1.396499872207641602e+00
6.905008811566958338e-01,-7.721504484971639659e-01,5.361917305297523306e-01,-9.774092350406386742e-02,4.640722600632651851e-01,1.136807744984117685e-01,1.628182649612426758e+00
6.812831369026048911e-01,-9.107750987430420775e-01,4.995452480549974483e-01,6.415773744821831603e-02,5.320599232120321043e-01,9.805706867617185185e-02,1.780111908912658691e+00
6.481733334552862713e-01,-7.764007664218772753e-01,6.397904469919448722e-01,-1.521775212262400099e-03,2.729150460346592942e-03,-2.199835808420678301e-03,1.420416593551635742e+00
5.628284812895250067e-01,-7.713072031783000382e-01,6.338181979427712776e-01,-1.574623383307488522e-02,2.670587906681615165e-01,-3.703241707363569973e-02,1.448615431785583496e+00
6.248954086465723368e-01,-7.460527360684020559e-01,5.837661854494095026e-01,1.371459318302008581e-02,3.816127258009965884e-02,-2.562212339426291671e-03,1.352685213088989258e+00
6.650293623931354814e-01,-7.642100783492037364e-01,5.888214957329811483e-01,1.921133478816432552e-02,1.576496767808497484e-03,1.669735995197693668e-02,1.393400430679321289e+00
9.371262384839612603e-01,-4.343561878617733241e-01,3.199834011790633204e-01,1.051492079163575573e-02,7.852974695364205171e-02,1.311302076475518996e-01,1.218953132629394531e+00
6.827476127039587839e-01,-7.638188130501311068e-01,5.782692669406698238e-01,1.659984122547231893e-03,9.572842188163448174e-03,1.713635241861262426e-02,1.397676467895507812e+00
6.117349340930600121e-01,-5.540504117251044969e-01,6.366376899970140890e-01,5.145552102694682904e-03,-3.208875197750522129e-02,5.795553912190767095e-04,1.179778099060058594e+00
7.071998067883498162e-01,-7.830928724916124128e-01,5.228696938615151613e-01,-1.042830070993018728e-02,-1.840337833127447115e-02,-3.015277586383774758e-02,1.408656835556030273e+00
7.110294488079758057e-01,-7.650459329770855632e-01,5.088539316033489079e-01,1.749768604470598385e-02,2.485522001148536986e-03,-2.958644420096418273e-02,1.387375354766845703e+00
6.190651749512352531e-01,-6.846198719442309066e-01,6.698351476670867388e-01,-4.706727574569549558e-04,-3.382741142246169230e-02,2.884084348144078103e-02,1.332024455070495605e+00
5.859786042975116960e-01,-7.485940057956729232e-01,6.404573087749869664e-01,4.474739416515122886e-03,-3.489533022508793658e-02,3.394567821391684947e-03,1.364003419876098633e+00
7.894801454917141914e-01,-8.399712401111893989e-01,5.228502388245583887e-01,2.808375607772184077e-02,-1.522019792508892133e-01,-3.193023861845843692e-02,1.538396477699279785e+00
6.542264003484957735e-01,-7.603032142449466235e-01,5.559689805885041913e-01,-1.210363410605347356e-02,5.228177590914040440e-02,-8.519565159244306754e-03,1.371283292770385742e+00
6.491287650794410613e-01,-7.207584390233422456e-01,6.407145569162949750e-01,1.442114619855912848e-02,-8.505530335950028942e-03,1.251728894247526201e-03,1.366009116172790527e+00
6.794610853270242057e-01,-7.669176977190669264e-01,5.781895243336140355e-01,8.289269223487960928e-03,1.705744073401703909e-03,-1.225718400588346121e-02,1.398733735084533691e+00
6.237715938995824771e-01,-7.100743610677555662e-01,6.775824794945235485e-01,2.181523367705392492e-03,-2.042969698809367352e-02,7.033212954909330052e-03,1.362068653106689453e+00
6.354698268170169140e-01,-7.471837940182952664e-01,6.430800491582157052e-01,-1.573505084250585457e-03,-3.054446560384959947e-03,1.754428682225894764e-02,1.386820077896118164e+00
8.240663481815192482e-01,-6.391154043605080659e-01,2.278713098839537099e-01,3.064811037680553740e-02,1.533696446188882734e-01,-7.382493577910123617e-02,1.309099912643432617e+00
7.087447661566562696e-01,-7.715703694241816679e-01,5.035430572777392921e-01,-1.140600985493067437e-03,3.213708136197496439e-03,3.355052516954287745e-02,1.390355825424194336e+00
6.612732509063602437e-01,-8.251501451720251179e-01,6.016580795816499627e-01,5.954533796173317600e-02,1.424580902064282173e-01,5.635326786462480086e-02,1.485073089599609375e+00
7.968609844285513555e-01,-6.922956257665874302e-01,2.597414561833475966e-01,-7.865873318117412583e-02,2.134380967505332960e-01,1.133795051918460445e-01,1.378413438796997070e+00
6.694012208794392071e-01,-7.452625719124627013e-01,5.259631872785865969e-01,1.042747256944181501e-02,2.692773632859208482e-02,7.967720371849557406e-03,1.349675297737121582e+00
5.548392382043356719e-01,-7.251164547244117742e-01,6.163231148668110171e-01,7.249515585788634392e-04,1.118925492048981375e-02,3.489256110736798245e-03,1.311936378479003906e+00
5.748564891632050866e-01,-7.526569417508964799e-01,6.269021063110946645e-01,1.700445241104835484e-02,4.000038360658982051e-02,-2.558031232274174047e-02,1.357100725173950195e+00
5.936538254389834846e-01,-7.340189127169164385e-01,5.872044195222883012e-01,8.052752397798578626e-03,3.824127760147703111e-03,-4.619405055256293503e-03,1.324573993682861328e+00
5.848119064530052924e-01,-7.239460421374237509e-01,5.812069051817436716e-01,1.510586359234538994e-03,3.053942576894011756e-03,-5.776451336000008570e-04,1.306972861289978027e+00
5.799343018028279007e-01,-7.251591614267060004e-01,5.868563859118304249e-01,5.862852376545528042e-04,2.512869097486820739e-03,-1.263796430618416983e-03,1.308577656745910645e+00
6.205510073791620229e-01,-7.266799045689047443e-01,5.070474583585278250e-01,8.734743487773335285e-03,4.324387283125959158e-02,-1.046837792914495245e-03,1.296472549438476562e+00
5.913319071966511853e-01,-7.256150946356054732e-01,5.705355551390680624e-01,5.156433049845852469e-03,2.005263732130729490e-02,-5.286340467734934384e-04,1.307165265083312988e+00
6.334345986737592860e-01,-7.516163334517989014e-01,5.885552008396496282e-01,-1.330644727817356827e-02,3.999539232064847245e-03,4.799699666363070778e-03,1.363403201103210449e+00
6.757839792977781146e-01,-7.543527827919137563e-01,4.831844131962755307e-01,1.878422346485100758e-02,4.139037211291695523e-02,-1.984279330252496781e-02,1.346967458724975586e+00
6.517758606752861450e-01,-7.703877613749134934e-01,6.467713532318343228e-01,3.111834763310977314e-03,-1.255269528648277934e-02,-1.081260170768023020e-02,1.419968247413635254e+00
6.450487459482219244e-01,-7.636707933993228670e-01,6.514831059755658016e-01,1.693515061858753834e-02,1.573009951377066229e-02,1.392416681251464755e-02,1.412721037864685059e+00
6.233344920462662309e-01,-7.678126775606997079e-01,6.182772380581516014e-01,2.701393516086079537e-03,-8.116731012858334482e-03,7.399816936806704291e-03,1.388763666152954102e+00
6.304052960982324816e-01,-5.281013227765444240e-01,6.209064140968916234e-01,-1.841561381160910713e-02,2.137007679249475212e-02,-3.951512869201568440e-02,1.156847000122070312e+00
6.427071269867833392e-01,-7.746303648847298051e-01,6.483550759203289271e-01,3.986254733437601290e-03,9.965299934596098374e-04,7.568401007117053249e-03,1.420248270034790039e+00
6.356300015751558119e-01,-7.605533567510948112e-01,6.727249553141154692e-01,7.904588764316079763e-03,1.369493925084847886e-02,-7.156756555290278397e-03,1.415414810180664062e+00
6.348295651903468340e-01,-5.669159851321868837e-01,6.056155781404448657e-01,-2.000275132253536911e-02,2.279484855048832109e-02,-1.315523124088668894e-02,1.188787817955017090e+00
6.478922575934220607e-01,-7.725933889747164107e-01,6.503199488577912080e-01,3.811165437135124578e-03,1.174784272771533557e-02,1.323834588419907387e-04,1.421862006187438965e+00
6.211805684093251179e-01,-7.492327630904906943e-01,6.825077457189155927e-01,1.711362048958843833e-03,-4.392447232126523576e-03,-4.267600151753330254e-03,1.402126431465148926e+00
6.370952783933694352e-01,-7.074004587834265001e-01,6.583464398395002526e-01,-2.411521632900101055e-03,9.312574698096275777e-03,-1.125300998047106503e-02,1.355488896369934082e+00
6.546158958539041173e-01,-9.358151275647363931e-01,4.732686010788653697e-01,2.098938556401638289e-01,3.492103024593012917e-01,-2.345351728084539844e-01,1.713758230209350586e+00
7.994846997205378170e-01,-8.743680775512345793e-01,5.267534406968902294e-01,4.595157068397667799e-02,7.137913470628069745e-02,4.264964496535416510e-02,1.564202666282653809e+00
5.614960588671723540e-01,-3.694501495488307086e-01,5.249257266799387533e-01,1.518668109396622834e-01,2.621932842689665977e-01,-1.159435016069673002e-02,1.053462386131286621e+00
6.417293355294964030e-01,-7.693826596409029106e-01,6.477163216366952359e-01,-1.161806886364122760e-03,-9.456526600331449303e-03,2.367834547428710086e-03,1.414217233657836914e+00
6.820692624815951621e-01,-7.372875430180091394e-01,4.023684615728790326e-01,3.558999021555746961e-02,3.344170206145764546e-01,-2.043201580785658500e-02,1.427013516426086426e+00
8.823132415880353685e-01,-7.953513169177997000e-01,4.294362243965571535e-01,-1.884821080935769610e-02,4.607859530044564056e-01,-4.414955522911188229e-02,1.704043626785278320e+00
5.920767157360149469e-01,-3.494255600936481132e-01,5.960893449710442660e-01,7.108006954488002571e-02,-1.555614656163794088e-02,-9.380988997487277326e-02,9.656627178192138672e-01
6.396145953047571719e-01,-6.846306158973930467e-01,6.322373391965243616e-01,2.531057777332925557e-02,-1.753737069064123869e-02,-7.473914810231214491e-03,1.321712017059326172e+00
6.464839843120018248e-01,-6.757428904752104115e-01,6.402705585221433182e-01,7.710522401959019924e-03,-2.920868597575494718e-02,-2.106861677633501545e-02,1.320672750473022461e+00
6.780307718418555618e-01,-7.131162142323019815e-01,6.225185078398708383e-01,-3.700003478299539617e-03,-1.535473098247865618e-02,-2.740267569878087651e-03,1.364520668983459473e+00
6.477969317547276340e-01,-7.578169619219112807e-01,6.420797191603008214e-01,-6.512337400926611342e-03,-4.996819228822710346e-03,1.179601761170626269e-02,1.402984857559204102e+00
5.107074065697683185e-01,-7.644161224238755770e-01,7.069240263005873715e-01,-4.166611260442474457e-02,4.032420432347244565e-02,3.257296119054454986e-02,1.388492226600646973e+00
6.593357751204350636e-01,-7.578901585788282436e-01,6.368953608921166243e-01,2.851970386312035425e-03,-8.807680526226607451e-03,1.006075871636293376e-02,1.406339406967163086e+00
5.776339632928303436e-01,-7.296949852102603273e-01,6.773528589323893900e-01,7.503867231247793486e-03,2.847732139843673488e-03,-2.559814962171671864e-03,1.360011458396911621e+00
6.446146233282294968e-01,-5.680317124773438531e-01,6.263215365056815642e-01,7.470399234119667886e-02,-2.024929704952939738e-03,1.654738762840356637e-03,1.210547566413879395e+00
5.206365468535335550e-01,-7.395298670663502660e-01,6.535181882720605406e-01,-1.294940614851471626e-02,1.185313302495430432e-02,2.099081418837226917e-02,1.332432508468627930e+00
6.109809467986464515e-01,-7.576095612528359613e-01,6.613027248059704100e-01,-9.433559427440788708e-03,1.431260962532486395e-03,3.160198514250662800e-03,1.394541263580322266e+00
5.196341740285090882e-01,-7.615763465628244688e-01,7.018407565087316780e-01,-2.720672554965436821e-02,9.351722390554714466e-04,1.217208849528370225e-02,1.382321357727050781e+00
5.974456631504245774e-01,-4.668417850767416777e-01,6.676857711338913814e-01,4.915200876421822046e-02,4.347589004134481071e-04,-1.267717963541732384e-01,1.125992298126220703e+00
6.152994238246529690e-01,-3.678981322431483791e-01,6.243789245625943618e-01,1.373876486558006926e-01,-3.272772883365336356e-03,-2.534259743143173812e-03,1.016053318977355957e+00
5.991321196645766900e-01,-3.523701226778936935e-01,5.875896677474741203e-01,5.941287180584137878e-02,-1.792988770143802077e-02,-5.029075713226451028e-02,9.558497071266174316e-01
8.158968188606683380e-01,-5.669377540094533430e-02,7.040535981275108934e-01,3.246072705780266021e-02,-1.423019454533291650e-01,1.590726019635193417e-02,8.608133792877197266e-01
4.989945576130190297e-01,-2.109054718165956910e-01,9.503577278855146471e-01,9.610321457703122072e-02,-5.021785946044277082e-02,3.466635919378634190e-02,1.032950997352600098e+00
6.306761131981559743e-01,-5.862804088486868181e-01,6.185379909447479285e-01,-2.420648503442559066e-02,-3.590318888923043489e-02,1.258368492660165644e-03,1.213255405426025391e+00
5.841048757774495170e-01,-1.518158289953137063e-01,5.743224710018099977e-01,-1.595122911041553793e-01,1.131223000745055496e-01,2.358133913450966013e-02,8.067630529403686523e-01
5.803021586347814065e-01,-3.398417961677716592e-01,6.015476275414690654e-01,-5.396292848035529749e-02,2.061680358960688714e-02,-1.723191523818546830e-02,9.367855191230773926e-01
6.551404560310984948e-01,-6.029591205001499921e-01,6.054017970873373233e-01,5.498302710501396483e-03,-2.321227739164145529e-02,1.316225225081452815e-02,1.234884262084960938e+00
6.734411185895133878e-01,-7.489767469807699918e-01,6.273050971256920461e-01,-4.217672650039370856e-03,-1.633962201757986621e-02,5.352102154171544529e-03,1.400255918502807617e+00
5.822895573737905117e-01,-4.834544832441778350e-01,6.413372509551316103e-01,2.887792545655123652e-02,4.478128428434782933e-03,4.929624589938003121e-02,1.100944638252258301e+00
5.761183952091109006e-01,-2.002565635353856788e-01,5.810497174016400201e-01,-8.195934859298798988e-03,8.884107402907764905e-03,6.188697723606873674e-02,7.864726781845092773e-01
6.333217438769708219e-01,-1.280930902102863644e-01,6.170014945734506595e-01,-2.423375381558732708e-02,1.283332041738648698e-02,-8.520375898176618668e-02,7.691731452941894531e-01
6.172017153466027306e-01,-2.253861580673949261e-01,5.855269651532313269e-01,-8.860957714317749256e-02,5.429457556694111675e-02,8.599568581126046732e-03,8.466932177543640137e-01
5.443116620431834862e-01,-7.693055388646012904e-01,6.857375519639217210e-01,-2.470796190078240750e-02,-6.818469183996684821e-03,-2.260449113731925405e-02,1.390997767448425293e+00
5.994321009529018918e-01,-4.493111510945477782e-01,6.031184015407966559e-01,1.864572578407979950e-02,-2.936074265548549098e-02,-1.900711525200346128e-02,1.052831888198852539e+00
6.449293578113854952e-01,-1.773848515688447591e-02,8.595798495356380409e-01,-2.446488713190568196e-02,7.888398868836144981e-03,7.565639346551851496e-02,8.041140437126159668e-01
5.916019047977718603e-01,-9.941367959601865589e-02,5.696790418207839934e-01,-4.919493832582821219e-02,8.290396698157220801e-02,-5.358131023061671327e-02,7.066304683685302734e-01
5.813169768496524448e-01,-3.072016390975987887e-01,5.730299519292716415e-01,3.028521618293469192e-02,-1.978814591619702454e-02,-2.804969197277771761e-02,8.879512548446655273e-01
6.310278422877502180e-01,-4.350067663820719188e-01,6.271235948914546388e-01,5.749244178745635536e-02,-1.607639758172988223e-02,-1.343226878120267753e-01,1.094121694564819336e+00
6.223367395903842691e-01,-4.854736113174429324e-02,5.408970055199642246e-01,-2.974949489206089523e-02,4.688908680457641066e-03,1.579561482600104483e-02,6.368287205696105957e-01
5.572187734733131670e-01,-3.355913940980780330e-01,5.907176551295043598e-01,2.217508340135481218e-02,-6.813578292324418834e-04,-1.405613221073771487e-03,9.108363389968872070e-01
7.662290330448013886e-01,-8.914875668091837291e-02,9.263414805800200824e-01,-2.096545726522095268e-02,1.430131475870697055e-01,9.222257157520723225e-03,9.783638715744018555e-01
6.205560580705520302e-01,-3.331450291883133463e-01,6.070854372769423080e-01,2.176246388620711736e-02,-1.367646373981640066e-02,-7.545189952542025180e-02,9.570481777191162109e-01
5.862488039037236920e-01,-3.484292881568731293e-01,5.664548095230615976e-01,6.752371342020097034e-02,7.729108354493032310e-03,-2.998849669716201378e-03,9.324154257774353027e-01
2.835372159277733672e-01,-1.059137236461347831e+00,1.035285794083181443e+00,1.151361187125587160e-01,2.664576125108055749e-01,-3.363812369035569516e-02,1.906152367591857910e+00
6.095862849647644133e-01,-7.568717600284836644e-01,6.173625551352346363e-01,2.187468237141763179e-04,3.020483961343517834e-03,1.064136565695076317e-03,1.370373964309692383e+00
6.310449840653327147e-01,-7.572165445946619222e-01,6.132650127071126445e-01,9.305675051106679016e-03,3.007270341841587410e-03,1.059490542854614730e-03,1.379562735557556152e+00
6.062515950842001233e-01,-7.604879897474823292e-01,6.359090233981947726e-01,-2.064990173365476109e-03,-4.382839616449529796e-03,1.348582002225267445e-02,1.382029891014099121e+00
6.456326344269323059e-01,-7.717610151549096908e-01,6.365613552579808543e-01,7.493876182833950246e-03,3.578061491709408869e-03,1.015712880595125026e-03,1.412954211235046387e+00
6.270849399673533719e-01,-7.732728517663370882e-01,6.402816627943850314e-01,-1.151177223910686406e-03,6.985734419031476572e-03,8.934115519114462205e-04,1.407056808471679688e+00
6.159081401004593559e-01,-7.576712811131700587e-01,6.324588033380733609e-01,1.475030642336878223e-02,-1.726141890344473975e-02,2.109590129436673261e-02,1.382971286773681641e+00
6.434596617731036527e-01,-6.482085567422207761e-01,6.268739436934772646e-01,-7.740206238828914453e-02,2.786893051587284453e-02,-8.579208403385701898e-02,1.299862623214721680e+00
5.348393204026582470e-01,-8.102630837872526470e-01,5.339447750136623316e-01,4.017438021342666782e-02,-2.426569716412046995e-01,2.969693003395211875e-02,1.411464810371398926e+00
4.471984925126173405e-01,-7.644014260972823438e-01,6.627339954602027294e-01,1.242871213706680557e-02,2.604142307956200386e-01,1.682816447266862608e-02,1.407242894172668457e+00
1.064170687083662026e-01,-8.108084075172062866e-01,1.144190963751522405e+00,6.642317420121650329e-02,1.259712319963716132e-01,-4.897492622974956855e-02,1.714114308357238770e+00
6.393310736228055013e-01,-7.784888015538148354e-01,6.501488722638590900e-01,-5.195276890885059708e-04,-9.505771991744269706e-03,3.354420333107589573e-03,1.423367023468017578e+00
5.103157475919299912e-01,-7.507375377666658522e-01,6.748953514232461925e-01,4.927444875885950148e-03,1.536878317734920694e-02,1.448780046540762943e-02,1.351405382156372070e+00
5.812180931260082506e-01,-7.567826264326872332e-01,6.466867736380467191e-01,-1.102824609565159278e-02,5.835297863336391666e-03,1.834229615147038583e-02,1.372445106506347656e+00
5.905457313484878679e-01,-7.400161314561146675e-01,6.059750028629472540e-01,-2.300758498582390079e-04,1.486713659173120872e-02,8.472053558055846548e-03,1.338671445846557617e+00
6.043418553188566467e-01,-7.497366283885882332e-01,6.214767843509625411e-01,-1.230654399149315632e-02,2.065409948033826784e-02,1.073628968028715602e-02,1.363489627838134766e+00
5.621709730245574299e-01,-8.390557709675262599e-01,6.246763974770348504e-01,7.416530628977387705e-03,2.644569716234486112e-01,7.068127933190342105e-02,1.509931325912475586e+00
2.704900888577274620e-01,-8.149792109139507579e-01,8.644420028015654678e-01,5.392237689342510576e-02,1.896925799658540912e-01,-4.746039067198260485e-03,1.514093518257141113e+00
6.207065282409554019e-01,-7.489760892338743759e-01,5.455282282022031470e-01,-2.037717983842491157e-02,1.420237589884769218e-02,1.326217802012590388e-02,1.334574937820434570e+00
6.506762646502177727e-01,-7.575716464825305030e-01,5.726448722869781349e-01,-2.064947598042735782e-02,7.666763850813456196e-03,1.310938206412532066e-02,1.371617555618286133e+00
6.354016281703515068e-01,-7.575743807645968220e-01,6.052462059089427360e-01,-1.198995061080289359e-02,6.728192966801017742e-03,-3.030667736683565188e-03,1.378361463546752930e+00
6.007823310857349774e-01,-7.551067999728982016e-01,6.074206284634339204e-01,1.056020764606302974e-02,5.793406577696513793e-02,9.694565868369073303e-03,1.363145589828491211e+00
1.241978153312978783e+00,-1.446924963873956971e+00,1.446310892720684971e-01,-1.598148826996720340e-02,-4.720508516782510877e-02,-4.165693393317587527e-04,2.343322992324829102e+00
7.680609388199498566e-01,-7.348934854358230018e-01,3.507605169182571592e-01,6.567809948376110256e-03,-1.296860251858137844e-02,-2.877078812653424082e-03,1.344056129455566406e+00
7.078175513854638723e-01,-7.562949328835552043e-01,5.053151263882804667e-01,3.102867958814741617e-03,-1.018660703535033928e-02,-1.362252625847281198e-02,1.374424695968627930e+00
7.600369713145103123e-01,-7.645568313636240676e-01,4.047001643382197589e-01,-2.005567219127417258e-04,-1.225082660530688039e-02,1.233863009457987145e-02,1.381959915161132812e+00
5.952613379535608429e-01,-8.524149895908252894e-01,7.441335889141829085e-01,4.316585554423206517e-03,1.243901028142584964e-01,-6.443725564760276279e-04,1.542700290679931641e+00
5.830303506981187045e-01,-7.646633911596958377e-01,6.779855691654018690e-01,1.651199215269606377e-02,-6.235874828178090967e-03,4.057942687805612091e-03,1.397944688796997070e+00
8.246693370102599063e-01,-1.442227882861765176e+00,3.852757321131554669e-01,-4.770112129620898006e-02,4.527577676018808561e-01,-2.796578687155832910e-01,2.278650999069213867e+00
6.615926023143781087e-01,-7.390971012462677070e-01,4.884044870983325626e-01,2.038912943139414499e-02,1.503006721582546279e-02,-4.251642693904177095e-02,1.325402140617370605e+00
6.415098147960343056e-01,-7.610463781282827966e-01,6.392751217022313304e-01,-1.226431512459028213e-02,-4.056670216674098002e-03,9.283461293684344001e-03,1.401710987091064453e+00
5.296410654162644338e-01,-5.779614355953374139e-01,5.632374850605292860e-01,1.510787963114551373e-02,2.611069727720506384e-01,2.205517636186896460e-02,1.213176846504211426e+00
3.825794794056289749e-01,-7.958419949569350837e-01,7.626240639651745701e-01,-5.315432977019435290e-02,2.642995878013094102e-01,-2.571555205535023397e-02,1.483572244644165039e+00
6.059244199593025737e-01,-3.265081542669306947e-01,6.033058469539438473e-01,2.677401768818849989e-02,1.058866395652157538e-02,-2.536819203667583372e-02,9.334951639175415039e-01
6.364305448567251222e-01,-6.774791143336295063e-01,6.325969431617078920e-01,1.775502146225833725e-03,-3.147492176358086813e-02,-1.667986416948670503e-02,1.313450574874877930e+00
6.394430973736173751e-01,-7.592778363229122363e-01,6.609403972030434282e-01,-3.745686723287358633e-03,-2.018574679441095376e-03,-1.825697354170705694e-02,1.409966468811035156e+00
6.007394854872188938e-01,-4.527642674697807124e-01,6.020850171601906942e-01,-6.087609772806847931e-03,-2.402104601376494827e-02,-2.981980037231706307e-02,1.056313991546630859e+00
6.382994618139603560e-01,-6.374873598328809621e-01,6.465770930259910898e-01,-2.358093622655252006e-02,-2.024655108899377567e-02,-7.665671560015976070e-03,1.281146049499511719e+00
6.192057646944197913e-01,-7.062329454369468129e-01,6.800303725014991141e-01,1.188855087074010795e-02,-2.629769813478678633e-03,-1.427103786576146630e-02,1.357262849807739258e+00
5.840443125992234030e-01,-5.150480754984839704e-01,6.475159711848836874e-01,2.312862139657243313e-02,-1.218442653550799899e-02,-6.879623681673625868e-02,1.139316797256469727e+00
6.095170059469627866e-01,-7.620779486719567730e-01,6.489901223794261043e-01,-8.811267940126075310e-03,1.011674753814624864e-02,9.912301863221412851e-03,1.392051219940185547e+00
6.435750103380251108e-01,-7.694419208883999106e-01,6.263853713992399985e-01,-1.023702475792738834e-02,-4.812167554003375300e-03,6.301218240159587453e-03,1.404680013656616211e+00
7.544149570322628007e-01,-8.340784656680755305e-01,5.779717408008604451e-01,-4.607252605228061293e-03,1.121140853164528245e-01,4.341312800475537192e-02,1.522363662719726562e+00
6.211362938973115089e-01,-6.435917888824312927e-01,6.565964847909879776e-01,-1.584105833638373151e-02,-2.710381167172492070e-02,2.171081064253994539e-02,1.284528255462646484e+00
6.437891413798251250e-01,-7.081154605653068312e-01,6.261211041923472331e-01,2.546609517574063494e-02,-1.392082186775411498e-02,1.798728301555084855e-02,1.344459056854248047e+00
5.241608812276248308e-01,-7.483769236669501890e-01,6.359773981138606702e-01,1.970473552046932836e-02,1.500310355240646321e-01,-1.563204861251996265e-03,1.357514739036560059e+00
6.375720599280765288e-01,-7.626465514931217715e-01,6.570877742080529771e-01,4.998237174967904740e-03,-3.806910220535604690e-03,7.908982057172195962e-03,1.410186290740966797e+00
6.390948274637232585e-01,-7.720693627001364856e-01,6.454102549243236897e-01,3.291566796465639645e-03,-1.622456823413554773e-03,-3.118940125282564004e-03,1.414357066154479980e+00
5.180546845504614417e-01,-7.709005560558900294e-01,6.909741052085767166e-01,-3.416169889019522038e-02,7.172041454510014354e-03,5.456508808613387725e-03,1.384895920753479004e+00
6.354738768585408426e-01,-6.648065744058769821e-01,6.469615777356083619e-01,1.635374235685050498e-02,2.948397309016401180e-02,-6.070597423397577040e-03,1.307409405708312988e+00
6.120532870992760888e-01,-5.927740334562976443e-01,6.471341961888732452e-01,-1.168777198058923829e-03,3.866312933481860781e-02,4.796032874910535065e-02,1.227393627166748047e+00
6.223678199503057673e-01,-7.314807552905854271e-01,6.750707741031510833e-01,3.022224542803400322e-03,1.288511461030299350e-02,1.379142974740221392e-02,1.381351351737976074e+00
5.789298212423226175e-01,-2.197034211524175884e-01,5.715239233053592827e-01,-3.853818989719756671e-02,-2.480002997593724022e-03,4.687491533841492419e-02,8.018859624862670898e-01
6.684052979540422434e-01,-6.263772394322066894e-01,5.995240285961433990e-01,3.350515573644252676e-02,1.125773724585182010e-02,-2.235772619224220964e-03,1.263243079185485840e+00
6.138844284387017236e-01,-3.380844044912882929e-01,6.220184989528517727e-01,5.973914813663393913e-02,-1.160219057599662200e-02,1.436473026893001770e-01,9.935129284858703613e-01
6.379632970856254914e-01,-7.164955607570859808e-01,6.489162262184129393e-01,-2.966954340067371344e-03,2.478184998466714112e-02,-1.270222338945315712e-03,1.360657095909118652e+00
6.423370139889275077e-01,-6.147848413544076962e-01,6.414344192501839625e-01,3.385895100941641728e-02,3.857645648011259060e-02,3.628019256716021046e-02,1.261377811431884766e+00
5.948660164787200610e-01,-7.569193620561069924e-01,6.550186406513263115e-01,7.071068694122040893e-03,-1.702637735423512613e-02,-1.346097671732977841e-02,1.383408427238464355e+00
6.881502728720038098e-01,-6.917114034405723588e-01,5.022685138011869777e-01,8.678762369097993076e-03,-8.213638458368791029e-02,-1.964842967148763136e-02,1.305259585380554199e+00
6.874490730565548935e-01,-7.354093816594592381e-01,4.247657462651041049e-01,2.866159925246562074e-02,-5.976464580103642982e-02,2.204842117347398031e-02,1.316968441009521484e+00
7.363919940293397470e-01,-7.494545291353629235e-01,4.694235183961439906e-01,2.210745928535944385e-03,2.603752635958881995e-04,-9.463881875842563782e-03,1.372086524963378906e+00
7.106656698744100442e-01,-7.591553672969757471e-01,4.572200336519786634e-01,2.571854504258586777e-02,-1.862547073980475379e-02,3.181817423807888068e-02,1.363140106201171875e+00
8.231024765006621502e-01,-8.605327934702882153e-01,4.253584521243610750e-01,-4.483615488514959557e-02,-1.800472924328175295e-01,-4.526700997346969069e-02,1.559679865837097168e+00
6.218363969748231801e-01,-4.382843519265894328e-02,5.684309647136864818e-01,-2.363888595460795009e-02,-4.112264856419928921e-02,7.761334368258580689e-03,6.460201144218444824e-01
5.453038043519484734e-01,-2.307772719763457880e-01,5.587881158558373196e-01,-4.703137470301469239e-03,-1.308189232128925163e-02,-5.846197367547429150e-03,7.833459377288818359e-01
3.676107253846536693e-01,-7.388022590326077665e-01,7.576024342259383149e-01,4.423787943984494077e-03,-3.393513527694598519e-02,-4.790145237213053013e-03,1.345851898193359375e+00
6.262993146535402733e-01,-7.583651133108766373e-01,6.103859241837361616e-01,-1.734868806146237785e-02,-2.429243717517122481e-02,-1.273568180494297902e-02,1.377923846244812012e+00
4.852984454818732862e-01,-7.453413406497461091e-01,6.802262786999120348e-01,-1.983386407801852793e-03,-7.701703425712007334e-02,-1.414806080535479203e-02,1.345646381378173828e+00
4.187673651968318311e-01,-7.494643216474398129e-01,7.486243970144005333e-01,-1.649433568048582974e-02,-2.185346851182041680e-02,-3.156302933666238226e-03,1.364257693290710449e+00
4.513797095752395960e-01,-7.446348995813992788e-01,7.138284165051007601e-01,-2.173659134658840683e-02,-1.282569220072524684e-02,-1.365719601481509872e-02,1.347476601600646973e+00
6.711483942129489177e-01,-1.017515227701737190e+00,5.118473739366111719e-01,1.327358082090912203e-02,-4.959818378829509156e-01,4.428020851917575246e-02,1.830945253372192383e+00
6.223384065014045952e-01,-7.691984661709738713e-01,6.506746612959205533e-01,-1.109302906598122127e-02,5.034584416739514359e-03,-1.199701036134915959e-02,1.406231045722961426e+00
5.885779457900730538e-01,-7.134542568503796645e-01,6.649858421264309705e-01,-2.691496211143791159e-02,6.714590695637520645e-02,5.129030120758503591e-03,1.347734928131103516e+00
6.514793533988982865e-01,-6.060465836971937748e-01,6.204817839548895098e-01,5.636908330828868663e-02,-7.784885162451427379e-03,-1.010608066903427582e-02,1.246343731880187988e+00
6.396757025258830165e-01,-7.535673515720198168e-01,6.439895434039708544e-01,-6.358567283698313838e-03,-1.184069120991172730e-02,7.117647882016800258e-03,1.395653605461120605e+00
1.063851597072086097e+00,-1.320793517510538972e+00,1.237072199908312575e-01,-2.667660421299595241e-01,2.360894073783986746e-01,1.781888258195666319e-01,2.191906452178955078e+00
1.087500223066462768e+00,-9.683819058005485036e-01,1.364780057876823216e-01,-1.894132079744956058e-03,3.501934141777363618e-01,-1.170579709219787649e-02,1.882613420486450195e+00
5.457240910749616702e-01,-9.614985490892427045e-01,7.143830356574274454e-01,-7.283377933151677364e-02,2.846753942122052794e-01,-3.494654467615664062e-02,1.678413152694702148e+00
7.896319325981482340e-01,-7.620789559729600482e-01,3.500874430729324915e-01,-1.684234112995262184e-02,3.872711707845811341e-02,2.228595895579302266e-02,1.387732148170471191e+00
6.129431270788172625e-01,-7.346739161075419577e-01,5.368184568031896253e-01,1.299228694952266581e-02,2.919409709451639343e-02,-5.252677129989468709e-03,1.312412261962890625e+00
7.868660611308698760e-01,-8.657601624297929233e-01,3.881473336774273197e-01,-7.553062821939859894e-02,2.912926662256564714e-01,2.119431268693539316e-01,1.624083042144775391e+00
4.861658212291120051e-01,-7.407295886602018875e-01,7.157712684495010080e-01,1.354100741820385596e-02,-5.887354875373021490e-02,8.020759247040374837e-03,1.360453724861145020e+00
6.511876813382042606e-01,-8.887845590601534118e-01,4.730954654511364543e-01,-3.034332452398074906e-02,2.494755009042807781e-01,3.462202847996080635e-02,1.523826241493225098e+00
6.042696212068884298e-01,-7.643845018112279677e-01,6.529855163479896252e-01,-7.164412025370285944e-03,1.098885997282991181e-03,-6.703713435509295326e-03,1.393755674362182617e+00
5.659712084015913192e-01,-8.030499179380559127e-01,7.711098246257513944e-01,-4.999553552822752489e-02,5.189637697016209750e-02,5.786391913044397484e-02,1.490893363952636719e+00
6.587259666684294190e-01,-7.584353904547922465e-01,6.545035009389237324e-01,-9.287320569035884335e-03,6.063601258258563033e-03,-7.479840542900925357e-03,1.415244579315185547e+00
3.390802534971603110e-01,-7.707492512308958821e-01,7.836643528223945498e-01,6.548003519599290834e-02,-1.705228174946576136e-01,1.685451458696088020e-02,1.422581553459167480e+00
4.871216243244347321e-01,-7.624264400824560806e-01,7.332984342676507339e-01,-1.269945693735792351e-02,5.236930705057788078e-03,-7.296012613536267954e-03,1.389355540275573730e+00
5.201856834273292929e-01,-7.677466094385105855e-01,7.067909297168181171e-01,3.322210377596550301e-02,-4.355344477668455713e-03,1.091510986686322626e-02,1.391995549201965332e+00
5.892978698799815618e-01,-7.314894445534058098e-01,6.530233999921553067e-01,4.117085462043287673e-03,-1.084707592889944464e-03,2.605827222843851675e-03,1.353803038597106934e+00
6.561521983791618329e-01,-7.603445427163514347e-01,6.159542209394162082e-01,-1.136076951127015615e-02,3.568976288833390544e-03,9.746988071635345058e-03,1.397085905075073242e+00
6.650261762776249475e-01,-7.601727822270962776e-01,5.464070288153197730e-01,-1.740970270426610636e-02,2.830981654187796417e-02,1.276648154951241787e-02,1.371134281158447266e+00
6.877448014248380703e-01,-7.620973065875485952e-01,5.304739251538048705e-01,-1.744937402663762627e-02,4.889314127601861876e-03,2.342297905710820360e-02,1.378908753395080566e+00
6.400385497707874460e-01,-7.413277392679057387e-01,6.429042213337952116e-01,-6.678908937302628634e-03,-6.899039688690550808e-03,-1.475741318536781185e-03,1.382903695106506348e+00
6.433706013033750892e-01,-7.431813712120892701e-01,6.561391178232731658e-01,-5.432146463788300843e-03,-2.221859453009874391e-02,-3.373981037857599289e-03,1.393555641174316406e+00
6.680172347689142809e-01,-7.645589042351332854e-01,5.921356273168829620e-01,-7.340607846390759424e-03,3.922995172055270506e-03,-1.066387250622418889e-02,1.396379351615905762e+00
6.148436081175845391e-01,-4.996961859355427693e-01,6.477312217715902598e-01,2.613769620367261889e-02,-2.835539322360677156e-02,-5.554797981072255586e-02,1.137388825416564941e+00
8.484932942229614916e-01,-6.384916854203669390e-01,3.434886808386061752e-01,1.369235809706633444e-01,4.439979439601450806e-01,-4.605452703881460913e-02,1.539230108261108398e+00
7.234328437529374822e-01,-7.450782124290222797e-01,5.367784230343218832e-01,2.677798392849514361e-02,1.270566573189996495e-01,2.901313097989825437e-02,1.403697729110717773e+00
9.519810750835626667e-01,-1.072651742378536888e+00,2.248289321225429294e-01,2.379587373066019071e-02,3.549733694131614048e-02,-1.897781240805201108e-01,1.808092474937438965e+00
6.671751572032412758e-01,-7.505811029818975078e-01,5.944827610470047041e-01,-2.128052994473190671e-02,9.927449612916966828e-03,1.323487333234061800e-02,1.383631706237792969e+00
6.694590169575515004e-01,-7.561247562663152566e-01,5.846734666196602426e-01,-1.450195127643455831e-02,1.214283806424274609e-02,-8.269754764886567966e-03,1.385599970817565918e+00
6.383880707941304022e-01,5.189563944894948211e-03,6.401932803140945039e-01,-5.379670566913280494e-02,6.134517975807996827e-03,-7.774021462483959866e-03,6.411420702934265137e-01
7.309025508264254123e-01,-7.565927960293922228e-01,4.320733782426587344e-01,8.042573878934469386e-03,1.135498908111537003e-01,-2.593024793469428033e-02,1.377797603607177734e+00
6.488584072377926448e-01,-7.621972713007983957e-01,5.707298300813786751e-01,2.363403682623459179e-02,7.748060875048876431e-03,-1.911873664591218908e-02,1.374732971191406250e+00
5.204360559476204351e-01,-7.730253117247257721e-01,6.930988354206221169e-01,-1.329422394354122690e-02,1.556446562177569437e-01,-2.713938235100768481e-02,1.414780139923095703e+00
7.337650764555623262e-01,-7.573899312275227391e-01,4.090450017887727885e-01,1.679044744366163522e-02,4.229988769654326880e-02,-2.769149816577673104e-02,1.361356854438781738e+00
6.105923219494576726e-01,-6.851486508260563602e-01,6.700312168829405390e-01,-1.110329441090790806e-02,-1.958185594526722778e-02,1.483664042626509950e-02,1.327281236648559570e+00
6.193013245010841050e-01,-7.391663108027863860e-01,6.412700310432233319e-01,1.817569177995940338e-02,6.640743308489636954e-02,3.828745578671540611e-02,1.376364588737487793e+00
4.916367708898930489e-01,-7.534249732020549262e-01,7.142536688477330031e-01,9.939474646064538899e-03,2.096591632297893637e-02,2.712480867515579958e-03,1.370600581169128418e+00
4.449929251405890240e-01,-8.711325001454106598e-01,8.386849129032136752e-01,5.694198028974026965e-02,3.668541515184778334e-02,3.194508081351933593e-02,1.556326985359191895e+00
4.763855379422620162e-01,-7.549122767321059246e-01,7.251738945877845843e-01,8.541153700592331657e-03,2.193060644541249687e-02,2.095248372593801547e-02,1.373790860176086426e+00
5.331410104363762947e-01,-7.668348791916189677e-01,6.856489951025794838e-01,-2.730607906560172937e-02,8.373860220584906575e-03,2.026452395185039668e-02,1.383882880210876465e+00
5.309603521367327605e-01,-7.497662359816469335e-01,6.671215564981779478e-01,3.504652696762612044e-03,1.747594565263520944e-02,1.577797537289541557e-02,1.354579567909240723e+00
4.586790351604170812e-01,-7.675788387229602883e-01,7.077832176943703590e-01,-4.426823259882791545e-02,1.163987494920828980e-01,1.662401543931280729e-02,1.385128617286682129e+00
5.213526083974149294e-01,-8.872270758656035650e-01,7.776769032155109729e-01,4.621984610897106327e-02,1.245797373306725964e-01,-4.042640778861361812e-03,1.569671988487243652e+00
5.659523577312590703e-01,-7.686286248305449487e-01,6.646839518933644886e-01,-9.966607587842384736e-03,4.191538857968590825e-02,1.877171901109736529e-02,1.388972759246826172e+00
6.355731070350676415e-01,-5.572429371322557001e-01,6.101351317011666220e-01,-4.822507865977817415e-02,3.685512727808093469e-02,4.485169817492612454e-03,1.185000658035278320e+00
5.873229499875198822e-01,-3.690956703290262375e-01,5.912329384838728163e-01,-5.257307870926378190e-02,2.678182292821188956e-02,-8.112743219238957018e-04,9.638137817382812500e-01
6.542157526850118643e-01,-4.727979962787919321e-01,6.482421757710972177e-01,-7.635398161684456286e-02,-2.931492718904336620e-03,-5.574082626676134244e-02,1.135913729667663574e+00
6.499598183516189787e-01,-6.775834214116830401e-01,6.377368277539121610e-01,-1.209161337048018751e-02,2.834341338396201282e-02,-2.352831318632806618e-02,1.323179244995117188e+00
6.283205860716671864e-01,-7.382679601457777796e-01,5.744126074155839756e-01,2.247253566325572299e-02,-4.358747557578563497e-02,1.862384035015774916e-02,1.343523502349853516e+00
6.197999149633824922e-01,-7.624457731844785924e-01,6.471851791806495502e-01,8.819470198603214864e-03,1.290883970836107300e-03,1.237154998904942127e-02,1.396389603614807129e+00
6.533068378461077685e-01,-5.476778927456494861e-01,5.936880625418907709e-01,-4.521339606239195563e-02,1.179251371361898608e-02,-7.334460120072424337e-03,1.175171852111816406e+00
6.475767905385327872e-01,-6.637235277662800748e-01,6.373327993814204007e-01,5.055545384939551419e-03,3.603498533611978333e-02,-2.101452627204109663e-02,1.308234572410583496e+00
6.202162700419378005e-01,-8.015636863696788961e-01,7.007180877528736973e-01,2.905858057042543310e-02,-9.914466879512581765e-02,4.392656001072711355e-03,1.474610090255737305e+00
5.152700345111241864e-01,-7.709471108817134155e-01,7.005073403585168057e-01,-1.830674402666787950e-02,-2.022830880323643610e-02,-1.433477501127657962e-02,1.389162421226501465e+00
6.919151575793514031e-01,-7.922035930970949824e-01,5.407434471220602390e-01,-1.540217552518080395e-02,1.039397495026889336e-02,2.018904745930055755e-02,1.415402173995971680e+00
8.414226759776157749e-01,-5.426969847091807075e-01,1.903026104393433504e-01,-1.813292722744592675e-02,1.403372018213733807e-01,-5.004748471843556423e-02,1.227232933044433594e+00
5.684012712231859554e-01,-4.551325964007032487e-01,6.472040617255699901e-01,2.685712757820446408e-03,-9.261662874099654136e-03,-7.322608402015282070e-02,1.072778582572937012e+00
6.013957085957508664e-01,-6.219732974796813307e-01,6.695043527249283644e-01,3.293147482489021567e-03,3.991482730749208729e-03,-3.075138165603394369e-02,1.259964227676391602e+00
5.850840583120009430e-01,-3.533421767123482438e-01,5.707536183810519859e-01,-3.932994738843078458e-02,1.732311589242714264e-02,-2.926283311303236670e-03,9.343273639678955078e-01
6.577881191352334955e-01,-6.133331516845200726e-01,6.127488214657457188e-01,6.322953927467929794e-03,2.527047352856758369e-02,-1.174728703204351576e-02,1.250190854072570801e+00
6.515110546459179641e-01,-5.861496304971723914e-01,6.249227746592720401e-01,-6.457948102869201512e-02,1.868920107762649455e-02,-4.249819554906076463e-02,1.232307314872741699e+00
6.350711305426373077e-01,-3.610502993241200276e-01,5.853268823076513971e-01,-1.665093702378759866e-01,8.666518349654438874e-03,-4.269127114998413734e-03,1.014217495918273926e+00
5.765876851104738687e-01,-2.766649340399837120e-01,6.173829911277738391e-01,-5.161513291281410315e-02,-2.465046860596267070e-02,-4.202338672521678531e-02,8.829644322395324707e-01
5.432977456708316666e-01,-1.209154509958578760e-01,6.112160323602967571e-01,1.154477485650163768e-02,-2.091746125225421929e-02,1.280548674878006360e-02,7.022169828414916992e-01
6.098894905138076972e-01,-5.052328397048037045e-01,6.917977867147788729e-01,-1.181384706542584484e-01,-1.779367523064416881e-02,-9.724872310407847720e-02,1.188585877418518066e+00
7.671268637272348201e-01,-5.879617090638254995e-01,2.847095613766620348e-01,5.614328905254372531e-02,-1.678691078036828599e-01,9.227283710874695233e-02,1.238875508308410645e+00
6.821015977132689478e-01,-7.511440763221910455e-01,5.347692387932903024e-01,-1.820604283580850094e-02,-9.328539522282953272e-03,-2.463853276782593943e-02,1.366679549217224121e+00
6.414978712515019277e-01,-7.350485665934705093e-01,6.528922368601071113e-01,1.273415944989982236e-02,7.254538338658089031e-03,3.409839546167913599e-02,1.383772850036621094e+00
6.410448845614236113e-01,-7.645271128564214980e-01,5.757584089960563478e-01,-2.157413485527287858e-02,-7.048758858012256316e-03,-2.049654359065081546e-02,1.375113010406494141e+00
7.186617453670857136e-01,-7.611991810733820252e-01,5.187294454893358608e-01,1.043695153038497192e-02,9.188944523521690513e-03,-2.885653006473933024e-02,1.391821622848510742e+00
9.664581229389218597e-01,-1.134545319753203829e+00,1.974124402657330413e-01,-4.573077115514156965e-02,2.615478465452309442e-01,1.046310309530580629e-01,1.906362414360046387e+00
1.158921190292658610e+00,-6.864181508913972385e-01,1.382660423432678920e-01,1.876338063717441218e-01,1.859552294770565051e-01,1.869162772051205790e-01,1.696387171745300293e+00
6.797600159796353125e-01,-7.158693222599922246e-01,6.214139693530781328e-01,-4.055471619584881393e-03,1.754994120396949353e-02,3.450139258964725168e-03,1.367759108543395996e+00
6.981770677264831360e-01,-7.750795636049219173e-01,5.035566803814829351e-01,7.988779206645433076e-03,2.714796685400554894e-04,-3.612880078530723849e-02,1.387711763381958008e+00
7.040165943226045497e-01,-7.821996671866086048e-01,5.087944784222566685e-01,-1.243918859143683907e-02,-3.946225780212960638e-02,1.493275351906914357e-02,1.400932908058166504e+00
8.020755398638454992e-01,-8.485966793127135421e-01,3.492516446146016751e-01,-1.430466576843980042e-01,1.495122056024170976e-01,9.483863292081326501e-02,1.528965711593627930e+00
7.521672975760292923e-01,-4.046105609588037666e-01,3.443518892988693958e-01,-7.418260928908962382e-02,1.360217445343542553e-01,1.070873958315267799e-01,1.067293167114257812e+00
8.665349361304086617e-01,-1.396732048862082687e-01,5.849991583021481034e-01,-9.314227123549172205e-02,7.136274822558402210e-03,4.175782027920386876e-05,9.135714769363403320e-01
7.380465013789985207e-01,-5.274108137947404185e-01,6.156415910867807373e-01,-7.693975189872916121e-02,-3.374471074332840992e-02,-7.516109606815737920e-02,1.224577426910400391e+00
6.662825119139114127e-01,-1.063411511257476016e-01,4.533290206774135966e-01,-7.944808216593987615e-02,3.160955981954898658e-02,-1.196644056959998009e-01,7.366517782211303711e-01
9.681595358061628742e-01,-1.878811247639211590e-01,4.597492929811142770e-01,9.925960296665430060e-02,1.443233305819758942e-02,-1.051091246188709943e-01,1.034646868705749512e+00
5.488112229751331839e-01,-3.818690496992491745e-01,7.044955947625552994e-01,-8.809737443060569606e-02,-3.862467488315469294e-02,4.917572424209661758e-02,1.034557700157165527e+00
6.340429765347594948e-01,-4.878578793250044621e-01,6.025321643919847592e-01,-6.339268649310031423e-02,-1.912315392626429827e-02,1.856442962616326048e-02,1.112874388694763184e+00
6.579749943652701827e-01,-7.417588988145108475e-01,6.381797755488112234e-01,-3.703981353826238127e-03,-5.753456886421588583e-03,-3.354499433114541563e-03,1.390004634857177734e+00
5.642019123394981239e-01,-6.494910908524043069e-01,7.318682396833099402e-01,-3.631449439178845162e-02,5.047090685280168632e-02,1.746240567316254336e-02,1.310408711433410645e+00
6.007502696148503407e-01,-3.553458262837021486e-01,5.909957744118382594e-01,-5.407776763066230591e-02,-2.635826659805693903e-02,4.598925844102134258e-02,9.602558016777038574e-01
6.172557435355563449e-01,-5.586584283867083167e-01,6.330111478194484498e-01,2.443954567340145267e-02,7.508843175571986925e-03,9.985747409985214207e-02,1.197257280349731445e+00
9.472184260656529853e-01,-6.784189875855514140e-01,3.221774660855851735e-01,-4.423729554567762401e-02,2.534589734292115870e-01,1.342468224718537939e-01,1.506633639335632324e+00
6.898301781967056678e-01,-7.736565581109926537e-01,5.345872296884954800e-01,1.506307359877029177e-02,1.108069098716588444e-02,-1.903890479523324963e-02,1.393138289451599121e+00
6.646153519854089975e-01,-7.547831407269280923e-01,6.096483880254439658e-01,5.174162761471383940e-04,-3.990565838490227508e-03,-1.355362310584026266e-02,1.392944097518920898e+00
9.268319772477578988e-01,-8.399453463541429743e-01,2.552921338368623339e-01,-5.125653162422010023e-02,-7.703102267934618108e-02,8.027558167255367805e-02,1.559173464775085449e+00
5.794212796898980944e-01,-7.254502025323710246e-01,5.873076124977858470e-01,9.265497951000636239e-04,-6.560741083384841708e-03,3.563182070316253496e-03,1.308897376060485840e+00
5.985532704934484194e-01,-7.515728638028702502e-01,6.104899475722739277e-01,1.465686804092833188e-02,-8.238864592310679927e-03,8.693986785046448756e-03,1.356530070304870605e+00
4.581910486911123792e-01,-7.411989828126576141e-01,7.109241193855050378e-01,1.741232415042590770e-02,-1.949552650918586622e-02,2.398053383750546261e-02,1.345106363296508789e+00
5.699756599614362873e-01,-7.259565722031536827e-01,5.848588362987894307e-01,1.127835967973589486e-04,-1.617265609213076188e-02,-2.737763831764093193e-03,1.303747177124023438e+00
5.806881542866653145e-01,-7.247259867753207407e-01,5.870012634717909350e-01,-1.078648156726235970e-04,-2.263738444419961283e-03,-9.806447556419113729e-04,1.308589100837707520e+00
5.823893906328806436e-01,-7.262917091841907258e-01,5.868093392072326608e-01,-6.323490805284809509e-05,-1.060927702784010595e-03,6.731586183961202081e-05,1.310897946357727051e+00
5.262367098002721510e-01,-7.428077412736516782e-01,6.120746441331860188e-01,9.035320495747723585e-03,-9.131052570142257629e-02,1.450985435357202147e-02,1.323881983757019043e+00
5.780460435518843809e-01,-7.247399264646392503e-01,5.943353530143542507e-01,9.166797353089582495e-04,-7.522314708324893961e-03,1.017882245667997213e-04,1.311072230339050293e+00
5.886468467080960831e-01,-7.296235918403023435e-01,5.872922490602972001e-01,8.571890269471660675e-03,-2.623975948676650349e-02,8.330956214991854653e-03,1.318539857864379883e+00
3.847021910384692545e-01,-8.753020801161058850e-01,8.407010091793838402e-01,6.992445501182099898e-02,-6.245292378613136186e-02,3.211373721018870048e-03,1.548065423965454102e+00
6.185225607666906544e-01,-7.485862370986579029e-01,6.051263655602474589e-01,6.880207294454850422e-03,-3.631629571051275211e-03,4.948944455220745040e-03,1.360553860664367676e+00
6.210933021425509848e-01,-8.795976159510028314e-01,6.178296134952507845e-01,-5.159301791911911211e-02,-2.655798745041459963e-01,-1.924828369706078207e-02,1.570949077606201172e+00
3.923408673993156182e-01,-7.496689762716692851e-01,8.271044755846043151e-01,-4.338478431607572378e-03,-4.373719780736805979e-02,-1.875326312832480136e-02,1.412997007369995117e+00
6.850318074498586984e-01,-7.634114817881901827e-01,6.902851615860234880e-01,-6.965534916808627242e-02,-5.502271172029710167e-02,-8.364031293312032544e-02,1.466373085975646973e+00
5.935701608418085806e-01,-7.617193025653445915e-01,6.588071764028893273e-01,-7.007536318651353541e-03,-8.038071883171344148e-03,1.356506283840453776e-02,1.389378905296325684e+00
5.263640889505886156e-01,-7.480687846249448603e-01,6.666787955877619964e-01,-2.652614324396819490e-03,-2.122716471674677974e-02,1.635054772873745579e-02,1.350875258445739746e+00
5.161975879537603618e-01,-7.302809937236380833e-01,6.535118175086952474e-01,8.527512899011817360e-03,1.508750070103046653e-02,-9.317890799934440416e-03,1.320940852165222168e+00
4.554656830016394764e-01,-7.414290392109953443e-01,6.753514997461879110e-01,1.482695126882746517e-02,7.306490711722711529e-02,-1.351496763372520525e-02,1.327143430709838867e+00
5.346919074356075718e-01,-7.478773410346500894e-01,6.549809683020425544e-01,-1.075718467634641240e-02,2.104167631990242968e-02,2.365975009431177736e-02,1.347993731498718262e+00
5.149393700891984338e-01,-7.317718350951698536e-01,6.584014994008032806e-01,-8.833893594823640644e-03,1.829953689570313485e-02,1.010995217672057064e-02,1.324866533279418945e+00
5.574194229016127267e-01,-7.411621146271845095e-01,6.170103319782997975e-01,-7.112611843586601201e-03,9.342895148276743680e-03,1.340592825258425311e-02,1.329737424850463867e+00
5.488565220854764171e-01,-7.291775698803427685e-01,6.200692993354919302e-01,6.752555217703057333e-03,6.491602065513400743e-02,-1.399290265997515242e-02,1.320159554481506348e+00
5.657287896915372816e-01,-7.272707281424244385e-01,6.125445167271321711e-01,1.317931096713547377e-02,1.114372495139403889e-02,-7.414887090703582880e-03,1.317433357238769531e+00
5.917223607669908070e-01,-7.627369646923970459e-01,6.704161417121575761e-01,-1.157386030356680542e-02,-2.087965596312461175e-02,-1.533897781472796928e-02,1.396336555480957031e+00
5.818935168256801349e-01,-7.651005510133295218e-01,6.762580063220212656e-01,1.772531397272557666e-02,-2.130999440181290355e-04,-3.639059499245766733e-03,1.396921038627624512e+00
6.110049301511437658e-01,-5.306026448531571127e-01,6.056533351562364276e-01,-3.205920110629720265e-02,3.440809117411843671e-02,-1.693443940561540628e-01,1.178920984268188477e+00
6.232125127965908451e-01,-7.480352648799210025e-01,5.942783571099339301e-01,1.370478520420645788e-02,4.197350517196285491e-02,7.544578024010525907e-03,1.359228253364562988e+00
6.427947560344351441e-01,-7.682748052110759396e-01,6.495121679358808464e-01,8.498886671910963267e-03,-9.366597543320144895e-03,7.260025721759635377e-03,1.414665699005126953e+00
6.429069828843096968e-01,-7.515458500296555711e-01,6.360255304479414118e-01,1.033792792532294696e-02,-4.332415642270341129e-03,6.609168347701259612e-03,1.391207456588745117e+00
6.559569417966224503e-01,-7.079033562377439193e-01,6.330460722873381130e-01,-3.119164703853179524e-03,-2.057982324744424274e-02,1.824819573952460305e-02,1.353399872779846191e+00
6.668246539014041074e-01,-7.624598308767220889e-01,5.429862903835369625e-01,1.839783297348359867e-02,2.498932660284288246e-02,-9.403353663778363583e-03,1.372714042663574219e+00
6.484932740226563297e-01,-7.568173033319220977e-01,5.743770532264309558e-01,2.477004395547137763e-02,9.557274480729502364e-03,-1.920699993297803401e-02,1.370932579040527344e+00
5.881507867001992684e-01,-8.824739858810131121e-01,6.707477542450477337e-01,3.149797371597706092e-02,7.319654600368917519e-02,5.333193501827628719e-02,1.522698640823364258e+00
6.635078826975421284e-01,-7.301393855182261028e-01,6.399203226419803991e-01,3.712194717891695566e-03,-2.213245139037062562e-02,1.908078040373839155e-03,1.382554888725280762e+00
6.477741426173440065e-01,-7.797574247138072678e-01,6.467186811266580904e-01,-4.569988113478635845e-08,-3.333707501565564895e-04,5.792769298984070704e-04,1.427004575729370117e+00
6.418205596512300826e-01,-7.790445490407735818e-01,6.478225408654643136e-01,-2.187719097070024189e-03,-3.175820126560579063e-04,5.767465138048006234e-04,1.423881053924560547e+00
6.476024262834240153e-01,-7.810649819574054797e-01,6.481221454900756296e-01,3.188111807695572083e-04,8.579649315667339240e-08,7.530261967340475199e-04,1.428928017616271973e+00
6.501499328864699390e-01,-7.793669245673879864e-01,6.461652007330120906e-01,-7.784807926013231569e-05,-3.135058207060948711e-03,2.482689722377991789e-03,1.427545428276062012e+00
6.476142790468892851e-01,-7.739558884590839183e-01,6.426979490939224160e-01,-5.294936711494020037e-03,-1.925990230610331866e-03,2.100052768749764188e-03,1.419156551361083984e+00
6.405315893912585379e-01,-7.795278273563177596e-01,6.445324283398616849e-01,3.265331069963023879e-04,-1.759358080415115251e-03,1.937477378789020065e-03,1.422071337699890137e+00
6.948759965833869456e-01,-8.400006190965815245e-01,5.183196687975125672e-01,-4.476732090356867755e-02,-2.000122328489418733e-01,-5.042482075135010927e-02,1.499893784523010254e+00
6.439484646113925459e-01,-1.012091271982045404e+00,3.836469743835314028e-01,7.355379171246934078e-02,-4.259315137916870886e-01,6.793881660718995019e-02,1.718570709228515625e+00
6.656739405334610726e-01,-9.599846530666908961e-01,5.235179207883657870e-01,-4.988887010070953282e-02,-4.979209357812163783e-01,1.622706266983186540e-01,1.806132555007934570e+00
6.468266455905632428e-01,-8.790308209777690784e-01,4.001647957376509024e-01,-1.408975362416883641e-02,-3.739258268329115342e-01,-2.653406624218642568e-02,1.560410737991333008e+00
6.617477257990371786e-01,-7.293198961080820109e-01,4.903176529431942932e-01,-5.751935238394168676e-03,-1.931170256274546138e-02,-3.882840375552433910e-04,1.314231753349304199e+00
1.141941877134896810e+00,-1.383078465610426022e+00,2.070021268200681330e-01,-1.313404202149000451e-02,-2.916050920829159621e-01,-1.625518719464132209e-03,2.268198490142822266e+00
7.300533438554721588e-01,-7.727183835812801993e-01,4.944768417486453682e-01,-1.183035693437726500e-02,-3.616927843977474962e-03,-2.727709586924235291e-02,1.400889992713928223e+00
1.078758213979160274e+00,-8.407392369731256920e-01,2.172513693906225896e-01,-4.912997895723255487e-02,-1.453746566200843915e-01,3.640739836073928013e-03,1.686323404312133789e+00
7.227464272611365814e-01,-7.135990253622541690e-01,4.989089387796880048e-01,1.485320776087642458e-02,6.743930745017924500e-02,-1.839158928087109707e-02,1.344248652458190918e+00
8.326469468288293374e-01,-7.157437061203685280e-01,5.318099497845582002e-01,-1.279182281786608172e-02,6.498926433941494551e-02,8.781140339077656010e-02,1.434746503829956055e+00
7.280045035667140896e-01,-7.607182837550234833e-01,4.719448569596117471e-01,1.784190379979530561e-02,2.839599423981404788e-02,4.572662176294373104e-03,1.379890203475952148e+00
5.798099940265928343e-01,-4.695752395911976240e-01,6.416877898045241224e-01,1.223067799548575689e-02,1.966139954432219450e-03,-6.786113208503252725e-02,1.088231444358825684e+00
8.161577801045757363e-01,-4.743206001013902107e-01,2.185008508002736494e-01,5.079129933571573802e-02,-4.725458805426771547e-02,1.911896676229038472e-01,1.172758936882019043e+00
9.180024915259479279e-01,-7.976892283480737644e-01,3.154790926024856335e-01,7.129535924951078962e-02,7.350160136899763774e-02,1.053777888547605818e-01,1.528940200805664062e+00
7.031076399624400786e-01,-4.114690212796942026e-01,2.526591814040391459e-01,-6.133873457334786811e-02,2.122504270396211590e-01,2.038918246076164842e-01,1.101943373680114746e+00
8.517105452528775933e-01,-9.776456718566128856e-01,2.647506013555013804e-01,6.520130633172561974e-02,-1.973929123811608843e-01,1.997946641994527428e-01,1.693135142326354980e+00
8.418303527943102882e-01,-7.309822431749152249e-01,4.378784902111086397e-01,-2.722306968615407705e-02,2.253642269439947235e-02,3.609103433050628307e-02,1.417473316192626953e+00
5.733788208276791032e-01,-3.513398658640988215e-01,5.952929012973929845e-01,-2.591506130661843862e-02,-1.716972885095541246e-02,-1.343694076005794158e-01,9.658746123313903809e-01
5.923009057426711355e-01,-7.399529946695899696e-01,5.981967224025710461e-01,8.705475055529424979e-05,1.676180574669921880e-03,1.532809231215603082e-03,1.335217356681823730e+00
5.961852859752141409e-01,-7.411128966280974284e-01,5.922654596431854435e-01,1.755087035734815941e-03,-4.868106519759788677e-03,1.002606926537556731e-02,1.335485577583312988e+00
6.136308372724403881e-01,-7.385357586609331282e-01,5.940308699872771658e-01,1.009120544263850811e-02,-1.271391692721031332e-03,1.639806336817114076e-03,1.342592477798461914e+00
5.952530617436719851e-01,-7.325090073483677688e-01,6.040360869338983196e-01,9.948634797539110744e-03,-1.513709016241217807e-02,1.161041478749686405e-02,1.332696437835693359e+00
6.122507651015991481e-01,-7.293188770451027869e-01,5.665904423443572924e-01,1.012944881768669016e-02,-8.069821598032926591e-03,6.639772297828273710e-03,1.319573044776916504e+00
6.330151834940711542e-01,-7.424583619899707276e-01,5.571079537679173299e-01,1.589933177010465631e-02,-1.134989354630872894e-02,-9.721900062079780885e-04,1.339562892913818359e+00
6.234742259197013636e-01,-7.626083577756612719e-01,6.344007465761207776e-01,9.969310702928838724e-03,-5.265909784598949220e-03,1.185952647760882273e-02,1.391866564750671387e+00
6.197970571182696009e-01,-5.506448250773884334e-01,6.135535244742378325e-01,6.072755196604554678e-02,-2.941151908885528132e-02,1.199473954558749611e-02,1.173352360725402832e+00
8.139396121423005948e-01,-1.331882300321184376e-01,6.477546600928409948e-01,-7.870606383675565754e-02,-1.752325164043169181e-01,-9.969659887853599134e-02,9.527810215950012207e-01
5.566003707923041777e-01,-3.337770380431165362e-02,6.119805773446872488e-01,1.377267049688272321e-02,1.816239095220554059e-02,4.473669895615865755e-02,6.256012916564941406e-01
6.336153236902551944e-01,-5.965143612702941134e-01,6.712345531073964366e-01,1.264924811534773319e-01,6.656287280566339573e-03,-6.298133219159279816e-02,1.273163318634033203e+00
6.592066519879951070e-01,-6.079805866011069870e-01,6.738370144833958353e-01,1.280487016135310463e-01,2.829245390431755353e-02,-1.002920103987812589e-01,1.306247711181640625e+00
7.200413334539087495e-01,-3.282564167682990863e-01,5.996457601231174328e-01,1.294408670088329771e-01,9.917577211659234226e-02,-1.022822551341059094e-01,1.048031568527221680e+00
7.096518184633140436e-01,-8.235905696419643096e-01,6.494621034752408040e-01,1.300494846054242419e-02,8.461427244760186261e-02,-5.627627300257397047e-02,1.514482378959655762e+00
6.726042582904908640e-01,-7.652210399366987659e-01,6.357493397791582623e-01,-2.274588662778439900e-03,3.221119344602310381e-03,5.319282142371449312e-04,1.419773340225219727e+00
5.821865653817317465e-01,-2.549457806110539959e-01,5.651972560176319327e-01,-5.977624273791911497e-02,1.800897252421663347e-02,-3.721814258944326770e-02,8.382750153541564941e-01
6.733812049098247821e-01,-7.513075904210129163e-01,6.300127811452675974e-01,3.712966171629733590e-04,4.092743866321290995e-03,3.498834421529464257e-03,1.403538346290588379e+00
6.786285352143868188e-01,-7.306697178552813421e-01,6.258850043223742610e-01,-7.924460138907962747e-03,5.210284259151317515e-03,4.258682440191834768e-04,1.383778333663940430e+00
6.527348610218379754e-01,-7.772896590377649240e-01,6.450265756985347210e-01,1.781405225925540656e-03,4.711877347123962986e-03,1.116262177595435997e-03,1.426213979721069336e+00
6.869204610181770532e-01,-7.456975931636279364e-01,6.253194607862694321e-01,5.348544594042946125e-03,6.954985202818041341e-03,-3.941485477515013639e-04,1.402914762496948242e+00
6.452483591938715790e-01,-7.614658162898138016e-01,6.448777077235221533e-01,-1.110429514014720474e-02,2.922118790335678437e-03,-5.806222102646189064e-04,1.406669855117797852e+00
7.891570691640611424e-01,-7.130674435932078392e-01,3.331139367750167724e-01,-2.582590486723998491e-02,-1.815359165790570717e-01,-4.953702955001274694e-02,1.373973488807678223e+00
9.687087765112473159e-01,-9.635709823515745676e-01,2.375355708289828283e-01,-1.213743087608302497e-02,-1.520409331842754452e-01,1.782386160794720009e-01,1.737983465194702148e+00
9.423425918438765869e-01,-1.445132391805215910e+00,2.944356078621135353e-01,8.643886170546867531e-02,-3.189130411128706655e-01,-2.707406406318555933e-03,2.213710069656372070e+00
9.255154310523450167e-01,-8.575955089273635812e-01,2.548516743133495410e-01,2.053649768438057382e-02,-6.788968473057420405e-02,-5.391921499067815066e-02,1.567552447319030762e+00
6.839132290903197076e-01,-7.672945211125907772e-01,5.800342276327921098e-01,3.980296823242684447e-03,-1.803279647063765062e-02,1.470275337444408408e-02,1.402753114700317383e+00
6.333950706687641041e-01,-6.053573111172282362e-01,6.445853347337131556e-01,2.048130473684909442e-02,6.786648196769769908e-03,4.458611684026024535e-02,1.247339129447937012e+00
6.391630554758740423e-01,-7.119293034210001370e-01,6.585591741565754997e-01,2.434292001897026166e-03,-3.450160270085844607e-03,-6.053908630780416994e-02,1.364947319030761719e+00
6.583325103956386704e-01,-7.326876246766571565e-01,4.954954963206036345e-01,-3.618100594810542796e-03,1.647378249514335272e-02,4.244640522675165346e-03,1.317516922950744629e+00
6.150655585191739938e-01,-9.086219439435390122e-01,5.785269632994562983e-01,2.959536993131709620e-02,2.628582688144606716e-01,9.310994294199416085e-03,1.573993802070617676e+00
6.521810858045358206e-01,-7.865189478746517082e-01,3.823812823108216907e-01,-2.544969495448572909e-04,2.311929797542011111e-01,1.200178059161541473e-02,1.383933424949645996e+00
7.246669930591257414e-01,-7.463081562134655789e-01,4.118958704363478995e-01,-2.194005729200195973e-02,3.446737515430089299e-02,9.683180389232947521e-03,1.344174265861511230e+00
6.642483850997826789e-01,-8.454859975378076209e-01,5.302485426986569550e-01,-4.408839406279937978e-02,1.199168544493308119e-01,2.302392834660726972e-02,1.464756488800048828e+00
6.864998084809198486e-01,-8.403259168827827974e-01,4.941293414215709445e-01,-2.833460552118158803e-03,1.221471957206452241e-01,8.261159930873065993e-02,1.462786674499511719e+00
4.976006638204920063e-01,-7.406623937118514966e-01,6.201044757787218531e-01,-1.214665398642184556e-02,1.384337500395595166e-01,9.811804557420727990e-03,1.325978040695190430e+00
7.273448082606623899e-01,-7.818318437088481732e-01,4.596265647885041106e-01,6.585220918047841876e-03,-9.368060180194175135e-02,3.974928963920108110e-02,1.405863165855407715e+00
1.010908033414675833e+00,-3.694915433851452269e-01,3.759636943470602288e-01,1.078089032298726185e-01,-5.346483869521217319e-02,-5.160594638728887434e-02,1.218036770820617676e+00
8.060005490218491442e-01,-7.205437767331889232e-01,3.200329414316058774e-01,-4.074319914744378018e-02,-1.733225700925926926e-01,-2.114238740433724562e-01,1.433127164840698242e+00
7.351587561863791587e-01,-7.639093681874321584e-01,4.138896010239795364e-01,1.552658751254829342e-02,-4.059197023548376249e-02,2.208756751128894066e-02,1.369651317596435547e+00
6.349346015414580879e-01,-7.212399642064072358e-01,6.777868497664967240e-01,2.749267198882258002e-03,-1.407344262431109265e-02,-3.022449376197907864e-02,1.379318118095397949e+00
1.149970000879768639e+00,-9.525819263554680116e-01,4.334991363401968778e-02,-7.128528087439436889e-02,-9.068737005498050952e-02,-4.375350526846817634e-02,1.834193825721740723e+00
8.897736297783590542e-01,-8.896583529052333184e-01,3.166740383080429710e-01,-3.190341244820846939e-02,3.176993387139610825e-02,6.068268908116127708e-02,1.578657150268554688e+00
7.419267735009904552e-01,-3.018744081491212539e-01,3.894860918662886862e-01,-6.173523859464157687e-02,-1.649653789710672780e-01,-4.526789773890214225e-02,9.721519351005554199e-01
6.471815974551377026e-01,-7.452071562981693598e-01,6.103065679591601622e-01,5.462233351906068020e-03,1.550545646354677641e-03,7.351100329017232898e-03,1.374416470527648926e+00
3.115374062236749286e-01,-4.479743583069247803e-01,9.251028207638737344e-01,1.796299887508068793e-01,-5.897940867825401251e-02,-1.050188429154228081e-01,1.248861193656921387e+00
5.545717502195264270e-01,-2.731197848725502864e-01,6.297897833416459257e-01,1.690043363467487458e-01,-1.265270343190655900e-01,6.531034915885700065e-02,9.484193921089172363e-01
5.753299397593528708e-01,-4.621277409900241828e-01,7.202730524489974195e-01,1.136952128050881389e-01,-3.058844248323313031e-01,-1.707791249028977026e-04,1.251868605613708496e+00
2.475745457498399194e-01,-5.314041658497539178e-01,7.786118765804321828e-01,2.046520197658560358e-01,-2.549053902879169220e-01,3.694624187259998999e-02,1.275597095489501953e+00
6.056397931649941668e-01,-7.596679259005455487e-01,6.557360183843718993e-01,3.851533787291858742e-03,3.273478586357109806e-03,-1.287469116323477873e-02,1.391238808631896973e+00
4.226279287291251352e-01,-8.063082395531466773e-01,8.596303871389657791e-01,4.981133568148381902e-02,-8.071899982173690036e-03,4.341777481482033546e-02,1.500532507896423340e+00
5.811859569751749444e-01,-7.517229154589599727e-01,6.458729238355822577e-01,-1.008523100653864468e-02,5.085083839231889502e-03,1.470826821398165361e-02,1.366778731346130371e+00
5.991504848894961821e-01,-7.528851257048851942e-01,6.589324740587533258e-01,-2.001099568905040024e-02,1.361672662013063868e-02,2.791589906927862200e-02,1.384376049041748047e+00
5.866079730818976046e-01,-7.418819789827878486e-01,6.443855643275602230e-01,-2.247623320685188109e-02,3.775779844876192386e-03,2.319187511296058254e-02,1.359467744827270508e+00
5.896815545813884896e-01,-7.633288020855890643e-01,6.541125601398939393e-01,6.856061334183320005e-03,1.370992546518066089e-02,1.231223210742478889e-02,1.386767387390136719e+00
6.526490583649979804e-01,-7.681172285433769398e-01,6.434912563551432596e-01,3.430122729422786353e-03,-7.324842750430823196e-03,2.866157444139846248e-03,1.416287541389465332e+00
5.841583376243819625e-01,-7.523198891267643962e-01,6.276667665720933043e-01,-1.325773106959691160e-02,1.003288149478198665e-02,2.241548422426355158e-02,1.359614610671997070e+00
6.014544227021066947e-01,-7.530519182475120532e-01,6.288139665324695704e-01,-6.916852103280442601e-03,1.459207640648576198e-03,8.864899091612973153e-03,1.368532180786132812e+00
6.713634444230087706e-01,-7.450700487770257618e-01,6.361282395395936318e-01,1.213953007676574387e-02,-1.425830812976322005e-02,-2.822492309663178142e-03,1.399533152580261230e+00
5.000778371093423935e-01,-7.317135450711846900e-01,6.557797386825687802e-01,-1.063158646221425358e-03,1.541687168035353606e-02,3.505268692061159434e-03,1.316851735115051270e+00
6.293193744346511354e-01,-7.381234732180588232e-01,5.471342386228166266e-01,1.626848746921859268e-02,6.335945558669703326e-02,-2.244627812176826914e-02,1.333649039268493652e+00
4.380812631418990466e-01,-9.259152226221110116e-01,7.858035438888398838e-01,7.131661573915913134e-03,1.946094397322284675e-01,-2.015545453107020317e-03,1.602957367897033691e+00
6.341785960654283683e-01,-7.595646442055613567e-01,6.030832281382179083e-01,8.925950229387160512e-03,3.215868329800017356e-02,-1.711927549331591913e-02,1.379988789558410645e+00
6.467011138918421498e-01,-6.318251405349051275e-01,6.175643484199913047e-01,5.286304021452700730e-02,-1.806156397710058717e-02,2.322783473010418733e-03,1.267913460731506348e+00
6.623278942338508557e-01,-6.480453167275594950e-01,6.149168782215650442e-01,2.058876403775298375e-02,-2.253989736325111293e-02,-5.961180190242414655e-03,1.288449525833129883e+00
6.591468991650928366e-01,-6.282203053818709027e-01,6.147106958561394663e-01,-6.310432199921656854e-03,-2.391576838383814921e-02,-2.223904883357602849e-03,1.266464948654174805e+00
6.389732013598291571e-01,-5.561078980041588293e-01,6.066020858199145938e-01,3.461960497637996126e-02,-3.328376840712004431e-02,3.936233352277940245e-03,1.182178497314453125e+00
7.082293484706736475e-01,-7.695811593059601607e-01,5.139361834361559911e-01,-6.175913617680723298e-03,-5.878376894352455202e-03,-2.775093616860413101e-02,1.391787886619567871e+00
7.234815248652433084e-01,-7.719493912615208453e-01,5.028507048618161557e-01,1.490018694869475573e-02,-3.675006313557257608e-03,-2.132277809196073820e-02,1.398972511291503906e+00
7.255576667852767780e-01,-7.587834503509796047e-01,5.038351664317266554e-01,6.424383124339961594e-03,-4.023183386313330771e-03,-2.770003898021027727e-02,1.387729048728942871e+00
6.852022616717130532e-01,-7.678795445920475471e-01,5.352669141772732342e-01,-2.091478122680674734e-02,-8.551715547657925617e-03,-2.096538792147231711e-02,1.385246992111206055e+00
7.161269553579805436e-01,-7.508830916135392775e-01,5.094696099359894426e-01,-4.182487801206844933e-04,-7.257721559065326289e-02,5.965062885645763813e-02,1.384967446327209473e+00
1.053881871599944731e+00,-7.125110843360230595e-01,1.731390523607330423e-01,-5.096900860848174730e-02,-1.430903686579995671e-01,1.339389172854843768e-01,1.569442868232727051e+00
8.857590336884948456e-01,-8.194898623320302500e-01,2.947627195818336432e-01,-2.048439454281196503e-02,-5.979440470744956833e-03,-5.075162207900058703e-02,1.502813339233398438e+00
6.054095479760661647e-01,-5.417807338937387085e-01,6.347104547736772684e-01,2.707945417252164907e-03,2.716083587652864950e-02,-1.681490626606592376e-02,1.163443684577941895e+00
6.178952549154084206e-01,-4.601195618675881782e-01,5.698707356371387478e-01,3.766598444157523169e-03,-6.247728111429095253e-03,-3.884053799917462635e-02,1.057041406631469727e+00
6.378433328773838173e-01,-4.013809939719374942e-01,5.743861661088318638e-01,-3.073286521979110703e-02,-1.982791678610605970e-02,1.085185592176012232e-03,1.010981798171997070e+00
5.661333072296280688e-01,-1.141447155493696686e-01,5.631581784979580174e-01,2.128294890867446151e-02,4.039053421202402731e-03,1.421320814200997470e-02,6.802771687507629395e-01
9.452461970374195221e-01,-1.026485692416417850e-01,6.930785726344926845e-01,4.696197000011727990e-02,-8.451481008143542362e-02,-1.320661721794731680e-02,9.622861146926879883e-01
5.148788351608726277e-01,-7.506442531188169953e-01,7.140148753235511236e-01,-2.203556678181369313e-02,-1.428814504862554319e-02,-2.816309433596165049e-02,1.377557158470153809e+00
8.572807120502842770e-02,-1.012483807508534728e+00,1.228600423798770880e+00,1.605663810390099144e-01,-1.379126733177458708e-01,1.237767966873760950e-01,1.986884236335754395e+00
9.925877135039347376e-02,-6.811293064610407511e-01,1.141152158058966304e+00,1.475121521905514155e-01,2.379986325606990583e-02,9.505600866405994331e-02,1.612982988357543945e+00
1.351925544460540474e-01,-1.173390693085062164e+00,1.197530260033641047e+00,2.116210199396679481e-01,1.676423341815129475e-01,-5.189721119134815819e-02,2.111362457275390625e+00
4.223531079617065531e-01,-8.009799599230449374e-01,7.555751672119054296e-01,2.169025922372419535e-02,-3.217586005886007849e-01,1.051771455259634530e-01,1.536361336708068848e+00
8.701690484895198141e-01,-8.882363350198974050e-01,3.114158785043712463e-01,-1.924098246724665132e-02,1.485827718212812676e-01,3.985616546700077555e-03,1.577678322792053223e+00
6.229505144231916036e-01,-7.667050020146732869e-01,6.269256579892790171e-01,-5.113115686821941876e-03,2.952654499501499927e-03,2.213827446376031866e-03,1.391690254211425781e+00
6.346923395572501292e-01,-7.661788353005164476e-01,6.274843575671577023e-01,-7.251106709245599968e-03,5.842031708836727079e-04,9.806551740536625233e-04,1.397338986396789551e+00
5.716286474507668025e-01,-7.361363060605571329e-01,5.686819597857871722e-01,-9.177742004734751671e-03,5.363134515784408196e-02,4.176454927311932554e-03,1.309709191322326660e+00
6.098337204129181677e-01,-7.402365620719930650e-01,4.906519267534837914e-01,-8.465773922919446817e-03,1.167684627659778124e-01,1.306595039782268430e-02,1.310580849647521973e+00
2.601288139356480178e-01,-7.546168380084609106e-01,8.160491874022742786e-01,-2.067369431699081148e-02,4.640400084216213944e-02,6.494997917232521456e-03,1.382296204566955566e+00
6.856720097272162029e-01,-7.503326676326785849e-01,5.235628522296431608e-01,-4.223068348765543316e-03,1.551447057085582424e-03,-8.131636466957171960e-03,1.362298965454101562e+00
1.872677206768102454e-01,-8.841386069690958527e-01,9.762843028249281740e-01,7.390460947764902755e-02,-1.098894693263688799e-01,2.555592317061522803e-02,1.634132266044616699e+00
5.445841899780936579e-01,-1.200165822060876630e+00,6.433624721521227219e-01,2.224962553781206220e-01,4.676650393916633730e-01,6.107035744461562082e-02,2.010494232177734375e+00
4.624706614858890563e-01,-7.532422577971328304e-01,6.809446265470420201e-01,-3.086208543668860979e-02,2.846808459074193567e-02,2.514233909275113629e-02,1.341072559356689453e+00
4.639544132054251313e-01,-7.330211231405466821e-01,6.743871455674576021e-01,5.772997992429462592e-03,3.888122858328090653e-02,3.209496519736463552e-03,1.316655397415161133e+00
3.871649889398882105e-01,-7.774177455525888014e-01,7.547075541566311552e-01,-4.135553621603867830e-02,6.543538685799301681e-03,3.144992715653989294e-03,1.387322306632995605e+00
6.262934314816064330e-01,-7.313850187974615391e-01,5.460356879830020604e-01,-1.141866113873861964e-02,6.124487882365017150e-02,1.329077529396820515e-02,1.323987126350402832e+00
6.840556861904880659e-01,-7.638874812839071549e-01,5.800359196116118277e-01,3.345676990370996268e-03,4.169284160407791748e-03,3.935581179872284924e-02,1.400527477264404297e+00
6.367712963507932145e-01,-7.499290847943959060e-01,6.732369891847467258e-01,-4.083632453673565962e-03,3.740562751317308508e-03,-6.033540661762844606e-03,1.405359745025634766e+00
5.839199576823681515e-01,-3.754425441588680190e-01,6.313091962552692671e-01,-2.578967091903592787e-02,-8.011604657821469466e-03,1.404770090342511157e-01,1.014630436897277832e+00
7.351513254952312115e-01,-5.476703696942998301e-01,5.684562772943397846e-01,2.465398315882393054e-02,1.345929202156199642e-02,1.331870345650748300e-01,1.230919122695922852e+00
6.832332872927077139e-01,-7.605668716846688548e-01,5.710617754247222511e-01,6.604377330565854888e-03,-1.526086887465643140e-03,1.914185402263323191e-02,1.391554951667785645e+00
6.423443718854933149e-01,-7.516012533923897010e-01,6.433750649950989997e-01,-3.076601482535987284e-03,-8.195454346476931801e-03,2.452509404687514254e-03,1.394550204277038574e+00
6.624747629801901461e-01,-7.553212144360090807e-01,6.126552085093696087e-01,6.942653846980870874e-03,4.836902218974795456e-03,-1.460278380046960492e-02,1.393860816955566406e+00
6.401668515768291767e-01,-7.389757550182133317e-01,6.637917992255946142e-01,6.217340235055763935e-03,-5.370396132998670607e-03,-3.977893706137648928e-04,1.391178488731384277e+00
6.507690840595973247e-01,-7.754709225472505851e-01,6.463751792668339657e-01,-7.522886903191072609e-04,3.969758345696571510e-03,-5.270792724174483239e-03,1.424094557762145996e+00
6.457155290821441351e-01,-7.780531031732976777e-01,6.525514222446477941e-01,-2.853176713193984575e-03,2.979081875319733105e-03,1.519477162318674107e-03,1.427219152450561523e+00
6.271259237003996567e-01,-7.656813557219056543e-01,6.615910088177615611e-01,-5.942153119987847280e-03,1.407806308975298199e-03,-2.582973902023648284e-04,1.410395383834838867e+00
6.413076145648453075e-01,-7.770624036991701233e-01,6.533311453980875649e-01,-4.247508989913618624e-03,4.124835021407315463e-03,1.202290583904176919e-03,1.424458265304565430e+00
6.562245439153355786e-01,-7.619342641349931000e-01,6.460050303984958830e-01,-2.464174982172344722e-03,1.789942626119641472e-02,-7.671082436904741193e-04,1.413423895835876465e+00
6.453077319150234414e-01,-7.635605177441618929e-01,6.569575450973761388e-01,-7.860642466112883033e-04,1.794070130575639230e-02,-3.249602884231602307e-03,1.415082216262817383e+00
6.419438088309969981e-01,-7.744620935894088731e-01,6.462601748885494768e-01,-4.276680249787898416e-03,2.172031880484697787e-03,-4.142407746579506410e-03,1.418611526489257812e+00
6.577533738068185309e-01,-7.757130405727102884e-01,6.479638012818600412e-01,-2.498397752260304145e-04,8.121640976685395169e-03,-3.285815878176777914e-03,1.428677439689636230e+00
6.245990603700255495e-01,-7.651084880131803212e-01,6.361723574800757230e-01,-1.025302407233374957e-02,-5.772949917895751036e-03,-1.218994654831245458e-02,1.395838737487792969e+00
6.369644657545987521e-01,-4.757276322198236151e-01,5.755142671269677379e-01,-6.338168464558872894e-02,-1.383063145239062271e-02,-3.467844686534304541e-03,1.089103460311889648e+00
4.114739176490680439e-01,-7.386277469337325652e-01,7.273536290534623472e-01,-6.688154447992410503e-03,-2.171378909930289300e-02,2.098320374205314015e-04,1.336920499801635742e+00
5.986166878240730682e-01,-2.649698825285843329e-01,5.695247103789609078e-01,-7.539087794187505909e-02,-4.295449404953135923e-03,2.092927961685917687e-02,8.601891994476318359e-01
6.154621330297224135e-01,-4.594260430434369269e-01,5.879307826767996570e-01,3.636843704442230523e-03,3.035171088323591199e-03,1.928266195326827637e-02,1.061947345733642578e+00
6.377487769249581273e-01,-4.625173423709174614e-01,5.915551845772459849e-01,-5.518682003468771552e-02,1.813289015569079579e-02,-3.606642635459115630e-03,1.082615494728088379e+00
5.993649288442579603e-01,-3.761849146493605467e-01,6.244619815858647449e-01,-7.802412337329080183e-02,-3.047905789870003121e-04,-9.649649077402018549e-03,9.976741671562194824e-01
6.404133540306142791e-01,-4.662072876878594618e-01,5.784519291526393214e-01,-5.284279099517354139e-02,1.515458908756438412e-02,2.871849923541257028e-03,1.081189870834350586e+00
6.635602240336233582e-01,-6.563960791700239605e-01,6.062906855957148622e-01,-7.091891669331473746e-02,5.097424118725038186e-03,-1.890284888961295956e-03,1.298132658004760742e+00
4.448426040620678257e-01,-7.353601821472875999e-01,7.229819134899800881e-01,-1.677029975835729048e-01,-2.631704806955330600e-01,-8.641571261987811281e-02,1.453634381294250488e+00
4.938918481386465609e-01,-8.291473491688055031e-01,5.112425108191058776e-01,4.430484180466174454e-02,-4.197447748076114649e-01,1.626030650374716072e-02,1.519515872001647949e+00
3.785239349271306564e-01,-8.104151870194985507e-01,7.553488706725463020e-01,3.686595205757355054e-02,-2.664623260421253859e-01,-2.826156827661579010e-02,1.490998029708862305e+00
3.874050725013605811e-01,-7.811410259805229295e-01,7.448713988663437924e-01,4.666212530095355075e-03,-9.878155179357668569e-02,1.635172166578097164e-02,1.393247604370117188e+00
3.862543551431089073e-01,-7.586097129593893929e-01,6.980619205010225592e-01,2.562182124095674710e-02,-1.787866420056399563e-01,2.992842012218567202e-02,1.365820407867431641e+00
4.898532584397615741e-01,-7.396457139631555933e-01,5.821796095029152518e-01,-1.653246565284552730e-02,-1.422415872313513852e-01,-1.514779032761296752e-02,1.302272439002990723e+00
4.451478528387705635e-01,-7.332949010367664222e-01,6.829756397755671893e-01,-1.155492263912134701e-03,-5.963506307618100105e-02,9.559003224096970092e-03,1.317764401435852051e+00
7.483977291129125797e-01,-8.249157720462276799e-01,4.144819611288605987e-01,-4.717317048506002551e-03,-1.811253744703865964e-01,-5.869999145611649871e-02,1.473188400268554688e+00
3.146341499309340817e-01,-7.493240162090842871e-01,7.891155801931465374e-01,-2.285423615942817205e-02,-1.623465721063640718e-02,-8.018242342499334527e-03,1.365473747253417969e+00
3.578006208141188416e-01,-8.412838830077641328e-01,7.650723352832341506e-01,-6.428674953904832401e-02,-9.322571015319110199e-02,-4.066088223145376129e-03,1.459639787673950195e+00
2.807062902722259334e-01,-9.368194499419555399e-01,8.139185856989901158e-01,-4.263269401073509907e-02,-1.129560220498221079e-01,-3.094505664320685093e-02,1.569231152534484863e+00
3.911697319813746687e-01,-7.751554080186504603e-01,7.428859889713101960e-01,1.092643739887295008e-03,-8.277149388471492786e-02,-1.405711988911203733e-02,1.383973956108093262e+00
2.403511380386233187e-01,-9.478391384592892432e-01,9.290804570126875994e-01,-3.396694688021681396e-02,1.859501936329745198e-01,5.608918013577307744e-03,1.676834464073181152e+00
5.076754965222849414e-01,-7.987678627861718450e-01,7.117203516065917501e-01,5.144464243096575490e-02,-2.126295443038177940e-02,1.509000893095812680e-02,1.423018217086791992e+00
3.222808885838023829e-01,-7.607074249754850470e-01,8.212629639849345908e-01,1.558413202786139255e-02,1.068753809210616114e-02,1.199019224873441218e-03,1.401183128356933594e+00
6.450415669130582508e-01,-6.619499530506263163e-01,5.448370781349524128e-01,-2.856733552004735860e-02,8.160786764801487847e-02,3.914687552280855798e-02,1.270561575889587402e+00
5.025619988417266981e-01,-7.727945936236152447e-01,5.109052730953667076e-01,1.635106390857917480e-01,3.769935413292472837e-01,-8.865862964649105782e-02,1.472211003303527832e+00
8.371662745036464459e-01,-8.854351317095383589e-01,4.392414740701592879e-01,9.417661081143641200e-03,4.180665590999323167e-02,6.334035061289093604e-03,1.563925743103027344e+00
6.998719026222892658e-01,-7.716228925645876036e-01,5.183301785114454718e-01,-1.237922621316470649e-02,-1.774147406033510857e-02,-3.555160705344138222e-02,1.391514420509338379e+00
7.236866262054819643e-01,-7.676320442681107137e-01,4.770349527229139075e-01,9.082556134200567635e-03,4.818528057090511185e-02,-1.173456866562771865e-02,1.387320518493652344e+00
4.314548546200664969e-01,-7.677031129508083973e-01,6.508899514068648973e-01,-3.951123974898244212e-02,-1.727390503079293815e-01,-1.554722357735849846e-02,1.358011007308959961e+00
6.877425429418561054e-01,-7.624770676488122900e-01,5.304279498117902003e-01,2.104182136873739006e-02,9.176472732367381771e-03,-2.359224779568458441e-02,1.379490733146667480e+00
7.281677537430630842e-01,-7.584317910429928533e-01,4.632182795145743937e-01,1.086628831722573005e-02,3.340738345280646476e-02,8.655662363017921010e-03,1.374856233596801758e+00
6.358315673091534670e-01,-3.999324180945575957e-01,5.718929943721369202e-01,6.125944917940119583e-02,-5.185814094812358881e-03,-8.408168307502348606e-04,1.010945558547973633e+00
5.869306110190761760e-01,-2.564744534251656161e-01,6.088633755021766181e-01,7.487284127580050297e-02,1.095890102860292955e-03,-2.018308957889757699e-02,8.650750517845153809e-01
6.327497038964429166e-01,-3.680691485994426193e-01,5.703756346572844693e-01,1.398226892545510747e-01,1.271095136783052457e-02,-1.544382807596143131e-02,1.001476526260375977e+00
5.829073938124502696e-01,-6.238000248865352981e-01,7.351558359026491019e-01,9.513165242672745603e-02,-2.390816816922411783e-02,8.686540617982380086e-02,1.309405684471130371e+00
5.804157398834827175e-01,-6.776890266085239256e-01,6.676992419292601122e-01,1.013290036029979024e-02,6.501540198136314397e-02,-3.187547654806737601e-02,1.310074448585510254e+00
5.664700608537963644e-01,-4.959391436434814615e-01,6.976374639990365889e-01,2.290811275180124895e-01,9.688435405259323077e-03,-3.678598156082837911e-02,1.202932834625244141e+00
6.531093823335678561e-01,-5.726386980571798180e-01,6.050049056775965717e-01,4.052731617521736218e-02,1.741045635064820268e-02,6.077577009692873046e-03,1.204888343811035156e+00
5.908567181974558880e-01,-2.679981882025931350e-01,7.962303673872208609e-01,2.176586951012640311e-02,-1.710593332822453738e-01,1.040464884742708929e-01,1.038209199905395508e+00
5.520912229793569770e-01,-1.675837847428919281e-01,6.444458727890945982e-01,1.076076214037224033e-01,-7.912151722969971990e-02,-2.520819960099404677e-02,8.052030801773071289e-01
6.063704790406740930e-01,-1.107829618998453780e-01,6.990377736322511693e-01,2.605684685703118023e-02,-1.746916147319683629e-02,3.209274909977094525e-02,7.716185450553894043e-01
6.255675488276213336e-01,-6.854716182349286369e-01,6.770066811194395129e-01,1.055424460722598559e-02,3.998406130945268006e-03,2.085928322006818866e-02,1.338131427764892578e+00
6.001139474202328294e-01,-6.325215804843796752e-01,6.738790506595251362e-01,-1.561232958229195064e-03,-8.252729738842121479e-03,3.198737240338877380e-02,1.272414326667785645e+00
6.380491640982293156e-01,-7.262860390364210827e-01,6.657816746638198779e-01,-8.779571332980152035e-03,-1.654848641421505229e-02,1.974642551911929417e-02,1.379216670989990234e+00
6.338120283802590738e-01,-4.649416627755741382e-01,6.763901596179888731e-01,-1.005406074623183266e-01,2.993804560405712023e-02,4.624139841408468621e-02,1.138105630874633789e+00
4.227301063934006398e-01,-8.852628750793269941e-01,8.986977484172070652e-01,-9.914304468073878787e-03,-7.291919259467521952e-02,3.023072047589338285e-02,1.605908274650573730e+00
6.377135414242731670e-01,-7.019094719205326571e-01,6.504147692722891394e-01,1.285260187956613039e-03,2.870514874835818596e-03,1.252693516806057707e-02,1.346204400062561035e+00
6.215440724091128022e-01,-7.010225388609688801e-01,6.734547615919804775e-01,-4.627398395396121675e-03,-1.729732950342396589e-02,-7.520181545131317605e-03,1.349690318107604980e+00
6.172935407447424083e-01,-7.433867068572100889e-01,6.833402234047245560e-01,-2.267150224337219702e-03,4.223796841949366276e-03,1.543881293823684032e-02,1.395157814025878906e+00
6.038852706218402755e-01,-6.405130426749808814e-01,6.811365649925467114e-01,6.150736104829384286e-03,1.264267945865042882e-02,3.927937220565598520e-02,1.286797523498535156e+00
6.136108037876523147e-01,-7.030163666532449618e-01,6.783827980606652597e-01,3.870710945940999004e-03,1.054898244410510701e-02,-5.000161752914449032e-03,1.350346922874450684e+00
6.470770718451238634e-01,-7.586952550475436485e-01,6.129528500927580170e-01,1.234236431719221497e-02,-3.418186508559371839e-03,-1.236710338524096148e-02,1.389366865158081055e+00
6.656837502663357498e-01,-7.725954264236926106e-01,6.390707611614709904e-01,1.804841366650006317e-03,5.214151134233336454e-03,1.709898051838183112e-03,1.425194144248962402e+00
6.395363049690017121e-01,-7.681877111210969611e-01,6.461033818427861508e-01,-1.507400833686570879e-02,8.506569942491508732e-03,6.448738849758495206e-03,1.411381602287292480e+00
6.651106794799525046e-01,-7.658831897912825593e-01,6.393269664726235479e-01,2.192709681664537467e-03,5.256226679641228840e-03,5.063449777557303515e-03,1.418339252471923828e+00
6.499409529019233300e-01,-7.791511777909062575e-01,6.458405190123905903e-01,-5.424153719630509397e-04,4.292931680637754321e-03,1.139507706669095526e-03,1.427067399024963379e+00
6.733235566885658052e-01,-7.615082990889301406e-01,6.344185489229441366e-01,2.269008287750784447e-03,6.492921843980659254e-03,2.576947228116055347e-04,1.415830492973327637e+00
6.489194208708881639e-01,-7.681687543728187295e-01,6.445025508474839793e-01,3.986751708647296192e-04,1.004685824898336743e-02,2.211246244426481216e-04,1.414992094039916992e+00
6.209671112924400882e-01,-7.642674316841215898e-01,6.488754249183601441e-01,2.132983490594299314e-02,-2.985354082660528121e-03,1.400736599626952253e-02,1.400104761123657227e+00
6.584648015281532318e-01,-7.205717874518882127e-01,6.396690038127574862e-01,4.338551959215334285e-03,2.648803336202613934e-02,4.137486168918893745e-03,1.370542883872985840e+00
3.346604980311078670e-01,-7.564688174168341384e-01,7.726594363033537638e-01,3.461978923667389380e-02,-4.857324888912411404e-02,1.229524023573132403e-02,1.368008375167846680e+00
3.114527380189975325e-01,-7.578874018305258309e-01,7.909516555764845025e-01,3.690788789281851390e-02,-1.682064149482688162e-02,1.196230608889086236e-02,1.375325322151184082e+00
5.389290914115187903e-01,-7.673021122226630908e-01,6.853663827790805740e-01,1.221967623834766675e-02,-5.924835970783050992e-03,1.417479291466553458e-02,1.385684251785278320e+00
4.031350937184176586e-01,-7.662687606461651146e-01,7.551162434856777406e-01,2.902928576621162729e-02,-7.091705234032657200e-03,8.041994625279423950e-03,1.380535125732421875e+00
2.715844867914399274e-01,-7.849644131023352234e-01,8.231016349740867266e-01,5.070297746203224903e-02,-2.556052563161166288e-02,1.979466775362149350e-02,1.419161558151245117e+00
4.813212331815960310e-01,-7.456331002023992571e-01,6.698121087682372687e-01,1.570609061742107848e-02,-4.186851638552203936e-02,1.560879324721632828e-02,1.333771109580993652e+00
3.400789772703839420e-01,-7.417966828360130771e-01,7.832224061308505902e-01,-5.174102292980735894e-03,-2.289921725975426620e-02,-6.061313410691088373e-03,1.359419226646423340e+00
4.675083288315991514e-01,-7.571245581668335500e-01,7.370364198468519756e-01,-7.058328644333094690e-03,2.501539915904675343e-04,-2.476922781130242411e-03,1.379352092742919922e+00
5.058234156864318543e-01,-7.795661474109041311e-01,7.310380538887735202e-01,4.154987801175516471e-02,-6.556249503202738046e-04,-8.999051399261369724e-03,1.413456678390502930e+00
7.140708134821741049e-02,-9.225947505305598373e-01,1.024321221158518647e+00,-2.539154593199824395e-02,-1.722248813912531651e-01,4.408776467936494775e-02,1.714652419090270996e+00
6.332620678247988799e-01,-7.521503551751910210e-01,6.714015886839652669e-01,-4.055317020250601666e-03,1.304826848913138168e-03,5.106305045785870106e-03,1.404917716979980469e+00
5.997926033060507756e-01,-5.921464397628702914e-01,6.626142398971505143e-01,1.519204065109098145e-03,-4.005751052883065218e-03,9.442918025689670675e-03,1.224690675735473633e+00
5.885836168172788874e-01,-5.011805098228178101e-01,6.497332126986564704e-01,-8.472598933491015628e-04,-1.988653206017310451e-02,-4.954611858902930460e-02,1.125396251678466797e+00
6.258517997901411611e-01,-7.231661176858924511e-01,6.569007073606449865e-01,-4.649084191012210765e-03,-4.025353917740370421e-03,-9.965944274777913114e-03,1.364958047866821289e+00
5.807149083258256184e-01,-3.723587234661719370e-01,6.026533166929042284e-01,4.058820867903990132e-02,-7.092997787499652484e-03,5.215180241374246795e-03,9.669096469879150391e-01
6.233846614450196943e-01,-5.705370094648531953e-01,6.417296707515303122e-01,4.255610601250521541e-03,2.207096830935772417e-03,-6.971119225306267320e-02,1.209270834922790527e+00
5.194285951659902700e-01,-7.305707318080725265e-01,6.275048251873904803e-01,1.356821347922626444e-04,4.333471505301429022e-02,9.754202480538931574e-03,1.309653878211975098e+00
6.098128395232034205e-01,-7.394009066699372967e-01,5.912542858395068990e-01,-7.168244646147702015e-03,1.008667378557833068e-02,6.048050409609593767e-04,1.340202689170837402e+00
6.241362228984050908e-01,-7.579560450626617873e-01,6.178903370124569916e-01,-1.088074434214561514e-02,-5.101390483986021317e-04,8.632272870554656002e-04,1.379109859466552734e+00
6.280765219385695541e-01,-7.642478072663924094e-01,6.411861084847887415e-01,-1.407864444094277315e-02,6.703318687368102317e-03,6.407362287385872691e-03,1.399229884147644043e+00
6.268329977900992667e-01,-7.498693175770450026e-01,6.841558613627927166e-01,5.021302065875821565e-04,6.698902624023859997e-03,-2.657450757254801836e-03,1.406295895576477051e+00
6.232086379551986521e-01,-6.779148126544636277e-01,6.576833470454763741e-01,-3.504115711539905476e-03,2.302417109765463044e-02,1.466251108614661548e-02,1.319560050964355469e+00
6.209440122290426078e-01,-7.142562617043933804e-01,6.786071670085941365e-01,8.510505137931424768e-04,1.595181110172384439e-02,-4.716797675185096204e-03,1.365250468254089355e+00
6.851392454876724658e-01,-6.372613543187404250e-01,5.750589197762130400e-01,-3.027264596228670598e-02,-9.058949155269744062e-04,5.983076336220711361e-02,1.276237249374389648e+00
6.398762701379691054e-01,-7.640004489368689145e-01,6.586391525447473638e-01,-6.402570153663116742e-03,6.027387555945256346e-03,-4.444749152816974795e-03,1.413454651832580566e+00
6.319307267646741000e-01,-7.652760825644182585e-01,6.753656503185822002e-01,-5.410961730508797272e-03,5.497091599160687167e-03,4.737287898573762021e-03,1.419509410858154297e+00
6.421269924353696368e-01,-7.256638128700048096e-01,6.521951360600922731e-01,-3.295898029985242384e-03,2.430495869798594138e-02,8.905633433977162838e-03,1.373596310615539551e+00
6.416062921927052631e-01,-7.639823911253142974e-01,6.597141655597200671e-01,-1.736127034556889754e-03,1.197640970192352661e-02,6.785867332199860399e-04,1.414885282516479492e+00
6.456672425439121676e-01,-7.585482290890342982e-01,6.400733493353667480e-01,-7.438234627546633747e-03,5.589467840141739471e-04,1.342329018095324029e-03,1.401488423347473145e+00
4.546682588892281274e-01,-1.522083977119435216e+00,7.604073261987500665e-01,2.003478975996836331e-02,-4.702278362484725860e-01,6.728233532125958705e-02,2.298591613769531250e+00
6.224511510382969570e-01,-7.275016713677028291e-01,6.821927557181106661e-01,-1.313692828433951415e-03,1.740669570872424576e-02,-3.255015492510690556e-02,1.382274508476257324e+00
7.002401964406848034e-01,-5.903771312742377431e-01,6.425913118230376364e-01,-5.986183371419070975e-02,1.889859479245361781e-02,-9.888889283930595020e-02,1.278973340988159180e+00
5.999228840714896371e-01,-6.211698992755619875e-01,6.688519013561007309e-01,3.373392988015370703e-03,8.674959145999631971e-03,-3.411563153789307079e-02,1.258466958999633789e+00
6.200897559806708426e-01,-6.302628425444876115e-01,6.673205459562527864e-01,-1.226872769752309668e-02,1.497683428843300281e-02,-3.685679561529087156e-02,1.276662588119506836e+00
6.918911216396537167e-01,-5.716317124287000340e-01,6.610751832271206663e-01,2.561828177938138551e-02,1.210774951351416620e-02,-1.682528500404469052e-01,1.282902479171752930e+00
5.593409894825905893e-01,-2.776771725904441102e-01,6.076600208500375633e-01,-1.348701362804869547e-02,1.249636103391913583e-02,-1.681823930207928045e-02,8.632732629776000977e-01
6.510118140533496245e-01,-7.779733793538328168e-01,6.460261935290854129e-01,5.594761310649584143e-04,-1.280741316346429692e-03,2.727715906012826309e-03,1.426508784294128418e+00
6.570216918628063452e-01,-7.747703248687718425e-01,6.437144277306645623e-01,2.533626860962019645e-04,-5.964036032716957432e-03,3.209826386921869369e-03,1.425233364105224609e+00
6.511481688554288105e-01,-7.794273061471849173e-01,6.459086549837744773e-01,-5.101390478036730777e-04,-2.596789335867464004e-03,1.971333433521109662e-03,1.427974343299865723e+00
6.428935557892001551e-01,-7.784876542153149614e-01,6.420804688305665753e-01,-1.930584612108456315e-03,-6.311385956577621019e-04,2.842696912893184248e-03,1.420987725257873535e+00
6.452738137971132382e-01,-6.617286307886119934e-01,6.404411366620720303e-01,-5.558474775334113632e-03,-3.523716707658178932e-02,-1.746272057910623274e-02,1.306405305862426758e+00
6.453204463524800927e-01,-7.703885539788144499e-01,6.429170859585298103e-01,3.797827058512351036e-04,-4.998875846115349506e-03,1.015136282058063007e-02,1.414644718170166016e+00
6.420281252818831330e-01,-7.716071592250240974e-01,6.397800764253916972e-01,-1.942477286769560805e-04,-3.061203474904509135e-03,6.034620560376123197e-03,1.412561297416687012e+00
6.335277508101940791e-01,-7.523111854715432978e-01,6.595120699791345853e-01,-2.755791598759296541e-03,-5.575513594553585875e-03,-1.108609055414604095e-03,1.399054884910583496e+00
4.806473123471974862e-01,-7.829345987208566893e-01,8.287074026356440193e-01,7.366236129941379496e-02,4.981896152391013244e-02,-2.040739874958067204e-02,1.477349400520324707e+00
4.810612913576651217e-01,-7.343985145206732845e-01,6.565173142619407098e-01,1.171981798021095450e-02,5.223606183993000779e-02,-7.380546870700625296e-03,1.315351009368896484e+00
4.605820442159026529e-01,-7.381764859887014474e-01,6.954926459663328675e-01,2.283498231101791301e-02,9.964858750475577565e-02,-8.293172924809379815e-03,1.343639135360717773e+00
4.648629860190935936e-01,-7.542556913118516615e-01,7.261372235410756826e-01,2.048244278051721337e-02,3.611135053553916896e-02,-1.126053295992166838e-02,1.370616674423217773e+00
3.174519177176721163e-01,-9.130098733648857046e-01,8.268267682485345160e-01,3.480596790800942497e-04,3.974196004094895929e-02,1.281606639344898269e-02,1.550966382026672363e+00
6.407341224530330726e-01,-7.621170091379246836e-01,6.422219782449463121e-01,5.576718097076315342e-03,9.676519598447773721e-03,-3.055071804093176073e-03,1.403738975524902344e+00
6.417590506328350042e-01,-7.443198540527601326e-01,6.440475027308412148e-01,4.607641715787248043e-03,-5.343868388359537119e-03,-7.019040234191344096e-03,1.387331604957580566e+00
6.707223581409307300e-01,-7.338701673493653876e-01,6.252450752973136572e-01,1.174499317036800487e-02,-1.337251325213040243e-02,-1.225050272206360631e-03,1.382760286331176758e+00
6.764689884290517874e-01,-7.096759955888802818e-01,6.232600420129490448e-01,-6.435088481157762337e-03,-1.612188039795475411e-02,2.756757858214137647e-03,1.360661864280700684e+00
6.578202480506101235e-01,-6.617734592047314068e-01,6.185446275103756442e-01,4.208467022152176384e-02,-2.008047402678890189e-02,6.712925846237568529e-03,1.302958369255065918e+00
6.396399231232280380e-01,-4.592952222305624055e-01,5.738184290184377145e-01,6.268270149899277111e-02,-3.286046982279852008e-03,2.099357941812751097e-03,1.073075175285339355e+00
6.482576067464795866e-01,-7.166938433453247104e-01,6.470641580458442732e-01,9.625466255892034181e-03,-1.341557902599408575e-02,-2.170214735299486400e-02,1.365172386169433594e+00
6.389159504089945152e-01,-4.655500717558045398e-01,5.748313184523921038e-01,5.970304647444176632e-02,-2.348480802555466106e-03,7.331253118390033269e-03,1.078908681869506836e+00
5.662527281856035710e-01,-7.924472452565266556e-01,7.005128222114259673e-01,3.327101397643469644e-03,-6.231891786813670980e-02,1.195909813854093701e-02,1.434790492057800293e+00
6.338573847382962256e-01,-5.091110444733679685e-01,6.117748082172558277e-01,6.012824767458212899e-02,-3.347432148586405171e-02,-5.411043872376608554e-02,1.142198085784912109e+00
6.530033020527565846e-01,-6.540057943146619923e-01,6.286068315607297174e-01,-8.324466473137441536e-03,-2.812416552524530516e-02,-2.028214855331276698e-02,1.296455383300781250e+00
6.391896397747626191e-01,-7.724868283659730439e-01,6.615803564496482991e-01,1.115181280454837333e-03,4.202881033212211952e-03,8.464962117552221567e-04,1.423024654388427734e+00
6.403350078162578507e-01,-7.652910100876393340e-01,6.607983639537273746e-01,5.083766061661646254e-03,4.451887060557140757e-03,1.719279745320287031e-03,1.416020154953002930e+00
6.360497822600736928e-01,-7.587175935532213256e-01,6.703645406758946823e-01,1.213184608853176173e-03,7.956762780688899847e-03,1.511312207122255443e-03,1.412308692932128906e+00
3.795485195577883997e-01,-7.707933736204538588e-01,7.569570288553623127e-01,4.084906801597000536e-02,5.884646963408971844e-03,-9.225250849843722248e-03,1.380303502082824707e+00
6.371712092167965968e-01,-6.995124178044488383e-01,6.666725625465486083e-01,-1.559428371387686085e-02,3.138902378841801344e-02,-2.801007258041675330e-02,1.353907823562622070e+00
6.451602801691113109e-01,-7.649646036609305533e-01,6.195309440531717726e-01,1.407897028452414698e-02,-2.223120543867732404e-03,9.367669011085924188e-03,1.397798657417297363e+00
6.401350464998312173e-01,-7.616876561564634995e-01,6.601204491737062696e-01,-1.059963557293194152e-03,9.948626305197644411e-04,-9.103940287905079587e-03,1.412011742591857910e+00
5.727123553388200339e-01,-7.638223085417983338e-01,6.464154209240686733e-01,1.802066615732485916e-02,-4.791646777885648356e-03,1.886523557070534166e-02,1.375636100769042969e+00
5.678652130336496739e-01,-7.336200184659606993e-01,6.137863253149318243e-01,-8.076520859402266592e-03,-6.287379540828648417e-02,-1.499301443868449740e-02,1.329837441444396973e+00
6.349496766680825521e-01,-7.394978291789513491e-01,5.262701698107106196e-01,-1.815663948255771473e-02,-2.845445188437841291e-02,-1.975350752958545536e-02,1.325191140174865723e+00
6.278785695646382781e-01,-7.770135075651645185e-01,6.379263036883454641e-01,-1.587984338055074135e-02,-9.554766811576326235e-03,-2.699086772844474028e-02,1.411082744598388672e+00
6.656173105869420681e-01,-6.731848150792441032e-01,5.938789775479720312e-01,1.195462497784923195e-01,-9.948651656358371842e-02,8.268923284918781869e-02,1.339616775512695312e+00
6.565288387854812946e-01,-7.614050653296040583e-01,6.107904923794154062e-01,-2.000665873449553392e-02,7.857699652067298701e-03,1.841721298272047625e-03,1.396127104759216309e+00
6.797755002752059461e-01,-7.574971803034167284e-01,4.643451916752883157e-01,-1.886756046784551083e-02,-3.221979691204326229e-02,-2.849693861720244137e-02,1.345046281814575195e+00
4.022728427003950946e-01,-8.296700582667624335e-01,5.549404590527758918e-01,1.288455784704203855e-01,-4.085482709338251750e-01,5.903987858749646517e-02,1.513295769691467285e+00
5.301014188628310198e-01,-7.741862751543655552e-01,5.985772128515430834e-01,-3.319466280129901997e-02,-1.067045056371133949e-01,-2.379081279025708692e-02,1.354373931884765625e+00
6.047329026131705865e-01,-7.338338693366205367e-01,5.435237730371098586e-01,-1.813975560977031803e-02,-8.394453406615763613e-02,-1.236038612792826966e-02,1.317634463310241699e+00
6.147593241826037058e-01,-7.459416262206491899e-01,5.264225654718075464e-01,-8.937711066069668059e-03,-9.086289125988734894e-02,-7.827010717494156666e-03,1.328270316123962402e+00
5.363010203568743250e-01,-7.520653304272206796e-01,5.973300615801795388e-01,-1.144600521385230087e-02,-1.011001400591193256e-01,-1.204314366682616468e-02,1.331815361976623535e+00
6.570395553759367235e-01,-7.792956218522206768e-01,5.671314148937363075e-01,-4.142348103311543212e-02,-5.231233762605162069e-02,-2.868817888401969246e-02,1.399224996566772461e+00
7.283783759441009309e-01,-7.712775682540886635e-01,3.538309665482877731e-01,3.365757490539932756e-02,-2.847363192680590904e-01,-1.773972149850809674e-03,1.440206170082092285e+00
6.440287246133491461e-01,-7.559999902939059657e-01,6.480997394162337777e-01,-4.736135689945661191e-03,-1.362690672223269492e-02,8.930811481837599639e-03,1.402376651763916016e+00
6.076785169893776928e-01,-7.518708481501561458e-01,6.038679973609705209e-01,-1.243460871939833408e-02,8.585460933567131206e-03,9.937103868123813369e-03,1.358009457588195801e+00
6.402121449223657779e-01,-7.672347886462476119e-01,6.428923723057444750e-01,-1.018847360149820538e-02,-5.804844704201180851e-03,-2.025057267112525487e-03,1.408939719200134277e+00
6.178859803141476537e-01,-7.578374094756800128e-01,6.259597438052899587e-01,-1.631784094367712322e-04,2.521573540749345518e-03,1.030779970597310233e-02,1.379900455474853516e+00
6.064972716681695797e-01,-7.528462834980437224e-01,6.017601314921749989e-01,-1.488866082251835525e-02,1.134278518526450619e-02,2.033115044857750769e-02,1.357825040817260742e+00
6.271334697209637321e-01,-7.508447456536556652e-01,5.862418412369223564e-01,-1.636686480656215567e-02,7.006932474820736119e-03,1.194357920887235795e-02,1.358501791954040527e+00
6.342502179928688477e-01,-7.585083473950897659e-01,5.824748748560575340e-01,-2.014911567693825761e-02,9.959682538881577465e-03,1.335245436787686757e-02,1.368355512619018555e+00
6.472994628455601696e-01,-7.624507132902696993e-01,6.123561047529637591e-01,-1.689162212444486610e-02,4.780447218670085680e-03,9.347974965744779499e-03,1.393033385276794434e+00
6.581011324197789669e-01,-7.663389776556375210e-01,6.418821128331810844e-01,-2.240463639760453211e-03,9.962551407738093334e-03,-3.898734481028667907e-03,1.416526794433593750e+00
5.300956880285001560e-01,-8.334529318554466659e-01,7.716626227837916074e-01,-1.634387773254480924e-02,-9.592649839248258703e-02,-3.239368181043320808e-03,1.508458256721496582e+00
6.454989286986015928e-01,-7.342457589531204976e-01,6.498609639003256611e-01,1.620112088770523512e-02,1.720051779083319951e-02,3.441736182476959338e-02,1.383821368217468262e+00
6.466773138488304262e-01,-7.696267291042924175e-01,6.496424777070275436e-01,-1.245454632868032291e-03,1.058411168427508472e-02,-8.727232492103808789e-03,1.417989730834960938e+00
6.486032645271835317e-01,-7.734456740819419807e-01,6.503938828374626890e-01,-9.068858112837567152e-04,1.099842824541979493e-02,6.388128819788602749e-05,1.423073530197143555e+00
6.505383926871395328e-01,-7.702355576385625513e-01,6.452270473437835552e-01,-4.499541653371260871e-03,4.346822917928573615e-03,-7.686223191055964292e-03,1.418229579925537109e+00
6.691719513935915353e-01,-7.649222718740474880e-01,6.392048307207203184e-01,-3.478620391349649277e-03,3.642694440047175922e-03,-3.943490049644365891e-03,1.419391155242919922e+00
5.772656153272957003e-01,-7.381448175455060934e-01,5.688747025593194895e-01,-9.148975220462552890e-03,-5.910966770154539585e-02,-1.152326160825691004e-02,1.315472841262817383e+00
6.521239205387695526e-01,-7.384692546288825765e-01,6.638202490980646964e-01,-1.811098704531878198e-02,-6.936574903204056897e-02,-5.612874191308810101e-02,1.405354499816894531e+00
5.909341593746844090e-01,-7.402016884000808261e-01,6.082942083958945423e-01,-1.164789971076400123e-03,-2.635087644742768655e-03,-9.635276185269565224e-03,1.340013384819030762e+00
5.699705281308875549e-01,-7.289380432843284296e-01,6.208384436707918841e-01,6.299266286139130165e-03,4.596760537261729285e-02,-6.704969486455564925e-03,1.327560424804687500e+00
3.965696690091830012e-01,-7.819685253317332219e-01,6.505376296796696600e-01,-2.005448534547720277e-02,1.945437419070172314e-01,1.605039312300304485e-02,1.366851925849914551e+00
6.624551146282036118e-01,-8.881263868261604078e-01,5.607549234635995639e-01,-5.177864221021100111e-02,2.437258716868243025e-01,5.194803927771276392e-02,1.565661907196044922e+00
6.104550414132964287e-01,-1.171782590734528950e+00,6.215978335661370702e-01,2.539103299003057923e-02,5.740219367215393387e-01,-1.159535080904148113e-01,2.055997848510742188e+00
6.429160072467700049e-01,-7.694392529260670743e-01,6.270703101646835087e-01,-6.909212888551886228e-03,5.416767815816653231e-03,-6.853647264870111125e-03,1.404631972312927246e+00
6.256007711190531007e-01,-7.672984791576250574e-01,6.255200725594645128e-01,-2.828161749030185575e-03,-5.873530864240184696e-03,-6.705632376552994947e-03,1.392953038215637207e+00
6.098276383898362241e-01,-7.483934563950634944e-01,6.085018174832417248e-01,-6.379837944583448966e-03,-1.750273626263853383e-03,-4.309114610196405730e-03,1.357627511024475098e+00
6.192937710233192838e-01,-7.572339840981336945e-01,6.221763980596966004e-01,-1.348968639771582585e-03,3.038510419886774022e-04,-9.697657746713937363e-03,1.378075838088989258e+00
6.179821491338728379e-01,-7.585114090638445106e-01,6.136777073299868324e-01,-9.040797140128802381e-03,-7.753138970869846887e-03,8.165849703778005065e-06,1.374501228332519531e+00
6.390336552630495603e-01,-7.529008834463289945e-01,6.437600381073808054e-01,-6.482370137745846299e-03,2.471250702236472020e-03,2.153564225142239280e-04,1.394355535507202148e+00
6.949725062099231243e-01,-7.487194364009096548e-01,4.225066334970166704e-01,1.320758615082952107e-02,-7.440895168049836694e-02,1.618816307121809933e-02,1.335307717323303223e+00
7.280417622000923128e-01,-7.615277109706489744e-01,4.554634030904236575e-01,1.599007005409528587e-02,-6.817118423534500316e-02,-8.874956894178980676e-03,1.379143595695495605e+00
8.012505825668192472e-01,-7.438215070742605350e-01,3.148651009870691020e-01,1.158182742334152443e-02,-3.923739648184806916e-02,-6.898641652707310570e-03,1.370212316513061523e+00
7.372325701212565363e-01,-7.498173537024146462e-01,4.121535337469865445e-01,2.702003146988340467e-03,-8.780892515277217980e-02,4.495624186664129614e-03,1.362644076347351074e+00
4.041412072254825238e-01,-7.559119424428847323e-01,7.334761962004988645e-01,-1.668981889091913917e-02,-7.666737047458827004e-02,5.561969558410192159e-03,1.361907839775085449e+00
5.986830514087471133e-01,-4.829319266126221866e-01,6.171570596903057648e-01,2.432351393606637172e-02,3.101988284740657409e-02,6.344543790677503736e-02,1.098613500595092773e+00
6.420853607990890666e-01,-4.862534942785907699e-01,6.031796806050570003e-01,7.585826612010934666e-02,-1.931724634236834867e-02,-1.246990593428511616e-02,1.117860794067382812e+00
6.082700821403717040e-01,-4.087032219745820871e-01,5.771256303431262502e-01,-4.776840543390012753e-03,-3.416576893905036091e-03,5.595540162158806757e-03,1.001862764358520508e+00
5.896222645810318408e-01,-3.334438526769897271e-01,5.989099751396365079e-01,1.356317219173357701e-02,1.695799209725733919e-02,7.770449057705848539e-02,9.382105469703674316e-01
6.242008661473323894e-01,-1.453668215298910549e-01,5.681651435047123666e-01,1.139344851081845328e-01,-4.805224872530581420e-02,-8.024104178600353909e-03,7.735079526901245117e-01
5.956533224055569065e-01,-5.273914351493040886e-01,6.222455811725950969e-01,5.176283181045770662e-03,2.484609059975951759e-02,-2.840733589973823501e-03,1.137434601783752441e+00
6.509006178378514695e-01,-4.988418723690636325e-01,5.982928994967240399e-01,6.939112415167894565e-02,1.872089308458248225e-02,1.047392892150874125e-02,1.131377935409545898e+00
6.652057322734818978e-01,-7.602529770369538253e-01,6.412231771938436964e-01,-2.323743105644803311e-02,6.970911661081892127e-03,-4.509326524629441585e-03,1.414265990257263184e+00
6.407369504704166774e-01,-4.938827266071317279e-01,5.980948193054064221e-01,-5.555162949631329422e-02,2.579495680994206563e-02,-3.590522658456705291e-02,1.120678067207336426e+00
6.652123938425095195e-01,-7.158289564003655903e-01,6.211734985991438363e-01,-9.971119925543212026e-03,6.710548336813927650e-03,-9.342822012807743340e-03,1.359812617301940918e+00
3.148845301643524719e-01,-7.048346583249670561e-01,1.018988052226613483e+00,-9.075299780792558946e-02,-1.534902607665835361e-01,-1.307734211750446150e-02,1.532800078392028809e+00
6.665789060934501631e-01,-5.928447658091894334e-01,6.025997631107864461e-01,-4.228635488809884269e-02,8.407232770834710892e-03,9.933254304932352240e-04,1.230952382087707520e+00
6.096130599026479135e-01,-7.300227404473548232e-01,6.461573803436503338e-01,2.685091247485800118e-06,-1.645225246580927364e-02,6.415350384923676486e-03,1.358621001243591309e+00
6.551459080338032370e-01,-7.199197408249905505e-01,6.290098441979029564e-01,-7.350972900351241367e-03,-1.386209697665373962e-02,1.714199849684412040e-03,1.362460017204284668e+00
6.675305717651280890e-01,-6.232980787089908992e-01,6.040540889485737086e-01,-3.707711632579861749e-02,-1.585347885107271301e-02,-3.544964705927296494e-03,1.262238621711730957e+00
6.956670540019030957e-01,-7.413554892466931445e-01,5.578355379606445563e-01,1.318083307626325557e-02,-3.610811744941844204e-02,-6.953860433776576366e-02,1.380182504653930664e+00
7.229634561294003836e-01,-8.136137929073334885e-01,5.562441325231268774e-01,2.198498331085482066e-02,5.247099734159361636e-03,-1.084987199172251886e-02,1.461017966270446777e+00
4.096397790765393676e-01,-7.487755180510976549e-01,7.541127280999821991e-01,5.906837194888090760e-03,-2.881913232803353167e-02,4.771382800139267570e-04,1.364634513854980469e+00
5.281700131275730570e-01,-7.043273749456716581e-01,4.988075512918134224e-01,-1.046669599738385970e-01,-3.540472374207321304e-01,-1.193456101358567195e-01,1.391174554824829102e+00
6.990585733523368983e-01,-8.619952873454104214e-01,6.122030691025980298e-01,1.957295445632091166e-02,-1.937465682866612304e-01,2.215960413001637902e-02,1.556946516036987305e+00
6.401431547915427123e-01,-7.688648255818567590e-01,6.073609297160871279e-01,3.782361930215938361e-02,-4.975254727131737942e-02,3.140741048936072227e-02,1.398164868354797363e+00
8.283641454900939616e-01,-4.150606186096449379e-01,4.944217860119423102e-01,-6.966577728527545421e-02,-2.413228244585002014e-01,-7.300889980569398585e-02,1.203183889389038086e+00
8.837026268613933366e-01,-7.683609022217160467e-01,2.983953697393662008e-01,-1.958791013044369755e-02,-1.241496074674333788e-01,1.208545645301290772e-01,1.481938481330871582e+00
8.536375848919937059e-01,-1.090295723934778582e+00,2.523122572795045149e-01,-1.177032991737525791e-01,-3.046194369754253173e-01,-3.196028192131286638e-01,1.896816134452819824e+00
4.833811646643869642e-01,-7.745835393826708826e-01,6.253743912549472039e-01,4.838665780377811310e-02,2.159038630206645548e-01,-2.402811679501540981e-02,1.389193654060363770e+00
6.214818645463184854e-01,-4.630726670371511089e-01,4.453332554726451842e-01,-1.140088954369867652e-01,-1.926963056086965775e-01,-1.600173213086791280e-01,1.115101099014282227e+00
6.156749226441073919e-01,-6.054563217882963366e-01,6.399899895183782661e-01,-2.317224824201523023e-02,2.946732966213525678e-02,-5.920565109055838521e-02,1.239425778388977051e+00
9.570629452076395705e-01,-6.574993298089280014e-01,2.388046639682705752e-01,7.664217850282124302e-03,-1.949499631217555262e-01,-1.977377851831643718e-01,1.481393575668334961e+00
6.468680196814775574e-01,-7.567147572739534311e-01,6.414538702981281704e-01,3.997978913685418245e-03,4.093201081328792096e-03,-7.660210207960547850e-03,1.400981426239013672e+00
6.790909756932915764e-01,-5.870118004861704097e-01,6.232869862538332750e-01,-6.634164011612646294e-02,-2.465030321646264483e-02,-9.034152675444069580e-02,1.254985332489013672e+00
7.078717774647710348e-01,-9.835437802993798329e-01,4.007842791222557821e-01,-1.061316682491740895e-02,4.120918902825517205e-01,-1.892758601140039076e-02,1.716580510139465332e+00
3.255333759419575812e-01,-8.009801330354439086e-01,7.819405149811132771e-01,1.482202418950206123e-02,2.784408926922598004e-01,6.020958962856524412e-03,1.491591334342956543e+00
5.987902665415472114e-01,-7.533276736015827035e-01,6.416633668145059755e-01,-5.098030744439514296e-03,2.925286066113239394e-02,1.808018694217324376e-02,1.375375032424926758e+00
6.000853239486523272e-01,-7.672758078264214632e-01,6.173598925038787932e-01,-3.497211277067818064e-02,4.818487021246280894e-02,3.470669300137921298e-02,1.381247162818908691e+00
6.927724687768640477e-01,-8.038778535034070138e-01,5.550127671132103480e-01,-2.737230602675877478e-02,1.820556960859338325e-01,2.318253942077153767e-02,1.468351006507873535e+00
5.794215855116739977e-01,-7.249567589712883064e-01,5.756153879740959489e-01,1.426058636793325765e-03,-1.398688799425211807e-02,-9.915723478176288914e-04,1.302708148956298828e+00
3.543853794917461997e-01,-1.113549172565823309e+00,8.079159177377687184e-01,8.238835397987108455e-02,2.816515516609239822e-01,-2.039241068364189280e-01,1.846449613571166992e+00
5.576085164172936981e-01,-8.439202721111731531e-01,5.374838300315940565e-01,1.871640924410465298e-02,4.297411948049387198e-01,-1.778988100280694262e-01,1.608263015747070312e+00
6.277087205938799430e-01,-1.417183199038049235e+00,6.022248322018081135e-01,-1.268576331785945255e-01,4.835819257614212829e-01,-1.486386634008211305e-01,2.224013090133666992e+00
4.627339573575234843e-01,-7.345609116504763225e-01,7.048691744582209484e-01,-8.915138641028086050e-03,1.065856890971500631e-01,1.819485775496831187e-02,1.348096728324890137e+00
6.241941475740500067e-01,-7.514710637012433914e-01,6.825187176812667067e-01,-7.298291311985065756e-04,-3.104265027561323382e-04,-4.226067222982247268e-03,1.405755043029785156e+00
6.363141124826664496e-01,-7.487726265779329760e-01,6.697654158305998973e-01,2.923829697664815427e-03,2.884425663102487339e-03,2.806143117498810687e-03,1.402138113975524902e+00
6.643166641239199866e-01,-7.582151882491384720e-01,6.061399800753861644e-01,-3.219247199244083205e-03,-6.398789180578108452e-04,1.200770936548740085e-02,1.394520759582519531e+00
6.396932383904790909e-01,-7.573558310995639475e-01,6.415134752788274053e-01,-4.147094330939430848e-03,-4.451927598899254462e-03,-3.233602293895367161e-03,1.398010969161987305e+00
6.372570810885087589e-01,-7.604953679602360905e-01,6.577389333480669897e-01,-5.307627528092486932e-03,-6.044885610341922677e-03,-6.457156985083594043e-03,1.408218502998352051e+00
6.147333856510648342e-01,-7.051380811583682906e-01,6.843918957812793469e-01,-6.256493463964439040e-04,-8.135871846030113185e-04,5.154870727330194968e-03,1.356073856353759766e+00
6.275965637982490186e-01,-7.510121664051970791e-01,6.832250417690606259e-01,9.851780654911070773e-04,8.246410125755001055e-03,-6.143253568582181766e-03,1.407361626625061035e+00
6.993416297647006008e-01,-5.502743169653502298e-01,5.607463258384173255e-01,1.923947598711085380e-02,-2.876591095336087853e-02,-1.038003937282960254e-01,1.201446771621704102e+00
6.263503428253731631e-01,-7.504683549400915643e-01,6.845301657342333090e-01,9.561451501487949148e-04,-3.969033518805860535e-03,3.337295772977026242e-03,1.406840801239013672e+00
6.226409532936285629e-01,-7.414064556094506209e-01,6.845377124237490563e-01,-2.021902541073471952e-03,-1.678235416261800346e-03,1.528709262537488768e-03,1.396035194396972656e+00
3.315435178848150644e-01,-8.024918491327588388e-01,6.402213083583779829e-01,-3.321615440084958043e-02,3.495440047309599785e-01,2.206554358151704281e-02,1.450063228607177734e+00
4.806081748923317076e-01,-7.479873939856297449e-01,6.649652923603400767e-01,-4.517966123235738450e-03,5.890051816792946093e-02,-1.625378379310330607e-02,1.334614753723144531e+00
6.446046099172115795e-01,-7.673746656521536202e-01,6.454417024449459195e-01,-4.600413219194895119e-03,-2.562041472516512174e-03,-5.950035165418670301e-03,1.412465095520019531e+00
4.125104329621948618e-01,-7.619066457129064496e-01,7.447941424846782343e-01,2.779288615902955270e-02,4.374249462334140609e-02,-1.257580755293799188e-02,1.374205112457275391e+00
4.097091965646220690e-01,-7.475848345241367099e-01,6.876491209321931031e-01,1.828847770295409167e-02,1.248472474194840948e-01,-1.643199008638776201e-02,1.336717009544372559e+00
4.257049775562410932e-01,-7.311783780296184920e-01,7.199172675916871711e-01,-3.442926001133655902e-03,3.830359138952339065e-02,3.468265275098463864e-03,1.330331683158874512e+00
3.930635265062624728e-01,-7.721413621531931781e-01,7.513754993377964597e-01,-3.604010479276490569e-02,1.978688820631046077e-02,5.697666025866158709e-03,1.381580710411071777e+00
5.172866676970349076e-01,-7.810816575370272963e-01,7.102076124743923469e-01,-3.681804815750915755e-02,3.257816433902949779e-03,1.432340811020561301e-02,1.406476140022277832e+00
5.117252540595300658e-01,-7.677512521796650002e-01,7.079253045693738589e-01,-2.527795933795648833e-02,-6.024603954123932542e-03,-1.110700626355780665e-02,1.388878583908081055e+00
4.103243720338726197e-01,-7.831465490259618134e-01,7.485163963717333946e-01,2.624074253825386602e-02,3.347237802500823041e-03,8.398669739418770236e-03,1.394517779350280762e+00
1.689853570267125515e-01,-6.184160400146806458e-01,8.716110847392628536e-01,1.404584411463146443e-01,9.721880060562146375e-02,9.734639326544658510e-04,1.324566125869750977e+00
6.307740412934444985e-01,-7.502526614548191697e-01,6.667783428662941159e-01,-1.591321978768153907e-03,-3.821233669480362909e-03,3.334091845078129834e-03,1.399406552314758301e+00
6.312092661555899209e-01,-7.455982111729227979e-01,6.711570012406522512e-01,-8.394419719184242294e-04,-1.841346378366095343e-04,2.565765580391374517e-03,1.397217631340026855e+00
6.125609010645930441e-01,-6.196645930824626891e-01,6.688549246925858949e-01,7.510507136257719334e-04,-2.417503049010297222e-03,-2.926973478871110548e-02,1.262341022491455078e+00
6.243446211881015229e-01,-7.216335300665327468e-01,6.809379265888904076e-01,-2.580431983080512179e-03,-6.066481652478975667e-03,-1.402254444037571816e-02,1.375410318374633789e+00
6.228577387932863196e-01,-7.447587631520846685e-01,6.829737816154328733e-01,-1.534820303309555314e-03,3.940757673562868268e-03,-5.870281401994061066e-03,1.398699998855590820e+00
6.176172275972827697e-01,-7.455257316662194933e-01,6.825135287446708610e-01,-3.106938746678008546e-03,-1.775741648832052707e-03,-8.529739662148516297e-03,1.396814227104187012e+00
6.254060723034406966e-01,-7.463971525390061812e-01,6.717494890008166575e-01,-2.401200068859022686e-03,2.319614136401818016e-03,3.396979564521750584e-03,1.395576596260070801e+00
6.797734579669065802e-01,-7.401828343949321543e-01,5.813788501701571132e-01,-1.316806769461449471e-02,-1.478518451863537926e-02,5.279044538688068208e-03,1.373863458633422852e+00
6.399056591758593981e-01,-7.657074546068193266e-01,6.754208044564200542e-01,-2.931601375071053034e-03,1.357232892525005868e-02,5.178047740372674484e-03,1.423934340476989746e+00
6.371166463085153886e-01,-7.428431878760032303e-01,6.729829206074140480e-01,1.422484553319858930e-02,1.132931181448503660e-02,4.396301338229038902e-02,1.400664091110229492e+00
6.154818558762886749e-01,-7.465248135989488443e-01,6.872480472591461220e-01,-2.209810548935368501e-04,5.428908220949388644e-03,-4.256645999164446366e-03,1.399321794509887695e+00
6.219012132912894453e-01,-7.448682539162431171e-01,6.905428547060588063e-01,-6.052884536308420193e-05,-1.830830790743396630e-03,-4.349668088104247966e-03,1.402374625205993652e+00
6.393248534376767545e-01,-7.601941722591343265e-01,6.634948789347909770e-01,-1.821256648384441670e-03,2.346789520439604773e-03,6.092141839443190009e-03,1.411808013916015625e+00
6.629729894276255031e-01,-7.573391664934592260e-01,6.056933121019845156e-01,-6.906655312930357234e-03,-3.064716253323956311e-03,-1.110880177642022994e-02,1.392750501632690430e+00
6.742932271660864174e-01,-6.957091976614442341e-01,6.919621319442270657e-01,-4.945036323518425120e-02,6.003156635542675895e-02,8.632897304202262478e-02,1.393531799316406250e+00
7.237883396931921176e-01,-3.124535231329257368e-01,5.731466617569733746e-01,-1.673661870205989848e-03,3.022010773894654237e-02,5.618004136706480911e-02,9.760152101516723633e-01
6.214175169195261805e-01,-7.640078131096746938e-01,6.104825853191995222e-01,-1.047673542861911333e-02,-1.639798140077469712e-02,-1.042561207584770562e-02,1.380519986152648926e+00
6.501848682157239656e-01,-7.656765686987948571e-01,6.318255988758273434e-01,-1.363929011118838498e-02,9.606266198092551500e-03,-5.233044362773821463e-03,1.407097578048706055e+00
6.521830883629071707e-01,-7.651075089008754215e-01,6.436640440783271133e-01,-1.814922526161992164e-02,9.456039975034913336e-03,2.605696282116819391e-04,1.413494944572448730e+00
6.524319006816915456e-01,-7.224995407214530596e-01,6.422831300743705452e-01,6.140579571792747007e-03,2.453567771555153348e-02,-4.089711375969660133e-03,1.370603799819946289e+00
6.545133972214369766e-01,-7.745118508699042614e-01,6.447477536941670362e-01,-2.149633461182419696e-03,8.040931266554564305e-03,-6.043902039427364453e-03,1.424278974533081055e+00
6.469471620329481087e-01,-7.756731480905983966e-01,6.461679462504499316e-01,-1.308183602335157101e-03,5.004168308304374028e-03,-2.304429069194428598e-03,1.422264695167541504e+00
6.635757487056390680e-01,-7.584337022813398832e-01,6.402647701364307942e-01,6.260140281086908932e-03,1.429544072303451374e-02,-2.264462184936894430e-03,1.410762906074523926e+00
6.336801058598949821e-01,-7.638145684625557985e-01,6.295966846499905234e-01,-1.421612363073107392e-02,-9.335832291987595632e-04,-7.125262670987085600e-03,1.395730137825012207e+00
6.061253201124423562e-01,-5.765692279237050188e-01,6.341558217147921228e-01,4.608795729386612472e-03,1.428244957061955422e-02,-8.966997337602509999e-02,1.207270264625549316e+00
6.011907266680420747e-01,-4.828890262618350526e-01,6.314778235114812954e-01,-2.431821376224158060e-02,2.577943796184329825e-02,-6.080918357135651348e-02,1.106273412704467773e+00
7.114867080425708590e-01,-8.609405913961241108e-01,6.659581539001744321e-01,-5.818369059182319780e-02,-1.008345461652153247e-01,-7.212507909573713516e-02,1.568207621574401855e+00
5.505727686437864588e-01,-2.286635442745078572e-01,5.633896303563689090e-01,-1.041828932008354676e-03,4.056127461793194479e-03,-1.802531105921735197e-02,7.863766551017761230e-01
6.437221204803490471e-01,-7.262308148982684619e-01,6.518084449874596009e-01,3.392916634486436642e-03,2.359294681430026269e-02,-6.816117392840606408e-03,1.374684691429138184e+00
6.385337589205448694e-01,-7.600394273111459320e-01,6.729914037580706498e-01,-1.632256029638520095e-02,-3.813037108141703949e-03,5.645188133134984576e-03,1.416447758674621582e+00
4.044157409409767645e-01,-7.364643931798040555e-01,7.257920004999505181e-01,-3.686820155912343740e-03,-1.832012954035710378e-02,-1.018864056267733496e-03,1.331387519836425781e+00
6.019803153208320712e-01,-3.060094730702253019e-01,5.528811017703050279e-01,6.171423863352904632e-02,-1.502662956193272746e-02,4.188910617699726988e-03,8.913083672523498535e-01
5.496383914488280897e-01,-3.046449899151568719e-01,5.816485600953484880e-01,-5.380029598125612338e-04,1.156555947590473359e-02,-3.195115568167777864e-02,8.727172017097473145e-01
5.837716058949913300e-01,-3.159387928658163869e-01,5.598100450294711816e-01,-6.553476692658476155e-02,-1.558335203607941720e-02,-2.238343570513169536e-03,8.956128954887390137e-01
5.784603238431569316e-01,-3.309522615118206668e-01,5.811409130873088635e-01,-4.082470179415036149e-02,1.861958211306280475e-02,-2.217521471752505538e-02,9.148723483085632324e-01
5.973962291629908439e-01,-2.545872693841250145e-01,5.823491280131416481e-01,-7.872079712393215134e-02,-1.841094752890707611e-03,-1.708744802847444316e-02,8.560136556625366211e-01
7.879513067266123993e-01,-8.159694156281571686e-02,6.264823715236209623e-01,1.354841876661254298e-03,3.238617020460964058e-02,1.453103217600207678e-02,8.034718036651611328e-01
5.992286039523926355e-01,-3.531067957245082045e-02,6.166308928169574877e-01,3.343690531631238194e-02,1.073676887242317607e-02,3.036811697140871097e-02,6.484226584434509277e-01
6.267775184036619152e-01,-3.717746925241361966e-01,5.981844670259837127e-01,-8.809057521195082230e-02,1.341267091769812458e-01,3.054624355186736501e-02,1.024412751197814941e+00
6.402764201524667742e-01,-7.571488495480600545e-01,6.534890466456673153e-01,-6.311103316223191928e-03,-9.962808490302385578e-03,9.307398248075287456e-03,1.404319286346435547e+00
5.080232904004402528e-01,-1.129628988285836799e-01,6.403078322878225093e-01,-9.786850850569267513e-02,-5.962958175264716776e-02,7.055784505752728600e-03,7.244453430175781250e-01
6.347170929074923418e-01,-7.109222070044910469e-01,6.461241870664231612e-01,-2.645657180712400469e-02,-4.253442250128362107e-02,-3.034540700629135505e-03,1.354171395301818848e+00
6.194897101945977536e-01,-4.144286002414784287e-01,4.379273014840535660e-01,-8.027956845758631166e-02,2.356449985126052027e-01,7.508773325761999851e-02,1.056913375854492188e+00
7.279855664855248154e-01,-7.731561800039230548e-01,4.874209888141571301e-01,-1.550927706171339841e-02,-5.439934684330543363e-02,-5.092711152332653202e-02,1.402696132659912109e+00
7.241728957381374787e-01,-7.649176310011017721e-01,4.952963460775044457e-01,-2.998280144877664075e-02,1.362472364562095917e-01,9.247896644027388952e-03,1.409822940826416016e+00
6.081816668544932636e-01,-4.296876015766452062e-01,5.931143759489907463e-01,5.553998925063537151e-03,-2.456001184938282067e-02,5.429751916435571202e-02,1.035619854927062988e+00
6.960363412437459152e-01,-7.756927208638404458e-01,5.166454208929760483e-01,8.869488558427410241e-03,-3.279432343288473696e-03,-2.796784179901160017e-02,1.391677975654602051e+00
6.945416523959819788e-01,-7.604177882763811791e-01,5.436526812482007642e-01,-1.826469307098352660e-02,2.050612565337462528e-02,2.042945891872225903e-02,1.386957645416259766e+00
8.036412014502171131e-01,-8.650452423658159251e-01,3.365069913067659235e-01,-9.180509205882581708e-03,4.724382805204079688e-02,4.313169298776423771e-02,1.495245218276977539e+00
4.083661497003043817e-01,-7.563916572030349172e-01,7.282285095020595289e-01,3.306921690593195295e-02,-2.353029476392066999e-02,1.303851676800399373e-02,1.355354785919189453e+00
7.046638451948130655e-01,-1.020093866142433692e+00,5.520631588670688039e-01,-7.307894460157203509e-02,-5.236110012372408029e-01,-1.178801858315897851e-02,1.890455245971679688e+00
8.023473359415963513e-01,-7.794674298583931238e-01,3.158513942993949053e-01,-1.083598186249281475e-03,-3.788187225465149133e-02,-2.764167041775677635e-03,1.404849171638488770e+00
6.621970951530404825e-01,-6.750636531148284103e-01,6.503931125093316279e-01,3.219993941813808352e-02,5.415417538141462095e-02,5.823624873792385137e-02,1.339665412902832031e+00
8.550418832037883776e-01,-5.540577965106751046e-01,1.943846935792986619e-01,-2.017218215445329074e-02,-4.426505448458253021e-03,-1.414922863013224896e-01,1.245968580245971680e+00
9.709771479273751060e-01,-1.069295206956327737e+00,2.288985719460185086e-01,7.030643782860904190e-02,2.456626600563769081e-01,-1.842138665548901377e-01,1.870035648345947266e+00
9.488571899715699809e-01,-6.526552025774297050e-01,2.520156341324930604e-01,-3.144362731520613987e-03,1.672090737917551750e-01,-9.284561483629415191e-02,1.429754137992858887e+00
6.950981438012605595e-01,-7.141714264740056661e-01,6.038780120866236167e-01,-4.323731408453222042e-02,-5.248904147794049291e-02,-3.417345698593828723e-02,1.372291922569274902e+00
6.695152812121285546e-01,-6.749950518030692903e-01,5.528644002396446711e-01,-2.441253204522603887e-02,-6.058355037700194345e-02,8.222386280285372967e-03,1.295175313949584961e+00
1.523635236249762936e-01,-7.833502069466338202e-01,1.065919855609643196e+00,-1.581245204020625128e-01,-1.439356482054093278e-01,-2.601323721944603928e-01,1.704447627067565918e+00
6.479082786013323769e-01,-7.677015105820016450e-01,6.308568709134853014e-01,1.281564557559193573e-02,6.402394913420988640e-03,6.656357099749913089e-03,1.407427549362182617e+00
5.392167645649141861e-01,-6.462143432175725399e-01,6.691697462303525246e-01,1.334167233645344426e-03,-7.919194178977136123e-02,-2.754053110687110575e-02,1.263835430145263672e+00
6.635437937087833582e-01,-6.716413907104477055e-01,6.222875928847371174e-01,2.076989876136854998e-02,2.172046565884355393e-02,-2.586105670199847443e-03,1.316079974174499512e+00
4.515990672845360820e-01,-3.655792369099325478e-01,9.745971271713607109e-01,-9.518124628095358045e-03,-8.631111723045988005e-02,-3.867900542632071031e-02,1.181439280509948730e+00
6.100324964372008107e-01,-7.552942349923523757e-01,6.617224033053685783e-01,-1.348167398877353615e-03,-1.094641292565183728e-02,-5.933569868963387006e-03,1.392060756683349609e+00
6.647083588435416246e-01,-7.540578912219860763e-01,6.364556973245542038e-01,4.416246798281842079e-03,1.235188083762840672e-02,3.668931519301090903e-04,1.405036807060241699e+00
5.053921516299725303e-01,-7.667233097266699104e-01,7.206648218592017763e-01,-2.245640579762048922e-02,-2.128308315982345520e-03,-7.738901787133560875e-03,1.392902731895446777e+00
3.557175343869857786e-01,-5.744947797792250288e-01,7.478577812351260290e-01,-1.776389210764903470e-01,-1.592750808389988559e-01,-1.865113599684461998e-02,1.247260451316833496e+00
7.821814110048527224e-01,-8.289816927215665210e-01,4.145107412775554390e-01,6.678489300862511246e-02,-2.174635363684964406e-01,4.595805701502950202e-02,1.516653895378112793e+00
6.919405656252619607e-01,-7.732247383728103607e-01,5.720509675823310936e-01,1.863443991406628711e-02,-3.448173722335515223e-02,-4.724664969943794500e-03,1.410709261894226074e+00
8.558416759346975100e-01,-7.061987115190341280e-01,3.805709979648970176e-01,-1.743068746085870563e-02,-3.817047277469856059e-01,-1.920480849741980078e-01,1.572296023368835449e+00
5.840152660523070249e-01,-1.492823909968289398e-01,5.472641365699764116e-01,-1.087551485406003382e-01,-1.522734291424061026e-01,-4.932357418951246325e-02,7.902339100837707520e-01
6.765356851964891005e-01,-3.702419021194265358e-01,5.345698369627095436e-01,-4.056152799964707345e-02,-1.939382081756703957e-01,-1.443852618383489883e-01,1.071262836456298828e+00
5.811856439628868554e-01,-7.229949979174058461e-01,5.879211204370272670e-01,1.265783290064625890e-03,-3.532698735877070999e-03,-1.080188309466397541e-03,1.307578921318054199e+00
5.953717162054783518e-01,-7.309203583243477631e-01,6.012507201416850133e-01,-1.043053239542743663e-02,-2.054325390232022985e-02,-1.380909385593056052e-02,1.330055236816406250e+00
5.298800959807552502e-01,-7.388817560892494418e-01,6.128584459751775793e-01,-8.410468862338782783e-03,-3.595334208242303986e-02,-1.534679097656099604e-02,1.314046621322631836e+00
5.211697081368307227e-01,-7.276045884809292374e-01,6.162579807631667350e-01,5.362449885668948589e-04,-3.743501899047105980e-02,-5.535143572159596792e-03,1.300584435462951660e+00
5.805098499496034181e-01,-7.317677043476961130e-01,5.837619270410798755e-01,-5.985943599601701269e-03,-1.628578235524176521e-02,-5.553223127177583061e-03,1.314285516738891602e+00
5.085421023523329920e-01,-7.311613894563541161e-01,6.193996038746637511e-01,-7.664873957528671802e-03,-3.749824504292134653e-02,-6.600472231563789434e-03,1.300426840782165527e+00
6.686263973735182553e-01,-6.323929692157960192e-01,6.140298565430839517e-01,3.419450382742361683e-02,1.151548728590466586e-02,2.490002573409284738e-03,1.276136875152587891e+00
4.011162789361036873e-01,-7.669665776656953149e-01,7.520103704442053782e-01,2.868775434272886546e-02,-1.096497175714700525e-02,7.638071079552875321e-03,1.378558039665222168e+00
4.224919888629264930e-01,-7.425296523624422829e-01,7.312152406563824369e-01,-3.979734491665797708e-02,2.496370043796462476e-02,-1.253074829408474394e-02,1.348831653594970703e+00
3.288405088753381111e-01,-8.379917650035338950e-01,7.718343343074138829e-01,6.076931264149077611e-02,-1.376831748042392500e-01,3.951758410111036457e-02,1.465358018875122070e+00
5.048088765154213897e-01,-7.386689143831257631e-01,6.741803337805097884e-01,2.466243941716586997e-03,-8.851977966103490025e-02,5.750940591448024629e-03,1.345049500465393066e+00
3.776031480015380470e-01,-7.597281661685945098e-01,7.771904908512319299e-01,4.255837181844908390e-02,-2.107629040320604941e-02,-7.883051223747846933e-03,1.383693814277648926e+00
4.079774902588865770e-01,-7.684008184378373629e-01,7.347944903172406450e-01,3.085998679288374028e-02,-6.066126294743858470e-03,1.330135272938783855e-03,1.370440959930419922e+00
5.818239512734431074e-01,-7.148019088039101465e-01,6.013512246992199772e-01,-5.699466291224519060e-02,-1.145250181667287342e-01,-3.233935737197152910e-02,1.326337099075317383e+00
5.914269240369972591e-01,-7.599490976601251946e-01,6.543726228373407672e-01,1.842683758645418963e-03,-1.732142809712795134e-02,1.790484260782365666e-02,1.384599089622497559e+00
6.694048436816495418e-01,-7.598851731405886767e-01,6.359822031477125881e-01,-1.095028044938950408e-03,7.890165016067774914e-03,-1.294525517077103503e-03,1.412944316864013672e+00
3.681070847432995619e-01,-7.395302218117224546e-01,7.518158626703592695e-01,-3.195566745464500404e-03,4.354993449604289968e-02,-3.674004274275232654e-04,1.343437314033508301e+00
3.455193407176549991e-01,-7.391991548933658507e-01,7.988533631082510578e-01,-4.673398025608300685e-03,1.795045804554776941e-02,-1.878693720179853760e-03,1.369272947311401367e+00
3.255698492900269136e-01,-7.505840942170773911e-01,8.044437310323061530e-01,1.200995980496596775e-02,1.429944547312508342e-02,-4.785769310713509656e-04,1.379788517951965332e+00
2.026502141192554340e-01,-7.671157987022717561e-01,8.359024323075165963e-01,2.769243996187425311e-02,2.499411475358573678e-02,-2.795055828012144375e-03,1.399914026260375977e+00
3.765656040342814648e-01,-7.594752489751505076e-01,7.989691191249074231e-01,-1.588405658422960970e-02,6.612115518249144994e-03,4.836332749198018989e-04,1.396341681480407715e+00
1.961634379945573214e-01,-9.099558677094977677e-01,9.783707251334697874e-01,-1.393421822805725532e-02,1.598864375940362292e-01,-2.268828902221715904e-02,1.667147397994995117e+00
3.668766513699596721e-01,-7.494362165227322903e-01,7.572324442195202954e-01,9.208767373620066823e-03,2.924621826052454035e-02,2.248290053979695290e-03,1.355406522750854492e+00
2.475211692056694945e-01,-8.226288067565238338e-01,8.577802177656841387e-01,8.382695323119155467e-03,2.363939273976829042e-02,2.107530658347050306e-02,1.474423766136169434e+00
6.431674392853112820e-01,-7.618487769641330010e-01,6.639290423732860935e-01,2.837313620549595811e-03,2.188727576743275741e-02,-7.221838006409329186e-03,1.416082501411437988e+00
6.479882030931328751e-01,-7.753250282532145876e-01,6.436921568510343139e-01,2.926433180449280504e-03,4.720822208468633367e-03,2.990575687536148330e-03,1.421212077140808105e+00
6.390490423406562925e-01,-7.585286899997433219e-01,6.402283197788996016e-01,2.516840138547628888e-03,2.883335746793742188e-03,8.492179945706897215e-03,1.398260831832885742e+00
6.505429921850649500e-01,-7.760709421668737784e-01,6.475946368669540654e-01,2.668824413730411238e-03,7.104847355426891116e-03,3.176456415363686833e-03,1.425213336944580078e+00
6.367253236977232778e-01,-7.708390790317282137e-01,6.378232524392291047e-01,5.965020901419827368e-03,-1.228046665586767015e-04,2.722709903212317244e-04,1.408151626586914062e+00
6.182842765999915224e-01,-7.589717804432648540e-01,6.162305154530531848e-01,7.942905700926854856e-03,-7.746826779243373880e-03,-1.871834759618757607e-04,1.376364588737487793e+00
6.365316662289958183e-01,-6.805466785444720390e-01,6.426178954915244823e-01,-7.527173484301420865e-03,-3.363058025321625372e-02,-4.112497092467040649e-03,1.321499943733215332e+00
6.413736347123842885e-01,-5.026655649827151962e-01,6.289974708160365191e-01,4.621883614606588087e-02,-1.582886758702918908e-02,-9.393818867806430495e-02,1.152585506439208984e+00
6.130567019942818607e-01,-7.605699515531850752e-01,6.367754626630297565e-01,-1.479234183380126293e-02,1.011739245206374344e-02,1.784726500596544099e-02,1.386330604553222656e+00
8.236138539549345827e-01,-8.379788303370352409e-01,5.237146170575676107e-01,-3.913303944458063066e-02,2.053015484783266356e-02,-1.079360824222742356e-02,1.535815000534057617e+00
7.121118181204988407e-01,-1.412195468006937626e-01,4.751353297870738457e-01,-1.072818926625503377e-01,-7.759473180829268464e-03,-1.096883924555474565e-01,8.080323338508605957e-01
6.040151601763250611e-01,-5.877688820446794749e-01,6.469686095535160941e-01,-1.226053696156031818e-02,9.319123758286531126e-03,-6.419764790674592492e-02,1.219205021858215332e+00
6.750577036797962283e-01,-7.482094828338498038e-01,6.605547724066971327e-01,-3.498706936833617491e-03,1.484562784827749178e-02,-5.892726686828593519e-02,1.419990658760070801e+00
7.467828090643977568e-01,-8.007090129101620546e-01,5.006944047075938542e-01,1.834796434973345837e-03,-5.810146270347267550e-03,-1.242076301869641033e-02,1.440501570701599121e+00
5.969873124074129844e-01,-5.035194345972118235e-01,6.448988590585928993e-01,2.113146859879137286e-03,-1.374562069858902523e-02,-4.206979669195998889e-02,1.127841949462890625e+00
6.009111857265210244e-01,-6.232022167385815603e-01,6.675141540182146782e-01,-1.971506848764571253e-03,-1.601210942870762198e-03,-2.802626991381346883e-02,1.259680509567260742e+00
8.855759005677483753e-01,-2.576690278844691040e-01,4.908164558458098514e-01,6.785863818761972421e-02,4.718110606611426727e-02,-1.073867489608466980e-01,1.032775640487670898e+00
5.993821306397215665e-01,-5.638913197981250125e-01,6.453295319897740523e-01,-1.165591610333738433e-02,-1.278906213437178661e-02,-1.805895669400411907e-02,1.187704682350158691e+00
6.919816787517931722e-01,-7.502762215467797535e-01,4.216175616868468867e-01,-1.592016545705851258e-02,-7.006976800327725796e-02,-2.088355631420726888e-02,1.334191799163818359e+00
7.340519376647963723e-01,-7.644286698944110503e-01,4.238863922426966413e-01,-1.219668827319116307e-02,-5.820763439514537591e-02,-7.446533877414426676e-03,1.373916625976562500e+00
7.663462477896862968e-01,-7.507843807756714449e-01,3.980698537508617352e-01,1.572452320757551604e-03,-1.127377790599924136e-02,1.204080442775759150e-03,1.370759844779968262e+00
1.050496342198111943e+00,-1.136669291811645222e+00,1.538507158111384610e-01,9.838492745504848203e-02,-3.239490505877037907e-02,1.695255949425836239e-01,1.935189485549926758e+00
7.100699319812047161e-01,-7.767551361293855150e-01,5.721344972614713642e-01,-6.465124327193027057e-03,-1.011466741706839798e-02,-6.329469587442434000e-03,1.423074722290039062e+00
6.708994896029730759e-01,-7.679907512625696597e-01,5.505438871663104194e-01,-1.584105104925373833e-02,-2.292036078927426820e-02,-2.252792034943655597e-02,1.384038805961608887e+00
9.446400952486344593e-01,-8.396181947053690253e-01,1.846284302165783764e-01,1.113541530082173270e-01,-1.964243817897913177e-02,2.431223771223434138e-01,1.618894815444946289e+00
6.900520983416792431e-01,-8.934701716387709602e-01,5.677065910337706356e-01,-4.196950413038618571e-02,-9.798301524641847560e-02,-1.679590422660675111e-02,1.537435173988342285e+00
9.462939871438860173e-01,-8.345901357517883090e-01,1.236827654296603907e-01,-8.065315495188501993e-02,-1.822496486808627414e-01,-5.489914455391038672e-02,1.584759831428527832e+00
5.929144527036748213e-01,-6.897349382795575634e-01,6.917890542662714637e-01,5.832837464178183134e-02,-1.356509858832108222e-02,-4.994031568017704564e-02,1.341651201248168945e+00
4.019826592357640949e-01,-7.531120350784974438e-01,7.337958003321866096e-01,-1.580402669912527383e-02,1.203857950710797708e-01,6.498567147226361543e-03,1.368200778961181641e+00
5.053861076672871988e-01,-7.479131182233086372e-01,5.985256700908745398e-01,-4.591581718939683615e-02,3.064915621289935332e-01,3.408330627190662293e-02,1.409888863563537598e+00
5.643128798100960353e-01,-7.575654856778797352e-01,5.739426764976391926e-01,-2.578605420431741638e-02,6.964972106373246152e-02,3.651534938550076576e-02,1.334440946578979492e+00
5.261730279944827338e-01,-7.803146179600523036e-01,7.080254476827838594e-01,-3.713552599538558902e-02,2.209749166919810701e-02,1.058012743572991389e-02,1.408370018005371094e+00
4.388052171841620441e-01,-7.354359488409161205e-01,6.700106543952781823e-01,-2.511829394539371804e-03,5.416537692226801315e-02,1.123562886659049131e-02,1.308811902999877930e+00
6.812234179185302496e-01,-7.468162468779049323e-01,6.258777599870004593e-01,-1.847516431105338929e-03,6.622448762381184621e-03,-6.464476198128532494e-04,1.401237964630126953e+00
6.701880731254682422e-01,-6.764954421559663533e-01,6.225210205854863066e-01,-3.994103092952515366e-02,-5.455987935162299844e-03,-3.263894173284870304e-02,1.326539635658264160e+00
5.275869116318124830e-01,-9.376341440363178403e-01,7.923372732971440957e-01,1.395536393476417593e-02,1.242883113669830814e-01,6.095828377814844698e-03,1.628472208976745605e+00
5.521535666294528077e-01,-7.415110947420141541e-01,6.321087893797725510e-01,2.371540728107497577e-03,4.608086548880416938e-02,1.764298691687561302e-02,1.338176846504211426e+00
5.393744131317136370e-01,-7.326970334387991057e-01,6.256075926589779179e-01,-9.685626898300464527e-03,2.888540021783669171e-02,8.580309018337775248e-03,1.318446874618530273e+00
5.482340059485770745e-01,-7.639509424833259565e-01,6.663315135690117685e-01,-2.614974629020462224e-02,8.369657807884100728e-03,2.078090302699871564e-02,1.376335501670837402e+00
6.633302668721970941e-01,-7.843187236814839203e-01,4.998301432625765206e-01,1.042131597483225702e-02,1.142145411426941509e-01,-2.770443174904842903e-02,1.388341546058654785e+00
6.426191473743891880e-01,-7.694292277667053037e-01,6.530602756706256340e-01,-5.688074925165512337e-03,-1.418222482320930476e-02,4.916102808933638275e-03,1.417570471763610840e+00
6.452133480424138146e-01,-7.752794191102152510e-01,6.470849968301686239e-01,-4.111240899493357566e-04,-4.969874365028712979e-03,5.735358401739577665e-04,1.421456098556518555e+00
6.459958443324517186e-01,-7.763346490256401999e-01,6.506928966568439332e-01,-2.475424069288837195e-03,-2.381893128853034523e-03,-8.540715031908766366e-04,1.424697995185852051e+00
6.407121856533640747e-01,-7.705454318885360809e-01,6.471191907728255366e-01,-8.845462993130381868e-03,-7.125935879526179226e-03,-2.339320941887716027e-03,1.414614677429199219e+00
6.396383786202238797e-01,-7.712463531800084482e-01,6.528382392710210258e-01,-3.180410689653784869e-03,-1.011108711696118850e-02,8.704584634110566592e-04,1.417650461196899414e+00
6.423309622286623721e-01,-7.732738095700587566e-01,6.346314996196854574e-01,-2.349776185216425999e-03,9.728215485623338109e-04,6.066217285024220855e-03,1.411816716194152832e+00
6.379087609489856314e-01,-7.708995868651331573e-01,6.434705846215209579e-01,-9.560682711446424594e-04,8.684901833162407417e-04,3.791534828690129155e-04,1.411599397659301758e+00
6.444486450320893178e-01,-7.735990987241485595e-01,6.402476382609929573e-01,-5.196864927417240050e-03,-4.841064600405963619e-03,8.358785137431457360e-03,1.416079401969909668e+00
6.568661717062193039e-01,-6.209765650531390291e-01,6.166306197076022455e-01,6.351030114733527930e-03,-2.472762588459226016e-02,1.067967009264533806e-02,1.259120225906372070e+00
6.828271798782392654e-01,-7.600818803298735604e-01,5.811124892529322405e-01,-1.962878923467590523e-03,8.924070834533951585e-03,-6.629832027607239844e-03,1.394973039627075195e+00
6.234514775044717183e-01,-5.551365197423270281e-01,6.314446872980420400e-01,-1.140564306530151978e-01,2.465955179780085493e-02,-1.418524603007471734e-02,1.200003623962402344e+00
6.314309628761731741e-01,-5.412178436241791291e-01,6.292845204700834305e-01,-1.173606723825407552e-02,-2.808485801666009765e-02,2.098501073612071832e-02,1.173325777053833008e+00
5.836179348712962067e-01,-1.664581516164083119e-01,7.046244713919259661e-01,5.151921102544565478e-02,-4.558858766336256613e-02,-4.205492029293061290e-02,8.291708827018737793e-01
2.615051483089687601e-01,-5.845256238442628760e-01,7.307066607727985552e-01,-1.276388992250429844e-01,2.004772298278170994e-01,2.097297495551260493e-02,1.226232051849365234e+00
6.351294637863722503e-01,-7.636174329811502570e-01,6.724925167282465033e-01,1.332364324913384987e-03,4.277602507645833496e-03,-1.319164558254428419e-03,1.417820811271667480e+00
6.309173515892647632e-01,-7.566809828535823179e-01,6.727662997893437691e-01,2.906027679632896665e-03,3.750300730376400667e-03,-5.254141971239314167e-04,1.409013271331787109e+00
6.269917786384873182e-01,-7.483961677283079705e-01,6.834213598193307204e-01,-1.256827229666611758e-03,6.114311431989825733e-03,3.481141240307953754e-03,1.404507756233215332e+00
6.370528428753656769e-01,-7.138844639064613196e-01,6.538253218865743843e-01,-2.127114267525648163e-03,1.991923480061770155e-02,-2.269254159727512096e-03,1.359849572181701660e+00
6.207520838484297254e-01,-6.792382613469183372e-01,6.596454602348793550e-01,3.545129180956036775e-03,2.318564200391724783e-02,-1.673017350545571644e-02,1.320809841156005859e+00
6.807049523102048916e-01,-7.525222892403039543e-01,6.308859545451241946e-01,-3.952225692836687510e-03,2.878432979754444888e-03,-3.311286228743231478e-03,1.409015536308288574e+00
6.223960124381182624e-01,-7.295569474369454355e-01,6.741623885434820940e-01,-3.927731637754020878e-03,1.402188084561087518e-02,-1.299635715590286705e-02,1.378979682922363281e+00
6.139982862780956063e-01,-7.030840343994115837e-01,6.838962077119781213e-01,-3.589311661793354253e-04,1.758048341456052138e-03,4.093143893969571588e-03,1.353407859802246094e+00
6.508289324978722146e-01,-7.151194163557673678e-01,6.444746349989585177e-01,-7.921839603894753612e-03,2.512407764979648905e-02,5.033345084041265100e-03,1.363573789596557617e+00
6.564522884156513971e-01,-6.714708732235833422e-01,6.565258730216021466e-01,-5.402434087365905885e-02,3.339133375613949350e-02,-2.251066386112380094e-02,1.333078622817993164e+00
6.631626761656284064e-01,-7.567325684378735096e-01,6.410498565954955152e-01,-7.047385316470341880e-03,1.516630257735937688e-02,2.520684077583849100e-03,1.409273505210876465e+00
6.498510220065519816e-01,-7.735147820327222812e-01,6.392734990828181640e-01,1.885080282107987277e-03,1.432870991765203533e-03,2.672182254285977634e-03,1.418120145797729492e+00
6.535954294234522788e-01,-7.700077170137342719e-01,6.447788828141894912e-01,4.988337322779242376e-03,1.153195103520589411e-02,7.933409150674489152e-03,1.419448733329772949e+00
6.559165930821633239e-01,-7.836248171772384197e-01,5.026302580982069390e-01,2.954438835953576009e-02,-2.598002975758056388e-01,8.836362318069296978e-03,1.442378401756286621e+00
6.424262816069788995e-01,-7.723296040599815226e-01,6.493197860238553165e-01,6.195963346179589847e-03,1.001752179266466800e-02,3.153419701678552688e-03,1.418372511863708496e+00
6.370937389630595415e-01,-7.521989737152109390e-01,6.622305919353750348e-01,5.687719763120251820e-03,6.207494833517681991e-04,5.094465268446712186e-03,1.402092933654785156e+00
6.442514598733899422e-01,-7.755870987702997432e-01,6.415772962679203717e-01,1.064587867687332226e-03,4.534409574010541560e-04,1.465907489598557026e-03,1.418507099151611328e+00
6.550771274721043369e-01,-7.727538476158662961e-01,6.382149353941004577e-01,2.563946532035034191e-03,8.551794695595653709e-03,3.824590408008272241e-03,1.419574737548828125e+00
6.150849544135392755e-01,-5.532664645590268382e-01,6.623381740491495195e-01,-1.167745109546951092e-02,-1.407302819272951075e-02,1.123158118169105824e-01,1.208856463432312012e+00
5.957951776506430486e-01,-4.961248817217618345e-01,6.404896906552208780e-01,3.458687501352632893e-02,1.694101648403137372e-02,5.942965352963446024e-02,1.121666312217712402e+00
6.352609107218214479e-01,-6.139758234402661330e-01,6.397747102313670053e-01,-5.315074677322678687e-02,-1.916412338302908233e-02,1.210268961597688459e-01,1.272702217102050781e+00
5.924853676519683532e-01,-6.204841141444614738e-01,6.726365241136686990e-01,-9.645275150677350834e-03,-3.703317780706103738e-03,3.880815804966134680e-02,1.256892442703247070e+00
6.037588547896433067e-01,-6.110797542591134279e-01,6.573363383740185029e-01,1.029261798813527889e-02,2.573249154853473122e-02,-8.649006534357645687e-03,1.243511199951171875e+00
5.565957886006649424e-01,-3.042125240611762704e-01,5.907143904701199766e-01,2.436881633440878860e-03,-5.601649383195675055e-03,5.076524038586392729e-02,8.828181624412536621e-01
7.226372439593166108e-01,-7.620253396024988524e-01,4.766899987205370781e-01,9.590815833609859023e-03,8.591645486631643847e-02,-5.402852177132764708e-03,1.386388421058654785e+00
5.807745180050043476e-01,-7.471725867125796894e-01,6.386632814846510131e-01,1.369614703259564199e-02,3.847601009330157973e-02,-1.293733198475464571e-02,1.359843373298645020e+00
5.446542701457308677e-01,-7.304185620723403494e-01,6.194331827295398440e-01,-1.236885896436766248e-03,5.662187871260847966e-02,2.151450578161921614e-03,1.317720651626586914e+00
6.648875616727477622e-01,-7.421604330961817375e-01,4.741153664390787004e-01,1.459826060968530057e-02,1.636052944376678586e-02,8.026204957573154775e-03,1.322644352912902832e+00
6.428438099778919224e-01,-7.338183060233914867e-01,5.477672721730925121e-01,1.636005695849131886e-02,4.634474395999989976e-02,-1.365665785653432697e-02,1.334599494934082031e+00
4.753163006149083714e-01,-7.429336803189640070e-01,6.842790955265829478e-01,7.893980010414435033e-03,5.146339684077684551e-02,-4.712209920248522539e-03,1.338120460510253906e+00
7.990890950032222273e-01,-8.837990319928116234e-01,3.900827807504857470e-01,3.699565676635042238e-02,2.494927682235537625e-01,-1.772321464822702169e-02,1.582047700881958008e+00
5.666543861703887686e-01,-7.615518769256502951e-01,6.526080507648797102e-01,1.878672595284540392e-02,-9.256689869863943265e-03,2.400231866577286557e-02,1.374310135841369629e+00
4.454018643099666441e-01,-7.377366815261464650e-01,6.912397492335229376e-01,-9.445033150859269335e-04,-6.597094690754994051e-02,1.608879180219839264e-02,1.328513860702514648e+00
4.837427112120430417e-01,-7.355845755096762639e-01,6.584295227135908979e-01,8.903276977936873740e-03,-2.772313327625912024e-02,1.346395335896336497e-02,1.316572189331054688e+00
5.966874147040960308e-01,-7.493596855025919101e-01,6.232590585156032592e-01,8.386428694287085747e-03,-5.086101820517860243e-03,1.697815511328471319e-02,1.359951853752136230e+00
5.948585096500786928e-01,-7.731568434347360075e-01,7.022722665983512913e-01,-3.438505452113382876e-02,1.931455780708870099e-02,-1.062627122177423229e-02,1.426517486572265625e+00
6.574444481104350091e-01,-7.658594507621556691e-01,5.771110777376080581e-01,2.184797854156860994e-02,-2.989030961375234788e-02,1.730788194442716560e-02,1.386693716049194336e+00
3.062603468626554082e-01,-3.863413273117073388e-01,9.554828014839982231e-01,1.077937299543332561e-01,-7.898780278557296364e-02,4.064156334714186941e-02,1.187169075012207031e+00
5.626114853446427810e-01,-6.447612086283723842e-01,7.394975624890582910e-01,1.146495750551460163e-01,-1.518608635776679417e-03,6.595841192717087631e-02,1.324800729751586914e+00
6.526625925636397874e-01,-4.059367765267197781e-01,7.367032684785617125e-01,7.223761821809480954e-02,3.017081382234385045e-01,-8.443680692041696800e-02,1.235632538795471191e+00
4.459720068325320197e-01,-1.902694094632536581e-01,9.433557409175404862e-01,6.598735929922208698e-02,1.361781342378176052e-01,-1.675072034469423377e-01,1.059019446372985840e+00
3.219758113297269686e-01,-3.057434075031505438e-01,7.862075689980924098e-01,1.918493958671535216e-01,-1.680083024610208586e-02,-5.009006093193821285e-02,1.009822845458984375e+00
1.481306672939279867e-01,-5.477609870380550916e-01,8.842728415450518131e-01,1.081024573362940194e-01,4.086507636054220044e-02,5.139719722490789650e-02,1.259539246559143066e+00
5.981904422440882385e-01,-4.319572561070006422e-01,6.928909043562327952e-01,1.335577143906483688e-01,-7.419942717083718477e-03,-2.483279507739852981e-02,1.106009125709533691e+00
4.666072170116719042e-01,-7.356176429788089388e-01,6.792316014201749130e-01,1.598612093840521761e-02,9.346307183262420049e-02,-1.370086016396872969e-02,1.331807732582092285e+00
4.372391498495188378e-01,-7.525163472844769164e-01,6.980983188871907608e-01,3.387101973842821662e-02,1.174641769687209264e-01,-6.921957285356985720e-03,1.356061697006225586e+00
6.403295041550151057e-01,-7.414626815516399683e-01,5.449206209568429049e-01,-1.403620517162212748e-02,-2.332067860432375864e-02,1.087695264706214264e-03,1.337476491928100586e+00
6.112540417811507254e-01,-7.286897453916691969e-01,5.569615755839667504e-01,-4.959051960144219250e-03,-1.363854469830689739e-02,-2.139463307187295434e-03,1.313884973526000977e+00
6.245381776757370496e-01,-7.459278694441286994e-01,5.859742506482600310e-01,-1.719047940206368252e-02,-9.867016079102392326e-03,-8.643112710035115442e-03,1.352115631103515625e+00
6.375324121675799427e-01,-3.631676600455592263e-01,6.403297174024840110e-01,6.488406100578289482e-02,1.555618401853775534e-02,-3.446464321640665268e-02,1.010508298873901367e+00
5.615721415846164355e-01,-7.891447848420635180e-02,5.580483118047685487e-01,-2.078170335755451931e-03,4.745868183618385562e-03,-1.322155864695563794e-02,6.392053961753845215e-01
5.650252321630208074e-01,-1.399691227004321026e-01,6.361870851077144895e-01,-3.455059636719831628e-02,-2.844237081159915748e-02,2.777915239226634928e-02,7.487142086029052734e-01
5.258381216137276715e-01,-1.327310703915743906e-01,6.454719870841596485e-01,1.092607176302269889e-01,8.633709935257606605e-02,3.463978710749993778e-02,7.671952843666076660e-01
5.988437188891915230e-01,-4.089885246643941707e-01,5.910047167467177287e-01,3.378259682147673887e-02,-1.846087517891845109e-02,-3.535246229054828798e-02,1.008009195327758789e+00
6.272804648103166292e-01,-4.116514857430082497e-01,6.790740971236215451e-01,7.018359611221272609e-02,-6.497090719550312199e-03,-3.024685593188666810e-02,1.074020862579345703e+00
6.210338143677676115e-01,-7.412507806460530979e-01,4.917120939717648520e-01,2.100437523108128479e-02,1.157742164291889336e-01,-2.260616313698465829e-02,1.318877577781677246e+00
9.122826058699762264e-01,-4.143263686490261666e-02,6.148347385305769075e-01,2.109372754703597169e-02,-4.183883588102977474e-02,3.452039743139632966e-02,8.511925339698791504e-01
5.433133879092693075e-01,-1.445983388682964832e-01,5.874765376575987741e-01,2.709630257656282445e-02,1.394720091905399251e-01,-1.293454975652385264e-01,7.850503325462341309e-01
5.986316035441558991e-01,-6.328811729587058288e-01,3.999999576132904355e-01,-1.444606384510432606e-01,3.157291244205314151e-01,1.128308464990404186e-01,1.308172225952148438e+00
3.479730582375903380e-01,-1.022055029085530586e+00,8.627514286281517952e-01,-1.104243575500594848e-01,4.932544950673152240e-01,3.291702513989522988e-02,1.901832222938537598e+00
6.362832720976050460e-01,-7.997820499940823114e-01,6.465434788614925488e-01,6.695034916845305504e-04,2.432741366548655127e-03,-1.166885573313350237e-02,1.441371202468872070e+00
5.991904543931778626e-01,-7.455716263798233268e-01,6.667734697186185056e-01,-4.809049894572855707e-04,4.419227543192360413e-03,-6.019745095879872575e-03,1.379856348037719727e+00
5.923822768255214699e-01,-7.833763695891203804e-01,7.346731979927656475e-01,-3.669835769178002305e-02,4.970542260980335969e-02,-1.079511118374384742e-03,1.456081151962280273e+00
6.224862309014917994e-01,-7.609054344834810246e-01,6.479765741882443919e-01,1.405819385178766305e-02,3.739484781345697728e-03,-2.690898815533696031e-02,1.397316217422485352e+00
3.837433908236039248e-01,-9.071329582946956460e-01,8.572075471800449931e-01,3.007625619411634019e-02,1.306336882633398477e-01,-3.350803453327837883e-02,1.599684715270996094e+00
6.459403879947731575e-01,-7.734136922645936663e-01,6.483266702168857254e-01,-5.599777608209029374e-03,-6.246796407868862588e-03,1.503351989891190711e-03,1.420625448226928711e+00
6.394649640940388569e-01,-7.681046747644416639e-01,6.622426585570582169e-01,-2.576389055407179388e-03,-5.298133897858695388e-03,-2.271478100620381770e-03,1.419137716293334961e+00
6.405999188712074854e-01,-7.683350584409431860e-01,6.597962594086275168e-01,-3.024331631700630067e-03,-3.782240495003824903e-03,-1.375115343882156145e-03,1.418657302856445312e+00
6.438226626060203905e-01,-7.727541159918088765e-01,6.595160842273162238e-01,-2.248168329546922778e-03,-8.466601627868962365e-03,2.432657549718839855e-03,1.424575328826904297e+00
6.416610818334071986e-01,-7.702970516911968879e-01,6.516923761352478861e-01,-6.787188665851145476e-03,-2.921935908836806881e-04,3.416105620829307677e-03,1.417061567306518555e+00
6.400080642396095421e-01,-7.704983235896728511e-01,6.452366277489456348e-01,-9.729039243788947453e-03,-5.329770637206968781e-03,-1.256889211716845627e-03,1.413260221481323242e+00
6.278762874919414649e-01,-7.549763171448680144e-01,6.779957816113535429e-01,1.294699492942050310e-03,-3.574978661062864094e-03,-1.651795253902522227e-03,1.408599615097045898e+00
6.343685593171235482e-01,-7.529265016094295326e-01,6.734417586665442101e-01,-1.840478207555214978e-03,-1.693289442763584382e-02,-5.121352148050541467e-03,1.407575726509094238e+00
6.355635981474825336e-01,-6.833464340740191822e-01,6.534488873813336651e-01,1.645939779924930277e-02,-2.633476518242157047e-02,-1.426164497638970213e-02,1.329261541366577148e+00
6.419042666049679102e-01,-7.187875733657453914e-01,6.541991282938064423e-01,-4.423541651020010054e-03,-2.566099752115802088e-02,-8.229664938292007709e-03,1.367698907852172852e+00
6.423159868659233940e-01,-7.698776370170988814e-01,6.585511323673671757e-01,-1.562370525426436509e-03,-7.992249033823563623e-03,1.011291438366606786e-03,1.420451879501342773e+00
6.385274958614357566e-01,-7.577876081298852151e-01,6.598476137290087973e-01,-6.491191850445808716e-03,-4.795500399557567871e-03,3.802041246676415766e-03,1.407181143760681152e+00
6.316079268575238714e-01,-7.666893482807540794e-01,6.263778118131237971e-01,-1.698393902193473873e-02,1.184951362380284173e-02,1.045221724885376895e-02,1.396267771720886230e+00
5.334315175747286197e-01,-7.696596168766743906e-01,5.889523651783967750e-01,-9.787511035349329841e-03,1.622527948015826671e-01,3.094260446505279951e-03,1.361165642738342285e+00
6.436797951954156272e-01,-7.308074524640024716e-01,6.498423833817923434e-01,5.595112125687559494e-03,-1.953992358967520868e-02,-1.574917643693364219e-02,1.378298640251159668e+00
6.407687596762856597e-01,-7.712184624236829711e-01,6.621978539459587587e-01,-4.251791003950088077e-03,-4.244779359176485169e-03,-2.462720667533467578e-03,1.422867298126220703e+00
8.087774928967155219e-01,-7.590163350743475146e-01,3.421408342787322643e-01,-2.150597788877208968e-03,2.935430841624401058e-02,8.077191451898169117e-03,1.395324945449829102e+00
7.218635041211559633e-01,-7.581883384527960956e-01,4.579400621339594357e-01,-1.931707151764283604e-03,1.159639925242477027e-01,2.384257527416207365e-03,1.382012963294982910e+00
7.364595856110358607e-01,-7.668413606201504029e-01,4.054153393744464040e-01,1.418064048829783923e-02,5.671738824938303558e-02,-2.720903178161019568e-03,1.371904134750366211e+00
8.060244916261011250e-01,-7.345919994413888654e-01,3.368589100492677124e-01,-6.796343938793741359e-04,3.198614199559149385e-02,-3.972796740626685641e-03,1.368915438652038574e+00
7.629906277202190834e-01,-7.481007622961907133e-01,3.421182996289827138e-01,1.990087816144922236e-02,8.238675423238973894e-02,-9.859530776274785802e-03,1.358821749687194824e+00
7.536531719656492934e-01,-7.676906574626700674e-01,4.035522186093712937e-01,5.737312025600656631e-03,9.674559149612054626e-03,-3.342936337969048925e-03,1.380161881446838379e+00
3.975835742528025518e-01,-7.758542465599922444e-01,8.010822900948411096e-01,8.142332969054441247e-03,6.116858977879468390e-02,-1.687868795447248008e-02,1.423209905624389648e+00
5.741583631637331431e-01,-7.237101045583023140e-01,5.865027718902218190e-01,4.064330068755192191e-03,-1.805816199400304620e-02,-4.223795893416076169e-03,1.304499030113220215e+00
6.418008045275924722e-01,-7.784808059464738417e-01,6.524041030985456846e-01,4.241098644085291181e-04,3.305885970726729194e-03,2.096959627738120672e-04,1.425624608993530273e+00
6.435944397544824946e-01,-7.749692041215976435e-01,6.592249994962092741e-01,3.434899199520011128e-03,3.239049965617928854e-03,3.491431288946941162e-03,1.426479458808898926e+00
6.416306532403353025e-01,-7.719081579814442984e-01,6.593669823071155456e-01,2.609896073671387137e-03,6.511560929234307127e-03,1.008630255685457125e-03,1.422542929649353027e+00
6.431016712976220795e-01,-7.742025024338542449e-01,6.469516398541692581e-01,1.855603243168826161e-03,1.429938708803796211e-03,4.424994805313267263e-03,1.419259548187255859e+00
5.968117211909240716e-01,-7.338569860790792321e-01,5.790734699087223269e-01,1.651930747220514348e-02,-3.037717913177481396e-02,1.495332433693121778e-02,1.323498368263244629e+00
6.482916387804740221e-01,-7.757819590148921085e-01,6.420291190408766724e-01,2.451241861008793179e-03,4.089586308985558583e-03,2.052257687072221639e-03,1.420981168746948242e+00
8.643552280052366754e-01,-7.603920456379400505e-01,3.729577807186472693e-01,-1.255951800185158181e-02,-6.975861607197679504e-02,-2.000605146021283351e-02,1.448844790458679199e+00
8.141331966408820175e-01,-8.237171062231042340e-01,4.033466799343173870e-01,2.328240879125956925e-02,3.781898588491348912e-02,-3.116362503788831784e-02,1.478960037231445312e+00
7.312197036903557157e-01,-7.682379852026218758e-01,5.024814150819858494e-01,1.606935456984281019e-03,-9.098047516411343974e-03,3.241948299664614008e-02,1.400400042533874512e+00
6.800320265044185186e-01,-7.942249552228570764e-01,6.089995205405097645e-01,2.188020215638349086e-02,1.144613006055822911e-02,1.603003173549930743e-02,1.440957784652709961e+00
7.322954469006800471e-01,-7.447642981668715079e-01,4.723150367898048541e-01,-2.377223872773984864e-02,7.706411206015099935e-02,2.608795066957695589e-03,1.372887849807739258e+00
8.719140692263654957e-01,-4.154772247249371997e-01,3.716671026775755782e-01,8.171741216288364029e-02,1.648953151462968780e-01,-1.390827731359602359e-01,1.192998886108398438e+00
9.193400391973360897e-01,-7.305068202579783065e-01,1.329947264631454185e-01,-3.212716447326288000e-02,1.037746417138116495e-01,-1.578352426967586097e-01,1.467352747917175293e+00
5.946601537326581255e-01,-7.415842635725046206e-01,6.142355834972246242e-01,3.168043154848741629e-03,4.226183709482941864e-02,-1.051119974477015932e-02,1.348261713981628418e+00
6.084817577610824868e-01,-7.283513482288584973e-01,5.570317846634686987e-01,5.270916713036375226e-03,1.230839604927829595e-02,-1.801518794325008979e-03,1.312073707580566406e+00
5.699164992656653439e-01,-7.379039241091083223e-01,5.773789241230462554e-01,-9.934767101851465360e-03,5.835336402047201776e-02,1.180375730441151835e-02,1.315727472305297852e+00
4.855112788750386432e-01,-7.426808622672129712e-01,6.818449901697415383e-01,2.247664121167756296e-02,2.421796837810718389e-02,-1.367156685606822804e-02,1.338646411895751953e+00
6.194012011308271948e-01,-7.429356596838150306e-01,6.519151883187290775e-01,4.452651863168954026e-03,8.306194308492241335e-04,-6.657012851598143911e-03,1.378951907157897949e+00
5.858395065101088539e-01,-7.706685621536134567e-01,6.846051554428783659e-01,-2.737123211796579567e-03,1.165867780641902107e-02,-5.374973058304514766e-03,1.408673882484436035e+00
6.819722823019300773e-01,-7.521873796434496162e-01,6.344106579305930360e-01,-1.284949212288970070e-02,-5.089099294004373504e-03,-3.963721623205518352e-03,1.411199927330017090e+00
6.801884080582299985e-01,-7.519406784453189774e-01,6.298985958601512891e-01,-4.096922363528022158e-03,-1.875538390460149184e-03,-3.470613011479930067e-04,1.407679796218872070e+00
6.796415251930736368e-01,-7.050449137841190428e-01,6.073836928723501671e-01,-1.904272615642600350e-02,4.220231443676754693e-03,-1.901576355767556348e-03,1.350435256958007812e+00
6.763905117419033441e-01,-6.195569087789370988e-01,5.952643365296514943e-01,-3.197784886265570004e-02,8.090740766610392265e-03,1.528904157377992349e-03,1.258648872375488281e+00
5.986657147960789960e-01,-6.185801963980611662e-01,6.752550844242320993e-01,6.378556973779157206e-04,4.236424657605526375e-03,4.242255630364488023e-02,1.259458541870117188e+00
6.023003986688950651e-01,-5.881375980471251763e-01,6.586151707080707407e-01,1.244681916574732431e-03,1.307275157984107497e-02,5.856966026012898341e-02,1.223994135856628418e+00
5.903366081919441122e-01,-4.525958730672857699e-01,6.372386480489224958e-01,1.323394421466201059e-04,-3.877436770488614914e-03,6.469329073789474582e-02,1.073044419288635254e+00
6.001736639784838179e-01,-4.821863952294098699e-01,6.376099690475678372e-01,9.471440443963323810e-03,1.897475596043677812e-02,6.641773632693270812e-02,1.108155012130737305e+00
3.135955064240988910e-01,-7.568023002382858744e-01,8.062519718239171684e-01,-2.256914787222803059e-02,4.083828031045062812e-02,-3.223411251871271480e-03,1.386492967605590820e+00
5.077471667700810265e-01,-7.804093719187792377e-01,7.271152657835773248e-01,-3.305160392422539645e-02,6.004071916892285768e-04,9.972366112647937722e-03,1.411958456039428711e+00
5.992281777783999841e-01,-7.241962918790003645e-01,7.255146996748786936e-01,-8.084999825924357383e-03,1.757452431495051814e-02,-8.045818111007071744e-04,1.391278505325317383e+00
2.800486502383100484e-01,-3.682893255566733748e-01,8.300349253411304362e-01,9.255934860158385180e-02,3.263368507384041030e-03,5.700183938696883057e-02,1.055881261825561523e+00
5.023123505393474186e-01,-3.401658487556088462e-01,7.986991688278510804e-01,9.296076268719294378e-02,3.644332841620390867e-02,2.193857320395605631e-02,1.038589119911193848e+00
6.901276547786042714e-01,-9.778983748282132904e-02,6.933753605608771187e-01,1.050090780926013490e-02,-1.694427816821940727e-02,3.078478018304770317e-02,7.920976281166076660e-01
6.550662460742130433e-01,-7.404777167630073320e-01,6.449833978076013885e-01,3.370126277040986357e-02,-1.792319729928070968e-02,3.276578489832170961e-03,1.392112374305725098e+00
3.899111282704704196e-01,-3.784359240442358718e-01,7.956028105406406370e-01,-1.547872810007804370e-03,9.315940542115984380e-02,6.661262307213894340e-02,1.051670074462890625e+00
6.428781652273138914e-01,-7.299619341425742647e-01,6.734978315870112642e-01,-5.413948296403810201e-02,1.932072718042737725e-02,2.191847299908744606e-02,1.392486214637756348e+00
2.842501640127931828e-01,-6.548264746478446030e-01,7.826765935603950952e-01,-2.555722470272160374e-01,2.391263130237525902e-01,7.233398027730286728e-02,1.407674193382263184e+00
2.808444150653671700e-01,-8.648391445332909155e-01,8.606668403655405308e-01,3.920121691138303555e-02,8.144382687533512077e-02,-2.543689621400651441e-03,1.528923392295837402e+00
3.481970592669436648e-01,-7.495448242820532680e-01,7.775139267397955800e-01,8.699117757109591301e-03,1.164046866909337202e-02,-1.434563369459466520e-03,1.364283323287963867e+00
3.491724605528093717e-01,-7.456406401515458526e-01,7.200935059839490560e-01,-1.109680974493186534e-02,1.144575209077456912e-01,8.577928740735672308e-04,1.334900975227355957e+00
3.799898855257706209e-01,-7.374239472399186646e-01,7.565983486730223362e-01,2.615584548112943886e-02,-9.160853130062036886e-02,3.246207299050203610e-02,1.357079625129699707e+00
4.040868112116353106e-01,-7.645685218570346109e-01,7.480540121680914201e-01,3.796335883669810229e-02,2.464090975775528117e-02,-1.160982526284777550e-02,1.375717043876647949e+00
4.797275707949827384e-01,-7.500065876052877112e-01,7.305309699243468513e-01,-1.093051637614588303e-02,1.667938781169039236e-02,-1.179338980608960266e-02,1.373018622398376465e+00
5.219802610311867763e-01,-7.815485607237040444e-01,7.079329165407428626e-01,-2.343806658481260505e-02,4.522963614213756228e-02,2.590675860639081798e-02,1.409240603446960449e+00
4.477216281215478100e-01,-7.550660125088487495e-01,7.822562961610175503e-01,-2.314603606210880946e-02,1.549196476959405488e-01,1.759345475606366449e-02,1.426717162132263184e+00
5.432562757500690731e-01,-7.622464163814822724e-01,6.845587096922405301e-01,-2.549052611373822316e-02,7.844090324611554393e-03,2.183543675106958820e-02,1.382873296737670898e+00
4.062136827681782636e-01,-7.600837412108835123e-01,7.544094150592848269e-01,-1.198388340858754474e-02,3.404285846067606897e-02,3.190398426465478054e-03,1.375328302383422852e+00
4.220423568662513558e-01,-7.666875316945386265e-01,7.453258787779567518e-01,-3.668018547989567585e-02,4.792214571598930883e-02,1.159609427673725761e-02,1.383190870285034180e+00
3.770075043514877211e-01,-7.657776846720679709e-01,7.376383870034501911e-01,-3.080249828354467145e-02,1.361948220033297741e-01,1.540328118303228161e-02,1.381065368652343750e+00
5.014134416315980669e-01,-8.079422914028047131e-01,7.114779481224445812e-01,-5.265026514818151038e-02,6.190893912521291953e-02,2.932115975581596739e-03,1.432978987693786621e+00
6.983949356436862654e-01,-6.322605805921215349e-01,6.668941720671306417e-01,4.759780787191762036e-02,-1.444688815822444544e-02,7.878869613744236833e-02,1.325052976608276367e+00
7.566009715290794579e-01,-2.077229495438076556e-01,5.776280642495421613e-01,-4.967318655802846483e-02,1.790151385033751097e-01,6.956639518150964374e-02,9.525880813598632812e-01
6.131823447222609635e-01,-1.023868353272143206e-01,5.881717073130836582e-01,2.147134799399726818e-02,4.368558191787543128e-03,9.078867884353815365e-02,7.217589616775512695e-01
5.777076377943184404e-01,-4.320116476344829648e-01,6.365410202424421904e-01,4.214209484310679071e-02,3.268322282085859166e-04,7.767501648162639105e-02,1.051583528518676758e+00
5.782638008550695652e-01,-3.254269496115375082e-01,5.944567150948103507e-01,-4.290547431563910413e-02,1.403896485787369821e-04,1.520879076063315349e-01,9.520858526229858398e-01
8.765610379643942185e-01,-1.183631243278112644e-01,6.109614284603476220e-01,2.260563108829988926e-02,-1.092872607357331105e-01,6.812017728823016594e-02,9.205710291862487793e-01
6.252693590106229715e-01,-5.156699599581215931e-01,6.364465388859286143e-01,3.610311740079636539e-02,6.371452182343540112e-03,5.205779911226739165e-02,1.151860237121582031e+00
8.269820844115510772e-01,-1.323508630345547665e+00,3.962482053989228592e-01,-1.006767077194103410e-01,4.580137969418738297e-01,-1.060205717002177389e-01,2.139465093612670898e+00
5.624575649128293886e-01,-7.416507243526232473e-01,5.706272599003521240e-01,4.132234729988364282e-03,6.386557202337186934e-02,-6.483204079742467194e-03,1.312948226928710938e+00
6.136770089186975863e-01,-7.241076589623658410e-01,4.683263778034779112e-01,-5.824386524236877666e-02,2.377691388154606622e-01,6.518108166673498849e-02,1.344943165779113770e+00
7.789752736447193016e-01,-8.919090025729188298e-01,3.385883949569277185e-01,1.449323852945713365e-01,4.153361203101242904e-01,-5.813263687479585523e-02,1.685415744781494141e+00
8.235534144860169325e-01,-9.454564613256055683e-01,4.589068288485335656e-01,1.741031563260405091e-01,5.287862930791750182e-01,-3.047127950413089023e-02,1.884108781814575195e+00
6.886973900287884920e-01,-7.448478881579000399e-01,6.184684749924194147e-01,-1.721756644124063183e-03,-3.183729279824772020e-03,1.008242344439571172e-03,1.399767875671386719e+00
6.837191266234561304e-01,-7.466093411464463925e-01,6.260278004124091300e-01,1.068700353838366451e-02,-8.782010050052713526e-03,6.143043827018452793e-03,1.402618050575256348e+00
6.692009083510875866e-01,-7.193283307610632837e-01,6.195422988243206586e-01,6.907106090242640280e-03,-2.550345137538642670e-02,-4.493120126808701855e-04,1.365145444869995117e+00
6.569704534962306219e-01,-7.658985199229842999e-01,6.631080980957966275e-01,1.310401048151143069e-02,1.466596860416646700e-03,4.290240356292400817e-03,1.426149964332580566e+00
6.080989340886515659e-01,-7.500043355510105370e-01,6.603754029460886521e-01,-9.818973458984343525e-03,2.271700981355054272e-03,4.912503474021208925e-03,1.385117769241333008e+00
6.090174836648043488e-01,-7.609252570267575067e-01,6.627065981992077415e-01,-1.148704497442036565e-02,-1.864236997814233384e-03,-7.781279811255779021e-03,1.397771239280700684e+00
6.838929239860002118e-01,-7.448370012592115952e-01,6.231657095012572700e-01,-1.265779322490824272e-03,-3.121465282227420604e-03,1.449085892689758182e-03,1.399369359016418457e+00
6.599888450883388824e-01,-7.683199780002333279e-01,6.435550507106431173e-01,-1.110725254545601951e-03,-1.388708164586506186e-02,3.350920058439788018e-03,1.420380115509033203e+00
6.709488113894149786e-01,-7.510212969761973500e-01,6.318508009280436877e-01,-5.735236800776042157e-03,-2.266540174399360019e-03,2.318308095725613027e-03,1.402876257896423340e+00
6.022714810554630205e-01,-4.454511145336939038e-01,6.015741974310748752e-01,2.576379976328199012e-03,2.285253721566530768e-02,-3.160380996519838309e-02,1.049559712409973145e+00
6.493032880977314125e-01,-7.349597481261325171e-01,6.510323504609829559e-01,-5.240968926826320914e-03,2.003038807769936744e-02,-8.760211788048064691e-03,1.385675668716430664e+00
6.282413646847756494e-01,-5.243777405697552796e-01,6.348160223033294525e-01,-2.096187620692463449e-02,2.134401130814804481e-02,2.055036866861821923e-02,1.157628536224365234e+00
6.522363424539243670e-01,-6.057113587309317371e-01,6.050155593673758325e-01,5.071514379587978294e-03,2.150074819556642425e-02,-1.773978610399911879e-02,1.235989093780517578e+00
6.160442193374460196e-01,-3.152244040764926591e-01,6.189707559034047790e-01,8.205715860306373594e-03,-1.336720911735222138e-02,-1.389294368449672523e-01,9.636583328247070312e-01
6.385590719997589204e-01,-5.766833553328744033e-01,7.040393656818131340e-01,-1.172281221357340253e-01,-2.039217706762634988e-02,-9.577660740816565377e-02,1.276977062225341797e+00
6.513647859521114469e-01,-6.734853476582125520e-01,6.378686207210955139e-01,2.950138961957016366e-03,3.575571100425243426e-02,-1.822660373198418254e-02,1.319995403289794922e+00
6.319530267992348183e-01,-1.018437267603311547e-03,8.700530992708492839e-01,9.018129229379506437e-03,1.282423014464221522e-01,3.281370492630239499e-02,8.129376173019409180e-01
6.966574435129530007e-01,-4.021956388450751430e-01,6.387779641021725796e-01,-5.826489789177830697e-02,-4.570456816481120038e-02,-6.878936064162829989e-02,1.085299134254455566e+00
6.464102754255014460e-01,-7.784225318434241370e-01,6.481852895600301867e-01,-5.113774117515286315e-04,1.939842852348683926e-07,-1.061823871933759286e-03,1.425722599029541016e+00
6.469164772007711672e-01,-7.796075827994348728e-01,6.460570081834287048e-01,-6.214830884071589526e-08,-6.344979844631698724e-04,4.139478667014181664e-04,1.426095128059387207e+00
6.494532016049354706e-01,-7.776751235420648056e-01,6.495750909689524955e-01,-1.357014499172976094e-03,3.356205186044345853e-03,-1.572575566737864855e-03,1.427205681800842285e+00
6.415615288721434606e-01,-7.746494503444409929e-01,6.425245942203543503e-01,-4.838324868071440868e-03,-1.114293280140702308e-04,-3.148533446668153220e-03,1.416728019714355469e+00
6.412241451349345311e-01,-7.750567774153017675e-01,6.435316669082995489e-01,-4.042034659018685881e-03,-4.996247468523082411e-04,-3.877245145080846726e-03,1.417469501495361328e+00
6.496909666492267643e-01,-7.737399067245024353e-01,6.448259454735434382e-01,-4.959034644162530793e-03,6.194261289796445039e-03,-5.113573800187631163e-03,1.421098709106445312e+00
6.320569498901098537e-01,-7.573402203730398297e-01,6.026485589555115041e-01,7.553775540807726278e-03,-1.502030344565757772e-03,-8.142189828029036376e-04,1.374994277954101562e+00
3.872249648360305829e-01,-7.560256133032497994e-01,6.436467872179879590e-01,2.027070249148892750e-02,1.985337416043479741e-01,-4.605238677028219291e-03,1.336215496063232422e+00
6.099121004169203442e-01,-7.521338066957764523e-01,6.022935416797103869e-01,1.529929160928531449e-02,1.281367763930363161e-02,-1.631729437728742654e-02,1.358986258506774902e+00
6.392792239047924152e-01,-7.632369730063501834e-01,5.762812671319920144e-01,1.961015507315382045e-02,8.484317949191464911e-03,-2.116625492475415413e-02,1.373090863227844238e+00
6.346081590550836093e-01,-7.594867266945354300e-01,6.059725103147851621e-01,1.295962158985497145e-02,3.786576520231986877e-04,2.906811683718373181e-03,1.380191802978515625e+00
6.483519388142544582e-01,-7.655191598954428356e-01,6.156129528527514161e-01,1.582654784044660104e-02,-3.963432097216580728e-04,-1.052876137572435894e-02,1.398177027702331543e+00
6.485184277431769173e-01,-7.259380768337285739e-01,5.965966461891440975e-01,6.769960177639214316e-04,6.330399194916559898e-03,2.818743357288963636e-02,1.350173115730285645e+00
6.147296514175816240e-01,-7.557958673169807851e-01,6.081764835364844579e-01,1.231904863506981529e-02,2.031529532873199706e-02,-1.457480368064939698e-02,1.368112802505493164e+00
5.722861715047304898e-01,-7.605641270337972770e-01,6.823875349398610402e-01,-1.731889228209957179e-02,-6.784969180944518986e-03,-1.019846494461265976e-02,1.391657590866088867e+00
4.372784237236512772e-01,-8.545968359588977936e-01,8.288964715030463504e-01,-6.794566494078919938e-02,-6.635078139214996285e-02,-3.648087482434562729e-03,1.534706830978393555e+00
5.215132413294210068e-01,-7.696264501437386496e-01,7.333759914695725524e-01,-2.261927248734486862e-02,-4.265474883688413245e-03,2.511963471526718148e-03,1.409638404846191406e+00
6.508747397834300230e-01,-5.732042672388283355e-01,5.945870291653079232e-01,-5.082420198300470482e-02,-7.576851977521535837e-03,-2.347753943112889166e-03,1.200239658355712891e+00
5.043949449272633334e-01,-7.540879076306359341e-01,6.461194400756091749e-01,2.487978083079315367e-02,-1.316863497769107938e-01,2.682315320507269382e-02,1.355825304985046387e+00
5.727917755525230303e-01,-7.534701767149966090e-01,6.578674032514966186e-01,-9.641514249316253740e-03,-3.251406352924834237e-02,2.088183831191662079e-02,1.372515797615051270e+00
6.033246663287933353e-01,-7.514844629293426781e-01,5.792556303007480034e-01,2.831518473337363284e-02,-3.372815869617895590e-02,2.656815557332408914e-02,1.345887780189514160e+00
8.638165017319792138e-01,-3.963394017596404417e-01,4.210663203462970960e-01,2.119468167330216743e-02,-2.532573197923946862e-01,-8.352200651213090299e-02,1.200324773788452148e+00
7.242232009129159209e-01,-1.880730652521008794e-01,4.781450408748997294e-01,-6.893383064100531976e-02,-2.159611504930394194e-02,-1.569168009459383228e-01,8.705551028251647949e-01
5.242710174475198048e-01,-8.158874759048999614e-01,6.067379667256337372e-01,2.419115670059140272e-02,-2.881036414228892450e-01,3.271182995850020064e-02,1.472182512283325195e+00
4.466705693334412919e-01,-9.109707426207640513e-01,5.948439906007249034e-01,-4.757112354166005697e-02,-4.971781704060625473e-01,-3.695023455638945381e-02,1.678914785385131836e+00
8.368908564989531174e-01,-8.351101325259380204e-01,3.669038374963797811e-01,2.492853649855738749e-02,-1.111331633753473297e-01,7.443136501050773290e-02,1.512016057968139648e+00
4.284795792752988386e-01,-8.333693486463540356e-01,6.099336514866307013e-01,-1.012413096199668433e-01,-4.049683793086306660e-01,-1.025911004214047489e-01,1.551927328109741211e+00
3.899323727860583566e-01,-8.445241120154223236e-01,8.160617172715359802e-01,-7.060700888321135016e-02,-1.572280834192410770e-01,-3.535306553656871863e-03,1.523372173309326172e+00
5.007406260873168424e-01,-8.454950630485542629e-01,8.148794362732973973e-01,-5.259429222156494776e-02,9.607546084737296835e-03,-1.559580718015674689e-02,1.530765771865844727e+00
3.665715709272436285e-01,-7.401546574919141142e-01,7.659585152270634856e-01,3.975003064299907803e-03,2.341934602415924813e-02,-8.878578340881702891e-03,1.352144241333007812e+00
3.509674497521401149e-01,-7.644812346490094113e-01,7.231297451460257930e-01,2.909776958304246403e-02,1.582745464253360879e-01,-3.139092561020612182e-02,1.370586395263671875e+00
4.793605805706747103e-01,-7.390565230417369680e-01,7.256762860384213809e-01,3.956008661592141235e-02,7.530295579409200524e-02,-4.376735284881184268e-02,1.368495583534240723e+00
2.498189940276286103e-01,-6.117153141121591808e-01,7.946417442267458275e-01,-1.364268496287453225e-01,2.212758971464748037e-01,4.859114444217445955e-02,1.310826420783996582e+00
6.832574031904417589e-02,-9.925962172548974394e-01,1.108226026929143293e+00,-4.957397800167463037e-02,2.174497410472245040e-01,-3.870727220406131042e-02,1.861161351203918457e+00
2.814820828469670189e-01,-1.189657843255546465e+00,8.786211309116722656e-01,-1.804216737906492174e-01,2.545928182021264807e-01,9.682126151983133644e-02,1.928609490394592285e+00
7.808234018433438672e-01,-7.871261183754701962e-01,3.827766582776507276e-01,-3.318351342116985982e-03,2.188915780565934763e-02,-3.317238188572790847e-02,1.413351058959960938e+00
8.708343616208429339e-01,-8.927996439582388533e-01,4.442947563238681119e-01,-2.433615728856707364e-02,1.070910439862018670e-01,9.993370977820501336e-03,1.605167627334594727e+00
7.358078215687887669e-01,-7.566499387039820057e-01,4.778200953948044671e-01,7.527039675131709344e-03,-1.051562166511181172e-03,1.628392147672131501e-02,1.381998896598815918e+00
7.087388215993346563e-01,-7.588300825646329129e-01,5.186941074982718280e-01,1.381069273852923371e-02,2.641154950329249046e-04,-3.057939485602090279e-02,1.383600234985351562e+00
7.093342910988803540e-01,-7.711717671176431255e-01,5.119890507897917331e-01,-1.765253069958408472e-02,-4.859499361297282653e-03,-3.456952460113480591e-02,1.394009828567504883e+00
6.126205435261103949e-01,-7.505548817763386671e-01,6.069944061248458977e-01,-9.470174297003705957e-03,-1.821676630904554015e-03,-5.685093837166555267e-03,1.360509276390075684e+00
6.313803012205030374e-01,-7.561910234160559297e-01,6.131957459645536179e-01,-6.899712909160283527e-05,-5.789347888219232782e-03,-1.879281966325079423e-03,1.378609299659729004e+00
6.182306326558152376e-01,-7.566618889307451523e-01,6.307077474776328074e-01,-1.818606226245927980e-03,3.742406325446928726e-03,-1.071964451956634347e-02,1.381316900253295898e+00
5.374620458951945290e-01,-7.392063549041750781e-01,6.231030986613352862e-01,-8.408580748758047452e-03,-3.080212666832877685e-02,-1.197398430340996384e-02,1.322890877723693848e+00
6.170830444858772523e-01,-7.660081254227000258e-01,6.284488653665238900e-01,-1.029882381847154957e-02,-4.416660337486650809e-03,-6.974054128257055514e-03,1.388997077941894531e+00
6.025458313851400627e-01,-7.530457735141451447e-01,6.054447338033503989e-01,-5.802172091748461664e-03,-1.201046126564018351e-02,-4.744229394258296997e-03,1.357264876365661621e+00
6.067242482506938206e-01,-7.598446941823037148e-01,6.392254962636845228e-01,1.429402452511859337e-03,-1.052836346381313785e-02,-1.438512548583575912e-02,1.383452773094177246e+00
6.675843718390108705e-01,-7.477834254626190003e-01,6.288159873795459154e-01,4.204264350295416897e-03,-3.420404024531782574e-03,-2.013243914117575535e-03,1.396423220634460449e+00
6.578560132339994482e-01,-7.595721164079184407e-01,6.394769752019127118e-01,-6.390104732518989659e-03,-3.222220033457415256e-03,-4.201641295242721647e-03,1.408401966094970703e+00
5.430343947635876134e-01,-2.558183772926307942e-01,7.051561081588914037e-01,-1.751315409174956650e-01,-9.545289067312116849e-02,2.060451691444218757e-03,9.556779265403747559e-01
6.598038199724400865e-01,-7.586535304570335425e-01,6.387810643761672180e-01,4.293012054645739886e-03,-4.099529501067251253e-03,-2.837238230155207565e-03,1.408109784126281738e+00
6.543452877483273422e-01,-7.674551712746693344e-01,6.522694293524639031e-01,-2.946577366583708404e-03,-2.275241972563381981e-02,-4.189439462637782781e-03,1.421337842941284180e+00
6.793586106485518528e-01,-7.536982173942449181e-01,6.268877080252586165e-01,-2.901204556156676811e-03,-3.146540516007613995e-03,-8.886705913301416867e-04,1.407575488090515137e+00
6.734233978941862597e-01,-7.321604216570836154e-01,6.269031978803938365e-01,-2.905093462695706313e-02,-1.739425086731700293e-02,5.324520206121927807e-03,1.384184479713439941e+00
5.193279705101478960e-01,-7.766931641855780999e-01,7.249288543883293245e-01,3.803977021084959526e-02,1.888830488393471868e-02,-4.689825743769334213e-03,1.412049174308776855e+00
6.361383396991260319e-01,-6.391147592199859506e-01,6.437933788584242478e-01,-2.939469347883456526e-02,-1.038025349176608693e-02,5.604990460734887714e-02,1.283912539482116699e+00
6.689997434966240553e-01,-6.388548599458920840e-01,6.021632430666282731e-01,-2.492366136309509192e-02,-1.228331504379192099e-02,-3.181756839573379996e-04,1.276657700538635254e+00
6.667637206938685779e-01,-6.454404449997792614e-01,6.203398159141808588e-01,-2.666521847603873716e-02,-1.576988786924988714e-02,8.560996222868030858e-03,1.290820002555847168e+00
6.006487867752250409e-01,-7.580940562815194905e-01,6.772322345919259412e-01,5.708332904850810588e-03,6.187058398974899830e-04,-1.284534503436141235e-03,1.398645162582397461e+00
6.627676292599862240e-01,-6.369033160102178792e-01,6.131839303258694862e-01,-2.256828526948622543e-02,2.066365859645271155e-02,-1.317430245580975684e-02,1.276906490325927734e+00
5.547843441939360742e-01,-7.557555851880238817e-01,7.076925961247697572e-01,-2.320688814074246126e-02,-4.765582105074267494e-02,-3.256726752136628739e-03,1.396334052085876465e+00
6.361593258330875411e-01,-5.254057459944448949e-01,6.124006276235729462e-01,-3.939905805820480972e-02,2.888333881827502905e-02,-1.925633923139547649e-02,1.153461098670959473e+00
6.418731028583484211e-01,-1.703006015633776737e-01,6.149238710691653509e-01,-1.180803462216810928e-01,7.221596280848840109e-03,-2.094668354275227434e-02,8.256915807723999023e-01
6.169775570358466688e-01,-7.479848386309898567e-01,6.035053295279939611e-01,-7.315476181748640019e-03,-2.210739406169613761e-03,-3.781746331618791347e-03,1.358356714248657227e+00
6.501080293069314564e-01,-7.884636859189064761e-02,8.752728585039183384e-01,-6.840052014181169371e-02,-3.916023957955955259e-02,-1.176674042723400287e-02,8.747916817665100098e-01
6.355374155351760646e-01,-7.593463394190684834e-01,6.083893695437954108e-01,-2.244566511709421633e-02,-1.516628144850472662e-02,-1.507967580983323244e-02,1.382553100585937500e+00
6.171009623750796091e-01,-7.471144329430103870e-01,6.052608630608807827e-01,-6.762290332122724082e-03,-9.074677514412838458e-03,-9.340215060874453717e-03,1.358571767807006836e+00
3.256085868568482367e-01,-2.297460015835218750e-01,7.364562824027387489e-01,-3.990551168583140323e-02,-5.840010835279597912e-02,-4.433375742805782671e-02,8.522242903709411621e-01
6.480530096155088238e-01,-6.701628879543455319e-01,6.356982857674020604e-01,3.230412364031951498e-03,-3.169508623036215028e-02,1.600448217605153142e-02,1.313534617424011230e+00
6.224334241687681235e-01,-7.472865364045218062e-01,6.906276776220592328e-01,-2.165039229623337384e-03,-5.046382019763535724e-04,-3.794432878362796486e-03,1.405079483985900879e+00
6.062945295857586903e-01,-3.778309299020401468e-01,5.680368571651559506e-01,2.042657312232647963e-03,6.489642656610405264e-03,-2.760974538106305415e-02,9.668205380439758301e-01
5.788585013704639071e-01,-3.004807264864214345e-01,5.469506537156224590e-01,-4.369423819242178320e-02,-2.371953805163749471e-03,4.295824532557782549e-04,8.671463131904602051e-01
6.489098010883668222e-01,-6.429293975055168087e-01,6.414077625424726703e-01,-1.190836254155908797e-01,3.528172648057747302e-02,9.337785676648525934e-02,1.315921306610107422e+00
6.603767355719560861e-01,-6.022663474240677051e-01,5.951877260080515875e-01,-5.037304408975068482e-03,-1.644729127403490865e-02,5.330162358468671681e-03,1.231738448143005371e+00
5.148943043385418861e-01,-7.739279963165411891e-01,7.127938731087116730e-01,-1.869806259815410404e-02,1.508221144694721870e-02,-2.985120949320519725e-03,1.398943424224853516e+00
4.779514866246634130e-01,-8.446012012640107258e-01,8.354798893510924085e-01,-5.809753019428557513e-02,1.364943102432520771e-03,6.860221192926240635e-05,1.536214113235473633e+00
5.194849290479719439e-01,-8.503376028411737675e-01,8.333834974696230358e-01,-4.333552146147238993e-02,5.804577788224703216e-02,2.608119864555647274e-02,1.556506991386413574e+00
3.780099920060023821e-01,-8.186724363596411536e-01,8.456337668949890363e-01,5.462700801735725226e-02,1.240987324004072800e-01,-3.494857462508707546e-02,1.506365180015563965e+00
1.588247875437394652e-01,-1.093426747572238122e+00,1.146454114396273427e+00,-3.362772485235372977e-01,-2.120813241808765792e-01,-5.855420483812148053e-02,2.065133094787597656e+00
1.948444543016460972e-01,-7.240968227983338723e-01,1.064088115637227050e+00,-5.717703731781730025e-02,1.543698601654129587e-01,-1.369742316651632527e-02,1.575018167495727539e+00
6.034471506268148655e-01,-3.571740010996657944e-01,6.308171793974326480e-01,-1.457678180884057484e-01,-3.016161218885547030e-02,5.474589990551472635e-02,1.012570858001708984e+00
2.599878403752682310e-01,-7.810173500394139712e-01,9.452294835821011265e-01,-1.919867845038422949e-01,-1.577629938429140899e-01,2.094685945025986928e-02,1.566253066062927246e+00
6.452932571306109200e-01,-7.783339395961372809e-01,6.485821944419302154e-01,-1.858712320991819707e-03,-3.350210854147381463e-03,2.968986496620473867e-04,1.425290107727050781e+00
6.505924506256199891e-01,-7.736310972337036018e-01,6.482358524832085855e-01,-1.869123394682622183e-03,-8.482399604188131659e-03,2.519995713249752363e-03,1.423132896423339844e+00
6.471455051767620592e-01,-7.336609301789409621e-01,6.196854791364789783e-01,2.455116770273872272e-03,-1.406405023007780558e-02,-7.077709133818326816e-03,1.367561817169189453e+00
6.515798602846574195e-01,-7.697836337450014721e-01,6.416499812391246449e-01,-5.676858186910950163e-03,-3.633551828843130035e-03,7.882693020929599712e-03,1.416538596153259277e+00
5.886295319676573268e-01,-4.842340254877869343e-01,6.330742390628802951e-01,3.639405974794602400e-02,-2.865659485832354123e-02,-4.605832143846328580e-02,1.101587891578674316e+00
6.442705097109857615e-01,-7.756287637695690185e-01,6.486207323336669051e-01,-9.528828249789402524e-04,-5.471964851142028553e-03,-5.556205144396745036e-04,1.422112226486206055e+00
6.485521800364202338e-01,-7.750082449746853452e-01,6.461356025998586938e-01,1.370800357449227262e-03,-3.989760876955802428e-03,1.792722381158657870e-03,1.422375798225402832e+00
6.155198084051689555e-01,-6.028019827025884458e-01,6.361346161022563006e-01,-2.549835574586360731e-02,3.186469017091757977e-02,-4.860914933069677285e-02,1.233666658401489258e+00
5.978468578358322461e-01,-6.325583188531195278e-01,6.718551827166763246e-01,1.287543747285608327e-03,1.137842499177993058e-02,-3.075769639797770738e-02,1.270301461219787598e+00
6.624208202358696784e-01,-6.240779682386170535e-01,6.073094302120507493e-01,-7.891369545868935631e-03,-2.412761271353200745e-02,-7.936169967782029724e-03,1.260689377784729004e+00
6.382717407632780837e-01,-7.471143224770097069e-01,6.525060910073681164e-01,2.309250696056746634e-03,-8.703456187506201577e-03,-2.924462458347323532e-02,1.393566012382507324e+00
5.725015165138198636e-01,-2.777147713205860846e-01,5.889743261972830712e-01,2.181579060865687994e-02,-2.075731071067642153e-02,-6.333428955278024020e-02,8.671208620071411133e-01
5.935761558031578122e-01,-5.921311772802351214e-01,6.636305294814051070e-01,-2.118197810689323500e-04,-5.466745773132542646e-03,9.661050453046897760e-03,1.222392439842224121e+00
6.136387575902655378e-01,-6.383940174180245952e-01,6.553718495131726218e-01,-1.859533573594003217e-02,3.067167809623526711e-02,-2.103988113713201394e-02,1.275447607040405273e+00
6.209075890470759918e-01,-6.574865600546236921e-01,6.514169805307726824e-01,6.690516494395396668e-03,3.166296289340098102e-02,5.947236390610330381e-03,1.295173168182373047e+00
6.792991558325467416e-01,-7.019258727353514526e-01,6.046975509272465299e-01,-1.025601136356072383e-02,-1.084525696141053208e-02,-1.096964910663139267e-02,1.345858812332153320e+00
5.901012744272013943e-01,-4.660963966052461549e-01,6.399079029570275967e-01,6.853625027933782365e-03,1.781243296674017013e-03,-6.796108707558494444e-02,1.088414669036865234e+00
6.412754482921034782e-01,-8.090209226482683036e-01,7.288056920111557480e-01,-6.432649651767151366e-02,-7.985689165835942183e-02,-3.531610242219504134e-03,1.506502032279968262e+00
6.637295753337275617e-01,-5.392915271680814859e-01,6.693986215709937238e-01,-7.148604496670143971e-02,6.952766619514740704e-03,-6.150245502039054096e-02,1.216936826705932617e+00
6.104249178099809825e-01,-5.299059769715162016e-01,6.228547021031679565e-01,-2.547201007787551486e-02,3.006977196986168957e-02,-3.945137711394898494e-02,1.150656938552856445e+00
6.422506582878493298e-01,-7.460580253845078280e-01,6.462040137200169010e-01,7.098361559491560800e-03,9.516981180365266871e-03,6.042292962007997023e-03,1.390480995178222656e+00
6.541732379724871649e-01,-5.197942075886560209e-01,6.063834262682012977e-01,-7.324771971728349929e-02,1.293110811907939410e-02,-1.817381493311535576e-02,1.158433437347412109e+00
6.359599344257719222e-01,-7.561924284434710097e-01,6.114146392629138393e-01,2.215504723373061882e-02,-1.571359283784509384e-02,1.776264924567582879e-02,1.381187796592712402e+00
5.900493153073487207e-01,-7.474820256146337272e-01,6.913780019370365792e-01,-3.658631610642933650e-03,-8.987166856675358681e-03,9.576737116323586494e-04,1.391069054603576660e+00
4.992335376423343019e-01,-3.518051838744972182e-01,6.257318599135089920e-01,-1.238425858622046669e-02,-2.096462879589574280e-01,-9.842986664569723654e-02,1.004641175270080566e+00
7.281196113674301973e-01,-3.014832925281792919e-01,3.655251173848616530e-01,-6.609963809733651607e-02,-1.427373952164078530e-01,-4.180351786288726695e-02,9.474706053733825684e-01
4.243704670228128362e-01,-7.594501022662685230e-01,7.359133448998145255e-01,-2.204438684989594444e-02,2.375731316327875722e-02,9.052145323388006634e-03,1.367734551429748535e+00
5.099947791712120537e-01,-7.616700283506361302e-01,7.120319312673949463e-01,-2.655500550979063984e-02,1.279582596957471114e-03,1.153211458973884065e-02,1.384699702262878418e+00
5.158012599033940937e-01,-7.699882446750663245e-01,7.132021720976686741e-01,-2.598960560946908874e-02,-5.037277943959375670e-03,-1.114345349520776823e-02,1.395891427993774414e+00
5.093270465122057278e-01,-7.717867412448100595e-01,7.292090221032659914e-01,-2.578172942401580486e-02,-7.547155910154369079e-05,-8.946825896322934540e-03,1.404823422431945801e+00
3.790008707367111263e-01,-7.786192998090590844e-01,7.860495542925886037e-01,1.766073716924733070e-02,-1.603988396217974344e-02,7.250335436885030869e-03,1.406714677810668945e+00
5.236705357691175955e-01,-7.633999785626389700e-01,7.085859727296951460e-01,-3.022266243797272489e-02,1.142463154628893876e-02,1.174137856654525322e-03,1.389920592308044434e+00
5.087168945271105525e-01,-7.704690635773899787e-01,7.160714726823467213e-01,-6.780420982434053057e-02,4.185233106151084459e-02,2.594579912314392417e-02,1.402007222175598145e+00
4.096286994003418558e-01,-7.534379670324979905e-01,7.241406557601155480e-01,8.536975684844484756e-04,6.611439274130652410e-02,7.547320239552782715e-03,1.353043437004089355e+00
1.075107095600470464e-01,-7.864720381821280748e-01,9.200445411690074682e-01,6.203623438344574997e-02,9.096638898784379160e-03,-1.340487207026098970e-02,1.482612729072570801e+00
2.320870822998596095e-01,-9.659913724533915058e-01,8.894745967643549189e-01,2.429764888411173607e-01,1.057082202859571107e-01,-4.500809399658369653e-02,1.694657683372497559e+00
3.258444131670130695e-01,-8.484937314010275733e-01,8.244941745369265274e-01,-7.687513941913873272e-02,1.882376152330270114e-01,1.096951297788494907e-02,1.528952479362487793e+00
2.709984314046415821e-01,-1.167939918190262105e+00,9.336124848938015530e-01,1.150365793630002964e-01,-2.010250042012686200e-01,-1.022713205560802086e-01,1.911903142929077148e+00
4.906774535088299638e-01,-7.954474195738123754e-01,7.151642806956922671e-01,5.713456207567335632e-02,-4.354329132117063655e-02,4.199394768590077737e-02,1.419155120849609375e+00
4.043078431722374466e-01,-7.761598296547460585e-01,7.572597200996766809e-01,-5.239662366612769621e-03,-1.384911561017570202e-02,-1.713996051966788694e-03,1.391184329986572266e+00
5.087372276908874724e-01,-7.740387445821966805e-01,7.288439122996813735e-01,3.324659540677932928e-02,-5.922892233476384841e-03,-3.056491782092342867e-03,1.407038688659667969e+00
5.274980637110516790e-01,-7.677721706746991615e-01,7.047057010800170662e-01,3.286410393360464366e-02,-1.717440687209167288e-02,7.661092369675076563e-03,1.393901109695434570e+00
5.709012129482518016e-01,-7.608137165669516255e-01,6.619397459582542220e-01,-3.516384780555709046e-03,-2.481607133236179291e-02,1.812130647739752798e-02,1.380528807640075684e+00
5.850735436844465287e-01,-7.625945302135436199e-01,6.718095000163232244e-01,-1.021864816798819312e-02,-7.292329050970309742e-04,6.086473007324343619e-03,1.393215537071228027e+00
5.716769557089558251e-01,-7.527806574222263292e-01,6.945724155012757972e-01,-1.781507141931478258e-02,-1.892588694490411963e-02,8.490356767130145116e-03,1.390792608261108398e+00
5.049686555118025888e-01,-7.316797875282432528e-01,6.246915541266686578e-01,-1.020683206815275329e-02,-4.273213319232847807e-02,-2.068330747221268709e-02,1.303365707397460938e+00
5.178472632564262712e-01,-7.375949839050944812e-01,6.562226912272186574e-01,1.332190398206283856e-02,-1.330844817003406892e-02,2.186708177346672125e-02,1.330978393554687500e+00
5.953016822586492118e-01,-7.337647852133573068e-01,5.791368653120356758e-01,-6.105479866316172906e-03,-1.208001053653475453e-02,-6.356530083964423948e-03,1.321312069892883301e+00
6.666416537370168927e-01,-6.505910091713108523e-01,6.203026151279692479e-01,2.768786675953147786e-02,-1.228448419220587104e-02,-4.686116799388903749e-03,1.295773267745971680e+00
6.186997512021141787e-01,-7.330677742407538666e-01,5.226265520452602065e-01,5.826477710075750847e-03,-3.236324664734040873e-02,-1.648552553896515636e-03,1.307627201080322266e+00
5.111309597094434443e-01,-7.416090727914771419e-01,6.825321034706309797e-01,3.070469924358611505e-03,-9.155485965261293824e-02,5.775233324500900385e-03,1.355998635292053223e+00
5.704659519128646439e-01,-7.259757774649663320e-01,5.927034245741893415e-01,5.994068413925143909e-04,-1.638142606387237368e-02,2.842185214879433802e-03,1.308019757270812988e+00
5.746328237258276905e-01,-7.348756439800817608e-01,6.084144092814368632e-01,8.189598848659770253e-03,-1.134145477567880672e-02,1.160055532228800382e-02,1.327095270156860352e+00
6.134899738881591791e-01,-7.345479350659016582e-01,5.296353515351743813e-01,9.656588447627924982e-03,-3.578099925519765551e-02,4.953077731309623276e-03,1.309730052947998047e+00
6.439951701380115523e-01,-4.870621861235003847e-01,5.910900061475394818e-01,-6.315223785339366125e-02,1.889592278532823896e-02,-1.211993565883696423e-02,1.111632704734802246e+00
6.606481419972096703e-01,-6.112953890906681620e-01,5.948401446990903008e-01,5.688881379499538364e-03,2.266963856262536187e-02,-7.917034522480643696e-03,1.241085767745971680e+00
6.086561362595923619e-01,-6.095260893250372680e-01,7.082525154726564409e-01,-1.056505705861940508e-01,-4.433071259146333966e-03,3.405633672146523433e-02,1.285394310951232910e+00
6.271501176679460388e-01,-5.653531829996144564e-01,6.403821621250770368e-01,-1.510319916261410877e-01,2.395273999266722340e-02,-4.797646540911078977e-02,1.230884552001953125e+00
5.160444254430391897e-01,-6.073840490619932808e-01,7.187765829880715662e-01,-7.232073125300253480e-02,1.236152952839178996e-02,1.738643860603476463e-02,1.244187712669372559e+00
6.718842872330277327e-01,-6.206518530004987433e-01,5.955970125029903528e-01,-3.011623560182438708e-02,6.428637809878346744e-03,2.654686080083409807e-04,1.257263064384460449e+00
6.691666588168579954e-01,-6.238945123023735828e-01,5.954343631462430952e-01,-2.517439697302461393e-02,-1.238812992985825409e-02,4.653589440101594567e-03,1.258781075477600098e+00
6.045504877291798529e-01,-7.543319216483890255e-01,6.724944801924517268e-01,9.509506350225304522e-03,7.244236303136960663e-04,-7.234658359170151451e-04,1.394195199012756348e+00
6.587601906065785329e-01,-6.884342030491675812e-01,6.397926066006207613e-01,-4.283182094848909244e-02,-9.163190078828108848e-03,5.024921725245382748e-02,1.342784404754638672e+00
6.546200699385564814e-01,-5.780112667832624229e-01,5.941406132723379141e-01,-4.711767651781256089e-02,-2.954197019964753361e-03,8.354024789542474627e-03,1.206393241882324219e+00
6.498840301197306157e-01,-3.698914128845784965e-01,6.031293977165310682e-01,1.116167616930745371e-01,-3.053204900560410866e-03,1.069348652734052052e-01,1.032548666000366211e+00
6.453988753046924209e-01,-5.620547129170698764e-01,6.040575844015986240e-01,4.305101521391108826e-02,1.522271357790867113e-02,1.031405552931159882e-02,1.190088272094726562e+00
6.026093259992664208e-01,-6.941470733315534547e-01,6.907865768401275641e-01,3.557279715068535630e-02,-5.707999055350214401e-02,-1.783550990212754567e-02,1.348414540290832520e+00
6.381961515843669330e-01,-5.413633167440126126e-01,6.173593688404725999e-01,1.358127665529430123e-02,2.875893150863215869e-02,-7.554607720736374737e-03,1.170650362968444824e+00
6.220174178360942108e-01,-3.854407360232647850e-01,6.244111705786297151e-01,8.581718547054355273e-02,-5.486491043496247860e-03,-1.084391680381584233e-02,1.019767642021179199e+00
6.492462531226510514e-01,-5.179590548561163743e-01,5.944385542308312509e-01,5.832130572446997396e-02,2.503368777222477609e-02,3.969237764194433887e-02,1.148133635520935059e+00
2.943132747936891835e-01,-5.377415662920103090e-01,9.765963666706335422e-01,1.005273627284195143e-01,-1.149203296961012338e-01,1.399201461069120300e-01,1.361687421798706055e+00
5.989196413906402450e-01,-5.349218089991337743e-01,6.461501268245659624e-01,2.563608273389811690e-02,4.051952088187416728e-02,5.115108715227791730e-02,1.164528012275695801e+00
7.145809002560630230e-01,-7.713575510630645837e-01,5.739024765748372836e-01,-1.193917812651958815e-02,-2.264324849795007477e-02,2.083251275710549730e-02,1.421981692314147949e+00
6.610395487021502037e-01,-7.713743105779694575e-01,4.794473037864277476e-01,-1.661852545773219100e-02,-2.739941651975888459e-01,-1.878549439801470086e-02,1.432402014732360840e+00
6.596567034220358616e-01,-7.691807183705340334e-01,5.023744056843987282e-01,1.229803212570145486e-02,-1.755832967064591410e-01,8.634727356802124332e-03,1.390952587127685547e+00
8.872735099110375945e-01,-9.711475612233690935e-01,2.176436200937445220e-01,-2.768402569675181696e-02,-3.155780472124109504e-01,3.489906631390551905e-02,1.721162438392639160e+00
7.639027070516609674e-01,-8.234362455217262289e-01,4.859710154127340753e-01,4.783026968263583839e-02,-1.312414526718070351e-01,1.590300404529057521e-02,1.488292336463928223e+00
7.717472068233180993e-01,-7.727815075186990068e-01,2.821020121070164643e-01,-5.518997844146907202e-03,-1.121630617704644090e-01,-2.226180281315686890e-02,1.381437659263610840e+00
6.466857531630919587e-01,-4.713108680633012471e-01,5.734817951258082136e-01,5.731686281987011244e-02,2.254849292607267151e-03,1.771856230382902464e-03,1.087802290916442871e+00
7.572370076679865170e-01,-7.666099270883030004e-01,3.839808224710075657e-01,1.092242513312152719e-02,-3.189531360782532111e-03,-3.086966245841661974e-02,1.376913785934448242e+00
6.589717359870801427e-01,-2.823711707635204737e-01,6.518878366489604392e-01,1.360419414978435437e-01,2.358840462554890466e-02,-1.288773611800300145e-01,9.932410717010498047e-01
5.807853928346339289e-01,-3.425403182454731521e-01,5.813374683737406734e-01,3.366311370359018063e-02,-2.046867919143337960e-02,-6.038292884123854648e-02,9.320060014724731445e-01
4.454155611672280246e-01,-2.013065968808852579e-01,6.739811697241229194e-01,1.582417066964660612e-01,6.832879937038974227e-02,-2.894875995068999300e-02,8.425865769386291504e-01
5.603301172370986905e-01,-2.069412624307765958e-01,5.532583016398142650e-01,7.744693520593090748e-03,2.708128222526737672e-03,-1.800190897451342878e-02,7.645282745361328125e-01
5.605417075584225861e-01,-1.271778667374793836e-01,5.627165589462027606e-01,1.123115379376518098e-02,-1.354862648298300193e-02,5.302852062296549039e-04,6.894842982292175293e-01
5.948588494754160072e-01,-1.577637295798671735e-01,6.256003466422681569e-01,1.337954724247598093e-01,-3.803413104290581659e-03,3.337970684882762828e-02,8.047435879707336426e-01
5.541672670419832691e-01,-2.500849349315813486e-01,5.529201026500714100e-01,4.015179184769745308e-03,7.721887060150198386e-03,-1.006758610542110750e-02,8.039598464965820312e-01
5.733633541777005682e-01,-2.477306455534324936e-01,5.558166074730063189e-01,-5.968337600320850096e-03,-5.709926361531507573e-03,-9.885003564171564346e-05,8.125886917114257812e-01
6.485405707032205758e-01,-5.633428499459822714e-01,6.138039771206876827e-01,-5.348136709020202828e-02,-1.374283609967416608e-02,9.039324720672464036e-03,1.198817729949951172e+00
6.246232097030783859e-01,-1.109975769770835674e-01,6.041628515799570831e-01,-1.289635634420352797e-02,-2.184170753725502359e-02,1.006647603629184581e-02,7.271448373794555664e-01
6.494957956957398970e-01,-5.898400795117645368e-01,6.293750801012971685e-01,6.248120457380639675e-02,-2.272858330108374833e-02,-2.170365839510305511e-02,1.235352754592895508e+00
8.982009032219728795e-01,-7.718366846812273474e-01,2.489729231689899458e-01,9.022331474447243399e-03,-4.858348782524225286e-03,-7.590084040468496156e-03,1.458346724510192871e+00
6.780466376291509611e-01,-7.117739507110475428e-01,6.220513951794338636e-01,2.091450513677050108e-02,-1.445879547095624620e-02,9.708401735339051769e-04,1.363398551940917969e+00
7.109860190510044475e-01,-7.486572474716154391e-01,4.572395228832983327e-01,2.093251051864593749e-03,-1.139530410036915589e-02,2.076303461134890410e-04,1.350914239883422852e+00
8.009100079730172572e-01,-7.363058069922431281e-01,3.260237011329178980e-01,-4.668802513071334225e-03,-1.438445459432167832e-02,3.190834679911795733e-03,1.363548040390014648e+00
5.597655604685360942e-01,-2.288964173752169318e-01,5.476935192139007480e-01,-1.171752556294549177e-02,-2.545880660610375795e-03,-1.866309072451701129e-03,7.829779386520385742e-01
5.772337798179248969e-01,-2.557224540098103072e-01,5.510150415876768903e-01,-6.263079266382549914e-02,-4.390634088585073334e-03,3.396713747915831166e-02,8.294283747673034668e-01
5.810577904382070447e-01,-3.039989712846024039e-01,5.646326733490607541e-01,-4.126416981648595161e-02,1.319665203279115663e-02,-1.073266695648049211e-02,8.803603053092956543e-01
6.633550676866384332e-01,-6.292824329411254025e-01,6.028772674835868317e-01,-9.418728629916627015e-03,2.122809319458991706e-02,7.942266635173987968e-03,1.264199614524841309e+00
5.570105725100941152e-01,-2.119177636989528768e-01,5.586142619991459890e-01,1.208075214852415147e-02,-7.623658654464179202e-03,3.256091526922176918e-03,7.701496481895446777e-01
5.573951806248905738e-01,-9.505019352339955097e-02,5.574495864843749260e-01,3.214291175917639853e-02,-6.808521012996796018e-03,8.503046755749307101e-03,6.551151871681213379e-01
5.914910160458776156e-01,-3.819848380805219712e-01,6.150299977117106298e-01,-9.993560064511665397e-02,-1.119517609008632147e-02,-3.303822460327499044e-02,1.002365112304687500e+00
6.404131523989545771e-01,-4.493160897143753107e-01,5.649282257944314711e-01,-5.680830803590999900e-02,4.165879007545066071e-03,-1.056476989558600976e-02,1.058781385421752930e+00
6.496419626179092965e-01,-1.704921057682206031e-01,5.981788798716494160e-01,-4.785975936049920859e-02,-3.855630002187767410e-03,2.897846272570472892e-02,8.015592694282531738e-01
7.073195677289516592e-01,4.795840703543979844e-02,6.579730208812440972e-01,6.761465149993936552e-02,4.863385091995962167e-02,5.068807777578422658e-02,6.581594347953796387e-01
6.292344546959547369e-01,-7.664806073734353742e-01,6.294103008093858698e-01,-4.418197401425316174e-03,6.846274646410715385e-04,-3.881684303841058479e-03,1.395840644836425781e+00
6.146999470405936083e-01,-7.572030960649228648e-01,6.276859812742533462e-01,-7.831602676630678578e-03,-6.980723403434663590e-03,-7.496818894050225057e-03,1.378622889518737793e+00
6.440708072790286565e-01,-7.770233910232908769e-01,6.431599948554933555e-01,-2.788609264888306221e-03,5.976443493068456410e-04,-3.414192526464979605e-03,1.420659899711608887e+00
6.434173967190186527e-01,-7.717656741009965016e-01,6.393680673126219682e-01,-2.736012729052897684e-05,-1.679375917244636460e-03,-1.845045917866563372e-03,1.413169384002685547e+00
6.697650931173185773e-01,-5.358670932929443520e-01,6.328577861958184503e-01,-4.586350719602159259e-02,-7.136083536445997529e-03,6.718212701272927023e-02,1.196000814437866211e+00
7.471918454282950872e-01,-2.458785035321194856e-01,3.317793056514060090e-01,2.292619941090532146e-02,4.104618156467412099e-02,1.101865728851627868e-01,8.884125351905822754e-01
7.309988892665582050e-01,-5.907074394665603467e-01,6.356664144630479463e-01,-2.001911280323419740e-03,-1.364560677720396548e-02,1.463345297505694587e-01,1.301847338676452637e+00
8.436661823237496804e-01,-6.288209914438536163e-01,1.739223295018431648e-01,2.650392089158481665e-02,-3.995499952313087688e-02,1.400990645205313356e-01,1.302446126937866211e+00
7.477375698420367645e-01,-8.152137466630571261e-01,4.791310737031222455e-01,-4.144552392348645024e-03,3.651117931812752210e-02,-7.516873806186764873e-02,1.454699039459228516e+00
1.202551410034358725e-01,-1.377820312651695023e+00,1.090032008549213005e+00,-1.684777936103362406e-01,1.249753860775280716e-02,2.119100770110644294e-01,2.204050064086914062e+00
7.628033922051030702e-01,-9.002792395510710310e-01,4.410019377235801508e-01,1.630857634308365695e-02,3.322544035173141119e-01,-2.306966126443219314e-02,1.633337378501892090e+00
2.264538467611977857e-01,-8.681066186701941190e-01,9.394590191774012666e-01,5.969349316447945808e-02,6.366368057177039519e-02,-1.562378778273765256e-02,1.584439277648925781e+00
4.077600100324954013e-01,-7.918668752043576120e-01,6.683460345887318743e-01,-3.925824052608207354e-02,-1.988406618852872898e-01,-2.548342569854946879e-02,1.394561052322387695e+00
8.951998531329358189e-01,-8.987509859243645316e-01,4.216027648754597235e-01,-3.227980450297987525e-02,2.426748033343390787e-01,3.066677444918377432e-02,1.666002511978149414e+00
3.408716402745268770e-01,-8.399496708428945135e-01,8.017880810019092364e-01,2.151889092872236522e-02,1.665459522494262545e-01,-2.826417357141887063e-02,1.496008515357971191e+00
2.792738649820974972e-01,-1.203807823951130729e+00,8.532871579121042993e-01,7.727871404344681394e-02,-2.864343515261750239e-01,1.096175640961395970e-01,1.918444395065307617e+00
3.797001959240270397e-01,-7.585228376008916751e-01,7.868907578302809513e-01,-1.097801773754531959e-02,-8.752265990740054624e-03,9.363275795379732026e-04,1.387596249580383301e+00
6.216982621823270438e-01,-1.074394431909325709e-01,9.417655365245437560e-01,-1.465241152345140262e-02,-7.913672168132031282e-02,2.885673389227218222e-02,9.430737495422363281e-01
6.518676564861685119e-01,-4.699909993587692014e-02,6.293530987387543352e-01,-4.906676943855029643e-02,-8.313335524945410226e-02,6.575608469640067434e-03,7.080062031745910645e-01
6.423011733025350001e-01,-5.629847482488136157e-01,5.969972955938684933e-01,3.414291513145538415e-02,2.155904867508761508e-02,2.861105869081672151e-02,1.186385154724121094e+00
5.100005034218129119e-01,-2.416611087878917097e-01,6.481840347636835808e-01,9.185961241245778341e-02,-1.137348279618696362e-01,-4.424916026033547806e-02,8.706046938896179199e-01
6.776774016612088225e-01,-7.450350239171621425e-01,4.814596304829049100e-01,-1.479935859951607251e-02,3.592599531074887331e-02,2.029748413087859721e-02,1.337615609169006348e+00
6.397000370142678083e-01,-4.990359334227615351e-01,5.994710065537829369e-01,4.558276899539458193e-02,2.605611296667382018e-02,3.266599837524852140e-02,1.124277114868164062e+00
5.773463952155166723e-01,-4.135183268003856938e-01,6.036634899766224471e-01,-2.333754798636438268e-02,-7.101813671943348408e-03,-4.662802078871857575e-03,1.005202770233154297e+00
6.113650293356507337e-01,-4.778610934661280396e-01,6.025312049097741873e-01,-6.077278193948718391e-03,2.152135784594966239e-02,3.162696917661189655e-02,1.086908817291259766e+00
5.874419744585439584e-01,-3.458612958136126903e-01,5.665415654294114756e-01,3.573240811026335423e-02,8.189650108967220371e-03,-3.051162054531232019e-03,9.252269864082336426e-01
5.788741993960153653e-01,-6.795527717535677636e-01,6.539366158923325401e-01,-1.797845702597542991e-02,7.967819424647962223e-02,3.610436711465436072e-02,1.306774497032165527e+00
6.186641111483165423e-01,-7.622568251472924272e-01,6.488104835411712124e-01,3.895878455891478836e-03,5.882943578253388602e-03,-1.793249245387939020e-02,1.396637082099914551e+00
6.445414354815379721e-01,-6.667385889623066442e-01,5.551645619473137838e-01,-2.466746222934134217e-02,7.787220172616260427e-02,2.910705619621328441e-02,1.277812480926513672e+00
5.845748428887387327e-01,-6.145990740169444688e-01,5.897970486970431914e-01,-1.411729248837962636e-01,1.798782049430401875e-01,6.342970763171341952e-02,1.270132064819335938e+00
4.084640653748022876e-01,-5.535289896264470322e-01,7.057254602268145938e-01,-8.228463249954129366e-02,1.635186417391663871e-01,1.329389798821420561e-02,1.183560729026794434e+00
4.082608203581289397e-01,-9.917308385175014340e-01,7.550859133407127333e-01,-1.237602641126780145e-01,3.244061560644852515e-01,6.876648039975302718e-02,1.715129971504211426e+00
7.053710717847666567e-01,-9.016823243120678510e-01,3.940910749195050133e-01,7.195426984782528346e-02,3.792393334484243095e-01,-6.658248394462804032e-02,1.624675869941711426e+00
6.868544492764069309e-01,-7.906915411363004687e-01,4.884509833788827082e-01,6.816746763610165814e-03,4.888447061122586090e-02,1.665016773195595809e-02,1.391939640045166016e+00
7.561518615011613154e-01,-6.855268787322769120e-01,2.475525790411464699e-01,4.671300266337811979e-02,2.813530678913030436e-01,-1.145170153917241251e-01,1.373769044876098633e+00
7.339577376078184612e-01,-7.584020814301151159e-01,4.356939556430471927e-01,-2.634811169524759605e-02,8.332403596087691044e-02,1.563254496189070072e-02,1.376454353332519531e+00
6.633758073456467175e-01,-8.074194845932273212e-01,5.118292487673550273e-01,-2.090929204665211913e-02,2.147288719106958399e-01,4.635613478518974678e-02,1.452375650405883789e+00
5.213610884753849817e-01,-7.832249935296120569e-01,7.084531839979514301e-01,3.430318652246421018e-02,1.278837233203079619e-02,-1.932561689897260154e-02,1.409314513206481934e+00
4.908790640899748370e-01,-8.020849511864798220e-01,7.364346351773729538e-01,2.779331035657454235e-02,1.075963753634432037e-02,2.424203885050988001e-03,1.432560801506042480e+00
3.992459019866360093e-01,-7.791668534827030923e-01,7.778267013957561593e-01,7.642894210021069015e-03,-3.110653301746934760e-02,6.701348097244032688e-04,1.407545328140258789e+00
8.385636169490504610e-01,-7.914034408517817143e-01,3.189703028339730406e-01,1.881928980786314954e-03,-1.341515402618352892e-01,2.149802053814077116e-02,1.461244940757751465e+00
8.721571278006017280e-01,-8.802029168350284927e-01,3.011560075188244312e-01,2.238452046617669597e-02,-1.407065248674433389e-01,5.913264372286630710e-02,1.570858597755432129e+00
6.172178118128244240e-01,-7.297962598280844926e-01,5.148329803191722398e-01,-5.907623979288887696e-03,-3.345090011581371148e-02,-2.172153093299557768e-03,1.300189018249511719e+00
6.157341663464857007e-01,-8.889152998674638706e-01,6.178539921575031402e-01,-2.950408904857409337e-02,-2.468632097007743553e-01,-6.621942754092215340e-03,1.566119909286499023e+00
6.675343832985127790e-01,-7.636730460775149609e-01,5.576633719188524019e-01,1.685880471204449088e-02,-1.060527035139135349e-02,1.869318505827595456e-02,1.380368232727050781e+00
6.832009448829701181e-01,-1.097726951607538526e+00,5.097340517177784136e-01,3.816802717083931512e-02,-4.878950999743957295e-01,1.078831713535066336e-02,1.900449275970458984e+00
8.930745206350348964e-01,-1.353986343498484679e+00,2.963368117771376653e-01,-2.477971099088515650e-01,-3.987277180729293935e-01,-6.290547353231071281e-02,2.176581144332885742e+00
5.027466786760512729e-01,-9.663199274640577041e-01,5.755941341927626187e-01,4.951432199836079684e-02,-4.037380033085976039e-01,5.193284846484705342e-02,1.665815234184265137e+00
8.111941743280481898e-01,-8.520664749344923905e-01,2.770897731106185535e-01,6.743922531069302534e-03,-2.860459251129877645e-01,2.426118891693187368e-02,1.552648663520812988e+00
6.381978918163092596e-01,-7.580251776176344380e-01,6.129548027573851199e-01,-2.096901146888057246e-02,-1.277990098192688037e-02,-1.334590022522208139e-02,1.384620666503906250e+00
6.445543865934887373e-01,-7.439614704207354601e-01,6.424081661539116084e-01,1.009664514429544063e-03,1.163243070672834341e-02,5.634820824195214267e-03,1.387625694274902344e+00
6.493682119327166546e-01,-7.748956156578381549e-01,6.495232330120619402e-01,-1.244134983338116267e-03,9.558281323655323097e-03,-2.586427039463502428e-03,1.424446225166320801e+00
6.459859674825814135e-01,-7.682234831553559351e-01,6.460493579110786477e-01,-8.471348723401855851e-04,7.798557362906835023e-03,-1.207007538828039871e-02,1.414460897445678711e+00
6.478434189932834597e-01,-7.781503789537076443e-01,6.458212448296806185e-01,-5.404955530618473311e-05,4.134735989875591711e-03,-2.424512468247727245e-03,1.425007939338684082e+00
6.491660578715414687e-01,-7.761691163107850011e-01,6.458176198295513259e-01,1.553986660418307428e-04,6.435131174039376845e-03,-9.317095306680656629e-04,1.423708438873291016e+00
6.510329949129393112e-01,-7.746287735677253039e-01,6.473863663230856602e-01,-3.066268464977823203e-03,7.982467190155387998e-03,-4.206498168219937467e-03,1.423937678337097168e+00
5.892951517901352521e-01,-7.671751253316410057e-01,6.535500632963293643e-01,8.785497980807924212e-03,-8.463003742048318817e-03,-8.260991597196454261e-03,1.389946579933166504e+00
5.123508340570152031e-01,-7.776662222252692658e-01,7.168552387731292885e-01,-1.658768301174294579e-02,-2.401748252953029780e-02,-4.027525864517847616e-03,1.404416203498840332e+00
6.709449859814773376e-01,-7.338369757761659118e-01,6.155282689679144603e-01,8.927501333443494183e-03,2.321960690273229197e-02,2.278135716333822697e-02,1.379147768020629883e+00
3.257601131403016770e-01,-2.661647410789207413e-01,7.508915846121853033e-01,6.766953328505687093e-02,3.480876624278094605e-02,-4.531962630703785522e-02,8.979374766349792480e-01
2.064811579954520249e-01,-6.279162408328770040e-01,8.945936171484628607e-01,2.166620756521851765e-01,2.662524159574828145e-02,-1.476034168366154552e-02,1.373857617378234863e+00
6.372007073778198638e-01,-7.288563011267046310e-01,6.659883865028881633e-01,-1.192561549136074601e-02,2.755438878280268289e-02,-1.444325454185553526e-02,1.381881475448608398e+00
6.391806628698346593e-01,-7.633574372831587462e-01,6.633694841000866704e-01,2.189087049237970622e-03,1.685883393190975785e-02,7.318690271013321468e-04,1.415094614028930664e+00
6.373425365059122161e-01,-7.431556392319896842e-01,6.622218768472852846e-01,-5.231318629741388802e-03,1.650239142250720450e-02,-5.620414909092667256e-03,1.393461108207702637e+00
6.389967373396967520e-01,-7.619365382861841285e-01,6.525043330381601336e-01,4.046572288497083877e-03,3.677095776642355478e-03,5.067591474581514474e-03,1.407794952392578125e+00
6.460305080514197051e-01,-7.705132855363442390e-01,6.208211226608729705e-01,1.466259362656885216e-02,-1.656758039219430366e-03,1.167042309470187229e-02,1.404486894607543945e+00
6.518195719675416999e-01,-7.699570508440015670e-01,6.133043181988164783e-01,1.265803340674766589e-02,2.558945946234928489e-03,1.125785747354362577e-02,1.403229355812072754e+00
6.394405815901272883e-01,-7.572691854294527625e-01,6.712366594385595908e-01,4.489357570384766571e-03,1.332840760612724780e-02,-6.368381923558479041e-03,1.413129210472106934e+00
6.658178121991188414e-01,-7.519336414953018410e-01,6.064255009157266674e-01,-1.104485305384089212e-03,-3.334603398179686057e-03,4.464698691820538808e-03,1.389042854309082031e+00
6.488414218297853253e-01,-7.321531455319570947e-01,6.475649193412986726e-01,-9.458433300321932719e-03,-2.583804034508850947e-02,-1.009813719081643869e-03,1.381180286407470703e+00
6.198829458485726196e-01,-7.572764457961236317e-01,6.101024723230867863e-01,6.628107940709875717e-04,-4.828012633713575988e-03,-1.804052916013203114e-04,1.372321248054504395e+00
6.606552673380804430e-01,-6.451804431268343132e-01,6.170173625548414087e-01,-2.136086554709304072e-02,-2.230929772366872788e-02,1.337955934976002570e-02,1.285895109176635742e+00
5.871808645418785666e-01,-4.893967777949176368e-01,6.458276037055235008e-01,-3.311044971722043595e-02,-9.611537918531552760e-03,1.829672478282287282e-02,1.109128952026367188e+00
4.795122394699901092e-01,-7.881690716248330730e-01,7.421902357822901530e-01,5.129882154708245018e-02,-4.463869877991296503e-02,2.437858649109771875e-02,1.422906517982482910e+00
6.634166927591685914e-01,-7.516191230765101317e-01,6.412946210279385495e-01,-1.216366189102396737e-02,-2.090134195114586382e-02,3.450703366854159307e-03,1.404742836952209473e+00
6.540179195801907319e-01,-7.679207887574236446e-01,6.432626121348464787e-01,9.231641787642533292e-03,-7.764581108608006703e-03,-1.102667920823442900e-02,1.416874527931213379e+00
6.683034160036798177e-01,-7.560982969810510212e-01,6.308794863533810915e-01,5.855708455301577957e-03,-4.639906351631978808e-03,-3.823388102996642078e-03,1.406138420104980469e+00
6.619311772879823419e-01,-6.802365887177604931e-01,6.219978061939475111e-01,-2.417189993473105661e-02,-2.477338634601810100e-02,-2.184208575591369255e-03,1.324016571044921875e+00
7.778078048951676537e-01,-7.615188709561033775e-01,4.179722871624107494e-01,-4.751030440256846440e-03,-2.542909146258163708e-02,-6.513951351631239346e-03,1.395434975624084473e+00
8.064374224886672327e-01,-8.522982647849676185e-01,3.369133501405968678e-01,1.280517804466474452e-02,2.789751723897320596e-02,-9.554254872778264462e-02,1.491057515144348145e+00
7.547322970717252888e-01,-7.732029929299227833e-01,3.879341248997213443e-01,-3.099924469656365443e-03,-1.419366567792492524e-03,-4.758979684649407987e-02,1.384020447731018066e+00
7.335131374378556224e-01,-7.619212409262142716e-01,4.812999451017843100e-01,-9.023113131577343779e-03,-4.218763913381688366e-03,1.696300557361288958e-02,1.387057304382324219e+00
7.800575043982758139e-01,-7.606697209214939859e-01,4.005494178296549190e-01,1.488380765140433735e-02,2.927160611849125363e-02,-3.492370853629411798e-02,1.392854094505310059e+00
7.446124638086569769e-01,-7.526273177976919859e-01,3.974450101181565831e-01,-1.374391134629027351e-02,3.889610473041875405e-02,5.287175236814484116e-04,1.359251856803894043e+00
6.333766255628594521e-01,-7.415564791389104293e-01,5.336518598484969456e-01,-1.694290991162933704e-02,1.330190447944370746e-01,1.790737299567527266e-02,1.348397731781005859e+00
8.756555664909724257e-01,-8.685133409685367178e-01,3.645256393837499886e-01,-2.193014898073831695e-02,1.170459998858549427e-01,4.169112153517413183e-02,1.568323493003845215e+00
6.819589311149814037e-01,-7.321203423897474361e-01,4.571868521253998896e-01,-4.831479052794941664e-03,3.963816435493690976e-02,-3.668405519289969115e-03,1.317998886108398438e+00
