sxx,syy,szz,sxy,sxz,syz,smises
5.400000000000293454e-03,5.400000000000293454e-03,-1.079999999999969873e-02,1.619999999999999912e-02,1.799999999999999933e-01,1.799999999999999933e-01,4.420970082283020020e-01
