sxx,syy,szz,sxy,sxz,syz,smises
-1.729664688929875849e-02,-1.729664688929875849e-02,2.145932937785968164e-01,2.939687356134573102e-52,1.513938988409322306e-52,1.513938988409286141e-52,2.318899333477020264e-01
