sxx,syy,szz,sxy,sxz,syz,smises
-2.946815633548056923e-02,-1.380976045748280701e+00,1.245962266677858699e+00,-1.847173679071056063e-01,-2.356728994767258167e-01,-7.069587167015142781e-02,2.336884975433349609e+00
-1.445262720464663420e-01,-1.208189390765392668e+00,1.418114186908584484e+00,-3.638921106896980239e-03,2.583258250407779750e-03,2.666111995101465293e-02,2.288567066192626953e+00
-1.017557240319409972e-01,-1.163071108669182951e+00,1.228607179578442121e+00,-7.510311505132875182e-03,-1.487763351218383545e-01,3.761605347608966421e-02,2.092607975006103516e+00
-4.471385963859306895e-02,-1.812616457894435040e+00,1.679122982226840310e+00,-1.192577472807410111e-01,-1.277812782091763966e-01,-1.676547515852963854e-01,3.052973031997680664e+00
4.127097845168910262e-03,-1.180630110078410011e+00,1.068366900951066567e+00,-3.526116679083719785e-02,-4.303848676101952875e-01,6.463477852509290356e-02,2.090234041213989258e+00
8.734440905749807360e-02,-1.829254084548795012e+00,1.387938923129435231e+00,-1.047621433265539664e-01,-4.563443131999000979e-01,1.448974521176303043e-01,2.928869247436523438e+00
-6.881434795895845224e-02,-9.412369105815188153e-01,9.710510287311480138e-01,8.104410686215487991e-02,-2.375108286519194561e-03,8.105403265303881555e-02,1.670052051544189453e+00
-6.234812021294220546e-02,-8.855117774310876655e-01,9.242521720830487730e-01,4.926208860225683023e-02,2.441022859653300264e-02,7.630031234662493222e-02,1.577860951423645020e+00
-9.661380042622276509e-02,-8.762865683080277579e-01,9.640386957679382141e-01,1.350396098848177448e-02,2.630193353661542180e-02,2.731059417344775322e-02,1.601466655731201172e+00
-5.841317353790686367e-02,-8.880603984903292503e-01,8.957530699967604093e-01,5.333828724231749752e-03,5.407978599171190878e-03,-3.499994309783167196e-03,1.546149730682373047e+00
-4.481697384142638990e-02,-8.914263146600674981e-01,8.953139198832182899e-01,-1.616632906276403020e-02,1.323721246344828836e-02,-1.907841450360575619e-02,1.548844337463378906e+00
-2.905620023884945141e-02,-9.493465833410229537e-01,9.106410540336352666e-01,2.382715796964314167e-02,1.707757316296533434e-02,1.919399007193384535e-02,1.611968636512756348e+00
-5.405973750780156822e-02,-8.589840369254698738e-01,8.921166925737902265e-01,2.447181882949459736e-03,6.705124494914076541e-03,6.221261597760732905e-03,1.518229961395263672e+00
-2.052707314351630632e-02,-8.918179201562622671e-01,9.327588606920484970e-01,-3.987964094186557951e-02,-7.901456408757738872e-03,-7.640923626977045788e-03,1.582284688949584961e+00
-6.199642925664178295e-02,-9.761936014758954006e-01,9.034557252815402784e-01,1.098346251888258560e-02,-4.260981165476802890e-02,1.020266314433584433e-02,1.629904627799987793e+00
-1.752467436900591313e-02,-9.012110282036512876e-01,8.918295494017741687e-01,-6.227127765064855575e-02,3.439675540143862648e-02,5.669152679740693639e-03,1.557783484458923340e+00
-4.956537017240594811e-02,-8.431470120021711256e-01,9.164169842049082471e-01,-3.587984018835271155e-02,1.467695733689583851e-02,-3.880396346026589172e-02,1.529217123985290527e+00
-1.901616070519215190e-02,-9.712462534293846428e-01,9.395551905091202860e-01,-8.216045223604938330e-02,4.741911290824925296e-02,1.042724902233319734e-02,1.663040757179260254e+00
-2.628573753752239117e-02,-8.878021116800877133e-01,9.277131943842429340e-01,-4.064824033858231711e-02,-9.572820652432619383e-05,-8.525117530969468504e-03,1.574606299400329590e+00
-4.321795114521356784e-02,-8.744599935005378244e-01,9.600395906489407327e-01,-7.389632597938732006e-02,-5.246727582968086639e-03,3.566130671320139056e-02,1.597409963607788086e+00
-1.374845319384443085e-02,-9.911303082876197212e-01,9.602412757782982089e-01,-3.532474126872372708e-03,-5.896240304839270654e-03,1.639145062060902913e-03,1.689982533454895020e+00
-2.476931245234903489e-02,-9.427969983169923740e-01,9.586494730359205185e-01,-6.229699107341884340e-02,3.184436970946671885e-02,-9.671696649606017007e-03,1.651562452316284180e+00
-7.140962099037297291e-03,-9.670464578404728284e-01,9.526070332152913878e-01,-1.147468543674728114e-01,2.008663715664895516e-02,9.513815145761848890e-02,1.682755708694458008e+00
-3.898516480769673165e-02,-9.276238558586556993e-01,9.513538520945413746e-01,-2.460920366269155751e-02,-6.005073034575340515e-03,-1.179192849557865377e-03,1.628629088401794434e+00
-3.255974948719243811e-02,-9.599100239191219464e-01,9.251538915009067665e-01,-3.070618393762308829e-02,5.875993797707353659e-03,5.540203192725684858e-03,1.633509755134582520e+00
-3.173941227901819206e-02,-8.686731905769333739e-01,9.309052569740122740e-01,-6.196987898391192323e-02,-3.539823676356790294e-02,4.139782127341753992e-02,1.566280245780944824e+00
-3.114409918743637692e-02,-9.228730388111974214e-01,9.134292804720477443e-01,-2.352320928505714434e-02,1.085217522580459891e-03,2.305069505138219316e-02,1.591527700424194336e+00
-3.570656254641256522e-02,-8.788466984313223485e-01,8.847804008841456680e-01,-4.461333509313437223e-02,6.794710818124371880e-03,4.489252844574027207e-02,1.531808257102966309e+00
-5.196544919164447496e-02,-8.829518850792451579e-01,9.469997015664731732e-01,-4.645417233235759474e-02,1.726572357735475793e-03,1.992733017119369121e-02,1.589424610137939453e+00
-5.250504043557530087e-02,-9.695187604728910946e-01,8.624385393730711336e-01,2.424662719931118364e-03,1.100639991014143310e-01,1.629027076212110139e-02,1.598188877105712891e+00
-3.071556551960726716e-02,-9.847588079748295087e-01,7.689837010488530522e-01,2.950310091405662291e-02,2.153782176431717765e-01,-1.741437027207711624e-02,1.566955447196960449e+00
-9.498045157342210887e-02,-1.027080703864335476e+00,9.875897518498343297e-01,-7.647645229754851219e-03,1.398718450900140464e-01,-1.920082996422485495e-05,1.763150811195373535e+00
6.438554291576767917e-03,-9.972904975014387219e-01,9.874710000467588067e-01,-1.536676942346363282e-02,-4.825051323692724874e-03,5.480321845218167828e-03,1.719143867492675781e+00
-7.398917474875316147e-02,-1.014276879962698885e+00,1.015795583011473546e+00,-9.296435496760924741e-04,2.290854299785768239e-02,3.196702113404340656e-03,1.760139346122741699e+00
-9.695540483458062186e-02,-1.033352819169529369e+00,1.000503403266398861e+00,-9.511461769386190743e-03,1.391183326962368016e-01,7.794524255884621375e-03,1.779727220535278320e+00
-1.128557302210783653e-02,-1.017858577119564734e+00,7.535656160945405357e-01,-3.454709941754256428e-04,2.491158845836098923e-01,-2.320064563127613444e-02,1.598704576492309570e+00
-5.648290309240112245e-02,-1.098744221311268809e+00,1.019607028853127151e+00,7.597681862879109536e-04,7.218385595364650020e-02,-4.232842459020583377e-03,1.838894248008728027e+00
-3.628281623900547759e-02,-1.043518876534793360e+00,8.892758963553382134e-01,-3.096356688164352521e-03,2.293390755572238260e-01,-9.651107175820882941e-03,1.720911622047424316e+00
-3.101090666100195237e-02,-9.190910054509497940e-01,8.784058287861682413e-01,-9.235359595575325662e-04,3.431341790345441949e-03,-1.045984843765085555e-02,1.556832075119018555e+00
-3.261006220549979989e-02,-9.642344660672423906e-01,9.126080453571513429e-01,2.404825854800943762e-03,1.578477289604883049e-03,8.050364777250740289e-03,1.625474929809570312e+00
-1.889047175175289500e-02,-9.604982365746242978e-01,8.493146992788693783e-01,5.211170689317720303e-03,-5.795812567942246196e-03,2.910330062547293248e-02,1.568641901016235352e+00
-2.525636673517991232e-02,-1.046324283387041865e+00,1.095502321104088628e+00,6.325454871930093204e-02,-3.448508316342743102e-02,-1.365147375652239065e-02,1.859887242317199707e+00
1.376857058863195649e-01,-9.110669674103852866e-01,3.797776541496388214e-01,-4.972785367619867239e-04,1.005676159091976468e-01,1.669555470601517128e-02,1.201483964920043945e+00
-1.872817124724296400e-02,-1.092640545544377284e+00,1.205335817440384982e+00,1.680949653173249292e-01,-6.919508158109478196e-03,-8.285345487586068258e-03,2.012778043746948242e+00
-6.236755165051501015e-02,-9.830250009865280081e-01,9.459514374160378214e-01,4.934361394180411141e-04,3.143290386917945139e-03,-6.312793089322673093e-03,1.671162366867065430e+00
-1.734858815189755377e-01,-1.104222897989331598e+00,1.532530703904136260e+00,1.964208809460317451e-01,-1.125411800924780714e-01,-6.446468012599247677e-02,2.351770401000976562e+00
-8.555246067692491574e-02,-9.262850459217962795e-01,1.114202436597589552e+00,2.139740582866131446e-01,-1.325257924385264130e-01,-9.872926551226855751e-02,1.836900234222412109e+00
-1.608956970370802042e-01,-6.213927597012783854e-01,9.145678865987424411e-01,2.349055107410751020e-02,-1.211121489213027105e-02,1.060288333346418449e-01,1.378313899040222168e+00
-9.913342250101907227e-02,-7.801179590501416961e-01,8.796399682625083427e-01,-1.159253495805551842e-03,-1.953840973322630570e-02,1.031054780111189534e-01,1.456471204757690430e+00
-8.566332454655221917e-02,-8.747556115633700058e-01,9.316955756854541360e-01,-5.228467969041537822e-02,1.553585127404434434e-02,5.690992076935864896e-02,1.574521303176879883e+00
-1.018563461754582733e-01,-6.809938374503260450e-01,8.883347376118614358e-01,-8.584776481385443525e-02,-1.140974584205646861e-02,6.857700299742586214e-02,1.387783765792846680e+00
-1.047847382800694283e-01,-7.710409338271901891e-01,9.410817155062556338e-01,-7.522425504121268980e-02,-1.039097133461867016e-02,7.450182319904190276e-02,1.506154179573059082e+00
-9.742457723624421695e-02,-7.783332222593847272e-01,9.099880778283477856e-01,-7.521571250707642653e-02,-8.955221937815314309e-03,5.232312790571146122e-02,1.479830622673034668e+00
-9.672801048060811202e-02,-8.092327825999474644e-01,8.902219223640222001e-01,1.611859829284983947e-02,-1.328615173703326206e-02,1.014183730413284051e-01,1.488994956016540527e+00
-5.963087051442342301e-03,-9.582384164283009875e-01,8.101793577169759120e-01,-1.143472202621559179e-02,3.829642350289282765e-02,4.075869600683712513e-02,1.536191701889038086e+00
-5.137752281211813155e-03,-9.383412406393633054e-01,8.195453120448602524e-01,-2.068389639074776944e-04,2.746104829180747928e-02,9.475937898340920998e-03,1.524171829223632812e+00
-1.084787802058458789e-02,-9.936587697311930478e-01,8.878241431360335278e-01,5.015390433563095794e-03,3.068253407945178979e-02,-4.523664878404695666e-02,1.632725358009338379e+00
3.076160617167109090e-02,-9.027211095180569522e-01,6.074929242502152826e-01,-2.715684898367198494e-02,5.442914311309157011e-02,-9.163185910823988534e-02,1.333666801452636719e+00
-1.377571256638751018e-01,-5.525187427971303133e-01,8.755438262717692988e-01,-7.390460281348225358e-02,1.666875546540408370e-02,1.288995554640623084e-02,1.279375672340393066e+00
-1.137039256954448102e-02,-1.002039110358928564e+00,8.654923947867265710e-01,-1.718815428349444079e-03,3.873429716262419276e-02,-4.638880264670581198e-03,1.619743108749389648e+00
3.625009322299432846e-02,-9.951176789087536889e-01,6.648930972552247187e-01,-3.806860159964886407e-03,1.307782652165427606e-01,-9.413026405150566600e-02,1.478244781494140625e+00
-5.224081177027562611e-02,-9.966915070114125141e-01,9.670330363601288282e-01,1.033365449237345045e-02,6.375855983876227429e-02,9.971242322735558716e-03,1.704809188842773438e+00
-8.644158841128921078e-02,-7.616884650464976758e-01,9.244549147163989566e-01,-3.504584068427364640e-02,4.016416908488007996e-03,-1.804465190631369953e-02,1.471456646919250488e+00
-3.774112010171898346e-02,-9.886810345097241104e-01,9.190482477226793456e-01,-8.000567656737518629e-03,3.338181487888332299e-02,-6.924047754429127691e-03,1.653257608413696289e+00
-1.119995303790400493e-02,-9.800595128439942849e-01,8.235216542926684369e-01,4.489639687972839938e-02,1.137584018246117490e-01,-1.549799683992114652e-02,1.577899694442749023e+00
-4.334432011656790679e-02,-9.210481540578849824e-01,9.273701816334810610e-01,-2.635759681825620288e-02,1.553894957458023564e-03,-2.801769537911590752e-02,1.602840304374694824e+00
-2.147082391806296245e-02,-1.001667612585053657e+00,9.531389872124194085e-01,5.540847621548827817e-02,4.240770040767961879e-02,-1.757648322221356738e-02,1.697495698928833008e+00
-4.049880535255349912e-02,-9.837815513775350906e-01,9.297659655186363281e-01,-1.271851520607069491e-02,3.078760960565517235e-02,1.802498974049093414e-02,1.658533573150634766e+00
-1.717707545090197893e-02,-9.929879637337138965e-01,8.852909346002005853e-01,3.670935197436894781e-02,8.552856557139781879e-02,4.564083496190484562e-02,1.636927247047424316e+00
-3.522796264106910907e-02,-9.629313462185716821e-01,1.149221181211358855e+00,-1.135052586187761392e-01,-4.785671824518067559e-03,-2.728719140096583229e-02,1.844809889793395996e+00
-4.680182112869187699e-03,-9.486243796513146309e-01,1.017473959003737827e+00,-1.290270874334996098e-01,-3.625070488381569589e-02,-3.142752453979851500e-03,1.718895673751831055e+00
-3.476089080626021399e-02,-9.843993187055412042e-01,9.508812920928968460e-01,-3.622235697489187625e-03,-6.400409994740954671e-03,-5.153119363416892558e-04,1.676147460937500000e+00
6.347042104985441136e-03,-9.070543088197920989e-01,9.706013836581118825e-01,-1.228950930755524223e-01,7.867901294361007852e-03,-8.287191414300334666e-03,1.640286922454833984e+00
1.838838879226519646e-02,-9.177939982977436628e-01,9.408319193301279970e-01,-1.131297866265275620e-01,5.051843403131160704e-03,2.317772621064913621e-02,1.622035145759582520e+00
2.955127863244734823e-02,-8.972659898963190050e-01,9.284444280638285418e-01,-8.245985804278110898e-02,-1.132361850306820962e-03,-2.846636408731619342e-03,1.587619543075561523e+00
2.693180612868850340e-02,-8.937867913597655756e-01,9.375364131647522248e-01,-8.301509636378616441e-02,-2.192191851673404562e-03,4.526521224902852782e-03,1.592508912086486816e+00
3.591314417536222575e-02,-1.050393048909662896e+00,9.941002547861772509e-01,-5.979041780969884118e-02,-5.412122004551257054e-04,-1.715211054832176899e-03,1.774768352508544922e+00
5.954833440617129242e-03,-9.452953728047837068e-01,9.994683635323415860e-01,-5.746918152940201641e-02,2.333488582685755430e-02,-4.698195445444765944e-02,1.689730644226074219e+00
5.442763483846486949e-03,-9.977560544864075842e-01,8.061583397444557209e-01,-1.230947803096041002e-02,4.805393596748508411e-02,7.304180214626804224e-02,1.572964549064636230e+00
-2.347366854444280990e-02,-9.302175764505251632e-01,8.371981484662391892e-01,5.465560201565089656e-03,2.503493753575768144e-02,-8.384510772438552324e-04,1.531444191932678223e+00
-1.916407532127498148e-02,-9.162379388548683723e-01,8.377467044437775234e-01,-4.492063021961382498e-03,9.876535231542717813e-03,1.724080231745276845e-02,1.519537687301635742e+00
-5.437603310623544128e-02,-8.221773700014531894e-01,8.259935473340076495e-01,6.169329064471686108e-02,5.750089440584464640e-02,5.413240617592800230e-02,1.438974142074584961e+00
-1.642266245619163414e-02,-9.425769794295565385e-01,8.631499309014553090e-01,2.159579024938445852e-03,2.038932959684488025e-02,2.754767297534969211e-02,1.565109372138977051e+00
-5.264766486383147537e-02,-9.616753665474844226e-01,9.517772791054721626e-01,6.518586517096848672e-03,-2.208753652467155409e-02,-1.572810837177378643e-02,1.658488512039184570e+00
-6.032890470387290011e-02,-9.748516286055444180e-01,9.303297909545080735e-01,8.302337760999134930e-04,7.002129116386886405e-03,-6.095611962358028248e-03,1.650453567504882812e+00
-6.172716786516090764e-02,-9.025950849002758458e-01,9.131079160533811523e-01,3.470097511474534713e-02,-5.471601820217969481e-03,-5.193124502111291091e-02,1.577612996101379395e+00
3.985063057283966259e-02,-9.739854708214498169e-01,6.312105864285544321e-01,-4.039668699980539408e-03,-1.884506539611711384e-01,-5.661346353716863351e-03,1.443536758422851562e+00
7.835385848695312905e-02,-1.026196921287620745e+00,5.740759946970918071e-01,2.831898800045313386e-02,-1.723311401572731882e-01,1.137508766316393249e-01,1.464117765426635742e+00
2.948721316511734858e-02,-9.706584666537417805e-01,7.107329905522200564e-01,8.969477989956042494e-03,-1.199938595792865159e-01,5.474492238679983837e-03,1.479614496231079102e+00
-3.065590585411121297e-02,-9.940070628884029036e-01,9.660007788642130944e-01,-2.825503092758519224e-03,9.873493682910941234e-05,1.552111552480188287e-04,1.697505354881286621e+00
1.100331555806494110e-03,-9.636568550731872129e-01,7.126466472530984531e-01,1.701965292672118213e-02,-1.028776651580682877e-01,5.988100483681637817e-03,1.468418240547180176e+00
-8.583927336382732309e-03,-9.349832246136184910e-01,7.069397622786867119e-01,1.989117305618874620e-02,-1.180069193368176450e-01,6.366794973334828633e-02,1.445051908493041992e+00
7.406447956453306170e-02,-9.360328561961426264e-01,5.036374809332544444e-01,1.550180390357945061e-02,-1.791613234779360075e-01,9.214393876618777457e-02,1.327113032341003418e+00
2.208339794560584823e-02,-9.459606166754510603e-01,6.314861872736918791e-01,-7.396758606649110959e-03,2.073622177761401952e-01,-4.262269102567300266e-02,1.425840497016906738e+00
-4.681332676014570565e-02,-9.788402744258590804e-01,7.715936364687077109e-01,9.333371086964248331e-03,2.180619200294400262e-01,-4.132587055944546284e-02,1.565017342567443848e+00
-4.611031171124541084e-02,-1.070575899931767161e+00,9.920914727306622272e-01,1.544770592749677586e-05,7.739061801145115382e-02,-2.383353828638803268e-02,1.791833400726318359e+00
-1.752727858905777508e-02,-9.912527080756639020e-01,8.228833615435481308e-01,1.411436647102942005e-02,1.184151933426659808e-01,-3.684514171553609357e-02,1.587292432785034180e+00
-6.746598485616460417e-02,-9.955084270006838709e-01,9.309281380717393528e-01,-3.488170855866153195e-03,1.133853688470772975e-01,1.186375367152004041e-02,1.680366992950439453e+00
-1.044585732314449490e-02,-9.854859521936062405e-01,9.203516689547018848e-01,5.174684921839652063e-03,-9.218111836411104626e-03,1.206536004824565467e-03,1.650754928588867188e+00
-3.966929638817052323e-02,-9.866279491339150498e-01,9.465745257143814984e-01,-5.408706779371655858e-03,-4.001985884465119638e-03,-8.989740236181074234e-03,1.674430608749389648e+00
-4.018711113066429641e-02,-9.817363639098064532e-01,9.320605305626266102e-01,-7.169034566944287867e-03,1.886196742215476285e-02,2.108131637669068484e-02,1.658238291740417480e+00
-4.172543475303529259e-02,-9.836348560871870372e-01,9.195305562426814294e-01,-1.374059099487571134e-03,3.595064398084606844e-02,-5.413156357449599131e-03,1.649422168731689453e+00
-9.830895297001310262e-02,-6.652913257988424256e-01,8.763610092988592948e-01,-1.153445572006646380e-01,-1.809152387687758051e-03,-1.058984408957888701e-01,1.377547621726989746e+00
-4.817978194675609505e-02,-9.717294509115268486e-01,8.764566422664551437e-01,-6.084916667804893958e-03,1.078696903016344993e-01,4.297195523487213481e-02,1.613196372985839844e+00
2.250012625307138553e-02,-9.558364680779624090e-01,7.505539864511987513e-01,-3.104962859777156067e-02,9.190754631757232229e-02,-2.521926678565824392e-02,1.493193864822387695e+00
-4.154857560954662576e-03,-9.565823097460401936e-01,8.477339225893613106e-01,-1.898094945542102077e-02,1.592291019868563931e-02,2.637023431709473523e-02,1.564647674560546875e+00
-1.963519248040147130e-02,-9.523919989528987218e-01,8.542880557002457964e-01,4.753802868137952699e-03,2.790880373876622120e-02,7.817119151940258096e-03,1.565733909606933594e+00
-7.287074180529137801e-04,-1.001954064180159198e+00,8.494939682852266083e-01,-1.141125990443511706e-02,3.902485737488590317e-02,-5.413252422175238686e-03,1.606749057769775391e+00
-9.064150718651096950e-03,-9.815369032934997406e-01,8.151969272350696460e-01,-1.195612404086046285e-03,-1.522016356725407471e-01,-1.259199413436468303e-02,1.580081343650817871e+00
-2.542149275189716645e-02,-9.706817861569546624e-01,8.703785191350037476e-01,1.822905300559304539e-02,3.841091451844640126e-02,-1.537692197540814010e-03,1.596298575401306152e+00
-2.083171750987398291e-02,-9.936837918613151688e-01,8.451080229586471759e-01,3.265164820216715641e-02,4.987743894693395796e-02,-3.659649955163481877e-02,1.597937345504760742e+00
-5.037081856010851288e-03,-1.017433952001192354e+00,8.737236951887029646e-01,-6.775709336372406043e-04,2.830876278291525813e-02,-9.330731996016028429e-03,1.639966249465942383e+00
1.857994390280712574e-02,-9.808697345714931792e-01,9.499415218497470059e-01,3.391580570920062904e-03,4.188074950386799875e-05,-3.743716770155619197e-03,1.672500967979431152e+00
5.524812584742792854e-03,-8.184970609259861751e-01,9.471156541182461641e-01,-1.564879498320968509e-01,1.563198223275573395e-02,-1.886583005951950748e-02,1.554594159126281738e+00
1.800700060223011170e-02,-8.020440234056323003e-01,9.034151531197421869e-01,-1.064247666636451845e-01,-1.853805533421310847e-03,-6.660227410356970093e-03,1.488836169242858887e+00
1.903365911305904962e-02,-9.077961712643329850e-01,9.373703175618498529e-01,-3.620371008862001416e-02,6.460746737263011559e-04,5.264605848544105099e-03,1.599223017692565918e+00
1.993770986382200489e-03,-8.169275173463588224e-01,9.119498470125948497e-01,-9.349656214065926729e-02,-4.665183591418467848e-03,1.703174766098596027e-02,1.506982088088989258e+00
1.483700194439460662e-02,-8.041209557071633540e-01,8.972770847735609401e-01,-1.103364666910377767e-01,5.560156637675583470e-03,-1.580477923724859677e-03,1.486168384552001953e+00
2.097777041177121410e-02,-9.132126919079440741e-01,9.328933730533518487e-01,-3.998952299337905913e-02,1.195303971281061473e-02,-1.078677757027065795e-02,1.600556135177612305e+00
3.468684804586891213e-02,-9.689885159340635434e-01,7.198497449796419367e-01,-1.120937838844418381e-02,-3.108292027103373018e-02,-4.247260038105112913e-03,1.472352862358093262e+00
-1.001410918001175987e-01,-7.288232588501700748e-01,8.998854025415151670e-01,1.970030766962999405e-03,-2.031128064558427454e-02,9.963551096231461346e-03,1.423214793205261230e+00
2.947739326641857227e-02,-9.664904359082711061e-01,7.054238063329485442e-01,-3.191546756496965731e-02,-5.437409181334141445e-02,-9.903715727834615234e-02,1.470859169960021973e+00
-2.054447588177515938e-02,-9.057065720086265870e-01,8.291013639356547005e-01,-3.296075417215345912e-04,2.882670360184993639e-04,1.243197297111825472e-02,1.502647161483764648e+00
-2.877566510466260732e-02,-9.916275334444185630e-01,9.530672332379928058e-01,-1.011962540169973439e-02,1.122668728115310682e-02,2.522153601158044420e-02,1.684951663017272949e+00
-9.235670676138868496e-04,-8.958005026086960365e-01,7.884644935345422878e-01,-1.171538334676396932e-02,-9.886059802498896321e-03,1.906907382094875925e-02,1.460184693336486816e+00
-9.745147948563667728e-03,-9.763404987984426464e-01,8.521251572245269745e-01,-1.284627161875312971e-02,-6.235678058839243948e-03,2.025392329853621404e-03,1.584560155868530273e+00
-4.631333050649442951e-02,-9.181996415976191317e-01,8.430923583159501966e-01,-9.334856524899826091e-02,-6.055262740705102259e-02,-1.027891395351980680e-01,1.547749161720275879e+00
1.189405279536271953e-01,-9.968186789620061550e-01,4.476567657887339791e-01,1.139340793012092734e-01,-3.471301269542935164e-01,4.074135303779387318e-02,1.457793354988098145e+00
-3.925653980260725151e-02,-8.645102374126657496e-01,8.124637398456752146e-01,-2.574103509440379273e-02,-1.048507517735287106e-03,-8.902730698772014228e-02,1.461206674575805664e+00
-6.472549780352679361e-02,-1.001828273099375499e+00,9.662640353213123312e-01,-9.250215364993263911e-03,-2.855449795800647089e-02,-3.671231765547913642e-04,1.705856800079345703e+00
-4.921862391353579169e-02,-1.020605224353862805e+00,9.868404455424574229e-01,-6.127825331152180269e-03,-1.662358623185855935e-02,-3.082930928202684637e-03,1.739078640937805176e+00
-2.340059383412719518e-01,-4.663936964532594542e-01,1.312749154099097426e+00,3.042777618656329897e-01,2.271331548810424372e-01,-4.858265811482501140e-02,1.801528930664062500e+00
-2.662843281251618330e-02,-9.855364925675434984e-01,9.626824599810485106e-01,3.498239561096869264e-03,-1.523413033292641411e-02,-1.822052853155942381e-03,1.687495708465576172e+00
-3.558569224904348238e-02,-9.911785166393549673e-01,9.668972343283546156e-01,-4.069745851714364447e-03,7.386481873583853773e-04,3.625946143172482125e-04,1.695920705795288086e+00
-2.901354857052183822e-02,-9.858901655806481257e-01,9.501591429778865061e-01,7.836096495347213628e-03,-3.055681875645060996e-03,-1.472480196303743022e-02,1.676962137222290039e+00
4.817281276382482519e-03,-3.243953013364800353e-01,3.806830646149454989e-01,4.354292961706498349e-02,1.859270462141636784e-02,3.236476918417319215e-02,6.190825700759887695e-01
-2.793104113014314993e-02,-9.845369548488173139e-01,9.345197746451809895e-01,4.464651668250119339e-03,-6.840455790422150101e-03,-1.197821630433909459e-03,1.662015914916992188e+00
-2.665526579135286608e-02,-9.719255599072138541e-01,9.258514982513104119e-01,-1.569307514329647052e-03,-2.326351647660389668e-03,3.007680545735673654e-03,1.643542528152465820e+00
-7.471135466271949799e-02,-9.755672155155044045e-01,9.405353463808635572e-01,-4.003236845239661109e-04,-8.756781096516771945e-03,-1.474314057550070998e-04,1.660448312759399414e+00
-3.234657232258854320e-02,-9.930803708667403917e-01,9.667603214323072791e-01,3.682572252747169823e-03,-1.026324862001324646e-02,-1.399905946613404532e-04,1.697485327720642090e+00
-4.006889244959842278e-02,-9.618010418111661020e-01,9.515293244153246732e-01,5.972540970256569673e-03,-6.286926097753275933e-03,-2.430506318137566884e-03,1.657434344291687012e+00
-3.258612990158937101e-02,-9.954457409111162614e-01,9.639273837959845270e-01,3.385755675284951062e-03,-9.979465414748266844e-03,-7.476054505598005509e-05,1.697048544883728027e+00
-3.847192052773013710e-02,-9.846948510329823767e-01,9.354080382236938940e-01,7.986180132504497667e-03,6.630026903755354209e-03,-1.081704045879819734e-02,1.663118124008178711e+00
-3.562249801906382934e-02,-9.932203464846858232e-01,9.564485807477012269e-01,6.156284292103702920e-03,-8.260315075501369758e-03,-2.798154044812328940e-03,1.688652038574218750e+00
-3.091800046544127684e-02,-9.825445901889344746e-01,9.533118418546346895e-01,1.873073047267479483e-03,-3.731407562324067471e-03,2.024367287962372270e-03,1.676599383354187012e+00
-3.820440127654371743e-02,-9.918441664809454217e-01,9.608028790717136891e-01,2.153318605495416378e-03,-9.839227577303303121e-03,2.339768839561412028e-03,1.691288948059082031e+00
-2.610400284390074904e-02,-9.923690722542736209e-01,9.627300820936401937e-01,1.336226042529940978e-03,-1.191557140744697527e-02,-4.168483216147285571e-03,1.693345904350280762e+00
-1.926221165885708131e-02,-9.762069367598776859e-01,9.263205728584714693e-01,-1.241966542695601729e-03,2.138772201878931870e-02,1.651574806256748268e-02,1.648313045501708984e+00
-5.890377057815875811e-02,-7.992060077514727690e-01,9.583839572260238748e-01,-1.103858300113442908e-01,-5.810778269109393573e-03,-2.467688002193354005e-02,1.540943026542663574e+00
-2.503919777714745665e-02,-8.834564041294021841e-01,9.285852971922693433e-01,-4.838415279113252032e-02,1.878627510925032218e-02,-6.975419889113872000e-03,1.572614192962646484e+00
6.579608712964099895e-03,-9.981245344032172451e-01,9.540639778518574809e-01,-5.503748170306883847e-02,1.228521013939646439e-02,-4.173873461811676566e-02,1.695247769355773926e+00
1.164310999404101141e-02,-9.909041852484086199e-01,1.013325899265661523e+00,-9.322242859707358109e-02,2.655196092090813392e-02,-2.897281957206828892e-02,1.744536757469177246e+00
-3.073202568739897417e-02,-7.939328841893884547e-01,9.222543933601493604e-01,-1.273457705494843994e-01,-1.951205936383450940e-02,6.442550272196372226e-03,1.505953550338745117e+00
-1.177013019480854100e-02,-1.011964055547381003e+00,9.855676668009579755e-01,3.417116650409259687e-02,-1.590705604087561120e-02,-3.734720972215275353e-02,1.732353448867797852e+00
-2.134412293339405658e-02,-8.865465335589722828e-01,9.377341014605996561e-01,4.299436377122180242e-02,-6.717208661282520615e-03,-5.167503702516104691e-03,1.582391858100891113e+00
-1.752336903821664210e-02,-9.515410267281075862e-01,9.744180079686390883e-01,8.071598182618462680e-02,-1.657460074319462226e-02,-3.886173442521805022e-02,1.675627470016479492e+00
-1.440996254065909921e-02,-9.573958910331540340e-01,1.002611373211489409e+00,1.296904328520606386e-01,1.735937308202805535e-02,-3.047862099828484508e-02,1.713692307472229004e+00
-2.216572115673386828e-02,-9.186006566869122647e-01,9.719110597652619310e-01,8.073163238150972421e-02,-2.072181530482809439e-02,2.765768564227931783e-03,1.644315481185913086e+00
2.763422814337402819e-02,-1.056126522610094431e+00,1.033444870402266513e+00,1.628852313612690339e-01,-7.371649424013521426e-03,-8.009674233557594059e-02,1.837186694145202637e+00
2.485764851898267930e-02,-1.020970639847207151e+00,9.945744264140622404e-01,7.829095113310725884e-02,5.510800050440407653e-03,-2.272700409072462083e-02,1.751654624938964844e+00
-9.507090837066273226e-02,-5.113237580499210289e-01,7.684698188398496610e-01,-1.829781832071705194e-01,8.294921254059295368e-02,1.665428726900468615e-01,1.217667698860168457e+00
-7.033683158239940891e-03,-8.086672164538438734e-01,9.510483910152188747e-01,1.439432152263547260e-01,8.563351613010064881e-03,-1.640428484757643079e-02,1.546529889106750488e+00
3.198428628133409557e-02,-9.525308786608064349e-01,7.479246407826050103e-01,-1.856582524913530027e-02,1.394241883369176692e-03,3.313186676670615283e-02,1.480212092399597168e+00
3.055638472505889380e-02,-1.065137051167648785e+00,7.977894923032794461e-01,2.736299088935165505e-02,-8.413426989845410389e-03,9.535072683087211787e-02,1.630820870399475098e+00
-9.189957098780926481e-04,-9.896420101844873862e-01,8.145258829406774037e-01,2.989101003458457563e-03,1.601050053657561163e-03,-3.208521276942949418e-02,1.565852999687194824e+00
1.360703464486788528e-02,-8.846955522059916088e-01,6.626390669875069639e-01,-7.295411815057312351e-03,1.345264211843059596e-02,-3.894147558716588159e-02,1.347764492034912109e+00
5.895547135778472780e-02,-9.388680853422215478e-01,6.707841143196575651e-01,1.193093595859953497e-02,6.724491292772276612e-05,-3.955427004844586786e-02,1.409114599227905273e+00
5.615206285566998190e-03,-9.780365505194450471e-01,7.768856450155867677e-01,-1.421431218042803514e-02,1.293925645065864896e-02,7.070864150265143699e-02,1.528789639472961426e+00
3.529398940974089183e-02,-9.111779060467878333e-01,6.684890530261176078e-01,-2.087536377219809287e-03,2.405332682570771041e-02,-3.236018806194218556e-02,1.378744602203369141e+00
4.907092054264254599e-02,-1.083212960871184238e+00,7.795427808445279938e-01,-1.858169352016781836e-02,-3.512384532650385076e-03,1.349721142987837241e-01,1.642705917358398438e+00
-5.322011891726227684e-02,-9.625507595971599661e-01,9.408714724391874507e-01,1.275119897113438996e-02,5.833046105819806627e-03,-1.143528943479644663e-02,1.649254441261291504e+00
-4.094360893345877495e-02,-9.046997080324609142e-01,9.363501150932079797e-01,4.660676624136191049e-02,3.535659222106782990e-02,3.082926789995080880e-02,1.599512219429016113e+00
-3.328913476696129803e-02,-9.703264713519834661e-01,9.219515165204285045e-01,5.064308302637829514e-04,-2.258840819359123758e-03,-3.168801615123366909e-03,1.638800144195556641e+00
-1.664557437195453293e-02,-9.860147240261611934e-01,9.614811208694168387e-01,-1.551708428392137469e-02,1.162441779819587198e-02,5.034134885025599686e-03,1.686943411827087402e+00
-3.776303773876013570e-02,-9.613748052531478905e-01,9.374328448404478653e-01,-1.655103755245387279e-03,-5.555410627933973257e-03,1.237038535713659744e-02,1.644788146018981934e+00
-2.108858244210996130e-02,-1.011214212355646458e+00,9.466439235805592656e-01,3.409635219222306723e-02,1.864991267868335023e-02,-2.891646973556372818e-02,1.697666406631469727e+00
-6.249842880802167905e-02,-9.751293289853267821e-01,9.322074550421380890e-01,-3.570077694378204301e-04,9.004405253757580968e-03,-3.588482461711342379e-03,1.652397155761718750e+00
-6.035722648829150438e-02,-9.812949965815043196e-01,9.438987069105927441e-01,5.578393763361304790e-03,-2.353623969096386905e-03,5.338808573078103643e-03,1.667845606803894043e+00
-3.900454254216116634e-02,-9.689612765394763905e-01,9.319614952681936071e-01,3.636813575249807362e-02,1.880471646609075190e-02,-3.625802929075485487e-02,1.649097800254821777e+00
-3.405221581908797479e-02,-1.058740789827697482e+00,9.997873535905030806e-01,-1.295854923506838813e-02,-2.923039331002496438e-02,2.103414716487498129e-02,1.783975601196289062e+00
-2.467931547871613993e-02,-9.736371980323199615e-01,8.520696958309970093e-01,-6.970580760890825699e-03,-6.265112744818868151e-02,7.601747131942354456e-03,1.585339784622192383e+00
-3.213985608261767796e-02,-9.828073712004715690e-01,8.641126993503835951e-01,1.155948663077385405e-02,-7.924416835438020945e-02,6.041247097905896521e-03,1.605747461318969727e+00
-3.421377271941493381e-02,-9.877087384080920351e-01,8.773392676388962474e-01,1.429125041406115355e-02,-5.923745266991193442e-02,3.270721685744540363e-02,1.619750618934631348e+00
-3.457007901431634334e-02,-9.818301186904644373e-01,9.159725122378771234e-01,6.713898961884347608e-04,-2.987671858788458479e-02,-1.490872247634011070e-02,1.644563674926757812e+00
-7.398895865750065859e-02,-1.043966476377944153e+00,1.019450589929207673e+00,-4.867138228684187058e-03,-5.661857351736204746e-02,-5.645385714176008422e-03,1.790771365165710449e+00
-7.205716827309471828e-02,-1.054349097621247067e+00,1.029657155078240516e+00,-6.171091169832501437e-03,-6.548949008785764914e-02,-1.247768415900825031e-02,1.809509634971618652e+00
1.083447744381377253e-02,-1.135599509612177149e+00,8.107801005815878925e-01,5.104501501772423094e-03,-1.893034019833527426e-01,-9.788510041525626260e-02,1.734254479408264160e+00
-8.896297873401744216e-03,-1.163112248544056815e+00,9.669776492758747066e-01,1.014218675150632548e-01,-1.923411604864968816e-01,6.287027025139314829e-02,1.888019084930419922e+00
-1.027810264228633114e-01,-1.041697057740325061e+00,9.930848840366482966e-01,-1.880040835955342285e-02,-1.093092864770184858e-01,-1.892656757666675085e-02,1.774652600288391113e+00
-4.538245020508190064e-02,-1.003890036196621871e+00,9.124559777726974907e-01,-6.892748156924369089e-03,-9.693524893114778551e-02,-2.926266497128955039e-03,1.668125987052917480e+00
-1.738804960713229847e-02,-1.064567620848868579e+00,8.481187759458349573e-01,2.749269496782141137e-02,-2.645282636113389096e-01,-1.027905586070728371e-02,1.721783518791198730e+00
-5.772682589502438344e-02,-1.013674325960578493e+00,9.170848239018180026e-01,4.727035771270616041e-03,-8.861353358533814728e-02,-9.237843736653233995e-03,1.679238557815551758e+00
1.332981129643720231e-01,-9.533117384195474164e-01,4.256810906335155575e-01,1.300116928957791539e-02,7.429489252262425070e-02,-1.232715621390610139e-01,1.283187031745910645e+00
-4.950169535227222362e-02,-9.202005196090232708e-01,9.491656151511485007e-01,-1.017346871974645619e-03,6.058296730768354807e-04,-5.017599181015226784e-02,1.622512936592102051e+00
-3.541392018220675814e-02,-9.656698124639847558e-01,9.141298922133176408e-01,-5.709384761895859410e-03,4.746435593836927785e-03,5.115268744406643170e-03,1.628057718276977539e+00
-1.969708973175979608e-02,-9.512258508532283052e-01,8.529357207217688197e-01,1.502345832406625165e-03,-3.239143240034753068e-02,-1.053500186955320592e-02,1.563842654228210449e+00
-2.450559603534157790e-02,-1.010262217110178273e+00,9.211056868311634505e-01,-1.284862216784879267e-02,-1.572614561215291903e-02,-1.099944914721588327e-02,1.673212289810180664e+00
-1.825762025297018865e-02,-9.632803548520119108e-01,8.541591835488013817e-01,4.507838258217699949e-03,-3.380027386767222447e-02,-3.201437900473036967e-03,1.575484633445739746e+00
-1.387917543249385655e-01,-5.934230790157273283e-01,9.324313446859254784e-01,-1.364504043202227623e-01,4.230521221695961176e-02,1.331985561025514006e-02,1.379484534263610840e+00
-8.430417846188563435e-02,-8.727657640069470535e-01,8.969235354906838209e-01,-5.538476663974228539e-03,8.036887524549446785e-03,7.427853795697653139e-02,1.541096210479736328e+00
-5.311138117758725657e-02,-6.913231308682138421e-01,9.017502334457062618e-01,9.707521747917920163e-02,-9.149912451481945208e-03,-1.726766320965377258e-02,1.399248123168945312e+00
-5.804238328256304535e-02,-9.228804441171142292e-01,9.428145504982871072e-01,-1.052440583244178100e-02,2.294866237333736438e-03,6.840432071597171357e-03,1.617321014404296875e+00
-9.596157982376227191e-02,-6.816675356597248214e-01,8.638760683842058308e-01,4.231039657173036456e-02,1.325737172650261024e-02,2.103758122299411934e-02,1.354159474372863770e+00
-8.299474823580760274e-02,-6.849476329783041884e-01,8.593719837111856164e-01,5.998385422746917509e-03,1.807586878528312513e-02,2.849826708622402865e-02,1.349513769149780273e+00
-5.019897232268946685e-02,-8.815007441986651981e-01,8.692221050214864464e-01,2.741910707469466177e-02,1.867179399439371570e-02,-5.541334972484429112e-03,1.517928719520568848e+00
-4.475909506139391647e-02,-7.802317842194917974e-01,7.597073356018653190e-01,4.240246071065897210e-02,-1.283334187242129824e-02,-2.505808322936986521e-02,1.336982131004333496e+00
-5.783166955472101439e-02,-8.855053574382452108e-01,8.981754888325939046e-01,3.985995870146216702e-02,-1.102951236104837869e-02,6.764571883524124474e-02,1.552132248878479004e+00
-3.658716833061510104e-02,-8.881303178899463413e-01,8.976408441969725427e-01,3.901912336805976600e-02,-1.328286859939270363e-02,-2.834148726721223352e-02,1.549499869346618652e+00
-5.072949887381963952e-02,-7.940019957452236765e-01,9.328645400365070950e-01,7.208553972501158258e-02,7.576346218041924221e-03,-1.232023368294894424e-03,1.505574822425842285e+00
-1.011748474679073778e-01,-7.232876820638068915e-01,8.841345392951949211e-01,2.810717011280268809e-02,1.600582491486240988e-02,2.931730204563440939e-02,1.405898213386535645e+00
-2.932223886612872477e-02,-9.077984931758501519e-01,8.943051715932741619e-01,-1.890034461394877324e-02,-6.566702543436675650e-03,8.648511596402412571e-02,1.568385481834411621e+00
-4.798222456809388831e-02,-9.909883758365674034e-01,9.402173970803051617e-01,-9.654434544490605313e-03,-6.423637465698362956e-03,-1.314492685973176443e-02,1.672901391983032227e+00
-1.054445723115555733e-01,-8.159279347461785292e-01,9.490901915398411992e-01,1.520166608424502498e-02,1.849198108039728713e-02,1.132194250966600257e-01,1.551204204559326172e+00
-7.158154834601714034e-02,-7.679274439994772106e-01,7.330860297185355368e-01,-1.661622228265858744e-02,-2.519202154789074166e-02,1.696328391019813475e-02,1.302424669265747070e+00
-1.290193417393795117e-01,-7.896516794259271776e-01,9.690560711184766918e-01,5.260631285634156246e-02,-4.909780098747336397e-02,9.047872863469699767e-02,1.551683664321899414e+00
-9.312943655680501476e-02,-8.082717578908003020e-01,9.071439695510226109e-01,2.847213121722924623e-02,-2.490123609587600179e-02,-3.596213162788295011e-03,1.493868947029113770e+00
-3.376082380945821804e-02,-9.537596792569481563e-01,8.960640001956314826e-01,8.235183565618845250e-03,4.884210463229231303e-02,5.828459873346255801e-03,1.604329109191894531e+00
-3.743728961900297941e-02,-1.049653077911831156e+00,9.442841044647067861e-01,-4.314750716227154850e-03,7.928479409474400996e-02,2.655915320628853687e-02,1.732946038246154785e+00
2.568582502696382247e-02,-9.046671312971534817e-01,9.191759200309113087e-01,3.657048220017424661e-02,8.567735942626410889e-03,5.522467229264015412e-03,1.580970048904418945e+00
-1.700914899436364522e-02,-9.304225948513270561e-01,9.259628075692699634e-01,4.760550241868154175e-02,-2.394574742145502699e-02,-3.505166661179615756e-02,1.611536026000976562e+00
-2.669309741738001493e-02,-9.940638920740751949e-01,9.576276330978429341e-01,3.669672881447708784e-03,-8.083459042873991987e-03,-1.759603643396063198e-03,1.690308332443237305e+00
-3.122554070236339616e-02,-9.917995744978942430e-01,9.501269506752583194e-01,-5.224258230434428336e-04,-4.238082233851280141e-03,-1.391834040959554755e-03,1.681807756423950195e+00
-8.735135815516564817e-02,-5.720935007459915234e-01,8.874464243601624114e-01,2.039204333803634472e-01,2.021991759210944872e-02,1.233242036827628466e-03,1.335557222366333008e+00
-3.829620148547528691e-02,-9.771562620551175193e-01,9.178236745420618181e-01,-1.444962814972649764e-02,1.004687750525576871e-02,1.495831081588538253e-02,1.641610980033874512e+00
-7.258216235720432730e-02,-9.701219431453880215e-01,9.265326881439045481e-01,4.840145703951789780e-03,2.140057567265729187e-04,-2.786618729040465405e-03,1.643364548683166504e+00
-3.143356840167356447e-02,-9.315790750486034888e-01,8.305296750398484251e-01,8.418029987768405054e-02,2.076774791062698244e-01,9.483939424074102481e-03,1.574818611145019531e+00
-2.641470534621795374e-02,-9.406503184521612937e-01,8.413105530493374395e-01,3.511395742002630400e-03,1.424906425624654881e-02,3.843061480588468720e-02,1.545042395591735840e+00
-9.038878230437044636e-03,-9.598174621448638533e-01,7.798953627253426557e-01,-8.820981730250252936e-04,8.589941514601362460e-02,7.741929789501961201e-02,1.522044181823730469e+00
-5.427128306702201643e-03,-9.393001674638170595e-01,8.122052759167143199e-01,1.195281680438283617e-02,1.885476249634685311e-02,9.702349082212707865e-03,1.518546700477600098e+00
2.973794428397755207e-02,-9.552627373021108648e-01,7.096120577413900232e-01,-1.508687869322699292e-02,3.093584182981699848e-02,5.405750068974794764e-02,1.454115629196166992e+00
1.949247853580417245e-02,-9.472762390921616316e-01,7.231058034553646818e-01,-8.409703525379310513e-03,8.558863752537221314e-02,2.857008223200666747e-02,1.461020827293395996e+00
-1.137165712566187425e-01,-1.045610093911864658e+00,1.146978148668357456e+00,1.672589084804404144e-02,-9.311076936505664758e-02,-2.078729473973060793e-02,1.913309812545776367e+00
-7.772327256422764674e-02,-1.038392286175388479e+00,1.041364367972868799e+00,-2.168709830910345998e-02,-4.807404047809163417e-02,-3.627383645960162179e-03,1.805186629295349121e+00
-7.913167650793272168e-02,-1.046802353419644893e+00,1.095722173990576476e+00,-4.384449427490279619e-03,-1.662936685386713631e-02,5.278776863728527717e-03,1.858631372451782227e+00
-8.755076356927024572e-02,-1.106754138918242925e+00,1.061793400115601527e+00,2.014410840445328074e-02,-1.558410361326927895e-01,-2.850486412895107680e-02,1.899393916130065918e+00
-4.350560412625635587e-02,-1.063948137776166813e+00,9.908003849157620557e-01,7.391154445703582154e-02,-1.437643847476782200e-01,4.305817848089504851e-02,1.802913427352905273e+00
-7.961636630389679059e-02,-1.055463827842408442e+00,1.107441358014973565e+00,-5.336271570300139648e-03,-1.128397648802285762e-02,1.862875192053659729e-02,1.876507401466369629e+00
-3.814098321704229022e-02,-9.558962799299721702e-01,9.430843749408704957e-01,7.725984990400898422e-03,1.020846748401894009e-02,1.995640495507866596e-02,1.645384192466735840e+00
-2.995617047061173432e-02,-1.077419777660679978e+00,1.039812258868637151e+00,4.311458260797965819e-02,2.705333115082639642e-02,7.863484961458147918e-03,1.835779309272766113e+00
-3.877983544183384590e-02,-1.003659519166692826e+00,9.756500684633067078e-01,3.605762369152151758e-02,4.962354388266009692e-02,9.013038455818034702e-04,1.717601299285888672e+00
-2.419669931565100046e-02,-9.712875802945197812e-01,8.254472076759779009e-01,-8.037397633454539114e-02,9.005866760036937424e-02,3.309844198082645406e-02,1.571802854537963867e+00
6.220297221875004112e-04,-1.023886356638095574e+00,8.780135067578614949e-01,-7.686919882982538865e-02,1.823732874316283739e-02,5.384357476011496918e-02,1.657030463218688965e+00
7.629140362818213894e-02,-1.043825000545255621e+00,7.023402577939737990e-01,1.630436518352074149e-02,1.032513596678152623e-01,-6.906327234786871494e-02,1.547557711601257324e+00
-7.380216046115736783e-02,-9.741834904381606597e-01,9.324299063569551071e-01,-7.507211253866115375e-03,2.851631974224576316e-03,1.752871753334196486e-04,1.652082204818725586e+00
1.291841750360058771e-01,-7.724967203782081571e-01,2.975792779119614817e-01,-1.525624371696836790e-01,1.869217316949749741e-01,-4.929647917105724197e-02,1.084047794342041016e+00
-1.683708469868949176e-01,-4.282970445169262397e-01,8.510516641382379621e-01,7.391039936249713116e-02,7.836978098176274055e-03,2.250253424099810801e-02,1.178919076919555664e+00
-7.666011557429167067e-02,-9.842530340117346954e-01,9.123901950764501390e-01,1.488404318066083309e-02,1.142693057524912237e-01,-2.263796496573730263e-02,1.655588984489440918e+00
-5.272907315627443914e-02,-9.755900225432896367e-01,9.130241388624057430e-01,2.964502628207433491e-03,1.344047547193928660e-02,5.359674697584579546e-03,1.635928511619567871e+00
-2.365405690090900334e-02,-1.012036519841243321e+00,9.386553340573428050e-01,5.178860614307127927e-04,3.168007569404399787e-02,-1.704420193432997291e-02,1.690547943115234375e+00
-2.579658464479068006e-02,-1.014897218933305867e+00,9.655877081237772552e-01,-7.727217069471889813e-03,1.986666729341135876e-02,1.277602416698283075e-02,1.715690732002258301e+00
-4.001018094675205805e-02,-9.885290294700354030e-01,8.884041782726188607e-01,9.666164531517664610e-03,8.297677396403081718e-02,-5.237762732593136128e-02,1.634449720382690430e+00
-3.040017692584962017e-02,-9.883200050756476562e-01,9.616728852320107768e-01,-4.221981971300823276e-03,1.908856476306718813e-02,7.864336868531317595e-03,1.689224123954772949e+00
-2.184546702830138243e-02,-9.981333615366684286e-01,9.427117784490596231e-01,-2.330299548956982821e-03,7.748800818002852218e-03,-2.997346423234851587e-04,1.680889964103698730e+00
-3.621092887100847008e-02,-9.787059434682936487e-01,9.046151772914315936e-01,-1.122885669444087086e-03,4.268233230501740361e-02,-4.420296442297367775e-03,1.632697820663452148e+00
-2.915084399599859877e-02,-9.721307339122662317e-01,9.743162830953064901e-01,5.587793926625089780e-03,-1.089083687421492537e-02,1.529110857510675853e-02,1.686285138130187988e+00
3.574357927166130211e-02,-9.616380903177416117e-01,9.340510871620689715e-01,-4.615103109893106507e-03,5.042518410233910770e-06,-1.669628034818033697e-03,1.642484188079833984e+00
-2.357580193012530703e-02,-9.714542559819865364e-01,8.806220802885761367e-01,-9.733459865362753538e-03,1.110094584505330953e-02,2.874972809412592104e-02,1.605070233345031738e+00
-4.303953590023664594e-02,-9.883845029027028550e-01,9.543781135333573307e-01,-1.394200490663156239e-02,6.854560616935257214e-03,2.352705464492552134e-02,1.683391690254211426e+00
-1.317826757418981767e-02,-9.484793488041942666e-01,9.382539541454684162e-01,4.365302427493463616e-02,-1.043748915617006764e-02,-3.381466815804891335e-02,1.636875271797180176e+00
2.628173843468766674e-02,-9.268131744081335999e-01,9.255800992769690483e-01,-1.958724126710390673e-02,-3.863024379940075553e-03,-1.880739140188754897e-03,1.604820966720581055e+00
9.213264239261484412e-03,-9.296383604514399934e-01,9.469581070837173042e-01,-4.244261221060875722e-02,-1.870183487453216248e-02,2.005497859765354579e-02,1.627535223960876465e+00
9.924414932435156322e-03,-8.200619480756266011e-01,8.956374726559052091e-01,-3.629290502200416962e-02,8.169806022943571302e-05,1.480743279870057653e-04,1.487429499626159668e+00
6.402868843189961356e-03,-8.331701204128660887e-01,8.998203125569285143e-01,-4.185829323204205005e-02,-1.169166082717231457e-02,7.467947907148605319e-03,1.502997159957885742e+00
-1.859031787611465855e-02,-9.570269329174108108e-01,9.456670314293099677e-01,-5.785173593875631015e-02,1.627715347588538225e-02,-4.394867084144120362e-02,1.652870178222656250e+00
1.836940232873901513e-02,-1.017913867748237999e+00,1.012516543278312753e+00,-1.496322382710787713e-01,-3.710348740730627041e-03,-6.358344921480606204e-02,1.780946016311645508e+00
-1.219860393398028257e-02,-8.857626827820569426e-01,9.352654574270545806e-01,-5.500771897500002922e-02,-2.636909345921019908e-03,8.419946347759856703e-03,1.580437898635864258e+00
-4.448856951064095178e-02,-9.793607524769237793e-01,9.541631766863968300e-01,3.131358663905008111e-03,-3.132032795148712717e-02,1.012200151504853186e-02,1.675763368606567383e+00
-2.062244228297807971e-02,-9.187590306048160071e-01,8.656748045174383899e-01,-2.586081626495732172e-02,-8.579749131026548348e-03,-2.501976042435816519e-02,1.546704053878784180e+00
-2.919202602956806961e-02,-9.624629619309280626e-01,9.417406212483856454e-01,-5.678082922254361732e-04,1.069233586261965872e-02,-6.117422511187596557e-03,1.649334549903869629e+00
-1.360088140927806152e-02,-9.406979950629510423e-01,9.251575497577562146e-01,-6.119129340581722087e-02,1.824081186127480582e-03,-1.850459642912101119e-02,1.619681119918823242e+00
-3.703387333942530918e-02,-9.681406314493600229e-01,9.571118105924748543e-01,1.527279472681708754e-03,9.007177907824681640e-03,-2.532795136230961419e-03,1.667696237564086914e+00
-2.597843108620069216e-02,-9.913520876596251252e-01,9.576093707713944081e-01,1.367360036946191312e-05,4.897098770497489498e-03,-1.066962440131822014e-04,1.687896013259887695e+00
-2.150074140656537541e-02,-9.831458355093815049e-01,9.194142009399903781e-01,-2.257620259160527353e-03,1.225084247098217520e-03,-8.933439546037907214e-03,1.647776603698730469e+00
2.796401230989471048e-02,-9.166197411314922494e-01,9.263161669441191126e-01,3.439365466802032922e-02,-2.756332010633906308e-03,-6.845457088480322132e-03,1.597359061241149902e+00
-2.744464145153206747e-02,-9.860282390402210773e-01,9.618437485699091738e-01,1.640391647306338463e-03,7.230135939589372833e-03,-1.486464637918025970e-03,1.687027335166931152e+00
-1.877960426104149233e-02,-9.649066521348436121e-01,9.504705075171681061e-01,9.587589209480976496e-03,1.487984266137445596e-02,7.801573160708004211e-03,1.659143924713134766e+00
-2.697658711482396957e-02,-9.923382480778545345e-01,9.538880097116543277e-01,-1.925882277573324856e-03,-2.761612225604795790e-03,-7.226530480314624985e-03,1.685555815696716309e+00
-1.261899446037094696e-01,-6.537369774529505628e-01,9.286597419721053237e-01,1.832362321623850487e-01,-1.195036339493412737e-02,-4.621667223162031352e-02,1.433547854423522949e+00
-1.321007543932238848e-01,-6.171792398570510318e-01,9.568297620099612821e-01,1.892632218525786836e-01,-6.100858725740686966e-03,-5.827859016277522897e-02,1.437723994255065918e+00
-1.852914183205082721e-01,-3.458485266209947451e-01,8.517106522213522268e-01,1.570316397752248572e-01,-4.501175247064700784e-03,-6.858848300113140617e-02,1.164388537406921387e+00
-1.278703935806451142e-01,-5.339827069849787389e-01,8.892288113915476355e-01,1.283524061178640263e-01,-1.339871154014439861e-02,-7.175118600169888561e-02,1.295330405235290527e+00
1.097315554923323361e-01,-9.673820904424064171e-01,5.025982453513034853e-01,4.201107365313887579e-03,1.465914282679770808e-01,-5.640358147277351603e-02,1.346010565757751465e+00
2.732971154232488598e-03,-9.775656951581130905e-01,7.401332253403700712e-01,2.336807134371411687e-02,1.697090273102544455e-01,-9.305734158039379728e-03,1.521814227104187012e+00
4.905049535964012275e-02,-1.103317332734447209e+00,7.051669845668033787e-01,1.935575639872333387e-02,2.108847380142679362e-01,-1.536094099447905259e-01,1.649198770523071289e+00
4.626916210148275532e-02,-1.018942414137838037e+00,6.945073998409185823e-01,1.836041313968474111e-03,1.399456787128486313e-01,-1.081225542243711112e-02,1.518062829971313477e+00
6.853092285280790175e-03,-9.879205794635704807e-01,7.354075961032402464e-01,2.091428995572043245e-02,1.812024071138624848e-01,-4.116395788896281410e-02,1.532974839210510254e+00
6.163132147582750520e-02,-9.343786881807618627e-01,4.889055552813241778e-01,1.555380576674044064e-02,1.677691146114070886e-01,1.240447235772394047e-02,1.298381805419921875e+00
-6.193870463466525506e-02,-9.843382313881207102e-01,9.771767589508587593e-01,5.881686559717844674e-03,-1.475795366212509230e-01,-1.521562977257370948e-02,1.719069242477416992e+00
-4.036707390973503368e-02,-9.786713706787277811e-01,8.659239318347948799e-01,-9.566123463486655900e-04,-6.124001875740708867e-02,-3.673033957643360471e-03,1.601077556610107422e+00
-3.687857902066341009e-02,-9.536208751581752852e-01,8.323414806327521509e-01,5.129657208802831936e-03,-6.371125398852182931e-02,1.350588517362745142e-02,1.551004290580749512e+00
-3.527856723506894027e-02,-9.618460356114109100e-01,8.342796351792272080e-01,4.752619752111071801e-03,-6.344754455224559109e-02,1.059208343059343978e-02,1.559757709503173828e+00
3.445320019738171147e-03,-9.181391536480719706e-01,7.205129912676803139e-01,-2.183074648041323507e-02,-7.774247940754688835e-02,-5.639472930049065514e-04,1.429651975631713867e+00
-5.969614043847199653e-02,-9.751106318244752158e-01,9.356195882558979715e-01,7.632308474897112928e-03,4.129944899985003490e-04,-2.294998192753437937e-05,1.655276060104370117e+00
3.000732166307600035e-02,-9.618161294846038212e-01,6.397754903673420479e-01,1.391458282456356325e-02,-1.523128957733172750e-01,9.410260900791628247e-02,1.434244632720947266e+00
-6.580013516602897794e-02,-9.692708207030207301e-01,8.877886425894920830e-01,-1.935004939219101298e-03,-3.578548815528082711e-02,-9.208663578047634676e-03,1.609732151031494141e+00
-7.746484019991956016e-02,-9.828895992236192924e-01,9.501656618357381401e-01,-2.838175681988425441e-03,-4.319544522041624673e-02,-9.252065907997821317e-03,1.676943421363830566e+00
-3.414574389851823821e-02,-9.564182268443016666e-01,7.909064302532994306e-01,-8.443943333022075823e-03,-8.779447948378497901e-02,-1.474798330576088112e-02,1.521910190582275391e+00
-1.443468324989449492e-01,-3.628394191431193461e-01,9.629706725525485345e-01,1.145215555651448724e-01,5.109089318671213020e-02,-1.380065258369653127e-03,1.250205516815185547e+00
-2.306314265150835596e-02,-9.517264576872065396e-01,7.728060848664888294e-01,-3.616851418538074778e-03,-8.690314548376998349e-02,-5.154836846029816830e-03,1.502562284469604492e+00
-5.381053056255119538e-02,-9.881038904622103658e-01,9.216559046544106071e-01,-1.392285544022533843e-02,-2.516683595729779510e-02,-1.162040348617417694e-02,1.654901027679443359e+00
-8.143362888218144691e-02,-9.778743239504332774e-01,9.478906954248969008e-01,-4.672103103819205336e-03,-4.030128676040263536e-02,-6.768046612779138847e-03,1.670604109764099121e+00
3.053337166579993267e-02,-9.662651354900125833e-01,7.425966115566148273e-01,7.518682310954618447e-03,5.800470336973713448e-02,-3.367033145126011040e-02,1.491338014602661133e+00
5.955371556756594575e-02,-9.566231534404199266e-01,6.631468939235631854e-01,-7.022778518733306663e-03,5.969362161585473059e-02,2.597268751923614751e-03,1.421673536300659180e+00
-3.967200568226260382e-02,-9.879224443188497906e-01,9.863408812578126073e-01,-3.174317863223122260e-02,1.684061554504093228e-02,1.030169032573939256e-02,1.711429357528686523e+00
-2.033645576765996665e-02,-9.880704512061231348e-01,8.883911517646186917e-01,1.284791940410539776e-02,3.150675953454590283e-02,-3.093075926426211604e-03,1.626408100128173828e+00
-2.044680935026330776e-02,-9.873326199128125147e-01,8.882578090150267114e-01,1.299825776898562782e-02,2.526911460091005313e-02,-1.342547782942247331e-02,1.625481128692626953e+00
-5.500734590467790813e-02,-7.185569669238486279e-01,9.056296850337378634e-01,6.380016506567413870e-02,-2.674130270452747260e-02,-8.781565300194563162e-02,1.427600622177124023e+00
-1.171341753136298514e-02,-1.038594850332840602e+00,9.186233680971233051e-01,-4.257773696233486081e-03,5.735097583576344998e-02,-6.090470977832664404e-03,1.698643803596496582e+00
-1.020746751005824626e-01,-6.213208440435147306e-01,9.084783935565863278e-01,-1.468016915269681755e-01,4.243747129740104915e-03,-6.765011468173375009e-02,1.376225233078002930e+00
-5.265392199739658829e-02,-6.594134842579554290e-01,9.122148926203706987e-01,-1.744041070892117795e-01,1.425902634005107514e-02,-1.937876744321075095e-02,1.406257152557373047e+00
-1.145881862689379985e-02,-8.786791000711129396e-01,9.522025128221759394e-01,-6.416507877668281568e-02,2.959099948473796482e-02,-4.312226345840051989e-02,1.592789292335510254e+00
-4.471351605188988304e-02,-8.050646495304960570e-01,9.580739947217207231e-01,-3.015338495406801878e-01,-2.540815737128113410e-03,-5.579113187482130642e-02,1.621207118034362793e+00
-3.591820552376911307e-02,-8.091937766048271641e-01,9.502590388933125354e-01,-7.891569778061327534e-02,-4.327586510356833636e-03,1.375673323958614969e-02,1.533751726150512695e+00
1.079438213078496613e-02,-9.759784506237949575e-01,1.001504892125468338e+00,-9.857578573333811156e-02,1.084473881146306128e-02,-5.022806627088829967e-03,1.721166491508483887e+00
-2.092665527857411056e-03,-8.246217310899612851e-01,9.501220643391319332e-01,-9.829571316205770737e-02,9.389800655664103102e-03,8.668252298366173336e-03,1.547891259193420410e+00
-4.409399996818866990e-02,-9.445673684834319239e-01,9.356152505006448683e-01,3.004066947373269791e-02,1.990614816583925403e-02,2.171503077407822314e-03,1.629967689514160156e+00
-3.254994913281800129e-02,-9.039255611471931351e-01,8.129331426811493566e-01,-6.760061350829160709e-02,-1.030537692741535782e-02,-1.803386394734363685e-01,1.523963451385498047e+00
-5.744101622245152694e-02,-8.217854331853261529e-01,9.208057274483743004e-01,-2.136250962292187694e-01,-1.066014571080862450e-01,-1.093376450604193091e-02,1.568522810935974121e+00
-4.418616027224157861e-02,-8.883868543200060808e-01,8.689128301753551442e-01,-7.282766857477813993e-02,-3.113467897902588710e-02,-5.447085610714483966e-02,1.531334161758422852e+00
-4.580272386968254478e-02,-8.735631515039405937e-01,9.252574824800214870e-01,-1.262636839959563329e-02,1.922501610453666854e-02,6.668233070695287271e-03,1.560022711753845215e+00
-4.829876385371196373e-02,-8.913548356291709496e-01,9.492993133334332034e-01,-1.129942539161062770e-02,1.929445295318148873e-02,6.988424684877574816e-03,1.596440672874450684e+00
-8.551905343691151851e-02,-8.010525695662596979e-01,9.174906487110838782e-01,-5.801515947667054696e-02,3.597640514553322299e-03,-2.789132588246261753e-03,1.498620390892028809e+00
-5.942655991726458753e-02,-8.814476883398421059e-01,8.987324286295723663e-01,-6.288220797533081163e-02,-4.261133269964709723e-03,-6.216197270749108938e-02,1.550781607627868652e+00
-8.029368288115994179e-02,-8.844362058724004605e-01,9.401204013106067015e-01,-5.571237447977522156e-02,1.152629255966109226e-02,-9.178928981243938967e-02,1.594814896583557129e+00
1.435288119207009383e-02,-9.177204300071689635e-01,9.442304319331034090e-01,-5.174621305865181875e-02,-9.986541525900545155e-03,4.228358971501329673e-03,1.615095257759094238e+00
-3.860735075650442022e-02,-7.167789702237294946e-01,8.975911163605340137e-01,-1.658173972087734205e-01,3.885866333162082097e-03,-9.706585772446164884e-02,1.442942976951599121e+00
2.804732718827701587e-02,-9.824289199689746344e-01,9.653395063282318445e-01,-3.772673861891434610e-02,-3.282043199407578236e-03,1.557295238340570577e-03,1.688490390777587891e+00
9.904015221964088123e-03,-9.570371750365953556e-01,9.984262217542392293e-01,-9.777789935909758645e-02,-1.291473657474063313e-02,3.532682010047923527e-03,1.702120304107666016e+00
-1.730294490036648342e-02,-1.074068294108584842e+00,1.132232064530290794e+00,-1.357576523199322260e-01,5.695881128620083889e-02,7.451398130180968138e-03,1.928253769874572754e+00
-3.145951209126737064e-02,-1.090511909173502492e+00,1.111646331758979755e+00,-1.654755384499349141e-02,3.940923026735153323e-02,-1.315207555162493241e-02,1.909159898757934570e+00
1.972497729829751287e-02,-1.024043364277251733e+00,1.018724087724387051e+00,-1.310031428871846759e-01,2.890741344982081934e-02,-3.706811396573929385e-02,1.785578250885009766e+00
-4.711453531821828411e-02,-9.610506615925370477e-01,8.495635871326359112e-01,1.972391494001567071e-03,4.711890113493791277e-02,2.017472375399667270e-03,1.570191621780395508e+00
-1.632082064914882127e-02,-1.062621760090469714e+00,1.133327987927716940e+00,-1.229203463671563329e-01,4.385632654461246727e-02,-1.410424079717855113e-03,1.915834307670593262e+00
4.844763885455672520e-03,-9.558082387234736466e-01,1.000143232993188969e+00,-4.274183167381177817e-02,1.457873515815425033e-03,-8.738680846373254874e-03,1.695678591728210449e+00
-3.777415709112896813e-02,-9.616337866011005486e-01,9.197555313760283902e-01,-5.880651633753856446e-03,4.887280237182735181e-03,-4.765723727960993750e-02,1.631561160087585449e+00
-8.536571006963408759e-04,-8.512171522942616475e-01,7.540730828674743202e-01,-2.450629703242048624e-02,-1.005603492925509837e-02,-1.430426608624267917e-02,1.392017722129821777e+00
4.025810875012225676e-02,-9.635415518658444478e-01,6.777748085018381330e-01,2.041427373797138206e-02,-1.773634212213693606e-01,6.020954175978013301e-02,1.469856977462768555e+00
2.725235199023140487e-02,-1.144577425819574001e+00,7.369589001277752072e-01,-2.002938863012868401e-02,1.428721306540393088e-01,-8.073599912724443994e-02,1.670484781265258789e+00
7.532121142773476330e-03,-1.010191133514980910e+00,8.281209881593759592e-01,-3.271023939771486311e-02,6.294987285450992856e-03,3.239427410059451951e-02,1.597102403640747070e+00
-1.473299450344370091e-02,-9.574698238025864949e-01,9.013005636941175958e-01,-1.158032433626854894e-02,-1.620897398301266584e-02,-4.306476231795151877e-02,1.611894249916076660e+00
2.984822351010001096e-02,-9.627365988173285372e-01,9.546368300246763638e-01,-4.103721013175582605e-02,-5.261247112144387672e-03,1.025352259606229430e-02,1.662480235099792480e+00
2.977485865801829390e-02,-9.367019877059400423e-01,9.290548382151950779e-01,1.742314245746886051e-02,-6.994879257328312158e-03,-1.335773281068539705e-03,1.616470932960510254e+00
8.126417970710824584e-03,-7.818673635363967422e-01,8.910254862138403675e-01,-1.001152337381744362e-01,-7.537839367159328285e-03,3.745169637042238420e-03,1.459920406341552734e+00
1.146476960560459044e-02,-9.148616968648992653e-01,9.423838541655281675e-01,-4.504482306929227797e-02,1.462564139327349709e-02,-1.548159069894040896e-02,1.610737085342407227e+00
-6.010694678515408201e-02,-9.592611759750815370e-01,8.863442257784381884e-01,5.941927652148903949e-03,4.073198593874317874e-03,4.744345512829689594e-04,1.598564982414245605e+00
6.780756641363183679e-03,-7.811542987107299441e-01,8.967602719575976655e-01,-1.062896453580308986e-01,8.851011290332232856e-03,-1.067220864137759934e-02,1.465817332267761230e+00
1.425552294301020428e-02,-8.778988579727187158e-01,9.564777734761154004e-01,-8.959643423409682783e-02,5.696866631275313356e-03,-2.326039084992520892e-02,1.596913576126098633e+00
-1.399743156558690138e-02,-9.497670443242506311e-01,8.089754063180178978e-01,3.125170017067514967e-03,-8.908831536396707995e-02,-5.915559199320251198e-03,1.531994342803955078e+00
-4.064321801641182508e-02,-9.558833982190239054e-01,8.242148835624175662e-01,8.681083958281414535e-04,4.206280909429412074e-02,7.813268515418006835e-03,1.543596506118774414e+00
-3.648429057927782271e-04,-9.775156008822779574e-01,7.678124736837054209e-01,1.705785885348075478e-03,-1.439056344071755478e-01,-3.049985450298112188e-02,1.536382436752319336e+00
1.559137969863794854e-02,-9.787341274517999956e-01,7.999957306653032729e-01,-1.671886992502423811e-03,1.437268465507736230e-02,-1.842198427370252828e-02,1.544530034065246582e+00
5.896689024480572527e-02,-9.622571647456510391e-01,6.518572706096084080e-01,-1.196166017001624483e-02,-7.615236881038348060e-02,2.391985849915173601e-02,1.421068191528320312e+00
-4.251471410296994713e-02,-9.519270426632528981e-01,8.325905077679679467e-01,-3.350124912900110871e-03,4.695906793741696367e-02,-5.622548939049012593e-04,1.547682642936706543e+00
-1.115284231128082643e-01,-8.194206241690652481e-01,9.347918533386629925e-01,1.443490465172013069e-03,-1.960599205895635633e-02,1.701274069586746276e-02,1.529250502586364746e+00
9.222766579126681630e-02,-9.609652380921583914e-01,5.790488503757207361e-01,-3.940620453140987120e-03,-1.429544289510960020e-01,-4.375504311415098768e-02,1.387812972068786621e+00
3.147313695160434965e-02,-9.781575055744983205e-01,7.809329032030932760e-01,2.383590722277691316e-03,4.966411317946640980e-02,7.550131907234186937e-03,1.531440258026123047e+00
-7.282844771732396860e-02,-9.800574649632638469e-01,9.087105808505594462e-01,-7.730016287705647644e-03,-1.224235781107032850e-01,-1.045852680258861633e-02,1.649980068206787109e+00
-3.697561283127655252e-02,-9.964307547623943995e-01,9.624290428980563084e-01,3.398348007102595025e-04,-1.257960695750659367e-03,1.330408116090398734e-03,1.696542978286743164e+00
-8.054101153009428360e-02,-9.828082576779073598e-01,9.765445278499356174e-01,-3.857660759737588114e-03,-2.388842413431010656e-02,4.483882150542752541e-03,1.699148774147033691e+00
-6.029456753651549206e-02,-1.025668611919713813e+00,9.372630253632520114e-01,-5.396918050903953476e-03,-1.049136793630675857e-01,-1.992992191026919310e-02,1.710083007812500000e+00
-4.122170049608832321e-02,-1.010075371407901157e+00,8.067145071471655271e-01,9.531556290840847989e-03,-2.092153047688587730e-01,1.143063978015974522e-02,1.615913629531860352e+00
-4.107669867747522352e-02,-1.038651728979220534e+00,1.052758270297078358e+00,2.058707331151259437e-02,-6.478569799778313015e-03,2.308434558608794124e-02,1.812680125236511230e+00
-6.126119593247641992e-02,-9.945105839377240686e-01,9.707259049342272794e-01,-1.088119500076224246e-02,-3.432274633560834093e-02,-4.130217430540751578e-02,1.705303549766540527e+00
1.640426365207827697e-01,-1.276955766542247961e+00,4.778777887445707639e-01,9.854239952259916113e-02,1.475013700175248077e-01,-1.335397436154307504e-01,1.665864706039428711e+00
-4.502698566916210621e-02,-1.027983848178615656e+00,9.716070649163310868e-01,-1.042073648886829122e-02,-3.682799124366731292e-02,-1.455675432214064216e-02,1.733230113983154297e+00
-2.701162258608710495e-02,-1.031137233010678056e+00,9.653285001246660890e-01,6.310534205725446683e-03,-3.348427573085559911e-02,-1.892060836247719258e-02,1.730317354202270508e+00
-9.717072559554718048e-02,-1.090744941453756445e+00,1.071414407014792847e+00,-7.266707572356250790e-03,-2.035449500231612530e-01,2.821408083686452808e-02,1.908060550689697266e+00
-2.909227572411705875e-02,-9.802870104839206400e-01,8.152863997534920415e-01,1.347543437049216093e-02,-1.371495657749316199e-01,-1.753907842575742546e-02,1.574424624443054199e+00
3.321249859968439244e-02,-9.938926920134956156e-01,9.649423813052191434e-01,4.991230530372274543e-02,1.825740227160085622e-03,8.088791124092074847e-03,1.699332237243652344e+00
2.482060181293001266e-02,-9.181795852949925507e-01,9.391272605598605105e-01,4.102875602202341737e-02,4.144634402631861350e-03,3.249492440826510587e-04,1.610123991966247559e+00
1.198711201194631315e-02,-9.490914829429870636e-01,9.473171588508757512e-01,9.047448121190018733e-02,6.901037241905786691e-03,1.035508943665294605e-02,1.649988293647766113e+00
-3.778343977122133185e-02,-9.954890441438378756e-01,8.415857077319068846e-01,2.287221217871607563e-04,-1.465118405125153123e-01,1.676186934041629800e-02,1.611802458763122559e+00
-2.393569996931192365e-02,-9.724882398318162036e-01,8.472306060130361249e-01,2.829752100252623526e-03,-7.578661458904462078e-02,5.212900638221740213e-02,1.584435820579528809e+00
-1.248942070839469121e-02,-9.832690723562866886e-01,8.495736758039502678e-01,1.185213013291960826e-02,-3.167037821858583596e-02,3.530508324085996491e-02,1.590474486351013184e+00
-4.034491927192518368e-02,-9.745288935960879639e-01,8.395227587476600251e-01,2.732284700073393108e-02,-1.104848394651365140e-01,3.139302421506278556e-02,1.584500551223754883e+00
-6.834542090101525247e-02,-9.884841383031014450e-01,9.299139896890914470e-01,4.866006442499720003e-03,-5.015408660404774982e-02,2.739552173983660945e-03,1.664137601852416992e+00
-6.606580284228480426e-02,-9.767467887908785062e-01,8.948460338187721463e-01,1.616830283352592781e-02,-5.370342907670182936e-02,1.479212497808556070e-02,1.624151587486267090e+00
-6.278781966430534156e-02,-9.755450496821527206e-01,8.850014515081406907e-01,1.120124721901264928e-02,-3.985873826903781753e-02,1.792710272625758217e-02,1.613269448280334473e+00
-7.873205599126689713e-02,-9.899427312423341174e-01,9.545648600372697024e-01,1.224360247248498616e-02,-4.523737022043150535e-02,1.616455032194524105e-02,1.687285184860229492e+00
-1.387743724383823374e-02,-9.787802721622379520e-01,8.578439565883675400e-01,-8.658445575516583032e-03,-6.369753095840204396e-03,6.710199542152647800e-02,1.595592975616455078e+00
-2.891326546462097413e-04,-9.626586558954463024e-01,8.381938817846873446e-01,8.631909300188710804e-03,-1.975829949473607502e-03,1.072295342650754144e-02,1.560999512672424316e+00
2.913288965100853389e-02,-9.493992586229027530e-01,7.152513388187965448e-01,-2.053436932715473062e-03,-2.460486202977358802e-02,-3.616830510468912931e-03,1.449669241905212402e+00
-7.267472692925833200e-02,-9.814857687888987048e-01,9.522923226107863348e-01,-6.539888976775777227e-03,4.897578676863144180e-03,2.416079257613387016e-03,1.675772666931152344e+00
-4.086340993555945961e-02,-9.730924038665753617e-01,9.487579419129291702e-01,4.081038785025784335e-03,-6.941731495782203949e-03,-5.717148697141316918e-03,1.664706468582153320e+00
2.185059820111680262e-02,-9.695978069946273870e-01,7.459576359962871717e-01,2.184411633921609988e-02,-2.518518456174357115e-02,5.034000922865230349e-02,1.495377063751220703e+00
1.738998514507893167e-02,-9.624636041192583535e-01,7.452075461796560107e-01,1.222887920695435015e-03,-1.451474536552869662e-02,4.808708546282210172e-02,1.486795067787170410e+00
3.266655474287380456e-02,-9.566579164245432310e-01,7.424582000821025041e-01,-1.258471640694017700e-02,-3.476083993819889528e-02,-7.612054543201506387e-03,1.479545593261718750e+00
2.441735097328860682e-02,-9.660139642164088380e-01,7.395458403314781881e-01,-1.635328988868210362e-02,-1.575756591316867725e-02,-5.160730305818226477e-02,1.486669301986694336e+00
-1.538659143089030068e-01,-3.804529563504637224e-01,9.324640566699022859e-01,2.795408670452440569e-01,-8.175758639467987920e-02,-3.640621941032270992e-02,1.317596793174743652e+00
-1.906076163106185800e-02,-9.732647967172003423e-01,8.711817696855227444e-01,-1.932755967348439435e-02,-3.355485687751150192e-02,-5.990728823632648047e-03,1.599098563194274902e+00
-1.873599635413357445e-02,-9.419655467580900776e-01,8.424310269976929000e-01,1.290632740886171314e-03,7.751913645832817813e-03,-2.157705610975226701e-02,1.546155929565429688e+00
-3.226958782213722871e-02,-9.693937129323926261e-01,8.912529526915079492e-01,-1.922934394958529178e-02,1.523149634515674408e-02,3.343276533412992829e-02,1.612981438636779785e+00
-2.229679433002142164e-02,-9.758218862301747398e-01,9.098418542724164837e-01,-1.042167155884613904e-03,-7.518403541476078276e-03,-9.695300749747039204e-03,1.633206963539123535e+00
-7.279532046520197086e-02,-8.639188077829651480e-01,9.092086410534853114e-01,-4.852710059782129430e-03,9.680171599881721989e-03,-3.135306542781014089e-02,1.539608836174011230e+00
-3.768591068972265701e-02,-9.647527858839834991e-01,9.185399606182670373e-01,-1.515117466871011495e-02,1.858109425693973277e-02,-3.118769882071242491e-02,1.632467031478881836e+00
-4.159973025522081813e-02,-8.609092635489585810e-01,8.701873392679899677e-01,-3.145734021246827244e-02,-1.073652606406938010e-04,1.411314057953963995e-02,1.501074910163879395e+00
-4.046910476780384014e-02,-9.304938950920513818e-01,9.242272297543098203e-01,-7.594510998808478262e-03,-7.489167734020870260e-04,7.907602228814132259e-03,1.606782197952270508e+00
-3.327699223976690601e-02,-9.583679940094281813e-01,8.923956854565660013e-01,8.189456830992161707e-03,2.504100308774486958e-02,-2.584445152358373632e-02,1.604082584381103516e+00
-4.070881585066667141e-03,-9.828619980592734340e-01,8.265564674064195261e-01,2.729835158362110131e-02,3.155544499484738696e-02,-4.233916068419161377e-02,1.572127580642700195e+00
-3.385733951719217469e-03,-9.181630543806423850e-01,9.539455549959795500e-01,7.324806536185538008e-02,-2.327826616745237633e-03,-1.210161140492228707e-03,1.626395463943481445e+00
1.743981982232040845e-03,-9.877348709341290389e-01,1.036906047529476460e+00,1.728043856536740086e-01,-1.520213899483343831e-02,5.473197783983937623e-03,1.779119729995727539e+00
-4.273642132750399281e-02,-1.092740900140416915e+00,1.237607810230165306e+00,1.339577448153953521e-01,-4.507933759007999239e-03,-2.337838251797307726e-02,2.035114765167236328e+00
-7.972329609021060193e-02,-9.798784335430135162e-01,9.429580014764997742e-01,-9.405718596475824006e-03,4.816873076192549827e-03,4.642472698848140733e-03,1.666471719741821289e+00
2.057894811425346401e-02,-9.219002351995420064e-01,9.452235567844727848e-01,7.390892621965358678e-02,1.102246206681353757e-02,2.039149906474867213e-02,1.622557401657104492e+00
1.410966487594032814e-02,-1.054863211516543942e+00,1.023754192035781108e+00,5.632006929575734955e-02,1.002691472840802796e-02,-1.179807720819122177e-02,1.803220152854919434e+00
-2.025264723923423521e-02,-1.104774762026776047e+00,1.137441224192607070e+00,3.478414420301569054e-02,2.702268798775486064e-02,-4.594145577528062699e-03,1.943674802780151367e+00
-5.799533352356261301e-02,-9.282359993467326209e-01,9.469615174059919926e-01,2.144905178828952416e-02,4.235123923906330273e-03,-2.512207544555469427e-04,1.625806093215942383e+00
-2.590507029249300985e-01,-7.630263884320909185e-01,1.520565233977846820e+00,3.612573657503212465e-01,1.911520064935668950e-01,4.049550620194038164e-02,2.196352720260620117e+00
-5.697562224399610464e-02,-9.128654098002686457e-01,9.296365081176662937e-01,2.414606898331269486e-02,1.812537256114229349e-03,2.361643997064661812e-02,1.598065733909606934e+00
-5.368934349872736544e-02,-9.111697842406246695e-01,9.716872896574936247e-01,6.776408913442527604e-02,1.028689518014983505e-02,-4.291363136558527802e-02,1.638758182525634766e+00
-3.903031312638815392e-02,-9.912844319040751140e-01,9.437213008129534675e-01,-1.029904821343996003e-02,4.787809457802294846e-03,-7.683092216395192436e-04,1.675949454307556152e+00
-8.560873409257604982e-02,-9.729192279079583727e-01,9.449985751771926568e-01,-9.229773383978629635e-04,1.149061374073806832e-02,3.776293903018638175e-03,1.662642955780029297e+00
-5.496288331801620075e-02,-7.994489375110268581e-01,8.656359899394403534e-01,1.550010986376316882e-03,-6.167916749702255855e-03,5.485892332361594348e-02,1.447855234146118164e+00
-5.981280166760730155e-02,-8.166692178338799124e-01,8.823954344121345272e-01,2.841477031722326393e-02,1.233273818445577638e-02,3.904674408586419898e-02,1.476873993873596191e+00
-8.667944026049492767e-02,-6.999145762528203862e-01,8.641592344752608845e-01,1.098638012459046964e-01,-7.869148935975782411e-03,-1.880009249417227343e-02,1.378657102584838867e+00
-2.342832940642887440e-02,-9.807247033202812769e-01,9.063701559828523102e-01,3.780432347085700001e-02,2.121441480795053375e-02,-3.864157227544501999e-02,1.637422204017639160e+00
-6.664458949190563142e-02,-8.112657110396610527e-01,8.738373019960352650e-01,5.363681230578893483e-02,7.112337022880767419e-03,-2.290687740611031115e-02,1.466160297393798828e+00
-4.418067233414040007e-02,-8.551750128348055702e-01,8.816004222124632639e-01,1.726762569409856507e-02,-6.795308166772102976e-03,-3.208544147365464949e-02,1.506554722785949707e+00
1.660609485529884743e-02,-8.959136843882705703e-01,9.152088650926915037e-01,-6.211994573696449917e-03,5.248136360723331013e-03,-6.422564557133265701e-04,1.568557262420654297e+00
-7.623863412801350214e-02,-8.379904311360965030e-01,9.001935640157090468e-01,8.222502564094527622e-02,3.213528271473210796e-02,-7.035808599316206724e-02,1.521747827529907227e+00
-6.459623461994112859e-02,-7.764229749753238652e-01,8.231043088984576483e-01,9.723843176578468583e-02,6.228640081302196096e-02,6.324957668875445804e-02,1.406628847122192383e+00
-2.540931489512811281e-02,-8.779051875424389584e-01,8.802675608426319132e-01,1.006320478820435238e-01,-1.025425646573490529e-02,-1.072149404345829338e-01,1.544107079505920410e+00
5.211132817076460921e-02,-9.866764215550895001e-01,6.519996163978311055e-01,1.957215411792575036e-02,1.056679255107682291e-01,-9.389531308944969179e-02,1.457119703292846680e+00
7.055447300870211491e-02,-1.029965968366396645e+00,6.339361750297102249e-01,-4.854314700630843471e-02,1.188240266432112058e-01,-5.983601806909377707e-03,1.482596158981323242e+00
6.449864017966265572e-02,-9.609744517989755597e-01,5.616581571664682748e-01,1.099069977569201717e-02,1.521985291127109230e-01,-3.748711168567964852e-02,1.372099757194519043e+00
-4.496839825683930647e-02,-9.790888844285061676e-01,8.988349134916918670e-01,-1.449696692807378798e-02,1.607560180313875181e-02,-2.868006789177276680e-03,1.626776576042175293e+00
1.235500709394117547e-02,-9.497620461143881920e-01,6.966046606606998148e-01,1.259424927347344708e-02,5.432321924250285705e-02,3.051410609948918256e-03,1.435810565948486328e+00
3.037127345226749153e-02,-9.478797789369237670e-01,5.913842659294464843e-01,1.110853412343255388e-02,1.653846912012100212e-01,-6.108517712511439546e-02,1.383525490760803223e+00
-3.414931703532401996e-03,-9.601987271443943595e-01,7.764106958965526495e-01,1.791048375149342786e-02,5.284469918741165062e-02,-6.936729382464228155e-02,1.514418482780456543e+00
5.085633202665462704e-02,-9.787236031507542400e-01,6.695058014466246377e-01,1.006998618952704636e-02,8.914608551773872680e-02,-4.889428355090350009e-02,1.452937841415405273e+00
6.366259935404684767e-02,-9.629803974169451886e-01,6.379042235158111085e-01,-1.497783505441090167e-03,8.239606490144764372e-02,-4.355028329416713723e-02,1.413985252380371094e+00
3.684105825068020867e-03,-9.579712455742444011e-01,7.599886237987086846e-01,1.991537543096595642e-02,6.424848977726060895e-02,-5.277445023413211700e-02,1.498669624328613281e+00
-9.685048764976951496e-03,-1.025130564159916879e+00,8.541638216999832833e-01,-1.738364557250590692e-02,-1.425650788459457419e-01,5.958095159295284660e-02,1.651389241218566895e+00
-8.421285194807923147e-02,-7.276722409251326074e-01,8.915262308459713791e-01,5.499769740650802680e-03,-2.722845894822145327e-02,1.080939940443745133e-02,1.413018226623535156e+00
-9.062183253595430810e-02,-7.259907523344575342e-01,8.935725750698957359e-01,-5.750403475410137757e-03,2.090816373014794255e-02,1.278128605172334717e-02,1.414057850837707520e+00
-9.370454030701184933e-03,-1.043305156726604288e+00,9.170461478470436356e-01,-1.244693213579403483e-02,-2.687108423113338668e-02,9.647726360447075530e-03,1.699421405792236328e+00
-2.628233484551468005e-02,-1.071838492935758946e+00,1.009179094780062513e+00,-1.797907599017500163e-02,-4.223683960623601796e-02,1.805061785812130809e-02,1.804244995117187500e+00
-2.611160911513190144e-02,-9.485848189111913964e-01,8.841534168371883995e-01,-8.551031874427414414e-02,-1.296972564313847720e-01,-2.654813543210987614e-02,1.610512018203735352e+00
-3.403501160858114771e-02,-9.846867364643334675e-01,9.760400028054404542e-01,5.292263483766282417e-03,1.513258278348809938e-02,2.161691063278173286e-02,1.698938727378845215e+00
-1.992477905484858064e-02,-9.457893523848309725e-01,8.896052090641715093e-01,-3.566542145699630462e-02,-2.566028305058197512e-02,-1.293007149783144405e-02,1.591497540473937988e+00
-5.994351685775570204e-02,-9.363323490756103595e-01,9.600549084101387409e-01,-6.057283130385611447e-02,-5.451962111841800879e-02,-3.456541227847571146e-02,1.651023387908935547e+00
-2.393318362711917974e-02,-1.040548645528395433e+00,9.602903907092861235e-01,-1.697479233040894708e-01,-6.814574768607870037e-02,-2.916126334773140941e-02,1.762301206588745117e+00
2.502510884104969247e-02,-9.021879606194886936e-01,9.186240842223225567e-01,4.192792912523409660e-02,-2.056858970881869642e-03,-8.743172669674943330e-04,1.578635096549987793e+00
3.007956566584195357e-03,-7.874477808650108823e-01,9.000059486989148150e-01,1.071733352225577862e-01,-9.575972239692556037e-04,-7.360696218895151043e-03,1.474139213562011719e+00
-9.214651924396105587e-03,-8.631808658015132085e-01,9.661955253402992883e-01,9.607651946711992519e-02,-1.469913953220657889e-04,2.759336651855345823e-02,1.594875216484069824e+00
2.943333472196643999e-02,-9.722277675513018025e-01,9.624903599578984448e-01,5.025081086668072017e-02,-1.685048744536220278e-02,-1.778722787306899478e-02,1.678661227226257324e+00
-4.500339952067983207e-02,-9.384114544791515300e-01,9.298762745311834887e-01,5.650392974488811434e-03,2.163842958827683419e-02,1.612339763561976974e-02,1.619201660156250000e+00
-3.024773954480401011e-02,-9.781299683003793488e-01,9.057057612453541795e-01,-1.109255673928128544e-02,-2.581823771071489054e-02,2.791724619861243699e-03,1.632193446159362793e+00
2.604831131495281837e-03,-9.611794311797018375e-01,8.114780216398672641e-01,4.300824446209986461e-03,-3.937781217664630684e-02,1.119377110889681337e-02,1.538771748542785645e+00
-1.127802900818680731e-02,-1.057014076934195135e+00,9.209599925847473667e-01,2.437472215369092254e-02,-4.888132319221202837e-02,-1.142005763596472961e-02,1.716638684272766113e+00
1.854891997053090963e-02,-9.373227164191716421e-01,7.454197810768287136e-01,-4.953022938857978841e-03,-1.956479523686707050e-02,-2.555064398795586431e-02,1.462876439094543457e+00
-1.505902540721505700e-02,-9.490492013207864064e-01,8.009341448423328291e-01,-1.913311284374978952e-02,-2.996545089498779332e-02,-3.549108574789516801e-02,1.519171833992004395e+00
-5.661211822022352985e-02,-9.440080696780971392e-01,9.522325342637771861e-01,1.870150387334346782e-03,1.267049041536988559e-02,9.792128191656944425e-03,1.643552064895629883e+00
-6.128952357995687272e-02,-9.706489966102954670e-01,8.913740978993859310e-01,-4.921860608917414011e-03,-4.469033154549231779e-02,-8.216346013737012635e-03,1.614646434783935547e+00
1.418438150982868906e-02,-9.851164853503886487e-01,7.637481703659555476e-01,-4.983474908978392445e-03,-1.285909112097463058e-01,-5.230321836235322236e-02,1.538627982139587402e+00
-6.235414525017982101e-03,-9.831246419674211090e-01,8.218463054274391943e-01,-1.708375514485620597e-02,-3.274644653534442701e-02,-3.481997777142829820e-02,1.567388176918029785e+00
-5.297763738738292538e-02,-9.535132695995535146e-01,8.489617467036115750e-01,-2.825683927293320963e-03,4.884871927969575839e-02,9.782310704767392239e-05,1.563288211822509766e+00
-3.047264109612882535e-02,-9.741811633401821213e-01,8.592242599677889503e-01,4.464867392460531055e-03,-7.004958332105558350e-02,-5.109588956770604561e-03,1.592676997184753418e+00
-4.465543991804885038e-02,-9.879869700843403324e-01,9.185377371126283164e-01,-1.299961278976517406e-02,-2.386944866991976347e-02,-1.168512969682064875e-02,1.651923656463623047e+00
-7.644738468438445900e-03,-9.684960249519525277e-01,8.204120680401328913e-01,-4.892905466616608544e-03,-3.665331262894933051e-02,-4.431344439601704599e-02,1.553880929946899414e+00
-4.166835183920274827e-02,-9.977790486891441324e-01,9.366398230836131544e-01,4.005100557600958398e-04,-5.418659753199135676e-02,-1.193214039366222862e-02,1.678046941757202148e+00
-8.599209956311726355e-02,-1.060197236846580626e+00,1.036082872286172352e+00,1.364511629566850584e-02,1.706419530352192848e-01,-1.034247660738050190e-01,1.849665880203247070e+00
-5.458720200941495626e-02,-9.800844057114342922e-01,9.260061789797111587e-01,-2.505457926734427042e-03,5.341687594346865992e-02,-1.385433986354538648e-02,1.653723001480102539e+00
-6.261158233427180364e-02,-1.012492080944832118e+00,1.003558426854379348e+00,-8.848225584413440745e-03,5.180498753805580503e-02,1.683333907788463289e-03,1.749291300773620605e+00
-3.080879744877951243e-02,-1.026511311872192911e+00,1.004924535404920549e+00,-1.280379766229093087e-02,2.396425920148010855e-02,-1.065845079420322389e-02,1.760115027427673340e+00
-3.597815591842636745e-02,-1.028470583148545225e+00,1.017533755653654115e+00,1.466535029931486907e-03,1.697705683354407136e-02,-2.264226274627644669e-02,1.772833943367004395e+00
-4.134046298545486497e-02,-1.131950387608112507e+00,1.065345545872181887e+00,-4.035519161489645179e-02,1.297534838589633754e-01,-1.820980898474281601e-02,1.917690038681030273e+00
-5.838753648667989460e-02,-1.011554496372926826e+00,9.140024531162712629e-01,9.331068866722158975e-03,1.085588175926397725e-01,-2.162318456003383890e-02,1.678671598434448242e+00
-4.009791051036941389e-02,-1.052556855306454375e+00,1.044174013564539871e+00,5.359593707998025827e-03,-2.281621154444696611e-02,-2.112251131131227290e-03,1.816634535789489746e+00
-3.235742762526562510e-04,-9.556305418748584080e-01,1.015965352697185242e+00,9.723189045659168250e-02,1.592054607590955018e-02,5.253114569163874759e-02,1.718640089035034180e+00
-2.259425798466083157e-02,-8.773956740857637993e-01,1.055131913883009975e+00,1.252440367634702900e-01,-2.375719071845986893e-02,2.917319808691011540e-02,1.692550063133239746e+00
-2.013212758467875646e-02,-1.054804779902105194e+00,1.030792595504644638e+00,1.255942559293874161e-01,-4.240666054789922479e-02,3.202907312425409825e-02,1.821578383445739746e+00
2.149646243142090130e-01,-1.106799463645239401e+00,3.913607332564712493e-01,-1.022306453720685931e-01,-3.765148789485575076e-01,3.085029355769826342e-02,1.571887016296386719e+00
2.399061414497736244e-01,-9.007917644132131807e-01,4.037194755272288660e-02,2.464791898321107982e-02,-8.161679932508066060e-02,9.777746217909513704e-03,1.065594077110290527e+00
1.013604810864596611e-01,-9.467080727661624229e-01,4.709351224594817142e-01,2.081310611716831981e-03,-1.075981192897984828e-01,-6.888604006684559584e-03,1.287346124649047852e+00
6.167946389834706722e-02,-1.024118385325078151e+00,6.807144526162594023e-01,1.637397769467850012e-02,-7.378713095969119395e-02,-5.195150269846698747e-03,1.500508904457092285e+00
6.191049531478104440e-02,-1.032678816378987730e+00,6.204086422363448428e-01,2.994698902927454484e-02,-1.684978213816612502e-01,1.075467862336653424e-01,1.497977256774902344e+00
9.227517143800248456e-02,-1.157656628213217687e+00,6.963431724806455891e-01,-6.048746461368574578e-02,-1.862543945522336375e-01,-5.341448416665239146e-02,1.675075888633728027e+00
-1.534649066704767417e-01,-7.231013742936555078e-01,9.421174878117107854e-01,-2.300357338605137775e-02,-8.016145099625393566e-03,3.775543791514670428e-02,1.467966914176940918e+00
-7.169166297426354806e-02,-7.461861931879526511e-01,9.051250310757260609e-01,-1.002911452763049910e-01,2.587806236526776771e-02,6.820469176113671400e-03,1.449239373207092285e+00
-1.160109387738094688e-01,-7.247752322904361666e-01,9.067754864614653298e-01,-1.706790260774285542e-02,-6.493142086847961472e-03,2.185786487007209886e-02,1.428900122642517090e+00
7.979224925499626628e-03,-9.499141929872398915e-01,9.439456805462772548e-01,9.333494937036047184e-03,4.203182941593264048e-03,1.935837129823124621e-03,1.640266656875610352e+00
-1.104169567064172686e-01,-6.446140293813543698e-01,8.645401982506796257e-01,-2.858662674495459841e-02,-2.740123978995952919e-02,7.960855553663641337e-02,1.334332704544067383e+00
-6.135301530667306574e-02,-9.148927414909433509e-01,9.288956671074654059e-01,-5.133757803604288572e-02,6.766387060920595184e-04,1.030913723792796152e-02,1.600801706314086914e+00
-8.213361323393969515e-02,-7.826615409893435960e-01,7.486261204766621047e-01,-4.225370288989970663e-02,1.358911722156014856e-01,4.260997403289472352e-02,1.352432489395141602e+00
-9.120431987678340180e-02,-1.256017800290919473e+00,1.294029174698105411e+00,-2.333801352118690386e-02,2.438154736650973570e-02,8.691774144215192940e-03,2.211977720260620117e+00
-7.697465697957879549e-02,-1.044120006225553565e+00,1.070163461473726985e+00,2.506222944899567668e-03,4.451090009198693451e-03,-5.579933800495971187e-03,1.833280444145202637e+00
-6.460921586162639285e-02,-1.042280360459672872e+00,1.067473905255570399e+00,1.877593421295820379e-03,-2.800034550661703592e-02,-1.735457001909255451e-03,1.829379558563232422e+00
-8.988331445589359259e-02,-1.076099416699881184e+00,1.204618212268114164e+00,1.987759207189268226e-02,2.579671614367918739e-02,3.255564262339936954e-02,1.982769846916198730e+00
8.170506796495433099e-03,-9.114973929208034509e-01,7.195848105829438790e-01,-4.299928507696498814e-02,1.219478370042007265e-01,-3.454415771910043093e-02,1.435236811637878418e+00
-3.489409209240409288e-02,-9.970419837367017202e-01,8.946912547941476834e-01,1.955348341163453893e-02,8.939258498851915258e-02,-4.364912817699312386e-02,1.647753596305847168e+00
-1.060927897176700690e-02,-9.585069484170418708e-01,8.087307097493848795e-01,2.826747937448560385e-02,2.756275443798466424e-02,-6.827490064580012119e-02,1.537900924682617188e+00
9.563837082403900403e-02,-1.098378940962007277e+00,5.940873889840989630e-01,-1.755883634562837789e-02,1.515232034243807757e-01,6.447539901809107299e-02,1.533479571342468262e+00
2.505042969985321610e-02,-1.074704090752607089e+00,7.388028497976957265e-01,-2.166108091016904352e-02,2.414617466479530572e-01,-1.524728695785952659e-03,1.637125849723815918e+00
-8.601714127116674713e-02,-1.022746268206897735e+00,9.638168015238500752e-01,1.927231480229703656e-02,1.265585983412540472e-01,-1.842282998895516596e-02,1.735859036445617676e+00
-3.940140035408587482e-02,-9.612770583381791134e-01,8.170338354861300667e-01,2.770661156923627088e-03,7.927378607830948276e-02,1.265936056556549345e-02,1.546680212020874023e+00
-1.782711424711061476e-01,-3.330055061157696228e-01,8.833608693996579664e-01,1.496357010708783408e-01,1.368532156777660380e-01,-9.208997815578857937e-03,1.199537277221679688e+00
-5.507658987171162868e-02,-3.507795747700634403e-01,4.579302594976229490e-01,2.109535189129918553e-02,1.842884215946145182e-02,-8.537347247549115226e-02,7.256264686584472656e-01
-1.464784268961459024e-01,-4.293879648584482123e-01,7.967080206690281274e-01,-2.767642834689115067e-02,7.584260531208981103e-03,-1.584873532506719529e-01,1.146429300308227539e+00
-1.143969502792750448e-01,-2.809754607598681786e-01,5.476309643082345469e-01,-9.062900155740319375e-02,-2.567512483769769649e-02,-2.608995893644040498e-01,8.984059691429138184e-01
-1.278781294990399831e-01,-5.592255641708038238e-01,8.490658673812382373e-01,2.274278372025178435e-02,9.317091171967752106e-03,-5.927330940101729895e-02,1.254685044288635254e+00
-1.441827144130511107e-01,-7.792356372565151235e-01,9.283685384041250321e-01,-4.993839443750341250e-02,2.048531708099127907e-02,-4.599992808714134518e-02,1.499957919120788574e+00
-9.234796111260985818e-02,-7.939856209240413465e-01,9.299125137617767489e-01,1.213732522971661641e-02,-1.339272092943029650e-03,-1.706218912826407974e-01,1.530474185943603516e+00
-2.633900652798324207e-02,-9.325037369812834154e-01,9.474511219051658939e-01,3.238675879459441270e-02,-7.668454096852332473e-03,-1.385487200547884726e-02,1.629636406898498535e+00
-1.414925294413543928e-02,-9.945110900066025383e-01,9.522076890332604737e-01,2.415431949133033801e-02,9.663936945182659277e-03,-2.211211104158144168e-03,1.686528921127319336e+00
-7.780354128116878827e-03,-9.797356726953252437e-01,9.673935838172822432e-01,2.250827818702050287e-02,2.072739853549743563e-02,7.111589897221949272e-03,1.687141776084899902e+00
-2.065798161957463353e-02,-9.750813277603729290e-01,9.633791751363538491e-01,3.533969283219795532e-02,-4.211940001217135722e-03,-2.001254000621116580e-02,1.680310249328613281e+00
-2.546682383180075282e-02,-9.634367019033507340e-01,9.660213207510930378e-01,6.005440106771175145e-03,1.728189371909787456e-02,3.191357224456618357e-03,1.671483516693115234e+00
-5.779275437897721246e-02,-9.826018890735294109e-01,9.384466406645594061e-01,1.116953244925938130e-04,-8.160381574750069644e-02,2.373252361044084560e-02,1.670557856559753418e+00
-2.727082352710356178e-02,-1.033273212049059753e+00,9.842419923403934456e-01,-2.453051985076313418e-02,-1.168053710475822071e-02,-6.628458435951893775e-03,1.747892856597900391e+00
-4.908487944313504742e-02,-1.022391988276166286e+00,9.795090021162984328e-01,4.247395934666968118e-03,-5.802116299638675201e-02,2.104467137473147592e-02,1.737225413322448730e+00
-3.390353799609625851e-02,-1.015495567634631335e+00,9.638144964409571802e-01,3.217703188258698704e-03,1.201509583969169633e-02,-1.693279788106126157e-02,1.714537978172302246e+00
-3.312131800809400839e-02,-8.132050788683077291e-01,8.612864040866263782e-01,-5.573237489002599160e-02,-2.413718261845758037e-02,-9.007935646888906578e-02,1.463426709175109863e+00
1.697404928699812465e-02,-1.119712757164856187e+00,8.615438918677308378e-01,-5.309029695802364168e-02,-5.208032553057416469e-02,-7.532416738978404969e-02,1.731756448745727539e+00
-8.517723868663638898e-03,-9.240534364988414184e-01,8.647905489121188172e-01,-1.556830333856426274e-01,-7.480017487137538904e-03,6.823516503467309466e-03,1.572716474533081055e+00
-1.560783846382504843e-02,-9.701687422144312789e-01,9.971681519364865576e-01,9.819949245166502416e-02,5.767722211432523005e-02,1.580283544386946668e-02,1.715609669685363770e+00
-2.952680801345584569e-02,-1.092961342249801016e+00,1.130917993586742609e+00,2.473629888742504696e-02,-5.945713876889489879e-03,5.885753922697765060e-03,1.927077531814575195e+00
-3.599244412461327647e-02,-1.055618283237459210e+00,1.104993991578268719e+00,4.916898814171947324e-02,-2.335423717310205257e-03,-1.109599061329670684e-02,1.874167680740356445e+00
-4.112602996370129382e-02,-1.024868111411507909e+00,1.160711639219533797e+00,1.192227535613840234e-01,1.820528821235121303e-02,-1.235642439609365741e-02,1.907499670982360840e+00
-1.358511203172782164e-02,-9.955281346254060137e-01,1.034686351368609092e+00,1.476923734135775212e-01,2.479128312984387947e-02,2.536831150578046021e-02,1.778100609779357910e+00
7.460941188220052839e-03,-9.131053439723770815e-01,9.286702787263502179e-01,4.509697354011692194e-02,9.104250420590499424e-03,2.155316612787052874e-03,1.597018122673034668e+00
-1.407949356936682647e-02,-9.944801074044073985e-01,1.028887281346792859e+00,3.543198317452162655e-02,6.108890402950976038e-03,9.798637186260217985e-03,1.753754973411560059e+00
1.702275384850645418e-02,-9.454415814863581513e-01,9.544765989471070133e-01,-5.161294912921943201e-02,-1.292921439111514338e-02,7.592195118118274209e-03,1.648056268692016602e+00
3.621130050171256221e-02,-1.953940544646188604e+00,1.654133440961811585e+00,7.860606770423618495e-02,-4.218090019639277877e-01,4.063307181023712022e-02,3.218003273010253906e+00
-2.443276208102741764e-02,-9.927733815073495061e-01,9.658046039657089965e-01,-7.120208477247083265e-03,-7.167868362772908050e-03,5.369661337087257812e-03,1.696329355239868164e+00
3.858736397429379794e-02,-9.695206664936226737e-01,9.576397424797320479e-01,-4.967962882854512485e-02,-9.055620171879018299e-03,9.192080015486889591e-03,1.671929121017456055e+00
1.777425840410502833e-02,-9.844331422956261735e-01,9.695730288357843341e-01,-1.063292746595487226e-01,-6.213199503161131662e-03,2.374194405945092689e-03,1.702436685562133789e+00
2.720023295281279521e-02,-9.547701918480960837e-01,9.396875726983587862e-01,-2.044368517770773358e-02,-2.668426972440514616e-03,-5.205473823059724066e-03,1.641429543495178223e+00
2.257642951189602065e-02,-9.108698299626029060e-01,9.241439770215378324e-01,-3.479828714883763385e-02,6.350805327543038864e-04,-6.611345336399317499e-03,1.590432643890380859e+00
2.217292397572657309e-02,-9.107495403641684417e-01,9.251778318880328200e-01,5.878262490311840808e-04,-4.063954679519656520e-03,-8.537419807233309794e-04,1.590046763420104980e+00
2.623429056318160590e-02,-9.262721157957733986e-01,9.406920444063474607e-01,-3.554328376910418502e-02,-1.982273643139058350e-02,1.952576389226315032e-02,1.618839383125305176e+00
3.065442590610992224e-02,-9.764560663798387274e-01,9.580275944842246982e-01,-4.085198970847712246e-02,-1.962100536706263068e-02,2.383444082378013279e-02,1.678131580352783203e+00
-5.932176279407201658e-02,-9.823159490188881904e-01,9.383296670455186783e-01,7.704636707416353744e-03,4.044349725207161718e-03,-1.193056690906086313e-02,1.663943290710449219e+00
6.217728229860322586e-02,-1.164831185286579363e+00,7.185444774450142624e-01,-9.301835205483725139e-03,-2.109926499845509729e-01,-1.274798535377418690e-02,1.695888161659240723e+00
6.425678423209407741e-02,-9.468820867765845861e-01,6.140540955515438881e-01,-9.952357884394903936e-05,-2.086673771966685367e-02,4.797716074167612116e-02,1.374340534210205078e+00
3.238589688605539307e-02,-9.832232831621654512e-01,7.466300709306770145e-01,6.519019529344150139e-03,-4.342649366881630446e-02,9.894381217459302658e-02,1.517285227775573730e+00
1.227340490856672350e-02,-1.003926293291084848e+00,8.265348437964945560e-01,7.137953456631542307e-03,4.475209641966896267e-03,4.278921484274447046e-02,1.590233087539672852e+00
5.976123989951215298e-02,-9.450489846104943581e-01,6.454930266432079566e-01,1.175318719997415703e-02,-2.598692082846006113e-02,1.879438716647073571e-02,1.394551753997802734e+00
9.426276484322373972e-02,-9.437780486227921317e-01,5.446151882123206889e-01,1.043807706731306358e-02,-1.307159946865855127e-01,1.058657511095318360e-01,1.353898048400878906e+00
-8.568942567801610122e-02,-1.299775140380560412e+00,1.259922914764762814e+00,2.469507710927958989e-03,1.138593576756514597e-01,-7.765377295600761620e-02,2.230552911758422852e+00
-7.327029745383484283e-02,-1.034146128577292822e+00,1.049039237020798154e+00,7.521978284036258400e-03,3.673763783009678652e-02,-2.717980876049157918e-02,1.807677030563354492e+00
-1.002597507372710028e-01,-1.074376490923603544e+00,1.109858187341977720e+00,-9.667396552058104067e-03,1.032390192447258381e-01,5.815714918533758382e-02,1.906433105468750000e+00
-4.310464384172711660e-02,-1.053081812401626571e+00,9.909409970380219645e-01,-4.381412591784644077e-04,2.861193878916218347e-02,3.394816156402121615e-02,1.771886229515075684e+00
-8.525506135448225609e-02,-1.022673915103605502e+00,1.046573038542941259e+00,-6.543594620435096328e-03,5.711879009280490527e-02,-2.326430784385053428e-03,1.797419905662536621e+00
-5.930568060275805131e-02,-9.802813978919804327e-01,9.375140185032149187e-01,-2.836979270425495688e-04,1.203358067427061622e-03,1.786296525718877762e-04,1.661293864250183105e+00
-9.364589412879481545e-02,-1.121939518409196035e+00,1.158956192486022330e+00,-3.724515187993281823e-03,9.454237294829093141e-02,1.723402617622804426e-03,1.985272765159606934e+00
-2.885258150029670551e-02,-9.976457265869378421e-01,9.671233597507037372e-01,3.972841360477235728e-06,6.159074300111848192e-03,-1.985475471656285697e-04,1.701627731323242188e+00
-1.228029143199535211e-01,-5.875707574972038882e-01,1.002464215157389038e+00,-1.985390429823616076e-01,-3.006971554680459846e-02,9.909185026220666825e-02,1.468212008476257324e+00
-3.636212890957295912e-02,-8.600285857285260294e-01,9.788990545994407100e-01,-1.709723618367447184e-01,-1.132594301747314076e-02,1.453099409731880946e-02,1.623000621795654297e+00
-1.203843159325261591e-01,-4.704473009456747734e-01,8.560812626052246577e-01,-1.655523321192261532e-01,1.081704914283778372e-02,-4.438479474069968039e-02,1.227329373359680176e+00
-6.182420992647957164e-02,-7.377433220459493901e-01,9.273014085660850059e-01,-8.394775207924995430e-02,-3.336911146828619446e-02,1.090413968938308831e-01,1.471039533615112305e+00
3.000799281635122516e-03,-9.827097462665802530e-01,9.628312117733229814e-01,2.109784720240842626e-02,-1.573898553139361015e-02,-1.343102819399782932e-02,1.685714840888977051e+00
-2.507783351174045633e-02,-9.802115889381696201e-01,9.476041487052236922e-01,1.153313820887477692e-02,7.610598945814175779e-03,8.641869723790581229e-03,1.669799089431762695e+00
-2.944862043043302083e-02,-9.931554400831641427e-01,9.599584606588371649e-01,2.121137734248730242e-02,1.206021465160546195e-02,-1.054089190120243921e-02,1.692121505737304688e+00
-3.831533900585425145e-02,-9.773885425486822376e-01,9.504214947239690847e-01,-4.258492874898216381e-03,4.485611913502714036e-03,8.158659579557957578e-03,1.669811248779296875e+00
-1.372528432868997707e-02,-9.883217045899443942e-01,9.770143074605079914e-01,6.503458780358494992e-03,-4.882099187249550921e-03,7.337820343348788743e-03,1.702155828475952148e+00
-2.581735240205497092e-02,-9.778050947284038230e-01,9.567062834538196947e-01,3.913047663342802789e-03,1.994768697827285081e-02,1.696067829647254083e-02,1.676032900810241699e+00
-4.903822066512501798e-02,-9.817047731875537808e-01,9.002425201947069633e-01,-1.924496595872660781e-02,2.768932025151049289e-02,2.148617317378501493e-02,1.631306052207946777e+00
-4.374524213887184820e-02,-9.825145125839435112e-01,9.446906339142806530e-01,-7.569801010977590498e-03,1.829528198360100971e-02,2.385102163592522917e-02,1.670056581497192383e+00
-9.911501352270521426e-03,-1.000758756205833544e+00,9.128209927337432861e-01,4.715844523307764768e-02,2.913515012793964354e-02,-3.675948054694538197e-02,1.661557316780090332e+00
1.860261968150110357e-01,-9.468321738463734150e-01,2.842108699591602838e-01,1.304354180807180269e-02,-3.620640222801624897e-01,1.407843460713058617e-02,1.341124057769775391e+00
-2.892064371178230953e-02,-9.761674382419518459e-01,8.717720507019508513e-01,-4.896967037960371291e-03,3.653863910249148528e-02,-4.126601752339716274e-03,1.601820945739746094e+00
-4.782738907204097528e-02,-1.001643825554012102e+00,8.945693681189360591e-01,-2.619048372416486747e-02,8.205122106170550933e-02,3.764990693015021067e-02,1.650229811668395996e+00
-5.695455548440656046e-02,-1.012189121673210401e+00,9.504084505870479260e-01,-5.896462938828521752e-03,8.559330215470123404e-02,3.476445995433741915e-02,1.707404494285583496e+00
-6.000627037764889871e-02,-7.533386152913172928e-01,9.026465222500770214e-01,-8.814019847470763724e-02,8.249078487023341760e-03,-2.679233629007679324e-03,1.448578715324401855e+00
1.126612258772839853e-01,-9.261577360922815805e-01,5.290818915364722264e-01,-1.892923036263825299e-04,-4.869776625287254579e-02,-1.976239583472717484e-03,1.300870060920715332e+00
-4.506434131328589110e-02,-7.482071699636629880e-01,1.016792970050431899e+00,-2.100285833231159416e-01,8.060662855307440446e-04,-1.103347285198839900e-01,1.592936754226684570e+00
-2.808164849290923845e-02,-9.867965576328964206e-01,8.424518923308902396e-01,7.011636900485750112e-03,8.321317729499663751e-02,-2.367599776615794682e-02,1.591904163360595703e+00
4.337602045460577094e-02,-9.456220975846499899e-01,6.441488655722351631e-01,9.899789072821810199e-03,1.426118402466106938e-01,-4.465199081501705115e-03,1.412294864654541016e+00
-5.342890018694541887e-02,-9.727043116700425651e-01,8.661419001791806904e-01,2.919041963940844503e-03,1.070105192312524600e-01,7.678190276830689116e-03,1.603300571441650391e+00
-5.100598209505659286e-02,-1.044753372529914737e+00,9.027955407857414238e-01,1.457673339544163400e-02,1.145008711489928915e-01,-7.890979192735340930e-03,1.698606610298156738e+00
1.593409758634849183e-02,-9.674223223475973965e-01,6.747662880125819829e-01,2.326352737857064618e-02,1.729776249355114426e-01,1.314104917471061547e-03,1.462979555130004883e+00
1.087809282452874282e-01,-9.854261334725414878e-01,5.242009451627639427e-01,4.743055667425921315e-03,1.457275087981822759e-01,-3.530204247630192721e-02,1.375476002693176270e+00
7.339758969521895104e-03,-1.119509690824344261e+00,7.798061369836410961e-01,5.560236601242412278e-03,2.329783210911667846e-01,5.157493208615451796e-02,1.705243825912475586e+00
5.141733351228989363e-03,-1.029808820996871654e+00,1.027743478714187475e+00,5.152372560690883507e-02,6.482429307599243441e-03,1.402122618754780142e-02,1.784337162971496582e+00
-2.326968486123808313e-03,-9.442420684784590401e-01,9.910932697988241724e-01,7.834526943673593424e-02,2.477549802573627766e-02,2.264487288291848477e-02,1.682735562324523926e+00
1.060672334493130073e-02,-8.722694545585609749e-01,9.557865211758791446e-01,2.259882942344608736e-01,4.702773736723409731e-02,3.890411330215073210e-02,1.634533405303955078e+00
2.123774477122059023e-02,-9.958936348806656236e-01,1.006772419319264200e+00,1.008545405638222869e-01,1.787807009626540215e-03,4.199386605675588940e-04,1.743209123611450195e+00
-1.380465293022887195e-02,-9.141717064958914118e-01,9.390296942956664061e-01,7.077798665193424377e-02,-2.085470194824592949e-02,-5.838168527685334147e-03,1.610245466232299805e+00
-9.359314696104825346e-03,-9.359044107435745552e-01,9.342332125298705714e-01,7.293037806786915878e-02,-2.103565759331404300e-02,1.379081362966956548e-02,1.625111818313598633e+00
-1.619241507880159192e-02,-7.737785211546795994e-01,9.270541880865669215e-01,-8.715816111288796075e-02,9.934177258620958181e-04,1.476952887324402969e-02,1.483808755874633789e+00
3.404848578689131933e-02,-9.860800134101798120e-01,9.597842006164694073e-01,-4.105406470385597473e-02,3.844664543115088734e-03,-7.769560850030868618e-03,1.687394380569458008e+00
2.255183937805428987e-02,-9.102740699252024337e-01,9.408348390708836106e-01,-3.764029419685778477e-02,6.512245878004384314e-03,-1.971154146471165020e-02,1.604851841926574707e+00
-3.239869925116428684e-02,-9.994802624176798433e-01,9.687987978065160100e-01,-3.958005670315781839e-04,-5.416081944116676004e-04,1.462891153158207705e-03,1.704667329788208008e+00
2.708143554010186346e-02,-9.196437111489178529e-01,9.251932639627669097e-01,-3.837223904429110100e-02,8.560271358630373167e-03,-2.388596284126496844e-03,1.599316358566284180e+00
-1.196187711926846586e-02,-9.672667189334105409e-01,8.451616246515323283e-01,-1.449763968256777280e-02,3.731748913240488016e-03,1.262750568909514273e-02,1.570742845535278320e+00
-5.406808313787100917e-02,-8.848404145876418436e-01,1.033958220653759419e+00,1.237867923539731629e-01,-4.422644103409865274e-02,8.101659438285294113e-02,1.688020944595336914e+00
1.163908043778787149e-02,-1.098614482863321751e+00,1.038318953849231452e+00,1.167622769417772655e-01,-3.380346337995263073e-02,-1.677501694864762249e-02,1.863271832466125488e+00
-1.770560026185374197e-02,-9.204493185124391630e-01,9.643089055929319198e-01,6.992566076801758068e-02,-1.240743141469542558e-02,5.305570166382393878e-03,1.637382388114929199e+00
-4.079333099256782225e-02,-7.861978822716831905e-01,9.793323045694362072e-01,1.983764939010354555e-01,-2.671287486286346227e-02,5.510426643337543867e-02,1.576705574989318848e+00
-5.237232471182467347e-02,-9.604988914213284934e-01,8.564374856459114893e-01,-5.838464204634128893e-03,-4.672648120011577144e-02,4.621193517333908245e-04,1.575625777244567871e+00
-1.537920903706041856e-02,-1.041768700187155838e+00,9.946749682815704263e-01,3.454108600424881520e-02,-2.736258364370581717e-02,-4.122760753590812288e-02,1.766725301742553711e+00
-1.723786744091890255e-02,-9.624839884584079908e-01,9.638820780571748514e-01,2.631905198139727897e-02,-5.897998362368467046e-04,-6.076760493860676807e-03,1.669034600257873535e+00
-3.462309393575287164e-02,-1.045879906463784259e+00,1.005063114326493645e+00,3.619440813091822089e-04,-1.667000364737343879e-02,-3.124601711853559893e-03,1.776468634605407715e+00
-6.511597662217552540e-02,-9.849386276908085325e-01,9.603104789134851993e-01,9.962984677543763098e-04,1.132116975641275086e-02,1.661436532734238960e-03,1.685579776763916016e+00
-2.776725299176377795e-02,-9.932974725502700108e-01,9.546297459208792358e-01,-3.621370236010407456e-03,1.845286647877772759e-02,1.099119273206849989e-02,1.687397360801696777e+00
-4.462870271381100262e-02,-9.511412974086808081e-01,9.449176295937493641e-01,3.518863718419868412e-03,-3.655373075816574762e-03,-1.183516151230316893e-02,1.642711400985717773e+00
-4.572130374492648641e-02,-9.857981092844616544e-01,9.525466033564435886e-01,-4.216475046338079985e-03,-7.888502776259315868e-03,5.230115643401417672e-03,1.679003834724426270e+00
-3.843854465612187021e-02,-9.303591579175027881e-01,9.187475533271891592e-01,1.474629385573342395e-02,-1.732953277553242119e-02,-1.936564957214013602e-02,1.602541685104370117e+00
-2.873136260423331950e-02,-1.006858714685866962e+00,9.325891466004003760e-01,1.077566065660301962e-02,-1.673354473168866402e-02,1.471505379039202317e-02,1.680179238319396973e+00
1.457998893045497901e-02,-1.764846165215665064e+00,1.582811861744945592e+00,-3.391571161014863556e-01,4.156789500880866406e-01,-2.913773955766593704e-02,3.046679735183715820e+00
-4.573488631903850632e-02,-9.586234866041646319e-01,9.340083519496863440e-01,8.055758828876458458e-03,-4.661691368226971582e-02,1.866464102024995714e-02,1.641772866249084473e+00
-2.011679831900618082e-02,-9.775089849658604724e-01,7.779092610472877478e-01,-7.362017630710381705e-03,-8.575442456330191476e-02,7.057859185802913514e-03,1.529654502868652344e+00
3.898013831034344290e-03,-9.560857829200318792e-01,7.538790047779339032e-01,-1.383973865264513312e-02,-5.227100235553787388e-02,-1.094038811709646501e-02,1.487662792205810547e+00
1.040974056516152935e-02,-1.007227608571095834e+00,7.878707823439610181e-01,4.343403736049773235e-03,-9.382551529173747962e-02,-8.573252257358345008e-02,1.574713110923767090e+00
-4.066422289511398280e-02,-9.431221531207508724e-01,9.270208511520922068e-01,2.339678994520594246e-02,3.582916210882443331e-02,-2.245394479426187848e-02,1.622080683708190918e+00
-6.056796119221591335e-02,-7.726765307696906726e-01,8.628735636315519875e-01,5.308589773713939114e-03,-1.570038920675083383e-02,-6.343608872199557602e-02,1.424896478652954102e+00
-2.597301726027192309e-02,-8.954865483758844835e-01,7.650278893481108344e-01,-6.565741412111246976e-03,7.330971088249727333e-03,3.333138072006715247e-02,1.439842224121093750e+00
8.619855635763627733e-02,-9.319438804238836527e-01,5.837754254360451034e-01,-1.593995741845951383e-03,-5.492216717850758462e-02,-9.688840865202824962e-03,1.341692805290222168e+00
-3.031226227616766813e-02,-9.776140708968041881e-01,9.529784383174765283e-01,-5.818741510946684806e-04,3.949438539952540572e-03,-6.505389396916775799e-03,1.672091245651245117e+00
-6.329625674647743061e-02,-8.756739499052954567e-01,9.251271714060128604e-01,1.894431820844388881e-02,-1.302295169451107675e-02,2.992804486816235537e-02,1.563388586044311523e+00
-6.644565978117922267e-02,-7.115928932296067266e-01,8.143102990124602147e-01,9.571841963467228598e-02,-2.589857715763457108e-02,6.725149588237618915e-03,1.337833046913146973e+00
4.400978356708216965e-02,-9.415044450283615030e-01,6.600291794685996249e-01,-3.434195118814561618e-03,-1.206276426880886418e-02,-1.334356458062615353e-02,1.399578571319580078e+00
-6.161798665173258416e-02,-9.367067527510493097e-01,9.030031464446084399e-01,2.603370381096966821e-02,-2.172998502552988750e-02,4.873853348550497011e-02,1.597178578376770020e+00
-1.592680520751242890e-01,-5.073208556081283405e-01,8.837115974257744311e-01,4.990768246121293772e-02,1.046045949718514122e-03,-2.793143924476669884e-02,1.257686495780944824e+00
-1.227949476099727266e-01,-5.634539403608658237e-01,8.622526491633935031e-01,1.233707559598556380e-01,-6.532454277037357503e-03,-2.802994388747084842e-02,1.283244013786315918e+00
-1.274156058158399663e-01,-4.623099666404490993e-01,8.905711877220796602e-01,1.404676537956486837e-01,-1.135102663777522993e-03,-5.966960178632069525e-03,1.244457125663757324e+00
-1.436061590504548180e-01,-5.912256073160652159e-01,1.015617499259372059e+00,1.310477297476325687e-01,-2.251423376218857769e-02,-9.224633199504710113e-02,1.463428497314453125e+00
-7.037981578054727794e-02,-6.713862524964212541e-01,8.822575856378745973e-01,1.508214016656449774e-01,-3.810132083785932114e-03,-8.402407074164560535e-03,1.381942272186279297e+00
-8.470187512110971539e-02,-9.917163044178151088e-01,9.664824969205616512e-01,6.534894497523156646e-03,4.679688634332463543e-02,-8.563986036613855171e-03,1.699417829513549805e+00
-5.248851053882398754e-02,-9.587401868805760508e-01,8.732226361116424140e-01,7.119617368273693618e-03,5.942746277391256632e-02,-1.932466354291383429e-02,1.590291738510131836e+00
-6.410271533748738981e-02,-9.921894840676263039e-01,9.172447216374125523e-01,-2.459802950230623219e-04,1.087996977836285795e-01,1.621095739680584319e-02,1.664771437644958496e+00
5.868864658358043107e-02,-9.302053287167972861e-01,6.066288001816376729e-01,3.774549348456543874e-03,-6.471698483753900166e-02,1.400067172493716164e-02,1.353957176208496094e+00
8.369919044552938392e-02,-9.329016608009733647e-01,5.781547431498316181e-01,-5.399921637112905203e-03,6.119972925901975142e-02,-9.491535202030432911e-03,1.338738799095153809e+00
1.484278106097693395e-01,-1.000262058715655655e+00,4.356031525997329235e-01,2.462452617818094384e-03,1.517114300207452193e-01,-9.361011155225706926e-02,1.351735711097717285e+00
1.095403503367526343e-01,-1.033288481346420484e+00,5.712633740218602263e-01,2.682264737562633215e-04,1.020792398340590879e-01,-1.541366795836128234e-01,1.466100692749023438e+00
-5.027070775135677322e-02,-8.393792344171868702e-01,9.235720112520026115e-01,-1.011887766973821115e-02,-1.212150178828220494e-02,4.311996496114181565e-02,1.531618595123291016e+00
-2.610916404058042165e-02,-1.002539747022335392e+00,9.683708353514812739e-01,1.095702906542651541e-03,-3.705514120109273252e-03,-5.880162984283919536e-03,1.706925988197326660e+00
-6.278661748172708300e-03,-9.359074978590350424e-01,9.434404206679378735e-01,-2.685458114420094175e-02,-2.696779310316933104e-02,1.002336639656039793e-02,1.629020929336547852e+00
-3.957281543125608370e-02,-9.690633157655128560e-01,9.501795186198884746e-01,2.692229315764408520e-03,-9.100140043128507328e-03,-8.398346696109774967e-03,1.662531018257141113e+00
-4.069605739289382934e-02,-9.705977159870835536e-01,9.616674367629572950e-01,1.624690204152378411e-03,-3.144179505204811563e-03,-1.494297578281387172e-02,1.673994183540344238e+00
-4.197330860175520206e-02,-8.981449823154653567e-01,9.227691134424207409e-01,8.866046037337744698e-03,1.726410721921562558e-02,1.579546186228394933e-02,1.578487038612365723e+00
-2.687221691720972916e-02,-9.946710827883670225e-01,9.648412369561127910e-01,3.688406242372396868e-03,-2.726267410781190413e-03,3.307763382011738237e-03,1.697057843208312988e+00
-4.052549835076194040e-02,-9.697924207326973356e-01,9.437459776034874404e-01,-1.705534549307790096e-02,4.901166530333087717e-02,-4.200528038189968796e-03,1.659852504730224609e+00
-2.925708674653081792e-02,-9.811329343679466852e-01,9.758607393770203364e-01,-2.331839319427178592e-02,-4.440234815096005816e-03,2.105134192104098773e-02,1.695905923843383789e+00
-1.217649167647061742e-01,-5.858313919355747634e-01,9.240689941152423481e-01,-8.562344281099965038e-02,2.733452435639630376e-02,-7.307954651019903103e-02,1.354518413543701172e+00
-7.857916877233053765e-02,-7.968000833077349965e-01,9.286042479930516347e-01,1.935450976958224406e-02,1.253275043676609296e-03,2.483544470338726329e-02,1.502204656600952148e+00
-2.742720756817082495e-02,-9.620660220966761322e-01,8.758793251876252350e-01,5.867190181427462022e-03,-3.147012663208007682e-02,3.369192298686913330e-03,1.592760562896728516e+00
-1.852012496057935803e-02,-9.494929316389952856e-01,8.376799882361236627e-01,4.931525732445259103e-02,1.038680961577014561e-01,8.505443363124177980e-03,1.561014652252197266e+00
-1.646848180554991159e-02,-1.005268191488570606e+00,8.778144215075682766e-01,3.214691987136615060e-03,3.817153404758276414e-02,-2.400814669943274193e-02,1.633360028266906738e+00
1.861460450266896882e-02,-9.298666794619839804e-01,6.626285409506269541e-01,-1.358981080408135436e-02,6.779907093781713245e-02,1.438991651093672088e-02,1.392900347709655762e+00
-4.528764504218940612e-02,-9.795864575698672860e-01,9.022166185372738623e-01,-7.561623127063317289e-03,3.213722295637935766e-02,6.114889359010340641e-03,1.630739927291870117e+00
-2.959063043566133311e-02,-1.001157622437423234e+00,8.523709409941113702e-01,-1.618236601890575208e-02,4.687439176140873603e-02,-2.050866223790330165e-02,1.608515620231628418e+00
-7.284865774349905121e-03,-1.005570669203896816e+00,8.182616559506484810e-01,-7.823327286675688108e-03,6.243260105616644379e-02,5.942030215757451023e-02,1.588931202888488770e+00
-2.562003708404876623e-02,-1.027298994474682647e+00,9.219423893140714643e-01,-8.178809768843353992e-03,7.516718148287944434e-02,4.261168147841087883e-02,1.694988727569580078e+00
-3.774165753088455644e-02,-9.551512623880089592e-01,8.154048754032944268e-01,-1.446585871380464024e-02,7.142446446804515126e-02,4.115644447180591414e-02,1.540518760681152344e+00
3.881136880976983339e-02,-9.601581123431351950e-01,6.718777195408774938e-01,-1.092178913569905388e-02,3.322906773977849643e-02,4.514230801995152559e-02,1.428604483604431152e+00
-1.079861927304123503e-01,-7.746406584652083538e-01,8.711832971147028815e-01,-4.557174438134149394e-03,1.062605554704050201e-02,-5.863583100875807003e-02,1.437596678733825684e+00
1.194484145935954811e-02,-8.971806044981457395e-01,7.550338599506870585e-01,-6.413674570700069084e-03,6.980367035145551742e-04,3.239884443383519302e-02,1.434407711029052734e+00
-3.532904189525790800e-02,-9.718735718686843938e-01,9.372131007600813524e-01,3.930536338136366228e-03,1.434401181248935969e-04,-2.093393738758090976e-03,1.653433561325073242e+00
4.084160309010820278e-03,-9.571197304627137026e-01,8.242568982379241405e-01,3.479394927817498415e-03,-2.099705582495411168e-03,2.615082285023216657e-02,1.545008301734924316e+00
-3.691321692001788002e-02,-9.994131731247992700e-01,9.691570965262504833e-01,-8.926171882222624920e-04,-1.627003577971752185e-03,-4.661203498542378001e-04,1.704974293708801270e+00
-5.701100120735935750e-03,-9.461345996917458478e-01,8.333713556370648812e-01,-9.187973968428632746e-03,-3.933585812873892189e-03,1.016219355413817971e-02,1.542128086090087891e+00
-8.816813016592450758e-02,-7.982690430265252379e-01,8.713054238073859592e-01,1.610253272851494295e-03,3.526145243165136525e-03,-4.981832601534220278e-02,1.453838586807250977e+00
-5.941049842078253984e-02,-9.317367875748279182e-01,9.397339131287912872e-01,-2.829871034373309616e-03,-3.596496586361121357e-03,-1.001009166778930523e-02,1.622093081474304199e+00
-7.949178795906314265e-03,-9.778298840773143041e-01,8.977494654333983970e-01,2.459592526582700216e-03,-1.823144846134664787e-03,-6.010222046645813040e-03,1.624658346176147461e+00
-2.926004224593628869e-02,-9.762466642796475691e-01,9.125565840853612221e-01,5.383570856226849687e-03,3.654271204178756970e-03,1.427480248701473026e-02,1.635979294776916504e+00
1.616254885551539622e-01,-9.068920929795254438e-01,3.877310934451412283e-01,-2.196879227588523220e-02,-4.328506845221269383e-02,4.825422893571993527e-02,1.203538775444030762e+00
1.412749566701374526e-01,-9.104640562463300890e-01,4.022388589738984388e-01,-1.991824836730986259e-03,-4.092187212762858628e-02,4.701151925659306785e-03,1.205746650695800781e+00
1.245590006333963107e-01,-9.096971153790281983e-01,3.844576393573503337e-01,-1.187787204053733698e-04,9.745573602046442296e-02,1.792124704177728428e-02,1.198119878768920898e+00
9.770900994127844352e-02,-9.419275358063683434e-01,5.810152947749382957e-01,-3.367662281145760751e-03,2.584998974017627647e-03,3.193039491010385422e-02,1.349075555801391602e+00
-2.611273502983742917e-02,-9.808831283683518976e-01,9.420417053970774335e-01,-7.641843357401477063e-04,1.067207074799180616e-02,-1.723365910395018713e-02,1.665685772895812988e+00
2.777746247330300719e-02,-9.635575735943494591e-01,9.386525467287795133e-01,-4.299090547541756062e-03,7.220930915064049244e-04,2.076150346871812220e-03,1.647874712944030762e+00
-3.105460141839078841e-02,-9.582183667283075135e-01,9.554193722173519587e-01,-1.155161453075032735e-02,2.430525629407322922e-03,1.145633378282699330e-02,1.657769083976745605e+00
-4.069501973997395605e-02,-9.359783055962551668e-01,9.291199080841588964e-01,-1.081850494102157799e-02,-1.158789936077736504e-02,2.175565514072241163e-02,1.616324901580810547e+00
-3.850703319108883527e-02,-9.422951115343303208e-01,9.304123370603164522e-01,-1.131004346398568720e-02,5.298806865668555591e-03,-1.112333147265044675e-02,1.622397780418395996e+00
-2.414160902955840571e-02,-9.835776972438470267e-01,9.327820716589760863e-01,-2.939079882358847096e-02,-2.580319705763534088e-02,-1.128944734116983303e-02,1.661113739013671875e+00
-2.829510833290534155e-02,-9.555483257634364014e-01,8.830847898063093337e-01,-1.608422408337456489e-03,-1.179883104106083623e-02,2.262167922863485281e-02,1.592938303947448730e+00
-3.660728575339872864e-02,-9.792030641821382053e-01,9.471741256425384448e-01,4.161978433064707564e-03,3.283489947096997728e-03,1.412220761224989673e-04,1.668443918228149414e+00
-3.924553657754831226e-02,-9.885913535094997817e-01,9.526165264133794608e-01,1.182241039341272795e-02,1.134649438038432510e-03,9.505826454159753414e-03,1.681476235389709473e+00
-1.517097204145065326e-02,-9.653694926374518648e-01,8.527108233375880753e-01,8.990312796472723147e-03,4.245284515204046649e-02,1.639371660193856065e-02,1.577089548110961914e+00
-6.711697107188739631e-02,-9.693395681744255699e-01,9.138829091930458226e-01,9.433963067049801546e-03,-2.273539400705678476e-02,8.220294856990734839e-03,1.632013201713562012e+00
-1.137312973166667990e-01,-7.676651365200686250e-01,9.263830648055489947e-01,7.759682750357746808e-03,6.183278739626403911e-03,-2.108751676137563327e-02,1.480291485786437988e+00
-3.708874050117229315e-02,-9.780712269741622666e-01,9.229061537769124302e-01,6.272897008376177724e-03,7.430838696675432127e-03,-3.871044996527110964e-03,1.646421909332275391e+00
-4.209859776731214587e-02,-9.332108159297788363e-01,9.096410117314067678e-01,1.038180116351237331e-02,9.828114023137442257e-03,7.962809019020290063e-03,1.596495985984802246e+00
-4.413744024432590674e-02,-9.469892117350482419e-01,9.430095271445833038e-01,1.060990717411166261e-02,-5.364906352718298160e-03,-6.602187141661868680e-03,1.637498855590820312e+00
-5.391327314097227319e-02,-9.531374748954272169e-01,9.525112879947013056e-01,-2.749218645668168124e-03,-1.295849539278660922e-02,-2.381757829348384037e-02,1.651885032653808594e+00
-5.332299418377568247e-03,-9.931866476620596629e-01,9.609985655856507769e-01,-1.317604825763487751e-03,7.634556634795514789e-04,-2.500987211578299674e-03,1.692415833473205566e+00
-4.117600739133646381e-02,-9.213342052936061011e-01,8.920694907095154669e-01,6.967584780786672052e-03,4.646757718919648263e-03,1.626008975487189690e-03,1.570747494697570801e+00
-5.305319532695314255e-02,-8.818162078793956304e-01,8.373962957791782902e-01,3.736708335381901114e-02,1.391153122994371813e-02,1.220895085551946743e-02,1.490951657295227051e+00
-2.678610639540286720e-02,-8.817976869628348924e-01,7.900139852712836364e-01,6.133555125519674252e-03,4.630701851900036279e-04,2.074629933206924987e-02,1.448442459106445312e+00
-3.383590425737473262e-02,-8.244860603709762703e-01,1.046624612553327616e+00,-1.547594563419881497e-01,-2.306522130446295518e-02,2.601515863554607413e-02,1.649929285049438477e+00
9.850713548360222338e-03,-9.641689868736499358e-01,9.961604310763219061e-01,-4.590923568723409565e-02,-1.049131425272813514e-02,-2.019466342750906446e-02,1.700024366378784180e+00
-3.885442789702010097e-02,-1.029630299377093161e+00,1.188285361619183966e+00,-1.137875972648862144e-01,-2.598371724132240643e-02,-1.990301265309950274e-02,1.935299992561340332e+00
1.638242499452794571e-02,-1.016555039916517744e+00,1.007075799532429539e+00,-5.548629888311625014e-02,-3.140810624534156551e-03,9.012448882590031601e-03,1.755353808403015137e+00
1.263303861124452990e-02,-1.027477747196203106e+00,1.031274991348551717e+00,-4.986312248643393757e-02,-6.689961854362036324e-03,-5.322545890170699012e-03,1.785116434097290039e+00
-1.027696819301170995e-02,-9.685231289633745577e-01,1.005388097943880510e+00,-1.169557789724460506e-01,-1.458531500707647803e-02,-6.097337534107715937e-03,1.721875190734863281e+00
1.006480330881991819e-02,-1.024229448764575778e+00,1.022526844708616878e+00,-4.762299509386425100e-02,5.900326336705268493e-04,5.643768071351696865e-04,1.774495244026184082e+00
2.369649459154664697e-02,-9.760919998923737184e-01,9.606984278948718092e-01,-3.195307280308827547e-02,1.377583133635725682e-02,-1.457694632839371708e-02,1.678875565528869629e+00
1.594856694168250710e-02,-9.536301830185919259e-01,9.644357406183345915e-01,-1.030112264797119759e-01,3.155838827464804361e-03,7.299575729939147307e-04,1.670691251754760742e+00
9.315995937460602727e-03,-9.257308801229849893e-01,9.540904686464483087e-01,-5.359998548202180024e-02,-2.353993407270056626e-03,7.044149412594051356e-03,1.630676031112670898e+00
1.963577473965730236e-02,-1.105056216115272383e+00,9.345455123173388445e-01,6.556008575840215069e-02,6.038116320848121998e-02,-2.294086612373335936e-03,1.776184439659118652e+00
-1.170522480155474637e-01,-6.976948924333283841e-01,8.995648882613233033e-01,9.349443378646996386e-03,-1.074997034898411371e-04,1.188560934419708066e-02,1.400583267211914062e+00
-6.585265374494063406e-02,-1.039738185585898034e+00,1.051461850326437908e+00,5.666684554548997999e-02,1.601388926453441164e-01,-4.215072783497931944e-05,1.836177587509155273e+00
-1.560048161383255534e-02,-9.110520575630441931e-01,8.696868307529916908e-01,6.994667583873862005e-02,5.236056418367660698e-02,-2.392526956837576907e-03,1.549586653709411621e+00
-5.802913745128140954e-02,-9.641268471402415496e-01,1.160520164948348310e+00,-1.606384289721824732e-01,-2.702111153694193302e-01,2.199478466117001374e-01,1.962546229362487793e+00
-3.549228332107003808e-02,-9.858989177119558134e-01,9.416307648615037662e-01,-5.119498542783111096e-03,3.438767639323191735e-03,4.736302433608436009e-03,1.669397473335266113e+00
-2.532128053897677103e-02,-1.129047364445013635e+00,1.070408823944179133e+00,-2.241486878336412802e-01,-3.982503695150734768e-01,-1.124448607117881256e-02,2.062798738479614258e+00
-4.914984482402093985e-02,-1.223039620996331234e+00,1.174639384882298687e+00,-1.925057027813558974e-01,-2.410897228425274152e-01,-8.778347329011251809e-02,2.149636507034301758e+00
-3.612939097543769323e-02,-9.906682185225863524e-01,9.606621423037964291e-01,-2.805728551422199089e-03,6.129606492249271843e-03,-2.726716423033584413e-03,1.690080642700195312e+00
6.301232108517811070e-02,-1.788469806257543038e+00,1.356150668964175798e+00,-2.554344232967805106e-01,-4.318778617959274091e-01,3.684584507902218253e-01,2.942277431488037109e+00
-5.456827603301826063e-03,-1.336851689656902265e+00,1.311729630945687619e+00,1.466644299539337712e-02,-4.794717252899689530e-01,-1.097775089747120014e-01,2.446991205215454102e+00
-6.205867236831014849e-02,-1.078204966982958091e+00,1.174898657874936525e+00,-1.410758054544801465e-01,-1.404517352463299507e-01,6.994029529674389289e-02,1.988242506980895996e+00
-1.833408275226894313e-02,-9.858465649457904822e-01,9.056456626978437452e-01,1.550978571768640846e-02,1.650283753118277769e-02,-4.232879832782392160e-02,1.640333771705627441e+00
-1.115089302131061499e-02,-9.580229865521679988e-01,8.302378798565508422e-01,1.848169598887205653e-02,4.914749505379784056e-02,-2.455730755112249183e-02,1.552826404571533203e+00
-1.809863647957007937e-02,-9.887097397035117252e-01,8.203994177436041424e-01,-2.984506842119000192e-02,8.699213899856075849e-02,5.248687477971046567e-02,1.578816056251525879e+00
-1.383264208256753530e-02,-9.685427553646004384e-01,8.510017004036238841e-01,9.085225486401503001e-03,4.118891157338354370e-02,1.181036590037263904e-02,1.578236818313598633e+00
-3.401931100392525248e-02,-9.876645993494643783e-01,8.248787302298736801e-01,-2.478739412480206877e-02,8.694696672463927967e-02,5.280369831662862223e-02,1.580859422683715820e+00
-5.542961048570191340e-02,-1.037503129330823448e+00,9.616209384313845199e-01,-2.514394154078337246e-02,9.277674690468409868e-02,3.534326786991873193e-02,1.740443944931030273e+00
1.012617627147605059e-03,-1.014939415107747100e+00,8.861653637630206859e-01,6.437776022921551378e-02,8.300392343056864353e-02,5.574628041302112647e-02,1.660527586936950684e+00
-1.070007585057326793e-01,-5.762597182443122135e-01,8.646843502632046707e-01,-9.536525165443457408e-02,-3.862965172903091039e-03,-4.690673123119542404e-02,1.286186933517456055e+00
-1.509508439144651715e-01,-5.834880459207735237e-01,8.951784344668749505e-01,-1.107172484599431017e-01,9.707603768839079619e-03,-5.186865582904943289e-02,1.333826661109924316e+00
-7.442073190678073769e-02,-7.634300929402304536e-01,8.601775883310167625e-01,-3.458168298722746198e-02,4.506137755431102558e-03,-4.878878344327403083e-02,1.415254235267639160e+00
-1.669533188636561638e-01,-5.555927543071048635e-01,8.944651481374897850e-01,-8.302367293217581892e-03,3.757146909605393881e-02,-1.829558541024023377e-02,1.302153825759887695e+00
-5.611432433687435495e-02,-7.709873489310238304e-01,7.652591073993186832e-01,-1.976112480536919291e-02,-1.821767676204278166e-02,-1.764138123228583058e-02,1.332657575607299805e+00
-6.145851312005332079e-02,-8.240683117890713616e-01,8.997505836666620516e-01,-7.626437266742636459e-03,2.766574724489750253e-02,-1.049021658731663642e-02,1.497105479240417480e+00
1.574786567563896816e-02,-1.010835462274006336e+00,8.138911102711852141e-01,-8.200765708445231783e-02,9.557670627676442821e-02,-4.549321716311711949e-02,1.601266980171203613e+00
6.691494274224801808e-03,-1.001958655855044622e+00,8.117393733067783668e-01,-2.325970570687794017e-02,3.514202605863079448e-02,9.581183551476615823e-02,1.584410429000854492e+00
9.561767965625411758e-05,-1.114343934315175533e+00,8.894797925464555943e-01,-1.553219248417643875e-02,1.856435898319134525e-01,1.258257682066699600e-02,1.768822789192199707e+00
-9.755179454573867370e-03,-9.703308081980107636e-01,7.252006721958659252e-01,1.344012310990363654e-02,2.438744241394406320e-01,-2.585921404148822447e-02,1.532911777496337891e+00
-1.067514537928839630e-02,-9.890404679444303460e-01,8.466523141413799802e-01,1.546440382798810326e-02,8.122098911561324852e-02,-4.382822389463101459e-02,1.599143266677856445e+00
-4.278285228603011248e-03,-9.595186355647014054e-01,7.638046910756021157e-01,1.494326360783117605e-02,7.127728353856940813e-02,-5.232099630721920303e-02,1.503417134284973145e+00
-3.436074624781180337e-02,-9.916399560964479498e-01,9.604897664564853166e-01,-3.276685251398284669e-03,3.960867422114559312e-03,-7.390693000370290432e-04,1.690722227096557617e+00
-1.541312282515765464e-01,-4.905198112941476785e-01,8.516251788001852896e-01,-5.751400428822951369e-03,-5.066315215242151414e-03,6.051165244301724006e-02,1.214161992073059082e+00
-1.459516747444896956e-01,-6.565542636993326742e-01,8.859838896712622924e-01,1.155272498669067567e-02,-1.178799999454771698e-04,3.231380315477876825e-02,1.362368464469909668e+00
-1.267333327976279955e-01,-6.823537136124738778e-01,8.944787656353818672e-01,3.693089000321796937e-03,1.744105174214578011e-03,5.820676046609379178e-02,1.388959527015686035e+00
-3.792201342090943672e-02,-9.801349344699501476e-01,9.500454581120078013e-01,-2.935002472840729168e-03,2.088243279917603897e-03,-2.282315445339048229e-03,1.671758055686950684e+00
-4.313622752606700861e-02,-9.743838829595780071e-01,9.530929336440786548e-01,7.605808999274348524e-03,-7.162188972317974286e-03,9.155928161858924511e-03,1.669733405113220215e+00
-3.162514131956745134e-02,-9.657911666256780991e-01,9.336294513503144987e-01,-2.682439743291964115e-04,3.267985543998141399e-05,-1.861113665954815125e-03,1.645023226737976074e+00
-3.781139538513240278e-02,-9.926029305540730041e-01,9.557761089693738166e-01,-1.016054106237529626e-02,5.076312152620097475e-04,-6.357269284470903892e-03,1.687585115432739258e+00
-3.034882349763598497e-02,-9.866266709534176060e-01,9.379223640226893588e-01,-7.519283312056442188e-03,7.098142799302522600e-03,2.338931615007477059e-03,1.666820287704467773e+00
2.366969959566547765e-03,-8.582378179371797922e-01,6.429925464137521418e-01,-3.442280633033358711e-02,-4.928186831424321429e-02,-1.064489702443099789e-01,1.321817755699157715e+00
-1.473910320084433068e-03,-9.620862245230349385e-01,8.122713424902187063e-01,1.375129782711262882e-03,-1.650225084762925454e-02,2.204201264111883482e-02,1.539133310317993164e+00
-6.731185767939770748e-02,-8.438644343339409826e-01,8.828606505416948247e-01,-1.193114969379311871e-02,-1.489363549111933152e-02,3.487750805530193815e-02,1.499487400054931641e+00
-3.359840142926566464e-02,-9.450142647157261377e-01,9.452752967370176007e-01,3.113541385764879293e-03,1.823584019568942616e-02,1.134053499831353708e-02,1.637817502021789551e+00
-7.763748486780504277e-02,-6.913821975734202319e-01,7.688924220382001851e-01,-4.489073924092455009e-02,5.156203279531996336e-03,1.182371413202951971e-01,1.288764595985412598e+00
-1.792074235196139398e-02,-1.052879523531531358e+00,8.817208834932406258e-01,-6.909372674384881008e-02,1.039047122172503945e-02,7.195658874527847883e-04,1.681140661239624023e+00
-2.942149384406518575e-03,-9.645584397828178558e-01,8.280183917597281340e-01,3.283078939989798883e-02,-1.573373801697925886e-02,2.353324402854962624e-02,1.555604100227355957e+00
-3.783140651695417189e-02,-8.411053554048391057e-01,8.042532319074159330e-01,-7.904421330262928480e-02,-4.156818126184597985e-03,5.488294083247506616e-02,1.434786558151245117e+00
-1.762463495113818224e-02,-9.467851448065066622e-01,7.832650569402695995e-01,1.780727472219172797e-02,5.579392737156020111e-03,-2.279362847544746246e-02,1.500507235527038574e+00
-6.095782478430310930e-02,-9.879271888301089932e-01,9.761002564124857672e-01,5.059667049655783289e-03,3.279395978537673687e-03,1.085892253689917574e-03,1.701821208000183105e+00
-6.664485082950093175e-02,-1.016019990797747186e+00,9.418133946115405664e-01,3.573613256630458340e-02,8.789590423541461528e-02,-7.962273807610564108e-03,1.703791260719299316e+00
-2.822028248962255709e-02,-9.807772841386985796e-01,8.813320715976761255e-01,-2.345416839126451066e-04,3.229572560672214210e-02,-8.732521852470278428e-03,1.613818049430847168e+00
-4.530707668545910088e-02,-9.913343030663492872e-01,9.343235307572594905e-01,-2.476894447197631240e-03,3.869915086474384758e-02,-2.699949479124676664e-03,1.669111728668212891e+00
-6.833751176587161968e-02,-9.931487898077149268e-01,9.582082025433520389e-01,1.797342354683862178e-02,3.552672827764497693e-02,-2.106440103442119155e-02,1.692489266395568848e+00
-6.268818895044478423e-02,-9.863427731167977441e-01,9.239078709020123181e-01,1.742369312664121192e-02,2.991546209003731818e-02,-2.529352050435390228e-02,1.656290531158447266e+00
-2.699074205842312557e-02,-1.160325488861661425e+00,1.006743641441813386e+00,-7.428842746834976411e-03,1.986491729765569592e-01,-2.567596444366205405e-02,1.909227371215820312e+00
-3.782026392027580675e-02,-1.056338468959214794e+00,1.139503435626395111e+00,-2.050851773059075150e-02,-8.152862103843657934e-03,-2.384585909946104754e-02,1.904143691062927246e+00
-5.149610964221451592e-03,-9.351439560407072138e-01,9.993693542680697206e-01,-1.110470160173057524e-01,-1.323937272041400201e-02,-5.414857360671633535e-03,1.686935901641845703e+00
3.114726891466806924e-02,-1.136986568640194095e+00,1.083510018611196557e+00,-1.605656260855320705e-01,2.322428610262996379e-02,2.364562577709639762e-02,1.944722056388854980e+00
-5.509100316338128023e-02,-9.832546376324067250e-01,9.364070950925430514e-01,1.106801724048839947e-02,-2.246783039658969625e-02,5.311492133884640476e-03,1.663368582725524902e+00
-3.908928991603095177e-02,-9.843741141892383695e-01,9.303373182511369688e-01,6.952310571857103078e-03,-7.498746788972790456e-03,-5.017034344273330190e-04,1.658327460289001465e+00
1.714221731788137526e-02,-9.451451571881339664e-01,6.784500366069672328e-01,8.245436391761905986e-03,5.245082956844218658e-02,-3.346265631856034511e-02,1.418277025222778320e+00
1.865443348084649955e-02,-9.392369823855472033e-01,7.279692568707201161e-01,6.135570316899447568e-03,6.540619379813031320e-02,5.945358078604721236e-03,1.453679084777832031e+00
1.104373226804958030e-01,-9.168521915605880590e-01,5.257190474404163094e-01,1.070886794557547074e-02,7.262218273362436305e-02,-1.296178756584708339e-02,1.292697668075561523e+00
1.045639152124438337e-01,-9.425408761027118665e-01,5.588815422219385320e-01,-2.204449743182068655e-03,7.491801440980275228e-02,-3.094272742116705929e-02,1.340998172760009766e+00
6.134957153542923425e-02,-9.314162969967679784e-01,5.925054106026539369e-01,1.209225234134504896e-02,7.235639151191580742e-02,-2.296367063745374804e-02,1.346384406089782715e+00
5.318621649174586075e-02,-9.358962859935280321e-01,6.164651032567434186e-01,1.037297436325585603e-02,7.850079199006941566e-02,-2.080448172289954545e-02,1.368504643440246582e+00
4.006524616765903823e-02,-9.418864206934611794e-01,6.667177220778630620e-01,1.424086849401824499e-02,4.895507911122408753e-03,-3.210738993506538630e-02,1.405716061592102051e+00
5.393302780823215625e-02,-9.313852797101955794e-01,5.653514421607962470e-01,5.359280556629283584e-03,1.072187568896378618e-01,-1.351776792535382132e-02,1.330951809883117676e+00
-7.320534012822701997e-02,-5.896674106311003971e-01,8.976427037124559138e-01,1.849596514567445338e-01,1.768045024253004846e-02,6.173959536854401603e-02,1.351180434226989746e+00
-1.246885143116328171e-02,-7.843601934028482381e-01,9.408113018215487067e-01,1.785612469561389248e-01,2.817689662851147192e-02,6.906555294659372235e-02,1.533861875534057617e+00
-3.233628057980435233e-02,-8.497824973834972040e-01,1.108027744134529424e+00,1.646327465561469583e-01,-1.419212105220092959e-02,-4.685237758813948217e-02,1.728969693183898926e+00
-6.992240178830441688e-02,-7.990114839699982152e-01,9.798470620825934230e-01,2.026637188435526093e-01,1.892596447902799434e-02,6.706034761460262505e-02,1.592716455459594727e+00
-3.855464285843807765e-02,-9.780447540812904350e-01,1.157594340495732732e+00,2.580801937374736510e-01,-2.605734701418212229e-02,-3.599157293969973328e-03,1.907636284828186035e+00
-7.158167905231380135e-02,-9.791005040924106728e-01,9.516438694797618725e-01,2.628234216119873425e-03,7.086974692134720422e-03,2.957536315464354484e-03,1.673133254051208496e+00
3.300200722644072715e-03,-1.201568034904777482e+00,9.242850245967249023e-01,-4.329854260465362120e-02,1.650908306265158887e-01,9.186990474331441225e-03,1.870087742805480957e+00
-6.809489115505731882e-02,-1.024570752897205450e+00,9.463936047731732470e-01,3.635056941952236921e-03,1.398952580322784245e-01,-2.064649979787067449e-02,1.724644064903259277e+00
-7.549046050969741850e-02,-9.951359430463946332e-01,1.005259707630907995e+00,-1.298315852039850539e-02,5.476776242143339968e-02,-2.053198994102975114e-02,1.737367153167724609e+00
-9.348274282589880135e-02,-1.058641198877960488e+00,1.063751225002373735e+00,2.325892797017313236e-03,2.112707058627961154e-01,-1.921659872756586313e-02,1.876876473426818848e+00
-1.610064539157578245e-02,-1.183343308943698435e+00,1.033554398032158872e+00,-6.190652060921854327e-02,1.024500771990566883e-01,4.574845675384213439e-02,1.933571100234985352e+00
-2.130182980212992627e-02,-1.236999002973250716e+00,1.225011072126564127e+00,-7.541009840669060660e-02,1.617617428752575123e-02,9.918042921925355679e-03,2.136467695236206055e+00
-1.309325910712929968e-02,-9.328999437979049736e-01,9.885247724984981277e-01,-1.171617002545016634e-01,-9.318109504870171478e-03,2.093709037700279205e-02,1.677299618721008301e+00
-2.050710050093678544e-02,-9.622920105412063885e-01,8.713476783676562532e-01,1.440707726194568293e-03,-4.155692264684309085e-03,-2.768746091657441760e-02,1.588916897773742676e+00
-3.212643401648949959e-02,-9.724990113465866726e-01,9.357908662237103270e-01,1.663690072637562245e-02,-3.455212611176846499e-02,-1.644893812871650249e-02,1.654264450073242188e+00
-2.636052578086151010e-02,-1.057911507334409862e+00,9.718240895916301358e-01,5.442465653476100118e-03,-3.344180156228516998e-02,-2.233799926424279159e-02,1.759286522865295410e+00
1.221492126457071614e-02,-8.519660630049312733e-01,6.868842016532394901e-01,3.024044020033038460e-02,-6.979126656072846824e-02,6.848509299666815688e-03,1.342579722404479980e+00
-7.747757521758741328e-03,-9.332234144356998939e-01,7.687063534143094845e-01,-1.558953240576833703e-03,-7.985332234481887226e-02,-4.136750094872223421e-02,1.483996748924255371e+00
3.702273545900421070e-03,-9.601613927462582243e-01,7.786175827876532507e-01,5.272778007412212871e-03,-8.771233715026220679e-02,-4.434506099963209103e-02,1.518388271331787109e+00
-1.455905482042246790e-03,-9.428955127658733559e-01,7.482994474748081437e-01,1.566630291627441746e-02,3.935965134528954940e-02,-1.279907459584423216e-02,1.469750404357910156e+00
-4.937525720289796111e-02,-9.786341605369551777e-01,9.378987934468262511e-01,-5.816758777132649463e-04,2.718907150955519880e-02,1.436189271477574143e-02,1.660874128341674805e+00
-3.833232473071512825e-02,-9.879401694290218527e-01,9.584317538071582820e-01,-1.516026058217675001e-03,5.630436230642045341e-03,7.555571512858462804e-03,1.685853481292724609e+00
-3.043460319387251978e-02,-9.936741024255525412e-01,9.680624221792277773e-01,-3.140640307864149203e-03,-2.520220689230021679e-03,5.371220579916562154e-03,1.699044942855834961e+00
-3.909627600467157488e-02,-1.000452963377422400e+00,9.591235395552970555e-01,3.284871903905207599e-03,1.062126976601635020e-02,-8.168512996220945316e-03,1.697311282157897949e+00
-7.593445072845577543e-03,-9.899371913486194607e-01,9.611949266286375915e-01,3.703574283425291081e-05,-6.428016419267766277e-03,-4.522842397592533666e-04,1.689780473709106445e+00
-2.406532151830778621e-02,-9.887461073544339119e-01,8.030715317303500633e-01,-2.083617584209643270e-02,-1.965753769410666374e-01,2.115303242206164475e-02,1.590992689132690430e+00
-8.557194628242420498e-04,-9.508115982094923480e-01,7.511319736135503300e-01,1.826027585626562727e-02,3.853826413166161480e-02,5.644837039064404260e-03,1.479124188423156738e+00
-9.925244598435108145e-02,-9.977714942473445703e-01,9.761195013249510666e-01,-6.578716348149172763e-03,-1.456011604993242003e-01,-1.282078529240331805e-02,1.730383038520812988e+00
-5.316579510822969090e-02,-1.057646751600569424e+00,1.001621009023488496e+00,-1.862637906884611564e-03,-8.858765229048073953e-02,3.620894655720195698e-02,1.791244626045227051e+00
-7.735021073511719192e-02,-1.021177708793812755e+00,9.202764744423289622e-01,-4.224534143060719796e-03,-1.521965243550891800e-01,2.699793089466838436e-02,1.702759027481079102e+00
-3.486106360179146157e-02,-9.986250395506589550e-01,9.684615057984734543e-01,4.236778321506801288e-03,3.714162444843016175e-03,4.794134312324371686e-04,1.703689932823181152e+00
-8.982900287254272365e-02,-1.028989319198717167e+00,9.582554141341805831e-01,-8.555780466038742996e-03,-1.444974383676971286e-01,2.099310974877542646e-02,1.740403056144714355e+00
-1.157826805216993077e-02,-9.638894988870162495e-01,8.083645332624026514e-01,1.602960342620579626e-02,3.838640880391058080e-02,-2.354339948132806726e-02,1.538472533226013184e+00
-2.908095376686951200e-02,-9.704799860157755642e-01,9.282165931027950290e-01,-3.354965048778039884e-03,-3.814851654429850768e-03,-2.570562917088414952e-03,1.644368290901184082e+00
-2.832398228824414138e-02,-9.881362215331314092e-01,9.476858104535440530e-01,-2.098806063655713015e-03,3.841711608258191468e-03,-4.306812579470823598e-05,1.676507711410522461e+00
-4.096434910191541767e-02,-9.950095568103568544e-01,9.653371528641208066e-01,4.862788488271456086e-03,2.764364832285718700e-04,1.749084664408097909e-03,1.697934746742248535e+00
-2.921420035028029008e-02,-9.736972466171066598e-01,9.422162730733698588e-01,8.464991618160778043e-04,4.381155097190268279e-03,7.548357241846529245e-04,1.659302949905395508e+00
-2.691229050427289965e-02,-9.878729904762282299e-01,9.381685850810311811e-01,4.099281421052769665e-03,6.065208611145769292e-04,2.021246059173858502e-04,1.668017625808715820e+00
-4.132048243747946104e-02,-9.926472873801045482e-01,9.647983235074919506e-01,5.810850700068889360e-03,5.953809094870877007e-04,2.621171804799672482e-03,1.695455193519592285e+00
-4.288089560412623735e-02,-7.574068104446317617e-01,8.479392051582597123e-01,-1.552000583395916344e-01,-6.716192789626060367e-02,-3.209478506596649683e-02,1.424607038497924805e+00
-3.435016399417055444e-02,-9.745268559594535418e-01,9.098223789007586770e-01,4.702344628795057484e-03,-3.592602079970949602e-02,-4.075672463332891821e-02,1.634626746177673340e+00
-1.110796462696861733e-02,-9.607827069253707108e-01,1.003128303616234174e+00,-1.563239117771874631e-01,-4.353161005050363045e-05,-5.893261169215711220e-02,1.725538372993469238e+00
-2.267985190911735172e-02,-9.336175925594911718e-01,9.260815289881371148e-01,-3.900483671115723833e-02,4.934773967897970043e-03,-3.231581363690297359e-02,1.613067984580993652e+00
-2.368421872731946154e-02,-9.386650400367050340e-01,9.493546842699962518e-01,-2.178000266838357735e-02,1.555015434632328261e-02,3.557983443832116871e-02,1.637147784233093262e+00
-2.389968245746083506e-02,-9.285167775157974202e-01,9.464952534958315233e-01,-5.430401221332631367e-02,-9.676534601256288337e-03,-1.401999992607535009e-02,1.627129912376403809e+00
2.504060847169052237e-02,-9.985717889781242640e-01,9.759990638538413865e-01,-1.453728385449030470e-02,-8.869165186313997251e-03,8.003494436865753311e-05,1.710668683052062988e+00
-5.620609117436434210e-02,-9.843600238735759067e-01,9.504716885857636965e-01,-1.058224493645572740e-03,-7.729259395688485058e-03,-3.042794788493917001e-03,1.676136136054992676e+00
-9.161088417303678982e-03,-7.916067759508271795e-01,8.925071655583654007e-01,-7.811611919954297711e-02,1.225724410091584907e-02,-1.122361270484515533e-02,1.466242909431457520e+00
-7.875801847194437849e-03,-9.172581355473417020e-01,9.147054871348164751e-01,-1.904501120393016500e-01,1.501810984890139533e-01,-7.467016628051109661e-02,1.646303534507751465e+00
-5.841009391488553859e-02,-8.777465245981479480e-01,9.254460184048179938e-01,1.009371756305743606e-02,3.944701066013637375e-03,-9.576464218244965312e-03,1.563976287841796875e+00
2.644816137924001220e-02,-9.012497806833001945e-01,6.675900547800712737e-01,1.184715199535517002e-02,3.069597694786863323e-03,-4.476123589829234667e-02,1.368551254272460938e+00
-2.952949184463164733e-02,-1.058020184669161035e+00,9.485165122128079718e-01,1.352124408341762174e-02,3.594294807895401234e-02,-5.162960120312269120e-03,1.739190220832824707e+00
-1.662951771356092900e-02,-1.031697412905766109e+00,9.280040504224811304e-01,-4.282362409230479859e-03,4.080937984435246968e-02,-8.709736332702560854e-03,1.699070811271667480e+00
-3.773869409752758641e-02,-9.754149517734488350e-01,9.464284683957481237e-01,1.117459878503393803e-02,-6.316769601504622876e-03,-2.717325884126130242e-02,1.665341258049011230e+00
-3.085495132573243260e-02,-9.281185330441772408e-01,8.652462093739892168e-01,-1.184242634652954845e-01,4.299224218668678404e-02,5.373705929146704863e-02,1.571113944053649902e+00
-3.019825749825733041e-03,-9.943152957192566976e-01,8.629783416421948905e-01,-6.515636755221509979e-02,9.477339525887706201e-03,5.069563377945257576e-02,1.616104960441589355e+00
-3.030963883253310481e-02,-7.749533316948692407e-01,7.816227961261541513e-01,-7.803285232049569919e-02,2.237489956892700985e-02,7.372771158892300891e-02,1.361765623092651367e+00
-9.187549518003566840e-03,-9.666810975084252355e-01,7.712289188722852851e-01,1.349324465928981691e-02,7.860173774603168573e-02,-3.521215816650048736e-02,1.515218853950500488e+00
-7.577929918429315848e-02,-1.001408330746473840e+00,9.722222573674283996e-01,3.641204477685068899e-03,2.182427661519946438e-02,-2.135721207058202328e-02,1.711138248443603516e+00
-4.579711825505471123e-02,-1.088699100914834794e+00,1.051700657044575715e+00,-2.221326026612018695e-02,6.881180788703548934e-02,1.011996656275420759e-03,1.858068108558654785e+00
-7.818234487424260970e-02,-1.031069039747896765e+00,1.048305844795353492e+00,1.003821722291293496e-02,1.736538140173703171e-02,-4.529040860780923772e-03,1.803233981132507324e+00
-8.722787784932947708e-02,-1.044661329598841615e+00,1.074383620050906707e+00,-2.058539842453430656e-03,5.081064665873204211e-02,-5.949265696521751322e-03,1.840122222900390625e+00
-4.600151397638960193e-02,-1.031849321314378010e+00,1.062506435394544146e+00,1.190871334896508905e-02,-1.317556035037916427e-02,-1.207362550764632010e-02,1.815183043479919434e+00
-9.157156248867150128e-02,-1.024063452330568946e+00,1.055922667511830282e+00,-7.101073670945912391e-04,1.818207283072686281e-02,-2.992592509722932781e-03,1.804808378219604492e+00
1.538240840380764030e-02,-9.838953234187162167e-01,6.915680598277484936e-01,3.246357943888506653e-02,3.173065797169740132e-01,4.965479850116061300e-02,1.563358306884765625e+00
1.906223275100810688e-01,-1.102930144797059864e+00,3.793927034745274152e-01,-7.299346924986334362e-02,3.460502781932029981e-01,8.077038929423306646e-02,1.532287359237670898e+00
-3.656569343797879540e-02,-9.694184080978597295e-01,7.280032977125364679e-01,1.136923181553649992e-02,2.036244468531870633e-01,-3.945444434106956666e-02,1.515736341476440430e+00
3.532612993218826880e-02,-2.135363386021564835e+00,1.895438499988636449e+00,-8.720160356493504572e-02,-3.140011614702951093e-01,-1.500684006527177108e-02,3.539620876312255859e+00
-5.802659026527062086e-02,-9.519414592893181704e-01,9.803764896231309534e-01,4.340176267006044114e-02,-8.086101881927779123e-03,-5.306399703310638039e-02,1.679256796836853027e+00
-5.397308839661032337e-02,-9.261125194520324344e-01,9.746173414772327792e-01,6.022570543578990160e-02,3.480670455923995550e-03,-3.998849129931486557e-02,1.652699232101440430e+00
-4.238857000089997495e-02,-8.990360356468350966e-01,8.529275475026075748e-01,2.928120201740068429e-02,6.555805355620229757e-02,7.436750261268834650e-02,1.527895092964172363e+00
-1.799530402382626404e-02,-8.614248513456328471e-01,7.733737370562194791e-01,3.778695902200156220e-02,8.525725192846650424e-02,9.409612527318107073e-03,1.425292253494262695e+00
-5.180742718128039659e-02,-9.127218547750263200e-01,1.029713952652084874e+00,2.484315521295033802e-01,5.374437818163394637e-02,-1.933997570385044898e-02,1.742670893669128418e+00
-2.808875672708778526e-02,-9.315018242031041229e-01,9.723255371322523377e-01,6.920378698413291729e-02,2.061610714877187139e-02,2.938875407337780341e-03,1.654218792915344238e+00
-5.155776731120392115e-02,-6.471516398097317824e-01,8.226435813460155622e-01,1.340638892593975506e-01,2.475657984795295169e-02,-9.329805085274021914e-02,1.312059640884399414e+00
-4.356588224699458473e-02,-1.047471130272708661e+00,1.073448527568953370e+00,-6.328132504688053703e-03,-3.230505480991329934e-03,-7.697173877095802100e-03,1.837730288505554199e+00
-4.728097899573537738e-02,-9.037283791473795791e-01,9.252073278234950182e-01,3.593112727872584816e-02,1.782969057100037419e-02,1.282340656193755235e-03,1.586490631103515625e+00
-3.300044573636064238e-02,-9.771129380917190632e-01,9.131117864673475859e-01,8.206984998584238369e-03,5.369594345918432543e-02,2.055853938705332062e-02,1.640071034431457520e+00
2.862596910562404187e-02,-9.798165778168933526e-01,9.657777338394232247e-01,7.976721968231992310e-02,1.948555665812414656e-02,2.425142765253958214e-03,1.691306829452514648e+00
-5.811441077432106389e-02,-8.571515290945304066e-01,9.026984911138524748e-01,3.514057891100547809e-02,5.843215489021605889e-03,-1.111709333663156267e-02,1.527587890625000000e+00
-3.865727124539715398e-02,-9.525424478218804669e-01,9.299778313401739771e-01,6.817970953818941818e-03,7.215071671533221376e-03,4.246756290014822889e-03,1.630647420883178711e+00
-7.403216469192114291e-02,-1.078339469319353761e+00,1.250400990533620194e+00,2.911547398371387013e-02,1.488644784865803330e-03,8.447471773775552806e-02,2.029002666473388672e+00
-3.244120938025067680e-02,-9.541965437432651242e-01,9.270837529336917182e-01,6.440595775948320919e-04,-1.428270698386299546e-02,1.223441164135084238e-03,1.629535555839538574e+00
1.745058782416050031e-02,-1.087749500577898987e+00,1.052785333682045410e+00,-4.238596691750338985e-02,1.711950203447555260e-02,-2.783668391175755583e-02,1.856402635574340820e+00
3.465490316355323425e-02,-9.886453152725017679e-01,1.005885986950390887e+00,-1.037371962419396665e-01,-2.542124090249983648e-02,3.955569615906436715e-02,1.738738298416137695e+00
-3.259602982374380786e-02,-9.978700845256490704e-01,9.667973362646810065e-01,1.845048182766834610e-03,1.913258445811825753e-03,2.012027299029852366e-04,1.701543688774108887e+00
2.676813219294725890e-02,-9.152654207352639570e-01,9.337520399727827769e-01,-3.996045810820061939e-02,-5.986583818948553251e-03,8.657922507691739530e-03,1.602990746498107910e+00
3.225279635720169208e-02,-9.055517572323226183e-01,9.220516207644755546e-01,-4.630976690810846563e-02,2.910166701457511489e-03,-2.924370902851137956e-03,1.584980010986328125e+00
3.411280689954080542e-02,-9.792813384257363918e-01,9.652510274541505897e-01,-4.272621871425009293e-02,-1.120673011782803881e-02,1.253824832736845883e-02,1.686392903327941895e+00
3.646873545999629318e-05,-7.628802963005184568e-01,8.833438517633683817e-01,-9.816051196976138815e-02,-9.716739565421186713e-04,-2.304835632770447888e-03,1.437041759490966797e+00
3.667866859306277705e-02,-9.606282798545275892e-01,9.411833273418269696e-01,-4.433676658975216345e-02,2.905209601164910563e-03,-2.485797599939056860e-03,1.649472594261169434e+00
2.228902448981986278e-02,-8.280983194688329441e-01,9.090169710291861049e-01,-1.050596689972105868e-01,2.727526023619214306e-03,7.198039957115943185e-04,1.515468120574951172e+00
-5.249217023992003295e-03,-9.536618288469999039e-01,8.117261057828062398e-01,5.042853571042026084e-03,-2.116803315197172269e-02,-1.340561127450067697e-02,1.530922770500183105e+00
-3.272071708118096112e-02,-9.371567807375013048e-01,8.983418405662186856e-01,6.155197206182414296e-03,1.090343647262821507e-02,3.271868757974666364e-03,1.589802265167236328e+00
-5.523203617133451426e-02,-1.037674023164518955e+00,1.046745324296046054e+00,-7.608171793930572704e-03,6.460320903296968773e-03,4.263569882153014738e-03,1.806247115135192871e+00
-7.406443268866218232e-02,-1.016053462395281048e+00,1.017595556143608082e+00,-1.300495827806060281e-02,5.763557705607812859e-02,-2.063024408553856825e-02,1.766110539436340332e+00
-8.147660960554006793e-02,-9.923921746849438952e-01,9.814347288061214813e-01,1.347499338067840698e-03,5.525760610774466119e-02,-8.408137264298117669e-03,1.713810920715332031e+00
-5.133309509542345606e-02,-1.006546670002983923e+00,1.008988891851775094e+00,-1.587923970210937830e-03,1.062112447982786062e-02,-1.236429778555454091e-03,1.746396303176879883e+00
-4.736747850344293076e-02,-8.825867299295366841e-01,9.083390959174296730e-01,-2.017190500005547685e-02,1.298827801691868761e-02,-1.000007238032856252e-02,1.552809596061706543e+00
-2.897377383406823589e-02,-9.461208188712821876e-01,9.138357161657013616e-01,-1.784406486767763089e-02,8.286587291926428983e-03,-1.831341929253383141e-02,1.611493349075317383e+00
-3.548800579524498400e-02,-9.724074208577775380e-01,9.615635514601869049e-01,-1.393165996206116759e-03,8.194305375622412332e-03,7.708269956238265885e-03,1.675252914428710938e+00
-2.863064686779634091e-02,-8.844294549961900787e-01,9.242648246179047122e-01,-5.006673076720578180e-02,1.559119175434291258e-04,4.461121997600173660e-03,1.569543838500976562e+00
-4.137889448549682270e-02,-9.640916412126188106e-01,9.612316790083442752e-01,4.626569346013565537e-03,1.754287929440932065e-02,1.263645113020884191e-02,1.668296933174133301e+00
-4.037131830822573986e-02,-1.030942022299967675e+00,1.016620537645226863e+00,-4.925381886604995180e-02,1.204284375682240227e-01,-1.239970394494189360e-02,1.787941694259643555e+00
-2.231572165796664314e-02,-1.007090230632217365e+00,9.537793769506925923e-01,-3.966636502242386342e-02,5.390590904065505756e-02,-6.134862868310948791e-02,1.705433964729309082e+00
-3.072462470691889741e-02,-1.038611369127244055e+00,1.043799900188875585e+00,-9.031184777460990812e-03,1.733989993610082769e-02,-4.900783436675947707e-03,1.804066658020019531e+00
2.660708465353797507e-04,-1.053759277671700412e+00,1.045282342659721309e+00,-3.064145153265278310e-02,-2.331525769191785443e-03,-9.044658319883528211e-03,1.818675518035888672e+00
-2.538177658176147405e-02,-1.040881622006282869e+00,1.097667602054537062e+00,5.907635794468672763e-02,1.391628925934007902e-02,2.632158929771761385e-02,1.856358170509338379e+00
-1.275587324349136686e-02,-9.624337601383693430e-01,9.557673831269529741e-01,-4.869521487714852104e-02,9.066048409125530491e-03,-1.639534123685842601e-03,1.663453936576843262e+00
-6.112531243206310860e-02,-7.556398352788634698e-01,8.983737161681301098e-01,-6.481239509818260969e-02,-3.830670876035112415e-02,6.216551849984755518e-02,1.448438048362731934e+00
4.512446326898220117e-03,-9.643455598763023273e-01,9.910596211377914466e-01,-3.649678285152949120e-02,-1.197870452847626596e-02,1.785426819423571385e-02,1.695042252540588379e+00
-3.822560625794223232e-02,-9.951654416225513833e-01,9.664150044502151093e-01,-8.929851466510340654e-05,-6.316958538109748180e-05,5.140888163077497394e-03,1.698969244956970215e+00
-5.573583684527910059e-03,-9.541026473770203298e-01,9.488661885641543892e-01,-2.044247074101296358e-02,-6.583431941174363103e-03,-1.636261009955496245e-03,1.648444175720214844e+00
-4.344057788669300479e-02,-9.041334371381647417e-01,9.145201336419589433e-01,-7.349887843335475499e-03,-6.449998868900164682e-03,-3.359912852552495582e-02,1.576916098594665527e+00
-2.167742837002840234e-02,-9.656636037594477084e-01,8.735669365381897311e-01,1.214746724345606987e-02,6.854399150889768297e-03,-1.053720257680875773e-02,1.593294501304626465e+00
-9.261797539726164541e-02,-9.968216037408746955e-01,1.182767714705047046e+00,1.141516107889681553e-01,1.876219290918856863e-01,7.847096884216163415e-02,1.939219474792480469e+00
-4.150319007546308947e-02,-9.984033109823755581e-01,9.508650453839889716e-01,2.262682790715250455e-03,2.808458839674641064e-02,7.891874692339065096e-04,1.688914775848388672e+00
-3.780125939198504537e-02,-1.013697951192730651e+00,9.223105734215170104e-01,1.858723420789048847e-03,6.296709149302492925e-02,-4.337031830837233845e-04,1.680197715759277344e+00
3.139384857649661631e-03,-1.011970176308397251e+00,8.214272853043326217e-01,-3.911708233393014489e-02,2.361571211265115211e-01,-1.225524352309358689e-01,1.657604455947875977e+00
-3.748083056272277780e-02,-9.235117604235330013e-01,9.280746864934590334e-01,-2.479342926989566709e-02,-1.134332800776272770e-02,2.160921381017634479e-02,1.605145215988159180e+00
-4.675504564547227487e-02,-9.798024824161464252e-01,9.479098408989954372e-01,3.218673418441374452e-03,2.786316386596034145e-02,-6.647754259818308004e-03,1.670478343963623047e+00
3.620399798322940232e-02,-1.084248194927516451e+00,7.655983959558761986e-01,-8.621953401255631755e-02,-2.430381237780639414e-01,-6.193711032906283609e-02,1.678002834320068359e+00
-4.907052895147354099e-02,-1.034098129059087823e+00,9.650135935662067510e-01,-1.793875926142912344e-02,-1.264087668108980489e-01,5.582530650588447829e-02,1.748084425926208496e+00
-2.728247038618102083e-02,-1.005011230498317421e+00,9.565096530476356884e-01,-2.270991007177410037e-02,-4.907131099201764157e-02,2.129849815465643861e-03,1.701313376426696777e+00
4.765799848640880909e-03,-1.545335544200957978e+00,1.442572941669964637e+00,6.388935399456148814e-04,4.475483951505757063e-01,1.299156188705729020e-01,2.711159229278564453e+00
-6.054867501089636339e-02,-1.154352429519365009e+00,1.202536050247719590e+00,-8.623971627733126311e-02,1.540379892273235629e-01,-6.858839137661179586e-02,2.069049119949340820e+00
-2.107144373686941075e-01,-1.599034602913600445e+00,1.879926634303481059e+00,-4.773493950257896579e-01,1.569158608531959764e-01,8.827287206806326558e-02,3.159354925155639648e+00
-5.104246558476938783e-02,-1.476623062353587645e+00,1.351962145166347717e+00,-4.516253279192123382e-01,2.282558981536696452e-01,-3.630262282699862897e-02,2.602489233016967773e+00
1.086545592198803201e-01,-1.397376074146624569e+00,8.641748916945457548e-01,-2.823152035339491356e-02,3.005012914520430178e-01,-1.742275507938280676e-01,2.083539247512817383e+00
-2.278371886878762659e-02,-1.076836880005892949e+00,9.854782533002619527e-01,-1.053607637592821195e-01,1.870875979869155159e-01,-3.448151231510981213e-02,1.825447082519531250e+00
-3.815213891451054579e-02,-1.156374313748411264e+00,1.077957207283717134e+00,-1.145674893905905961e-01,2.020703524024669295e-01,3.486841497313392796e-02,1.977296352386474609e+00
-1.676066494515472682e-02,-1.122284869532881313e+00,1.141165726789488577e+00,-2.950255987508641486e-01,3.842515708389317441e-01,4.921108053725618825e-02,2.134110212326049805e+00
-2.486010461158258064e-02,-9.074368718501187869e-01,9.114086008336044209e-01,5.504310699477098917e-02,2.654784703509969340e-02,-5.053477449803045083e-04,1.578947186470031738e+00
-3.305581433780090117e-02,-9.470737755873850361e-01,9.130621931639933964e-01,-1.799791281670318818e-03,-4.838299862207603823e-03,7.644699484993250230e-05,1.611029744148254395e+00
-2.664182152523277003e-02,-8.906371226468891011e-01,8.342024524870117475e-01,8.643503037134021849e-03,6.401071834587208909e-02,5.760770091496762724e-02,1.501258969306945801e+00
-1.232910188205375152e-02,-9.791753940936090972e-01,8.577508172439152201e-01,-9.277096808589299984e-03,1.025929578271229936e-02,-2.937448542917397510e-04,1.591740727424621582e+00
-3.512797349179196116e-02,-9.123902513800625780e-01,8.823781960117652590e-01,-1.419149499996417074e-03,3.801173332434420299e-04,-6.678204601987704561e-03,1.554490447044372559e+00
-3.080620802484577286e-02,-9.768964530429148363e-01,9.095759858630119155e-01,-8.030132334966206403e-03,-1.795206330077594309e-03,-6.394171331983338966e-03,1.633835196495056152e+00
-3.818671900944764497e-02,-9.945503043801061649e-01,9.681995314299114419e-01,1.606281949731074802e-03,-2.246262946446630875e-03,-7.683215448743321548e-04,1.699982523918151855e+00
-3.913679237366117503e-02,-8.563980855102083511e-01,8.909953793019252943e-01,4.689838445030046488e-02,6.842109201876854507e-03,-2.795253549548328432e-03,1.516570210456848145e+00
-5.466692260193703468e-02,-8.852817408838733471e-01,9.307852649913277432e-01,-1.136797273480825293e-02,-1.490128664388779348e-02,-3.491635532301181483e-02,1.576159715652465820e+00
-7.569088635666680609e-02,-9.230146528818871099e-01,9.319613364299305092e-01,2.529432408384821654e-02,-1.711660006926284464e-02,1.006381398648065195e-02,1.609419226646423340e+00
-3.414586416500815097e-02,-9.820254141784111601e-01,9.431421120300609306e-01,9.553217218659383267e-03,-6.010142217189133433e-03,-1.170895525363925202e-02,1.667546749114990234e+00
-8.067758740933067552e-02,-1.112207141125409748e+00,1.088622678111535791e+00,2.965210496077871211e-02,-2.177493024586042991e-01,-1.071959641799096266e-02,1.944919228553771973e+00
6.640340987755382479e-03,-9.109229530586238077e-01,9.521277770658866935e-01,-5.043204059675995138e-02,-6.587387093428005019e-03,3.787778720871150945e-02,1.617244005203247070e+00
1.485631208968981633e-02,-1.032668782332885282e+00,1.021053457902901807e+00,-5.021683300850093845e-02,1.531357875785435002e-02,-3.114748259605262110e-02,1.781835436820983887e+00
9.561293206700072211e-03,-8.472619173285217409e-01,9.514865893538343444e-01,-1.532469732323912814e-01,8.751226189052845397e-03,2.526750974980263974e-03,1.580865383148193359e+00
-5.050321812296665325e-02,-9.880178646494215400e-01,9.565305820915115387e-01,1.279346411594643133e-03,7.642875955966943555e-04,4.330362806111674734e-04,1.684389233589172363e+00
-2.116914240458949228e-02,-1.027506480712556458e+00,1.012764164538623834e+00,-3.999372422132149718e-02,-3.487117535967380194e-02,2.045921578666087814e-02,1.769723415374755859e+00
2.402750252960044602e-02,-9.475896823886553744e-01,9.595125673675697353e-01,-5.289388923272017595e-02,1.831451168073967937e-03,1.951404820212346292e-03,1.654243111610412598e+00
-1.955714434173650047e-03,-9.675931751958316562e-01,9.855501113797727752e-01,-8.389318909363582821e-02,2.525820899339323300e-02,-4.299749033306796836e-02,1.699932575225830078e+00
-2.704326253537196745e-02,-9.703416130074409285e-01,9.032294820952571079e-01,2.247470611509519184e-04,-1.153962431929109189e-02,7.958369960791919842e-03,1.622754931449890137e+00
-2.646647310224509164e-02,-9.582435323691719242e-01,1.084308391575405484e+00,-1.018424855542146568e-01,-6.465248880599573644e-02,1.305289453559960351e-02,1.783589243888854980e+00
-3.854630709565694952e-02,-9.952476568734632822e-01,9.663020207584812615e-01,1.106365735949546445e-04,1.053551244541748189e-03,4.241264913207448695e-03,1.698939323425292969e+00
-2.095791841210473128e-02,-1.000010050539997586e+00,9.291800428351738583e-01,-2.407297433911659290e-02,5.134626182649387055e-02,4.502463764254932728e-04,1.673675060272216797e+00
-7.362662417345185173e-02,-1.019483831123582762e+00,1.106388823259656151e+00,-3.264873782232816102e-02,1.536016333171811299e-01,-9.150972559356781999e-02,1.871445655822753906e+00
-5.821500164427058366e-02,-1.023144730096349209e+00,9.511014464786669009e-01,1.922492323224907164e-03,3.932029666875908741e-02,-3.136387322683755179e-03,1.711259007453918457e+00
-2.012161067400018710e-02,-9.756211434492532142e-01,8.306754647768297417e-01,-3.387936401434363254e-02,1.472006303326832688e-01,-1.647699332551055829e-02,1.587146282196044922e+00
-8.934640134513241461e-03,-1.051557224796860535e+00,8.439077911627355100e-01,-3.307186465826001537e-02,1.521128895395250646e-01,2.595633518386640873e-02,1.666826963424682617e+00
-2.777256310718592691e-02,-9.510739545978001974e-01,7.804857539031316849e-01,9.546891562656516922e-03,1.072317579800296794e-01,-2.218058994245296692e-02,1.512705683708190918e+00
2.004246923578104078e-03,-1.094035128200797624e+00,8.829511002909661288e-01,1.034138090845206125e-03,1.931219129309974802e-01,1.963298710623271465e-02,1.748133301734924316e+00
-3.423603951302645748e-02,-1.025195417104959095e+00,8.125501988668398790e-01,5.388544218763771307e-03,1.377711128010348229e-01,1.370637470209515665e-02,1.611139774322509766e+00
-1.545641157567024804e-01,-3.412139049322745477e-01,7.029528428103209992e-01,-1.624866791408491606e-01,-8.007007957487201344e-02,-1.941407275008920352e-01,1.068522453308105469e+00
-2.147907023422199746e-01,-4.045605947140218372e-01,9.769286682630790031e-01,-1.400509583831778884e-02,1.253141244011501433e-02,-9.686694773443528528e-02,1.308269619941711426e+00
-2.029288912357197494e-01,-4.482239603872830713e-01,9.919783611529775502e-01,-9.882632631628901487e-02,-3.181809133614091345e-02,-1.026152613466533581e-01,1.358309507369995117e+00
-1.004449743141402340e-01,-7.013128687133806105e-01,9.180010754784843074e-01,-9.681872545225876647e-02,3.049700878443017266e-02,-1.023582195126775951e-01,1.439642190933227539e+00
-1.102145731746176083e-01,-5.462325409252991593e-01,9.535297947042120636e-01,-1.032095756949022169e-01,6.580292082359928685e-02,-5.354695710561552940e-02,1.356106162071228027e+00
-1.810653330071110845e-01,-3.567944516053311310e-01,8.266670707096892556e-01,-1.557788957528923324e-01,1.442476224443399804e-02,-2.194538401743996794e-02,1.139457583427429199e+00
-1.475554530887016602e-01,-5.345788896211749464e-01,9.102424342360004861e-01,-9.335241331224194972e-02,-1.027882923933490754e-02,-8.547496052322576740e-03,1.305678486824035645e+00
-1.372711654672682802e-01,-5.404300596324719264e-01,8.739296494409417582e-01,-3.816308726833449877e-02,1.946537582262528737e-02,-6.626937036019096838e-02,1.269417047500610352e+00
-8.769499068760222560e-02,-5.081539279501146034e-01,7.799043932487799147e-01,-1.069400603165848868e-01,4.066195489598725676e-02,-5.155403768882754756e-02,1.158251523971557617e+00
-4.174150968752530361e-02,-9.609591913955725095e-01,9.251611863922717394e-01,1.671157830434219158e-02,8.199976477341448799e-03,1.614234827857714133e-02,1.634159564971923828e+00
1.782774588793712561e-02,-9.833421722848056934e-01,9.655903874445616042e-01,-4.528296568267991921e-04,1.296650337503687384e-02,1.345165242994597046e-03,1.688187479972839355e+00
2.869002059436572341e-02,-9.959149448778261693e-01,9.670359924096399995e-01,-3.556331682536227612e-02,6.026794529121137778e-03,-3.533357693404303151e-04,1.701659798622131348e+00
-1.628340428081710006e-02,-9.979058785220562555e-01,9.998119922868144993e-01,-3.149291431921810713e-02,1.272511420611587007e-02,-2.867718189956356550e-02,1.731872677803039551e+00
-7.592311137885981304e-03,-1.003257161589593327e+00,9.814431098156726208e-01,3.797232360071867933e-03,3.695473438337025865e-03,6.786049836641423402e-03,1.718868732452392578e+00
-3.508497389781665282e-02,-1.002311675243910738e+00,9.808824854993302145e-01,8.632153431061530269e-03,5.113256669801962209e-03,6.344753919464538212e-03,1.717792510986328125e+00
-4.135701538088205204e-02,-8.866973140472292902e-01,9.580149386579820403e-01,-7.672703812258235834e-02,-7.073205341744312480e-03,2.630705609941686243e-02,1.605628013610839844e+00
-6.840067731589113964e-02,-9.365875008317499084e-01,9.917908518208553570e-01,7.940578743253308425e-02,-8.296937108720005977e-03,1.000819001453199381e-02,1.678577303886413574e+00
-9.398859779882327847e-03,-8.398269282583041839e-01,9.269122150020905337e-01,7.148426343118281789e-02,-2.064583705375700601e-03,-1.730241652394975049e-03,1.535962224006652832e+00
2.637813112307321566e-03,-9.623439684786336823e-01,9.804726151431093495e-01,1.300333573397586817e-01,-9.803563516716668966e-03,-8.384933372578680377e-02,1.703833937644958496e+00
-2.905933440571149828e-02,-1.044773634570470788e+00,1.016407102919457905e+00,1.450791744127924096e-02,-2.053267951755747070e-02,-3.290990666818711247e-02,1.786537528038024902e+00
-4.405066398302392994e-02,-8.504739362616077214e-01,9.428088835193311201e-01,3.973956258034466726e-02,-1.557446713229592751e-02,-4.453865893751712823e-02,1.559311747550964355e+00
-4.450930601739638837e-02,-6.725502087713105537e-01,9.477023737312992857e-01,1.819487670379527910e-01,3.922352976522109486e-02,5.454127222382121332e-02,1.454278111457824707e+00
1.954918372923472591e-02,-9.642559987632333129e-01,6.779569692123794677e-01,1.381421911732829376e-02,1.177412786432561198e-01,-1.381811569057661906e-02,1.446323871612548828e+00
7.035740624904074370e-02,-9.466242303718648277e-01,5.566287826420713847e-01,5.564689955150844969e-03,1.333475382810535570e-01,1.130263785995947769e-02,1.348725795745849609e+00
3.468380327485692805e-02,-9.824116036024961307e-01,6.876023809422424637e-01,-1.346787458347409490e-02,1.420002589597713638e-01,-1.615918475196127455e-02,1.478744745254516602e+00
-1.498190377234889098e-02,-9.895614427789894973e-01,8.358331146691720948e-01,-1.349961128739590212e-02,9.437923729765837488e-02,7.064232677163129193e-02,1.595342755317687988e+00
5.448255050686497125e-02,-9.627373128670504432e-01,6.655417202424704914e-01,-1.579086730101635083e-02,6.560146612146026956e-02,-5.809814110174846627e-03,1.429500341415405273e+00
-1.780033130420354687e-02,-9.773161613744537624e-01,9.495370501781038586e-01,-1.188178324553764917e-02,-1.840532120866811630e-02,6.464089035668899377e-03,1.669177293777465820e+00
-4.489687770238476316e-03,-1.127534395392466582e+00,9.677177979986155698e-01,9.137570917197068709e-02,7.808505682140999549e-02,-6.195919878833573702e-02,1.831148982048034668e+00
1.052441788712407678e-02,-9.754196252137031786e-01,6.694622813413755313e-01,6.060191341099118063e-03,1.573690935981088834e-01,-5.220852583291373319e-03,1.459605336189270020e+00
5.934186737335200856e-03,-9.865258276403363613e-01,6.965722971038054157e-01,2.769234722368254381e-03,1.582725811317395592e-01,1.289513922623096269e-02,1.490993261337280273e+00
9.600862633934714729e-02,-9.197776514995917863e-01,4.441005534235442642e-01,-7.084045075801174117e-03,-9.666690867681072830e-02,-7.741449059523354201e-03,1.238927125930786133e+00
5.189122371338855677e-02,-9.843577863353556445e-01,6.938876168877734507e-01,-1.857334093056768609e-02,-8.428864630136830016e-02,-7.293309007906439989e-02,1.479711413383483887e+00
-5.986362107643791730e-03,-9.608988551134880485e-01,7.482802639327100769e-01,2.760821631967865994e-02,-1.672437977733267633e-01,-2.207407169210660880e-02,1.512843251228332520e+00
-4.472420119922607129e-02,-1.000211387746584135e+00,8.528927867488299563e-01,3.992463911959139196e-03,-1.523671924435031355e-01,1.983889953972745729e-02,1.627024650573730469e+00
-4.646690455758822891e-02,-9.945828274898027566e-01,9.701844101891168304e-01,9.073374235238976238e-03,-1.090667914139215218e-02,1.281137569495954115e-02,1.702205419540405273e+00
-4.500874938190142088e-02,-9.919161911989012870e-01,9.582879588300282636e-01,8.962289315743970919e-03,-7.207370502750665153e-03,1.398879465418934390e-02,1.689452886581420898e+00
-2.306142918384114157e-02,-9.990643799329056440e-01,9.588992535868169353e-01,-9.087314415376411200e-03,-3.201167809201271950e-03,-5.383123048203449119e-03,1.695756554603576660e+00
-2.600334448862278575e-02,-1.015197673728488681e+00,1.016292752829311530e+00,-1.730098987151138662e-02,-1.746370014388879538e-02,7.918249847662680099e-03,1.760091185569763184e+00
-2.001772643984717562e-02,-1.182788688879201633e+00,1.199861838541100179e+00,-7.771725143621249776e-02,-6.167266713369317505e-02,7.217234341701922289e-03,2.070813894271850586e+00
-8.600229536872934510e-02,-1.245788974523557302e+00,1.241284778764667474e+00,-4.724035942675034946e-03,-1.173929096945382500e-01,-1.952653215608818674e-02,2.165345191955566406e+00
-1.021081165070349128e-01,-1.157063100992987925e+00,1.209447628794591001e+00,-1.639576647270144395e-03,-1.000756445196319955e-01,-5.817461383075673426e-02,2.063236951828002930e+00
-5.565565772686151269e-02,-1.012474347100661420e+00,9.211361308525340963e-01,-1.150660030682879725e-02,-9.119490655109464827e-02,-3.216756312701789244e-02,1.683059096336364746e+00
-6.294612659753523465e-02,-1.048151019268592332e+00,9.369881979272509653e-01,-1.348434552473734647e-03,-1.184933065184363282e-01,-6.522686298666006618e-03,1.731442332267761230e+00
-8.193709578103902658e-02,-1.027327886125585676e+00,9.956507624849474380e-01,1.419747931451618289e-02,-9.811369699830721491e-02,2.492560673109951372e-02,1.762114763259887695e+00
-2.798507289624191374e-02,-1.152854223385850307e+00,9.514588860301854689e-01,-3.917124880817402649e-02,-1.653007281433695463e-01,-3.283185473321618975e-03,1.847429513931274414e+00
-9.103145047425577341e-02,-1.016039441905232321e+00,1.114569289874488778e+00,2.980845845155915760e-02,-1.367436173929625354e-01,-8.155069753061770788e-02,1.871634840965270996e+00
-2.777476243790803073e-02,-1.001817204488325341e+00,8.808578938448933249e-01,3.453168615106345929e-02,1.225637360700479322e-01,-1.609989956574453193e-02,1.645855188369750977e+00
2.836028605137694281e-03,-1.199721245700648753e+00,9.205591660895561246e-01,2.097521710772850406e-02,1.294242456598432012e-01,9.732901641738922471e-02,1.863320946693420410e+00
-7.743782482527578059e-04,-9.904914060190767033e-01,8.151432321761890032e-01,7.846981764223281280e-03,1.309223231544846544e-01,5.127547765879792580e-02,1.585018277168273926e+00
-5.117308262282297543e-02,-9.175385780213650699e-01,9.429636544437752788e-01,3.231984988341597698e-02,3.539283419458448933e-04,2.644619600770551499e-02,1.614129781723022461e+00
-4.849448051059514209e-02,-1.006764450364902697e+00,7.986995084068291284e-01,1.283316996862960899e-02,2.224753937821388472e-01,-1.095848941307907796e-02,1.611582994461059570e+00
3.252330864025812507e-02,-1.070330423282943144e+00,7.348670089187933074e-01,-3.004973862702626022e-02,2.211071505907072354e-01,4.873373057571484673e-02,1.625009059906005859e+00
-1.191561441370306285e-02,-9.947338283635238643e-01,9.630364973465319611e-01,-8.719519785054367228e-03,1.530936876305277750e-02,-7.889500115641458894e-03,1.695813059806823730e+00
1.457028399063077691e-03,-9.534598451887381643e-01,9.465978211771147732e-01,-1.289894986446398287e-02,1.074473802975313939e-02,2.874696330081199722e-03,1.645769834518432617e+00
-1.809920452707006189e-02,-9.515524542690358967e-01,9.364564856771401269e-01,-4.967746491059508301e-02,5.233663772285937835e-03,-4.224225735575758145e-02,1.639019131660461426e+00
-1.850134697137433004e-02,-9.618706787584010431e-01,9.521637255950921030e-01,-1.926804454159517996e-02,1.719701250002038384e-02,-7.929239387169438255e-03,1.658318877220153809e+00
-2.129341791779695153e-02,-9.756648734077369989e-01,9.650632378817709522e-01,-1.324119421165859643e-02,-1.438295034135535222e-02,1.645895793441137095e-02,1.681378722190856934e+00
1.679591906084756947e-03,-1.004690582309722968e+00,8.543437762306498318e-01,-8.466133071910880714e-03,-6.321151156263511359e-03,1.489134461645593745e-02,1.612114429473876953e+00
3.325817766921063817e-02,-1.024768359763448489e+00,8.193971042400240989e-01,-1.091336881016984894e-01,-6.290156483693792877e-02,-3.714039310276857214e-02,1.618928313255310059e+00
1.706527496671171595e-02,-9.850824193165066411e-01,7.324362117209762824e-01,3.508647030835684855e-03,-1.272111510072532758e-01,8.812464213060315632e-02,1.518171787261962891e+00
3.630299546199045047e-02,-9.571857951665290187e-01,6.733611003886988966e-01,2.960939824732797959e-02,-7.535609717393676465e-02,9.064798588763228748e-02,1.438780784606933594e+00
4.756643331795562535e-02,-9.934813791026759766e-01,6.125079392152834590e-01,2.552548539482984297e-03,-2.075274754618104678e-01,-7.451701897965954877e-03,1.456179857254028320e+00
-3.327002097212946458e-02,-9.890549909235002435e-01,8.293050852404050266e-01,3.927698201039723364e-03,-1.497948903820292554e-01,2.827594651116709795e-02,1.597422122955322266e+00
-3.545701442683373006e-02,-9.563314837137625313e-01,8.450052470576602248e-01,2.813053900890006079e-03,-5.460959960534457480e-02,2.525737867529684062e-03,1.563012599945068359e+00
-1.096260964030040808e-02,-1.051425433345651639e+00,8.366108481261460561e-01,-2.570028319321294476e-03,-1.453270085989293858e-01,-2.163957279717328500e-02,1.657587647438049316e+00
7.056145367271636493e-03,-9.567375045315622550e-01,7.750256936037243083e-01,-9.880947399586385849e-02,-1.334089179242609613e-01,-2.049400110080796047e-02,1.530615329742431641e+00
1.268615274323350861e-02,-9.877885082961848084e-01,8.034088682125981595e-01,1.078518496956623607e-02,-1.127593813528461192e-01,5.499011178103146991e-02,1.569985628128051758e+00
-4.099837386823118601e-02,-1.036926843147099264e+00,9.128749576343549998e-01,-4.694250930974279727e-04,-1.714413011110208773e-01,4.746259630282854969e-02,1.716587424278259277e+00
-1.996290989653942000e-02,-9.797303256438003594e-01,9.562768609457887869e-01,1.871074871168991894e-03,1.297093228903940104e-02,2.554912847071949371e-03,1.676811099052429199e+00
9.166463256763637824e-03,-1.132794145251982743e+00,9.663737607548658071e-01,-1.095416748017860320e-01,-1.658214218749489988e-01,6.892878607579273204e-03,1.852577567100524902e+00
3.037319524964998685e-04,-9.329487649134737826e-01,7.826747798247516430e-01,-7.973903136068949404e-02,-1.366534006330592799e-01,-5.668716023008897598e-02,1.515899777412414551e+00
-5.332262773118533888e-02,-6.393979770113765726e-01,8.789049102058692498e-01,-1.399487708983923329e-01,4.030930318827331132e-03,4.379121968659738066e-03,1.348240137100219727e+00
-5.161469190075255314e-02,-7.143845225528538956e-01,9.048170171854407196e-01,-6.911104087119845918e-02,-9.782849912931112363e-04,2.348229070826267362e-02,1.415593743324279785e+00
-1.354987820861842107e-01,-5.700481475802799958e-01,9.816963789409788310e-01,-2.328529698835788420e-01,-1.273041195682189826e-02,4.855244712787942091e-02,1.446600914001464844e+00
-1.036678068414604442e-01,-6.762327972186424896e-01,9.014262495098215311e-01,-1.004693893101399338e-02,-2.016653151568253283e-02,4.960727266853659501e-02,1.386517882347106934e+00
-1.481754719661430852e-01,-5.757034163510388325e-01,8.816827469212504820e-01,-6.889649162430287743e-02,-1.868732422506305321e-02,4.183647836279330567e-02,1.305457711219787598e+00
-1.388063719650995398e-01,-3.963061072689246234e-01,8.226117563075923123e-01,-1.019518575657291926e-01,-1.988858048568368717e-02,5.554358530616243517e-02,1.131291389465332031e+00
-1.698831635241199733e-01,-4.640435552972814737e-01,9.383960942896527602e-01,-9.920198962066154036e-02,1.756948199339884373e-02,-6.438516284118239730e-02,1.297578811645507812e+00
-1.374548089745764728e-02,-9.417699243250784447e-01,8.302628343225371133e-01,-6.008524003661398771e-03,3.316392524618303611e-02,-3.159903927727578284e-03,1.536319494247436523e+00
-1.837498850543702045e-02,-9.545150817967120727e-01,8.256521064444359848e-01,4.692549508140870379e-03,-4.491524154846149308e-02,8.354775057322546064e-03,1.544407725334167480e+00
-2.320232017038633549e-02,-9.738478270936945513e-01,8.947563822575335113e-01,4.419481313713101781e-03,2.915059081054056228e-02,-2.192979627599639034e-02,1.619592189788818359e+00
1.096187699312300458e-02,-9.632739023914638210e-01,9.627499237514403063e-01,-3.527754460011712362e-02,-2.578606508281557248e-03,3.883702202095691471e-03,1.669161677360534668e+00
-1.466201650286957751e-02,-8.813616267142426741e-01,8.436417039478224522e-01,6.248574151503644147e-02,-4.503148203163537255e-02,-1.884553571736204136e-02,1.500202417373657227e+00
-6.395134914144164073e-02,-9.064086831020331525e-01,9.250268213327768052e-01,5.158575428499062067e-03,1.151583104894136206e-02,2.950341326920187524e-02,1.588733196258544922e+00
-2.280180890626303664e-02,-9.938649340158783874e-01,9.690331308605492078e-01,2.864464728567199785e-03,-9.988950029702426195e-03,-3.004551887294117790e-03,1.700054526329040527e+00
-8.345099270740620467e-02,-7.965073473893660161e-01,8.756809716322603299e-01,7.001588956007113312e-03,4.838876037916191655e-03,4.743840700980256342e-02,1.455770254135131836e+00
-7.551567142532300547e-02,-7.667578235961849398e-01,7.654736266138318923e-01,3.461707801505310017e-02,-5.766649976642863884e-02,8.288918162850436588e-02,1.341860294342041016e+00
-4.849876189628722634e-02,-9.284604190577233629e-01,8.998674593822927337e-01,-1.008913547657845026e-03,-5.316754663574129597e-03,-9.332044710041349778e-03,1.583858013153076172e+00
3.320896735223846045e-03,-9.550445541987684361e-01,9.449320840621666662e-01,1.807190680152132023e-02,5.684434926507367716e-03,3.035943756852066519e-04,1.645776629447937012e+00
-5.382307650093227230e-02,-9.888104943377691303e-01,9.646066299498347041e-01,5.888871436581807547e-03,1.855752023131018703e-04,-9.040411544260567103e-03,1.692326426506042480e+00
-3.989798142626441863e-02,-9.585062686920811093e-01,9.607572495333164264e-01,1.046048020232739212e-02,-1.288147162417430103e-02,-2.441734850188331807e-02,1.663423299789428711e+00
-3.745548729890406381e-03,-7.882266751816116024e-01,8.939769977534596235e-01,9.385170485951027652e-02,4.209797032134624320e-03,-1.067644051657424837e-03,1.466984629631042480e+00
3.295331775355356610e-03,-9.625201931757233487e-01,9.480352780481283714e-01,3.405908500503165848e-02,1.272592033987189272e-02,-1.472413157999463880e-03,1.655823111534118652e+00
-3.926865976062644814e-02,-6.929615804187673200e-01,9.493074841190369817e-01,2.479993611490250993e-01,-1.941721860870684532e-02,-9.325299756986746291e-02,1.504178524017333984e+00
-7.023054787247887121e-02,-5.850439497986931192e-01,1.046751140430501437e+00,2.215790301977212384e-01,-1.616144826159064685e-02,-7.429175837060014720e-02,1.500783562660217285e+00
6.697868906309335790e-03,-9.930913507965658527e-01,1.033528267512612508e+00,7.477529386698754388e-02,1.214537000903365832e-02,1.220533926795424468e-02,1.760180830955505371e+00
3.206252434959702691e-02,-9.456215522234225901e-01,9.387309763118308892e-01,3.539741962253500906e-02,2.064324633985220592e-02,2.660896566342102476e-02,1.634475588798522949e+00
-2.483277578469136535e-02,-9.239306724505548241e-01,9.243553491740419403e-01,-2.384336242354157323e-02,-1.129338483321657045e-02,2.135872297380884272e-02,1.601937890052795410e+00
1.054064392386208984e-02,-9.170585608518591059e-01,9.493817619975928324e-01,6.661907929514158944e-02,-1.474706599164553799e-03,-1.595054129732049585e-03,1.620512127876281738e+00
3.422857696250309473e-02,-1.174995973759791923e+00,1.101864059429215281e+00,1.013105154939637348e-01,5.630377053967776206e-03,1.211761832823119583e-02,1.981011748313903809e+00
-6.282882843218519364e-02,-9.769180504912077234e-01,9.436889277196868209e-01,6.964549741942636669e-04,3.778303347439742558e-03,1.119995670933589000e-03,1.663950800895690918e+00
3.324268747874162266e-02,-9.422618560378264174e-01,6.874405121359408177e-01,1.488437907702311151e-02,-8.873985043826132513e-02,1.507685274152896319e-02,1.429240226745605469e+00
-4.816387449368465801e-02,-9.785450132312915050e-01,9.359191672187198163e-01,5.253013409750194665e-03,3.153314810708974375e-02,-1.797804008634861297e-02,1.659408450126647949e+00
-7.369965422553394208e-03,-9.865381926369488630e-01,8.542217476605591386e-01,1.744044379028417482e-02,-2.684837980793682716e-02,4.761090671696197735e-02,1.598320841789245605e+00
-3.675177189909132475e-02,-9.974183212199443371e-01,8.163265253522584697e-01,-1.006806203334314684e-02,-2.727279525234436175e-01,2.276953782296565337e-02,1.641690492630004883e+00
6.984677881567907809e-02,-9.652239878001362960e-01,5.494806556015450205e-01,1.008145519762506173e-02,-1.184068162220056203e-01,3.564704126384987681e-02,1.357959032058715820e+00
-2.006573614174206321e-02,-1.176303031500316454e+00,9.595819168230481644e-01,-2.376814881203563254e-02,-1.215711877877093811e-01,-3.991072064565553273e-02,1.865505695343017578e+00
-5.215985048460757001e-02,-9.920146340192826928e-01,9.307269811521746705e-01,-2.746808492119061536e-03,-7.612216054241636998e-02,1.466915948860268628e-03,1.670502066612243652e+00
-4.397569029029130272e-02,-9.972112101649466265e-01,8.525720897423310074e-01,1.455536503492807672e-02,-1.119092396859227428e-01,3.751600241040716627e-02,1.615396499633789062e+00
-2.979581871623332087e-02,-7.880738997596804518e-01,6.827756715829748080e-01,6.695586515515929149e-02,-6.337530175014191580e-02,2.225718190537042673e-01,1.340591073036193848e+00
6.363330844774942041e-02,-1.036706403768040907e+00,7.149858228671913674e-01,8.601430470053369678e-03,1.435580693715677036e-01,-1.222976991668285468e-01,1.568003654479980469e+00
3.314012389261158237e-02,-9.802639563644707232e-01,7.977573906512015478e-01,4.092568766453625814e-03,5.430433572153191973e-02,-4.551326784073321530e-03,1.547725081443786621e+00
-1.624071270366117190e-02,-8.532590481512901670e-01,7.550720664780783409e-01,-2.805257746310710343e-02,2.684605983098102902e-02,5.869252109280909124e-03,1.394902229309082031e+00
-2.444932909650606237e-02,-9.525694272967265563e-01,8.832591098582841527e-01,-2.351648648412204071e-02,6.397611423273286135e-02,-7.541968678759516931e-02,1.599626898765563965e+00
6.621286906901349689e-02,-9.471538146299750549e-01,6.365533224020052394e-01,-8.245411124263062747e-03,5.442030399515030564e-02,-6.954694473637826335e-02,1.397770881652832031e+00
-1.111060670523244254e-01,-5.328421996365984015e-01,9.767641750208367890e-01,-2.409794464431771199e-01,-1.184064276251982697e-02,6.471341138873913656e-02,1.416797280311584473e+00
-2.303318980088359391e-01,-8.891469228247733669e-01,1.585498875561778043e+00,-3.617094416316929961e-01,1.169280164439308323e-01,8.112419323783249397e-03,2.315446138381958008e+00
-1.104555761924715940e-01,-8.522899269002321976e-01,1.098420664956410997e+00,-2.242967491087320131e-01,-3.497181678080998890e-02,-2.578602986680549741e-02,1.750736117362976074e+00
-5.887603452248262037e-02,-9.416287280999251497e-01,1.104740581106956165e+00,-2.914560353439299978e-01,-5.340099713596439812e-03,2.264121684815517330e-02,1.848487257957458496e+00
1.975118492822428365e-03,-9.853743803461063600e-01,9.985560617968294306e-01,-4.682215845665176068e-02,-8.828538892798887261e-03,2.425713823056002694e-02,1.720634222030639648e+00
-3.182450734346839449e-02,-1.034269457604142017e+00,1.017313310087601952e+00,-2.125122478015887520e-04,5.083434420267649197e-03,-1.131423706356554735e-03,1.776899099349975586e+00
-8.455795268547165733e-03,-8.769659341800234431e-01,1.059130111620925518e+00,-1.458396909334866431e-01,-1.310473328301278023e-02,-8.449923477431914992e-03,1.698763012886047363e+00
-4.792996929828569064e-03,-9.971958132915195172e-01,8.265595941769943167e-01,-1.618665455061440994e-02,-3.147652013831388207e-02,-4.329355741128027707e-02,1.584433197975158691e+00
8.786773654760529628e-02,-9.651105614699009294e-01,5.650562942658475807e-01,-1.550886494204419680e-02,-9.949399915227505331e-02,-8.929811532627350557e-02,1.375966072082519531e+00
1.063463475085362486e-01,-9.108036383695471416e-01,4.507128851066508624e-01,-1.659183020839351784e-03,-5.396881419207266023e-02,-2.798240197658501127e-02,1.230670571327209473e+00
-1.644287916833280655e-02,-9.599970581215414578e-01,8.683186982965864775e-01,-1.216994652021066887e-02,-8.360803009928080912e-03,-2.928398270433611728e-02,1.584659218788146973e+00
-3.119568365910575791e-02,-1.013817877191299566e+00,9.630167042128989774e-01,1.065239189286533265e-02,-2.830603854789949178e-02,4.250563341265344713e-03,1.712815880775451660e+00
-2.042501104485429375e-03,-8.745113543885852936e-01,7.640618158488968747e-01,1.882234117366680948e-02,-7.146328287669202750e-02,-2.277147858852337711e-02,1.426344752311706543e+00
6.178013421541325711e-02,-1.008409441700998110e+00,6.074687126608423471e-01,-3.617771515354185896e-02,-1.947732327747115910e-01,-5.407006074132948009e-02,1.467507719993591309e+00
-7.312781799387185755e-02,-1.688902604933290030e+00,1.548871923245702220e+00,4.276117146145308467e-01,1.074083279870858554e-01,1.747799571606668267e-01,2.921849966049194336e+00
-1.344338802098027363e-01,-6.058896319511235529e-01,9.819794520606164312e-01,-1.066540985535114200e-01,-2.541740319269525372e-02,-7.789448744719390527e-02,1.431521892547607422e+00
-1.820438366757405335e-01,-1.020816203850881676e+00,1.306835462643859191e+00,5.210911990254398773e-01,1.499501844366917316e-02,1.151610493913931554e-01,2.241472721099853516e+00
-1.934200604023011971e-02,-1.146195660964244745e+00,1.182879468083613439e+00,1.561021216476038420e-01,1.029888599799508829e-02,-1.010417891347685088e-01,2.043015718460083008e+00
-8.743858153660223620e-02,-1.056120445462741086e+00,1.300368277052342814e+00,2.287757651034414974e-01,-1.065784113801622052e-01,-5.103741179343396217e-02,2.099428892135620117e+00
-4.056764353496399717e-02,-1.231506636547995415e+00,1.333136025326435714e+00,1.414122769366310817e-01,6.222044083515450123e-03,4.372657191246083486e-02,2.237686157226562500e+00
5.147336569418455715e-03,-1.219150602170216313e+00,1.167013198911111882e+00,1.426927612579690086e-01,-2.174045938289655144e-02,-3.698424365639749190e-02,2.082765579223632812e+00
-1.495586660109596844e-01,-3.800493033588714931e-01,8.385501172657180424e-01,-1.675342212238011552e-01,8.652152451143112211e-03,-4.068050802537517135e-02,1.160442709922790527e+00
-8.704450744892146263e-02,-7.150311678852273589e-01,8.109408086293622420e-01,4.980134286863202586e-02,1.066550991212060658e-02,1.720812913329446137e-02,1.331667304039001465e+00
5.292166778582095554e-02,-9.411846308145506157e-01,6.302720845089055945e-01,-2.203519176109632396e-02,-8.534221404197112060e-02,-1.534201272545491768e-01,1.410477995872497559e+00
-1.181724441191089880e-02,-9.877782408758897237e-01,8.616325516699423481e-01,1.802886128779933664e-02,-3.498384386938704904e-02,-4.357024435435592757e-02,1.605680227279663086e+00
-8.334867461132335065e-02,-1.051735141026709286e+00,1.062447018173708013e+00,1.543464274545422107e-02,6.163849690539749404e-02,-1.623562135084681557e-02,1.836599230766296387e+00
-5.158437759296920222e-02,-1.064059959429355384e+00,1.094882482530237677e+00,-9.641191222248945286e-03,3.432446523627673274e-02,-7.361446462925073063e-03,1.871961236000061035e+00
-7.351715251019570740e-02,-1.071996442926723470e+00,1.107146390359836641e+00,1.664335608345738834e-02,3.562039819796241485e-02,-1.335237038716519326e-03,1.890618443489074707e+00
-7.439831430708906956e-02,-1.434979956638684495e+00,1.456355701082505227e+00,-3.253377313168034912e-02,-1.035559885703739823e-02,-4.057398885197031901e-02,2.507098197937011719e+00
-6.330642430193159087e-02,-1.133482368283258435e+00,1.103385360462698639e+00,-3.611790412121913818e-02,6.370241371885565496e-02,2.876981583647742619e-02,1.942571043968200684e+00
-6.852483564849617959e-02,-1.134133987958825029e+00,1.143448634548876797e+00,-2.716129986387868372e-02,4.698062345006728813e-02,4.933359324912761634e-03,1.976056814193725586e+00
-8.275374158387981127e-02,-1.334208433664065385e+00,1.406499018158010372e+00,-2.266643711882246337e-02,-1.472099612818159216e-02,1.225059570392038680e-02,2.377054214477539062e+00
-5.189484209510562135e-02,-1.276747886895442941e+00,1.207220693898029218e+00,-3.990000510523679378e-02,1.732776221202768641e-01,-8.115147433161749163e-03,2.173227310180664062e+00
-1.024114208447140656e-01,-1.192924461562056226e+00,1.345933924291241590e+00,-2.216276700858121548e-02,-1.940385000244656752e-02,3.715807236817480347e-03,2.206582546234130859e+00
-2.387814705641529978e-01,-4.132501747928197799e-01,1.335642417464080411e+00,1.602827861074224147e-01,4.901825546266953826e-02,-9.465593740835279157e-02,1.701498389244079590e+00
-2.214589204596303929e-01,-2.178715784061936445e-01,9.629766448749703667e-01,1.384823783285561438e-01,-1.803899356914220875e-02,-5.764592758801580230e-02,1.211251020431518555e+00
-2.041476216111761666e-01,-3.423358690571536300e-01,8.700662121058871934e-01,1.088437126087102996e-01,2.418227414300858427e-02,8.163455434975518121e-02,1.174207329750061035e+00
-1.842393424915522715e-01,-1.472716596569513259e-01,8.536249243030723521e-01,1.199549171098820560e-01,9.606999889947016869e-03,9.921931183636670259e-03,1.041105747222900391e+00
-2.166535162596573416e-01,-2.387974626004846779e-01,1.027744439343349026e+00,9.704402293427105697e-02,-2.675202212578258604e-02,-8.704548898109508437e-02,1.276598215103149414e+00
-2.214768485901949802e-01,-3.370420193654930507e-01,8.362074035420594686e-01,2.668935194321280305e-02,1.243668151856670324e-02,1.130889847704524831e-01,1.138090968132019043e+00
-2.529154439953782973e-01,-4.488259187107529469e-02,1.370709776291629822e+00,8.786324297284311968e-02,1.264412511026320914e-02,-9.902514658307297324e-02,1.547490358352661133e+00
-1.560685115563282266e-01,-1.048601309895493827e-01,1.021106148001455161e+00,9.040014365343815306e-02,-4.797400639288558477e-02,8.913661349202332829e-02,1.176154017448425293e+00
2.901888212439911185e-02,-9.335826099605144535e-01,6.522314702320644031e-01,1.234439908654495766e-03,-4.164416765098737788e-02,-1.068863440701659506e-01,1.397992253303527832e+00
5.083920769108932203e-02,-9.631341089272122957e-01,6.900508659766819708e-01,-1.232377773266119317e-03,-5.088218245215055113e-02,-1.390169614935572728e-01,1.466501116752624512e+00
6.227176889019990502e-02,-9.562964466583375733e-01,6.514781770420579043e-01,-1.190179481739539642e-02,-3.421478904944988408e-02,-1.127903839825613597e-01,1.423690319061279297e+00
7.418144896152770174e-02,-9.502199813805657369e-01,6.343054397929889232e-01,6.288822386890387250e-03,3.474996976964783713e-02,-3.776372341491261719e-02,1.394614100456237793e+00
9.692474127325841071e-02,-9.630870007702611035e-01,5.253493165073598314e-01,-2.434087512834743131e-02,3.099345634988328810e-02,-8.211090054118028170e-02,1.336485505104064941e+00
6.210383581294279254e-02,-9.124154531869771434e-01,6.029149781151399434e-01,8.650427206064854879e-03,6.120283911931372056e-02,-8.553902544222523330e-02,1.342612385749816895e+00
-2.325752367499404893e-02,-9.976613276197644486e-01,9.649549933206672536e-01,-1.974763225047542706e-04,-4.830102748161774358e-04,5.086475776531468708e-04,1.699690103530883789e+00
-4.444566653737885842e-02,-7.939156775289324397e-01,9.463409149245968210e-01,7.595179611156424593e-02,9.361728997714790709e-03,2.375652464472717898e-03,1.517733216285705566e+00
3.993501396014298432e-02,-9.768682258344573155e-01,9.414595915329716513e-01,8.462271648788275216e-03,7.665255251882818581e-04,-2.684415106605133466e-03,1.662391901016235352e+00
2.179930849918520347e-02,-9.128617744095144371e-01,9.379871401176821388e-01,3.521964469875719927e-02,7.538573737368698888e-03,1.923385646105478476e-03,1.604125738143920898e+00
-3.092160753844757498e-02,-9.344401859598346904e-01,9.490687935263560915e-01,-1.536379908749234977e-03,-2.472637985533790786e-02,-5.470633550858319816e-03,1.632206320762634277e+00
1.854815934317164197e-02,-8.541209820383384166e-01,9.193353909420244330e-01,9.839658033871176435e-02,-7.785940114713338529e-03,-4.651288366058886278e-03,1.545428991317749023e+00
1.767232404267309737e-02,-9.946856952251670325e-01,1.010161532723198530e+00,9.677335082197362215e-02,-1.102193312159154524e-02,-2.992359644202398361e-02,1.745223164558410645e+00
7.515002743734431473e-03,-8.098934089919579415e-01,9.051355423822015078e-01,9.251262951382212274e-02,7.934290720986737202e-04,-1.852536051848392880e-03,1.494419455528259277e+00
1.575113680282696355e-02,-8.158219082511029008e-01,9.050098997915225763e-01,9.423045971697681378e-02,-5.824112655308152572e-03,-8.029214274629490819e-03,1.499570488929748535e+00
-1.899515714573421846e-02,-1.178700076571563615e+00,1.055286414292946340e+00,1.159811902632814501e-01,-1.293488357146386214e-01,8.759982680078716444e-02,1.964285016059875488e+00
-1.449458034703453822e-02,-9.816529988481530467e-01,9.644096366190244574e-01,2.526495100860413554e-02,3.599188706639534557e-04,7.192455147850258454e-03,1.685964107513427734e+00
-2.888214365327340313e-02,-8.533875251331628498e-01,8.777174129307129258e-01,1.210548020365299904e-01,-5.893121647104856975e-02,5.048439044946621823e-02,1.520281434059143066e+00
-7.121702819730285627e-02,-9.683121550994830962e-01,8.778198391134758305e-01,-5.162821803292394138e-03,-9.916605450291511581e-02,-7.005798559552542902e-03,1.608277320861816406e+00
-3.374555025788085472e-02,-9.931123990258484691e-01,1.008581396187681944e+00,4.659901059664331435e-02,1.070701353889646351e-02,3.818590910201836996e-02,1.737249851226806641e+00
-7.314781414846337204e-03,-7.705405817429209492e-01,8.935031447701328178e-01,1.112834174440114343e-01,-3.563369487278590566e-03,-1.710585628177743256e-03,1.455579876899719238e+00
-9.654390699012131705e-02,-5.829976997848671516e-01,9.201163936340251981e-01,1.937567056220362849e-01,3.720931452167183708e-03,-7.027582802684369245e-02,1.375600337982177734e+00
-1.662298968159518775e-02,-7.435425103828761095e-01,9.280592258382216464e-01,9.225832548082049667e-02,-1.086326456167519645e-03,4.458968776974617243e-02,1.462548255920410156e+00
-3.378926752532289413e-02,-7.469666312650112827e-01,9.227108625996633950e-01,1.025251877690583624e-01,2.677278437030524566e-02,2.762900370501594760e-02,1.463435411453247070e+00
-8.821002637483150999e-03,-7.910701879618113885e-01,9.112888863944512696e-01,8.869353269885003888e-02,-5.736435612527982994e-03,3.374854707274747064e-03,1.483914971351623535e+00
-8.014117740174320215e-02,-5.987282853480517808e-01,8.927810373876245986e-01,1.838495281724736308e-01,1.830853548472015715e-02,-1.929568514890104289e-03,1.349990367889404297e+00
-7.928364671455923052e-02,-6.181476790215394423e-01,8.671850406723502491e-01,1.251492112380711841e-01,4.911730330286289206e-03,-1.270886835205518872e-02,1.320507168769836426e+00
-1.858126016871773090e-01,-3.307551415424222485e-01,8.873290518602235943e-01,1.552155740325151800e-01,-1.944939568541708850e-03,-1.461430531731670694e-02,1.183686137199401855e+00
-1.243047957714190771e-01,-7.174506476940295530e-01,9.559772479818885449e-01,4.616670546570296463e-02,-2.148158789840812904e-02,-4.816296369591792359e-02,1.474562168121337891e+00
-1.902424760659271186e-01,-3.007956510723208687e-01,9.280655189600552912e-01,3.003268349825316628e-03,-2.119377047561750438e-02,-1.631462386828918393e-02,1.178405880928039551e+00
-1.910156656661362029e-01,-4.157108440225245061e-01,9.056871842410629814e-01,1.625291193593239036e-01,-1.323682878859867851e-02,-3.183162295722594820e-02,1.257967233657836914e+00
-1.439573001551804066e-01,-6.753486413054140547e-01,9.453668079205972408e-01,1.047029028772676063e-01,-5.588019290125301880e-03,-1.346209854451299592e-01,1.461236238479614258e+00
-1.237359812798882880e-01,-6.924283864235988295e-01,8.913534183714151293e-01,1.049377276778171164e-01,8.808226878596872936e-03,-8.771475882032012117e-02,1.409766435623168945e+00
-4.587887878187776880e-02,-9.878084405249658584e-01,9.453384117016343513e-01,2.611359466931254241e-03,7.419389967655679735e-03,-3.564723752421066101e-03,1.674402475357055664e+00
-1.838298193299249816e-01,-3.346122700971733699e-01,8.541897414633534691e-01,2.443896800144187975e-02,-1.213151392804545127e-02,-1.393033270173300586e-01,1.147686600685119629e+00
-1.602188460961731162e-02,-9.594159617226644121e-01,9.563876645557336520e-01,1.499312347885112945e-02,2.922215737822476955e-02,1.737658642696797776e-02,1.660445809364318848e+00
1.271160803538989859e-02,-1.036796750838205661e+00,1.024445505621405905e+00,1.343147591361879278e-01,-1.016613686641832694e-02,3.794018798392611441e-02,1.801567673683166504e+00
-4.938539714044855311e-02,-8.407210681762163906e-01,8.913584974901416214e-01,5.887621761887728428e-02,1.777706033873690736e-02,8.648556724293000875e-02,1.513090252876281738e+00
-2.742863622544828434e-02,-9.621157833876966547e-01,9.236286778049090929e-01,8.473527147741204482e-03,-1.160940862714165966e-02,-3.218059684750058415e-03,1.633322358131408691e+00
-4.400642374641554333e-02,-9.747966439106297010e-01,9.644955450174583778e-01,-2.529918126386221724e-03,1.884302190810670935e-02,-1.329465298066815487e-02,1.680406212806701660e+00
-4.225614204237972821e-02,-1.007220852160330749e+00,1.003402801647127252e+00,7.510710777000540600e-03,-2.312954426035322350e-03,-9.205100074809766802e-03,1.741844654083251953e+00
-3.924973702366947592e-02,-9.954153065939929101e-01,9.670660108088188212e-01,5.213627709840691626e-03,1.166637292176607964e-02,-8.393179276096953204e-03,1.699949860572814941e+00
-1.157659399670754943e-03,-1.018184472083579539e+00,9.894137412075907356e-01,-2.155986892475701688e-02,2.392418332247567454e-03,3.388317146690278912e-03,1.739097237586975098e+00
-6.730042412909315042e-02,-1.002616455116496663e+00,9.942248780702870325e-01,-6.404431764558828934e-03,6.037062664060723755e-02,-5.842291990197746171e-03,1.733687639236450195e+00
1.417261829322426780e-01,-9.046085060251946031e-01,4.001674334064599936e-01,-7.100573867067549484e-03,-4.072773087262981234e-02,6.167912270326003123e-03,1.198860168457031250e+00
1.652056782969717474e-01,-1.000891423354889564e+00,4.328099371534048778e-01,2.673620477025408920e-02,-4.667052936159491600e-02,-5.832008991658299953e-06,1.323678970336914062e+00
9.965061454357593274e-02,-9.381024492196872178e-01,5.770402694990661718e-01,-8.191715571346630184e-03,3.466429831630148464e-03,3.488377253311625292e-02,1.343180179595947266e+00
1.212290375090549072e-01,-9.217274947420729392e-01,4.764727797603277581e-01,-5.638034878953050201e-03,8.227817046503700313e-03,4.791120759267902818e-02,1.261604189872741699e+00
1.967266793323927676e-01,-9.477330253096745150e-01,2.972878379703947083e-01,5.267888828322185015e-04,-9.658325640729253925e-02,6.027645920779764813e-03,1.209579944610595703e+00
1.973519525747657322e-01,-9.919334797607228804e-01,3.266522107583367807e-01,1.434460526881851071e-02,-3.591368995964093480e-02,-1.063703062267956911e-01,1.274097323417663574e+00
2.088167401457028949e-01,-9.589700485789729445e-01,2.862222131976623896e-01,4.724381508634434637e-03,-1.005636629462021842e-01,-9.725668324773522125e-03,1.220983386039733887e+00
1.435342635771485187e-01,-9.539116627770980461e-01,4.589007564233051895e-01,-1.631392656654113288e-02,-6.013434880338478644e-02,1.777323754174287354e-02,1.289393544197082520e+00
1.387466850745246449e-01,-9.667778433113635161e-01,4.675629745371664980e-01,5.046296478736392137e-03,-2.535554933818105067e-02,9.808455149294579081e-03,1.302348971366882324e+00
1.247451651791646882e-01,-9.228358189415957202e-01,5.023750906981144793e-01,-4.884722869037642391e-03,-1.794248548415603578e-02,6.406871116870669139e-03,1.279370427131652832e+00
3.139272682648471258e-01,-1.261125454723550421e+00,1.458641736856394200e-01,1.775929550596419826e-01,3.710856490939231644e-01,-3.948986634538558665e-02,1.660342693328857422e+00
6.183442445103061458e-02,-1.018450162085690502e+00,6.154026316195125856e-01,-4.875933294853488677e-03,1.596534109235600019e-01,3.102320359224930782e-02,1.466591238975524902e+00
5.987969577114408970e-02,-9.439270293725283700e-01,5.941892896802385415e-01,1.208694086398895938e-02,7.916145064632071349e-02,-4.489998359219053714e-02,1.361889958381652832e+00
1.200132420469733341e-01,-1.042701494370229520e+00,5.331409665731339231e-01,5.881159045084839894e-03,1.488933253989540850e-01,-5.745540785544514528e-02,1.442027926445007324e+00
7.894117099017011752e-02,-9.378636654517168436e-01,5.465951763802220364e-01,-1.101503480069508656e-02,7.819700771841742171e-02,2.871059453822840182e-02,1.322605967521667480e+00
7.022274590443454423e-02,-9.200228087435496915e-01,5.361433500846521927e-01,-4.681631348166460406e-03,9.557157687504144739e-02,-3.681361393466200341e-03,1.298673272132873535e+00
-2.888687403305946824e-02,-9.908425445231174855e-01,9.405547022795358592e-01,-7.520075807712688597e-03,-3.152420009500754312e-03,-3.741508140294629373e-04,1.672703027725219727e+00
-3.237687398930315374e-02,-9.547497480439648410e-01,9.257862317823881693e-01,7.321549308912002211e-04,4.324863356474256443e-04,2.198897482832035642e-03,1.628695368766784668e+00
-4.213449443397730698e-02,-9.732169718204622955e-01,9.577212178775537099e-01,-2.824637200880508042e-03,-1.939135248746378173e-02,-1.268560957478627807e-02,1.673083662986755371e+00
-2.109474834317370817e-01,-3.303186476478848221e-01,1.054308987546494825e+00,-2.512241899216914875e-01,-7.604006546555222047e-03,1.292382682420432916e-02,1.398632884025573730e+00
-1.927663771319214625e-01,-4.497203245777536829e-01,1.001228850705291773e+00,-1.643347253512723594e-01,-8.216347652901030696e-03,-1.012952653501864725e-02,1.371123552322387695e+00
-1.007225546108660164e-02,-9.709394911045966525e-01,8.566766371306493433e-01,1.736658600016420181e-02,1.738017866817647555e-02,2.214265308154454714e-02,1.584497451782226562e+00
-1.237757867444922860e-01,-5.150220059393900707e-01,9.001828158796053581e-01,-1.287360106820208683e-01,-1.964735985142303243e-02,5.093721329205038589e-02,1.288737893104553223e+00
-6.695004320384355390e-02,-5.961509035870629081e-01,8.965302535480772494e-01,-1.328404508492581348e-01,-1.047600332674847659e-02,2.897475712387722474e-02,1.331919670104980469e+00
-1.082847930541904896e-01,-5.618533610621375685e-01,9.015483746128721831e-01,-1.922820977256765040e-01,-2.161703575523126614e-02,5.750642613200461495e-02,1.343784213066101074e+00
-8.578896554596966706e-02,-5.652561282207265725e-01,9.091696833382804099e-01,-1.948714143769806340e-01,-8.141759421059768798e-03,2.123817260638453594e-02,1.346238493919372559e+00
-2.011147573661093979e-01,-3.248064243672036389e-01,9.654435124079767672e-01,-2.280209136547629856e-01,4.258907376590696792e-02,-1.829414299039121283e-02,1.297257661819458008e+00
-8.682515471497953552e-02,-6.960854024607837642e-01,1.048149634264872843e+00,-2.971044516150138093e-01,-6.661585053974267362e-04,2.518340190299863529e-02,1.617893099784851074e+00
-4.797202420079353657e-02,-9.797775543718282298e-01,9.165034221861649844e-01,9.879100696278087304e-03,7.719976661270308831e-04,-7.736688038405306958e-03,1.642453074455261230e+00
6.638529832714777992e-03,-1.060094762924594702e+00,1.048953771004723423e+00,-4.562054188706016200e-02,5.468938131608982837e-03,4.676202579077658184e-03,1.828281283378601074e+00
1.454203250011908144e-03,-1.071741609975539022e+00,1.093849535164036046e+00,-1.300091688882783203e-01,1.663453603046372237e-03,-9.260445560113123378e-03,1.889021873474121094e+00
-3.754524122821339960e-02,-9.812646028258543707e-01,9.179352375335113612e-01,5.245385764657346100e-03,1.197921978980582766e-02,-3.757137972163108065e-03,1.644934654235839844e+00
2.220644371060417205e-02,-1.011327306482210808e+00,9.744846543701443098e-01,8.293244644516169217e-02,-6.816578059111697528e-03,-1.234412178473363701e-02,1.726402997970581055e+00
-2.824237897398555741e-02,-9.711059632757894633e-01,9.298796299700510248e-01,4.887839435861039694e-03,-8.051629232783462028e-03,-1.521808622867223092e-02,1.646611332893371582e+00
-4.094394893943635594e-02,-9.783619432970281915e-01,9.168530390428375476e-01,-8.415482348712899005e-03,1.180861285076480541e-02,1.933741407667266261e-04,1.641528129577636719e+00
-1.441393724075727689e-02,-9.841003726992174627e-01,9.542416619007552114e-01,3.097572267310064534e-03,-1.271110404782367295e-02,-3.970737277784246351e-03,1.678820610046386719e+00
-2.361412945952983192e-02,-9.838345198077271814e-01,9.442678854156615342e-01,1.085086895053515715e-02,8.520879552281578409e-03,1.321284551427989729e-02,1.670117855072021484e+00
-3.817692697546030967e-02,-9.926177243766606262e-01,9.641794848382549965e-01,-1.118110202754003406e-04,2.588268690607868974e-03,7.244479325123048125e-03,1.694857835769653320e+00
-3.461359274441981604e-02,-9.901916310667377985e-01,9.455565491626650720e-01,4.643311489036216480e-05,4.854500989737902186e-03,-7.207934135731734922e-04,1.676473736763000488e+00
2.154072168352724748e-02,-9.606844204243201180e-01,6.391130290552855531e-01,-1.955137429076541505e-02,-1.918811520661748982e-01,-3.418558706305117878e-02,1.438007235527038574e+00
-5.648022095616479776e-02,-9.877301601173614776e-01,9.731567755012799914e-01,3.017170904641857526e-03,-1.158835362999848309e-02,-5.203189035213988400e-03,1.699040770530700684e+00
1.947092039019313048e-03,-9.850414790852028979e-01,7.835044258190155819e-01,-6.262791270028914350e-03,-1.082021395596289293e-01,1.686262880021632609e-03,1.546484947204589844e+00
3.983650779362744865e-02,-9.394357949649829731e-01,5.956365924963761271e-01,8.123477465188851457e-03,-1.572729504520497812e-01,-2.799091840137819462e-02,1.374379992485046387e+00
-4.078811057753412711e-02,-9.843701976049511471e-01,9.298784938193721539e-01,1.049527019315391052e-02,7.680341216565247757e-03,-1.112753693155306076e-02,1.658108353614807129e+00
5.213688724942112940e-02,-1.109072867864538514e+00,6.873047044381378479e-01,-9.084724153726611920e-04,-1.896113526189009135e-01,-2.674611171305764628e-03,1.611611247062683105e+00
4.494830020456193342e-02,-9.836258707332264928e-01,6.968473956461158636e-01,-1.564776564590707013e-03,-8.429725281206683352e-02,-1.832594610553056266e-02,1.475058197975158691e+00
-4.955433678883568865e-02,-1.010792541541254863e+00,9.012851251323334978e-01,1.008015801129723971e-02,-9.429027610393139747e-02,-7.913504576075467084e-04,1.664042234420776367e+00
-2.065612634320861465e-02,-9.833500047027275981e-01,9.529476404790518940e-01,-2.515159245665452709e-03,-2.046713867088536046e-02,6.937328512355392038e-03,1.677315235137939453e+00
-3.071924099250018109e-02,-8.968100769083239276e-01,9.638186322864151778e-01,-7.747831343009996263e-02,3.532780527034085072e-02,-3.805205395315922057e-02,1.620702266693115234e+00
-3.500707707340917213e-02,-1.032142750873995762e+00,1.007228441132644203e+00,7.210214542506616833e-04,-1.105745868450834848e-02,5.094793005967938188e-03,1.766417503356933594e+00
1.610411766484463186e-02,-1.014760719974612480e+00,1.003670645752462454e+00,-5.493498988518871057e-02,-7.225073040379075343e-03,2.846339025061229815e-03,1.750786066055297852e+00
-2.558115317729733190e-02,-1.055055961480553472e+00,1.193842545313620995e+00,-2.723761602157983575e-01,-1.517657910239958094e-02,2.328942569235899901e-02,2.006754398345947266e+00
-7.162639620622081316e-02,-8.460717063458301768e-01,9.132538687346346551e-01,2.211062102741361696e-02,-8.907265406768036936e-03,-1.950210618702836324e-02,1.528180718421936035e+00
7.022190605702536073e-03,-9.908656713990716680e-01,9.721949673166627726e-01,-4.779659701537788269e-02,-8.810586741516071227e-03,7.652253698276219318e-03,1.702273488044738770e+00
-2.219097151111523725e-02,-1.027951691993745698e+00,1.027710805727597876e+00,-1.024168746250203460e-01,-7.430765563099595017e-02,3.750872160911527392e-02,1.795007348060607910e+00
-2.393906553720200059e-02,-9.493968142154015633e-01,9.717433860994031392e-01,-7.129584244818895633e-02,-4.829824931534119903e-02,3.722975825379511855e-02,1.672041654586791992e+00
3.343520990736811860e-02,-9.296505651247858326e-01,9.255749069706235010e-01,-1.373909871369596511e-02,-2.106333903411947411e-03,8.625815031294678439e-04,1.607244968414306641e+00
1.178956765603521861e-01,-8.936525341744879780e-01,4.449051757618964764e-01,-1.047293443829900542e-04,7.091093463709282479e-03,3.532574307316909898e-03,1.208775877952575684e+00
-9.789941965575174598e-02,-1.171305241639628125e+00,1.259438785890660828e+00,9.618370096638764050e-03,1.943608970390128463e-02,-5.411385123555802201e-03,2.110222816467285156e+00
-1.019635083549680216e-01,-1.734929215375290878e+00,1.788395460517859137e+00,6.761011722805601587e-02,-1.235739447786266126e-01,1.030533136019806950e-01,3.068926572799682617e+00
-1.982444076430885382e-01,-1.304548642694518978e+00,1.732532085540931632e+00,-2.159227230180703616e-01,-1.116306592199377834e-01,-1.017825499670003131e-01,2.701141357421875000e+00
-9.191429764323277851e-02,-1.172268233196981591e+00,1.265275851394181306e+00,5.180339925538732411e-03,-5.280026163090418070e-03,-2.506865885179473605e-03,2.115551471710205078e+00
-1.045476946555903425e-01,-1.162055706172560043e+00,1.229189291519293459e+00,-2.524548359171177037e-01,-1.782581482906953410e-02,2.837327554604771734e-02,2.121834993362426758e+00
-4.667261627089988596e-02,-8.966537955210996946e-01,9.254620888384844646e-01,5.046425930545986836e-03,-1.725718275241556326e-02,-1.999530864545996309e-02,1.579866886138916016e+00
-7.679718639838011007e-02,-1.172889853994323106e+00,1.168542370487415605e+00,-2.063527847230646126e-02,7.380834723117291052e-02,-2.847023240607142892e-03,2.033455610275268555e+00
-5.640139100830206254e-02,-1.235172841909599528e+00,1.154610270861842203e+00,1.910336707680369284e-01,2.265105980751114245e-01,-4.844558949493419503e-02,2.134010553359985352e+00
-4.663634056084979551e-02,-1.318793838917505568e+00,1.186950410558833102e+00,-7.159878535315875037e-02,2.135227664846257034e-01,1.362213928765310389e-01,2.217489957809448242e+00
-1.156811884407198954e-01,-1.166520655926652772e+00,1.160384948981470377e+00,-2.305789400521295746e-03,2.309751433762342043e-01,1.980296190379170554e-02,2.057860612869262695e+00
-7.093236744780932745e-02,-1.275958195218734437e+00,1.305382735978345865e+00,-1.134047184020872401e-01,2.652873547969831769e-01,2.628366936226800114e-03,2.292282819747924805e+00
-9.519162952819093526e-02,-1.533940641161212648e+00,1.597531885267311713e+00,1.858632108686121831e-01,2.152142165364496207e-01,2.044445016326858905e-02,2.759448528289794922e+00
-6.174114498263483242e-02,-9.678346427770622151e-01,9.014645036313631010e-01,1.912995959994673615e-03,-3.183790806523582873e-02,3.512561055643209206e-03,1.620066046714782715e+00
-7.466153809385520090e-02,-1.008525430825019109e+00,9.278118749634201023e-01,1.339853206158924184e-02,-8.761698328789734036e-02,2.357296095786413914e-02,1.684774279594421387e+00
-6.390867988249068765e-02,-9.653073191981206280e-01,8.995572271755923888e-01,2.986457331371802481e-03,-2.872423078856438730e-02,5.460817984382503217e-04,1.616092801094055176e+00
-2.855746009038133415e-02,-9.128392319749693007e-01,8.394561081976279482e-01,5.812614709921402889e-02,-1.263062865730622819e-01,-2.841850097166141384e-02,1.537331819534301758e+00
-3.813034106115452404e-02,-9.381490095350767389e-01,9.347933508371839562e-01,-1.425265242873135444e-03,1.362745686329914531e-02,7.422801667140268081e-03,1.622649669647216797e+00
-4.108706280397446398e-02,-9.819006975599184894e-01,9.384996760952624140e-01,-1.743369347947964967e-03,-1.988522888589290202e-02,-1.395516345072569074e-02,1.663763403892517090e+00
-2.607739500745966804e-03,-8.778976858113145543e-01,9.349906421689612168e-01,8.443508914830136214e-02,1.498335977966093469e-02,2.956383577972292176e-02,1.578156232833862305e+00
-2.770120739201435700e-02,-8.631800131610387616e-01,9.150607689585038562e-01,6.412041378063670916e-02,1.465706224250871124e-02,3.821135516410543997e-02,1.546558022499084473e+00
-2.036369066018479251e-02,-1.001656237189411325e+00,9.740665220847363193e-01,4.417497285908209004e-02,1.735492876014479990e-02,7.948330613353267460e-03,1.713067650794982910e+00
-2.611103695098875369e-02,-8.574080353040077762e-01,9.004694295682580396e-01,6.440951551280560405e-02,1.884078027345948911e-02,4.242486320347183676e-02,1.529307007789611816e+00
-2.758547754144520178e-02,-1.007588828706341699e+00,9.732380949744857679e-01,3.121891829432241108e-03,4.229453845694087881e-03,6.767208038302099590e-03,1.715542197227478027e+00
-7.369370833225291628e-02,-9.697164069803768660e-01,9.259499894143869980e-01,3.829151685467909252e-03,1.094210414570273744e-02,8.047466907878529814e-04,1.642635941505432129e+00
-8.106651872218972876e-02,-9.659556487565942318e-01,9.252830822584739989e-01,-2.367966401694640436e-04,6.073877878943029565e-03,7.258042336771305210e-04,1.639020562171936035e+00
-7.516302311128784941e-02,-9.659129590633488416e-01,9.177186063776353597e-01,-1.317268710904523528e-03,2.452166682016462818e-02,-4.661072305109310691e-03,1.632645964622497559e+00
-5.653160725027990552e-02,-9.760718206432887900e-01,8.802091002992911140e-01,4.134323656705360742e-03,4.428347773896239292e-02,-1.119460871234895932e-02,1.609570860862731934e+00
-8.426223540008799529e-02,-9.738523741752085350e-01,9.492466909260373065e-01,-1.468004964116871591e-03,7.323177609088654672e-03,4.883509612846773616e-03,1.667078137397766113e+00
-7.087986073379641538e-02,-9.571192562758322753e-01,8.633599679370415059e-01,1.260208191558047927e-03,6.500010978571513220e-02,-1.436227734272851496e-03,1.580781579017639160e+00
7.913783844950056379e-02,-1.025115425901656385e+00,5.966211848177802590e-01,-5.466671953392028722e-03,2.152318539204865488e-01,-1.556196238108624973e-02,1.482695937156677246e+00
9.880023138349558476e-02,-9.069064788307347191e-01,4.235081519206406186e-01,1.996540038887405569e-02,1.676613212294090771e-01,-9.276299950597807764e-02,1.246909737586975098e+00
-3.698442009896029531e-02,-9.815729302246314347e-01,9.129493424248760203e-01,1.137275381268587279e-02,-3.515886998397447366e-03,-5.460180239123571012e-03,1.640863418579101562e+00
-5.443539064874391292e-02,-8.327298331316411728e-01,9.217639884316563004e-01,-2.525429363539277369e-02,2.617744804238599649e-02,-2.721268502712901119e-02,1.524686455726623535e+00
1.307948776201112995e-01,-1.117585782734195066e+00,5.872189668321897704e-01,-2.112019571048454405e-02,1.845985731448616107e-01,4.091073827804840579e-02,1.563699960708618164e+00
4.899472145208421670e-01,-1.826503538584510311e+00,3.041030777085403369e-01,-4.212088750332885351e-02,1.290002212845310359e-01,5.527382234759595225e-02,2.243745565414428711e+00
1.137950318388233628e-01,-9.942877632642078689e-01,4.470552570367728462e-01,1.328048057666309650e-02,1.738548141769925004e-01,-8.891926511228528951e-02,1.350227832794189453e+00
9.540888556839990930e-02,-9.616785922695505473e-01,5.573618257367812800e-01,1.485808034276629372e-02,1.829667822207613204e-01,-3.613028443024689750e-03,1.385745644569396973e+00
1.737535834650784372e-01,-1.015751534127361744e+00,4.329470175976692925e-01,-7.220925326236614546e-03,1.487623798154051880e-01,-8.856298892365793707e-02,1.371310710906982422e+00
1.910644836863932550e-01,-1.010300418236153464e+00,3.112415366819653029e-01,-3.395329408387002049e-03,5.659384179061785480e-02,7.785727032888063726e-02,1.276685237884521484e+00
1.812618077466602862e-01,-9.949824418610794252e-01,3.312687771935239889e-01,7.603919323511254677e-04,7.195469558431313861e-02,-8.716280214920343883e-02,1.273115754127502441e+00
-4.358044790615011460e-02,-1.020540169455657731e+00,9.420811047884836142e-01,2.533817578570474530e-02,9.743683259349639192e-02,-2.117764396344036428e-03,1.708611130714416504e+00
-5.124819833342750264e-02,-1.007467493861960994e+00,9.122299282031783862e-01,-1.455364113507376031e-02,1.087994069612913534e-01,1.903128537212701865e-02,1.673671364784240723e+00
5.204098916228735994e-03,-1.089760525187655205e+00,8.458868631372471469e-01,4.641539966291777231e-02,2.112759985403409591e-01,-9.034678893337073913e-02,1.729472875595092773e+00
-5.249090172870345822e-02,-9.907989474264791152e-01,9.692003516913236805e-01,1.820441534045858217e-03,9.834122766712791175e-03,-1.545931897009557949e-03,1.698011636734008789e+00
-3.227247125595560096e-02,-9.778506989083836087e-01,9.393091336531010915e-01,1.111718481190037723e-02,-7.586636829195187240e-03,-1.428984297232452697e-02,1.660708069801330566e+00
-5.712031432530170066e-02,-1.012584249844412643e+00,9.828663279536737907e-01,-1.340663880603540359e-02,3.922948516951105247e-02,2.598430442008108771e-02,1.730703592300415039e+00
-5.933386713185285349e-02,-9.887001985395589276e-01,9.630616232390731835e-01,-3.464483686460236023e-02,3.447444005682499639e-03,-4.442605825500378636e-03,1.692007660865783691e+00
-1.081038225600958885e-02,-9.369206148745324869e-01,8.640506720803688978e-01,-2.945047514401528954e-02,-2.980831478934464762e-02,-4.799211358486300816e-02,1.563795685768127441e+00
-8.475773301433765783e-03,-9.748634616189920665e-01,8.270090568784773666e-01,1.531349058625502968e-02,-3.826811151278058237e-02,1.161663356007861490e-03,1.563471555709838867e+00
7.850023241349630976e-02,-1.108727968215095450e+00,7.176392745005273355e-01,-7.718821606193729257e-02,-1.874264708921277722e-01,1.177543069499497053e-01,1.655799388885498047e+00
6.913511628389772123e-02,-9.641062997274194579e-01,6.374790937688171732e-01,1.136114957230699267e-02,-3.238554816696895267e-02,2.751656767527949077e-03,1.407620549201965332e+00
6.507619362350451631e-02,-9.368167186260168977e-01,6.239489990394377905e-01,8.052429972730089022e-03,-2.713503127442404295e-02,2.239448571477402339e-02,1.371118903160095215e+00
2.410193656339049140e-02,-1.075273321637178814e+00,8.065620550121568311e-01,1.684874970965850307e-03,-1.103977795197584877e-01,4.563332886278341494e-02,1.650425910949707031e+00
-6.166609854727580359e-02,-8.778882694926056773e-01,9.505629610694306120e-01,5.026927385084317690e-02,-8.711906292442284094e-03,-7.454362386285844078e-02,1.594211101531982422e+00
-7.992573846158596007e-02,-1.015275777378850997e+00,9.634412869817580161e-01,1.698431692764723654e-03,5.794298451421279333e-02,-7.074032451157260919e-03,1.717451214790344238e+00
-7.584036675700733809e-02,-1.014227278782095398e+00,9.601944771225492392e-01,-1.993341579625870080e-02,6.150408887002801334e-02,2.824212583088802145e-02,1.714955687522888184e+00
-8.950427578410394269e-02,-9.907502964607982632e-01,9.664697989454379412e-01,-3.139523597689718431e-03,5.835685919049167503e-02,4.904262985492376450e-03,1.699804782867431641e+00
-5.677994275479110453e-03,-9.831963467825605152e-01,8.118399776417094538e-01,8.218956496809714379e-03,9.271501704163571944e-02,2.760978991764050788e-02,1.565660953521728516e+00
-2.933086493123437943e-02,-9.857168357992763807e-01,8.904790685741710288e-01,-6.939899231079963999e-04,3.169737232518263226e-02,-5.391869875554922489e-03,1.625890731811523438e+00
-4.086933095604634164e-02,-9.756675076498000365e-01,9.496236441683592044e-01,-3.014230786305646323e-02,6.095433407492811817e-02,1.141492144462540222e-02,1.671854615211486816e+00
-3.125192548409054527e-02,-9.959011325158937389e-01,9.637052807740764671e-01,4.650135839687740899e-03,-9.800484242244323491e-03,1.059803680744015090e-04,1.697240591049194336e+00
-2.194571716876583811e-02,-9.606153226213232088e-01,8.792028702333776202e-01,7.886384971131199517e-03,2.615161740375332444e-02,-1.806309889234017363e-02,1.594448924064636230e+00
-1.776092833146148131e-01,-1.887483800704527592e+00,2.135168702153469322e+00,-3.295377443484492352e-01,-1.119956423568163606e-01,-3.880298727032080713e-03,3.548328161239624023e+00
-8.664442988992124284e-02,-8.687652459391932425e-01,9.686115515999317305e-01,1.473354501351229438e-02,-2.128022946297400408e-02,-2.256903928969345927e-02,1.598171949386596680e+00
-1.791057843568116120e-02,-8.673591434988259241e-01,9.221514341952405935e-01,-5.684497262709344717e-02,-1.467982635938359101e-03,5.111011684441286139e-03,1.553574204444885254e+00
-1.044252288196574445e-02,-9.924353713576925529e-01,9.509802570836772828e-01,-8.995452322209617629e-03,1.249483436249776338e-03,-8.198448347543057374e-03,1.683212161064147949e+00
-1.256843600071410466e-02,-8.777731811021364239e-01,9.249422596707987942e-01,-5.461106625117945895e-02,-5.098422673246776927e-03,-4.488172121957638991e-04,1.564503073692321777e+00
-5.923491587925518512e-03,-9.448264691457449738e-01,9.415090468004709834e-01,-5.468094893695357728e-02,-4.639598196186088194e-03,2.390180547122475185e-02,1.636906504631042480e+00
-5.246596600056924187e-02,-1.095106045758519997e+00,9.704502206718486068e-01,3.972530405993760644e-02,1.072708317753881813e-01,-4.698217644227335732e-02,1.801628828048706055e+00
-2.733007394044351113e-02,-9.811293403483895004e-01,9.458312994547982688e-01,-3.019561835022811780e-03,1.004909733431659383e-03,-3.395702777733562131e-05,1.668834090232849121e+00
-6.546586965258941425e-03,-9.813204108045762153e-01,9.691577263705655199e-01,-5.244344286614611994e-02,-3.757945512044465804e-03,-2.155086935559901926e-02,1.692028522491455078e+00
-2.931210456110830767e-02,-9.731252292115822877e-01,9.492793630122812187e-01,-2.618906815206410027e-03,6.660650999792608459e-04,-7.746388178504373494e-03,1.665002703666687012e+00
-1.074506628358264278e-02,-1.046079155398521587e+00,1.026916130621752243e+00,-4.027539152087740437e-02,-1.401521272481016933e-02,-9.672190751359532532e-03,1.796863794326782227e+00
-1.096108369812740790e-01,-7.011363351129192845e-01,8.948104794135565143e-01,-4.155828937904719467e-03,-8.863546250686802838e-03,1.337826355572183101e-02,1.397758841514587402e+00
-5.022867297063848130e-02,-6.802131490009080128e-01,8.566621522230780661e-01,-1.172922494936723403e-01,6.959575936722953507e-03,8.189332469347850030e-02,1.360954046249389648e+00
-6.777421578063064223e-02,-7.269427462724391553e-01,7.128636107572834391e-01,6.728010247855412129e-02,-5.976754581351990947e-02,2.740430571585815087e-02,1.258975625038146973e+00
-2.001493777199520041e-02,-7.827352270170122583e-01,7.161275517951301017e-01,9.935775704103730344e-02,-8.072291728903775720e-02,4.231552651742153531e-02,1.318959832191467285e+00
-5.201275224220943544e-02,-8.368080056495186270e-01,9.146767293432427337e-01,1.865971466132694545e-02,-2.395032469216138230e-02,-1.199195902051885393e-02,1.520605921745300293e+00
-7.275839888410615131e-02,-8.132775648414396485e-01,8.795760644619654567e-01,-8.572104757568805092e-03,1.090787007008493445e-02,4.732769124271959948e-02,1.472354769706726074e+00
-6.915224822498927670e-04,-9.249754072090244916e-01,7.841842891141336258e-01,-2.253058083935241193e-03,9.386758273079753509e-03,-1.410481805098175861e-02,1.482111692428588867e+00
5.249035572937715832e-02,-1.120086347235023760e+00,7.389525866890718220e-01,-3.342377804954167753e-02,2.062123739244318132e-01,3.137632773485479060e-02,1.668823480606079102e+00
-5.899979908368438442e-02,-9.816077713149937711e-01,9.142043810606093057e-01,-9.313053694156903789e-03,-8.870066377680801972e-02,-1.121523272387024012e-02,1.649381279945373535e+00
1.428723347585604542e-02,-1.081283759510578424e+00,8.752153716244640558e-01,3.793482726504966707e-02,-1.250957921209532031e-01,4.233875181519169278e-02,1.715028524398803711e+00
-1.594616270677268188e-02,-9.932436732532511359e-01,8.122697369364211273e-01,-1.801767049015182490e-02,-8.193485419960722105e-02,-2.343759212808201042e-02,1.572649717330932617e+00
-1.216399379178602531e-02,-9.928763120084500571e-01,9.631982245017179922e-01,2.130176132737236251e-03,-1.981214701837127716e-03,-2.959741135282768169e-03,1.694027662277221680e+00
2.904722790499267293e-02,-1.026061187297903521e+00,6.993591980698392607e-01,-2.901041460273968281e-03,-1.511467112410235791e-01,-5.725829096512371347e-02,1.532390475273132324e+00
1.629122234396852831e-02,-9.649542426644072135e-01,7.147841389964689762e-01,1.167412204015834745e-02,-1.353718711715927170e-01,2.456761906475860534e-03,1.480382204055786133e+00
-1.234729127071225452e-03,-9.208683083488056198e-01,9.662004762210589792e-01,1.332745570785260347e-01,3.008313705314905398e-02,-6.987274901659078913e-03,1.651511549949645996e+00
-7.560895041381193726e-02,-9.715099762796299832e-01,1.120333020347337838e+00,7.282042650231723702e-02,8.401995450357972739e-02,-4.741597169613231966e-02,1.829806804656982422e+00
-3.264357612160119493e-02,-1.147696224071731219e+00,1.060977725068065647e+00,1.045166972383237691e-01,1.752313443840232687e-01,-1.792169315323258530e-02,1.945417165756225586e+00
6.181013592405120577e-03,-1.083891974701167271e+00,1.009903229682207249e+00,2.702319223733106249e-02,1.504787548366945914e-02,3.374581315675642679e-02,1.815525889396667480e+00
-6.531087721883821473e-02,-9.291641976610814924e-01,1.032831911895430110e+00,8.246529822540214771e-02,1.508912780681105903e-01,9.230694059373192872e-02,1.736393451690673828e+00
-3.244685343379913323e-02,-9.986609120731188005e-01,9.733049276729996979e-01,1.028406634006371473e-02,1.991289349983107332e-02,4.008165570802592857e-03,1.708342075347900391e+00
-3.283406243066826213e-03,-1.054477383903306809e+00,9.979823165548001862e-01,2.350502763998387618e-02,-7.326292093527320311e-03,-9.410606715459731569e-03,1.778243660926818848e+00
-3.778065291954252336e-02,-9.932831801245807224e-01,9.631699611162614083e-01,-4.020801893453326142e-03,-1.164084314017742056e-03,8.000824983260051634e-03,1.694562673568725586e+00
-3.365794877010375163e-02,-9.904265873732873704e-01,9.563274623445836564e-01,3.388383854310437083e-03,-6.815578628064416535e-03,-6.974193283593736661e-04,1.686072230339050293e+00
-3.181399370618386013e-02,-9.620023002918450805e-01,9.092172811095673435e-01,-2.891653478919196506e-03,-2.049258622373367669e-03,-1.096858846257107653e-02,1.620655775070190430e+00
-5.103438237156898705e-02,-9.905634054729656190e-01,9.564859185142966513e-01,-3.941533910164035821e-03,1.993170307201094695e-03,2.241625658498746544e-03,1.686558604240417480e+00
-2.845284508163858223e-02,-9.919801877252232281e-01,9.554818851195702178e-01,-2.990523698555112332e-03,-5.616316820411536119e-03,-2.334259835216435930e-03,1.686623334884643555e+00
-8.965011309410872431e-02,-6.106017177763617410e-01,9.232314350718303642e-01,1.806678487569486902e-01,3.517310915574967025e-03,-5.446015238526103613e-02,1.389906287193298340e+00
-8.602113970413204080e-02,-7.015973026774632304e-01,1.064771107370664494e+00,2.862033286609189653e-01,-4.762397394699294760e-03,-1.404169456034786920e-02,1.630353808403015137e+00
-8.468898570870811437e-02,-8.756782498374584556e-01,9.517903157425691152e-01,3.645766711780917824e-02,-2.349073570568221969e-02,-7.890263125285366941e-02,1.595028877258300781e+00
-8.860007822990226267e-02,-6.094926429968305914e-01,9.164880835895062861e-01,1.450229205178829861e-01,-4.082114464238967223e-04,4.268962536558012361e-02,1.368808507919311523e+00
-1.384072169622728166e-01,-5.234527759285863002e-01,8.810532888269586582e-01,1.036237103055010628e-01,3.058748115100674674e-03,5.212362125686387931e-02,1.272984981536865234e+00
-1.903187144560956889e-02,-9.785024803679008842e-01,9.592752764510070751e-01,6.443351325757580193e-05,9.688795094232184602e-03,4.655771771707130011e-03,1.678294420242309570e+00
9.321444639426394729e-02,-1.043791865124426232e+00,5.843551751638337288e-01,2.761169467297379734e-02,1.965297123656638001e-01,-4.822191395530915636e-02,1.489150047302246094e+00
-2.672954013700427900e-02,-9.694722776009312426e-01,9.589908407246603428e-01,-1.299124662941837649e-02,-1.238197992598261523e-03,7.932189739662424272e-03,1.670445680618286133e+00
-1.421666868682726174e-02,-9.898549157911953333e-01,9.262927653906831704e-01,-6.876610453552754743e-02,-6.269106642669591833e-02,-2.790535182572613515e-02,1.668034195899963379e+00
-4.734410390383762129e-02,-9.215659609565970412e-01,9.615705369547328241e-01,-4.613469999138189448e-02,-2.375628523017157823e-02,3.220183146854447426e-02,1.635658025741577148e+00
-2.897024789798582911e-02,-9.914037452211608148e-01,9.629191945497322935e-01,-4.278101241252150501e-03,-3.545389172564031560e-03,3.973255651705712155e-03,1.692598700523376465e+00
-7.424951129953839823e-02,-8.113751014850899557e-01,9.138856779657282825e-01,5.209457588991608240e-02,4.984651570396459548e-04,-3.848928107767671247e-03,1.502109050750732422e+00
4.556023154509229733e-02,-9.621794433638272137e-01,6.858301885256703478e-01,2.883875365218061329e-02,-2.308136575156551767e-02,-3.881654074771205554e-02,1.441986083984375000e+00
8.758752813577504182e-02,-1.090561081114568065e+00,7.132029019082598564e-01,9.586414057913234671e-03,-1.346545515586827346e-04,1.039734378826697933e-03,1.586434841156005859e+00
2.769466597923715689e-03,-8.851478380484367747e-01,7.757988547628198450e-01,6.945710793279965926e-03,3.331818296251937324e-03,1.478183712896303896e-02,1.439858078956604004e+00
-6.922248183937973476e-02,-9.291636716775031335e-01,9.160604753940899680e-01,9.095570739613577718e-03,2.403443416183435270e-03,-4.266828829563134445e-02,1.601029038429260254e+00
-4.550843812384489095e-02,-8.190274964313335460e-01,7.897754366801821302e-01,-1.527787101004602971e-03,1.671971113427681488e-03,5.567906261904367188e-02,1.396944761276245117e+00
-5.684286920552950040e-03,-8.540153566194098600e-01,7.438697689038714644e-01,-4.237622007462698778e-03,1.432087257997582443e-02,-4.600454050679118195e-02,1.387222170829772949e+00
2.078475841946247904e-02,-1.048346971414751971e+00,7.865846199162924712e-01,-8.295024120904020970e-02,6.850126081853039062e-02,2.631602448270093514e-02,1.607802867889404297e+00
-3.311283279202123508e-02,-9.511738203272701586e-01,9.713553054827799293e-01,5.447595943528756035e-02,4.106445875017092351e-02,2.991339190846746543e-02,1.670509338378906250e+00
-2.237973324691676369e-02,-9.863755734480343929e-01,9.993699491726689699e-01,1.590939399880193506e-01,3.855800576169064742e-02,-5.359796865460794008e-02,1.745632767677307129e+00
-4.719839151685144285e-02,-9.787568868201310668e-01,9.620614640075236812e-01,2.881074747399235345e-02,7.548252790036125148e-02,-1.396963307689159071e-02,1.687234401702880859e+00
-3.382000341498168916e-02,-1.004734922952925880e+00,9.241591574007548271e-01,-1.613236631884670813e-02,2.773873854409478201e-02,3.911441716248477418e-02,1.672780632972717285e+00
-3.542869009026419769e-02,-9.423234302837517617e-01,9.719192252293920031e-01,7.936041345029304361e-02,3.636101690542388465e-02,-8.614783850493248907e-02,1.672091960906982422e+00
-2.038713907257688404e-02,-9.870652484727945319e-01,9.572188625095400250e-01,1.001717918996787929e-02,-1.428085656462449275e-02,-3.637839844846077128e-03,1.684091091156005859e+00
-1.284975676231346273e-02,-1.020257734036396968e+00,9.053387737069434893e-01,-8.801842967731378364e-03,1.140301550559960908e-01,-3.591985342155696453e-02,1.681083917617797852e+00
6.232377181841351754e-03,-9.865957911533549396e-01,8.032211114767237037e-01,2.378894444374556136e-03,-4.360442763021438878e-02,3.787614857810918390e-02,1.556340694427490234e+00
-3.041246234166296997e-02,-9.854147347643243959e-01,9.972225040801561136e-01,2.038740152781013532e-02,9.050711981916623877e-03,-1.425013830104238446e-02,1.718010067939758301e+00
-5.778366647031709519e-03,-9.341480129689964107e-01,9.491035253696868956e-01,-3.364858897667141052e-02,-3.139162194073094603e-02,1.466099196730094589e-02,1.633141398429870605e+00
-2.405451850752315240e-03,-9.779626592866037527e-01,9.684096246865346869e-01,3.001365371697621923e-02,1.136266010071561305e-02,-8.473141236843940299e-03,1.686589598655700684e+00
8.281394581338452285e-03,-9.833004304502962478e-01,1.011020415016108620e+00,7.816151326549541922e-02,7.008729080251843366e-03,2.469082291283784120e-02,1.733009457588195801e+00
1.759728756460889054e-02,-9.716998345643420576e-01,9.682319438391696620e-01,3.872384690749544611e-02,4.945681498390393574e-03,7.274288581517764779e-03,1.681548714637756348e+00
7.221473924775595465e-03,-9.150217887766779468e-01,9.431534351257334636e-01,4.063510967186377554e-02,2.458301101889196708e-03,2.830014903406293837e-03,1.610792994499206543e+00
2.555727649145005803e-02,-9.747092168639144294e-01,9.659228990556589789e-01,8.408825069319805778e-02,-2.355281137478314191e-03,6.135177056652446961e-03,1.687240004539489746e+00
2.055947046079984603e-02,-1.032145440081563059e+00,9.833555957669521952e-01,1.790253179404902029e-02,-4.720210422966671093e-03,-1.322693025665030130e-02,1.746498584747314453e+00
1.389175032217047218e-02,-9.816382803639381871e-01,9.716641704700326176e-01,1.526866115128565869e-02,-1.892071884327544730e-03,1.824705695484305987e-02,1.692219972610473633e+00
-3.991725843400388551e-02,-9.935931407048496089e-01,9.351106111306614066e-01,-3.577662960296979638e-02,-7.961378799985742438e-02,-3.663078342621965688e-02,1.678367614746093750e+00
-7.664991106865981507e-02,-1.002157115762255302e+00,9.557927800805421370e-01,4.131357393451965884e-03,-6.430762390109745485e-02,4.821061061597770037e-03,1.700165271759033203e+00
2.334890793582151125e-01,-9.949132521867023460e-01,1.303114860465843794e-01,-5.534497048639291797e-04,2.506113842091711175e-01,-3.241954573159124692e-02,1.258747935295104980e+00
-7.479539132963167192e-02,-9.771195266088452680e-01,9.302330186623111175e-01,1.163784435398564771e-02,-5.477839313923041353e-02,7.064673952331440750e-03,1.655503034591674805e+00
-2.407805607566938441e-02,-1.028131152780092483e+00,1.083845741421546327e+00,2.663133214004518093e-02,-6.111411152441662345e-03,-1.690323949880128546e-02,1.830608963966369629e+00
5.698981913906751157e-03,-1.004478873045977494e+00,1.027102511640975546e+00,2.868115104250564679e-02,-9.464498611765818567e-03,2.482450659032058374e-02,1.760712623596191406e+00
1.784091506748479786e-02,-9.742141901962938499e-01,9.650197406224376717e-01,3.751910654455202498e-02,-1.712172173700168831e-02,-5.421060387376875483e-03,1.681120276451110840e+00
-1.908387087409564933e-02,-8.293765302190543309e-01,9.189519135481822865e-01,1.177920204311110747e-01,1.513391202337431227e-02,-1.164678807099562251e-02,1.529473066329956055e+00
1.335223214263745774e-02,-9.782070010685747219e-01,1.010648105763916949e+00,8.487981456640825151e-02,-1.196644634979781262e-02,-1.055998555884916229e-02,1.728885412216186523e+00
1.427977070751398035e-02,-1.013009584996788170e+00,1.024122518419065875e+00,4.801825223743833027e-02,-9.396390938667195311e-03,-1.250785310196672259e-02,1.766396880149841309e+00
-7.528089433627377369e-02,-9.838861803207645806e-01,9.579158305169725995e-01,8.948671304154297290e-03,-7.690570816949422045e-03,1.045165003584806220e-02,1.683024764060974121e+00
-6.610807144440365712e-02,-9.702934202142886599e-01,9.242710751812412973e-01,-1.761821128341687758e-03,-5.618806131860839409e-02,1.256877976925233065e-02,1.644336581230163574e+00
-9.161259484639686090e-02,-9.724824337838388066e-01,9.490787964306214297e-01,-7.662840707946591947e-04,-7.101946449224411095e-02,1.214979800823731866e-02,1.670706391334533691e+00
-8.200783963767788176e-02,-9.695843215413583183e-01,9.302475300825039373e-01,4.527319281419727825e-05,-1.361679685615873117e-02,-3.423265483521775558e-03,1.646662831306457520e+00
-6.492607872602552954e-02,-9.969759412773164797e-01,9.429317001527022235e-01,-1.279626048844555641e-03,-5.089163522874626255e-02,-2.282942502366754143e-03,1.682753205299377441e+00
-8.016068072857580884e-02,-9.670243558583515586e-01,9.291725784322898418e-01,-1.794840661322111893e-04,-4.192553359236414826e-03,-7.731065841559824504e-04,1.643312692642211914e+00
-5.083511303414102456e-02,-9.871454334036665612e-01,9.602358112048758887e-01,2.197501658861253891e-03,1.488347111738446901e-02,-2.518617352870635828e-03,1.687102794647216797e+00
9.411485073787279054e-03,-9.787041288971685127e-01,7.574294237912142513e-01,2.415430519571491394e-02,6.404299649700126440e-02,-2.931578237125487610e-02,1.513824462890625000e+00
-4.619162640943817733e-02,-9.610256932551594078e-01,8.454106582820162252e-01,1.154309988955115954e-02,3.166463937969622722e-02,-1.998787607414076808e-02,1.565934300422668457e+00
-7.152076847338435794e-02,-9.726976443024428765e-01,8.996213398822148211e-01,9.479435495580477294e-03,3.463979154011982003e-02,-8.292372221465412092e-04,1.623046159744262695e+00
-6.079321549066131480e-02,-9.653196895576617864e-01,8.903231573699699197e-01,7.446129666067594424e-03,3.997053394705049612e-02,-5.316977654820456180e-03,1.608771085739135742e+00
-8.106744037809482384e-02,-9.849687864287772765e-01,9.556298637234119653e-01,9.563095204988871986e-03,4.497744210585426922e-02,-6.361850933765713680e-03,1.683839559555053711e+00
9.754322671441648107e-03,-9.696491366492212549e-01,6.440551052579976954e-01,-4.071547686290241663e-03,-2.540600509305588339e-01,3.727441715857815474e-02,1.476706624031066895e+00
-4.524915318230607331e-02,-9.457596744928615795e-01,7.781893534869697149e-01,-2.731216061667708986e-03,-1.201912587598017446e-01,-5.425582841497022211e-03,1.507956743240356445e+00
3.737224906892350207e-02,-9.707038700235604001e-01,6.325105722295982780e-01,-3.577417277709836300e-03,-2.073857774798741893e-01,2.836082329089342075e-02,1.449768900871276855e+00
4.414825327184400405e-02,-1.047223637143088526e+00,6.787330221912041273e-01,-4.779060679933254570e-03,-2.059235635233974404e-01,1.887247308126058188e-03,1.553593039512634277e+00
-3.924398492705270802e-02,-9.812221767327615751e-01,8.123140594181226248e-01,1.584245936030262772e-02,-1.041184955101033260e-01,2.844159712752881292e-02,1.565351366996765137e+00
-5.336728176446840777e-02,-6.709286583513763835e-01,8.420082061190147238e-01,7.855596513498586120e-02,-5.616438391215190958e-03,-1.695850659766300755e-02,1.324952483177185059e+00
-7.270551425376856058e-02,-7.154057684650170224e-01,8.671564494728033479e-01,7.014861477141526303e-02,-7.698734448290586990e-04,-3.062047899500940779e-02,1.384929895401000977e+00
-1.812904464454838938e-01,-5.483862806759799424e-01,9.984483982348469899e-01,1.196023871747814438e-02,7.538254753539672809e-03,-2.106270257113789651e-02,1.400553703308105469e+00
-1.284611165151267331e-01,-5.466581323118945290e-01,8.554727287759174015e-01,1.012843430657864446e-01,-2.209344004138880449e-02,-8.662400975486308705e-03,1.259745121002197266e+00
-1.611055012308618140e-01,-5.685822655681203042e-01,9.918832251012357215e-01,8.688726898618408245e-02,-1.149755911508990036e-02,-1.272737514924305452e-02,1.410236597061157227e+00
-1.400133285271457084e-01,-4.976707376188483911e-01,8.422177680669438171e-01,9.819315427330869983e-02,-3.690360115538523361e-02,-3.769413058301193664e-02,1.217075467109680176e+00
-9.696427841466612185e-02,-8.822437524545151399e-01,9.431218534046470481e-01,-4.764068594277692803e-03,-3.997574515645614147e-03,-5.654078993741789259e-03,1.586005449295043945e+00
3.627220949354643953e-03,-9.749591824468560874e-01,8.084182797741622517e-01,-2.189354067057567958e-03,2.559327027961460013e-02,-8.444516288380256308e-02,1.554429173469543457e+00
-1.085566018250213316e-01,-7.388060230711526177e-01,9.154667289576594591e-01,2.010582511463235647e-02,-2.943292882057047324e-02,-1.347833009923234647e-02,1.447613477706909180e+00
-4.402528871118074200e-02,-9.336776492325353782e-01,9.458024691140303197e-01,4.359615768258909459e-03,-4.726871488092396906e-03,-4.806004915870993460e-02,1.630612254142761230e+00
-3.483382003707106989e-02,-9.612462772787939702e-01,9.282067029999256924e-01,-2.906832600767889768e-02,3.375129610012057163e-02,1.325968528773431468e-04,1.638234496116638184e+00
-1.227661970203493269e-02,-9.108317467144435575e-01,7.876716795213226652e-01,-1.137486563321131183e-01,9.693701722024067324e-02,6.657596714036292940e-02,1.498806118965148926e+00
-3.110646655972264946e-02,-9.748172927340862381e-01,9.100203460833202751e-01,1.170191859671266058e-02,-9.438091737634754508e-03,3.923139525997394045e-03,1.632539629936218262e+00
-7.214949890734620452e-02,-9.641213374704442618e-01,9.170668332485931717e-01,3.624839532363890310e-03,1.466022704851283444e-03,-4.014455348113718913e-06,1.629896163940429688e+00
-4.956838295674709238e-02,-8.948113534823044501e-01,8.851653560262567888e-01,1.412532795212161248e-02,1.108027175807393613e-02,1.153659913946298264e-02,1.542597174644470215e+00
-8.164810517127697731e-02,-7.524593863984750941e-01,1.067155345726300109e+00,-2.246442442439029463e-01,4.654821678455679790e-02,5.551862367745759308e-02,1.645451188087463379e+00
-1.100705438696213262e-01,-6.840239717073132164e-01,9.765086797642275052e-01,-1.222799677485929409e-01,-2.590718176621290697e-02,3.743188381073447868e-02,1.478105902671813965e+00
-1.576757681208934558e-02,-1.006313157961465699e+00,9.709292619267868574e-01,-2.054257199600447586e-02,-6.659264611529878627e-03,1.161272227107295468e-02,1.712869763374328613e+00
-4.492847300397526805e-02,-8.529669436970760410e-01,9.546682518650332350e-01,-1.148889486179366093e-01,-2.364684508593185505e-02,4.472604522652190440e-02,1.583385467529296875e+00
-6.167226711512155402e-02,-7.657595782724873068e-01,9.431292361255860790e-01,-1.016252195208031672e-01,-5.048244935303999523e-03,-3.633985983868518593e-02,1.499284625053405762e+00
-5.312891156076496313e-02,-7.920198795111065282e-01,9.107696114859786807e-01,-8.006311417672175301e-02,-2.191449260785546457e-02,8.367948680618100127e-03,1.485986948013305664e+00
-6.024939964536162040e-02,-6.126955297825947833e-01,9.016460046539603868e-01,-1.470595077292894681e-01,-1.582566901180822855e-02,4.751261173614801381e-02,1.354340434074401855e+00
-1.212140043332909506e-01,-5.190195437337968842e-01,8.735945169171264180e-01,-1.301630996018726394e-01,-4.084628441909485957e-02,1.148677347720602482e-01,1.280253887176513672e+00
-1.160832048922990634e-01,-6.909683950051690449e-01,8.964917989349727723e-01,-6.776972272074652248e-02,-2.590394278638843278e-02,1.425777971530972459e-02,1.397968769073486328e+00
-3.279200213707121614e-02,-9.896996361978680490e-01,9.407003196034914305e-01,5.777898146459858192e-03,4.567610093861672500e-03,-6.577904513811847972e-03,1.671883463859558105e+00
-2.802418078074422891e-02,-9.907715004847651441e-01,9.557629894865018461e-01,-2.110560731301578362e-03,-5.848623282510676425e-05,-2.640068247664734396e-03,1.685791254043579102e+00
-2.686015869282073337e-02,-9.845742553221391580e-01,9.326176158752508272e-01,6.281730098954776574e-04,1.906674156904923862e-03,-6.941545639190329492e-03,1.660384297370910645e+00
-2.105642635154467840e-02,-9.822434101833903419e-01,9.576538498383284637e-01,-6.002010196213527528e-03,-1.264842256443658546e-02,3.486089038123554168e-03,1.680209040641784668e+00
-2.278380790882820334e-02,-9.857672575155149719e-01,9.184775237017497318e-01,8.146874961344814647e-03,-9.655761502948213143e-03,-9.290187148177126049e-04,1.649306058883666992e+00
-5.562055071252632044e-02,-9.680050608073188512e-01,9.489945872374169200e-01,-7.304080146905815585e-02,-1.487110838269588113e-02,1.554416200248169844e-01,1.687438011169433594e+00
-4.457987946111667543e-02,-9.934127052800251212e-01,9.640666849960372042e-01,-9.580859579518464413e-04,-9.608232704482598530e-03,2.100860476214339630e-03,1.695577025413513184e+00
-6.007791648769982701e-02,-9.856862740644007914e-01,9.495258915792327281e-01,7.170010481406892747e-03,-9.796732305743151986e-04,9.798238480277004711e-03,1.676601767539978027e+00
-5.327325272938149975e-02,-9.928504602599289575e-01,9.617639917293844265e-01,9.694548455212458754e-03,-2.108571023447281065e-03,1.148162543908189809e-02,1.693370223045349121e+00
-4.019011231320571836e-02,-9.859102881263064333e-01,9.435228210422796913e-01,4.739239435892109858e-03,3.692865310409285118e-03,6.163515649233293481e-03,1.671112537384033203e+00
-2.871463506187832415e-02,-9.917612598234449850e-01,9.557232753824868032e-01,3.505245117383289435e-03,1.628854818879232761e-03,2.566932398477450323e-03,1.686624169349670410e+00
-1.130226766104986541e-02,-9.544681164423736153e-01,8.309321499994747340e-01,-1.229609619625823521e-03,1.247743104406129067e-01,8.946691141269030867e-02,1.569716811180114746e+00
4.515455504600882075e-02,-9.363918125646145674e-01,6.235871589414240246e-01,-1.639005829777454015e-02,7.712485773581757853e-02,-1.419735773859079342e-02,1.372964382171630859e+00
9.818619567527564485e-02,-9.372916763001368778e-01,5.154096626291861938e-01,1.026058361926769115e-02,8.345302882070650130e-02,5.628803381326562272e-02,1.307298541069030762e+00
1.242330045128038213e-01,-1.033297335320053856e+00,5.391005529845235289e-01,-6.855512927452863878e-03,8.919903614807300762e-02,6.705253350117472422e-02,1.424679517745971680e+00
7.078231741460136450e-02,-8.925524889930122052e-01,5.325730932669934248e-01,9.335460414986130814e-03,7.990468452652986497e-02,1.998629306017191132e-02,1.267571687698364258e+00
-2.015073568156011859e-03,-1.007873535616258032e+00,9.883533471100579559e-01,-2.454178030669610169e-02,9.144298506844249219e-03,-8.623798123700026144e-03,1.729460120201110840e+00
3.819840493398240361e-02,-9.668787432177453622e-01,9.548773028197035107e-01,1.147779711344833753e-01,-3.867916951454042612e-03,-2.717289858613572071e-03,1.676723718643188477e+00
-1.978131563229524326e-01,-3.120941551434327499e-01,9.593256406767103339e-01,2.762652268216452267e-01,2.786742926748099480e-02,-2.326582083296592496e-02,1.310416102409362793e+00
-1.846974110191317853e-01,-5.373296564087708393e-01,1.053219177365703363e+00,3.473459697673943469e-01,1.807984295275585560e-02,-4.264828689295794423e-02,1.568980932235717773e+00
-1.087686420427422668e-01,-1.295107889398335876e+00,1.408512478670401302e+00,4.063535662672125848e-01,2.268114107904108667e-01,-4.178024056691595489e-02,2.482839107513427734e+00
-1.905255632428646817e-01,-4.800960070920434752e-01,1.025869559805198783e+00,2.920075086664748465e-01,8.326944691391826789e-03,-3.769589774295081103e-02,1.475119113922119141e+00
-1.816708514776012307e-02,-8.712600482742236530e-01,9.817496070143441056e-01,2.583019225330470681e-01,-1.079199172246116459e-02,4.893342220587740959e-03,1.667694091796875000e+00
-9.330243481999210553e-02,-7.919110747218447433e-01,1.052797212963767270e+00,2.058420019919995625e-01,2.440587670203559455e-03,2.613293780452358508e-02,1.652710795402526855e+00
-8.201063228925448145e-02,-1.019108254119139634e+00,1.039557391992663282e+00,-2.278514124626087115e-02,5.224230566927489522e-02,-5.895229623822609115e-03,1.787997484207153320e+00
-8.302959618979849354e-02,-9.869354281987273714e-01,9.552043298330588073e-01,6.478122696820918028e-03,4.168517310875555215e-02,-8.560527588875550820e-03,1.684933185577392578e+00
-3.589021536595471407e-02,-9.997102445748620170e-01,9.811620029865851800e-01,1.909327859878344903e-03,8.230899665928169016e-04,-6.815108349939144779e-03,1.715736508369445801e+00
-9.399573251714991862e-02,-9.958168976697514552e-01,9.985595792076646937e-01,2.370520117673879414e-03,6.677303231418425800e-02,-8.509248924798528194e-03,1.733741044998168945e+00
-6.761431787399228843e-02,-9.852054820373608024e-01,9.456639159835065200e-01,3.944350603795504159e-03,6.415892065438764079e-03,-6.891639678769292260e-03,1.672959685325622559e+00
-3.191840219337272605e-02,-9.936965635270006425e-01,9.654279733878455838e-01,2.843243026408791459e-03,-3.314878140413513984e-03,-4.461594256765006108e-03,1.696779251098632812e+00
-4.198628312608340685e-02,-9.931865047587705719e-01,9.473864564156678769e-01,5.423448385966289295e-03,1.230020569175038986e-03,-1.107060732224965718e-02,1.680830836296081543e+00
-4.284437994952270540e-02,-9.991098629921159047e-01,9.744586979205658306e-01,5.607831955864713523e-03,1.439460182217225728e-02,-1.032723352007076587e-02,1.709735989570617676e+00
-5.531183221885287160e-02,-9.211264407831227796e-01,9.417416899191917157e-01,-7.343445500155043344e-04,-1.359696348870309025e-02,-5.158445230092392406e-03,1.614822030067443848e+00
-7.656395263255394434e-02,-7.760740201645138781e-01,8.897723539775705959e-01,-4.223391178499596305e-02,-5.380780541634645059e-03,3.458892955549119907e-02,1.451932907104492188e+00
-2.152659869224007871e-02,-9.641405687973526595e-01,8.819613006238046227e-01,1.183149678451929886e-02,1.733447994131286085e-02,-2.515094862353782490e-02,1.599897146224975586e+00
-4.237703797517457238e-02,-9.545711097424022240e-01,9.454664666329765099e-01,-1.232214508829532033e-02,-7.416282085983385945e-03,1.880688447358477844e-02,1.646426200866699219e+00
-7.454965912685994345e-02,-7.800596858305235415e-01,8.760967414365211647e-01,-3.913329948704552530e-02,1.037691866521368508e-02,1.522075755084488675e-02,1.441449165344238281e+00
-5.883967870669007394e-02,-8.228022163592355609e-01,8.617495917476829526e-01,-5.993042591482780797e-03,-1.403934050790364707e-02,4.911815013973407779e-02,1.463678956031799316e+00
-5.296533460981982244e-02,-9.810987318539764468e-01,9.299108228088958095e-01,5.682026954113089494e-03,-2.623087288080754639e-03,1.554504707155292828e-03,1.655246853828430176e+00
-3.019973818135096577e-02,-9.707988685844606280e-01,9.123833839911802412e-01,3.287733242029595992e-02,-7.576375088331236633e-04,1.496183082439720043e-02,1.632084131240844727e+00
-4.583839022956932852e-02,-9.288338453884092960e-01,9.114239260093107697e-01,-4.901788053814746735e-03,2.508459189376763179e-03,2.639646381075751169e-02,1.594826579093933105e+00
-3.163977223060338018e-02,-9.651972278258331706e-01,9.092807806230457368e-01,-1.180911326929456190e-02,6.830247261185036500e-03,4.483545204841664703e-03,1.623540282249450684e+00
-1.386685497422091018e-02,-8.547419635769679669e-01,7.102859216102996864e-01,6.674248272959137918e-02,-9.211612640789189344e-02,-7.002866976173417225e-03,1.370896458625793457e+00
-4.260604461647686525e-02,-1.001832950950410916e+00,9.792450302193174139e-01,2.297929443384044701e-02,7.339937509532996028e-03,4.794023946064612622e-03,1.716478228569030762e+00
1.572683294446887425e-02,-9.868539488393943682e-01,7.518348462423004586e-01,1.690791566700145659e-02,-9.533694938325104618e-02,-3.872389278405369978e-02,1.522384524345397949e+00
-4.296828864450101537e-02,-1.022662704413296320e+00,9.732428756268979297e-01,-5.812723966203707862e-03,-4.344919562126157986e-02,-2.112632901211633149e-02,1.730654954910278320e+00
-2.071837132368398865e-02,-1.079658586228690487e+00,1.071588513378828766e+00,3.050650906883143471e-02,-5.252180560932335346e-02,-1.964494947383606943e-02,1.866387367248535156e+00
-3.145600105151334647e-02,-1.022919599102690480e+00,9.858643286089641133e-01,2.144439635273509559e-02,-4.339219256551087034e-02,1.017686262561616831e-02,1.741813898086547852e+00
-1.636446511612148214e-02,-9.417380713579265317e-01,9.013564094000515725e-01,7.061262163570627970e-02,-7.038122769486507280e-02,-3.561947305701845985e-03,1.605496644973754883e+00
-2.245417223485101504e-02,-1.013449444597359861e+00,9.406480060010472544e-01,2.352239863925553731e-02,-3.364613121529768519e-02,2.605872250477590454e-02,1.694449901580810547e+00
-9.063236553365036641e-03,-1.076602604864453916e+00,9.750380613469992186e-01,4.750164352394183748e-02,-6.143092684809782489e-02,-2.192542087054646927e-02,1.782749295234680176e+00
4.119326559189763481e-02,-9.468865383042038841e-01,6.649074321125935105e-01,-1.357535536996252179e-01,-2.076833067667047394e-01,-2.540933939409273454e-03,1.471836924552917480e+00
-6.463113088575736520e-03,-1.118753576454624366e+00,8.599660973799911901e-01,1.270099598380148957e-02,-2.412686612456469426e-01,5.913873524284576910e-02,1.771219491958618164e+00
-4.191767976004272256e-02,-9.934969292732409585e-01,8.407415794276765775e-01,1.745136167169440006e-02,-1.132610924483035408e-01,1.127987199678155174e-02,1.601340174674987793e+00
-5.295478508903514459e-02,-1.064654472884178915e+00,1.000886323994882865e+00,1.316929499336819825e-03,-8.614338440341627601e-02,3.065119154691186773e-02,1.795932531356811523e+00
2.031166133247455097e-01,-1.730893124924696380e+00,9.705028450705758258e-01,-4.078388372722238642e-01,4.617165941301124565e-01,2.212834997143289795e-01,2.664366960525512695e+00
5.158595609681491945e-02,-1.172807439283874320e+00,8.210584030197241034e-01,-8.275559091053623362e-02,-2.872096134750679597e-01,-7.691112911317760786e-03,1.817018151283264160e+00
-2.121873369496540818e-02,-9.782391283163783813e-01,9.537954638025814003e-01,-1.388335446773971207e-03,1.819877705453705474e-02,-1.149182403007313266e-02,1.673632144927978516e+00
-3.498591812323889605e-02,-9.942611456503706036e-01,9.801391449992210569e-01,-5.031474359157663001e-03,-6.388545139413820580e-03,1.370564420878386466e-02,1.710331559181213379e+00
-9.331705160779756730e-03,-9.985190522876332686e-01,9.713477867020277046e-01,-1.367077048557942091e-02,6.013321492234584981e-03,5.472010272374927542e-03,1.706182479858398438e+00
-9.960418483439485021e-03,-9.832288955264087971e-01,9.604217850376505217e-01,-1.519757395063842456e-02,3.703214081826268229e-03,4.468196339898719213e-03,1.683487296104431152e+00
-3.405209500631645181e-02,-9.984076816742889493e-01,9.789489806064304300e-01,4.003218177412176323e-03,3.334841335148389357e-03,1.014725395592396516e-02,1.712727785110473633e+00
-3.436187434139399699e-02,-9.915584733736634293e-01,9.604616966388921373e-01,3.217954963984379600e-03,-4.058454544883916167e-03,-8.510262987828327375e-04,1.690628170967102051e+00
-1.752880628375447572e-02,-1.031722785284351351e+00,1.025870668230026705e+00,-4.252460242621792369e-02,-1.631613403528506950e-02,-8.231681765052985614e-03,1.783790469169616699e+00
-1.896478318211572422e-02,-1.087783727324841410e+00,1.038224392686171615e+00,-2.887067466805841309e-02,-3.309735892701007320e-02,1.474191275102218132e-02,1.842933893203735352e+00
-7.758629282468251787e-02,-1.121384144302887353e+00,1.083369196241139143e+00,1.771806187093973028e-02,-1.026818550597339563e-01,2.000610550123468542e-02,1.919090270996093750e+00
-6.893114813769368743e-02,-9.807808836738703961e-01,1.003848731224875390e+00,-1.015236111485886238e-02,-4.036179010690203739e-02,-2.172736779946024890e-02,1.722542643547058105e+00
-8.562262479527377179e-03,-9.574951495057254514e-01,8.043166028252726196e-01,2.641233250154339379e-02,-2.968268941749439491e-02,5.321792477952076716e-02,1.531615376472473145e+00
-3.644323186996367009e-02,-9.623818806958628347e-01,9.529385660820495207e-01,-4.369348655793881681e-02,-2.775275496873977690e-02,-3.444307932473527484e-02,1.662510871887207031e+00
5.809812386791703143e-02,-1.021714371490269224e+00,6.015534871074713630e-01,-8.357244675248655386e-02,-1.394063876379507960e-01,1.227746664536384646e-01,1.473989486694335938e+00
-2.613281041386375514e-02,-9.989369133964519643e-01,9.122013659192318435e-01,1.378919684733495056e-02,-3.254516279052931810e-02,-1.860457985996986571e-02,1.656629323959350586e+00
-8.321952176363386910e-02,-1.021482367585574424e+00,1.020939789374263329e+00,6.315845896947500267e-03,-6.171474691209519192e-02,5.743174340455036104e-04,1.773990869522094727e+00
-3.541823746558590835e-02,-9.868125180484407233e-01,9.470540998889913631e-01,1.214286340396951783e-02,-8.422201207195339698e-03,-1.030156919150446507e-02,1.675140261650085449e+00
-4.115089686669759494e-02,-9.931566721543152454e-01,9.709966365814037825e-01,1.192285225317559058e-03,5.351849718923535823e-03,-8.346230905667408745e-03,1.701360344886779785e+00
-3.845955403294064323e-02,-9.764552921662752460e-01,9.594615409583439058e-01,5.886816063611627695e-03,-2.173630156233168770e-02,3.934918005356002023e-03,1.677288293838500977e+00
-3.671601613380724022e-02,-9.639832731225174145e-01,9.548684637331853464e-01,-3.390462321982674367e-03,-7.189728766775265942e-03,2.578558412237276325e-03,1.662148475646972656e+00
-2.008885568624725615e-02,-9.860916708736013891e-01,9.777143085238491071e-01,-2.431114999515926814e-02,-1.637663366009226712e-02,3.261714168812955995e-03,1.701547145843505859e+00
-8.570849446544452632e-03,-1.011904862012080075e+00,9.948577867893297899e-01,3.676870750453755179e-03,-2.848056392159995301e-03,-3.391224120038433161e-03,1.737936019897460938e+00
-4.685880240943036956e-02,-1.034007382472795111e+00,1.036745254625551116e+00,-4.897373461313434505e-03,-1.427955929417167383e-02,-3.768665094286927694e-03,1.794175148010253906e+00
-5.101701041373281342e-02,-1.016790131789965024e+00,1.040530245823285460e+00,7.533929933643790725e-03,5.483655082105290055e-03,1.200814345161234017e-02,1.782995581626892090e+00
-6.357550140586014364e-02,-9.955884582298534236e-01,9.924913661629964912e-01,1.677227699054731737e-04,-1.325829634558805398e-02,1.190224359252869610e-02,1.723120927810668945e+00
-6.451355755066340292e-02,-1.010782572179878436e+00,1.016157759062661370e+00,4.942808756909188896e-03,-2.252937103358006177e-02,8.805115183730886919e-03,1.757188081741333008e+00
-6.851171973108564905e-02,-1.037856351863568838e+00,1.056367310465631038e+00,-8.190553504069088275e-03,1.578443358688035730e-02,-9.451028958997206939e-04,1.815579414367675781e+00
-6.371460182676545736e-02,-1.059366210800977592e+00,1.070470413415695932e+00,-4.996741517387597031e-03,3.542090188636388970e-02,1.363484653656386013e-02,1.846983313560485840e+00
-6.515110183555927748e-02,-1.010806436684939857e+00,9.968242377448303104e-01,-4.388660696281060543e-03,5.004265375933165949e-02,6.813281827176223375e-03,1.741846203804016113e+00
-6.381555009037345738e-02,-1.011956982741519795e+00,9.997127297745495023e-01,-8.253961419135215014e-03,7.146130012355595383e-03,3.306224247464454279e-03,1.743224024772644043e+00
-5.685736085428388931e-02,-1.020941398499189079e+00,1.015045785549614221e+00,-1.513897109158815393e-03,2.968438942311504153e-02,-3.437474327387766461e-03,1.764801621437072754e+00
-6.840340221917093344e-02,-1.016268785042008682e+00,1.014991416342799990e+00,-2.372014083180374894e-03,1.766564905581381739e-02,1.119409877327506679e-03,1.760699391365051270e+00
-6.313096889977842796e-02,-1.014931586722125356e+00,1.032392077035941380e+00,7.824076622709323680e-04,4.741045343714069514e-03,4.607572306732138703e-03,1.774527430534362793e+00
-4.976299995642939622e-02,-9.743009331060993317e-01,9.097978024166670785e-01,1.238033844396219801e-02,1.239635070507841101e-03,-1.711989056886480814e-02,1.632182955741882324e+00
-6.030507862930412077e-02,-9.827100030659954299e-01,9.432266957651396222e-01,1.187387160618666102e-02,1.367213474309264196e-02,-1.491575299446545530e-02,1.668898105621337891e+00
-6.038350931119000620e-02,-9.573840381570830615e-01,8.699920495201847181e-01,8.629612015695706934e-03,4.645019298839684480e-02,-1.617300674373081670e-02,1.585003733634948730e+00
-6.273832973546564218e-02,-9.689895371135796021e-01,9.150343439101386034e-01,7.663632374260080475e-03,2.165407421753801423e-02,-3.040437463302641911e-03,1.632497787475585938e+00
-4.662302227216153644e-02,-9.885683324999187116e-01,9.367570327683218956e-01,1.416476554169511688e-02,1.637745607503462292e-02,-5.918690728761654210e-03,1.667962551116943359e+00
-3.834859965173002122e-02,-9.704612222460461401e-01,8.765205101931783371e-01,1.295097426488329810e-02,2.812457237909445074e-02,3.726902773400100292e-03,1.600468158721923828e+00
1.552613287663316341e-02,-9.666880811728508771e-01,9.453361778245613634e-01,1.825593772734581104e-03,-2.708428607861008194e-03,1.848727128758179345e-04,1.656078577041625977e+00
-4.682860839280869603e-02,-8.969966482911456707e-01,9.230610944454588074e-01,1.804728923798183671e-02,-2.218830191268423083e-02,-2.504220711811596181e-02,1.578726172447204590e+00
-4.343006456411622335e-02,-9.720522796268687982e-01,8.897913904141008246e-01,-1.435245644888692891e-02,-3.318747424288981396e-02,-1.921626216417817931e-02,1.613964557647705078e+00
5.337246846475747486e-03,-9.219316248257367619e-01,7.444181422988719321e-01,1.208108509979976750e-02,5.269987420557962349e-02,-2.199887170222574254e-02,1.449695229530334473e+00
-1.431034147339867862e-02,-9.367865896061378095e-01,7.791329766593069195e-01,-1.372043467040954222e-02,7.143557787658894043e-02,5.929389696128545273e-02,1.496284961700439453e+00
-2.203778025012248509e-02,-9.959081038929500362e-01,9.706411422037301007e-01,2.855309452727262942e-02,-7.531979926920210136e-03,-2.351881286959326203e-02,1.704362273216247559e+00
-1.289039513476475385e-01,-6.464235264466023922e-01,9.271273722360797720e-01,1.209518712869938756e-01,-1.208384573131093993e-02,-8.943070027743310613e-02,1.413458585739135742e+00
-4.922133439413431399e-03,-8.544193143830159931e-01,9.184748835562540625e-01,7.847302886609473782e-02,-1.164808166240685790e-02,-1.159373275694535778e-02,1.542081356048583984e+00
-4.527521458202065502e-02,-9.721736812714686371e-01,9.660631492396962727e-01,1.154594432029123173e-02,-1.719895987191222275e-02,6.205530733673151863e-04,1.679476857185363770e+00
-2.292098138223039316e-02,-8.093730020521443524e-01,7.507692752140799897e-01,2.002182035623274216e-03,4.439373772824313155e-03,1.305986833562478022e-02,1.351353526115417480e+00
-1.972457276146095950e-03,-8.781557360518246202e-01,7.275196587393475411e-01,7.372028816907106284e-03,2.646033679569709599e-02,-6.010817853042358522e-02,1.397185444831848145e+00
-2.536819543183744391e-02,-9.753940357675627837e-01,9.131891584180494847e-01,-3.385254859731390113e-03,6.907387641965778355e-03,6.400031334633619028e-03,1.635662913322448730e+00
-3.554579932073115983e-02,-1.033548129984381392e+00,9.307987088914110307e-01,-1.540157644984796632e-02,6.080466199416293543e-02,3.333430885533341520e-02,1.705690860748291016e+00
-7.199156446372362295e-02,-7.471685159294416678e-01,9.497570233202234924e-01,1.629309459328944776e-01,5.865692620192806961e-02,-1.373837648364813757e-01,1.528489232063293457e+00
-7.586662718324960197e-02,-6.708751538294898120e-01,7.919986378974283037e-01,8.656220676969228478e-02,9.766291281119174675e-03,-6.648889155249086691e-02,1.288270115852355957e+00
-2.590549648747279138e-02,-9.635955222662770936e-01,9.264988830657133745e-01,1.118040685152554559e-01,2.152735168401681554e-02,-6.331319895047243795e-02,1.652365922927856445e+00
2.018639861209972977e-02,-9.768554395453513672e-01,9.517861350506501283e-01,3.454768719074505223e-02,6.001363598832211259e-04,2.079578839780847187e-03,1.671648621559143066e+00
-6.673656762648005891e-02,-9.782884399939782982e-01,9.465737257074833266e-01,-2.995582064922854633e-04,1.736653373288344834e-02,-1.118745627200109366e-02,1.668139696121215820e+00
-7.673782579568926010e-02,-6.635683158366730838e-01,9.094304143565380416e-01,1.568834415870813126e-01,-1.450636898819257503e-02,-2.848739554536433918e-02,1.404462337493896484e+00
-3.740282362393208826e-02,-9.848943941230160481e-01,9.431093711988717265e-01,-4.497065762164664457e-03,-6.401655874057505212e-03,-3.168429278647952752e-03,1.669845819473266602e+00
1.228657902661275600e-02,-9.256198177883345757e-01,9.318498178173437729e-01,3.237528597260881658e-02,-1.456064505554556694e-02,4.721931786876256386e-03,1.609837412834167480e+00
-6.901513531236220557e-03,-9.360628591955632016e-01,9.484243411353003861e-01,-2.197858075755746571e-02,-2.199397829947961208e-02,1.354697488013718518e-02,1.633123159408569336e+00
3.007101444698217704e-02,-9.943092150246440886e-01,9.617721768617434330e-01,-3.066537304298810537e-02,-7.845078333055768849e-03,1.373353875174206790e-02,1.695703268051147461e+00
-5.201213781542438075e-03,-1.068955921463552450e+00,9.213613361489100262e-01,-2.071626411010565882e-02,1.175887391915776126e-01,-2.869674743924136712e-02,1.738092899322509766e+00
-5.953791591627836943e-03,-7.751151587694351530e-01,8.884030970258440796e-01,-8.908686171430559020e-02,1.892095758816506696e-03,-4.540947195884713003e-03,1.450265526771545410e+00
2.153088748356222007e-02,-9.693929194557892037e-01,9.664234493360444045e-01,-4.759834279861918649e-02,2.988198138133148218e-03,-5.548959043740718522e-03,1.678685307502746582e+00
3.561763654183758981e-02,-9.848464333578359486e-01,9.494856787985263002e-01,-3.793944414800019815e-02,-2.561823751295939054e-03,-6.112240397427430062e-04,1.677322387695312500e+00
-3.558392729440704866e-02,-9.832222211528980349e-01,9.444793545017281522e-01,4.124594231583729280e-03,1.054754388695682173e-02,-5.225974427271899703e-03,1.669656991958618164e+00
-3.690849503840951118e-02,-9.880352568897474708e-01,9.571824110227552529e-01,3.171885143926936280e-04,4.034330243448233828e-03,-2.121725332034641621e-03,1.684763431549072266e+00
-4.278462514161571889e-02,-9.537159892482620638e-01,9.517053348762791742e-01,-1.401577916033767274e-03,9.820976946113672140e-03,8.285803293581630799e-03,1.650823950767517090e+00
-2.299019553339197441e-02,-9.741639170855832530e-01,8.986483520421002513e-01,4.209157939549770279e-03,-2.103628270234418791e-03,5.345593397790260846e-03,1.622017145156860352e+00
-3.317732115449815306e-02,-9.731631336319084280e-01,9.069100041044044769e-01,-6.516138008262931450e-03,-2.988675433339413930e-03,-7.545702450563553966e-04,1.628238916397094727e+00
-3.116434188047481624e-02,-7.658372521395432342e-01,7.302311829202161597e-01,-9.871602905911221193e-02,-2.234816040336156523e-02,-5.091642654836413262e-02,1.310478687286376953e+00
-1.409167604677872068e-02,-9.785711852755396567e-01,9.024857978190317098e-01,1.003427757036135133e-02,-8.456618958700666544e-03,1.773496253051916501e-03,1.629380583763122559e+00
-3.663629308851984456e-02,-9.699525942152443791e-01,9.386943252893459322e-01,6.421882883791180281e-04,5.263888942553177422e-03,1.567223145916496517e-03,1.653097987174987793e+00
-4.914640584264602652e-02,-9.465222867992340028e-01,9.332086599472952937e-01,-4.085588901141455100e-03,6.255955068857628476e-03,-7.265965727532470997e-03,1.628549218177795410e+00
-1.365255386497490030e-02,-8.662803290982132864e-01,8.002193950805205347e-01,-6.805658341680037582e-02,6.726495262111789608e-02,3.239463654231930501e-02,1.453928709030151367e+00
-6.321700223529772011e-02,-9.873941680869303683e-01,9.618970625218351556e-01,7.399395305244214904e-03,1.095039262588100304e-02,-1.152054718014040684e-02,1.689162969589233398e+00
-3.817291776089200284e-02,-9.918067830716678079e-01,9.661450243168944185e-01,-9.316913181056822655e-05,8.892886418496150081e-03,-2.518001609066567326e-03,1.695900917053222656e+00
-1.773070654727170944e-02,-9.401428953727259952e-01,8.338673718034688154e-01,-2.906298474449961824e-03,-5.789288310165702223e-03,-8.877122516251048645e-02,1.544459462165832520e+00
-6.097161838416954860e-02,-8.604443985609718792e-01,8.330969236265592937e-01,-1.389158463070315963e-03,-5.909316888010352278e-03,-2.193219384428699570e-01,1.515821814537048340e+00
-6.782377463183782151e-03,-9.737378715052087408e-01,8.867704227105580594e-01,-3.571006524274970492e-03,7.511891520914137921e-03,-1.528320129258795186e-02,1.611947178840637207e+00
-2.100606341336841432e-02,-9.682934784472112533e-01,8.916489403035663397e-01,2.233558413970442632e-03,-1.229552469766328864e-02,-2.953349405958383741e-04,1.610996007919311523e+00
3.987612012104221892e-03,-9.745957924428897412e-01,8.282834570767745319e-01,-1.124435567715796266e-02,-7.164960165483747964e-03,6.108088069072499515e-02,1.566989898681640625e+00
-5.708316307110927745e-02,-9.199734258065620507e-01,9.143966633989144555e-01,3.691060834351714639e-05,-2.507390565145766088e-03,-9.035950586635334986e-03,1.589621663093566895e+00
-2.422150254034119779e-02,-9.759851109442613248e-01,8.949945385703854672e-01,5.902605412761717171e-03,3.961587385897295810e-03,-1.693518817910149438e-02,1.620709896087646484e+00
-5.083107112301812891e-02,-9.085629810628873537e-01,8.822398291026557482e-01,-1.551532902195105026e-04,2.150559462046493318e-03,4.398740078725982272e-04,1.551342844963073730e+00
-2.356014748325734043e-02,-9.664813878590646778e-01,9.608888589811808156e-01,-1.199075312053544951e-02,-1.842702094346115871e-02,6.752641335246630135e-03,1.669755935668945312e+00
-9.896818151905802108e-03,-9.225920339593528530e-01,9.372055145360427275e-01,-8.134385566674047149e-03,-1.909472048439738237e-02,-3.784518458716960420e-03,1.611138224601745605e+00
9.840842827961099673e-03,-9.619638806653720842e-01,9.493901074445446620e-01,-2.328191369811960509e-02,-3.186056416800236947e-04,2.755160684589280651e-03,1.655857801437377930e+00
-1.265713932863949537e-02,-7.929813179031096615e-01,8.963066285997345339e-01,-8.225483416751111498e-02,-1.655806024346464719e-02,1.138636067686489041e-02,1.471705317497253418e+00
-9.039453332951885925e-03,-9.964438061593094975e-01,9.682291245038153749e-01,-1.823269103713425193e-03,-1.434217207252338686e-02,4.897729150654318853e-03,1.701669573783874512e+00
-2.441970744049126729e-02,-9.680682405657089484e-01,9.639721796017588495e-01,-1.134435549525655493e-02,-2.423226992440184399e-02,1.416426682922984973e-02,1.674167037010192871e+00
-3.677837080727446722e-02,-9.850010736089171992e-01,9.521319712377932509e-01,8.890558926696032205e-03,-4.142829020682465939e-03,-1.463362544528009485e-02,1.678007245063781738e+00
-3.654769791238169502e-02,-9.806802260368127078e-01,9.472027312383601849e-01,6.047069193675817106e-03,-3.257749884357891926e-03,-3.899391416913792867e-03,1.669769167900085449e+00
-4.977456898791818296e-02,-8.471320054762270235e-01,9.501210127472747846e-01,-1.030943559426606704e-01,-1.016280733100196135e-02,-5.580492206997147986e-03,1.570074200630187988e+00
-4.326484743901271024e-02,-9.902622687004314361e-01,9.627508617925497614e-01,1.958621362022786548e-03,1.211862589231537182e-02,-7.944550688063331881e-03,1.691805958747863770e+00
-2.490862011345476579e-02,-9.864747471463369832e-01,9.347417327783957841e-01,3.206887536524928931e-03,-5.399735551971185030e-03,-2.063066338784906497e-03,1.663861989974975586e+00
-2.596060068512904412e-02,-9.809073918450534890e-01,9.411570696676501147e-01,-1.765124798767348782e-03,7.109303346297334535e-03,-8.892278057040929259e-03,1.664687395095825195e+00
-2.833998216215082716e-02,-9.697311848398341150e-01,8.705441519564636188e-01,2.858319110937126463e-03,3.498117209055230659e-02,-2.521768963673513570e-03,1.595031738281250000e+00
-4.305297140063302913e-02,-9.861862444439438713e-01,9.269860728241605674e-01,1.620934090231626601e-02,1.325931303514038540e-02,-1.321143858506404131e-02,1.657465338706970215e+00
-3.987713233197893309e-02,-9.576622468869122606e-01,8.382107755666330373e-01,8.255617870114997231e-03,-1.467709413233141136e-01,7.628535273118093596e-02,1.581629514694213867e+00
-2.582173124858266888e-02,-1.004757177494247866e+00,8.380166377159776747e-01,3.257635053780648382e-02,-1.038239871444348594e-01,5.082854676498445995e-02,1.610417962074279785e+00
-2.217012636687654831e-02,-9.702453825685651845e-01,8.836875432240806072e-01,1.329401558228103172e-02,-3.567860968660255261e-03,1.805613336393436380e-02,1.606173276901245117e+00
-4.018678967138283181e-02,-9.600895291117644836e-01,9.234988505806989156e-01,-1.747470834216240804e-02,-4.300494283131918449e-02,7.809145125324605703e-03,1.633418321609497070e+00
4.465485635063265457e-02,-1.034950045917129469e+00,7.500149993893492351e-01,-2.685352565501885475e-02,-1.026028482185237373e-01,-9.516365914392035941e-02,1.576547980308532715e+00
1.770389662983187784e-02,-1.043445190699654024e+00,6.978614567114254097e-01,3.859685217598668970e-03,-2.414113462492520068e-01,6.829453993103622167e-02,1.580909729003906250e+00
-7.113251946210250032e-03,-9.753862355659492778e-01,8.293899924240917265e-01,-3.964839740366423067e-03,-4.636898269452886800e-02,8.752018319820061357e-03,1.566518783569335938e+00
2.612584612531901329e-03,-9.737122941806245491e-01,7.185804518550480413e-01,1.490348266683413567e-02,-1.145937819036006028e-01,5.590036639481968384e-02,1.488043546676635742e+00
-2.339758895574466091e-03,-9.676262550925016637e-01,7.833443441437536459e-01,1.149541963699818748e-03,-7.437219972614042551e-02,1.009996945603919630e-02,1.524595499038696289e+00
1.580649633938649781e-02,-9.695662377550690048e-01,9.526354734216748721e-01,8.087844325709855203e-03,6.675928360043771083e-03,2.913205575654496168e-03,1.664959192276000977e+00
2.274210625413677217e-02,-9.798789745517463290e-01,9.703002923566600435e-01,3.525396510763156854e-02,-1.048573748508928143e-02,-9.882065950102450480e-03,1.690416693687438965e+00
5.246195240597035722e-03,-9.376645987184151210e-01,9.468988114386064359e-01,3.023127310458731051e-02,2.119219034252131650e-02,1.265416484364210656e-02,1.633479237556457520e+00
-4.068506838216447846e-02,-8.800688000908285513e-01,9.605091685141015079e-01,7.473247179186025269e-02,1.060411412403072622e-02,3.675549396669893637e-02,1.602649688720703125e+00
-4.410451889524581726e-03,-8.264070723073119185e-01,1.016354086682574431e+00,1.967552278500530882e-01,1.848992286230459817e-02,1.074478386742391406e-01,1.645752787590026855e+00
-6.583441252939040145e-03,-8.103478757067776872e-01,8.990143642583189321e-01,8.140201742219232983e-02,6.710230352237731358e-03,4.170090774000497803e-03,1.487984538078308105e+00
-1.834865470587919711e-01,-4.379170446666523775e-01,9.015447907520970361e-01,6.481955965512566087e-02,9.270661117936531553e-03,4.104520275384816036e-03,1.237338304519653320e+00
-2.377096773750548286e-01,-3.243969211430882682e-01,9.749301705674973118e-01,1.340780939877826879e-02,2.254622166396787544e-02,-8.867916329591239710e-03,1.259138822555541992e+00
-2.096120550129462190e-01,4.218364282647824037e-03,8.756805008602810414e-01,8.202641642112999676e-02,-2.343170847271352358e-02,-1.056825560281819676e-01,1.023158550262451172e+00
-1.744887614765748829e-01,-2.305112302936406232e-01,8.631763029726967629e-01,1.312382630747140344e-01,8.741804021113584733e-02,-1.265942910319417525e-01,1.122806429862976074e+00
-1.025698396199949125e-01,-7.290814481413344650e-01,9.257610714123957196e-01,-1.816282124947114496e-01,1.766026156931971292e-02,-5.979566749482870258e-03,1.481300711631774902e+00
-1.525752365230293728e-01,-4.621380304950420959e-01,8.434594343253789539e-01,-1.092205289714163752e-01,-1.150559532243742786e-02,-8.537242022956694279e-03,1.196934700012207031e+00
-1.420059141285172910e-01,-4.165297902222369619e-01,8.120614438674220725e-01,-6.288108517099992578e-02,1.196839227653392554e-02,-1.420083553274985658e-02,1.122683763504028320e+00
-1.679540695552795282e-01,-5.766109609613634390e-01,9.429923637944090942e-01,-1.262535357806736369e-01,-1.343032251130386878e-02,-9.599909420759399070e-02,1.389678716659545898e+00
-1.550408700655203642e-01,-6.540905668395002870e-01,9.130478635519674313e-01,-1.309952409350239044e-01,-1.178818748267740704e-02,-1.286754208513670172e-01,1.422835826873779297e+00
-1.058438999519637630e-01,-6.512485098650965254e-01,9.050693302688597175e-01,-1.017618191757458379e-01,1.142998646066956808e-02,-1.148590052386893046e-01,1.393486499786376953e+00
1.318063830739137771e-02,-9.592929469274187326e-01,7.773305290040742888e-01,-1.108862845339331563e-02,-5.962333436123057329e-02,8.206244026740536560e-03,1.511284589767456055e+00
3.360675121040441332e-02,-1.026893271363100713e+00,8.268983831822952490e-01,8.648187832370321862e-03,5.759747510262256884e-03,4.997010459634250445e-02,1.613404035568237305e+00
-6.225245528966562997e-02,-8.041415875038580019e-01,8.426261132004165821e-01,2.302492701628675378e-02,1.492069091087268318e-02,-1.380892110565802577e-01,1.449133753776550293e+00
-6.568968788059126318e-03,-8.799788890844503220e-01,7.436181556046201901e-01,-4.070478053336419599e-02,-4.821886141957990035e-02,2.463735012089261073e-02,1.412307739257812500e+00
-6.705332341099227988e-02,-1.015962789698691138e+00,9.494981021958789347e-01,2.328630221849678212e-04,4.868405882085649616e-02,-8.651162583965846600e-03,1.704627871513366699e+00
7.285008167100598050e-03,-9.782869297028558009e-01,9.530390583055876608e-01,-2.716495356198386085e-03,1.036339617288913918e-02,-2.597433068458244402e-03,1.672804832458496094e+00
-7.700879960321865836e-02,-9.776728834703708459e-01,9.132260195959402971e-01,3.155458839307107629e-03,6.213825139193542013e-02,-5.939898265270178966e-03,1.641751766204833984e+00
-6.654927763903961679e-02,-9.731781774526934159e-01,8.950652359743240805e-01,-2.725601551110213260e-03,3.798468401962561136e-02,-1.223958459919218195e-03,1.619524955749511719e+00
-8.928728230708732339e-02,-9.849889807564413680e-01,9.388234232875799501e-01,9.935043381541587071e-05,1.411725036278603240e-01,1.542546374453492020e-02,1.685430645942687988e+00
-6.094396104062518860e-02,-1.050767711120142112e+00,9.430540861552640930e-01,9.110559011515192290e-03,1.383933629995211245e-01,-1.958599476009312279e-02,1.743674874305725098e+00
-7.218560778847030179e-02,-9.598142705047268963e-01,8.910915398980413515e-01,2.770414234986044635e-04,4.037438808289763731e-02,4.521053816617040403e-04,1.604902148246765137e+00
-9.340153650905308469e-02,-6.622655949750619886e-01,8.970760301847315876e-01,-1.320456309519940363e-01,2.324102691321464423e-02,-2.265469152310516446e-02,1.386927366256713867e+00
-5.482185135087461192e-02,-7.602616079637040114e-01,8.964131284640252106e-01,-4.717260574116906302e-02,2.535291932120482122e-02,-1.860399670716453985e-02,1.443320631980895996e+00
-5.036842942799962808e-02,-7.509009020236985243e-01,8.912884595585230940e-01,-5.654712985482124310e-02,1.793652459030391916e-02,5.184017141618427887e-03,1.431000709533691406e+00
-4.117632927823676459e-02,-9.735277650052180931e-01,9.407657190875629016e-01,-3.296634157133986488e-03,-5.548005774875812771e-03,-7.599042251602644397e-03,1.658102154731750488e+00
2.054872622952553518e-01,-1.003905497550387826e+00,3.342957574197454873e-01,-1.038025390829242986e-02,-1.214503995689855155e-02,-1.073969397593560471e-01,1.292428135871887207e+00
1.962525788756266654e-01,-1.037958989153705769e+00,4.017565822471534931e-01,-1.920763948869906243e-02,9.717188353163262737e-02,4.442675179209620850e-02,1.361800551414489746e+00
2.883822227382363823e-01,-1.031390494597233420e+00,5.739057833976829448e-02,-3.563473743012461614e-02,2.757548541027370656e-04,1.627609859769793554e-01,1.254425644874572754e+00
3.876015907022589690e-01,-1.539190759282759391e+00,2.545301292810067118e-01,8.270033595574585727e-02,-9.914532056033947827e-02,2.885893719440557528e-03,1.877196907997131348e+00
2.751364828016468200e-01,-1.045355569097539350e+00,1.061878351159020462e-01,-1.612726695777028790e-02,-1.080172393190482194e-01,1.753183950185132067e-01,1.295044660568237305e+00
3.043736085032272554e-01,-1.086478463318837129e+00,3.772115181227153613e-02,-5.290617761801762881e-02,4.047069091928581080e-02,-1.939547086066263637e-01,1.326975941658020020e+00
-3.648576145003901150e-02,-9.948149458380182164e-01,9.609945052713887437e-01,4.818133324678315968e-03,3.242561048453232887e-03,-1.095951391563094839e-03,1.693924665451049805e+00
3.047996358885790569e-01,-1.727951506720890151e+00,4.742158263746351077e-01,2.330614052457677041e-02,8.717274363875958387e-02,1.905897629441297980e-01,2.153731584548950195e+00
-3.982860243615160556e-02,-9.581577433637527008e-01,1.000722626434731755e+00,-7.612684176554186666e-02,2.093353163135466127e-02,-1.024131511306540232e-01,1.712252855300903320e+00
-3.572332945842227742e-02,-8.988314691509216026e-01,9.718701672218182930e-01,-1.164955083817245107e-01,1.738366558864173211e-02,-3.626113607935433497e-02,1.635673284530639648e+00
-9.939968412060783479e-04,-9.141333825644568645e-01,9.312166633527995119e-01,-2.256040079855001559e-02,1.566647354448881535e-02,-1.161124922320228015e-02,1.598982810974121094e+00
8.327341455013990285e-03,-9.626485682489737128e-01,1.001499368060190021e+00,-9.512837897051433511e-02,8.919670229264297853e-03,-1.307049418719146740e-02,1.709219217300415039e+00
-2.639727572955848263e-03,-1.008808059706486349e+00,1.014006098920713139e+00,-1.500431808748419193e-01,-1.316993208622129256e-04,-4.020740076090597442e-02,1.772356986999511719e+00
5.558888022835703491e-04,-9.645213848944844681e-01,9.474529498936614669e-01,-3.729582772080872188e-02,1.264828156811794238e-02,-2.575333231260233668e-02,1.657847881317138672e+00
1.436771790799126931e-02,-9.792247827423579132e-01,9.645404889424638029e-01,-5.503817899777992129e-02,-7.293434625132669269e-03,-2.516869301136481774e-03,1.686239957809448242e+00
-2.644829781278092151e-03,-8.089927189649052108e-01,9.472330570714532216e-01,9.607688124292859677e-02,-1.013304921641338709e-02,-2.113997143026492831e-02,1.532232999801635742e+00
-1.103096252826031576e-02,-8.168646437455535647e-01,9.396626172846652691e-01,8.414010290668340331e-02,1.827532924888871854e-02,1.860485395979145570e-02,1.530544400215148926e+00
-1.517922495108151720e-02,-1.066308173093389655e+00,1.033520849921020002e+00,1.390973725907438362e-02,1.503585086208468480e-02,4.099067430228017089e-02,1.820236921310424805e+00
-9.259304162552942780e-04,-9.810396431242535131e-01,1.002893785889273026e+00,9.653134843241131802e-02,-3.558324993510907780e-02,-2.947899142605412554e-02,1.728147745132446289e+00
3.341832558298814954e-02,-9.862339097045471625e-01,9.622232576863964937e-01,3.953103596049861029e-02,7.996654772991161272e-03,2.606423527986620643e-03,1.689475536346435547e+00
-3.782974767473194777e-02,-1.326567788623051358e+00,1.362576294321828252e+00,-6.826717573985666143e-02,1.664653474907195480e-02,-4.405585763687774187e-02,2.333961248397827148e+00
-2.781900643478252971e-02,-9.889406816574622949e-01,9.659455911660356220e-01,3.150879226867050846e-03,-1.057957117231747091e-03,-3.363124066640626824e-04,1.693069696426391602e+00
-2.178479040739831479e-02,-9.942393430769062013e-01,9.642734098652120389e-01,-4.787637608388442892e-04,6.686928085644950302e-03,1.142510573625550715e-03,1.696176290512084961e+00
-5.705691104622240967e-02,-1.199059144073181704e+00,1.192110665189197949e+00,-2.194277279360304367e-01,-2.467704785307515691e-01,-9.867067107685693894e-04,2.149017572402954102e+00
-4.532754131332977776e-02,-9.874454179200233828e-01,9.517497618646185709e-01,-1.619247164437285060e-03,-4.201161358812010617e-03,3.943496271540437165e-03,1.679649114608764648e+00
-2.436219427113688746e-02,-9.978797557360888915e-01,9.802920877916050379e-01,-1.347558874965802678e-02,1.209750756771771005e-02,-6.041555955265603267e-03,1.713536858558654785e+00
-3.037833964209510004e-02,-9.842426290867206662e-01,9.306774588774245904e-01,3.196858832547384670e-03,1.209014942044850729e-02,-4.254024187831371463e-04,1.658514976501464844e+00
-3.541393012438810717e-02,-1.452366404750406126e+00,1.456068281150169508e+00,-2.447130611161283942e-01,-9.711543939893083066e-03,-5.275902198929688369e-02,2.556153297424316406e+00
-1.999519425456001143e-01,-2.498440720350253441e-01,9.808180047501389165e-01,1.342328544526684153e-01,1.325293001749647814e-01,-1.529661147859211479e-01,1.277717232704162598e+00
-6.117410400168583895e-02,-9.845093836067450033e-01,9.497605771526066443e-01,-8.068263769289423393e-04,-5.215661644136402111e-03,3.055904211451861141e-04,1.675724506378173828e+00
-4.113086017439579467e-02,-9.874920141854471867e-01,9.522933534291072588e-01,1.723970214224133891e-03,5.558020660686107707e-03,7.650827965504054980e-03,1.680150747299194336e+00
-1.245672507456583727e-01,-1.112939135146243874e+00,1.288674730580124272e+00,-3.449607891743332599e-01,7.200025003605604879e-02,2.080993592119430996e-02,2.178252935409545898e+00
1.102152343145335750e-01,-8.991270900126655530e-01,4.737841322078324424e-01,1.312600398742440300e-04,3.509179194699311652e-03,2.256701959362898864e-03,1.232060074806213379e+00
-4.180739781731901417e-02,-9.932971778449141143e-01,9.616348718439821086e-01,4.527511187896734318e-03,-7.695066470438254730e-03,-4.472447411695581326e-03,1.693308472633361816e+00
1.128307642760323359e-02,-2.132835186155538132e+00,1.864255112715524243e+00,6.104611770016733080e-02,3.358697778444502680e-01,4.832071906389893978e-02,3.515728950500488281e+00
-7.030730307447827232e-02,-9.347832616000253392e-01,9.564501057798280304e-01,-7.051840944270091130e-03,-3.501182193342699308e-03,-5.618927363427567677e-03,1.639950394630432129e+00
-6.742665491506813491e-02,-8.555820273865125669e-01,9.082409954032024668e-01,-4.695672639916684266e-02,1.027689916260065249e-03,-3.722183542660431610e-02,1.533906221389770508e+00
9.360182904370129009e-03,-9.730111578937112871e-01,8.007878035332698374e-01,2.035417402730168961e-03,-3.511350181311030660e-02,3.827890350626290267e-02,1.541750311851501465e+00
-1.536447539557402042e-03,-9.171288727303106292e-01,8.191502789502790316e-01,1.619644999708384487e-04,1.846962851019340020e-03,2.736450662971733148e-03,1.504421353340148926e+00
-2.653469606869562902e-02,-9.073321986382176796e-01,8.254267843191303022e-01,-8.259701297814338664e-03,-3.757564953175068952e-03,7.965759786546866908e-03,1.500828266143798828e+00
-3.252003734017783892e-02,-9.675988908624574281e-01,9.237926382472684272e-01,-5.898520724813164327e-03,-8.661222753517298575e-03,-3.802969509779285419e-03,1.638141274452209473e+00
-3.510653403128394245e-02,-9.687891830447518116e-01,9.343286604019810371e-01,1.831063108871431146e-03,6.352345357838034071e-03,1.313365524106956551e-03,1.648286700248718262e+00
-2.340563909994097802e-03,-1.037717585024155786e+00,8.511948141827258008e-01,-5.120521619126955359e-02,-7.073041543531846664e-02,-1.867638814800538088e-02,1.645654797554016113e+00
-3.105557894645253128e-02,-9.943904177412218326e-01,9.556784644831396447e-01,7.907673148664644443e-04,-4.352460217804111605e-04,-6.235353956808133494e-04,1.688850760459899902e+00
5.838174776481085126e-02,-9.013159875536678189e-01,5.226381455474370386e-01,-1.467560881511333418e-02,-2.339690573824418016e-02,-4.160103270621945057e-03,1.258745312690734863e+00
3.382630488508028832e-02,-9.958341458999382390e-01,9.697009480803600034e-01,4.857798802011315670e-02,-4.205291373582753164e-03,7.461745976553552963e-03,1.704991102218627930e+00
5.731946258051963394e-02,-9.261720782873394953e-01,6.263295083728896984e-01,-1.326520541709196900e-02,-4.221175350407020861e-03,-1.149435274453962721e-02,1.360743284225463867e+00
-2.147627753529626760e-02,-2.193308155582932795e+00,2.038982760986932430e+00,5.192077781773099532e-02,3.745852047636085702e-01,-1.496872673900051867e-02,3.723844528198242188e+00
-3.956148147302168683e-02,-9.098447100837814272e-01,9.716338810773113011e-01,5.758617213763329856e-02,2.667242714956979607e-02,2.606722648653174088e-02,1.635254263877868652e+00
-3.270614967109804205e-02,-1.004236229049588536e+00,9.973690623313403725e-01,1.934174974149558551e-02,2.829583058204542673e-02,5.111558701115523698e-03,1.734726905822753906e+00
-5.147686636502293855e-03,-9.494975111566121839e-01,9.536995027132995073e-01,2.487596443197887322e-02,-2.315817001439127859e-02,-1.882531113017286289e-02,1.649606108665466309e+00
4.989013651122761739e-02,-9.169208174261510580e-01,6.294889479847115554e-01,-3.694297754700551217e-03,1.248388162919903711e-02,-2.648829452348183330e-03,1.353347778320312500e+00
-4.702206979827032451e-02,-9.907942455038661889e-01,9.622534356654960375e-01,-1.619741875110994800e-03,-4.204882443053508008e-03,8.401240442774364839e-03,1.691786527633666992e+00
-4.770259398697597464e-02,-9.824281295634813560e-01,9.257896424552487513e-01,1.073145881616942125e-02,-9.870088452609157570e-03,8.930304021931002173e-03,1.652944087982177734e+00
-8.780281971701381361e-02,-6.964420767877024243e-01,8.901627161274022759e-01,6.460581497383808582e-03,-1.567768437784035351e-02,1.173901913362278455e-02,1.386853456497192383e+00
-3.053741903778799116e-02,-1.046479367989026077e+00,1.023784813100670599e+00,3.494371200178948700e-02,2.397618067746114592e-02,8.514360568557295325e-03,1.794566512107849121e+00
-2.900865728777099820e-02,-8.156763358932604957e-01,9.033513417831844361e-01,-8.071408957506090442e-03,-7.617045723892206834e-03,-3.080667424060149449e-03,1.490636348724365234e+00
-3.623590245201770838e-02,-1.019798625029870953e+00,1.022041704523102501e+00,1.604856031320600618e-02,2.921364866403471094e-02,-1.261730183400167201e-03,1.769623517990112305e+00
-8.740035575459319250e-02,-1.165716059809382532e+00,1.289137960693900187e+00,1.551955220867669016e-01,3.442852474617785763e-01,8.618653887010854775e-02,2.234301567077636719e+00
-1.399094096898004236e-02,-1.009788413097840731e+00,9.917854564500371284e-01,1.793128787398234891e-02,3.596750625376349784e-03,5.398646992777512976e-03,1.733735561370849609e+00
-2.837458912394242444e-02,-1.021026076568104513e+00,9.064779853103979157e-01,1.469051963623723978e-01,2.971376816795933129e-01,7.235584946625936431e-02,1.769918322563171387e+00
-4.860253696158589598e-02,-9.632933206746664423e-01,9.398577806646264410e-01,9.566632669156223748e-04,3.976821535889265430e-03,3.159286936325933319e-03,1.648614168167114258e+00
-4.855557688953529571e-02,-1.138277483764538855e+00,1.060442411384349359e+00,9.631325270634934210e-02,1.652349993890470103e-01,-1.683235894363312515e-02,1.932991504669189453e+00
-4.999566060001700563e-02,-9.809681009496054038e-01,9.176819065068008152e-01,1.213401547997196295e-02,2.483434147700523328e-04,6.589800187464004214e-03,1.644555568695068359e+00
-4.303503143961581734e-02,-9.912432916728689536e-01,9.595832631952944114e-01,3.842729603586057460e-03,3.485634099683106862e-03,2.569498289991134325e-03,1.689714193344116211e+00
-6.333492112624777848e-02,-9.911846261882750753e-01,9.599073079574944600e-01,-1.255996248852517434e-02,-2.995281648577836214e-02,-2.192156780347893213e-02,1.691730260848999023e+00
-5.243704504378787074e-02,-9.774857318612039103e-01,8.977626367515378902e-01,-1.940300804886356187e-02,-3.532801110129939193e-02,-2.102082476531520749e-02,1.625968813896179199e+00
6.624214704475994697e-03,-9.703334030611355798e-01,6.638024177887174027e-01,-5.508375901622485256e-03,-1.967379541248112929e-01,-1.160489766442750897e-02,1.464574098587036133e+00
-3.335367314736355226e-02,-9.868474352011972206e-01,7.724736489419486984e-01,4.987832720749089737e-04,-1.793830951040560340e-01,-1.605613026726700893e-02,1.556974053382873535e+00
-3.327289166680136301e-02,-9.841318201819202471e-01,9.284011502328852750e-01,3.994094434322264034e-03,-7.814074807395758604e-03,-1.001502472501404546e-04,1.656380772590637207e+00
-4.845665686023455099e-02,-1.124493729324681279e+00,9.917847030598566649e-01,2.227018037486230579e-03,-1.440673155384412096e-01,-5.678768869918920242e-02,1.852363824844360352e+00
-1.682535814681172803e-02,-1.090413121476162095e+00,8.494759402588755171e-01,6.992878315448990828e-03,-1.440046609915085762e-01,-4.696693546883316805e-02,1.703553795814514160e+00
-5.238784634392327361e-02,-9.780127839619964236e-01,8.971243641788331225e-01,-6.190368913964781374e-03,-5.678567519811985459e-02,-1.386302784596397074e-02,1.627148628234863281e+00
-4.350095791371195314e-02,-9.654116359941575798e-01,8.341187864230866778e-01,-9.629524446508688079e-03,-8.516884101466809520e-02,-1.327191876139445330e-02,1.565819501876831055e+00
-7.991772898658876245e-02,-1.019839924602778058e+00,1.008109566441051541e+00,-4.354629098813032895e-03,-6.907673833234651006e-02,-9.648810021090581390e-03,1.761978745460510254e+00
-3.756294723604717417e-02,-9.849720174371939807e-01,9.311287793293402393e-01,1.195966915508437332e-02,-3.448538752576655632e-03,2.027647488919885523e-03,1.659569859504699707e+00
-4.973652843464845819e-02,-9.868423208278070957e-01,9.488413351069792112e-01,2.604627116882030080e-03,-4.662570727555323709e-03,5.668977393693603282e-03,1.676687240600585938e+00
-5.107621935393637236e-02,-8.101703107104594181e-01,9.236092362393254485e-01,5.466844488376758349e-02,2.148385136807056880e-02,1.740762620485293219e-02,1.509096860885620117e+00
-4.966169576176688444e-02,-9.801409948765076319e-01,9.309881471560149668e-01,-5.029328919061806270e-03,-2.008312974748280300e-03,-1.129127615684358699e-03,1.655304193496704102e+00
-2.120538482919379769e-02,-1.006314516974884832e+00,9.815436226511433659e-01,2.829908640612630033e-02,1.101010783366414628e-03,8.177794158671593608e-03,1.722315192222595215e+00
-6.098331857084240970e-02,-9.789549814940257111e-01,9.222136096571051933e-01,5.288232981011502416e-03,-1.992428758058473887e-02,1.207078274340576095e-02,1.647302985191345215e+00
9.656115836244217807e-03,-9.843720146917270819e-01,9.566300789344266420e-01,1.642098784324928090e-02,4.987603380910783125e-03,1.458006598563594603e-04,1.681384563446044922e+00
-1.902989491726361782e-02,-9.682013008040688540e-01,9.485224095299769065e-01,2.534015727243761444e-03,-1.381637509143481511e-02,-3.065111338972239738e-03,1.660143613815307617e+00
-2.696414483847241195e-02,-9.748933473576139042e-01,9.599264021792596191e-01,-1.055514949810394329e-02,-4.483267494451743419e-03,1.216673631787291293e-02,1.675966501235961914e+00
-4.540970491009395371e-02,-8.337747415237549697e-01,1.007471829947240272e+00,2.651929598281351774e-01,4.309177476875372670e-02,8.352296571512062007e-03,1.666402101516723633e+00
1.897862479873108771e-02,-8.418531621211664540e-01,9.141558351186033216e-01,1.111002849243841739e-01,-5.629048444237531737e-04,-2.270028799365106549e-03,1.532976508140563965e+00
-3.597824500001654824e-02,-8.606342288166961563e-01,9.235053309497233132e-01,-6.863559397277965712e-03,-1.883359616845074400e-02,-5.125083191940533675e-03,1.546995282173156738e+00
3.481693298076379665e-03,-9.478374689342874415e-01,9.483059107867863879e-01,4.205506637825772581e-02,1.984993034118316679e-02,2.695614092764702860e-02,1.644748687744140625e+00
3.478913467663304754e-02,-9.803386618306880740e-01,9.512779691857790043e-01,4.062089071508834248e-02,2.010180329713827721e-02,2.836823450799049948e-02,1.676116347312927246e+00
7.711133038213907956e-03,-9.126036470523513078e-01,9.464365057835316675e-01,3.389783202692267516e-02,-1.691875970748583230e-02,-1.546444806530647594e-02,1.611561655998229980e+00
-5.503890812122844839e-02,-1.016662255219169975e+00,9.258335899631168209e-01,1.461588066167159028e-02,-9.471310416417219602e-02,2.069128419104750150e-02,1.690827369689941406e+00
-9.865359883457544554e-02,-6.156704872834068976e-01,8.553899881197275512e-01,1.477096867421489462e-02,8.359792477553485909e-03,-5.812917011500954613e-03,1.292953133583068848e+00
-9.081923153223582512e-02,-1.031459785662180551e+00,1.018891243454137729e+00,1.301452413948748360e-02,-9.171356568965112477e-02,2.143943424752601731e-02,1.785279273986816406e+00
-4.130747165147460181e-02,-9.793522429906118543e-01,8.891344765479493040e-01,-3.430266322504867821e-02,-1.140103595179584178e-01,-4.038783733622696473e-05,1.631248474121093750e+00
-3.139097853048103404e-02,-9.507280175087792218e-01,8.069510971662071652e-01,9.149741166994969366e-03,1.141700544473210899e-01,-2.587028957414593336e-02,1.536255240440368652e+00
-3.537249734618962138e-03,-9.250118676875477286e-01,8.045247982222482053e-01,1.275549528156673038e-02,-2.025525879418810238e-02,2.408438208702698424e-02,1.500049114227294922e+00
-6.005639676964882878e-02,-9.715232447225909951e-01,9.187345201579388831e-01,5.672498904033821537e-03,2.244530954693604863e-02,9.677760966893122086e-04,1.637849092483520508e+00
-6.452503298778514140e-02,-1.021222573781550125e+00,1.008139927895317367e+00,3.668164705347768274e-03,-4.287184511543723486e-02,7.264418171867096860e-03,1.760059356689453125e+00
-7.924241700927189824e-02,-9.648366942261137336e-01,9.202556388925693387e-01,-6.074796269539439091e-04,9.763797154917167476e-04,-1.153296586361782314e-03,1.633533358573913574e+00
-6.291628078584782235e-02,-1.043366216254498102e+00,1.022877857676302682e+00,-1.243417590946882187e-02,-3.926372271954441107e-02,-4.050338632849953546e-02,1.792988538742065430e+00
1.214876660849379883e-02,-9.647636388891874804e-01,9.465509661785491691e-01,-1.345382710032017731e-02,-8.358376964683125743e-03,5.574355086844662993e-03,1.655638933181762695e+00
-1.870293974821652522e-02,-9.837893428245058081e-01,9.143119601653819650e-01,6.127308351038356082e-03,-2.831205993533119324e-03,6.978448506096720898e-03,1.643968224525451660e+00
-8.737375021000280684e-02,-1.042685150502834723e+00,1.078904495168885536e+00,-4.987054180871007721e-03,2.755263604172700914e-02,1.973959911374013486e-04,1.841014862060546875e+00
-6.969311585346080196e-02,-9.983340827606619339e-01,9.484151440105517139e-01,3.199920144224695749e-04,-4.497442674672957191e-02,-9.639974857815106213e-03,1.688408374786376953e+00
1.167545475191869749e-02,-9.494971236002126558e-01,9.399006129755910210e-01,1.044395074531827804e-02,-7.816601768944941853e-03,3.160639013480944903e-03,1.636514544486999512e+00
-2.539746892916274965e-02,-1.025082544616715330e+00,1.040517655339430414e+00,-3.731313604311214949e-02,5.863963334574201925e-04,1.613697167097403670e-02,1.790554046630859375e+00
1.280698687184959883e-02,-9.950184800057207957e-01,9.809268062462898063e-01,-1.419671292476134064e-02,2.009503808378697472e-03,-5.563932104638043621e-03,1.711541295051574707e+00
9.578705010703453607e-03,-9.658483975359204443e-01,9.858510475149157015e-01,-9.824575150229286624e-02,-3.536202151837022217e-02,4.117176461963700795e-02,1.701364636421203613e+00
1.564088866548125900e-02,-8.785148437413083933e-01,9.675065771269604209e-01,-2.123540374484007842e-01,-1.556718309635884328e-03,-7.081161106366737346e-03,1.640767931938171387e+00
-8.677514578210497598e-02,-9.830758875687483078e-01,9.788761660402544029e-01,1.859524223231437661e-03,1.895310144694332607e-02,-1.481500182881489644e-03,1.701530575752258301e+00
-4.554663636389197356e-02,-9.292107165183765005e-01,8.955826924688666812e-01,-1.010368379364379871e-02,5.940889558974795683e-03,3.727150374396941135e-02,1.582026720046997070e+00
-4.853590575499699272e-02,-9.708241346635881897e-01,9.437666148161221180e-01,2.881480594166189405e-03,6.072699239545186617e-03,1.461881070975812194e-03,1.658496499061584473e+00
-8.134876065821333713e-02,-9.672159394154049572e-01,9.325344585572266087e-01,-3.337809668959082748e-04,7.481797343784696991e-03,-1.058829984882699330e-03,1.646528840065002441e+00
-2.635827643527342834e-03,-9.611627272485636642e-01,8.351982826062916976e-01,8.683934989165017181e-04,1.846657423124014154e-03,1.859541889819003174e-02,1.557201385498046875e+00
4.067085247010320259e-01,-1.848405710073789177e+00,4.140987978748825737e-01,2.151486802815126900e-02,3.753390854601960230e-02,4.126824071001036071e-02,2.261191129684448242e+00
-6.490828195096021505e-03,-9.810773123808090856e-01,9.573688840948086920e-01,-2.616754437934821001e-03,6.456610503485179543e-04,3.413158184641173348e-03,1.678769111633300781e+00
2.969379491541232485e-03,-1.057515999874191426e+00,9.979738231064794185e-01,-1.186936737516249563e-01,6.348491451688702270e-02,-5.451356618237392093e-02,1.798088312149047852e+00
1.318378910136915397e-02,-8.632335314192034481e-01,9.655115052795888442e-01,-1.741622378939780558e-01,1.812317759377338883e-02,-2.319972215197268345e-02,1.613465070724487305e+00
-1.013712322064707749e-03,-1.004044681367993519e+00,1.008341129122903190e+00,-4.850537744765102965e-02,8.373238252245398042e-03,2.449329112696509159e-02,1.745379924774169922e+00
1.357474765415095375e-02,-9.663413915090515172e-01,7.978946996907573252e-01,-7.487736465802570171e-03,-3.253860933720297173e-03,-5.520101398208269658e-03,1.531095266342163086e+00
-3.601263654483277676e-02,-9.772642165648319779e-01,9.526305130098045026e-01,9.194704434522843646e-04,7.568167235823269542e-03,-4.891934089251687330e-03,1.671579480171203613e+00
1.299656350184918985e-01,-9.832660538060018496e-01,4.304441984368070906e-01,-1.475504280684869322e-02,-8.801745982778653998e-02,3.542511364499311560e-02,1.300666570663452148e+00
1.172724280841535432e-01,-9.829216623673793229e-01,5.289974587251708993e-01,-1.596169185902334559e-02,-2.499240829022671140e-02,-8.668613300125256604e-02,1.363122701644897461e+00
-1.386397795824444168e-01,-8.593308108969250902e-01,1.002897501513227985e+00,9.465146426897794174e-02,3.433234501242676817e-02,-6.640295455910695532e-02,1.639768123626708984e+00
-1.392170989306296680e-01,-5.353005984781600279e-01,8.584977927018058175e-01,7.036615235257794032e-02,-2.625950270885795898e-02,-4.156964736733508026e-02,1.252837777137756348e+00
-1.460132934983957576e-01,-6.689092748410360167e-01,1.003102734238967120e+00,1.385879476077830352e-01,-2.097950725210603537e-02,-1.284040656567226601e-01,1.517616271972656250e+00
3.564563951772983796e-02,-9.645973675694720084e-01,9.380821648703526749e-01,3.919125991990627528e-03,2.507833314151635968e-05,2.361698176369825286e-04,1.648508310317993164e+00
-1.237890202383307436e-01,-7.130039919869587406e-01,8.757551611566928296e-01,1.518409764585953725e-01,5.436226466115125916e-02,-1.463982384529539937e-01,1.441367149353027344e+00
-2.982535622306677417e-02,-9.985111478208544833e-01,9.642320871600201793e-01,-1.541881747763083812e-03,-3.744009897720964371e-03,-3.534871233670793412e-04,1.699847459793090820e+00
-1.178363571615562710e-01,-2.585789333141235158e-01,6.929044042715587493e-01,1.421030605167860617e-01,2.005665999308365310e-01,-6.679917395384109280e-02,9.929057955741882324e-01
-1.765368800529731885e-01,-1.315432760467736273e-01,5.664881001696933094e-01,-4.869546533393827141e-03,-5.359907472376759796e-02,-2.833820399387317404e-02,7.292311191558837891e-01
-1.976528755406018190e-01,-1.667951734903247163e-01,9.215814534249637813e-01,1.443090258149901384e-01,3.776549583585970399e-02,7.212300417019770760e-02,1.140815377235412598e+00
-1.580349311189986894e-01,-4.600597667922277090e-01,8.434280583364710537e-01,2.821219364291378123e-02,-1.209817781557983619e-02,-3.863344004783124397e-02,1.184870600700378418e+00
-2.039804784811466987e-01,-4.328103820605075369e-01,8.625118591935656553e-01,2.396590575837643719e-02,3.487460559608014654e-02,1.663619391970480024e-03,1.199664354324340820e+00
-2.047301592239897938e-01,-3.132023764002959676e-01,8.598430084867072498e-01,-2.744447027486742949e-02,7.570715063621049831e-03,-1.433120982123606002e-01,1.150915026664733887e+00
-3.692189982911557589e-02,-9.932816940941804340e-01,9.570804714299392391e-01,2.241699365625839276e-03,2.793189442877650960e-03,2.153504132245468144e-03,1.689183592796325684e+00
-2.421623664434225526e-02,-9.930873227294788608e-01,9.654387962508014231e-01,-1.311254113351452552e-03,-1.816629491716041038e-04,3.018238591981924328e-03,1.696174860000610352e+00
-3.743617099077160837e-03,-9.303268982879031590e-01,7.932419336489496819e-01,-2.416310622144060560e-02,5.392617069955210618e-02,1.079558508063101739e-02,1.497678637504577637e+00
-4.707029064232330640e-02,-9.868977658910188522e-01,9.913709647938071523e-01,-3.035689661654345645e-02,-4.921386627996554748e-04,5.022686485280822635e-03,1.714769005775451660e+00
-4.291440571331588127e-02,-9.816279116794700554e-01,9.264941265941740722e-01,7.347529767677613531e-03,4.089934419424626905e-03,-1.013795671857171303e-03,1.652618527412414551e+00
-2.312273107307867906e-02,-9.991347717464329481e-01,9.647816153048196508e-01,-1.314137068739872245e-03,-1.821530954309816958e-04,-1.548850586658434125e-03,1.700815558433532715e+00
-4.845999095560730996e-02,-9.851822478207729050e-01,9.129424196325981455e-01,1.828544067456087246e-02,2.433902736985765758e-02,-2.749497074032573526e-02,1.645405173301696777e+00
-6.345168017383570613e-02,-9.832110116085119866e-01,9.564547866216475125e-01,1.461056530144174727e-03,1.438258509008745641e-02,8.483338649988634086e-03,1.680796742439270020e+00
-4.789102054330458824e-02,-9.459302908037614532e-01,8.174105398167190728e-01,4.927319272773743146e-03,4.276071185225756299e-02,1.535484301289775835e-03,1.529006719589233398e+00
-4.990907123426804176e-02,-9.368525615027883946e-01,9.450259170828889665e-01,-3.949517378920091963e-03,-1.496727224774121491e-02,1.285836880358727508e-02,1.631021261215209961e+00
-1.283300392553769764e-02,-9.837862933453616066e-01,9.098277675808124076e-01,-1.515219866760544572e-03,-2.185501206148647221e-02,3.371542571617537967e-03,1.640544891357421875e+00
-6.490117160999636647e-02,-8.354708671386205099e-01,8.796673392296051608e-01,-1.914076639279091441e-02,-1.067194492195190983e-02,3.203356468795237610e-02,1.489416837692260742e+00
1.827335022219420124e-04,-9.948824649355135774e-01,8.156536771203507508e-01,1.036256557074245049e-02,9.854749025113953773e-03,-5.771608841897704623e-02,1.573912739753723145e+00
-3.134345830653923609e-02,-9.376203586483542463e-01,8.926628314396954922e-01,-1.084588886759782836e-02,1.352718500848752378e-02,-4.026247111574863331e-04,1.585381150245666504e+00
-2.532052243237167821e-02,-9.939444372765615654e-01,9.574620088052488986e-01,-7.953328115911839549e-04,-6.585651221366955674e-04,6.992325404960662415e-04,1.689983725547790527e+00
-5.278202316560424989e-02,-9.883342637646371776e-01,9.587011036799273356e-01,2.943433240807470175e-04,9.316769411884047621e-04,6.106655648411327131e-03,1.686643481254577637e+00
5.291844627317007776e-02,-9.802853502047682577e-01,6.967135397371219119e-01,-3.125231420448703213e-03,-5.149893904241284459e-02,-8.945141654676484755e-02,1.476192474365234375e+00
-3.676754279714473939e-02,-9.957003372768604699e-01,9.613395286211617874e-01,7.134627762660440600e-04,2.001545278486111694e-04,1.766533920835313567e-05,1.694959878921508789e+00
6.746760921716521420e-02,-8.733110305922009431e-01,5.342506275844325359e-01,-4.206276253284345866e-03,-5.085434528491900724e-02,3.183137408209607555e-03,1.244962811470031738e+00
-8.451925178729523258e-03,-1.004233207692749597e+00,8.202722318376053368e-01,1.412190851418879123e-01,-6.440394468895352387e-02,7.144356864207003629e-04,1.604950428009033203e+00
1.942655455491530681e-02,-9.247143299297599928e-01,7.244177257673903858e-01,5.581714285227838690e-02,-1.542461342220343146e-01,-6.453770606792813558e-02,1.465347409248352051e+00
-2.812377944981941241e-02,-9.626001461906424916e-01,9.615960835863440748e-01,4.609724234789917482e-03,4.312594139696339368e-02,3.913142945916564357e-03,1.668337702751159668e+00
-6.409394910748922314e-02,-7.380857781773529913e-01,6.933428045095541004e-01,5.605527594530924397e-03,7.979442716933066171e-02,4.880901727979856941e-02,1.250929355621337891e+00
-5.206800293032274457e-02,-9.578213459076883041e-01,9.842103871507912327e-01,5.068636444724253232e-02,-4.258252091767116172e-03,-1.079206531762545024e-02,1.685522437095642090e+00
-4.311460959622383932e-02,-9.852566234394147804e-01,9.575300476655385085e-01,-7.942647020028116046e-04,1.245099706897851571e-02,2.268555814083426762e-03,1.682900190353393555e+00
-4.655065949521163676e-02,-9.858274749232633916e-01,9.460628487920925700e-01,9.006241271537076360e-04,2.700476786597115833e-03,-5.082627544341794014e-04,1.673286080360412598e+00
-6.322843440964884265e-02,-1.186443383864027368e+00,1.276802165400874323e+00,1.756139567128760792e-01,3.022482039736695825e-02,1.325583542231655379e-02,2.158292055130004883e+00
9.736996510147601092e-02,-9.288189058067848336e-01,5.959152672714931320e-01,-1.442411262131158486e-02,5.449625167177600538e-02,-1.394466199568509396e-02,1.350307226181030273e+00
-8.684230306235789232e-02,-9.925918778930964415e-01,9.858824944670048218e-01,-2.238851742914127116e-04,2.014360360174947615e-02,-3.611905377371860647e-03,1.715808033943176270e+00
-4.142429656025307938e-02,-9.284097079017789023e-01,9.312433647377669210e-01,1.720577890689187900e-02,9.020423292647360841e-03,5.806157499428049422e-03,1.611459255218505859e+00
-4.090086182036503648e-02,-8.708416155045417550e-01,9.144120872906131847e-01,-7.586552443331301410e-02,-1.354919465270223826e-02,5.505881019945826904e-02,1.556017160415649414e+00
-2.129245347925701540e-02,-8.514440020703121226e-01,7.966881703500672263e-01,-6.915916945004511873e-02,5.919611134140345676e-02,-2.172034526410112493e-02,1.436512708663940430e+00
-7.484885331826331145e-02,-8.256401667877663053e-01,9.195136832168168128e-01,-1.852865957661154264e-02,-1.931571911288616425e-02,-4.910876033529684020e-03,1.516978859901428223e+00
-1.373643264007312625e-01,-6.259661901034039300e-01,9.723768899867847315e-01,-1.441158085315205062e-01,-2.677123190695919822e-02,1.259534945787838811e-01,1.457576751708984375e+00
-8.004169238726691060e-02,-9.663316002225256218e-01,9.272972181344182330e-01,2.117860405380456255e-04,3.703943010184141196e-03,2.903773519874026257e-05,1.641059756278991699e+00
6.438107711625497276e-02,-9.262000616663925712e-01,5.999828919677241412e-01,3.572603304990053762e-03,3.625137788865057803e-02,-1.063279326006630505e-02,1.342757344245910645e+00
-1.381331955459542682e-01,-5.197504383528666061e-01,8.593513468003691758e-01,-9.218219649053087383e-02,-1.684490080010727286e-03,-1.024699122740312454e-02,1.243816971778869629e+00
-1.135572099815388702e-01,-7.024766961421006206e-01,9.070177033682963463e-01,-1.438093110457638324e-01,-8.065826372968407793e-03,4.820463974501820043e-02,1.434798002243041992e+00
9.896574106974906360e-03,-9.386815579939571386e-01,6.852453749620410761e-01,1.309474807646670777e-02,6.313851774287826402e-02,-1.362126527717959570e-02,1.417585253715515137e+00
-4.425808092209740363e-02,-8.933769508856064245e-01,9.867381663723449048e-01,-1.134166493361795924e-01,-1.590283659246172904e-02,4.991806840623082275e-02,1.645058870315551758e+00
-1.092782051005602717e-01,-8.227617287864932294e-01,9.533651270522844889e-01,-1.300246998892118644e-01,3.531194000057139275e-04,1.992496711262339293e-01,1.601957917213439941e+00
-4.919267796556656136e-02,-9.890776274412539371e-01,9.580952117098806564e-01,-5.932558627042027778e-04,7.708359840100272031e-03,-7.940320198965395218e-03,1.686747074127197266e+00
-2.890048712048829543e-02,-9.756234680945979898e-01,9.070791443517784991e-01,4.229895181933993921e-03,-3.164699992107092644e-03,8.847838754259998439e-03,1.630574822425842285e+00
-4.609578832978660640e-02,-9.551401854196966967e-01,7.812537130751524561e-01,-7.014552031364189311e-03,-1.181072811617586427e-01,-1.626796278033168335e-03,1.518212676048278809e+00
1.702011738281218600e-02,-9.385634307661400166e-01,6.776206250658959318e-01,-1.218582684518030278e-02,6.581750197284162718e-02,1.827735995102467217e-02,1.412528038024902344e+00
-4.418937148290189021e-02,-9.563936465520741503e-01,8.255985907413964098e-01,1.211631312838733557e-03,-6.246023255606669711e-02,-5.852607655223256416e-04,1.547184944152832031e+00
-7.562183055464838377e-02,-9.636176188050051827e-01,9.187770709968094973e-01,6.503199782571830560e-04,1.637513677170145208e-03,-2.606563633714904012e-04,1.631072402000427246e+00
-3.143853769302218382e-02,-1.239914287826160200e+00,1.044457208442842955e+00,-2.014275167447876838e-02,-2.729564482594692976e-01,1.016128611803220755e-01,2.043004512786865234e+00
-1.892914596639926061e-02,-9.451330106702132694e-01,7.932051487540425772e-01,-4.579386037698232083e-03,1.125970488153772535e-02,-1.201808036183806341e-03,1.506673574447631836e+00
1.826168614939574497e-03,-9.896233220511783113e-01,7.567020976909473173e-01,2.892035967436538263e-03,-9.051198653448615239e-02,-2.974100059419706316e-02,1.525938034057617188e+00
-6.858736913153157255e-02,-9.755450199251511911e-01,8.922439260904914127e-01,-5.694412592206296413e-03,-8.177122102106823553e-02,-1.161766958064906069e-02,1.624119520187377930e+00
1.647762005998849866e-02,-9.779167477859604940e-01,9.545913992496869449e-01,-2.807202121769008466e-03,9.372159396899558056e-03,-1.973088560952480659e-03,1.673926949501037598e+00
1.880984576447180829e-03,-9.551616785905912010e-01,9.527229063240527651e-01,-2.542200953281453096e-02,1.955704433248041732e-02,-1.368337865696539826e-02,1.653383016586303711e+00
-1.271570109043480834e-02,-9.851133455997866939e-01,9.539789408348570143e-01,-9.096937808393440114e-03,1.454210352323426214e-02,-1.232360197278290805e-02,1.679704070091247559e+00
-7.966797478713007891e-03,-9.523161031447163749e-01,9.544093981189646358e-01,-1.603695791045509078e-02,2.264477602304453344e-02,-1.377307335163660204e-02,1.652168869972229004e+00
-2.265516077096099007e-02,-8.766657208800476830e-01,9.153584696646270835e-01,-4.179533231006397898e-02,-3.944333046208385596e-03,-7.430810573001616140e-03,1.554261922836303711e+00
-2.739439595545425238e-02,-8.500231174446587490e-01,8.061459008851875607e-01,-5.510219615539953264e-02,-2.681049267948940745e-02,-5.736477349259951758e-02,1.441644549369812012e+00
-5.925004135139722017e-02,-1.573687779827122046e+00,1.570232158819973023e+00,1.864077870913724289e-01,1.475918350426516298e-02,-1.139840073375713789e-02,2.742584466934204102e+00
-3.418051904933903928e-02,-9.962002642646906603e-01,9.650885112232854279e-01,-2.083620050260542950e-05,2.599206899713541038e-04,-1.119813348930200373e-03,1.698629140853881836e+00
-6.510022674464660541e-02,-1.427832344404530884e+00,1.523538715282523270e+00,1.607486996552079661e-01,-2.922847455774044700e-01,-4.529851943528002967e-02,2.624055862426757812e+00
-8.638229561561397429e-02,-9.759625659153626787e-01,9.464748251449115468e-01,8.642337964713174515e-04,1.600335304147521009e-02,-6.405862152613545080e-03,1.666688323020935059e+00
-3.437645771789867022e-02,-9.925283659504389178e-01,9.702659098282516714e-01,-7.508543520092130288e-04,7.624950656967798869e-03,-7.520264162028712524e-04,1.700040936470031738e+00
-1.970733260314646018e-01,-1.512175770162171196e+00,1.987659454234430800e+00,3.514962059315656084e-01,-1.541172338975547174e-01,-2.235412574792344231e-01,3.157137393951416016e+00
-6.443477930888949490e-02,-1.930842240313482838e+00,1.883655258896454354e+00,1.695728892528283460e-01,-2.930034952842941465e-01,-7.560805526681317612e-02,3.357890605926513672e+00
8.987913231867142305e-02,-1.052568588552017959e+00,5.820419609062287281e-01,-1.060312285062124313e-02,1.506273946666872310e-01,4.647528620719561243e-02,1.478027224540710449e+00
-8.773218170404986638e-02,-5.167661750852801106e-01,6.139821047260489717e-01,1.473893207226917579e-01,-1.299111960202459226e-01,5.114558941504458722e-02,1.049371957778930664e+00
-1.496894398284976668e-01,-5.799208539944633589e-01,1.035097588699384952e+00,1.476605648802207515e-01,-1.342925517998411200e-01,5.396676264891157870e-02,1.492247819900512695e+00
-9.177699707073116997e-02,-5.965190386356328256e-01,8.182515206824574339e-01,8.408943544378633117e-02,-8.163996909439976205e-03,1.019918020119368329e-01,1.262880086898803711e+00
-3.388294568172294657e-02,-9.882927894603611430e-01,9.583660872699298894e-01,1.325357720364664068e-03,-2.002627210255494752e-03,-2.017194711285899469e-03,1.685970902442932129e+00
-1.049412098921706921e-01,-7.271337778598894186e-01,9.213897860485382729e-01,1.301928214940210049e-01,7.847180695980358889e-03,3.349797311704343084e-02,1.460635423660278320e+00
-5.542772040100132913e-02,-1.130863730951531476e+00,1.078325781136279193e+00,3.182920953169027928e-02,1.064191175574863979e-01,-4.751004825132362080e-02,1.924844145774841309e+00
-1.468293768674386324e-01,-2.690716005908858066e-01,7.667993141169641147e-01,9.814502201237904067e-03,9.436491939135167872e-02,-6.994701616962918644e-02,1.001511573791503906e+00
4.439284674717108164e-02,-9.946969962190889136e-01,9.675247154560597806e-01,-4.686776186517294801e-02,-7.557446990440866257e-03,5.823820701464902175e-03,1.702339529991149902e+00
4.056022587929533629e-02,-9.403063087087439875e-01,6.717608284315650380e-01,1.902220968790494307e-02,8.479129809342645166e-03,-5.110557017220641179e-02,1.410238742828369141e+00
-5.991950371518560414e-02,-1.019313432157252342e+00,1.134066610738293512e+00,5.825256352308103014e-02,2.543168046704592442e-02,-5.074077249573397119e-02,1.873869538307189941e+00
-3.721371233133991679e-02,-9.961346480107856616e-01,9.631532131869064983e-01,-3.747673584031097332e-04,-4.005801787134624647e-03,-7.905783764326798461e-04,1.696934461593627930e+00
-2.473853155123788977e-02,-8.619908006505825337e-01,1.013247249877885281e+00,1.187020497548571252e-01,6.649884488260636786e-03,2.236800559855339765e-02,1.640538334846496582e+00
-5.091834806874791231e-02,-9.817954877172632155e-01,9.325856485913772698e-01,5.299583133526943914e-03,2.074148218557756579e-03,1.347674261074105137e-03,1.658142447471618652e+00
-2.785396573004254861e-02,-9.606876185670198964e-01,8.423136487567934871e-01,1.446349252407784503e-02,1.649861734383995101e-03,4.563662949566030420e-03,1.561982750892639160e+00
-1.159826752678838613e-04,-1.229295290714327749e+00,1.179291048058079161e+00,1.498892132547794687e-01,-4.251590287653353450e-02,2.365948543344635439e-03,2.103431701660156250e+00
2.723647650633874776e-02,-1.017204064863664215e+00,1.002157685616034133e+00,7.931775200145280147e-02,1.738311232444122306e-02,2.618936802044960054e-03,1.754814982414245605e+00
-3.611197375355056083e-02,-9.793801617046039576e-01,9.616196386901105786e-01,4.075301805394554791e-03,-1.712966580291087199e-02,-3.551529421785078969e-03,1.681463599205017090e+00
-4.169834273012400228e-02,-9.207598423599150372e-01,1.161407865103042392e+00,1.036124918476527823e-01,3.447488277779714450e-02,-5.304991274892705694e-02,1.822644591331481934e+00
6.755208234385311032e-03,-1.113323534631855960e+00,1.129343173618849283e+00,1.757155408512345585e-01,2.520023966965063630e-02,-8.662067359328169680e-02,1.972107887268066406e+00
-1.738872122783039625e-02,-9.498554646304003812e-01,7.845192498560175087e-01,1.070521729450016335e-02,5.633101531965538193e-03,4.421426052266643272e-03,1.503595948219299316e+00
-1.125343458682588060e-01,-7.814911941128991346e-01,9.479852444125783650e-01,-4.564482858267858434e-02,-1.546098675555717793e-03,5.237432143318007660e-02,1.515299797058105469e+00
1.184791548392011007e-01,-7.022119733938079200e-01,2.034859798719186319e-01,1.219884039011666227e-01,-1.005153957199474285e-01,3.786988205709185956e-02,9.109228253364562988e-01
-1.158874874401923522e-01,-3.261913085835150827e-01,7.034974327448154652e-01,6.815266619031462580e-02,-4.305796938545457253e-02,1.560091604917586416e-01,9.901777505874633789e-01
2.362841243837913996e-02,-7.398759989696258588e-01,5.037978335086943371e-01,1.363228754465573879e-02,-1.288897506119517922e-01,1.773955467763408678e-01,1.151049852371215820e+00
-3.385183323262470900e-02,-9.854455255815475212e-01,9.363957147012242910e-01,9.796591737692034521e-03,-6.739794544109656976e-03,4.639818277533091541e-03,1.664536237716674805e+00
-1.058666483064589908e-01,-4.782673963496307246e-01,7.570319891978712912e-01,7.138565663710265408e-02,1.931599939599386783e-03,-1.197670347632655372e-03,1.104501605033874512e+00
8.728077350194660133e-02,-1.041512925221280694e+00,6.821350880939058836e-01,1.720157534834717249e-03,-2.653086194048689950e-02,-1.035182545734252557e-01,1.527665972709655762e+00
-3.702610910269348021e-02,-9.924621926466680177e-01,9.544099109686225990e-01,-8.905824187494734429e-05,1.624433432408470789e-03,-4.226708911379296711e-03,1.686155080795288086e+00
-2.677127582740810099e-02,-9.440693751908738607e-01,8.719426092504364290e-01,-1.085639233798490338e-02,-1.160042636599357621e-02,-1.220152935168670148e-02,1.573122620582580566e+00
-9.457253777890296115e-03,-9.783350404499974173e-01,8.948082513495354551e-01,-2.749248460331505262e-03,-6.714497726861386011e-03,1.921409392366060787e-02,1.622901320457458496e+00
-6.641112000074161914e-02,-7.993497065065318097e-01,8.412836284777310825e-01,1.056570202878226034e-01,-8.552626940972758718e-02,7.105820690350475588e-02,1.448093771934509277e+00
1.588581043304065910e-02,-1.044365824082283289e+00,8.291690422586446285e-01,2.612525020082770780e-02,-4.194192104546613092e-02,-2.157463962750045400e-02,1.629898548126220703e+00
-3.978440193694491450e-02,-8.637578723121541735e-01,7.926950504581455892e-01,-1.160554961061407986e-02,-1.677626233302543374e-02,-4.852477270697701933e-02,1.437430977821350098e+00
-2.967126817013756440e-02,-9.522497546255409562e-01,8.818343161359749605e-01,8.445491241977834754e-03,-3.527745376283276946e-02,-1.219450528572099332e-02,1.589755535125732422e+00
3.030452709641562326e-02,-8.921352336865997490e-01,9.125164669829173292e-01,-4.698080116459766448e-02,-2.372232702175622061e-03,2.454476963531007725e-03,1.565131545066833496e+00
-1.861277198211436223e-02,-8.837845729722595411e-01,9.280908883382847918e-01,-1.093408444701702981e-01,4.713235664014706061e-02,-2.570396342896422853e-02,1.583775281906127930e+00
-4.835867628317183642e-02,-6.377666815601122918e-01,8.347846990782916698e-01,-1.337901767217864468e-01,7.620920879271532097e-03,4.060921896596325631e-02,1.306406021118164062e+00
-3.147662747780748810e-02,-7.840965969973519023e-01,1.002652582926273350e+00,-1.775361707493247343e-01,-1.488808255054863659e-02,9.490150492650803460e-02,1.592610239982604980e+00
-4.854804194617083624e-02,-7.140169967668452689e-01,1.024811563841447670e+00,-2.109514831320882244e-01,-1.536828110988838585e-02,6.243275404091640224e-02,1.566888928413391113e+00
-2.225631504077168338e-02,-8.638347245046937850e-01,9.273169140187659254e-01,-4.767254461626857509e-02,-2.576137580853606578e-03,-6.122021156005573971e-03,1.554359793663024902e+00
-2.311614664107916259e-02,-9.567118069012700010e-01,1.013766658945307597e+00,-1.476601584512170773e-01,2.978012490228452644e-02,6.533495238407997785e-02,1.730789780616760254e+00
-2.273666376088737812e-02,-7.888501195317449977e-01,9.030113044068297512e-01,-1.567961657930813657e-01,2.434930372718376729e-02,1.868540042091225428e-02,1.493234157562255859e+00
2.477478653287055067e-03,-9.681055904559379144e-01,9.738562425344098328e-01,-3.282409047273937563e-02,1.021804884775102604e-02,-8.353748436646098868e-03,1.682904243469238281e+00
-1.421949415476180673e-02,-8.098832103192615817e-01,9.351656420806160330e-01,-7.906981996395241741e-02,-3.092454257047411170e-02,4.725376817737923785e-02,1.522539973258972168e+00
-6.840944954176714221e-02,-1.142600814850934787e+00,1.143720594970933035e+00,3.264811108258340068e-03,-6.319524892920644517e-03,2.125578695009292668e-02,1.981593608856201172e+00
-9.980135380715036975e-02,-1.177964796825481386e+00,1.242281039903456730e+00,1.344635571397449596e-02,-8.380892014053815953e-02,1.087391855557758025e-02,2.105368137359619141e+00
-1.168107643627041281e-01,-1.115255017255594172e+00,1.190968586924300299e+00,4.350793879916008480e-03,-1.722522673840470864e-01,4.756284927184049882e-02,2.027012109756469727e+00
1.632914543666917906e-01,-1.799859796779507581e+00,1.091097453808971496e+00,7.607457736472905685e-02,-4.086011058417976516e-01,-6.873922676563687384e-02,2.658686161041259766e+00
-3.417962359651170734e-02,-9.972448450387908503e-01,9.674441686703670884e-01,1.528618943983611582e-03,-2.259856250821606731e-03,-8.051251398504053044e-04,1.701586961746215820e+00
-7.965230060339609230e-02,-1.239439444855145789e+00,1.372709264786516892e+00,1.349125564256256626e-01,-3.849329076789743120e-01,-1.163038392370127211e-01,2.382980108261108398e+00
3.127443253680091406e-02,-1.100184877602173428e+00,7.888306509432221336e-01,1.319347488764917031e-01,-3.892693242029627299e-01,-1.988465945706561003e-02,1.794222354888916016e+00
-2.963152906945488649e-02,-1.254596123539167163e+00,1.236227386101302672e+00,2.035904378176435492e-01,1.206930339335411662e-02,-1.083055521357908502e-01,2.193979024887084961e+00
-1.169617309562949459e-02,-1.235162378753916324e+00,1.026731572814334692e+00,6.700102391261456014e-02,-2.403056248603524236e-01,4.939663484994338133e-02,2.009903192520141602e+00
-1.906455395333428449e-02,-1.037901727768461679e+00,1.042800886332654331e+00,3.850023723469910703e-02,-2.648339687309227489e-02,-1.286441343553579482e-02,1.804024100303649902e+00
-1.874145819653200151e-04,-1.245548449339663577e+00,1.192648737932082925e+00,1.460388357026901063e-01,-2.953656443018734534e-02,1.668335025221227841e-02,2.127610921859741211e+00
-4.536173416329451064e-02,-1.094804565201954905e+00,1.127683367741005860e+00,2.691768191275254601e-02,-3.400265372738633766e-03,5.551363290070802578e-03,1.926320195198059082e+00
-5.282954636575714485e-02,-9.830299214208553238e-01,9.382318478744118284e-01,-1.225073078669300028e-02,3.738763291950132888e-03,-6.343286787559329447e-04,1.664287924766540527e+00
-3.194067672407754563e-03,-1.082313141388780764e+00,1.103811153151766034e+00,5.803624924932895834e-02,2.817037279817252715e-02,3.655292510286874044e-03,1.896595478057861328e+00
-5.382302890128910777e-02,-1.087645667280496609e+00,1.053277767458369096e+00,-1.583549361296170827e-02,-4.947727353083555130e-02,-4.250160395912429973e-02,1.858096480369567871e+00
-4.302387778727388007e-02,-1.034180726901563263e+00,9.943445315431904685e-01,9.072486890014049054e-04,-3.349086930667931339e-02,-1.000377822804471642e-02,1.757949829101562500e+00
-5.489527500030397245e-02,-1.003843348892178078e+00,9.990299254107487537e-01,-2.206193991379326081e-04,-4.386416004990874307e-02,-4.097425226883036342e-02,1.738444685935974121e+00
4.956899080986285067e-02,-9.670866738254800810e-01,6.582559713720197436e-01,-2.736942115419348578e-02,9.483281107632672569e-02,5.841680097194001248e-02,1.436098217964172363e+00
-5.906906571583365323e-02,-1.028048490087150491e+00,1.045569430355945739e+00,4.804097624827696755e-02,-1.292787999805282140e-01,-3.827762496045172130e-02,1.814105153083801270e+00
4.884260746797212255e-03,-1.121646798810227885e+00,1.042573447821942390e+00,7.542509351113109439e-02,-1.743533434916900993e-02,7.739146975273056284e-02,1.884358644485473633e+00
-2.916183764117374899e-02,-9.929496282427631160e-01,9.666493341644712967e-01,5.040347096225978284e-03,7.335273984378016393e-03,4.402011356271596371e-03,1.697225093841552734e+00
-2.794233642018602998e-02,-1.009499978413282983e+00,1.035010196065593968e+00,7.259315318377593251e-02,-2.312413738651104139e-02,5.855120715540937382e-02,1.778867840766906738e+00
-1.660246768618294649e-02,-9.390983841085182027e-01,9.527772425999831984e-01,1.234435905023882965e-02,-1.782927634578251180e-02,-1.949132836837988783e-02,1.639358162879943848e+00
-4.122259177408799102e-02,-9.873114350737020040e-01,9.510135864807339745e-01,1.264025880703037300e-04,1.963218309739950783e-03,3.200856886906578748e-03,1.678809881210327148e+00
-3.679105258488753194e-02,-1.179473730597271786e+00,1.084101370606977088e+00,1.071998865388045785e-01,-2.066770542392096788e-01,2.648707211880949736e-02,2.001917600631713867e+00
-5.903103421602284850e-02,-1.133936371067542970e+00,1.065089113068578897e+00,2.288660263992126770e-02,1.632598105089536900e-01,5.754764394755073481e-02,1.928434133529663086e+00
1.805674291388051356e-02,-9.429152657143271554e-01,7.441247768447982747e-01,3.021510067343846466e-03,5.502283911566550889e-02,-3.587180334820173899e-02,1.470150828361511230e+00
-4.680026085622299159e-02,-9.916531919666918826e-01,9.411338427638124005e-01,8.018160224611500797e-02,1.455445895106896592e-01,-1.037990305064890595e-01,1.708031892776489258e+00
-3.985670595246713910e-02,-1.587221125376998554e+00,1.410867947079688101e+00,1.260617856699429717e-01,2.078757088875530235e-01,-1.204055615478866470e-01,2.639041900634765625e+00
-1.224150234174695012e-01,-1.092110422644381185e+00,1.214483612469010376e+00,4.100679048206316152e-02,1.500821057137097514e-01,-2.531290417276567742e-02,2.024483203887939453e+00
-6.120250326190753570e-02,-1.164408353501242610e+00,1.136040327921093773e+00,3.025142309231170293e-02,1.293464609793097964e-01,5.682224692865434079e-02,2.008452653884887695e+00
-3.269446119489449742e-02,-9.710324038818467507e-01,9.491305662949651722e-01,-2.129807815979187051e-03,-1.220615845258177928e-02,8.577469835431179856e-03,1.663256883621215820e+00
-1.021444900690409718e-01,-6.612288436729261143e-01,1.027022995434918151e+00,1.282163783355350917e-01,1.354771866596936152e-02,-3.141598268637461888e-02,1.507223963737487793e+00
-6.886091588054935042e-02,-1.157249428116176482e+00,1.043214526138164677e+00,3.008602484634939969e-02,1.858930535448748700e-01,-5.166485509621246419e-02,1.935474991798400879e+00
-8.070810192796784577e-02,-9.673343459109996489e-01,9.317864567155900168e-01,9.422508609196605933e-04,6.943180156802510397e-03,2.675698194758448743e-03,1.645941734313964844e+00
-6.285036472944927066e-02,-1.041976544833269624e+00,1.053527376518508696e+00,-5.913288918797370702e-03,3.280792797117601522e-02,2.214276932371362847e-02,1.817379117012023926e+00
-1.260581507160856429e-01,-4.505169218022175848e-01,7.851176937611356044e-01,-1.635833318077886123e-01,-2.607478502181263466e-03,1.129176459786918885e-01,1.161767601966857910e+00
-1.444286407616557910e-01,-3.136723557780523031e-01,9.094849466370642510e-01,-1.821751915775627895e-01,-1.313928987737637832e-01,-4.565235646009428716e-02,1.214641332626342773e+00
-1.325339412610841150e-01,-6.063712666971290410e-01,8.359070908363221974e-01,-2.094389732672876925e-01,-1.798159709615215762e-02,3.392385936167793825e-02,1.325631856918334961e+00
-6.249994507959479029e-02,-5.078115170799475386e-01,6.945810449881384407e-01,-7.047522882164646008e-02,-1.456676615142855902e-01,4.455079047125187069e-02,1.092301607131958008e+00
-1.023250676451468166e-01,-4.809892130553321543e-01,7.756081474804256137e-01,-9.368248243767042516e-02,-1.983379739480105319e-02,-3.388722580875273144e-02,1.130287289619445801e+00
-4.759405080493062795e-02,-9.525067171976381308e-01,8.448048884109020662e-01,4.823824778827427023e-03,5.103577608295505053e-02,-2.327762871073467410e-02,1.559581756591796875e+00
-5.796327393635906239e-02,-9.559508331201734821e-01,8.582634690654292742e-01,-6.730382033003266817e-03,8.560215779159312949e-03,5.281272259575618862e-04,1.571295619010925293e+00
-5.847941634943119860e-02,-4.662198682103491088e-01,5.619561805215771422e-01,-8.752362746523498216e-02,-4.826899457520195114e-02,-1.085418334741306140e-01,9.324613213539123535e-01
9.046937522472722759e-03,-9.300968268434898212e-01,7.003533914430543073e-01,5.380967551719500336e-03,5.182168730391656375e-02,4.130164253426119904e-03,1.420326113700866699e+00
-3.077933172970483133e-03,-1.079538716718305924e+00,9.501770008219302399e-01,1.165451235371224303e-01,-6.855623336476708400e-03,1.679700047848693145e-01,1.794194936752319336e+00
-2.584768766413274299e-02,-9.241431160892976671e-01,8.330724501160247097e-01,-1.042244175676664084e-03,-8.451752614344176101e-04,-3.559282190697815595e-02,1.523170471191406250e+00
-3.380036532375707559e-02,-9.556047823639504113e-01,8.975139090628739824e-01,7.699520144119051390e-03,-3.584033701242832909e-02,-1.348512772446579244e-02,1.606280207633972168e+00
-3.434157742133686630e-02,-9.934901097555093319e-01,9.673740165596560470e-01,-4.012502978953134958e-03,4.791727219012891989e-03,-3.228130246335130741e-03,1.698335170745849609e+00
-1.330171136744567016e-02,-9.838557705005401832e-01,9.603224435444042140e-01,-4.272606292818979974e-03,1.623271060187225995e-03,1.399234462954886083e-03,1.683728814125061035e+00
-3.549338383842049610e-02,-9.673454271457098130e-01,9.327322596608229599e-01,1.300250861694302908e-03,6.411157124846609406e-03,2.992896024237075444e-04,1.645655155181884766e+00
-9.766910511000630180e-02,-9.353982817841874908e-01,9.423454455558294418e-01,-1.948479163541149209e-02,5.821089463079235325e-04,-1.307591846888534262e-02,1.629823327064514160e+00
-5.937045037945776205e-02,-8.006329209994134111e-01,7.703074264296903007e-01,4.125044278508638307e-02,-1.740243821524435977e-02,-2.256458216562061067e-03,1.363404989242553711e+00
-5.875412578392701785e-02,-9.019874382068546748e-01,8.902006292159531098e-01,3.847368998970287363e-02,-1.313452874935027055e-02,-3.520154656714549746e-02,1.555770993232727051e+00
-1.427983263848549011e-01,-7.724390276987175286e-01,9.342999748357384560e-01,2.075715000362706938e-03,-1.725299771970521465e-02,-1.562768025991696438e-02,1.495463728904724121e+00
-2.114926611937140155e-02,-1.084554299618106565e+00,8.915399591838669702e-01,-7.948712836208395027e-02,2.530315003832075416e-01,4.022609170137176476e-02,1.774901151657104492e+00
8.245090373416670906e-03,-9.612121354926259631e-01,9.433718163926888556e-01,1.553530964989440800e-03,-1.153337475073388033e-02,-1.677996805345330529e-03,1.649633169174194336e+00
-1.056183177171161613e-01,-7.328212118797817753e-01,9.072821509942988749e-01,1.790330774849775708e-02,-1.020418916911893306e-02,-2.372793530393601039e-02,1.434436440467834473e+00
-6.396763378333283900e-02,-8.643390037197962172e-01,8.968378132480288034e-01,4.007126509023810346e-02,-4.398807296565196250e-03,-6.803849044143270297e-02,1.533461928367614746e+00
-1.527752842371423066e-02,-9.905857425221337165e-01,9.592113842779499411e-01,2.698984976296489374e-04,-6.208225475490702742e-03,7.145538560749708275e-04,1.688608646392822266e+00
-4.802226825522928899e-02,-1.771061460741909732e+00,1.702571229809300091e+00,-3.652355724696243477e-01,4.100576955151151726e-01,3.837722443093156272e-02,3.155762195587158203e+00
-8.236813809905602080e-02,-9.183738169175901245e-01,9.696147641080811175e-01,3.471595361393384899e-02,-2.511241286262645353e-02,-4.662548309885252568e-02,1.642274737358093262e+00
-1.171964098012108491e-01,-5.551383226272210702e-01,8.427751411678635618e-01,6.265537490502522122e-02,2.160870518099566786e-03,-3.506678664687495200e-02,1.244680881500244141e+00
-1.533525316312346343e-01,-4.423043909870487678e-01,8.553001068913639315e-01,1.449811188476611834e-01,7.984555153968298999e-03,-2.212386321248386856e-01,1.265865206718444824e+00
-8.098558780263567791e-03,-8.236326735969571322e-01,9.541290988087722802e-01,-9.083878216543643525e-02,-1.079691140389432008e-02,-2.547662429722954286e-03,1.549461722373962402e+00
-1.310405592950143194e-01,-4.367785880144742228e-01,9.635754835614214198e-01,-1.898348724293061063e-01,3.749874669335662158e-02,-4.402602946058421091e-02,1.320784211158752441e+00
-5.976130895325397485e-02,-9.589411377137806447e-01,9.610249276613388458e-01,8.968036717604070110e-04,-1.399979254714611362e-02,-7.111684071380376497e-03,1.664073705673217773e+00
-6.689659846921210823e-03,-9.563476658030822808e-01,9.671345353733610262e-01,-2.234865323864627593e-02,6.522504655945393637e-03,-1.207401850170076313e-02,1.666447520256042480e+00
6.806914390035171541e-03,-1.034592591803201511e+00,1.115929156182306148e+00,-1.465323318257108209e-01,-1.412630070975861261e-02,-2.072341346124067455e-03,1.880088090896606445e+00
-1.545436190192808756e-01,-3.865268469575683929e-01,9.936079691015218263e-01,-2.889658409178566534e-01,6.011183786907697835e-02,-1.026950586992293052e-01,1.389749288558959961e+00
-2.687061996291775778e-03,-8.118793865622151440e-01,9.110970535628442057e-01,-9.108430998238684073e-02,-3.170750187807959246e-03,-5.832204523774247619e-04,1.501379728317260742e+00
-1.061058392646268417e-01,-9.062352578279035953e-01,9.753066054245190797e-01,-1.072905588020014594e-01,-4.738543694633853137e-02,-6.310563974775534879e-02,1.651710271835327148e+00
3.815096617398779089e-02,-9.788268592996896000e-01,9.517851359818119139e-01,8.483425171066304518e-03,3.608198461053918962e-03,2.543589127919175866e-03,1.672839283943176270e+00
4.682718197933882776e-02,-1.011216715826527945e+00,7.070090299467940431e-01,-1.629521948185815028e-02,-4.820098929532953824e-02,-5.883345149969157473e-02,1.507298588752746582e+00
8.044058815289287234e-03,-9.565086536560523101e-01,7.811735687208214429e-01,-9.859725932246363178e-03,7.916298143130733392e-03,1.508737756392228811e-02,1.508302927017211914e+00
-3.086190133630601490e-02,-9.898516444473896003e-01,9.146957712128256368e-01,-1.860038491702975267e-03,-1.858614486203826605e-02,-3.500582598302380642e-03,1.649728536605834961e+00
-3.228772679317343242e-03,-1.000248927920114106e+00,8.048517924704895465e-01,1.411347163547949958e-02,-4.132549292526294799e-02,-2.391406181492376076e-02,1.568487405776977539e+00
-6.886771095109436858e-02,-9.953178761710094191e-01,9.513900879051193638e-01,1.437367040167408794e-02,4.670460444364284841e-02,-1.935409456402631054e-02,1.689006090164184570e+00
-2.781741318495255938e-02,-8.909186456635761475e-01,9.273923010269403688e-01,-9.455092188217208149e-02,2.165520549584061538e-02,-9.112263630467121178e-02,1.592152118682861328e+00
-7.619571371537986471e-02,-6.410773610401954148e-01,8.642228576818209440e-01,2.604117161761648758e-03,2.854802232184944916e-02,3.598442659741151600e-02,1.319489836692810059e+00
-4.631205228303813398e-02,-1.078510595347113021e+00,1.069188486671766691e+00,4.331443215996093332e-02,-1.628647589208992788e-02,-1.704236547696024590e-02,1.862387895584106445e+00
-7.148388872296369823e-02,-9.879684603583648306e-01,9.799893532505566940e-01,2.992440474912771726e-03,2.085440985832666405e-02,8.264101159144564973e-03,1.706087708473205566e+00
-8.983820357870212631e-03,-9.867309572567471987e-01,9.596224181514604323e-01,3.016153790607681035e-04,1.720742753473708270e-03,3.657606417084275415e-03,1.685612320899963379e+00
-1.015282338746850421e-01,-7.703842505723700329e-01,9.375221786060717877e-01,-4.616843010948818576e-02,8.043280636455841029e-03,-1.948082683200617546e-02,1.493216753005981445e+00
-6.158081628940617613e-04,-9.760471925816109895e-01,8.252487571649369524e-01,1.105535402236698314e-02,-2.270513559904138723e-02,1.551613129207131923e-02,1.562603116035461426e+00
-6.556986996651392730e-02,-1.009052799272342371e+00,1.006596620421777333e+00,2.922501866066708892e-03,2.165333846353757058e-02,2.310855132214405120e-04,1.747198939323425293e+00
-8.091584520422130666e-02,-8.414548171158752199e-01,9.750494730850264302e-01,-6.609760889036912779e-02,-2.613623348261251075e-02,3.124889119722026876e-02,1.585771322250366211e+00
-3.144312669627288837e-02,-9.804116426463146405e-01,9.317122123388542621e-01,1.166682537190600298e-02,9.699342057872402736e-03,2.963170650225688176e-03,1.656179428100585938e+00
-3.050955191179340747e-02,-8.942664309920405064e-01,9.322907409386000932e-01,-8.416367034042646078e-02,1.541932809319344726e-02,-4.523851546391031292e-02,1.591473937034606934e+00
-4.196762307528675850e-02,-9.162387970839733775e-01,9.441482952876590895e-01,-9.637132311830613491e-04,-1.932417738406921187e-02,1.043661145477087389e-02,1.612562298774719238e+00
-2.947259756033915670e-02,-9.929774078253038594e-01,9.681522900955350508e-01,5.036061073947516176e-03,7.307893180959234777e-03,5.347458531017871414e-03,1.698568582534790039e+00
-1.744219686642456066e-02,-1.005680450238198187e+00,9.007443915570814141e-01,4.817917524605999646e-02,-2.047875138492458863e-02,4.110290199043106774e-02,1.655402898788452148e+00
-1.751222936468577879e-02,-9.433351225746684499e-01,7.798540264012432388e-01,6.242720478988405576e-03,1.032266431888984384e-02,3.382395024639232341e-03,1.493864774703979492e+00
-3.851518862650024633e-02,-9.422083581248581474e-01,9.088227118200925547e-01,-1.161014385204079194e-02,1.393291123514868966e-02,-1.506154823181827217e-02,1.603708386421203613e+00
6.656748502140844015e-02,-9.502799284367271504e-01,6.482530669689363645e-01,-2.056111439861726259e-02,-1.450778954679027982e-02,-7.888469987892905710e-02,1.408683896064758301e+00
-1.272721888683279318e-02,-9.972257563423058135e-01,9.738899707007054873e-01,1.026786034211281742e-02,1.021882593659272954e-02,-2.771762512279082533e-03,1.707227706909179688e+00
-7.050094364295156346e-02,-9.956521301488335807e-01,9.808497365704927917e-01,5.396637885209061569e-03,2.173969809843063691e-02,3.466917801785119983e-03,1.713313341140747070e+00
-3.177101424508550764e-02,-9.705053583573395315e-01,8.982448055385356955e-01,-1.192665523304743333e-02,1.558488557280417186e-02,1.504390757869369238e-02,1.618957638740539551e+00
-4.930730910538150269e-02,-9.104878554951656433e-01,9.044169064827116689e-01,2.623255995874045239e-03,7.738433249739000604e-03,2.908434790432575662e-02,1.573305010795593262e+00
-5.851976972890163275e-02,-9.489903521715434831e-01,9.618186458267085071e-01,2.407667160529448208e-02,8.431829547104256056e-03,-2.778266914841078482e-03,1.656678915023803711e+00
-8.672771217944369448e-02,-9.970392050605155765e-01,9.884873253842512142e-01,3.973469667785594489e-03,1.982883347554398670e-02,2.969694361099571404e-03,1.721856117248535156e+00
-9.136066256454021539e-02,-8.870862006700847013e-01,9.363448909390493791e-01,4.337395437897815370e-02,1.776209788031972783e-02,7.735848510774363807e-02,1.591123104095458984e+00
-4.537359771473065129e-02,-9.398508214464682542e-01,8.907293294332805367e-01,-7.687379436471690648e-03,-6.086757628589713198e-03,-9.688141651599622289e-03,1.585645318031311035e+00
-2.123957755268915046e-02,-9.675115711523646356e-01,8.419532124855851896e-01,-1.526468659058844574e-02,-2.129887600372355749e-02,-3.372184637449388012e-02,1.569337129592895508e+00
-2.793807350269552486e-02,-9.903684421691416606e-01,9.649086166126018549e-01,-2.824081733115536296e-05,-5.951947025893898971e-03,-3.339898712164467588e-03,1.693429112434387207e+00
-6.907699679472033283e-02,-9.846347946686988539e-01,9.762310339382270774e-01,-2.985182758195555237e-03,2.250632566935231726e-02,-4.371187521859218501e-03,1.699870109558105469e+00
-4.005700471132973839e-02,-9.530674789616627729e-01,9.427316995854335691e-01,-1.421504342100559336e-02,2.757587823433684665e-02,-2.173976347777620277e-02,1.643491268157958984e+00
-4.280942177342010255e-03,-9.900519510389396149e-01,9.956053617200508743e-01,-7.502083309465214234e-02,-1.714785313184454679e-02,5.433718746687579704e-02,1.727367997169494629e+00
-1.726270602443213953e-02,-9.633005023154761481e-01,9.476994009255730322e-01,-1.043108724840871582e-02,-9.398827699074553677e-03,1.516316122808622838e-03,1.655182242393493652e+00
-5.308746849908441146e-02,-1.134724498886529709e+00,1.104476104012159343e+00,7.649008572616057544e-03,-2.473840194071955101e-02,-1.433487442863355145e-03,1.940096259117126465e+00
-6.596989792995588964e-02,-1.049551367585424666e+00,1.067136605562077678e+00,5.480724780542263821e-03,-6.194521284428223954e-04,1.169947363454177953e-03,1.834655523300170898e+00
-7.947067904850085851e-02,-1.126146193770844794e+00,1.173621266066096069e+00,-8.301934278422479913e-03,3.479581821609568221e-02,2.348151203707004100e-02,1.995706081390380859e+00
-4.892672704109747583e-02,-1.040636318682284678e+00,1.056883342014163674e+00,1.992920256204839483e-03,2.118485086681241912e-04,2.045417466400116773e-04,1.817404270172119141e+00
-5.864909030832812786e-02,-1.061788911108547007e+00,1.071481003923295594e+00,-9.422394763417056519e-04,3.044605450778729155e-03,5.236017075174061348e-03,1.848587274551391602e+00
4.065310665589683126e-04,-8.249146789160185511e-01,9.078447183992922609e-01,-3.148051375591324336e-02,8.531047151446287738e-04,-1.043563438073903931e-03,1.502166986465454102e+00
-3.389134732802215333e-02,-9.931338899205810478e-01,9.684006274713515827e-01,-5.444907754735563675e-04,8.199276478910923205e-03,-2.373306727974447590e-03,1.698939681053161621e+00
-9.943167500849581231e-02,-1.021350708012724651e+00,1.031790495095841420e+00,-1.312679057151698407e-02,6.461496881791869984e-02,1.050412770973195922e-02,1.784899711608886719e+00
-5.356358910012175983e-02,-1.035883043279529847e+00,1.043534401082343965e+00,-8.837541280183210807e-03,1.149043916728536598e-02,-1.760145787790351143e-04,1.801917552947998047e+00
-5.759569692048388534e-02,-1.044904394640006950e+00,1.063336879071307806e+00,-8.558616814158604910e-03,8.205701125136652049e-03,7.432609289190605234e-04,1.827128410339355469e+00
-3.273591222837347881e-02,-9.942797547737268760e-01,9.703764945970538847e-01,-4.754755500709295472e-03,-7.811420120838415138e-03,6.464799406964992327e-03,1.701679706573486328e+00
-3.921854204866988269e-02,-1.038205306394104577e+00,1.029005430470618432e+00,-9.576002243868978955e-03,-5.088183168135331641e-04,-1.447125075330243623e-03,1.790670514106750488e+00
-8.165791235667280157e-02,-1.159672612909426581e+00,1.269626291965599174e+00,4.995549542638752505e-02,-1.672695549941661392e-02,-7.696518690265912420e-03,2.110282659530639648e+00
-6.749709624599697921e-02,-9.613783722915647534e-01,8.833190837350396452e-01,-2.975413550942358678e-03,-3.969063828527177179e-02,-5.096972295194497279e-03,1.599319338798522949e+00
-8.311930071789339070e-02,-9.880371673868425519e-01,9.559077358051203399e-01,4.373329871439478322e-03,-4.883050455334828066e-02,2.685841081498338903e-03,1.686985492706298828e+00
-7.914728822644059858e-02,-1.012483010957289764e+00,1.013640092363572887e+00,-4.157364271544455522e-03,-5.823553462686481552e-02,-7.324907474676241315e-03,1.759438633918762207e+00
5.178309787740812548e-04,-9.100618419681995031e-01,9.395746681086915020e-01,4.117091236585872921e-02,-4.676735290808461953e-03,-8.422267162176696326e-03,1.603568792343139648e+00
-1.957974375400202416e-02,-9.832126862205530227e-01,9.590817810385041664e-01,-1.663644292984029546e-03,-1.191826184154354783e-02,4.888132711672658849e-04,1.682222485542297363e+00
-9.399569805932320166e-02,-1.012867196460174979e+00,1.013439083253074191e+00,1.365712237153540124e-03,-8.840785536533535272e-02,1.632978921257052796e-02,1.764250636100769043e+00
-6.136051144414360337e-02,-9.907096573078110202e-01,9.613244548362900321e-01,1.368650069801057197e-02,-2.959865573338841399e-02,2.346046244593844379e-02,1.692585945129394531e+00
-2.966847595927941950e-02,-1.059946086151577260e+00,8.290980160832038814e-01,2.282481032300973101e-02,-1.584012806483502400e-01,5.846876888196984867e-02,1.664575457572937012e+00
3.568142828514687948e-02,-9.816091373842230627e-01,9.814460106012803386e-01,-9.931212092200095154e-02,-1.532316343972201303e-02,2.529341459301013770e-02,1.709877371788024902e+00
-3.477396054444147067e-02,-9.618082091825245206e-01,8.980688729147426885e-01,-2.204810012648373424e-03,2.818257973318200049e-02,-1.060001878198489275e-02,1.611552000045776367e+00
-2.832523684225997374e-02,-9.900135497650848215e-01,9.747972172286529791e-01,-2.107495758389486828e-02,-1.678218494801915830e-02,5.263448239417584801e-02,1.704781174659729004e+00
-4.757628229494340055e-03,-9.795724117863091607e-01,8.015066215824351303e-01,7.906037024796070886e-03,2.181260651458870325e-02,-3.694822801831520315e-02,1.546607494354248047e+00
2.066628415282600884e-02,-9.771213472202873174e-01,9.458280738105484531e-01,5.527441096744353105e-03,3.059451188638838632e-04,-2.971249019369457019e-03,1.665754437446594238e+00
-2.949188916973575353e-02,-9.658860356997548413e-01,9.041249080354692991e-01,-1.465208474739145700e-02,4.463110379475943718e-02,-2.230989184821077775e-02,1.621980428695678711e+00
5.582377730514218039e-03,-7.520148175508806210e-01,5.742734558396013211e-01,1.330344404076252984e-01,-6.935588573811772573e-02,2.171591718972095686e-01,1.239839196205139160e+00
-4.759164726232575915e-02,-9.000910891233276923e-01,9.692801325176323424e-01,-7.143542357709944945e-02,9.399754400646864738e-02,3.768159252425750533e-02,1.635157942771911621e+00
2.013605693642618599e-02,-9.884952549399681487e-01,9.604332040000043147e-01,8.080147041517372203e-03,4.361393423575643177e-03,-2.327173062177851498e-03,1.688247084617614746e+00
1.015312339323684726e-01,-9.266365259284203848e-01,5.408038223451746562e-01,-6.850646719893773232e-03,-7.642088485291020916e-03,1.249423500511538838e-02,1.304806351661682129e+00
-7.729343490883308632e-02,-9.922214601829189018e-01,9.808110346906364629e-01,-9.225465645494170669e-03,-2.015130816975059871e-02,-1.796110396531064649e-02,1.710908889770507812e+00
-6.707174887806481578e-02,-1.002767289039244059e+00,1.009156873725392867e+00,4.149969324577540072e-03,2.276003493343331519e-02,6.280276083050475786e-03,1.744287967681884766e+00
1.337123680133253945e-01,-9.262237825564045846e-01,4.541903116178151456e-01,-3.699586965352648447e-03,-9.456229652557681525e-03,-2.632204775159812521e-02,1.252295851707458496e+00
7.941497175274692122e-02,-9.146866715438035644e-01,5.748559848086600699e-01,-9.670677672529163138e-04,-4.980542786175813641e-02,3.189386180168710897e-03,1.316698074340820312e+00
-3.239439153223186429e-02,-7.689372347106573358e-01,8.849652789939506103e-01,1.476638353591041772e-02,1.154484633226179370e-02,-2.201226707504078898e-03,1.435544252395629883e+00
8.483399315901546389e-02,-9.309289566161254026e-01,5.861014252553640169e-01,-6.981863719694857140e-03,-2.662534462642333552e-03,-3.923670836455352834e-02,1.340521693229675293e+00
1.114396927649441010e-01,-9.417576241709388896e-01,5.497532426977420617e-01,-9.399540495165833315e-04,-1.737036195471478375e-02,-2.478249499565500849e-02,1.328805565834045410e+00
-2.982778417573704946e-02,-9.762276307332218295e-01,8.758837324454390449e-01,-1.998235300617623791e-03,3.821207978541391048e-02,4.530916931402806077e-04,1.605473279953002930e+00
-4.535525102154076837e-02,-1.013491559245531803e+00,9.983040130726454908e-01,9.093034755943769226e-03,1.931593079012662931e-02,-1.201303036871785709e-03,1.743068814277648926e+00
-1.666056613315644030e-01,-2.812714829304535646e-01,1.132015368791792209e+00,8.235764000907608295e-02,3.631106161686913775e-02,5.688234717027444709e-02,1.372036099433898926e+00
-1.254255868190184975e-02,-1.019635034822220954e+00,8.848392041059430779e-01,4.932966755320553065e-02,1.366974363440098539e-01,-1.940296264835345008e-02,1.669659852981567383e+00
-3.539867010432379280e-02,-1.009955213686665410e+00,9.842535957269070712e-01,6.207271298469524586e-03,3.432151046503079811e-02,1.313921684683490819e-02,1.728388667106628418e+00
-3.161648249707679770e-02,-9.671891064033099061e-01,9.304418931606669441e-01,-4.126163622911678368e-03,-1.483124552838642213e-03,1.438624473083286587e-02,1.643656492233276367e+00
2.241013083088093036e-02,-9.958370386119312911e-01,9.641273410323607518e-01,-2.084940153687022540e-02,2.646114226937593041e-03,-6.303164969394292258e-03,1.698235511779785156e+00
-7.725834875816128822e-02,-1.027859308749172529e+00,1.013610098043705721e+00,6.715242348742428771e-03,6.598522224690196725e-02,1.041599239924042609e-02,1.773172259330749512e+00
-4.604455062965349954e-02,-1.076240602430889481e+00,1.133468958801660431e+00,5.231913437369015846e-02,3.392539538738505167e-02,-1.507365876165091614e-02,1.918341040611267090e+00
-7.080987364087731883e-02,-1.013305258185230429e+00,1.014607010923751496e+00,-2.151673102441079705e-03,2.276838585150631200e-02,-4.319944716480387213e-03,1.758139014244079590e+00
-6.331702930053895173e-02,-1.029287312952516409e+00,9.625183545872610935e-01,-6.610830146439077709e-03,9.346988063773753463e-02,2.216649688347592170e-02,1.733256578445434570e+00
-5.031867177975588024e-02,-1.023244669073988034e+00,1.033065205105296203e+00,-9.274549206230831011e-03,9.848829375479810355e-03,-9.419521353072122355e-05,1.781826853752136230e+00
-7.723198242024184590e-02,-6.548304759213053883e-01,8.104400080950142637e-01,-1.253571712992157527e-01,-2.427378865783262965e-02,3.044028145327387636e-02,1.298456907272338867e+00
-7.142166771688676641e-02,-9.831758774627182840e-01,9.378347311128401032e-01,1.492841247532478198e-03,5.134682814598816314e-02,5.113893290193279560e-04,1.666734814643859863e+00
-5.681341563808937900e-02,-1.127757893031779535e+00,1.054953607725362286e+00,-3.131631745253011384e-03,4.634667774211036206e-02,3.712057934986421476e-02,1.893197298049926758e+00
-2.040563905395844507e-02,-9.451432644511211789e-01,8.593856665710309928e-01,5.807036325169305513e-02,-1.111971156244185438e-01,-1.050020237530633477e-02,1.578065276145935059e+00
-4.428522700931513539e-02,-1.186903816517030474e+00,1.189996756336996864e+00,7.502841772328169845e-02,-5.053659515499663024e-02,-5.385269989931927050e-03,2.064940452575683594e+00
-3.434001152587541628e-02,-9.854577639932002864e-01,9.573998942131284329e-01,3.622733714172966801e-03,-1.139159168794536773e-03,-1.615298430859065043e-03,1.682701826095581055e+00
-4.408390606333119875e-03,-9.570283862538617736e-01,9.473636275154913022e-01,7.624051016956027473e-03,-1.029862040017102270e-02,-4.634041322958883796e-03,1.649420738220214844e+00
3.590846703269758022e-02,-9.749158926018877125e-01,9.418060087261055369e-01,-1.008003191491484846e-02,-1.695752710682637166e-04,-4.176727358666574609e-03,1.660866260528564453e+00
-4.936518407375967143e-02,-9.723467421092364393e-01,9.116149077711612758e-01,1.770237085453979162e-02,-1.832752982758984739e-01,-4.621932053656629632e-05,1.662544488906860352e+00
-1.768127408694350478e-02,-9.823323963196654018e-01,8.685535830245617595e-01,5.808205364074164184e-02,-1.260299083900336681e-01,-2.902007393841060309e-02,1.622087836265563965e+00
1.383630300574459349e-02,-9.836257218547203030e-01,9.521124016221392816e-01,-8.246878816311859275e-03,2.188034808206461984e-03,-2.992150746258370915e-03,1.676732659339904785e+00
-5.308390213109076550e-02,-9.759128968281879368e-01,9.148327182242019795e-01,-3.841649053282209306e-03,-2.668558865042215678e-02,-6.662327682559325906e-03,1.638295173645019531e+00
-6.247771832058826580e-02,-9.837120778551337041e-01,9.658584035491327713e-01,-1.449724763097218986e-03,-3.846900486439531336e-02,-1.898102936497536239e-02,1.690861701965332031e+00
-3.455119258572369317e-02,-9.817919946849141821e-01,9.557593980521583710e-01,5.163981614447418506e-04,-8.960731329246587884e-03,1.820806763187572284e-03,1.678181886672973633e+00
3.784228328783643264e-03,-9.440821897321094447e-01,9.481754917901689117e-01,7.102286503684260288e-02,1.118856550331018621e-02,-2.278710926477767098e-03,1.643473863601684570e+00
-3.227470587783438927e-02,-9.891377077636658299e-01,9.662034017121876595e-01,7.644269299219758756e-03,-2.846890360358225389e-03,-1.611239559145876896e-02,1.693791747093200684e+00
-5.331090560068923317e-02,-9.884290203225718496e-01,9.544852356077820899e-01,-5.481058981726188647e-03,-3.792257847706159007e-03,-3.278466643270164411e-03,1.683054685592651367e+00
-3.589261644846940963e-02,-9.873765582826453668e-01,8.829588806883942320e-01,-3.191720064339615553e-03,-8.021234654286114873e-02,-3.277270556064004053e-02,1.626787304878234863e+00
-2.671146981326515124e-02,-9.928295892503171682e-01,9.476489951979381043e-01,1.409796378281222631e-02,-1.803391635142476135e-02,-1.260552830543138321e-05,1.680976390838623047e+00
-4.056201413383850318e-02,-1.048414606171270247e+00,9.660822153026026315e-01,-1.027163246265383467e-02,-5.055796652723322515e-02,2.122162842916245837e-03,1.746896386146545410e+00
-2.828462592271191109e-02,-9.820706963421161895e-01,9.520110639980390310e-01,3.369144363642590564e-03,-1.121433037627959581e-03,-2.169440845675988782e-03,1.675031900405883789e+00
-3.224772210225419072e-02,-9.877932960489779202e-01,9.590021839400056924e-01,-4.698517894357083328e-03,5.374104102615549078e-03,-2.478967867599228027e-03,1.686119675636291504e+00
-3.378594063102167977e-02,-9.834856847892892162e-01,9.123060630011158301e-01,-5.799475026774589606e-03,-1.821778502095337815e-02,-1.135557021813523096e-02,1.642256498336791992e+00
1.149630192613202428e-01,-1.106888163517502521e+00,5.840360967052327101e-01,7.885481254128584583e-02,-2.361582956190191596e-01,3.993272159717860259e-02,1.573797225952148438e+00
1.140041196675630336e-01,-9.857917394713201498e-01,4.972531811092753551e-01,-5.433508808805365652e-03,-1.522083257486364638e-01,-7.642305619236113012e-02,1.365664124488830566e+00
1.788172169647145593e-01,-1.038658580964646472e+00,3.479775296421088182e-01,6.434792119680474154e-02,-3.484694441892183803e-01,3.916150306963636640e-02,1.448491215705871582e+00
3.183925777219857034e-01,-1.114015120670167613e+00,5.195862608602477839e-02,-1.488120876156588494e-02,-7.737404233923607377e-02,2.348206634056577147e-01,1.387509822845458984e+00
9.286137854432735539e-02,-1.010911475825895467e+00,5.088117241211386199e-01,3.343956837375315627e-02,-1.712811962647926289e-01,9.031199269686950026e-02,1.402240753173828125e+00
1.638479929051788186e-01,-1.080242326301937394e+00,4.987901210391050832e-01,2.688037146569010466e-02,-8.321177419569830702e-02,4.858831278322414682e-02,1.451436519622802734e+00
-2.646166449861153333e-02,-8.189197253887868788e-01,9.245646963028679721e-01,8.837194077375883083e-02,-1.579377313181481654e-02,-8.223219575301182055e-03,1.520022869110107422e+00
-4.075188127356793588e-02,-8.018189588390628453e-01,9.386720474514468338e-01,2.263030519976033939e-01,-4.567783516222122947e-03,-5.980028096170563606e-02,1.564714550971984863e+00
-5.903214455943688044e-02,-5.854743794282614155e-01,8.539302588396942006e-01,1.818021167481132794e-01,1.372233462583186646e-02,-1.219756231766410196e-02,1.300550222396850586e+00
-9.953396444002406140e-02,-1.061157072770064325e+00,1.126599046704540363e+00,7.723859344563583848e-03,3.191940437725049318e-02,-1.313329020521245005e-02,1.900250554084777832e+00
-1.150888523251679396e-01,-1.526259150793179087e+00,1.718992491169268000e+00,1.018888684800482169e-01,1.120318145329340653e-01,9.958953427349656606e-02,2.835843563079833984e+00
2.254398535419726776e-02,-9.955430510286010781e-01,9.621485543166385934e-01,1.830624689116706547e-02,-2.313739026275662622e-03,-6.237111715657839457e-03,1.696200251579284668e+00
9.204673240193725348e-02,-2.050749912168393418e+00,1.598181492031819362e+00,-7.093424338818112018e-02,3.069684195055469300e-01,-1.070530094349381733e-01,3.227928876876831055e+00
-4.950673910284979912e-02,-1.242688808609072826e+00,1.149928831246143091e+00,2.312104315154072665e-01,2.210242146257382911e-01,1.180001543501663086e-02,2.144952535629272461e+00
3.611443452332515486e-02,-1.212485381870214818e+00,1.033126510200249148e+00,2.166060524243313551e-02,4.240976367449965645e-01,3.807809228534324297e-02,2.084043502807617188e+00
1.926023578718111945e-02,-9.920254248182138745e-01,9.625376508635009598e-01,1.967273429368526783e-02,6.373256088071324425e-03,-2.707842403945575141e-03,1.693428158760070801e+00
3.661587817339066742e-02,-9.783920394493694772e-01,9.427530270069506280e-01,1.224793675419662622e-02,-2.827317785680619503e-04,-4.067087285457523550e-03,1.664800882339477539e+00
-8.646990397567430597e-02,-1.154714174326365139e+00,1.043596686159094400e+00,2.491258889342255062e-02,1.733873447663556167e-01,-5.643193299830872450e-02,1.930541038513183594e+00
2.057105346503913801e-02,-9.559170285764133634e-01,9.927653139364731594e-01,1.079290356257992523e-01,1.350133798347852472e-02,3.647504965813167660e-02,1.699267745018005371e+00
-6.635436562338485611e-02,-1.309634877825145205e+00,1.306192017696384822e+00,1.734527919682132824e-01,3.637562938236129639e-01,-8.490348262974029697e-03,2.371396303176879883e+00
-2.362483371731462917e-02,-1.209017456006320490e+00,1.048982423950682419e+00,1.728695965463806217e-01,3.467557905012913499e-01,-3.750851424758681277e-03,2.068215608596801758e+00
1.217543179205205113e-02,-9.798769426078353106e-01,9.563545665295876130e-01,6.925259010754617264e-03,4.121715965448756257e-05,3.612033150417943029e-03,1.677051067352294922e+00
-9.723135380159638949e-03,-1.014658997814956720e+00,9.967706176887249914e-01,1.657063615210001631e-02,8.211292943289750373e-03,-5.197875240572550834e-03,1.742267012596130371e+00
-8.199696247308321806e-02,-4.929195602939743237e-01,6.852221481688618443e-01,2.278088711476246031e-01,1.360673521613135484e-01,-1.967318864364704656e-02,1.133642315864562988e+00
-1.449497754094117574e-01,-3.255437581597731000e-01,7.100091918704188876e-01,1.348095540725563479e-01,1.181203725493472079e-01,1.018410263892208234e-01,1.022478580474853516e+00
-3.386844866901747575e-02,-9.165687234153245821e-01,9.438001501121794368e-01,-3.876029983508069384e-04,-2.568699933047437559e-02,1.027483767020338605e-02,1.612538576126098633e+00
-2.680859086575639316e-01,-3.932677595894600864e-01,1.419279034092201686e+00,2.354333929777676360e-01,1.392511217214637692e-02,5.930607155583329793e-02,1.803196668624877930e+00
-1.234712082072428468e-01,-6.451590680716511317e-01,9.090982525688263705e-01,1.837169038563963575e-01,4.885671951232785533e-03,-9.985664000281460617e-03,1.406649708747863770e+00
-1.321192575649880740e-02,-1.004084442763940377e+00,9.707563649975490261e-01,3.013585032359602373e-02,-3.847122825107116874e-03,1.964689148249870038e-02,1.711413502693176270e+00
-6.803787705685312992e-02,-6.216326009930703833e-01,9.353135944312462868e-01,2.953742551754001688e-01,-2.504287051226420507e-02,-4.162042880169546794e-02,1.462001204490661621e+00
-9.925186763560671366e-02,-6.322141934040476086e-01,8.404057362554285815e-01,6.312688709901712047e-02,3.684572403347888270e-02,-1.197893506833039579e-01,1.314109444618225098e+00
-1.769751032377163691e-01,-5.671369342286317616e-01,8.839668461845860969e-01,4.525855440422198173e-02,1.606770450887489918e-02,-1.081656441929932794e-01,1.316731572151184082e+00
-1.233122750353711217e-01,-2.461204697564426391e-01,8.165784251082705003e-01,8.849266016066376084e-02,2.750069250586686248e-02,2.229094095168980810e-03,1.019646644592285156e+00
-7.078158008280188707e-02,-1.009932530091614433e+00,9.216777213744223873e-01,-6.180332241472785530e-03,1.222019064645938624e-01,8.573048279176202768e-03,1.686470866203308105e+00
-4.618061079035454264e-02,-9.672473188025338953e-01,8.094359716976992081e-01,-6.406484594498680803e-04,1.226034605583949111e-01,1.766500478826732445e-02,1.553884148597717285e+00
-5.595827612267802176e-02,-1.024697069645639669e+00,1.033355105135165930e+00,2.862646504499835945e-03,1.463915465604349007e-02,-1.109296592142077192e-03,1.783532977104187012e+00
-7.868158412397179002e-02,-9.898688458188499295e-01,9.349243443992553138e-01,1.996942176712822141e-03,6.308152074063078096e-02,-1.873391958349495973e-03,1.671288251876831055e+00
-4.604436715020935461e-02,-9.815878313828184654e-01,9.112663102546917360e-01,-5.949552167398728872e-03,2.847146868159204994e-02,2.663529992452308686e-03,1.640076398849487305e+00
-1.872912926598834238e-01,-1.146671493929855012e+00,1.610146300026253696e+00,-3.346004523457156155e-01,8.153323047754653177e-03,-1.726949611009429564e-01,2.510211229324340820e+00
2.578607473678176665e-03,-9.541628977824277991e-01,7.304931549387199130e-01,1.710026041169182554e-02,-5.980038012841254469e-02,3.920614644390884446e-02,1.468964576721191406e+00
-3.739319724415630930e-02,-1.016499791790801410e+00,9.722428447381918915e-01,-5.294909235688552429e-03,7.365512679106040773e-03,9.118514055788473974e-03,1.722513318061828613e+00
-5.022552647687019561e-02,-1.018110799091956897e+00,1.031618885514541839e+00,-6.520834657221597115e-03,-9.754278392821436744e-03,3.280040391621795448e-03,1.776157617568969727e+00
-7.370913166157447294e-02,-1.034371329817628693e+00,9.324798689865539947e-01,4.665828584051058721e-03,2.237105694693015123e-01,8.929082937713560958e-03,1.747094631195068359e+00
-7.175383889840433738e-02,-9.620266200108498200e-01,8.898095430800703198e-01,2.072957950377674399e-03,5.210205184221142899e-02,-3.465774478359359527e-03,1.606684923171997070e+00
-3.391262694038790770e-02,-1.012903753495899561e+00,9.918702382817451424e-01,-1.088973954109618246e-02,-1.837135497775272547e-02,-9.101879409129248061e-03,1.736808300018310547e+00
-7.731637908194728681e-02,-9.534978595052047146e-01,8.731572754792854552e-01,-7.564668797770999847e-05,7.074373958064579526e-02,1.028150869571095409e-02,1.587202787399291992e+00
-4.313172185243556445e-02,-1.009537149301363623e+00,9.542478662970879100e-01,2.477678099535828710e-02,8.038325316493361017e-02,4.013926344618065634e-02,1.708402156829833984e+00
-1.916052385271351660e-02,-9.752561301364580659e-01,7.839977132203028720e-01,-8.698869171882278942e-03,1.077355919960988617e-01,4.382353936491369117e-02,1.538794159889221191e+00
2.068134723582049431e-02,-9.932242189694499013e-01,9.648989076093805739e-01,-1.710322216444531279e-02,-1.975242715932047484e-05,-4.098935514532745135e-03,1.696415781974792480e+00
2.963922414397254096e-02,-9.537477159089174927e-01,9.345782856230382407e-01,-2.198796430324223561e-02,-4.893765494186378892e-03,-3.690394721904799555e-04,1.636273980140686035e+00
-9.139098811722280724e-02,-1.165056828155873081e+00,1.194316902792483148e+00,-4.296122048317160269e-01,4.040183824232558285e-01,4.314364655531138792e-02,2.288056135177612305e+00
2.121004136019405406e-02,-9.639235433652644236e-01,9.402328046235669534e-01,-1.313916045800884395e-03,-8.525804703513449210e-04,1.992975652785696720e-03,1.649384856224060059e+00
-3.920602463685127215e-02,-8.972777239340541389e-01,8.743743517451392222e-01,-1.158529954167558662e-02,2.309206840516236925e-02,-1.963760333098373695e-02,1.535575747489929199e+00
2.125758965667090550e-02,-9.656619722617223456e-01,8.219673853649899220e-01,1.026389064166252120e-02,-7.027086322186567452e-03,1.161988619436594636e-02,1.551209807395935059e+00
-4.980274490594480130e-02,-9.992858346173856265e-01,8.775693746443106180e-01,-8.600613502723534684e-03,1.153367017143537010e-01,1.073106975250331420e-02,1.637845039367675781e+00
2.982997153338731722e-02,-9.612441030963505550e-01,9.387700524677476954e-01,-7.213282254497678254e-04,1.251739602721303746e-02,1.780831958473147719e-03,1.646119117736816406e+00
3.629962605332390235e-02,-9.584066173339429451e-01,9.320649173655910502e-01,-5.221035877277406707e-03,-1.511680449981749400e-03,-8.134047028833930838e-05,1.637970685958862305e+00
-2.317130978433194766e-02,-9.730608424043568627e-01,8.924580286026559950e-01,1.121854972822230317e-02,-1.479999618773181549e-02,2.063431929616999644e-02,1.616392850875854492e+00
-3.325673487323613925e-02,-9.616431698302062570e-01,9.144118390105664407e-01,2.080823586789685292e-04,-3.360322791891740771e-03,-1.156799307109898081e-03,1.624751567840576172e+00
-5.755060414136690949e-02,-9.625121795148711135e-01,9.026327245773478891e-01,-2.134929379979528738e-02,1.404742179502652955e-01,-2.300964454208864751e-02,1.634622693061828613e+00
-4.615193240711580602e-02,-9.693132480394931472e-01,8.890606640541162120e-01,1.319160796572262095e-02,7.894128221442207275e-04,2.038148750307736557e-03,1.609576940536499023e+00
-1.006553078438863005e-02,-1.000305724280862618e+00,9.858413383701080113e-01,2.763946820428433288e-03,4.967100894124484856e-03,-2.641911792035218053e-03,1.720090389251708984e+00
-1.508875717000181596e-02,-9.346583127500940336e-01,8.130147718920188726e-01,-6.811745202453167638e-04,7.142368060620249773e-03,1.411974515207557908e-02,1.514468550682067871e+00
-3.215086219171452153e-02,-1.021246403794597857e+00,9.597369436137417331e-01,7.517452070342697801e-04,1.845945899659643188e-02,-5.241476309092635288e-03,1.715904831886291504e+00
8.644846220038873708e-03,-9.748446997579925943e-01,9.505247856620188118e-01,-6.356890437290018021e-03,-2.873581887271773466e-03,-1.953575817295268136e-05,1.667592406272888184e+00
-6.650268244476525981e-02,-1.020285653147433802e+00,1.016866207783621467e+00,1.789564691536284571e-02,-3.280448870208819978e-02,9.156481864254469374e-03,1.766671895980834961e+00
-2.024253890689259316e-02,-9.575035269278858729e-01,9.390996784201632863e-01,-1.821845392493275616e-03,-1.334475325341710761e-02,2.138054704238605275e-03,1.642713546752929688e+00
-7.976317333208216009e-02,-8.706156235569494362e-01,9.272290403491217914e-01,-6.387369440969757617e-02,3.674188055450456486e-02,5.400587588125164290e-02,1.568726420402526855e+00
-4.511092004345887418e-02,-9.917199277127451973e-01,9.561402913263218339e-01,2.966151874156303103e-03,3.648592113825414786e-03,-1.428080787389900651e-03,1.687139153480529785e+00
-2.906950036620643135e-02,-1.011741240120011653e+00,1.100802003132699936e+00,-1.479196740471831473e-01,7.256545244544215269e-03,2.565175466917756983e-02,1.849410414695739746e+00
-5.027187147354096608e-02,-1.007674359329347791e+00,9.739790198539329813e-01,1.503193788019830703e-02,1.026213855021768789e-02,-1.115759135829547805e-02,1.716885805130004883e+00
3.662197863972697920e-02,-9.600943415945812909e-01,9.358182426485703864e-01,6.574151380655653132e-03,5.460497698742356674e-05,1.959819615942237983e-03,1.642675280570983887e+00
-7.625890937116257609e-03,-9.262275190525177671e-01,9.450374054285128889e-01,-2.444173236445847455e-02,-1.912695643346316865e-02,9.208071470537534248e-03,1.621622204780578613e+00
-3.271422373794917460e-02,-1.050656355211232462e+00,1.046608477518154112e+00,-2.445935479674206034e-02,1.689683968718466017e-02,-8.297316286697288198e-03,1.817330360412597656e+00
-3.343819132596899391e-02,-9.622093374362652440e-01,9.341189535011920064e-01,-1.831610453360789370e-02,2.185087640045239171e-02,-3.412642109308474184e-03,1.643135905265808105e+00
-1.139890572456477430e-01,-8.459161428407760974e-01,1.059576988751372850e+00,1.164014983774360329e-01,-2.291564568634186366e-02,5.115981553600022769e-02,1.679885268211364746e+00
-2.771929565055656838e-02,-9.688096519663030870e-01,9.489598390057046862e-01,1.014961936022189815e-01,-1.339681135572082238e-01,1.000207726072778747e-01,1.695127010345458984e+00
-3.614365286323813209e-03,-9.600547926286663314e-01,8.120364932494865684e-01,1.430241472060975703e-02,-3.825771042541500910e-02,-4.930969449876910354e-02,1.540287375450134277e+00
-1.550903356092028090e-02,-9.698539961893715144e-01,8.732743649019537591e-01,-4.407837763137893543e-03,6.539779947062818915e-04,8.237192067255833666e-04,1.596551895141601562e+00
-2.580652211461209600e-02,-9.658457568201628263e-01,8.919113501634033936e-01,6.343725273117617643e-03,-1.425351907165857022e-03,-6.561182765898070698e-04,1.608943343162536621e+00
-2.059984282465173247e-02,-9.572282780853511586e-01,9.480631607758348567e-01,6.408317787234467898e-03,-1.920653970328883506e-02,-2.650582219675420848e-02,1.651119470596313477e+00
3.589395757397084719e-03,-9.696164507437323721e-01,7.809043248451587038e-01,-7.631257629609630722e-03,-6.101276779961704866e-02,-9.741864588354018362e-02,1.532204031944274902e+00
6.054670245729543154e-02,-9.364943634725092503e-01,6.256770295455706954e-01,-2.053718931393429779e-03,1.346750003777171661e-02,1.174800037679590327e-02,1.370362043380737305e+00
-3.187999109673105708e-02,-9.913501252700507305e-01,9.668507426985536446e-01,3.997958468988812436e-03,-7.904183647737345053e-03,-6.350696024180401897e-03,1.696070313453674316e+00
-2.201083890926694778e-02,-9.981001371080794327e-01,9.674397602475459657e-01,1.419740864539471327e-03,-4.404772724772482205e-04,-2.014075572554559906e-03,1.702226161956787109e+00
-3.977096682357914026e-02,-9.438178583008357547e-01,9.291846973599775517e-01,-1.137982856406915405e-02,-7.588051027775667354e-03,2.612070192214927672e-02,1.623196005821228027e+00
-4.917504381880323516e-02,-9.836662288495603423e-01,9.411504005420167074e-01,-4.900998410305614080e-04,-4.696123799642063466e-03,-6.803344813388640527e-03,1.667235612869262695e+00
-3.943515748624532025e-03,-1.010889483107316744e+00,1.015991451322640904e+00,1.419265796243692141e-03,8.106832212527136095e-03,-6.849372352887137319e-03,1.755440354347229004e+00
-1.027926103425167159e-01,-7.887139330173806862e-01,9.956442248803640815e-01,7.992435311422606270e-02,1.256723469225093717e-02,5.177286042025183721e-02,1.567855715751647949e+00
-5.978118608124061151e-02,-7.748990253955549967e-01,9.138271209041055609e-01,6.842277835495300109e-02,2.056399782124087444e-02,1.314023862798657794e-01,1.490860462188720703e+00
-2.958101779250236346e-02,-9.316052771142225852e-01,9.200375891004347606e-01,6.751445611712345030e-02,5.537388300369352340e-02,1.419767150415466098e-02,1.611049532890319824e+00
-1.910509899134221201e-01,-2.595068545871206944e-01,8.000824324667089593e-01,2.177174132049261319e-03,-1.166981377072639917e-03,-1.236859655947449010e-02,1.027306079864501953e+00
2.645772256757809859e-02,-1.080822671035935212e+00,7.434083087595658723e-01,4.240254328133211126e-02,2.377709025522306563e-01,6.424047022290406417e-02,1.649646282196044922e+00
2.944594475998661698e-02,-1.034188621508910000e+00,7.567260831068741700e-01,-2.446451533929825534e-02,1.075919987507829439e-01,4.486924999603495584e-02,1.573651313781738281e+00
9.229099695364180456e-03,-9.933699959495485565e-01,8.091623379258140458e-01,-2.713087543740129448e-02,5.580414609436944173e-02,6.166698419787259439e-02,1.571645498275756836e+00
-2.786647929735158735e-02,-9.450923303796361363e-01,9.241665855893296255e-01,7.730058699630475150e-02,7.122085052950845319e-02,5.838386488754783270e-03,1.629154801368713379e+00
-9.511058394442814534e-02,-8.635903812111552780e-01,9.632611893448580487e-01,-3.708718380499644030e-02,2.570583918546833282e-02,-2.653724156382464283e-02,1.591310977935791016e+00
-9.438084738011395802e-02,-7.038300781290887098e-01,8.913111817783176960e-01,-4.419014536352463413e-02,1.526240836524709286e-02,-2.800054653503557950e-02,1.397374510765075684e+00
-1.256361593631443174e-01,-7.095437798369308435e-01,9.271391478920156803e-01,-4.636093612580508699e-02,9.597235450355519337e-03,-2.535918821017311975e-02,1.439673900604248047e+00
-1.296484230440911878e-01,-5.023030552589753395e-01,8.545411209602205016e-01,-7.117045598535960693e-02,1.260030941835315645e-02,9.207744229234609071e-03,1.220733284950256348e+00
-5.484416932952778517e-02,-7.216155237786957555e-01,8.922764890271359661e-01,-6.275470105537739318e-02,2.742713444959070379e-02,-5.076270882969785569e-02,1.412422180175781250e+00
-5.838899693690407372e-02,-7.324790877404196987e-01,9.093407911112288966e-01,-7.605599793965317490e-02,2.325751609004417936e-02,-3.401155030310656913e-02,1.437248110771179199e+00
3.338040004991799092e-03,-9.660970843976598443e-01,8.110117216099065329e-01,-2.460334100516592664e-03,2.554547914086879129e-06,-1.350555064480196341e-02,1.541328549385070801e+00
-9.642991314726181984e-02,-6.456227326440027170e-01,8.772545406530376511e-01,1.452381102253169458e-02,3.765757732067579952e-03,-6.941459032535445342e-03,1.336126685142517090e+00
-4.022385118329138004e-02,-1.018842103810157829e+00,1.021471805353234341e+00,-1.891484761702709721e-03,-4.253292037862861923e-04,1.006433901140134021e-03,1.767455935478210449e+00
-3.360226703776623969e-02,-1.000640065534934120e+00,9.873052026682872517e-01,8.425052937823862553e-03,1.193462481990047869e-02,6.389155812644885940e-03,1.722043275833129883e+00
6.536287555902270396e-03,-9.666706337465601484e-01,8.200089136621657726e-01,1.748702384665223181e-02,-2.862786152772660818e-03,-2.045549049282684509e-02,1.550078630447387695e+00
-8.334494466975247984e-02,-1.002132831487918985e+00,1.019777669157894140e+00,-3.147454410686160477e-03,-2.096931920906212540e-02,4.919209757891994730e-03,1.753855109214782715e+00
-2.541281308918325044e-02,-9.163976365610482233e-01,8.315442641876814589e-01,2.151100425660746815e-02,4.212932994569126843e-02,4.733852683689347002e-02,1.518288731575012207e+00
-5.446082125780332683e-02,-9.140234061990187842e-01,9.095042390977983171e-01,9.118424159189873063e-03,6.993724579127537366e-03,5.798015818947233058e-03,1.580241084098815918e+00
-5.548868669158722733e-02,-9.901169807276741786e-01,9.745155021568009390e-01,2.550181830768852471e-03,1.155142466613943118e-02,4.340344149374118429e-03,1.702229738235473633e+00
2.189298674037271075e-01,-1.902706083284632754e+00,1.056312693220283760e+00,-3.572368401545971683e-01,4.731816892091387228e-01,1.203322957674679144e-01,2.842035770416259766e+00
-8.783016027286177918e-02,-9.324756781732792543e-01,9.575043004888823539e-01,4.270536458353674637e-05,1.024938143059329117e-03,-1.511433741613775125e-02,1.640053629875183105e+00
-2.919465378845506609e-04,-9.061144696417068323e-01,7.672072402942872182e-01,-4.636778485846960139e-03,-4.701654466316541187e-02,3.976497489088689531e-03,1.453110814094543457e+00
-4.086776398903908120e-02,-1.011954799561391338e+00,1.014269511515326627e+00,8.820590624500843080e-03,6.253034515567275700e-04,6.821533095014117084e-04,1.755332112312316895e+00
-5.159374606792127560e-02,-9.331389259921063495e-01,9.279421442079019977e-01,-4.690532334062347090e-03,-1.992888702230653439e-02,-1.428112332401997725e-02,1.613067507743835449e+00
-8.885411984005173180e-02,-7.083191111164593989e-01,7.589586745475513929e-01,3.761179513587538728e-03,-1.565634253840365864e-02,-4.462374067035536351e-02,1.278462171554565430e+00
-1.365628183468455825e-01,-5.448651312049936912e-01,8.535061420786225206e-01,2.023908844855484661e-03,1.938545087822558105e-02,1.370689619022335583e-02,1.246153354644775391e+00
7.710630767699740151e-03,-1.004801531063551412e+00,8.499277638439942661e-01,1.040013788879644817e-02,3.182962532453389656e-03,1.137549472472637949e-02,1.608728885650634766e+00
1.438698301672666421e-02,-9.268819811469268810e-01,9.286297262653888662e-01,-1.607314809114795875e-03,-1.139280671999719219e-02,-3.180075091105375937e-03,1.607110142707824707e+00
-6.007622093569796318e-02,-1.023262581046376241e+00,1.029274930618605755e+00,1.753914687532199743e-02,-6.200735476080016656e-02,7.032915171230214729e-04,1.782167553901672363e+00
-1.044572882135988423e-01,-5.176587869130943043e-01,8.876441737121809616e-01,-1.158356546952738902e-01,1.539612259768776380e-02,-2.253206396306220438e-02,1.267843246459960938e+00
-6.477369192371133094e-03,-9.369049481700162385e-01,9.403794393658648776e-01,6.583762102873244593e-04,9.097877665583974094e-03,3.931420350549971569e-03,1.625887751579284668e+00
-8.622023222995560399e-02,-7.324343615296566856e-01,8.869290426104231573e-01,-7.258657145843876168e-02,-3.402242770882148246e-03,1.538716266790886820e-02,1.417754054069519043e+00
-2.701278223674476522e-02,-9.595550921893599705e-01,8.904143881655190995e-01,-4.702376074265116057e-03,-3.200138639840207494e-02,1.778376427059742346e-02,1.603413462638854980e+00
-6.115269523784271771e-02,-7.861439455981408253e-01,8.466872522178519045e-01,-5.510799054382954643e-02,1.250738369527432982e-02,-6.864675569040358527e-02,1.425369739532470703e+00
1.614224804719904816e-01,-1.795955939750012664e+00,1.067443550048644774e+00,-6.912154564247223812e-03,-3.681208167399825371e-01,-2.538781822335368088e-01,2.650599002838134766e+00
-9.929563786946971060e-02,-8.149662428779190781e-01,1.042685178444745953e+00,-1.909453757257685846e-01,8.310878469165680973e-03,-1.281034096352016427e-01,1.671049356460571289e+00
-2.468841589378360096e-02,-8.902585970314300656e-01,9.250819603426145843e-01,-4.191189572585522771e-02,5.935035696989937951e-03,1.560962923317131892e-03,1.574405074119567871e+00
-8.235958807410100058e-02,-8.120883212048779498e-01,9.404271327950144421e-01,-2.942181375848128277e-02,2.115609463988806643e-02,-1.322195955705646533e-02,1.526242971420288086e+00
-4.893899591113887171e-02,-9.477230240722371857e-01,9.588178430523148776e-01,-6.297141893768846282e-03,1.259450050435466720e-02,-4.416645914842546629e-03,1.652209281921386719e+00
-3.561446541373281677e-02,-9.265242941644699082e-01,8.854447153605301546e-01,-1.160422119724590501e-02,-3.321760374746939633e-03,-9.860527575346562934e-03,1.569515824317932129e+00
-7.045636760454618286e-02,-9.974945195129746311e-01,9.670285186077735018e-01,6.948425627439902379e-03,-7.918494054954679229e-02,2.879187545506900481e-02,1.708509683609008789e+00
-1.333683265414930541e-01,-1.869167167662057150e+00,1.967604166757787043e+00,-3.054013422672103850e-01,1.165387262550702241e-01,9.065897643460062855e-03,3.375610828399658203e+00
-6.373360983068198683e-03,-9.369356890533193649e-01,9.401732112530811758e-01,1.723791220676309166e-04,2.221124198085439733e-02,3.936649452956581495e-03,1.626113057136535645e+00
-6.081519060509727598e-02,-9.793811908004202982e-01,9.226869698470054892e-01,6.491386630800587143e-03,-3.277297431978789394e-02,7.940386205065525990e-03,1.648632645606994629e+00
-6.430818201597601758e-02,-9.806188852792105948e-01,9.243156075826355345e-01,6.579654900077582663e-04,-5.469487845177775642e-02,6.200916758782552309e-03,1.652870297431945801e+00
-4.387993231931752725e-02,-9.467183372843748224e-01,8.142874878588401977e-01,1.912596405608514517e-04,-7.844100926994759804e-02,3.355168453075072638e-02,1.532380938529968262e+00
3.625437210122467446e-02,-9.579455025096889065e-01,9.342654305832821526e-01,2.111447024146439339e-02,-1.324660072927961703e-03,-4.926265569553369078e-04,1.639818072319030762e+00
-4.584908997396319741e-02,-1.026953110363850064e+00,1.018115549644408979e+00,-3.753542401745784546e-02,-5.058852545487317609e-02,-1.194109616864641107e-02,1.775043129920959473e+00
-3.921983549526779356e-02,-9.895655069322327746e-01,8.790279498301860617e-01,1.029598748806057583e-02,-6.237357438195173520e-02,3.164100576526876485e-02,1.622954607009887695e+00
-5.132899116465994976e-02,-9.880191553211911115e-01,9.248697536060639379e-01,1.496573536861792696e-02,-2.763511933577926516e-02,1.549487186239476358e-02,1.657839417457580566e+00
-2.826128808378510215e-01,-3.640299034648439291e-01,1.418786265391346557e+00,2.594573870194067378e-01,4.997294287393039269e-02,-9.405542214496921682e-02,1.809943675994873047e+00
-2.709155119469269096e-02,-9.946229729882358761e-01,9.464280554365005482e-01,-5.593810030123652112e-03,-8.802211495578133107e-03,-1.274234127673752603e-03,1.681100726127624512e+00
-5.073059494805553377e-02,-9.863379449045577285e-01,9.480837834158837296e-01,-1.666991533657715286e-03,3.900840957034930508e-03,4.018739825716659449e-03,1.675586938858032227e+00
-2.278169888231634105e-02,-9.948513056262202614e-01,9.691292255602639294e-01,-1.773749038647525530e-03,-8.286877672349757251e-03,1.995728246000019052e-02,1.701300501823425293e+00
3.708172972856808164e-02,-9.791007307837749085e-01,9.429258287178396980e-01,-1.003168724288560666e-02,-7.882515577806140268e-04,3.218390300265923896e-03,1.665538311004638672e+00
-3.039658939445290600e-02,-9.693213800598223795e-01,8.969793391195013399e-01,4.538712474829304649e-03,-2.131708771146283848e-02,2.461045475483608636e-02,1.617276787757873535e+00
1.297090402209725990e-02,-9.024176243106343254e-01,9.195038415896223949e-01,4.515096049154859563e-03,8.819043427347480688e-03,-8.442282785507830610e-04,1.577930450439453125e+00
-7.864966665388212555e-03,-9.688442849467646667e-01,9.655975362284847652e-01,-6.914399849995364784e-03,1.317408510109481685e-02,1.157455217547898041e-02,1.675605535507202148e+00
-3.688811267668620775e-02,-9.923710962633380817e-01,9.659993992234465754e-01,8.083325643631620802e-03,5.283977926684145683e-03,1.212428145106988694e-02,1.696376681327819824e+00
-3.955879034302348801e-02,-1.010682444839680283e+00,1.004904783847463845e+00,1.075839203656228302e-02,-1.564386954724214865e-02,-4.033329136924501679e-03,1.746258497238159180e+00
1.848882276237931443e-02,-9.021197958132747274e-01,9.167831450587684561e-01,5.903788562094246239e-03,6.179874286057127769e-03,-5.549572071432937485e-04,1.575325489044189453e+00
-3.717193856707509680e-02,-9.950316567617573105e-01,9.725226064165212181e-01,7.720101122704963424e-03,2.758837739289188556e-03,1.256517556515099679e-02,1.704347133636474609e+00
-1.261311143381665667e-01,-8.183107894203205390e-01,9.372788711798969441e-01,1.144497331908050745e-02,2.690479733696426925e-03,-1.381505862439738434e-02,1.531995892524719238e+00
1.261533708321222469e-01,-9.296419788832598341e-01,4.354180643771663473e-01,-5.827300382269596721e-03,-2.885649842111114721e-02,2.988526287147665397e-02,1.241832494735717773e+00
-3.309214362505465828e-02,-9.075682963398638003e-01,9.341996390149212015e-01,2.779827850511761358e-02,3.711343559567862509e-04,-3.818209349291100310e-03,1.596432924270629883e+00
-3.822839038194345007e-02,-1.000432775119276529e+00,9.909838125026514399e-01,1.298294243502594661e-02,-1.970271957230234489e-02,-5.981960456353459937e-03,1.725457906723022461e+00
-2.368964198380670710e-02,-9.588636188048897946e-01,9.531517988672872921e-01,-5.143232548562702393e-03,1.620575231904138394e-02,4.485902540195562706e-03,1.656265020370483398e+00
-8.680789338889750850e-03,-9.785179090747720965e-01,9.573269945294639038e-01,8.091583893154280201e-04,-5.147651853484602920e-03,5.084302961290834873e-03,1.676539421081542969e+00
-3.139341458077774677e-02,-9.955260574341885382e-01,9.672105617553090617e-01,-5.099669972091459228e-04,-5.239211475824805250e-04,-2.475508697691352570e-03,1.699873089790344238e+00
-4.418913877754681446e-02,-8.195954951343157324e-01,9.580697027996981641e-01,1.444946461032181051e-01,4.634490780668949761e-02,1.918423689044679303e-02,1.566243767738342285e+00
-1.810418372079865279e-02,-9.240484836220510534e-01,9.506223346194635493e-01,4.587613619635014933e-02,-6.336291830207577136e-03,7.267439551689165809e-04,1.625796556472778320e+00
-5.159402852838769482e-02,-8.876705180115372906e-01,9.578711772217078924e-01,6.499924188353715937e-02,-1.616333094316506694e-02,-4.604691071004455433e-02,1.606814742088317871e+00
-1.543174584073318811e-02,-9.464595227481019668e-01,9.302724984680520448e-01,3.724965049072213874e-02,-2.228800609383262132e-02,-3.685734268932272517e-02,1.628304123878479004e+00
-2.739300321624796308e-03,-1.017463122949157306e+00,8.632503631288123147e-01,1.293297937516206531e-02,2.437138435760166297e-02,7.322772066049812456e-02,1.636066436767578125e+00
-4.838403142307245303e-02,-9.881996691373071684e-01,9.563006758577691224e-01,4.439024098821957309e-03,-8.925649819951574727e-06,-5.170178480495932205e-03,1.684340357780456543e+00
-4.890825511510825570e-03,-9.578954922573470476e-01,9.461233068561603066e-01,-2.244332735452049445e-03,1.656669370582111722e-02,4.654510448250438227e-03,1.649202942848205566e+00
-2.825015135052953708e-02,-9.835310138799053803e-01,9.459837102992957325e-01,-2.663059192973859721e-03,-6.122439155969837225e-03,5.741492642289861871e-03,1.671105265617370605e+00
-6.911539801401803129e-02,-9.739713414333411867e-01,9.310607184226603605e-01,-6.184837737109876062e-05,-5.110519550569739972e-03,-6.337953866801714943e-03,1.650554656982421875e+00
5.287600117661585275e-03,-9.592284505159874852e-01,7.962368313976300183e-01,-1.492040433516392955e-03,1.031660725178695781e-02,1.215532498280280475e-02,1.523005008697509766e+00
-4.944056866679828049e-02,-8.499691025541181721e-01,9.217787643339215853e-01,-1.546371104957947745e-02,1.621783331194146666e-02,-1.535670433908159840e-02,1.537470579147338867e+00
-4.026665320324181174e-02,-9.728957964265072533e-01,9.451603152959414667e-01,3.405303502335594711e-03,-5.055097874724146130e-03,-4.454885943147610800e-03,1.661346554756164551e+00
-3.941793939708689021e-02,-9.105140393340200866e-01,9.228783037317258575e-01,-2.191453105961298914e-02,9.639463340437626898e-03,-1.972522331593733538e-02,1.589327454566955566e+00
-6.099040409993354561e-02,-9.752839466983594940e-01,9.575773733019937728e-01,-5.820910042740235282e-03,-7.616815902276150019e-02,2.933529623551488219e-02,1.680705547332763672e+00
8.452456268666537487e-03,-1.001567482755054028e+00,9.825909775255996514e-01,1.612800145768371329e-02,1.248390605233909954e-02,2.217262056535022115e-03,1.718792676925659180e+00
-8.189666248293986373e-02,-9.659648957500921451e-01,9.222187106099559717e-01,6.661016510539566208e-04,-1.447611047031682058e-02,1.949719445044867643e-03,1.636512160301208496e+00
-3.409601675201215376e-02,-9.582209725851719151e-01,9.212528115667826256e-01,2.150112180056315374e-03,5.939061416631370716e-03,2.973629017896043357e-03,1.627791881561279297e+00
-1.806757473992402080e-02,-9.675794741715560976e-01,9.389734589554165067e-01,-4.373513880179429048e-02,-1.453271859720604159e-02,-2.234755216295197799e-02,1.653509140014648438e+00
-3.851750569972323124e-02,-9.778602583621719413e-01,9.389469802924993447e-01,4.838231916132111274e-03,-1.725095059994586483e-02,2.369020114006243835e-02,1.660910129547119141e+00
-2.219696621425737426e-02,-9.898525512605200749e-01,9.621181317932717691e-01,9.934179302734580039e-04,-2.615261492198663789e-04,2.106207967128555323e-04,1.690477728843688965e+00
-8.459435559256910098e-02,-9.827079401738171294e-01,9.792939504404583051e-01,1.886331988032817443e-03,-2.572574109173863741e-02,1.066415820933462729e-04,1.701750636100769043e+00
1.247751131282423716e-02,-9.162258367605680132e-01,9.279214430119908652e-01,2.764492946421181346e-02,-5.388283116524621337e-03,1.368469356064653869e-03,1.597838759422302246e+00
1.477646132760818826e-03,-9.176108068008148599e-01,9.688057069860172010e-01,7.004458951159840685e-02,-7.206040430873575028e-03,-3.503462960138328374e-03,1.638419508934020996e+00
-4.123212362226869043e-02,-9.860522504059752169e-01,9.384091815937298797e-01,8.447903142438838164e-03,1.577203883827921552e-03,6.330281790505159698e-03,1.666826009750366211e+00
2.022652265714804110e-03,-9.597492594939420751e-01,7.973977789144220951e-01,5.333260139006607697e-03,-1.861908199969850150e-03,1.273666966914025790e-02,1.524197697639465332e+00
6.258918391497780842e-03,-9.160705772766698507e-01,9.450399635718950142e-01,3.981784133058350467e-02,-9.549884043727110278e-03,-4.950168522604093263e-03,1.613372445106506348e+00
-2.019007152079491801e-02,-9.271211045568256148e-01,9.706269082651676205e-01,7.847802678826737433e-02,-1.557440721229650694e-02,-4.972845684966713253e-02,1.652110099792480469e+00
1.281224354714485467e-02,-1.005402230953245324e+00,9.692922283827596353e-01,2.247767697160094058e-02,-1.949099937584952702e-02,-1.724130958627968085e-02,1.711450695991516113e+00
-6.983468520297494986e-02,-9.768425076534603679e-01,9.450241009986696250e-01,3.941023633082131193e-04,-2.315719579656957353e-03,5.853297306971517143e-03,1.665294528007507324e+00
-7.798920348060367491e-02,-9.782954876209363215e-01,9.501304902059002355e-01,6.362499274166604109e-03,1.573873821352782948e-02,-9.519901888634949363e-03,1.671628117561340332e+00
-3.809597536256071476e-02,-8.030712137444745435e-01,9.988576795789138041e-01,1.119600868903614377e-01,3.286773256750077227e-02,-4.828081032539072864e-02,1.581626653671264648e+00
-2.179751312652395898e-02,-8.196271180782879195e-01,9.087676686703131113e-01,8.318241159560688103e-02,-8.914711558733754218e-03,6.950895030953811900e-04,1.505295276641845703e+00
-1.876677754921247665e-01,-2.983484467446330113e-01,8.296413847667238883e-01,-6.287859663333157656e-02,4.957132339250106684e-03,-4.795075263946835253e-02,1.085632205009460449e+00
-1.308527229488443827e-02,-9.943244861001784285e-01,9.656567855001511047e-01,-9.492511875039712915e-03,8.395770395820682103e-03,6.406808380686715063e-05,1.697535991668701172e+00
-1.960354448618421008e-01,-3.907976962662777498e-01,8.526504630953202213e-01,-1.585702492160659047e-02,7.407677293665867330e-03,2.580209826589490232e-02,1.159670233726501465e+00
-3.680648333545452622e-02,-9.634609215190362841e-01,9.167115818355270340e-01,2.531239628804955819e-03,2.125050862354763842e-03,-5.442931127232710289e-03,1.628369927406311035e+00
-2.007796061101647100e-01,-3.988360296509111391e-01,8.583540853194461251e-01,3.630577055151782296e-03,-4.966819274931283173e-04,2.413739595020884462e-02,1.171557426452636719e+00
-1.810745461843042969e-01,-4.505521256776408578e-01,8.500501753650486769e-01,-4.449001094172463228e-02,1.369428819661308453e-03,3.976082790937989636e-02,1.193477153778076172e+00
-1.593641232865923296e-01,-4.789729805059410594e-01,8.530372950858798875e-01,-6.324915948540028865e-02,-1.541427357598554662e-02,3.507965658994480207e-02,1.211232781410217285e+00
-5.156271055839083822e-03,-9.852533211909990651e-01,9.565264531850151686e-01,-2.358183580676323238e-03,1.057141410758490096e-03,-3.749330324002001381e-03,1.681674361228942871e+00
-1.965790518960249811e-01,-4.339221844135748851e-01,8.367940857457931703e-01,-2.019378037708300516e-03,1.907996102738184971e-02,-1.553159574881065111e-02,1.171018362045288086e+00
7.986645068623350607e-02,-9.495958545570245546e-01,6.054425814390359539e-01,9.527245003897150772e-04,-5.484782962296513159e-02,2.198530597486823227e-03,1.373362898826599121e+00
3.152039954622437579e-02,-9.372274278464857167e-01,6.959253051829732417e-01,1.059375993929447500e-02,-6.864119644162525527e-03,4.293848783000431962e-02,1.424624919891357422e+00
-4.044601743879298883e-02,-1.020691991696450751e+00,9.780768625268985161e-01,-1.097220585704018064e-02,5.767390744230735389e-02,-1.497550020845668517e-02,1.734268426895141602e+00
-4.445997075174005358e-02,-9.577926986574986090e-01,8.136170548692960303e-01,9.671879509466675424e-04,1.038191228625162804e-01,6.159689293929031815e-04,1.544837117195129395e+00
-2.245940916429645801e-02,-1.155945908022439905e+00,9.385809888729779171e-01,6.517471077484808008e-03,2.206888605866856867e-01,2.290814813924821683e-02,1.856213688850402832e+00
-3.239995408829148688e-02,-9.912882744416319225e-01,9.692911253343013955e-01,4.072079051055597400e-03,-7.474784307828294047e-03,-4.732013995016486063e-03,1.698130249977111816e+00
-3.705521835334037867e-02,-9.871343388128011043e-01,8.106987442508258868e-01,-7.753183312413074006e-03,1.111597429889884109e-01,2.090904156690450919e-02,1.570137500762939453e+00
-2.211419625102949496e-03,-9.902359726477558688e-01,9.586635619290939658e-01,3.866354936319128799e-03,-4.719299001185636700e-04,-3.244274812616228330e-03,1.687873959541320801e+00
6.325078025750505151e-02,-1.027971593545917717e+00,5.828928365590753113e-01,-7.490682976673441150e-03,1.584758386162494481e-01,1.102393553083523374e-02,1.450419187545776367e+00
-4.650534255838282421e-03,-9.913078102530119562e-01,9.587091866640710114e-01,-2.777749792960493638e-03,2.212765805076938493e-03,2.681757546719083958e-03,1.688822031021118164e+00
-7.250404818520074512e-02,-9.756854948525566229e-01,9.118224788789603963e-01,6.569327861134986041e-03,6.458933334642943946e-02,-4.193551898305598533e-03,1.639011383056640625e+00
-3.969610687452559267e-02,-1.040945277045695505e+00,1.018117250437391874e+00,-1.073153247830514745e-02,3.702096816906562393e-02,-2.527320753100849651e-02,1.785210609436035156e+00
-4.092192776311098790e-02,-9.047258587389496176e-01,9.115559640294720323e-01,1.846505176392492301e-02,1.099010733572311493e-02,9.154392291158242392e-03,1.574090838432312012e+00
-4.915053315942826545e-02,-9.929591751215517403e-01,9.695321245141405031e-01,-9.933111106909451454e-03,-4.156253769549750799e-04,-8.167633730273439474e-03,1.700125694274902344e+00
1.295368766543167349e-01,-9.302321723415305499e-01,4.723040300060539209e-01,8.118814070527499878e-04,-1.231154423918864871e-02,3.422649345165699325e-02,1.268000364303588867e+00
-6.628751378931688545e-03,-9.837981245438892630e-01,9.576852341347126263e-01,1.269940213889889265e-02,5.579886537736819313e-04,-3.477612635831898676e-04,1.681530475616455078e+00
-6.418102538042745088e-04,-1.046619796097877808e+00,1.057648010282127071e+00,5.248937607277222306e-02,1.312124255305151775e-02,1.499140254294213312e-02,1.824952363967895508e+00
2.943676353751853436e-02,-9.329904553200597528e-01,6.903759689674299205e-01,-5.640930649510356686e-03,-1.376005816473982804e-02,1.780402162636595190e-02,1.414505958557128906e+00
-2.741876858253586985e-03,-9.843313563788815834e-01,9.547068202528983250e-01,5.083704250759486613e-03,1.487260798582046642e-02,-1.353208149514673053e-03,1.679522037506103516e+00
-2.884428931602897594e-02,-9.677614485974989078e-01,8.780757386061520675e-01,-1.446830838385474924e-02,-3.017426906618100868e-02,8.909703166367572216e-03,1.599746823310852051e+00
-2.713462394479273371e-02,-9.629318797600121549e-01,8.490446641843714115e-01,1.467109601238278729e-02,2.500154219133353048e-03,4.551910966681803339e-03,1.569732308387756348e+00
-3.706027882712130406e-02,-9.883485508636794536e-01,9.428888859987605287e-01,-9.578059911233345602e-03,-6.211840188763713584e-03,-1.553023289831578259e-02,1.672895193099975586e+00
-1.531073230916375760e-02,-1.003721379847635875e+00,8.598419860175523510e-01,-5.165565407144955337e-03,-3.604227733787632171e-02,-4.195189257479668699e-02,1.617750048637390137e+00
-4.885438925659752601e-02,-9.836672981044000119e-01,9.617450255110961965e-01,4.406293328060925142e-03,-1.345241327268359606e-02,-4.354878047418670947e-03,1.685397863388061523e+00
-3.784518480077478375e-02,-9.885455977833698116e-01,9.552779412736271958e-01,-3.267585972833094397e-03,4.424627219622851576e-03,-2.952461831881460393e-03,1.683568954467773438e+00
-8.050736273538577903e-02,-6.116250443360415900e-01,9.604366744580485893e-01,1.742669670120040593e-01,1.427137218970659163e-02,-3.882470515841355586e-03,1.417842507362365723e+00
-5.776009149683522526e-02,-9.938603347932221110e-01,9.769242019227479812e-01,-3.728524400982220939e-03,-1.695966161176216264e-02,5.907854070287810871e-03,1.707756638526916504e+00
3.099537137030422551e-02,-9.100729494585220181e-01,9.246300752775042930e-01,3.824231119256987776e-02,-2.294677076657882474e-03,-1.217870223505816956e-03,1.590462684631347656e+00
-4.401263328526770074e-02,-8.777804528006801776e-01,1.044770159951613930e+00,2.298175344211785265e-01,-1.424707508335459893e-02,-5.947750149373824680e-02,1.719906568527221680e+00
-4.735104732421999835e-02,-8.014336674233519808e-01,8.950441139947453717e-01,5.089881760007752831e-02,-2.415913589896828695e-02,-4.716898622148145426e-02,1.477697849273681641e+00
-6.494677777660388257e-03,-1.021828665961602489e+00,9.919947161676401226e-01,4.399543975866833379e-02,-2.760543332827428142e-02,4.927465235739265578e-03,1.746381998062133789e+00
-4.139461067862826998e-02,-9.004263330453815550e-01,9.523223582187265723e-01,6.018213467150618223e-02,-3.782999352170634405e-02,-6.342509570220569715e-02,1.614394783973693848e+00
-2.700442105236727439e-02,-8.314183641149929249e-01,9.367541299921792186e-01,1.256759106775156287e-01,1.854880549480949353e-02,-4.080276325619394489e-04,1.549060702323913574e+00
-2.028144815789953079e-02,-1.008269171540667086e+00,9.980529527812026513e-01,1.521942995908783514e-01,5.124801730516873738e-02,2.012810408557373643e-02,1.760059714317321777e+00
-1.758543641878634878e-02,-9.685723847255962582e-01,9.486609639303769104e-01,-1.317627055076243080e-02,-1.344173486123399720e-03,2.917428364900044764e-03,1.660556435585021973e+00
-8.039117251473267001e-02,-1.014002681626470004e+00,1.023703734115466224e+00,2.186742735599407107e-03,-2.875971775830027735e-02,-3.723692402942494709e-03,1.767480969429016113e+00
-2.778131189745077639e-02,-9.750208559300940214e-01,9.031599728134673821e-01,2.543857220610260157e-03,-1.207060450735068877e-03,-4.494111461936329752e-03,1.626598715782165527e+00
-4.552106460401431076e-02,-9.843141471934565567e-01,9.401014730883653359e-01,3.954679448534712850e-03,1.229558900880119501e-02,-1.177446714409819892e-02,1.667032122611999512e+00
4.090286442743935533e-03,-9.859123648759365866e-01,9.572101706506623842e-01,-4.685814174624400828e-03,-1.014041764838811456e-02,2.986949836880961585e-04,1.683005809783935547e+00
-3.324125070945131016e-02,-1.000064466510730998e+00,9.855292538150842718e-01,-3.233451075994377838e-02,4.125903657694056370e-02,-1.049687514619964540e-02,1.722261786460876465e+00
-3.092861903634702356e-03,-9.865766125571234779e-01,9.646089862301133744e-01,7.055683745001350635e-03,5.170542268184029865e-03,-1.538841844854870735e-03,1.689864754676818848e+00
-5.386163733159632372e-02,-1.015108187053179511e+00,8.778595197979639497e-01,4.664595369937877753e-03,1.537116124448730803e-01,-4.070126156865561118e-02,1.662416815757751465e+00
9.332679732666389338e-02,-9.256075617099411845e-01,5.514788849565998019e-01,3.178043392545700559e-04,-3.324145267293101419e-02,-2.584513165077776189e-02,1.311593174934387207e+00
-4.110280795705066950e-03,-9.934348039562713728e-01,9.577447829080484309e-01,-2.005610351453265697e-04,4.350257481345150756e-04,1.037901277088937443e-03,1.689828038215637207e+00
2.336012361378591584e-01,-1.870802037021680020e+00,1.164533249276580973e+00,1.041794680521208605e-01,5.435540205860316387e-01,-1.011597686276228397e-02,2.858920097351074219e+00
-1.668800877423800427e-02,-1.204428975537533475e+00,1.131998377636175723e+00,4.219473065772019055e-02,-1.610263228666180407e-02,7.775654961675476998e-03,2.025055885314941406e+00
9.266571335616392846e-02,-9.351354173329610164e-01,5.947860559445288242e-01,-1.003021832705887698e-02,1.031789433936997763e-02,-3.947258290309579171e-02,1.352728843688964844e+00
8.303347079208252268e-02,-9.229795274678865846e-01,5.873846620899426663e-01,-8.314501826629908804e-03,-3.712749466379808294e-02,8.748522851575939868e-03,1.333562374114990234e+00
1.007063394319042821e-01,-9.154534006631090959e-01,5.248535301170176304e-01,3.824669288427297829e-03,-2.583516757615010769e-03,1.471953560610100029e-03,1.282011389732360840e+00
1.138682889439568691e-01,-9.451792161152324789e-01,5.181966906881739776e-01,1.086756365834342514e-02,-1.898908428458531694e-02,-4.946613027553711794e-02,1.312266349792480469e+00
1.252454503362517013e-01,-8.963737677046789143e-01,4.561937464078629212e-01,1.851288835453168214e-03,-2.732689392877399662e-02,3.032696046357945784e-03,1.222134947776794434e+00
-3.837016392359762773e-02,-9.809895919672781961e-01,9.542866112994503602e-01,5.183911462521187397e-03,5.701828311293501324e-03,3.134952850683197373e-03,1.676247000694274902e+00
-2.152745565181335419e-02,-9.664813008157315810e-01,8.407066387512844852e-01,1.293365231216563223e-02,-3.140435772760635444e-03,-3.952576356701564299e-03,1.565801739692687988e+00
-3.776702429900320040e-03,-9.517680290854521052e-01,9.447478752079245812e-01,1.637055747184070365e-03,1.380307460952962494e-02,7.162242263405050463e-03,1.642654299736022949e+00
-3.407025544097760927e-03,-1.981986309352735454e+00,1.790167863730664166e+00,1.726825850830866205e-01,9.993068925017027648e-02,1.597799456399164875e-01,3.297942161560058594e+00
7.176681450166490228e-02,-9.480732395061443052e-01,6.276130101958886653e-01,-5.602785336051002880e-03,1.193994071200290066e-02,2.325704737568347336e-02,1.384939551353454590e+00
-2.035004081903457607e-01,-3.420701291334228844e-01,9.542359884808492287e-01,1.425492419452609183e-01,-3.506351938293008480e-02,-3.000615863812713946e-02,1.259893894195556641e+00
-8.525831632869705634e-02,-7.660405436010897517e-01,9.118896070358462058e-01,-2.367297152159244383e-03,-1.884666279999489685e-02,-4.998151337174161143e-03,1.462110280990600586e+00
-2.136393580876539550e-02,-9.786858647938129208e-01,8.797263391661550580e-01,-1.161825644769266808e-02,1.461917422120012286e-02,2.053306858528066575e-02,1.610395431518554688e+00
7.890815931373730552e-03,-9.790992126415575258e-01,8.309842558639766175e-01,-5.973435157839394362e-03,2.019532916001430881e-02,-4.603187271376246899e-03,1.570162773132324219e+00
9.679738788946970485e-03,-8.951164859155182896e-01,6.794860365491094401e-01,6.590710509169512600e-03,2.503478873103821833e-03,-6.553491003562984807e-02,1.373451352119445801e+00
-9.700147065299341564e-02,-6.657393257903554407e-01,8.899169504512984830e-01,9.804836606067048044e-02,-9.692164922910641647e-03,-8.086364595352479867e-02,1.381125450134277344e+00
-8.519642228706787723e-02,-6.256703419684547240e-01,7.346514628151290527e-01,-1.731555938292226107e-02,1.939692939228690807e-02,-1.596331850881267111e-01,1.218952655792236328e+00
-5.021233802730278029e-02,-9.948911170756978839e-01,9.677355107351067742e-01,-5.965097827199622969e-03,-1.597682587815685024e-03,6.399879955464416543e-05,1.700112938880920410e+00
-1.237903901728704820e-02,-9.730778705963422093e-01,8.930946561939175909e-01,6.916176784539711199e-04,5.578919534938176980e-03,9.571752314750433394e-03,1.616503000259399414e+00
-3.695314764888410486e-02,-9.856412316115519268e-01,9.532595444346148028e-01,-1.931426844746073524e-04,4.755805252404429924e-03,1.031104153775085899e-03,1.679286837577819824e+00
-2.088752804168971314e-02,-8.875851606083888790e-01,8.128117653699244993e-01,6.371467184807619311e-02,8.416263210134686257e-02,-2.698574386273292023e-04,1.483985662460327148e+00
3.998118684655743715e-03,-9.382502910944882091e-01,7.156999028594017709e-01,1.259292633011754869e-02,8.340016886210439850e-02,-1.874935232062543977e-02,1.444765925407409668e+00
4.743729159724728583e-02,-9.813943722646895074e-01,6.978932706084864934e-01,-1.246552604278635019e-02,6.255549877261744329e-02,3.268653443017752180e-02,1.471804380416870117e+00
-4.568180209324671642e-02,-9.674778072988131639e-01,9.430312763232889806e-01,-3.504283573411953734e-03,4.848550216904140239e-04,-4.711635583063256139e-03,1.654919147491455078e+00
-5.247247709902619350e-04,-9.472284987812777945e-01,6.625818359242491296e-01,1.018343536781193479e-02,-2.153728547634510548e-01,-2.649572898652232528e-02,1.450964331626892090e+00
-3.220679903388585369e-02,-9.738321240457240568e-01,8.926155662693112669e-01,-1.002459896733395167e-02,-7.632621273203359265e-03,-2.830178419977168094e-03,1.616567730903625488e+00
-4.715000457890755614e-02,-1.026024224414846531e+00,9.284742499801103000e-01,-1.917885710438252400e-02,-1.019758670520448107e-01,-5.468610157139577183e-02,1.704794168472290039e+00
-5.568107900223919632e-02,-1.147140808314012439e+00,1.162550395335221864e+00,8.811304849400644623e-02,-1.744084348538097184e-01,-7.725816652370194604e-02,2.034078598022460938e+00
1.993145258577896928e-02,-9.535133064253484836e-01,7.141380059150821413e-01,2.672579685786699577e-03,-1.288234688621652246e-01,-1.311353507936884218e-02,1.468200564384460449e+00
-3.167710735259842564e-02,-9.756955987525586238e-01,9.132726980591766575e-01,7.090684895572326243e-03,-3.099547794543795146e-03,6.927221459338722340e-03,1.635993480682373047e+00
-6.066841060999432489e-02,-9.826895698542402746e-01,9.459054395141009985e-01,-6.996741970122738116e-03,-2.218427229979539478e-02,-1.340073436956875329e-02,1.671394109725952148e+00
-3.883399235598570393e-02,-9.963890776261078441e-01,9.673604893184145626e-01,-7.461344628035785232e-04,-1.939787049050472559e-03,7.601143026347072186e-04,1.700835227966308594e+00
-3.870669009426612461e-02,-9.937477737808200207e-01,9.416689357137907335e-01,-4.513577514405793523e-03,-2.058305713687190452e-02,-8.519559783543659975e-03,1.676630139350891113e+00
2.479762184902047084e-02,-9.047576930657276195e-01,9.211012124306403592e-01,3.760790373449082735e-02,5.680907172545035348e-03,3.332621374717845749e-03,1.582709789276123047e+00
-8.527021577360008320e-02,-9.712418181130325623e-01,9.497358468022546463e-01,9.416280854611473999e-04,-1.567057875669811487e-02,1.115268312247881402e-03,1.665506601333618164e+00
7.960100651266900987e-03,-1.068598107291813593e+00,1.099447921343465362e+00,1.762492783526622975e-01,5.927233182922393012e-03,3.407225737939340027e-02,1.903195500373840332e+00
-7.479722945035138792e-02,-9.847039168325687486e-01,9.600184162216968131e-01,-6.369973022711691813e-04,-1.004977033351849534e-02,7.593504475994423616e-03,1.685478091239929199e+00
-2.056165291946758511e-02,-9.418321545363825820e-01,9.659065332753666855e-01,1.682467822158004861e-02,1.061672496416232736e-02,-5.926031586646847427e-03,1.652862787246704102e+00
-9.674739546182302419e-02,-6.722039801594885677e-01,9.460989418080189006e-01,1.278190862876308065e-01,-7.975253341123434911e-03,-3.337068275315065169e-02,1.439213752746582031e+00
-8.373296340671895766e-02,-9.684844835663983798e-01,9.344449727054244814e-01,3.346005381289344810e-04,-7.440694489584807891e-03,1.592745385684594950e-03,1.649387836456298828e+00
1.683238013028845112e-02,-9.673121950954171044e-01,9.456936794285246695e-01,6.967352017556981483e-03,1.659633644466943989e-02,4.801376643930625396e-03,1.657256364822387695e+00
-5.597858397210203618e-02,-8.280281380380628553e-01,9.459966965866098976e-01,3.315828373487054309e-02,3.777395443358924632e-02,2.305710139038168530e-02,1.543620228767395020e+00
-1.099611707853027642e-01,-6.344217703676338083e-01,1.009226541691957912e+00,1.289933175510780405e-01,5.516808472886238629e-03,1.093350144794557888e-01,1.483402013778686523e+00
-3.327693436661618293e-02,-9.703282159894284220e-01,9.540641873831674502e-01,7.246322900557617547e-04,1.379853647657891362e-02,3.631187573249972361e-03,1.666946053504943848e+00
-6.853612787104157444e-02,-5.387314049130973448e-01,8.477296319997591478e-01,1.862342453310649182e-01,-4.859421428966319767e-04,-1.463129038778975509e-02,1.263385534286499023e+00
-9.101484221254632634e-02,-7.444878685602431823e-01,9.981116815395754127e-01,9.726164095318923231e-02,7.724414507392076898e-03,1.278661607731018147e-02,1.534271001815795898e+00
-1.232297188747438210e-01,-7.070371629265550517e-01,8.932946774601950857e-01,7.455627655330743231e-02,-1.206114575613768947e-02,1.176558358935011483e-01,1.423463582992553711e+00
-1.236765590894813166e-01,-5.203984839001318807e-01,7.975308136364243072e-01,6.241874008253430611e-02,-2.453314865661452432e-02,1.257170532780799432e-01,1.196821928024291992e+00
-3.870371672009785546e-02,-9.644825583496690058e-01,9.399051354482288456e-01,1.891922711325830231e-02,-3.432486646702012645e-02,-8.905688733429190790e-03,1.650928020477294922e+00
-7.645508050581190096e-02,-7.938001270341829008e-01,9.164346565110229603e-01,7.675336858204633017e-02,-3.207852282744162037e-03,-9.420252677656667378e-03,1.493528962135314941e+00
-3.579405123042226494e-02,-7.629997574965824425e-01,8.010940933086625471e-01,9.959602237577810935e-02,-3.590931911438173529e-02,4.470425202864437147e-02,1.370190382003784180e+00
-4.471732263427652398e-02,-8.528263080736315782e-01,8.768009623024758392e-01,1.262596268772792074e-01,-4.592960191726159352e-02,4.594181248035454634e-02,1.519015550613403320e+00
-2.381322115048759014e-02,-9.907651826838544951e-01,9.647507773991563784e-01,6.792438724920318036e-04,6.416784253602938538e-05,3.362623652083724171e-03,1.693571448326110840e+00
-3.070594990131967489e-02,-1.012919044156128212e+00,9.799217287775142671e-01,-6.827225988809457191e-03,3.524449749749732595e-03,-3.003829532109385594e-03,1.725968360900878906e+00
-3.095854849326274208e-02,-9.360689337436319812e-01,9.333974621290118678e-01,1.731793419147620999e-02,1.987942853770257104e-02,1.121926138311351261e-02,1.620036721229553223e+00
7.684803289139882643e-03,-1.122688858958070135e+00,9.942431471697015244e-01,1.312653690332758472e-01,-2.872255061491307826e-02,-1.146125194781515318e-02,1.849535703659057617e+00
-7.414235964204118901e-02,-9.728002642380702003e-01,9.321570838189956465e-01,2.502167037722762664e-05,4.394695754108812399e-03,-2.021951288224845922e-04,1.650636672973632812e+00
-3.433341446257711510e-02,-8.873853719916660054e-01,8.908192943559606336e-01,7.697280490299440725e-02,-9.769103829365911873e-02,7.825631188829633433e-02,1.561276912689208984e+00
-3.370402252787526448e-02,-9.939890909750956904e-01,9.593004717917980040e-01,-3.621375865622308669e-04,-1.887617859748635203e-03,1.975978042468062900e-04,1.691680788993835449e+00
3.921585127706181395e-02,-9.919980383853032047e-01,7.384058694511944632e-01,-2.829613342761424719e-02,-3.995775325664784050e-02,-7.724906953445428992e-02,1.516039967536926270e+00
3.212793109743712627e-03,-1.353017356626949441e+00,1.248832210443824753e+00,1.089951786912390086e-01,-4.769025994062510432e-02,1.231522902568784293e-02,2.263447046279907227e+00
-1.323009292940688364e-01,-4.153990129820528954e-01,9.125600037218584148e-01,-1.725580800049309749e-01,-1.616993150947893532e-01,6.064093862990322520e-02,1.283151507377624512e+00
2.472906681579191412e-02,-9.650431861687444046e-01,7.791620385313887676e-01,-7.583483208678762008e-03,3.182056118529816985e-03,-1.144077964130824250e-02,1.515298843383789062e+00
-2.863672585908010049e-02,-9.823406666321454761e-01,8.294135756181590935e-01,1.696668956661682992e-02,-1.786212263515642995e-01,-5.772833034062788138e-02,1.603341937065124512e+00
-5.603308225793588587e-02,-9.311022850748916779e-01,9.436115333059350574e-01,-3.004895679353219128e-03,7.630740861305273202e-03,9.221700425935321077e-03,1.624884843826293945e+00
-1.839622493456211649e-01,-4.291693053181089845e-01,8.349237307433746702e-01,-4.595001613894669767e-02,1.186148275013740143e-02,-4.060756791764071061e-02,1.166103124618530273e+00
-2.933009861037390309e-02,-1.089335365263160105e+00,9.953180419569248594e-01,2.001640569752486179e-02,-7.225509674653260439e-02,-1.296682343170822010e-02,1.810253024101257324e+00
-9.212917141193203985e-02,-1.126993662261071893e+00,1.225459870857377176e+00,-2.331807405828347293e-02,-1.587567971351598606e-02,-1.430931447311909084e-02,2.042917728424072266e+00
-8.292605811423642281e-02,-6.637741850294386348e-01,9.097897491477624499e-01,-1.382916643005456248e-01,3.819339891408644883e-02,-3.714505733965013656e-02,1.401918530464172363e+00
-3.537544428969771268e-03,-1.059740400144266292e+00,1.102965445940817579e+00,-1.299825417969298069e-01,1.294810334699038681e-02,4.131171577705095022e-02,1.888098001480102539e+00
9.293010972191897284e-03,-1.258294608937822634e+00,1.186431002252211542e+00,-9.818351968620434023e-02,1.282106100228437573e-02,2.339000583327937796e-02,2.124996900558471680e+00
-2.952378495214223048e-02,-9.946674672302204812e-01,9.608724967429864705e-01,2.742182608183327264e-02,-3.867551579179864807e-02,1.981183382435231725e-04,1.695584058761596680e+00
-5.010159051455272128e-02,-1.108939136211995802e+00,1.102748376637560312e+00,-8.873455808298083558e-03,3.314625980366033009e-02,-2.658280002635547701e-02,1.917428731918334961e+00
-2.345655961176905391e-02,-1.041548459273974103e+00,1.032390869698173841e+00,-3.612156219327394835e-02,-1.566634297856761213e-02,-1.342048695295387003e-03,1.797478914260864258e+00
-1.644295134649091938e-01,-3.897425745807298059e-01,8.477594876534810808e-01,-1.790424459034396232e-01,8.905972298743600885e-03,-3.972357803119630493e-02,1.185112833976745605e+00
-3.565107539613406040e-02,-1.006380493530455666e+00,9.764141072612472216e-01,8.670171904573843735e-03,-2.115633479954370094e-02,-5.470360462330505977e-03,1.717757582664489746e+00
-4.804781393887701951e-02,-9.180898177155183415e-01,9.444690193090317099e-01,-1.228667767322543999e-02,1.761061010638665693e-03,3.588935316912060525e-02,1.615524768829345703e+00
-4.303879523619635883e-02,-7.520096463936737363e-01,9.164024505633631135e-01,-1.140803152255104869e-01,1.367314805066979083e-02,-1.457241535111995084e-02,1.464112043380737305e+00
-9.468268239872237868e-02,-4.471185822805054944e-01,8.514334548768798250e-01,-1.763708982743888432e-01,5.940939615954791628e-03,-6.425015615276921666e-02,1.207726120948791504e+00
-1.903628475661234276e-02,-7.872097117155509860e-01,9.272133290336572742e-01,-1.482277396770974032e-01,-2.691686026173751526e-03,-1.120578001777265340e-02,1.509528160095214844e+00
-1.279353309873698316e-02,-1.071573044326517898e+00,9.814318128809939035e-01,-1.880114540275129587e-02,-1.389149780921897052e-02,-7.991196204205753759e-03,1.778762102127075195e+00
-4.867044215773483340e-02,-9.469856778675872500e-01,9.497965806419781387e-01,2.497510533375427253e-03,1.579629485556411500e-02,7.370886046516078420e-03,1.643707752227783203e+00
4.301863651073153244e-03,-9.835376675728831897e-01,9.542292468225452851e-01,-5.537310818746324359e-03,-1.003305311973408213e-02,2.880255690686797220e-03,1.678387165069580078e+00
3.622944815399745111e-02,-9.600508778805355581e-01,7.428343795006131511e-01,-1.048900867038711493e-02,4.933334596599109681e-03,3.037343953572810284e-02,1.482906699180603027e+00
-1.080398162756356084e-02,-9.519128533267716685e-01,8.209010285843609811e-01,-7.701327858176976529e-03,-4.760509178291796872e-02,7.078526645481177972e-03,1.538593888282775879e+00
-3.063635127280230769e-02,-1.056358199570109457e+00,1.034658274386899501e+00,-3.943056294504249017e-04,-1.831914985445636662e-02,8.524083292940598869e-03,1.811319708824157715e+00
-6.151987637572793599e-02,-9.854721436871907159e-01,9.496959591417246660e-01,6.142067034527140014e-03,3.209697820688341683e-04,9.845745375115826786e-03,1.676593184471130371e+00
9.708386191419860270e-03,-9.077136139781646351e-01,9.290801574688248854e-01,-8.221934968919539948e-05,9.401403083120802792e-03,7.484474228222220277e-03,1.590846538543701172e+00
2.080134046749241780e-02,-9.450662566984783242e-01,9.385610479424174590e-01,-2.318896822728594431e-02,5.687049473095963890e-03,8.294444182586926256e-03,1.632033705711364746e+00
-2.806801777995144437e-02,-9.773959254305993882e-01,8.958967602648841844e-01,-1.157300808710989143e-02,3.536238748840888312e-03,6.241180859311062229e-03,1.622539997100830078e+00
-5.647468213212823718e-02,-1.024927326306488418e+00,1.053050526610403104e+00,-1.007608909470526087e-02,-5.928140640629810804e-02,-2.519088995495783953e-02,1.804500102996826172e+00
-1.987655706308680270e-02,-9.000840734884487659e-01,9.616387627047603415e-01,-8.084673769195185877e-02,-2.433207874447606764e-02,-3.371309288827326056e-02,1.620761871337890625e+00
2.025659254068510814e-02,-1.057165009088575136e+00,9.963061152850624103e-01,-3.678854019986523005e-02,-3.647138402274473137e-03,1.949827344724409071e-03,1.780235409736633301e+00
-8.075266061225586101e-02,-9.671489358068116049e-01,9.320593239157201060e-01,-1.859355098064949263e-04,-4.242895469873260959e-03,1.013676938892025354e-03,1.645994067192077637e+00
-5.664481786787963630e-02,-9.726131386929330880e-01,1.070188635055672410e+00,-1.566936769256916662e-01,-6.945929989355961731e-02,3.346666399354777249e-02,1.797884225845336914e+00
-5.230120670699948959e-02,-9.767338602530112324e-01,9.203106838987695770e-01,1.493562410328619534e-02,-2.718457738174183402e-02,1.471865387083734142e-02,1.644141077995300293e+00
-1.060636353284632148e-02,-9.913814479146989544e-01,9.628239846547347325e-01,8.819679301827830498e-03,5.600889609952457637e-04,-7.596533902204280183e-04,1.692465305328369141e+00
-4.752560182978264602e-02,-9.757500092472219944e-01,8.402946018859789312e-01,9.190412054148520971e-03,-6.646946239466439144e-02,3.013505139108151303e-03,1.577167391777038574e+00
-8.032559352181513346e-02,-1.000837995190206664e+00,1.014093943824493360e+00,4.158927705609421349e-03,-2.972235157467266464e-02,-7.468230038678543622e-04,1.747920989990234375e+00
-4.061985241273727287e-02,-1.004132523430140811e+00,9.355386430123773245e-01,1.122408517069025009e-02,-3.172364553704771356e-02,2.653227151482872095e-02,1.681455373764038086e+00
-3.506308683782858454e-02,-9.542501812101618075e-01,1.007185966264060095e+00,-4.341302302050100564e-02,-9.461378845576807681e-03,2.709701500926244358e-02,1.702156066894531250e+00
-4.061443690958239233e-02,-9.520083355105725120e-01,9.957779371603264762e-01,-3.250838952245087288e-02,3.735814994337603636e-03,5.690887357402630436e-03,1.688969850540161133e+00
-6.740960870669840399e-02,-1.040177211834484305e+00,1.033183044696999398e+00,9.135597157187345246e-03,-4.032202119392610390e-02,9.430658764544169043e-03,1.798220396041870117e+00
-9.645533410990038414e-02,-5.377398145123127859e-01,9.785634912987021261e-01,-2.560170337348715019e-01,2.334820320059786611e-02,-7.806675017342193379e-02,1.428754448890686035e+00
-5.756994620676036956e-02,-9.886577683492755453e-01,9.604702357733480023e-01,-3.470163969548215109e-04,8.100051196732505109e-04,6.853340298197485234e-03,1.688596606254577637e+00
-1.060343964701651598e-01,-7.130024694876347935e-01,9.177312298613538033e-01,-1.253113679893549104e-01,2.078721306430354743e-02,2.825786324588981657e-02,1.445233583450317383e+00
-7.407828234489872987e-02,-6.724224318486564655e-01,1.031015713882954543e+00,-1.672771761457766682e-01,-4.763255608417692188e-03,8.938182907514285319e-03,1.524705767631530762e+00
-5.179791124430187070e-03,-1.019758051739983351e+00,1.005961213334374493e+00,-1.084235912678744307e-01,4.161368194893605085e-03,7.109594357725020075e-02,1.768654823303222656e+00
-5.440603609429592313e-03,-9.360409868889484342e-01,7.955737118545292974e-01,-2.929788242604253971e-03,-3.162503600235620424e-03,1.921494996778929732e-03,1.501043677330017090e+00
-2.283413570271930482e-02,-9.960783949662075365e-01,9.093236132961700635e-01,-2.688860428620264489e-02,1.162908414875529345e-01,3.442124273781621037e-03,1.663164138793945312e+00
-3.416328500947474200e-02,-8.301242683355396501e-01,9.179182143598030308e-01,-9.416509606213382955e-02,-2.712658290158741214e-02,7.114279200580360396e-02,1.530302405357360840e+00
1.255286745882446854e-02,-9.792015329990416683e-01,9.493630972321159822e-01,-2.318347363396279157e-02,-4.067910328728191471e-03,6.122784950344618143e-03,1.670943021774291992e+00
-1.834592594106154440e-01,-3.273529802847645609e-01,1.036008404811461281e+00,-3.066048869631862184e-01,2.202235252557700751e-01,3.846462898654850332e-02,1.454384446144104004e+00
-6.993941187999669351e-02,-5.230925030492900030e-01,7.241138612778905692e-01,-2.092501980913229198e-01,1.945464799645211240e-01,-7.985045064596808795e-02,1.208191275596618652e+00
-1.551668612493973254e-01,-3.681555638036522193e-01,7.698705838120204481e-01,-2.613728639006158150e-01,1.287872152450894314e-01,1.144235475007395475e-01,1.179858088493347168e+00
-1.783650084430767335e-01,-5.865825391816750223e-01,1.015542723226659394e+00,-3.214629807440170794e-01,-1.430315803097116124e-02,5.064481202924863562e-02,1.548468589782714844e+00
-8.364249041824640962e-02,-6.860893084581528578e-01,1.013004220908475528e+00,-2.520118677991422529e-01,3.178738830631543388e-01,-6.096749991477768554e-02,1.652591943740844727e+00
6.649754360809607967e-02,-9.284770712251262381e-01,5.317168350732587312e-01,1.471485245441170450e-03,1.604320193535160588e-01,-3.662692109410594504e-02,1.323076486587524414e+00
-3.969567057011880173e-02,-9.895705507707385218e-01,9.594673288466813998e-01,4.629680572099649505e-03,-5.403401217286545911e-03,6.687258660787768864e-03,1.688180923461914062e+00
-3.278025823178746384e-02,-9.981658055620188374e-01,9.690407176876555395e-01,2.110773248803199918e-04,3.345817589961687854e-04,1.977435046666439853e-03,1.703751802444458008e+00
5.830302986558581757e-02,-1.037438015804096114e+00,7.064583360240466181e-01,1.495205964671034171e-02,4.821399713748199256e-02,-5.099803407381684611e-02,1.531799912452697754e+00
-3.034380137891494120e-02,-1.049041551097340541e+00,1.002829602136187548e+00,7.405497806831477098e-03,1.657065702410411012e-02,-3.460464062628198102e-03,1.777275443077087402e+00
7.078216468441789200e-02,-9.931872739052697296e-01,6.603412542387924189e-01,-2.265289232612642447e-03,1.098318015082800497e-01,1.323480524353939751e-02,1.464108467102050781e+00
-3.591491235594614778e-02,-1.000229490832336143e+00,9.687687549936111475e-01,-9.690921759872029575e-04,2.797208905614545840e-03,6.256471233633235799e-04,1.705330014228820801e+00
-1.808927842094919247e-02,-9.827040633763073352e-01,9.606086466060594908e-01,3.961823729694681040e-04,5.550995108066050440e-03,6.210602379378193753e-03,1.683034896850585938e+00
7.870900287080616342e-02,-9.614077128994920063e-01,5.929722799081634799e-01,1.291639969041766603e-02,5.746766539288258174e-02,-2.006533707670691592e-03,1.375362992286682129e+00
9.694183300933023606e-03,-9.507605793342256417e-01,7.150283745262234758e-01,1.139667605875402216e-02,8.004975411654646766e-02,-8.388414247216964201e-03,1.455072522163391113e+00
-2.870248926139254420e-02,-9.577129553721029920e-01,8.223532581832336819e-01,-1.298382746475046107e-03,9.575952108295374132e-02,2.645800807803208674e-03,1.550977706909179688e+00
7.668866249581626771e-02,-1.130089157085004681e+00,7.090389895487527738e-01,7.410634043474483706e-03,2.327607037912514665e-01,3.148893135744889465e-02,1.668819308280944824e+00
1.496998661394674524e-02,-9.653895156799516819e-01,9.436137423222867859e-01,2.006430117337679089e-03,-1.337402418159608624e-03,-1.492035619758121405e-03,1.653454780578613281e+00
-8.011716328819118091e-03,-9.991458810812678948e-01,9.800409614990859275e-01,3.489407698954678783e-02,-9.276959212923097109e-03,-2.344338316110033960e-02,1.715647816658020020e+00
-2.750236338151948456e-02,-1.001845613274628066e+00,9.877285041193980542e-01,2.588313440808563681e-02,-1.303392733885245895e-02,-2.668043723356178232e-02,1.724493265151977539e+00
-5.541287518143776791e-02,-1.040923222000939230e+00,1.126145819375615753e+00,1.702783636474803075e-01,1.192087166824892797e-01,-2.559918147389807913e-02,1.913983345031738281e+00
2.304257373956046170e-02,-9.752474858009919645e-01,9.436015835340105795e-01,-5.449620742494352098e-03,-5.369168890579983575e-04,-3.124125502773349161e-03,1.662262320518493652e+00
-1.582897876168278331e-02,-9.727687346092954712e-01,8.885010221059289615e-01,2.330371510508843884e-03,4.968740621853562703e-04,-5.187126125688348161e-02,1.614628314971923828e+00
2.140773672858027263e-02,-9.624602818124112780e-01,9.417423152166658484e-01,-4.809997896235227409e-03,-3.590182624236476559e-04,4.266176098557270847e-03,1.649431467056274414e+00
-1.570518903793353127e-01,-6.814187495064569777e-01,1.134707733012579434e+00,-3.773666109375791722e-01,-3.136179154628796484e-01,9.413527065841389985e-02,1.835709452629089355e+00
2.789168615635810242e-02,-9.499445772909456132e-01,9.336997466236796051e-01,-1.083007374255091524e-03,-4.879191477642872039e-03,-1.409114220237151589e-03,1.631706118583679199e+00
-4.478281431996945783e-02,-9.933410029286183773e-01,9.599776526788622588e-01,4.280641202509041614e-03,-6.220749688058766456e-03,6.481442934920726793e-04,1.691907882690429688e+00
-6.870180939644990326e-02,-9.937253948101563150e-01,9.765894743451358773e-01,2.096860545840874973e-03,4.588380530012085151e-02,1.347750284775236715e-02,1.709413886070251465e+00
2.671476878418059531e-02,-9.654531619047649338e-01,9.408960157824931558e-01,-1.639619430301188515e-06,5.429003195951097316e-03,-3.308628558849009259e-03,1.651443958282470703e+00
-2.584283941316537284e-02,-1.004657389454592709e+00,9.879385248795617969e-01,4.188552404384732197e-02,4.740178086829790333e-02,-4.725407459175020100e-03,1.729221105575561523e+00
-2.821510732148699990e-02,-9.961398465661452928e-01,9.652488741760204549e-01,-2.489409153996578202e-05,-3.293011189842170831e-03,4.717298525422741317e-04,1.698670268058776855e+00
-3.887390875512386490e-02,-1.008485004200206037e+00,8.830416584342297703e-01,3.301887446519848057e-02,1.415007700665531498e-01,-1.463080800578352852e-02,1.657695293426513672e+00
-3.177767766457041676e-02,-9.910968274209331907e-01,9.533238452223316006e-01,1.712758830060041306e-03,-1.713962536385090505e-03,-4.371399601703009237e-04,1.683972477912902832e+00
-6.030190839746046860e-02,-9.657304959724462012e-01,8.920713040974729280e-01,7.444301258566539230e-03,-9.863874624310795675e-04,2.385873157371935522e-03,1.609132647514343262e+00
-1.312454132068847576e-02,-9.729483303997218391e-01,9.591219165506180699e-01,5.226301917296187829e-03,-1.011774878134772196e-02,-8.992724657108174631e-04,1.673350453376770020e+00
-2.967010209071670873e-02,-9.657452670974279174e-01,9.491849600461989001e-01,3.254174669316406421e-03,-8.270126689384300553e-03,5.344049285295974366e-03,1.658613443374633789e+00
3.745130353857547417e-02,-9.494723371894718822e-01,9.289876441313159594e-01,1.586007435836214730e-03,-2.822469923143457594e-04,-1.951458676658039595e-03,1.627498984336853027e+00
6.367495623928947496e-03,-9.598814849995999099e-01,9.440965772556085822e-01,4.992123670407576895e-03,-1.523977079137017179e-03,-1.292387786853892032e-03,1.648981332778930664e+00
-1.873216139627479834e-02,-9.936532462690013112e-01,9.537347239210640648e-01,3.066996122836987762e-03,-1.662450978323431593e-03,-1.776477737543620625e-03,1.686501502990722656e+00
6.319277405974738950e-03,-9.642107791963216989e-01,9.476759497253345321e-01,-1.648702911223150691e-03,9.857959929538404054e-03,4.947001591086644390e-04,1.655897498130798340e+00
-3.289954567012694925e-02,-9.832516678984257741e-01,9.570326526916563825e-01,-9.161529617106421589e-04,-5.948621669698454101e-03,2.532509479637008992e-03,1.680490136146545410e+00
-1.924817950156101215e-02,-9.879386670495953204e-01,9.613403973345718834e-01,7.320299078172739712e-03,4.005121156267383957e-03,7.874779886381074595e-03,1.688252687454223633e+00
-3.133648858872223331e-02,-9.900017391613418205e-01,8.568656198560711257e-01,-2.469992597082015622e-03,9.705738031708133207e-02,4.326626910540332799e-02,1.610380411148071289e+00
-5.890526312194885317e-02,-7.606141938630226473e-01,8.887111150192619213e-01,8.966256620204465788e-02,-1.112558714519035555e-02,-1.804729197754109324e-02,1.442494273185729980e+00
-6.053043004859101628e-02,-9.115686602796362337e-01,9.389793188032532489e-01,-1.693706331862329315e-02,-1.287156872211077906e-02,2.180600364827441420e-02,1.605207443237304688e+00
-4.276152441255726827e-02,-9.746132129933722243e-01,8.927325968839598946e-01,-1.768452078629054181e-02,1.535120258802350965e-02,1.739412521085205877e-03,1.617681384086608887e+00
-4.861665616809410229e-02,-9.452068957866365251e-01,9.496987055998781235e-01,-2.255771264238707902e-03,1.561773515848421251e-02,-6.939134496299560924e-03,1.642095923423767090e+00
-3.044970521684945211e-02,-9.273351075775853047e-01,9.413899393927215309e-01,2.457560275815229983e-02,-1.672766010562974290e-02,-5.342851914057875073e-02,1.622257590293884277e+00
-3.834615834424787151e-02,-9.700383248655471968e-01,9.575192448223593944e-01,7.702731340443166701e-03,1.354131576380566797e-02,2.364371327537155565e-02,1.670342326164245605e+00
-8.221230728493375550e-02,-8.784440389638368263e-01,9.343008710481021106e-01,9.662595892583676627e-03,-1.234032886309846533e-02,-3.421798161284101553e-02,1.575091600418090820e+00
-4.298980781373606952e-02,-9.742762121162512612e-01,9.495019389479967264e-01,3.197258115616385087e-03,-2.778253024647322003e-03,-4.029113757046291940e-03,1.666352510452270508e+00
-9.122323006792247557e-02,-7.328706474205076704e-01,8.956588136419190160e-01,1.116580725874634361e-02,-1.560779200493768969e-02,-1.350203211465982392e-02,1.421453356742858887e+00
-7.962083012565517037e-02,-7.941376113451370511e-01,9.116681283106440326e-01,3.402468175815045320e-02,4.676027175817584064e-02,-1.373403831032340983e-01,1.506021380424499512e+00
-4.423306052386451193e-04,-9.759202813765044393e-01,9.529307936443394134e-01,-9.110516786758820562e-04,-3.985865014453630786e-04,3.117936938219605710e-03,1.670480251312255859e+00
-1.247057303400555227e-02,-9.930222098574910117e-01,9.632605102150046950e-01,-2.788457927984832468e-03,1.720085796658913854e-03,-2.954438358758734295e-03,1.694209456443786621e+00
1.096850099883016350e-02,-9.438447614083802506e-01,7.554324024571215102e-01,7.060253274847495819e-02,4.413876421741193962e-02,-4.375579093292115973e-02,1.484338760375976562e+00
5.460463014347333166e-02,-9.772345979389054360e-01,7.306752376782329472e-01,-2.539852141219152426e-02,1.917517312878149610e-02,4.670307199943289633e-02,1.492964029312133789e+00
4.356114459944911144e-02,-9.219700639505632456e-01,6.446681948864176892e-01,6.364374548124631520e-03,1.208139226125411365e-02,4.709680557376750600e-03,1.369158029556274414e+00
4.526826995732143727e-02,-9.395483515482397907e-01,7.192211043244588486e-01,-2.934900543223235847e-02,2.516650108221200888e-02,3.745241724356777879e-02,1.447925567626953125e+00
-5.484697505600866219e-02,-1.016446711468479647e+00,9.442271559193848862e-01,6.211413827940992505e-03,5.226169385662603195e-02,-1.439277179602525998e-02,1.700724482536315918e+00
1.223535768651739901e-02,-9.086564212124190743e-01,9.260507660264604146e-01,-3.123018217129248583e-03,-1.055325091944992431e-02,-2.344958056553779740e-03,1.589026451110839844e+00
-6.263435666976893690e-02,-8.161297634097681719e-01,9.226818114740251708e-01,-3.532702942129505030e-02,-2.704858839320865502e-02,2.340212444211178799e-02,1.512817382812500000e+00
-3.963556028253276131e-02,-9.406845352153077044e-01,9.541688412179653023e-01,5.483508348254581555e-02,6.275188468478953840e-02,-1.094417025793611858e-01,1.658845782279968262e+00
-8.008366822349780034e-02,-6.805416199235071462e-01,1.021390842838390878e+00,2.203118357208500577e-01,7.005550549906950850e-03,-1.252139007456005149e-01,1.558197617530822754e+00
-4.882470341291432481e-02,-9.671970840424563010e-01,9.424122762393817299e-01,-2.839680106901157873e-04,-4.169604824813855602e-03,-2.781630504286875059e-03,1.654194355010986328e+00
-9.773098252617835879e-02,-6.252537661693022830e-01,8.646177429737961218e-01,-1.437524388327061226e-02,1.500705312924947854e-02,6.317730848212281362e-03,1.308996438980102539e+00
-3.899782892589324923e-02,-9.727864223073833250e-01,9.415293720167409175e-01,2.474525982946677166e-03,-4.971159127247944988e-03,-2.241257049945657390e-03,1.658043265342712402e+00
-5.828700551426174020e-02,-1.155054104477033272e+00,1.248938746878901940e+00,-1.826229214079370111e-01,-1.742010658407867341e-01,1.040100700539255824e-01,2.137523174285888672e+00
2.340076244090309732e-02,-9.871368286158006544e-01,7.676248249099931753e-01,7.425473161529205952e-03,1.133099645521482707e-02,-1.340143041514270383e-02,1.525847792625427246e+00
-3.593927277938266385e-03,-9.940323933303292225e-01,8.450919977631203839e-01,-1.791351587903070725e-02,6.296917269198183675e-02,5.076439367051920754e-02,1.600748658180236816e+00
-1.420387235979033227e-02,-9.723977382157493743e-01,8.554648932017435703e-01,-1.147989763435660997e-02,8.765881852906337243e-03,-5.425586074785223624e-03,1.583819627761840820e+00
3.116812432676939471e-02,-9.729575827961083334e-01,7.520208297772483785e-01,-7.888188834659535034e-03,5.236128654061528859e-02,2.902255640947083368e-02,1.504214882850646973e+00
-3.142196154853567347e-02,-9.793544809077072699e-01,9.604034868657077562e-01,2.610232649756781022e-03,-1.401556167170737305e-02,-3.635298455450240371e-03,1.680216312408447266e+00
3.408190152202501821e-02,-1.073378881808799035e+00,7.845518795860771943e-01,-1.464336185755942508e-02,1.214836893698162668e-01,4.425900981641955195e-02,1.634498476982116699e+00
-7.920659696673418293e-02,-2.761164140237841180e-01,4.501484075361298909e-01,-1.017385141890144590e-01,5.970428876613854269e-02,-1.274421618272872890e-02,6.822452545166015625e-01
6.588181689349717485e-02,-8.514985267788470757e-01,5.225074915153845589e-01,4.438382085878397887e-02,3.395059343875665020e-02,5.136214613444608362e-02,1.219128847122192383e+00
3.003157737488346690e-01,-1.296642183832524386e+00,3.273100088534253160e-01,-1.157621387353409284e-03,-1.053853594202066590e-01,-1.822541675211979406e-01,1.651388525962829590e+00
2.758764645584763642e-01,-1.025514986311816479e+00,4.620791106162655537e-02,-2.570423336198322459e-02,1.037302391716822259e-01,-1.282457445586665801e-01,1.237368822097778320e+00
-7.519857139374697130e-03,-9.588434486896354469e-01,9.506690200854798212e-01,-1.136892916327395149e-02,-1.839714901392388441e-02,6.314233653243645633e-03,1.654150247573852539e+00
-5.974454644553124118e-03,-9.418790437148366612e-01,9.440184582628787791e-01,-6.434111614328563505e-05,-1.976509512586177228e-02,3.891726971881928968e-03,1.633623003959655762e+00
-4.025773653193383261e-02,-9.264805626667990124e-01,9.478291443348189071e-01,-5.641677592625998078e-04,1.886752065083379878e-02,-6.522346379255208881e-03,1.624366998672485352e+00
-3.767267832017473506e-02,-9.848020028711337304e-01,9.330863811639394934e-01,-4.404395964745165233e-04,8.652728390489375365e-03,-6.796476367774396087e-04,1.661050319671630859e+00
-8.107723956538251397e-02,-8.495896519801738878e-01,9.210790358368647901e-01,-4.144662956157150330e-03,-1.259082408581061775e-02,3.131968231192454322e-02,1.539015293121337891e+00
1.195142207028162054e-02,-9.765247862783298372e-01,9.558257214530226920e-01,-9.978495328741714826e-03,3.343368344152079547e-04,4.158130210386175828e-03,1.673718094825744629e+00
2.006221397306202636e-01,-1.079954973499532622e+00,1.659532965936200144e-01,7.290066975809865457e-02,-2.849072104239682920e-02,-1.252972026228441060e-01,1.289247989654541016e+00
-8.059914484972161008e-02,-6.527563959776379043e-01,8.406805482033329335e-01,-3.081235911781675385e-02,-7.465657920275691264e-03,9.747975041952457176e-02,1.317102670669555664e+00
1.397780178999381145e-02,-9.792571242741237025e-01,9.525698739239655266e-01,3.405633135478262647e-03,-2.436794303815353890e-03,-2.706715503029550902e-03,1.673256635665893555e+00
-5.046250798657071768e-02,-9.611599398988072140e-01,9.393138736151233070e-01,-2.200851715118638113e-03,-2.239074411910754389e-03,-3.188153817409473869e-03,1.646351695060729980e+00
-1.907597030554318562e-02,-9.797395849067875861e-01,9.056431008361477408e-01,7.460969486005280746e-03,-2.425371172329246201e-04,7.904001164862464734e-03,1.632996797561645508e+00
-4.246122170018024056e-02,-9.668179855728440408e-01,9.390215102870593800e-01,1.985233176207464728e-04,-1.200521368667257496e-03,-2.889055546001202766e-03,1.650761485099792480e+00
-3.253707097584306041e-02,-9.066916826332940271e-01,9.378261024824590120e-01,9.562716749914535385e-04,-2.126375632713442890e-02,-1.031319486274086608e-02,1.598648428916931152e+00
1.566214899261022392e-02,-9.911353369636058952e-01,8.038098252743748340e-01,-6.249134308993507586e-04,-9.004068199746507583e-04,-2.644467008661136737e-02,1.558981895446777344e+00
-3.625583623234382435e-02,-9.708084609882696725e-01,9.186152543605548004e-01,8.884977490386976318e-03,1.867016507540601722e-02,-2.253926230416965215e-02,1.637177824974060059e+00
-6.351452722743289314e-03,-9.602574433551832600e-01,7.389696900278487357e-01,-7.461087817629238894e-02,8.348371205410953788e-02,-6.273274338072638845e-02,1.491918802261352539e+00
-4.314783635729650679e-02,-9.733103052078234674e-01,9.434087408325046997e-01,-3.386466376615121336e-03,3.432398058752313044e-04,-4.548436028874577527e-03,1.660196065902709961e+00
6.407268106351701742e-02,-8.694306008919338025e-01,4.899718580451799532e-01,-8.668601414928606835e-03,1.107902689102028687e-01,-3.672011701612497292e-02,1.221266031265258789e+00
2.981609480690703556e-02,-9.781852762056298944e-01,8.071440613201180669e-01,1.788743135607324605e-02,2.594683777059442198e-02,4.700206386463482919e-03,1.551418423652648926e+00
4.083606550524883361e-02,-9.085338967830859369e-01,6.715757345536214062e-01,1.804978667027802922e-02,4.671320101636602939e-02,-2.563166731791393510e-03,1.380392909049987793e+00
-3.405867488550521488e-02,-9.889654442792410460e-01,9.522929809796205625e-01,-2.833594572432781775e-03,2.031234346205923556e-03,-2.364916600645945634e-03,1.681268453598022461e+00
-3.557646862441086327e-02,-9.712691594967313158e-01,1.024118787574618494e+00,-5.716756164561661441e-02,-5.570980676037989854e-02,1.294167499812015967e-02,1.734831809997558594e+00
-8.354305091001360331e-04,-9.874869002121635653e-01,9.639150629100929901e-01,-1.889204368835510628e-02,5.217143123726012549e-03,-1.586509088260505945e-03,1.690342307090759277e+00
-1.173484369180444048e-01,-7.942239296771365087e-01,9.257046919381691774e-01,-4.381306805182757017e-03,2.320292211807393947e-03,-2.181574503188976610e-02,1.501212477684020996e+00
-2.976170057400857882e-02,-8.371181052006264611e-01,9.129323191874588739e-01,-4.450857028511632195e-03,-2.365452344182340100e-02,-5.981711332231865949e-03,1.517706155776977539e+00
3.606397591665709557e-02,-9.853759515285889226e-01,9.488005163702326605e-01,-4.167137688656548378e-02,6.035269856605608718e-03,-1.159368723517954136e-05,1.677513599395751953e+00
-1.420818034968519827e-02,-8.247255729043967420e-01,9.078462192449149315e-01,-7.486947658666151528e-02,7.433832591747372917e-03,-1.657058147414264705e-03,1.507134437561035156e+00
3.780372718764414032e-04,-9.424923749235659676e-01,9.531416688620223399e-01,-3.684133360147821140e-02,2.365823383825751969e-02,-1.583975593960113004e-02,1.643654346466064453e+00
-2.676301508246070951e-03,-1.010273580445756769e+00,1.038071947046665500e+00,-1.406023188061787665e-01,-7.848183036754458747e-03,-2.736559568039987136e-02,1.791313171386718750e+00
2.482914792406461235e-02,-1.011074654203908407e+00,1.015605172030883852e+00,-8.423255623363361255e-02,-4.384232570849898661e-03,-8.845046885363073291e-03,1.761436939239501953e+00
-3.298909371319461159e-02,-9.921624673181326237e-01,9.775186628331187233e-01,5.297143262403209221e-03,-3.470655057909354836e-03,-1.237330151635325851e-02,1.706156849861145020e+00
-4.029207046982237472e-02,-9.890489139615279424e-01,9.445683459831778483e-01,-1.013092888121271563e-03,3.036989586663547264e-02,-1.507886831270632139e-02,1.675689339637756348e+00
-3.445834905578737395e-02,-9.724112856092855806e-01,9.348719821241325834e-01,2.800528610302786651e-03,5.074847570813951179e-03,8.656540497512082641e-03,1.651928782463073730e+00
-2.925693609058702474e-02,-9.569982357901085646e-01,9.303637281848903262e-01,-2.281176320367443722e-02,2.703667317298948797e-02,-7.815771167692719956e-03,1.635785102844238281e+00
-9.364200825993361857e-03,-1.000763204456653455e+00,9.788379464975787148e-01,-9.268275875540319796e-05,-4.228646686866351957e-03,5.092711852474405068e-03,1.714424014091491699e+00
-4.527020254896907403e-02,-9.947701765003097440e-01,9.668592043381085688e-01,5.867132058728926833e-03,-4.080293587661144167e-03,-4.983824934273075116e-03,1.699176430702209473e+00
-3.023472716012887834e-02,-9.897733134001122091e-01,9.592595398155538966e-01,-3.337050655696443581e-03,-9.507205616158158692e-04,2.153128424627376002e-05,1.687989115715026855e+00
9.627048398205750521e-03,-9.805696958448349987e-01,9.513471758681151247e-01,5.048043078660409237e-03,1.239946567856626105e-03,-1.727990158964083645e-03,1.673291563987731934e+00
-3.457426993052922781e-02,-9.792871571310713952e-01,9.380958267053778332e-01,-2.075557901055091661e-03,5.867471658585371105e-03,3.882958230632380103e-03,1.660609841346740723e+00
-6.080744778004944923e-02,-7.397902774149732741e-01,9.252035684145368810e-01,-2.127382304155993609e-01,7.371449218866560349e-02,-3.087394930101463111e-03,1.501606702804565430e+00
-3.551565653351640428e-02,-9.854934826350050248e-01,9.555367755634941451e-01,-7.219646243298694479e-04,7.703063915013448268e-03,2.786444034579331919e-03,1.681167244911193848e+00
-4.207445951614788293e-02,-9.310363635005051153e-01,8.922174076351995220e-01,-1.688359126849919151e-02,6.415577448108497616e-02,-2.653875685496070655e-02,1.583988785743713379e+00
-2.989372572777947504e-02,-1.014997269781900746e+00,9.085237538421715442e-01,-2.720440661254523024e-02,9.338785717221581573e-02,-1.177375138429723883e-03,1.674479961395263672e+00
-2.973707956065158725e-02,-9.878158832460133265e-01,9.193955812017754470e-01,-9.786232942109040697e-03,-1.079525250285336309e-02,-1.475046643630262277e-02,1.652089953422546387e+00
-7.771648536887547365e-03,-9.676171021588636512e-01,8.529301375819862141e-01,-1.094099871289668131e-02,4.039743767735644309e-02,-3.451044695582802108e-02,1.580214977264404297e+00
6.147292165621033588e-02,-1.003876968581154605e+00,6.981163218435985085e-01,-6.703237483390972994e-03,-1.677722018511003110e-01,-2.052434781714162007e-02,1.518016576766967773e+00
1.307705977844894618e-02,-9.205891685069841346e-01,7.008381475737759381e-01,-3.626809588748805720e-03,9.773721885566054313e-02,-8.837538088433117417e-03,1.419795274734497070e+00
-3.323651368949309681e-02,-9.737610644458644105e-01,8.432711931459174748e-01,1.466167995894823196e-02,6.823650012450799274e-02,-4.892171586447552345e-02,1.580829739570617676e+00
-4.870122561712306175e-02,-9.766588579988613184e-01,9.069768483452173014e-01,1.089134874191327249e-02,1.399104431753633165e-02,-5.757877340924809871e-03,1.631654739379882812e+00
3.127383732556966722e-02,-1.064145620954006999e+00,8.117867117179845549e-01,-1.362144248055947512e-02,1.231385577317123808e-01,-6.734775288094366208e-02,1.650389671325683594e+00
-3.492929076292372592e-02,-9.931036730312333694e-01,9.650432368357647617e-01,-1.501864915640291559e-03,3.640575948514250277e-03,-1.865268461197519632e-03,1.695950508117675781e+00
-3.011661760237056493e-02,-9.921429643034168633e-01,9.593626935396339928e-01,-2.462683811417725344e-03,3.714942330817054029e-03,-8.618841978650087100e-04,1.690127491950988770e+00
-7.753953003637164415e-03,-9.975533138598887684e-01,9.600493179064050198e-01,-3.443001076355580066e-03,-1.422477814257625504e-02,-2.208446469886709597e-03,1.695563077926635742e+00
-2.154317177209847528e-02,-9.561053822736480523e-01,7.827500320634237507e-01,9.702080376500426401e-03,5.944622423006666601e-02,7.481818221157593646e-04,1.510907649993896484e+00
-2.208586850315370081e-02,-8.637603924120380583e-01,9.255632532195453566e-01,8.679983634327075731e-03,3.132872875029380638e-02,-5.155681778212218257e-03,1.551553130149841309e+00
-2.855828741427971634e-02,-9.950918637924149879e-01,9.681847882983447562e-01,2.402286734471629354e-03,-1.256905075093902235e-03,-2.098770736364185142e-03,1.700324892997741699e+00
-2.944612557500208422e-02,-1.054230127267696160e+00,9.403148988292845400e-01,1.172481889538859109e-02,7.355797773408684348e-02,-5.280898504421704075e-03,1.732380628585815430e+00
-1.928522491643406417e-02,-9.664487469395329766e-01,9.596367522093733893e-01,-1.003240652451798179e-02,-1.680256046232214001e-02,6.803982089852978442e-03,1.668500542640686035e+00
-1.892754422870412262e-02,-9.909690700014970322e-01,9.606305819469812546e-01,9.789014624514663469e-04,1.432519592607512694e-02,-2.900902820276375377e-03,1.690329432487487793e+00
-6.995499378779185262e-02,-1.029549072790621800e+00,1.009548558967275467e+00,6.233925748671446422e-03,5.742292889659411648e-02,-7.214293954335320065e-03,1.769801974296569824e+00
-2.769684976822200939e-02,-9.963953348215582873e-01,9.650686706153176475e-01,-7.708846238513688935e-04,3.551144403603438866e-03,6.377159637240686083e-04,1.698732256889343262e+00
-9.528786099563280043e-02,-6.883091770654578001e-01,8.674221092898416474e-01,2.713819493244352260e-02,2.667544734821880245e-02,-3.811424077436776931e-03,1.361535906791687012e+00
-3.542332187274845751e-02,-9.348486356827775401e-01,9.560360644591279211e-01,1.491495837226116880e-02,2.760541301864158359e-02,-1.275159480198665221e-03,1.639103293418884277e+00
-3.334796415271103903e-02,-9.266854945520073272e-01,9.471296522018576303e-01,1.116406030745246752e-03,2.403348394410356054e-02,-6.175523870232329376e-03,1.623926281929016113e+00
-1.371729559933085839e-02,-9.810360638634810782e-01,9.594323694494202304e-01,5.069894572980406314e-03,-1.262294214493083627e-02,-1.733185687861689417e-03,1.680665373802185059e+00
-2.943374785656754575e-02,-9.825792045838035449e-01,9.496440953214408953e-01,-2.979212375337257981e-03,7.320413429912460239e-03,-6.986555220031367454e-04,1.673461079597473145e+00
-8.661183868369783448e-03,-8.876755731169631014e-01,9.244917522062617854e-01,2.366442545929139940e-02,1.676788792249986684e-02,-6.276398616009681505e-03,1.570457696914672852e+00
5.753103991918248790e-03,-9.799637285591766833e-01,9.539100589195577129e-01,7.821259530436164070e-04,1.404416834403822076e-02,1.587027058227677423e-03,1.675068497657775879e+00
1.397278373807057592e-02,-9.629963466817621498e-01,9.463539978712711687e-01,8.978275047291206512e-03,-1.828601927919444852e-03,8.139487498150733058e-04,1.653772950172424316e+00
1.191367379227472809e-02,-9.556099658952378340e-01,9.416242445123351734e-01,7.353273264514207860e-03,1.109017631481018507e-02,5.163773284823511105e-03,1.643347740173339844e+00
-3.235762806928764446e-02,-9.990302462561608809e-01,9.657090577278347743e-01,-4.990904648086897136e-05,2.366321724805932510e-04,8.484157102768214494e-04,1.701587200164794922e+00
5.902957914427650263e-03,-9.871267591166785760e-01,9.692247680233755380e-01,2.016428353396484963e-02,2.074378594616745064e-02,1.184400238072088468e-02,1.695180177688598633e+00
-1.236711237878265410e-02,-9.943518600291981757e-01,9.628998172115633691e-01,5.983024807747402800e-03,1.744203290954408729e-03,-1.666005058610829865e-03,1.695069789886474609e+00
1.530766492266474182e-02,-9.780369186057917830e-01,9.516902858323457171e-01,3.353732607420442831e-03,-7.733434352957594109e-04,1.894986111552525660e-03,1.671449303627014160e+00
-7.186767103419706981e-02,-9.586683299829253935e-01,8.920221820237789201e-01,4.261546139944668438e-03,-1.600877783629811590e-02,7.828937435649419322e-04,1.603465795516967773e+00
-3.302008419911544451e-02,-9.929535875408734835e-01,9.668140290052971153e-01,6.560516543917437743e-03,-4.933542682476197913e-03,-7.593068709559166324e-03,1.697436332702636719e+00
-7.173683767181049387e-02,-9.674967055428760343e-01,9.233856254547270215e-01,-4.914249742857822005e-03,-1.945058838610107255e-02,-6.789299838300358759e-04,1.638674497604370117e+00
-2.156599846397996567e-01,-2.577052075264277264e-02,8.908981125989926531e-01,3.112487299229934473e-02,-1.894363920429803505e-02,-8.755821982030809192e-02,1.037972688674926758e+00
-7.623981472116683755e-02,-9.587542623316926971e-01,8.961867734695970755e-01,-3.567984637177750297e-04,-1.407640032769899574e-02,-2.159326328418061016e-03,1.607244372367858887e+00
-3.481354415137636465e-02,-9.470853096472656718e-01,9.123184105817296885e-01,1.201716053993814523e-02,-1.216041298136549993e-02,-1.532447360646136542e-02,1.610876083374023438e+00
-7.509646609910494708e-02,-9.687807089179586439e-01,9.277709174857782237e-01,-2.918945298323095440e-03,1.479821574329869341e-03,-9.372594187865383990e-04,1.643379449844360352e+00
-4.584344273926357904e-02,-9.575217152876963622e-01,9.511243101063248107e-01,8.950645886280899494e-04,-9.147703042792658390e-03,-7.096046320683236860e-03,1.653608322143554688e+00
-7.979472626009971592e-02,-9.655115562687067721e-01,9.220384016063797317e-01,1.135831181647707199e-03,-8.780725985186314114e-03,6.871760059603786294e-04,1.635769248008728027e+00
-5.356969675258128200e-02,-9.283587112159489285e-01,9.376369032458954367e-01,-1.438398147240088198e-03,1.184034128951858347e-03,-9.287492576551195297e-03,1.617130875587463379e+00
-1.601882202472221586e-02,-1.015840959129007626e+00,1.001737123108151106e+00,-1.295696670583841928e-02,-9.931783765588718740e-03,-5.050106107731806501e-03,1.747547507286071777e+00
-7.431510371167843187e-02,-9.695211295171693999e-01,9.281403741403851937e-01,3.624341228551965655e-03,-6.732666841748590099e-03,4.083715446047117559e-03,1.644366264343261719e+00
-6.859510850690306305e-02,-9.734237421257929679e-01,9.288820440962196612e-01,1.362005644842697693e-04,-9.763733704049658985e-03,5.408648182653663303e-03,1.648209691047668457e+00
-6.460507890318703539e-02,-9.727015117654641552e-01,9.280983016489130488e-01,7.619212919410148048e-03,-1.082654993653761610e-02,6.473917961752101609e-03,1.646882176399230957e+00
-5.783101970713682566e-02,-9.773596969660000022e-01,9.271882321654217884e-01,4.920131471302425369e-03,-7.622353349090515290e-03,5.343962637524908577e-03,1.649812698364257812e+00
-6.306534965938009885e-02,-9.775405873352588371e-01,9.293445126012236379e-01,5.123530568241376967e-03,-1.178961514737814596e-02,5.509780377755373569e-03,1.652048230171203613e+00
-3.002013524018038240e-02,-9.898830276513106430e-01,9.557709033559307343e-01,9.670926772963723238e-04,9.686906122313869438e-03,5.387094407981022487e-03,1.685145854949951172e+00
-2.153398024528822494e-02,-9.685903402770820181e-01,9.563895082233848655e-01,-1.212345041822152086e-04,9.635540153083892514e-03,-2.639457548728551747e-03,1.667242646217346191e+00
-3.530037561147683634e-03,-9.774233647994209351e-01,9.535855619014682594e-01,2.533300609514621115e-03,-1.225184947325565253e-03,-3.432406435808569613e-03,1.672341465950012207e+00
1.008033624569778033e-02,-9.838319443853391633e-01,9.539129939690242921e-01,1.645291433452323801e-02,6.334845468205693372e-03,-1.143748505553457374e-03,1.678602099418640137e+00
-4.275808454217537580e-03,-9.818543400381524178e-01,9.574930075718357525e-01,1.152562927093798636e-03,7.265549838853876605e-03,-1.177291196838595785e-03,1.679592251777648926e+00
-7.679597293663244229e-02,-9.303579183824876031e-01,9.456269011857848517e-01,-8.464476504833633522e-03,-4.517355655175440618e-03,-1.504157957760464751e-02,1.627136349678039551e+00
4.850974991724432694e-03,-9.859577567550684707e-01,9.562917465579771070e-01,4.037370925128652699e-03,9.479866720788293621e-03,8.708055700140438816e-04,1.682247877120971680e+00
-7.623613177442244149e-02,-9.298648412253245343e-01,9.498827628763581998e-01,-1.302374784817790206e-03,-9.264382403642067512e-03,-9.357726870257728966e-03,1.630353212356567383e+00
-3.093107394952239464e-02,-9.912679652177543987e-01,9.632963373086782521e-01,-4.894047217234444302e-03,5.992422013075308918e-03,-3.889302277585887299e-03,1.692853569984436035e+00
-1.833591892086063047e-02,-9.917852963624803619e-01,9.596077757102190464e-01,9.102376490800092104e-03,-2.756218720932168513e-03,-3.747576247139228212e-03,1.690050244331359863e+00
6.827318022458631931e-03,-9.831470399928643467e-01,9.546012836934221202e-01,1.131885145600549855e-03,8.748138324855572051e-03,2.190868055963362745e-03,1.678345799446105957e+00
-6.358178610869592851e-02,-8.768309868621931846e-01,9.375240290813886546e-01,-4.934758323824220503e-04,2.479735028409894154e-02,-1.357613840756918822e-02,1.574844121932983398e+00
-1.649944550222628148e-01,-5.722809588603749997e-01,8.695878628646599440e-01,-6.353282634125552442e-03,-2.040303781698967617e-02,-1.520926092898350693e-02,1.288285017013549805e+00
-3.485772204053433354e-02,-9.770657103634539098e-01,9.577846834704096812e-01,-2.939098035927151242e-03,1.332050041392216638e-02,-4.687889058874688750e-03,1.676005601882934570e+00
-2.741854126389041066e-02,-9.952057060507901731e-01,9.658433091305089757e-01,-4.773262737313072913e-03,-1.270056177869151575e-03,-1.097543165239259211e-03,1.698388695716857910e+00
-1.494879033503459208e-02,-9.871285128791390528e-01,9.598469747629782001e-01,1.706666386745245550e-03,6.248302618711275638e-03,2.096641207608227267e-03,1.686172008514404297e+00
-5.708068078658158628e-02,-9.451270359972333557e-01,9.513818924028297763e-01,-4.526188679788242623e-03,9.777165680503763570e-03,-7.210431296106968591e-03,1.643681526184082031e+00
3.357024849581113218e-02,-9.733826934979422640e-01,9.521261379478990206e-01,-1.086609843433902246e-02,-3.372698542687184615e-03,3.388973568413218822e-03,1.668251872062683105e+00
-3.465221559616667169e-02,-9.967396566230882771e-01,9.652614351118806724e-01,4.625338340089548317e-04,-2.933569475875219459e-04,2.755843180561181683e-04,1.699248433113098145e+00
-3.606119914187416731e-02,-9.950745148481060509e-01,9.623371273068379583e-01,4.733847441070265609e-03,-9.402052074667313283e-03,2.093796024019205660e-03,1.695384502410888672e+00
-3.274660988409237861e-02,-9.904966584838454935e-01,9.551706057905200442e-01,1.039482539624758499e-03,-1.727025486952794581e-03,1.488366244458881821e-03,1.685070395469665527e+00
-2.881383868445750590e-02,-9.098137193377137111e-01,8.754918414880734634e-01,-2.377322684227912465e-03,-9.173477202218473930e-03,1.643452069092177833e-03,1.546253681182861328e+00
-1.296198927077305864e-02,-9.803591825935538129e-01,9.565313099226933069e-01,1.322381763044606310e-03,8.712759820205029371e-03,5.653715654858784516e-03,1.677494764328002930e+00
-7.898871773936280705e-02,-9.683104047058347374e-01,9.342880650340034121e-01,2.366144105916008207e-04,-3.138530211863535448e-03,-3.406712660623775410e-03,1.648883342742919922e+00
-4.458859962196395910e-02,-9.883574248560116349e-01,9.553707268174135292e-01,-6.721907467833247891e-03,9.220816110514032122e-04,2.141915081714854379e-03,1.683597445487976074e+00
-3.689599124555708459e-02,-9.918687666326635455e-01,9.584679476181887647e-01,2.003662571093123117e-03,-1.297387679043770755e-03,-9.763894622669868750e-04,1.689167737960815430e+00
-1.122154815381746218e-01,-6.283658317100686563e-01,8.699230951640559706e-01,4.537068988057321728e-02,-1.146546948276408462e-02,1.712659926869646715e-02,1.321131467819213867e+00
-1.285674704983014449e-01,-5.369442237017019171e-01,8.545746678495285131e-01,7.423020850522156489e-02,-1.239153820251554829e-02,-5.119633431142978780e-02,1.248874187469482422e+00
-5.607786677516940488e-02,-8.060450687998050867e-01,9.143673740078961387e-01,2.507882296064604943e-02,-2.653818433195590659e-02,-4.375894263429965653e-02,1.497251152992248535e+00
-8.290519891788886153e-02,-7.795265237926073398e-01,9.129806593167867357e-01,4.544221939754062960e-03,-3.094641962414931141e-02,-4.038301492065107107e-02,1.476025938987731934e+00
-4.663188590402526923e-02,-7.988320245602411607e-01,9.170934564098213171e-01,7.147218657745203763e-02,-2.161758952910295198e-02,-2.101809818654706841e-02,1.495840191841125488e+00
-5.097552868349725791e-02,-7.513156490773776897e-01,8.935906320509219292e-01,3.335975563495146429e-02,-1.706334326180585642e-02,-3.756537828007492329e-04,1.431227326393127441e+00
3.072914642590838727e-02,-9.599482518931826691e-01,9.421368901562310327e-01,1.749178711991582549e-02,-7.589593194359804673e-03,-3.696870157454461791e-04,1.648061871528625488e+00
2.873944046250123327e-02,-9.563575608342118617e-01,9.366908949836290077e-01,-1.195372855124081021e-03,-7.083634308554867531e-03,-1.371352607056359769e-03,1.639930725097656250e+00
-1.366237464391810430e-02,-9.900649909218846023e-01,9.622582133843182728e-01,-5.671582131009756745e-04,-9.359916206412991976e-03,1.895691363308061011e-04,1.690839529037475586e+00
-4.873790681606137570e-02,-9.887630973821094349e-01,9.526602636813761293e-01,-2.056220490066777620e-03,-1.567376819636278002e-03,-2.160286776195180156e-03,1.681612133979797363e+00
3.614935811626830697e-02,-9.488040239883311910e-01,9.308345813427403304e-01,-4.877211635657684478e-04,-8.510391554614725202e-04,-1.270033181618065478e-03,1.628442764282226562e+00
2.877880303990842589e-02,-9.326968630011926997e-01,9.266224062536942974e-01,1.836428911190242028e-02,-3.941161512032002184e-03,1.057494713656497581e-03,1.610861539840698242e+00
-1.182574135484651054e-02,-9.859950991428254596e-01,9.597824968983317273e-01,2.806028958646768212e-03,-2.044376131572265762e-03,1.440766959099667533e-03,1.685105919837951660e+00
-8.935125192645984593e-03,-8.872487815202385608e-01,9.255657364191242076e-01,2.506439309660461398e-02,-1.429551262550384470e-02,-8.631972140660301024e-03,1.571061015129089355e+00
-8.729772767517314513e-02,-7.780311334965730463e-01,9.109745793178593010e-01,-1.868257675524516784e-02,7.229167922002781299e-03,-1.595335442838232559e-02,1.471450924873352051e+00
1.558832139735386035e-02,-9.514341532976889892e-01,7.716128651142191153e-01,1.641814445419982702e-03,5.557537878128822675e-03,2.343368682706499506e-02,1.496511459350585938e+00
-8.682586497153432087e-03,-9.572367663615171107e-01,9.516935772779370195e-01,7.020430366067533304e-03,-1.679171114346666646e-02,-1.193434084004264643e-02,1.653622508049011230e+00
-2.143681390234565554e-02,-9.592951932932244352e-01,9.531400726450054428e-01,1.477140560158485445e-02,-1.400711122854897232e-02,-1.323226031197297092e-02,1.656853079795837402e+00
1.639206758320341240e-04,-9.864194247903133039e-01,9.603048688181123893e-01,1.896413688605795220e-02,-1.558621219483336852e-02,8.694568560652263071e-04,1.686501264572143555e+00
-8.714306238276796346e-02,-7.921655320095052355e-01,9.104416686934243552e-01,-8.050922179760699668e-03,1.636660810646791211e-02,-2.091073746787336374e-02,1.482518672943115234e+00
-3.832035095957846832e-02,-8.385544934820482466e-01,9.218715974802154101e-01,-4.611774186336616184e-03,-2.461216338015355040e-02,-5.857188836625987390e-03,1.527319788932800293e+00
-3.430020104354507965e-02,-9.697270916270956942e-01,9.311745580424458657e-01,7.593749885390573039e-04,1.116216883429498995e-03,-4.086955052101816539e-03,1.646314501762390137e+00
-9.452212901191214822e-02,-7.659699512214751538e-01,9.122703197732966451e-01,-3.778462743227163200e-03,-2.610114273691454406e-02,-5.373594910067977341e-03,1.463781118392944336e+00
-1.331756816414988442e-01,-6.285884616856289853e-01,9.304453591965500259e-01,4.313825362251469953e-01,-1.550928751225963687e-01,4.350817613130698175e-02,1.593665003776550293e+00
9.570698282857104805e-03,-9.969748652249252885e-01,9.720690976649213333e-01,-1.324884422136690665e-02,-6.780178839987934664e-03,8.396690282098310913e-04,1.705579757690429688e+00
-4.686439518230464674e-02,-8.902396978375793912e-01,9.365952675481611367e-01,-2.318573291102886402e-02,1.572757197514770486e-02,1.310725971617746760e-02,1.584541082382202148e+00
-3.829871942680490582e-02,-1.000876974966717681e+00,1.003813748009022788e+00,-1.215059691224665978e-02,-2.021876984980167449e-02,6.899826544809704691e-03,1.737090110778808594e+00
6.351286989405035589e-03,-1.048043970860076168e+00,1.023540042906311731e+00,-2.630795492943456201e-02,-1.962229250807993527e-02,1.989582809244646103e-02,1.795371890068054199e+00
-4.733358196007537988e-02,-9.648184479056044482e-01,9.431442134495475749e-01,6.066405172593726178e-03,-8.403014782918561895e-03,2.943052323422203770e-03,1.652852535247802734e+00
-1.795959737351949387e-02,-1.018454212123437674e+00,1.012959342003992402e+00,-1.296771333608522613e-02,-9.612128694314181834e-03,3.688060717759543807e-04,1.759543776512145996e+00
-3.312130602523637168e-02,-9.673717259454859274e-01,9.226926726647893817e-01,1.396180140904927820e-03,-4.774735538958697553e-03,-5.722103588657708600e-03,1.636932015419006348e+00
-3.670055904938357427e-02,-9.777718389403868837e-01,9.492826636615492308e-01,1.547546764367101202e-03,-1.622958905895647858e-03,-3.035380824398292536e-03,1.669041991233825684e+00
-1.577053568001129114e-01,-7.110554990723217950e-01,1.226185474118461460e+00,3.135127666913574696e-01,2.151346996559587443e-01,8.860409509216040508e-03,1.849616527557373047e+00
9.494445043755808666e-02,-9.166289879263397333e-01,4.838655915338718749e-01,-2.333008070147020094e-02,-1.226201273441539646e-01,-4.129972979006640496e-03,1.270729660987854004e+00
-4.820844096439372284e-02,-1.020129057096931247e+00,1.020124988649368625e+00,-3.504575887684273534e-03,2.049574978544267505e-03,2.242762552397248419e-04,1.767583370208740234e+00
-3.256665591390904557e-02,-9.929879377505843596e-01,9.686079024107094870e-01,-4.740707705914534546e-03,-7.831750340004443173e-03,6.216994768684265538e-03,1.699022173881530762e+00
-2.723721557231912650e-03,-9.688668214313768123e-01,9.526353780870152610e-01,7.271764828480462191e-03,2.252590176206508213e-02,-1.845147416055882561e-03,1.664586544036865234e+00
6.136929741759000745e-02,-9.359721703111539837e-01,6.009827607932008986e-01,8.582470655305934545e-03,5.089401871331094424e-02,-4.919072037365257444e-02,1.356208801269531250e+00
5.537848207997397854e-02,-9.066386744294391287e-01,5.392935281470945252e-01,1.268264629910069267e-02,-1.298179519940830529e-01,-1.791703891154839551e-03,1.294695138931274414e+00
-1.551924391503690381e-01,-7.214858402502576373e-01,9.468246291778922297e-01,9.328049065415225383e-02,1.196012445913063535e-02,8.048108606754686423e-02,1.484977841377258301e+00
-1.256798750624371630e-03,-9.434456704313444186e-01,7.357035154038572555e-01,1.059016221670750456e-02,-7.268063951704242798e-02,1.506937990297490745e-02,1.463574886322021484e+00
8.308443102741487618e-03,-8.469727891440425038e-01,9.542520215814281892e-01,-1.503929830474980689e-01,2.829713468822588150e-03,1.252018097901002117e-03,1.582164883613586426e+00
-8.394762814417672248e-03,-9.452494518469496398e-01,9.460987813824889292e-01,-3.252702953193831875e-02,3.772903407037688471e-03,-4.248316425711428160e-03,1.638977527618408203e+00
-2.904885974637482632e-02,-9.640304819213364462e-01,8.846198892419577797e-01,8.381375001035239539e-03,2.107383805394224402e-02,-2.552786108398578946e-02,1.602105736732482910e+00
-1.355879128434686956e-02,-9.856608389704040185e-01,9.602920316743184248e-01,-6.461182594837990706e-03,-3.546851060044652580e-03,-4.306784205693529183e-03,1.685309767723083496e+00
-1.111653351726625723e-02,-9.720084978727123737e-01,9.551443523269750324e-01,-3.287974681758024965e-03,-8.800838854806833020e-03,-3.471512202314279861e-03,1.669055700302124023e+00
-2.577915789343458719e-02,-9.150844664281695406e-01,9.378273551252358509e-01,-1.011079365401235802e-02,-1.120684749283611635e-02,3.572218348835663315e-03,1.605323553085327148e+00
-1.220638195988867428e-02,-9.441655284948774485e-01,1.011009645447153105e+00,8.340067062897968397e-02,1.608669098796306624e-02,4.409565971457573424e-02,1.701937437057495117e+00
-1.002028044097790643e-01,-5.908637814984634140e-01,9.019632272243085502e-01,1.331834658856878018e-01,3.976089284610613561e-02,1.354606281916591048e-01,1.360078573226928711e+00
-2.745675077003558243e-02,-9.455566533905224169e-01,9.664745087319416283e-01,6.783391652895277846e-02,1.111872823781228162e-02,9.919667231688634925e-04,1.660576105117797852e+00
-7.933839421403660053e-02,-9.932647064202896336e-01,9.801140312467297999e-01,1.442726918796442435e-03,-1.977047108664769376e-02,-5.560320166526529218e-04,1.710889220237731934e+00
6.964957712454863253e-03,-9.682452284992651981e-01,9.475945785628426821e-01,-5.552868564075718076e-04,1.155166881295640810e-02,-2.679534610806282632e-03,1.659383416175842285e+00
-2.732814377369091607e-02,-7.485738044683445391e-01,8.866194547609179688e-01,1.870136711818596864e-01,-1.856833150067252036e-03,4.704382764371851933e-02,1.458166122436523438e+00
-6.119870714198044626e-02,-9.668530458133913763e-01,1.085653767706951545e+00,1.607856448943142391e-01,-9.918662816446455199e-02,-4.988777099903271561e-02,1.813468694686889648e+00
-5.715985266015613520e-02,-7.177004623477512002e-01,8.804403065505921333e-01,-4.160501546900428893e-02,1.266849992380299217e-02,-1.698471873606385851e-02,1.393294930458068848e+00
4.989384849764890752e-03,-9.779395414857394719e-01,9.537824679924010729e-01,4.263117054338855759e-03,1.066503864888296467e-02,2.533520459588918397e-04,1.673125743865966797e+00
-7.071767668278511332e-02,-7.329699114047560915e-01,8.739148205612868869e-01,9.870727507989623950e-02,1.383057913886830310e-02,1.107104065003743087e-01,1.422345638275146484e+00
-1.583685922450392414e-02,-9.493506137327472061e-01,7.949033309629607302e-01,-1.066892720908373983e-02,-6.440549237615726848e-03,2.961966486767265722e-03,1.511977791786193848e+00
-9.286425366647813734e-03,-9.949865860450618493e-01,9.625324120847895681e-01,-4.877570057177525210e-03,1.117857456895245648e-02,2.502926841301020104e-03,1.695412516593933105e+00
9.774748354094267566e-03,-9.764645536585334629e-01,9.520382933431469352e-01,1.973170594823595980e-03,-9.022330808917528727e-03,2.809849516965938054e-03,1.670360922813415527e+00
-1.075226673200319061e-01,-7.134225866107275493e-01,9.289634629289666989e-01,5.668365218219765383e-02,2.283055828917958038e-02,4.762875755198822669e-02,1.444795250892639160e+00
-1.296605773144872686e-01,-7.142718640053655754e-01,9.273171057680732465e-01,-1.552097657547059882e-03,1.460354622526521297e-02,-4.456973589351157644e-02,1.443433284759521484e+00
-9.871714220187172498e-03,-8.639698526976549164e-01,9.187585286757088410e-01,-5.090262857931189544e-02,2.266403201505984982e-02,-2.197251581620762381e-02,1.547818422317504883e+00
1.097182438243772193e-02,-9.130213154843687118e-01,9.248228152252703227e-01,4.468171092076303995e-03,4.574036775709141092e-03,-1.894887687703493808e-03,1.591669678688049316e+00
1.597038398378421847e-02,-9.430440056267549442e-01,9.342191885722862521e-01,-1.336115243844242934e-02,-1.007316132157935404e-02,-2.479859248526044418e-03,1.626149296760559082e+00
-2.358318444553171231e-02,-8.600664219493607821e-01,9.602993874164099664e-01,-1.142812698309041974e-01,2.751009614860126448e-02,-7.120147931641388232e-04,1.591283440589904785e+00
-1.338999817062735964e-01,-5.711171234409222475e-01,8.628740794005234083e-01,-4.216014739263992256e-02,2.672257257859385685e-02,-2.425310694035887407e-02,1.276621937751770020e+00
-2.414107910775384336e-02,-9.951769030345791744e-01,9.708556100174506875e-01,-4.133982049216743983e-03,-1.168912142153734346e-02,-4.448104492668046583e-03,1.702829122543334961e+00
-3.081859292571920150e-02,-9.883047911191131796e-01,9.296407767824214075e-01,5.886426486663009529e-03,-5.156550457550414419e-03,-9.366846061427781334e-04,1.661046385765075684e+00
2.284722359107903278e-02,-9.078256235329799084e-01,9.195473555420521361e-01,-1.601035206753587559e-03,-6.328995411120988401e-03,-2.852744664374485054e-03,1.582690715789794922e+00
2.693623356936485774e-02,-9.281128160238221181e-01,9.257529327855769097e-01,-2.010174725589818773e-02,-4.596381696291051804e-03,-3.044851206947988439e-05,1.606138110160827637e+00
-1.427181056658836933e-01,-5.094129535863520797e-01,8.216347911529076065e-01,-1.903074980072864616e-02,3.040128292064680181e-03,-1.305488615314620293e-01,1.212562680244445801e+00
-2.605891980737545105e-02,-9.754640842638518938e-01,8.595619263232362472e-01,-6.142679731739303546e-03,3.604995181968283918e-02,5.870481984888905984e-03,1.590793132781982422e+00
-1.421451976067635015e-01,-6.793727074852613512e-01,9.109789427306791421e-01,-1.918581183931535039e-02,1.100034402006849635e-03,-7.357550865623657677e-02,1.407408595085144043e+00
-9.743182247506168570e-02,-5.994085856282733715e-01,8.515160694382393203e-01,-1.302641534632255869e-02,-9.453857434702381268e-03,-8.210070034863892890e-03,1.276640892028808594e+00
-1.187952749458183743e-01,-5.203983391480850873e-01,8.119139862472948277e-01,-1.332296504124766759e-02,1.221014927948562388e-02,-1.405689714250641376e-01,1.208941340446472168e+00
1.154008309392342072e-02,-9.104185670570128508e-01,9.216586463113337624e-01,-6.053160570522832240e-03,2.424958625997121388e-03,1.005061393994394854e-03,1.586677551269531250e+00
-1.069658298258889806e-01,-6.802829713442415382e-01,8.643464268833481734e-01,-1.175162988689410354e-01,9.249126462006339311e-03,-1.127082282916163913e-01,1.381595611572265625e+00
-1.530944687043012953e-01,-4.103451612873395549e-01,1.073051232497899354e+00,1.811501877824562567e-01,9.457060464099024955e-02,-1.800442473582325453e-02,1.418198704719543457e+00
-2.270609335672315807e-02,-9.978067658192427691e-01,9.647651911984338469e-01,-1.326455232046307175e-04,-3.243012111690670254e-04,-1.452264559420509901e-03,1.699650406837463379e+00
-5.463624933434912956e-02,-9.835285887567807306e-01,9.428417322779820697e-01,-3.465140961010728152e-04,8.099247696316978426e-04,-9.906255822959640200e-04,1.668639659881591797e+00
-3.373295342515342243e-02,-9.692105414524787577e-01,9.570324602525638324e-01,-2.259079487652557432e-03,-7.528109669379616682e-03,-4.437019885085349141e-03,1.668477654457092285e+00
-1.565705235828253050e-01,-4.568836091193566040e-01,8.567922787580655175e-01,-9.903535521265570407e-02,1.046610336537834654e-02,-4.072520904299264943e-02,1.206708908081054688e+00
-8.246359263353587876e-02,-7.552014138626035322e-01,9.042588065878904846e-01,6.285964439579707491e-03,2.614318836167224200e-02,-5.154751646649973970e-03,1.446461677551269531e+00
-3.967257552039363255e-02,-9.906222091682238551e-01,9.599675227443498216e-01,-7.386386005491325270e-03,-5.894220324843612658e-04,4.897813037335784631e-03,1.689505696296691895e+00
-1.722221221169882854e-01,-5.917636444447605948e-01,8.789374170714990830e-01,-3.902509183279810352e-03,-9.316510324683290739e-03,-2.160807183761828329e-02,1.312883615493774414e+00
-3.617351696164225472e-02,-9.926974359995691666e-01,9.585394519121078760e-01,1.298876117485854619e-03,-1.087777786563044315e-05,2.649184866920236293e-03,1.689936280250549316e+00
-1.548353057257296703e-02,-9.913148834322170755e-01,9.638928787019770406e-01,8.031961967171322853e-03,-8.576779070707390984e-03,5.626145530392963421e-04,1.693383097648620605e+00
-2.069263536595902439e-02,-9.700907286483936298e-01,9.579295166448485999e-01,2.734863959960281976e-03,-9.708689075064568658e-03,-2.796542719308713239e-03,1.669876813888549805e+00
-3.722345875034212270e-02,-9.964781268329099273e-01,9.662527863449014154e-01,-2.042989865078546387e-03,-9.058695264700008512e-04,1.477109615286078485e-03,1.699924945831298828e+00
-7.147124186232327314e-02,-9.500113257244210407e-01,9.870614065759365507e-01,-2.687701096940200464e-03,-3.082771389539241957e-02,4.163958932990286660e-02,1.682367920875549316e+00
-8.494293065140101628e-02,-7.744106721446857300e-01,8.608102679181315331e-01,-1.976183510083675404e-02,-1.703257265998887188e-02,2.279159316915520261e-02,1.423194169998168945e+00
-3.471641075015262368e-02,-7.932961452522199197e-01,8.980534601797959260e-01,-1.059143543048250355e-02,-1.065925374888877092e-02,-4.326038498382125431e-03,1.467588782310485840e+00
-3.505649017626562974e-02,-7.957185391586646395e-01,7.419854049270824259e-01,-3.635695144223745779e-03,7.544593783916732138e-04,1.602063361196814917e-02,1.332020401954650879e+00
-9.753946663037849074e-02,-7.575415838404078173e-01,9.188803532239971927e-01,3.247743944239868570e-03,2.401214910293376220e-02,-2.782122902261650096e-03,1.463330388069152832e+00
-1.165157079907958027e-01,-7.927164080796954559e-01,9.249147160297613857e-01,2.055458218899886089e-03,1.260968586225592880e-02,-2.081834887862784450e-02,1.499276638031005859e+00
-1.857929022127266516e-01,-3.789636123892810016e-01,8.099840810777683142e-01,-3.042815974698151113e-03,2.762226252690106690e-03,4.813412793767677007e-03,1.105152368545532227e+00
-2.941715620499623166e-02,-7.880062537326982808e-01,8.976339606963621431e-01,-1.045854955873851827e-02,8.754213657706644627e-03,4.273140722991161655e-03,1.462444782257080078e+00
-1.161402104858406531e-01,-8.388552022688607890e-01,9.690873461310427484e-01,-7.220763076190850338e-02,2.137764138798708968e-02,4.651483662090006438e-02,1.583619236946105957e+00
-6.711769267689990381e-02,-8.024107296728142380e-01,1.022449560425953363e+00,1.220791106842893381e-01,-1.218276336429003071e-01,9.637103249728991988e-03,1.618171334266662598e+00
-9.574765541956022086e-02,-8.228719232391821237e-01,9.155019789169457356e-01,-1.016443412579779056e-02,-2.618299648596101020e-03,2.273768287870618632e-02,1.512785911560058594e+00
-3.745079505574335638e-02,-8.627382244920245302e-01,9.237331171698898169e-01,4.955104766624055142e-03,1.776482844242865261e-02,-6.646434143070044202e-03,1.548993110656738281e+00
-3.417704547701796991e-02,-9.842585172695581530e-01,9.494848606607420027e-01,-4.699624391732749006e-03,1.470373003093183775e-03,3.260918887668762950e-03,1.674786329269409180e+00
-3.626588412524806015e-02,-9.918131182794689416e-01,9.592396645627341289e-01,-3.803631537361250575e-03,-2.870335077932788161e-03,3.427058522877592973e-03,1.689809918403625488e+00
-3.389157220357361111e-02,-9.911653230915059565e-01,9.578067407482361295e-01,-1.139911571183803559e-03,-1.991735160153689042e-03,-1.171411247191937515e-03,1.687952995300292969e+00
-1.014603768168222120e-01,-1.188617506374804789e+00,1.227786486101367647e+00,2.744031401897107508e-02,-9.893570387769098917e-02,-1.965097632258047330e-02,2.103970050811767578e+00
-8.427458543808816205e-03,-9.683487515532882561e-01,7.165321293406268222e-01,-2.437580617921265846e-02,-1.565302693944056467e-01,1.750602823362564647e-02,1.489673256874084473e+00
-4.700755876666194710e-02,-1.011823577962849496e+00,1.023461565866031764e+00,-5.443117131746823267e-02,-5.864249580129639317e-02,3.033418827174111777e-05,1.768837213516235352e+00
-3.741021997495774798e-02,-1.092852108564694502e+00,1.086178622938499760e+00,-3.643918469687847106e-02,-4.004329174563237004e-02,1.271351441004835853e-02,1.889860033988952637e+00
-8.805663912673153404e-02,-1.307793362226436162e+00,1.352945587812163675e+00,-2.260444411898738029e-02,-2.440815022177745749e-02,7.273905927815267104e-03,2.307675838470458984e+00
2.617572542745890199e-02,-9.599721523313078375e-01,9.394222877909024216e-01,7.170891306303130847e-03,1.152794573907297421e-02,-1.147287394871574114e-03,1.645496845245361328e+00
3.541645986354785558e-03,-1.057863231300610218e+00,8.306946601718171452e-01,1.940879110620372106e-01,-3.702589561859629952e-01,8.911669059643059776e-02,1.799115777015686035e+00
-5.250961635862880228e-02,-9.925718249948921601e-01,9.657440064200526475e-01,-8.406903664969839901e-03,-2.204432445605433721e-03,-8.853726642585886542e-03,1.696537971496582031e+00
-6.651678227224883111e-02,-9.781666765708374456e-01,9.453548931082585982e-01,-1.681070452002599524e-04,-1.506737812840111155e-03,-5.354416019952286214e-03,1.666599988937377930e+00
-1.162598891021390662e-01,-1.052879143212341662e+00,1.139255428967647976e+00,-3.411112342296000570e-03,-9.478930558364297154e-02,-6.274113440830609428e-03,1.912229657173156738e+00
-6.845687771562844470e-03,-1.429047127729045297e+00,1.214481489954311488e+00,1.342843211190098696e-01,-2.044779757809651044e-01,1.167828127458687137e-01,2.339169740676879883e+00
-7.646252177394471938e-02,-1.387397807590930343e+00,1.425260006029043902e+00,-2.151286980358987910e-01,-2.309786350288422496e-01,7.730876899763321382e-03,2.498290777206420898e+00
-8.111493272538298355e-03,-8.878344796173959219e-01,9.221146438916555388e-01,-2.858154075553978948e-02,1.941774140569735643e-02,3.772913249747220869e-03,1.568820953369140625e+00
-1.108875946126934992e-01,-5.248117304679252859e-01,8.290712336303139862e-01,-2.332066595441700807e-01,-1.480443467105441169e-01,6.390415778663439961e-02,1.298108696937561035e+00
-1.938466657339447119e-01,-4.395177794518612679e-01,1.119840410429933319e+00,-1.914587733387901614e-01,5.125548692102596671e-02,-3.808651062122207082e-02,1.493675112724304199e+00
-6.134155375227473561e-02,-9.588270572809565184e-01,8.777138433446783905e-01,-3.714483790350137527e-03,-6.194846511276450810e-04,-1.472643635704032263e-04,1.590640306472778320e+00
2.579655926597620996e-02,-9.486656832630796510e-01,9.324938944652367834e-01,5.533376435797315342e-03,-7.710453983310844132e-04,2.832940255438597403e-04,1.629513144493103027e+00
-5.950553561367882827e-02,-9.606159487295026222e-01,8.691256272245518888e-01,4.689304753316611281e-04,-2.983469971939399154e-02,1.072339560788105640e-02,1.585613727569580078e+00
-5.127738263075944450e-03,-9.844661328445978299e-01,9.545893818138896370e-01,-4.638669797511301568e-03,4.171559521732200876e-03,-1.783108227332801934e-03,1.679337620735168457e+00
-6.157808531847688838e-02,-7.771938246299866515e-01,9.432085224777051469e-01,-8.508911367886395904e-02,2.583751000467509815e-02,-2.760471567509457588e-02,1.505573749542236328e+00
-5.508284000273121900e-02,-7.715413750223399925e-01,8.993970366701696806e-01,-4.404106451636582986e-02,1.451079389505264064e-02,1.022964167894770127e-02,1.454288244247436523e+00
-1.524339855443903324e-01,-7.039437406338459047e-01,9.995455903747425541e-01,-1.143960547453352905e-01,-3.341786086769689759e-03,-1.090004230174884403e-01,1.530190825462341309e+00
-3.883939409318184349e-02,-8.540994849523866339e-01,9.460319287062974869e-01,-5.923160408785600045e-02,4.772936161310629977e-02,-3.264744408990379737e-02,1.567834138870239258e+00
-9.643318819280068122e-02,-5.739965378057064749e-01,9.608295976866862986e-01,-1.723894240035416248e-01,1.911901006390812063e-02,-6.058185572557088505e-02,1.397155284881591797e+00
8.890423399883211342e-03,-9.743287957029788116e-01,9.509369300527290569e-01,-1.634156648474485371e-03,-9.686549283642710909e-03,-5.731730530292977049e-03,1.667572498321533203e+00
3.194054412742583504e-02,-9.711628167780816945e-01,9.418012024378238367e-01,-1.361724726502930652e-02,-4.825083790978590761e-03,-1.936899505778388961e-03,1.657523632049560547e+00
-1.221113842464210779e-02,-9.907657107645203576e-01,9.605331625084809755e-01,-6.047308837475350507e-04,-4.775706233851003887e-03,-1.164898149963121063e-03,1.689898610115051270e+00
-6.256178663647991856e-03,-9.912556121873701276e-01,9.640891104283632052e-01,4.600025561029958375e-04,-1.682586020631373497e-02,-7.073252532977653689e-03,1.693689346313476562e+00
-7.326945552805172457e-02,-9.771872482960187734e-01,9.473972417020631864e-01,4.844287408623644217e-04,-1.294376229238198422e-02,4.653558696243696724e-03,1.667931318283081055e+00
4.229246314000481566e-02,-9.508196587082315965e-01,6.691844219366342994e-01,-1.687556968434104215e-02,7.972598872236132117e-02,6.512786132300610320e-02,1.426354527473449707e+00
-3.653669035765912121e-02,-9.942960666179753160e-01,9.560601093045377752e-01,3.138545267831614922e-04,3.276721895169017705e-03,-1.707170999265469240e-03,1.689159989356994629e+00
-7.443085947205690944e-03,-9.858094810181700085e-01,9.587864110014922003e-01,-1.583952384052477336e-03,2.837358394403117264e-03,1.606152548151267663e-03,1.684092044830322266e+00
1.559206054495940741e-01,-7.925823183990257093e-01,2.002111638138007188e-01,6.173866634011823673e-02,-1.727790663306962293e-01,1.095382456889154449e-01,1.039527654647827148e+00
9.133001624253106465e-02,-8.916318610696145619e-01,3.621194539291094916e-01,1.835188745599532767e-01,-2.372129426084017001e-01,8.165717512368418640e-02,1.263157844543457031e+00
1.490899671472198929e-01,-1.081480816897153918e+00,4.780840131565693985e-01,1.328378029064028118e-02,-1.361638815168548233e-01,7.518365924826252156e-02,1.449310541152954102e+00
-4.302845246877920471e-02,-6.581711993332894917e-01,8.679140622316965370e-01,-1.040649961944326019e-02,1.266309558988250490e-02,-6.760915132383736592e-02,1.335325956344604492e+00
1.614468518032302902e-01,-9.858146934306295517e-01,4.001292674448428954e-01,4.165444811210938098e-02,-1.246477092673610454e-01,5.687763721449037857e-02,1.307107925415039062e+00
-8.421797497729317794e-02,-7.158995095771112371e-01,9.061927125499573688e-01,6.882980956472546652e-02,-3.851551329226132053e-02,-5.762976594071296532e-02,1.426248788833618164e+00
-3.999367807828013710e-02,-9.715414287900249191e-01,9.309376059575319440e-01,-2.433824111040840382e-03,3.093098034458713732e-04,2.952594257896978304e-03,1.647726297378540039e+00
8.064432776186243601e-03,-9.793804057895488802e-01,9.505291144366557754e-01,-2.154326260932699303e-03,9.324332505882810748e-03,-2.747699813175608595e-03,1.671590924263000488e+00
-3.189842278001810832e-02,-9.984937883778025602e-01,9.657310424576713848e-01,-6.572039075004643995e-04,2.129743095176325936e-03,6.440749416410229819e-04,1.701144099235534668e+00
-3.826156097259975769e-02,-9.970551829417431122e-01,9.672136130996878967e-01,-1.914275195280699601e-03,1.297577698896606232e-03,-1.930676110685911485e-03,1.701274752616882324e+00
-2.263310389121737237e-02,-9.871231247782168428e-01,9.631655176201657786e-01,-1.303116050472835977e-03,7.011552611444120051e-03,-3.965616622938378764e-03,1.689092278480529785e+00
-3.205626844053936775e-02,-9.939534630079578381e-01,9.667040008438430032e-01,2.705823719964418374e-03,8.643558473327673033e-03,1.611927530469448727e-03,1.698153972625732422e+00
-3.399102908626601416e-02,-9.996515786105658607e-01,9.705991579843956663e-01,-1.252261346908090534e-04,-1.490901116138128833e-03,3.405987805042204104e-08,1.706400156021118164e+00
-5.774061514489612496e-02,-9.885215241497287142e-01,9.729542986539662097e-01,-4.022915848369014100e-03,-1.676543066773435522e-02,7.051501352586190229e-03,1.699728608131408691e+00
-3.757371495855030274e-02,-9.653476173274717631e-01,9.248625799722981489e-01,-1.078869349957166423e-03,-9.149226234309818396e-04,-1.027584527938789523e-02,1.637160420417785645e+00
7.876009764047640915e-02,-9.077372480180673220e-01,5.225528339886699181e-01,1.534628182278256411e-02,1.132785985547080376e-01,-2.747330848490463304e-03,1.283415198326110840e+00
-3.340949922207178679e-02,-9.971244229057143471e-01,9.659497057401505993e-01,-5.676270203591902638e-04,-1.099854571282852964e-04,-1.258861511141711863e-03,1.700167179107666016e+00
-1.755158158784142219e-01,-4.193897296275159725e-01,8.270955195141407312e-01,7.202682329917958585e-03,5.367264740248753850e-03,-6.769733304777111535e-03,1.144375085830688477e+00
-1.051360948714960900e-02,-1.010419835384617659e+00,9.957510566593965606e-01,-1.470511544314774197e-02,7.114326137079798494e-04,-4.947400836254368939e-03,1.737606167793273926e+00
1.557182340086167571e-02,-9.686853211329351510e-01,9.463483204903850865e-01,-1.192344747625325406e-02,-1.414977297859116093e-02,4.546881719024210844e-03,1.659011602401733398e+00
2.995151480299036023e-02,-9.579819466782832915e-01,9.367166084420536221e-01,1.623773750466365280e-03,-7.314692620985485498e-03,3.017364481100078856e-03,1.641418576240539551e+00
4.069883682640996515e-03,-9.681838649185213752e-01,9.489734600166630507e-01,-5.076610985477458815e-04,-9.344453121155876091e-03,2.560272148442351882e-03,1.660448312759399414e+00
-1.231514239144312073e-01,-8.521136941759610561e-01,9.829456016120188266e-01,6.741812308054405400e-02,4.546995951285898868e-03,-7.149985526924143575e-02,1.609401702880859375e+00
1.264259390675493908e-02,-9.676518878886305464e-01,9.460798823369166444e-01,-1.284128148074172027e-02,-7.960302201008340878e-03,3.163927060748744548e-03,1.657721519470214844e+00
1.829019137545967108e-02,-9.668943479980920408e-01,9.442913013005980183e-01,-4.480561153641795559e-03,1.083456224582207868e-03,7.969664173848621047e-04,1.655419707298278809e+00
-4.325417193646315106e-02,-9.947066276097294990e-01,9.356224241155096655e-01,2.367262400206498335e-02,5.276675999459634614e-03,1.755511639397215606e-02,1.672574400901794434e+00
-1.020740979009781974e-01,-6.157544305961710762e-01,8.560635859583061169e-01,1.392801146211101321e-02,6.186117770878077175e-03,-5.889515097396815120e-03,1.294168710708618164e+00
5.770607120679637804e-03,-9.153368947058611038e-01,9.318213349713742044e-01,2.831385945626418987e-02,-2.194329729765725351e-03,3.394349442353384021e-03,1.600454688072204590e+00
2.019733103921013406e-02,-9.099684931509844921e-01,9.204637119800320733e-01,4.687361992064939878e-03,-5.144856670265100969e-03,2.057643015443654769e-04,1.585317134857177734e+00
-3.208094659090374168e-02,-8.985288209168275086e-01,9.795888685615919966e-01,2.652854787151256444e-01,2.499849744809607213e-02,-9.245336767853151727e-02,1.699827551841735840e+00
-1.293344064658968340e-01,-6.178026300607607491e-01,8.804166751009143699e-01,8.650206096401032163e-02,-1.520722573120139760e-02,-3.453464507748257861e-02,1.333472609519958496e+00
-4.854433892762147207e-02,-8.070337693833308235e-01,9.130938591195449927e-01,3.739085457847825256e-02,-2.225052174677785363e-02,-3.229557236325349134e-02,1.496079921722412109e+00
-5.088672411441477056e-02,-8.856839516545362834e-01,9.373670579521001800e-01,2.074375658344789278e-02,-2.244331299095329857e-02,1.178457914014054142e-02,1.581689596176147461e+00
-9.221492073779943843e-02,-7.168751414751367568e-01,8.917268914425087178e-01,1.089708156210512230e-02,-1.549395343732091687e-02,-6.183634062932701070e-02,1.409084439277648926e+00
-8.001689037771228530e-02,-1.011523793649971470e+00,1.016247545508228489e+00,1.365462762269754275e-03,-2.010342728102935267e-02,1.057159647899062315e-03,1.758379936218261719e+00
-2.532772893466583852e-02,-9.808472058932531379e-01,9.436271022560055455e-01,2.643730968710577851e-03,-1.960444340253887988e-03,-3.598913896355067452e-03,1.666678547859191895e+00
-2.545849112733628017e-02,-7.849019524786122748e-01,8.914382390507131770e-01,5.973469636342695899e-03,9.920180417507857076e-03,4.495153218307109473e-04,1.454024791717529297e+00
-3.704124315037284759e-02,-9.936933771090354917e-01,9.666669443447724053e-01,2.522421206761526688e-03,-5.300698279508914666e-03,-4.542050380448137137e-03,1.697933554649353027e+00
-1.297382867086423197e-02,-9.887323248851244140e-01,9.615692930210624212e-01,4.126902340529859845e-04,-7.177620094245040598e-03,2.158599261175605209e-03,1.689060926437377930e+00
-2.803656512875352461e-02,-9.965164801352417445e-01,9.649130347166738897e-01,-2.333169067389581825e-04,-4.948321619253868119e-03,-8.776398596742344049e-04,1.698714256286621094e+00
-2.776554568953220475e-02,-9.929723317956907769e-01,9.653874444818043576e-01,4.885341321392141709e-03,1.820080299912884636e-03,-2.323322693392673634e-03,1.696075677871704102e+00
-3.834798323626363581e-02,-9.825741525186731939e-01,9.496184216216663199e-01,5.399858507829560957e-03,-1.686621823266679131e-03,-4.723392446125829723e-03,1.673519492149353027e+00
-3.689642689355884797e-02,-9.799983370989883147e-01,9.076999637524566511e-01,1.029548948287441722e-02,1.337634887289062061e-02,3.656875395111595754e-03,1.635068535804748535e+00
-4.694927392368387908e-02,-9.880868804362078484e-01,9.477234583704248205e-01,2.610304608112277037e-03,5.217049146753083289e-03,-2.418998842651604638e-03,1.676710247993469238e+00
-1.387405929042341904e-02,-9.532133491124971103e-01,9.468617750931053179e-01,-1.269461392531277648e-02,1.564582466231283914e-02,-6.699111179644929789e-03,1.645959019660949707e+00
-4.190733845793853662e-02,-9.879073369041966313e-01,9.457214729372389606e-01,2.186761559677885807e-03,4.595371742961601967e-03,-2.350345770077291209e-03,1.674729228019714355e+00
2.644902579277840990e-02,-9.817551338147844087e-01,9.587292864213924348e-01,-8.831739644512292403e-03,1.116049223011942714e-03,-2.744838191863544462e-03,1.681015014648437500e+00
-5.056725790730878106e-02,-9.867208480549878313e-01,9.498907084280119317e-01,9.603509684149994993e-03,3.380974591796776212e-03,-5.629530282031358114e-03,1.677584052085876465e+00
-5.136365137364786587e-02,-9.741232857046117077e-01,9.461340609235898702e-01,-4.732883355632292940e-03,-1.037654062291791870e-02,-9.180312803241328853e-03,1.663604736328125000e+00
-2.544449837316480403e-02,-9.870690321509720810e-01,9.453200739718451429e-01,-1.815608858216224888e-03,-1.302914667784721772e-02,-6.532106335226427814e-05,1.673659443855285645e+00
-1.388805578980176758e-01,-3.901940867671047086e-01,1.015434387704073016e+00,-4.505811014677405663e-02,1.942048085707751698e-02,1.221691474080654864e-02,1.301294088363647461e+00
4.611518159381483573e-02,-9.164733419486708055e-01,6.163757352714966942e-01,1.372775879614987092e-03,1.340988848481516546e-02,4.180563219081031082e-03,1.342124223709106445e+00
-3.779375602950001134e-02,-9.861410351166988164e-01,9.490235532890389791e-01,-3.344445280399336272e-03,-2.604768067108303217e-03,-1.927171968872379553e-03,1.676031470298767090e+00
-3.117390659036456402e-02,-9.649311749936747562e-01,9.167518549000547301e-01,-7.462307678385896828e-05,-3.475374788829559657e-03,4.401310132810707168e-03,1.629629611968994141e+00
-1.162469296996146428e-02,-9.362193786718530086e-01,7.562732872081857627e-01,-4.269653570598603079e-03,6.815802221094291458e-03,1.064579222661357193e-03,1.467901349067687988e+00
-3.792424993364552910e-02,-9.905524232864409973e-01,9.596950785365313541e-01,8.231636383225335654e-03,-3.716059380501854381e-04,-5.620591250994842400e-03,1.689202070236206055e+00
3.537138523309116267e-02,-9.157394461171428635e-01,5.536754832615969901e-01,-6.223775810601994696e-02,-8.026307198391990916e-02,-2.011459086974101140e-01,1.348533153533935547e+00
8.624130462947597608e-03,-9.872541178288132269e-01,9.601522847935416438e-01,-8.143238211954046887e-03,-1.743753628006966105e-03,-2.300015701407448487e-03,1.686715602874755859e+00
-3.661451650798982355e-02,-9.959361535968278556e-01,9.657470514774882941e-01,2.137132364698577681e-03,3.069567838410503825e-05,-7.532133664949539325e-04,1.699008345603942871e+00
-4.825579437989343384e-02,-9.904333458293493875e-01,9.628369776354575027e-01,5.623071978155060741e-03,-1.544817262784729502e-03,-6.075790884247835727e-03,1.691995501518249512e+00
-1.752926789951545772e-01,-4.590764206285476989e-01,8.331062433550672219e-01,9.755950430282430558e-03,-7.978306532532385489e-03,5.595406168706591049e-03,1.176494479179382324e+00
7.856062418900515432e-02,-9.360724269370617190e-01,5.866809289962617857e-01,-1.944222969669193255e-03,1.191403225749098661e-02,6.490702328154376866e-02,1.347701072692871094e+00
-3.387324922046650033e-02,-9.938477132451287721e-01,9.599412915756877496e-01,-6.324981271318469347e-04,-5.073950594252196744e-03,-3.293947014672198980e-03,1.692148327827453613e+00
-3.514222167742464542e-02,-9.935961978039985487e-01,9.578584271665429029e-01,-1.133183732962410014e-03,8.864806364524285571e-04,1.854884293125263865e-03,1.690102458000183105e+00
-3.846133988288349265e-02,-9.740363447150663934e-01,9.372207316331518934e-01,2.157514156353563042e-03,-3.519904427935045387e-03,1.384582522303699510e-03,1.655335783958435059e+00
-6.263044206273996051e-02,-9.819708877020488780e-01,9.458036000581419023e-01,4.874018130617511525e-03,4.546447122274240547e-03,-5.120160536189624287e-03,1.670159339904785156e+00
-6.144078263412654228e-02,-9.742806825752681199e-01,9.333357501840784387e-01,8.816060213395029641e-03,1.012284264312393080e-02,-6.755606242019856350e-03,1.652757167816162109e+00
5.407230460388701143e-02,-9.202967154640923075e-01,6.154390596329997187e-01,3.833261633093923773e-03,1.551724275766606410e-02,3.435091465111116647e-03,1.346219778060913086e+00
-7.522115576688231942e-02,-9.715186100299729732e-01,9.328502968129203099e-01,4.569370853480537661e-03,4.890772773861669885e-03,-4.420955079252496776e-03,1.650236964225769043e+00
3.014861914318679725e-02,-9.477325260164695120e-01,6.811484375471238417e-01,7.943380802800588045e-03,6.927543322760573719e-02,-3.131055332439602185e-02,1.426247000694274902e+00
-3.055622379989789833e-02,-9.889089835356847935e-01,9.617780961435742348e-01,3.209113375808607849e-04,-7.781274710501959700e-03,-3.665148010684082108e-03,1.689495801925659180e+00
-5.873080386060929720e-02,-9.723809538529559759e-01,9.189218744203129230e-01,6.593991548315554854e-03,1.312100698959694708e-02,5.214687422035562932e-04,1.638426542282104492e+00
1.974830449423050152e-02,-9.778573338222301681e-01,9.523569735919112933e-01,-2.538674390888432178e-02,3.812510265938378381e-03,-5.330456689954300199e-03,1.672547101974487305e+00
-7.467329001657010967e-02,-9.887167524218053449e-01,9.586501723949067966e-01,9.471677456517467453e-03,-7.386211459745518730e-03,8.151973091178814357e-03,1.687710762023925781e+00
-1.520879578102075635e-01,-6.990505157945425818e-01,9.094938429165168037e-01,6.653832138699126986e-03,-2.144819297377994344e-02,1.191675134196784266e-02,1.417289137840270996e+00
-7.313235368731205166e-02,-9.875992812158447265e-01,9.655916255419516592e-01,5.732756451014332962e-03,-3.161598747755515332e-02,9.066843205292539690e-03,1.693641066551208496e+00
-5.157032960084737688e-02,-9.975676937672856015e-01,9.925065941013465620e-01,-6.474114792468345717e-03,-1.285606578899435234e-03,1.386589431284598883e-03,1.724192023277282715e+00
-3.646846973238712653e-02,-1.003794892210693623e+00,9.914691006010963870e-01,6.658511539910645476e-03,5.809679363147251738e-03,2.566364217941582114e-03,1.728288531303405762e+00
-3.202076946927927270e-02,-9.801594171633267738e-01,9.758966924874293847e-01,-1.506086890089512569e-02,-1.125274637433444289e-02,-1.074864943715517392e-02,1.694673061370849609e+00
-1.520764204947211706e-01,-4.574763195198001675e-01,8.232545731376600395e-01,9.694922842827136122e-03,2.958872211882327199e-03,5.562887101258812833e-03,1.158795356750488281e+00
-6.571369455118311609e-02,-9.612562843872595186e-01,8.949280040301329509e-01,-1.087219251126175383e-04,5.581021846245498574e-02,3.524147011667717834e-04,1.610735654830932617e+00
-1.056024057598240057e-01,-6.005532729986584606e-01,8.574714596608462580e-01,1.304076099394658669e-02,-7.208904294628691589e-03,1.006421976593929041e-02,1.284574627876281738e+00
-1.037489582257155318e-01,-6.964820068867741965e-01,8.906230907497967308e-01,1.519850386402435416e-02,-2.807622521229983376e-02,1.411482212331474292e-02,1.390381574630737305e+00
-6.460414797531530140e-02,-1.043499814306186879e+00,1.033742561301205454e+00,-1.721810840796421382e-02,-3.742444704857701698e-02,-4.866964907422484388e-02,1.803320884704589844e+00
-5.866159297879869339e-02,-9.581699178694016439e-01,8.741374649692477128e-01,-4.775867312253682592e-03,-5.401807585761164709e-02,-2.445269763198387215e-03,1.589694976806640625e+00
-6.950425618729344501e-02,-1.003986136489945613e+00,1.010564854582802097e+00,6.573920122145440921e-03,2.559507223785777510e-02,7.660876761684595228e-03,1.746820449829101562e+00
-4.575580425722174105e-02,-9.859490867179190321e-01,9.457530781879104342e-01,9.160421848750876193e-04,3.001806597063249628e-03,-2.631254150009302260e-04,1.673108816146850586e+00
8.566162933125059942e-02,-1.132290368102267575e+00,6.612629828449198000e-01,-4.407969122655055680e-03,-1.804335911255957603e-01,8.292245701936920566e-02,1.623001694679260254e+00
3.411753948676918280e-03,-9.451762864201862513e-01,6.936147704520558843e-01,-6.761951691014385021e-03,-7.246328984528985218e-02,-1.100974163281418471e-02,1.430794000625610352e+00
-7.949576766513360981e-02,-9.882303507387197872e-01,9.575083708799851934e-01,-6.374521552060529415e-03,-4.746881799946447988e-02,-1.770410230854350606e-02,1.688596963882446289e+00
-5.835103446068401478e-02,-9.587798172701114119e-01,8.718929539168578380e-01,1.368044787683960796e-02,-4.564151808920383080e-02,4.511573503612378161e-02,1.589547634124755859e+00
-1.016765074005129138e-02,-8.751942108793381303e-01,8.377709209055200779e-01,2.159810433921840467e-01,3.390292720950379701e-01,6.140968767375280801e-02,1.642205715179443359e+00
-5.169670977469133927e-02,-9.624835802584578159e-01,8.442220569838925215e-01,1.076292186660347643e-02,-3.800581607525001931e-02,6.825697006674949149e-03,1.566210389137268066e+00
-2.063590255909781776e-03,-9.157819594686430476e-01,9.389224801794625597e-01,3.504744326139990623e-02,1.682516441657486844e-02,8.939345534254579395e-03,1.607764363288879395e+00
-4.494157695336190028e-02,-8.811504136473202742e-01,9.636033875774661084e-01,5.131347783658294498e-02,3.751966054541631262e-02,3.878339690733078465e-02,1.605116009712219238e+00
-7.904250699589310258e-02,-9.635310489543433832e-01,9.190079633888872390e-01,2.997688530338374758e-04,-6.445164622975626785e-04,1.483707703100219772e-04,1.631315588951110840e+00
3.554817243072035116e-02,-9.501443891064531577e-01,9.297600664740857113e-01,2.903192806614837826e-04,1.580916331473340082e-05,6.337753312784137139e-04,1.628687858581542969e+00
3.569363364564026586e-02,-9.621152446937305536e-01,9.417137877520288525e-01,-2.117247285477389523e-02,9.063758282719675680e-04,3.965425048052735363e-04,1.649811387062072754e+00
1.250507891114659327e-02,-9.372094524564674733e-01,9.370509981196393223e-01,-5.703421014762769317e-03,2.227825831050680994e-02,3.136557235946275425e-03,1.623703718185424805e+00
1.650432930939659676e-02,-9.596701528685125382e-01,9.416061032869236236e-01,-3.042995490418167609e-02,1.708912905707134916e-02,-2.171592054063226779e-02,1.648289918899536133e+00
3.780992493125831522e-02,-9.599122910902935235e-01,9.340570075303017417e-01,-4.587466246684488054e-03,-6.644328496054538718e-04,-2.164176698678690175e-04,1.641029715538024902e+00
2.960508452230426260e-02,-9.654815116845034684e-01,9.396549431384682016e-01,-3.733230566702675814e-03,6.613790760537903955e-03,-2.504829043372311034e-03,1.650502443313598633e+00
-1.473916841179932768e-02,-9.925433537747672119e-01,9.640688120962482843e-01,-2.546606370832100574e-03,-1.929789542853592704e-03,1.874522836610416354e-03,1.694488048553466797e+00
3.267500294717991943e-02,-9.234026722926993447e-01,9.207009676959749811e-01,-2.541855105299318726e-02,6.699124047620265247e-03,1.597411950518109734e-05,1.598051786422729492e+00
6.521552538277640421e-02,-9.423057354526088725e-01,6.494855400727709283e-01,-9.606448720354651000e-03,1.211454332597260326e-02,-4.512655947013385210e-03,1.394959926605224609e+00
-3.285259617674748944e-02,-9.973816293808105415e-01,9.670599336555407710e-01,6.543861687545255096e-04,-2.056394360368967323e-03,-6.235309046832462464e-04,1.701352715492248535e+00
-3.137456528160201263e-02,-9.972877179805801351e-01,9.665218793683314491e-01,1.587404970273207424e-03,-2.799154243598856676e-03,-6.141684821841504691e-04,1.700793623924255371e+00
-3.491366316387060909e-02,-9.970521307344729633e-01,9.669805340336102839e-01,2.062349488969424625e-03,1.673320119248315925e-03,-1.938139447945329448e-03,1.701027870178222656e+00
-7.646586939928817772e-02,-9.253955362014336661e-01,9.469180097360655468e-01,6.678362994534678757e-03,-1.152970810450379587e-02,9.904377965747408058e-03,1.624070167541503906e+00
-3.561076219134944043e-02,-9.964293767207603736e-01,9.643122804269268489e-01,1.851349885468761211e-03,-7.701768000722183493e-04,-2.165834741370737098e-03,1.698172330856323242e+00
-1.473945299518543972e-01,-1.241099804655829253e+00,1.402653701436905598e+00,-4.571212838721639971e-01,-4.757333799162292293e-02,1.667550585517416084e-01,2.451780557632446289e+00
-3.170080756826887391e-02,-9.961166672926176080e-01,9.611772436244042650e-01,5.684900210648115163e-04,2.476740369995487434e-04,-1.291957415299242740e-03,1.695127844810485840e+00
-7.498946174663462250e-02,-9.705875864973546596e-01,9.324962348349808972e-01,3.911599238282248946e-03,-4.777036295536473895e-03,4.042077949917470027e-03,1.649117708206176758e+00
-7.998371996628206304e-02,-9.662007037648093766e-01,9.269441639461840632e-01,5.185386660204699232e-04,4.371847325159017653e-03,-7.054601162985156158e-04,1.640640258789062500e+00
-7.493412408632374455e-02,-9.686525047405418753e-01,9.150518844375290506e-01,-7.934169527738690886e-03,1.335143322872488041e-02,3.267084219244814538e-03,1.632277250289916992e+00
-6.747275082411026415e-02,-9.729374310265044290e-01,9.310319382679839162e-01,2.851227201989224840e-04,-5.688943105584393350e-04,-4.922621539808534966e-04,1.649542570114135742e+00
-7.348291810298102078e-02,-9.701781577947656832e-01,9.311999754814592745e-01,-3.277561305196458833e-03,3.152231474537063420e-03,3.099346004384451788e-03,1.647554278373718262e+00
-2.668626308348021753e-02,-9.985217136616799660e-01,9.658626415235319618e-01,2.499260909656862099e-03,2.812028272465372149e-03,8.090910856639087559e-04,1.701251387596130371e+00
-8.732716380427159308e-02,-8.033605884081044257e-01,9.188840343455992876e-01,1.860721221606528994e-03,1.539846729112016172e-02,1.376053607276430182e-02,1.498978137969970703e+00
-7.383569500076109238e-02,-9.628539350440168398e-01,9.042392363550663115e-01,-3.657201445128200040e-03,1.851616343004862733e-02,1.076647100233566286e-04,1.617893457412719727e+00
2.538729267076356155e-01,-1.080599602696613593e+00,2.525962410735189678e-01,1.800593437490181914e-02,-3.451944590946673386e-01,-2.416199538353889023e-02,1.462640285491943359e+00
1.613904800046812027e-01,-9.761879003610214323e-01,4.343879858671832461e-01,-1.913796837001317157e-03,-5.513129080356753142e-02,-1.524572988825374786e-02,1.299613356590270996e+00
1.761829518714827514e-03,-9.302130718126020437e-01,7.105695187639540222e-01,9.079444575374458898e-03,-6.316327329125139001e-02,-4.177362494107901732e-03,1.429631114006042480e+00
5.015786701925188662e-02,-9.387432338422777578e-01,6.708701824948899439e-01,2.216186216872532283e-03,-7.770950856114874905e-02,-2.773661222262633827e-02,1.413319230079650879e+00
-3.616896393095807294e-03,-9.451507996504212583e-01,7.535113718889656642e-01,1.248849399708045968e-02,-8.026839447769784641e-02,-3.268996883028026709e-03,1.480682373046875000e+00
-4.202527858112573012e-02,-9.736130438375769636e-01,9.459870110438781676e-01,2.041673672071221517e-03,-5.767513559473256939e-03,-5.219941906272849812e-03,1.662720084190368652e+00
-2.357753674785690312e-01,-3.904258458399680332e-01,9.453165847932376575e-01,-3.198597904265771709e-03,3.112908547917531393e-03,6.119033017601239327e-02,1.269977927207946777e+00
-3.382382377506565341e-02,-9.831515898871641124e-01,9.322615661523048214e-01,9.125349273710201686e-03,5.822942009192107367e-03,-5.654288854331066330e-03,1.658952474594116211e+00
9.063481365336398254e-03,-9.445724642172544927e-01,7.281745903254778218e-01,3.886437468610249961e-03,-4.615399830581325830e-02,-3.178576148834804521e-03,1.455602526664733887e+00
-7.011935646344233386e-02,-1.115899596104444225e+00,1.172591364002051328e+00,-7.440649559132412813e-03,-2.785822513948535417e-02,-1.217987257949471221e-02,1.985076308250427246e+00
8.077010187854197221e-02,-9.445577049504823020e-01,5.605581349037236372e-01,6.329006120221377860e-03,-1.064884591811761927e-01,2.994785618894409834e-02,1.345460414886474609e+00
2.027429150343746933e-01,-9.990258799784639265e-01,3.019486844014771521e-01,-2.836757763766617479e-02,-3.783106360869385645e-03,8.998571259225932040e-02,1.264935493469238281e+00
1.220274155390702227e-02,-9.233563877917621010e-01,9.299403205857162957e-01,-3.491318621510380252e-03,-9.850707861413206604e-03,4.779381208772392683e-03,1.605150222778320312e+00
1.370100515969531196e-01,-9.196786380619806911e-01,4.297529492035795373e-01,1.236646523907420964e-04,-2.012655284143346004e-02,-4.631789514256497500e-03,1.230002880096435547e+00
-6.626307818864798915e-02,-1.021336462834038006e+00,1.017873020168351239e+00,-1.037504059929550762e-02,-2.445111536606649205e-02,-1.397662473780665084e-02,1.767950296401977539e+00
1.242902897124407297e-01,-9.204762195793719792e-01,4.902025516807523298e-01,6.285287152854768418e-04,-2.534678926084660971e-02,2.015373967079914230e-02,1.269200086593627930e+00
1.186384266882121730e-01,-9.251064365469532369e-01,5.024540536058843543e-01,-9.533513944383098819e-05,-3.349716657400744757e-02,1.843610333955769329e-02,1.281291961669921875e+00
-1.644532705515148741e-01,-4.413369731628995485e-01,8.304478074150964950e-01,-1.237271892798606429e-02,5.478413561923136180e-03,-3.125160569301286759e-03,1.158681631088256836e+00
-8.031364316795067126e-02,-9.649949859558931697e-01,9.211504381792968710e-01,-5.579582640010274125e-06,-8.867301931975450548e-04,-2.551418466818773483e-04,1.634493947029113770e+00
-7.729143000379350148e-02,-9.707436707717153057e-01,9.293532940149010768e-01,5.092135373426905955e-03,1.464796222391308647e-02,-7.573029253124198470e-04,1.646724820137023926e+00
-7.415838685140496711e-02,-9.714107530906342935e-01,9.333333803541616902e-01,4.001752045176967983e-03,3.691501451893509402e-03,-3.874945508876486387e-03,1.650518059730529785e+00
-7.330030615322048748e-02,-9.614863367838386576e-01,9.023005521778607596e-01,4.288064106462382598e-03,1.683819437067908195e-02,3.699966033153029212e-04,1.614959001541137695e+00
-4.388357374670590061e-02,-9.823428284117006193e-01,9.301691024721712164e-01,5.515811895718432389e-03,1.077097107872746623e-02,-1.634829229084287100e-03,1.656514525413513184e+00
-2.289391578579703934e-02,-9.470715121363069144e-01,9.416028370569893280e-01,-1.025532520560354377e-02,-1.299593046117551894e-02,-3.517190067135983304e-03,1.636026859283447266e+00
-4.581823992368769249e-02,-9.911613269248217284e-01,9.579787518791970102e-01,3.898063220153920056e-03,2.223300747536321141e-03,-3.660381834899403396e-03,1.688287615776062012e+00
-5.125390360002923112e-02,-9.850196669929837112e-01,9.479506050772554815e-01,-1.625371427718995659e-03,3.092624685089065753e-03,-4.656426917431987986e-03,1.674351453781127930e+00
-4.099384634490912949e-02,-9.627422930231923637e-01,9.351805603055463045e-01,-1.006743700884478758e-03,-3.121557066908204952e-05,3.919880595931068100e-03,1.643889665603637695e+00
-5.954497292896156202e-02,-9.838946163023438718e-01,9.492413744435490575e-01,4.509314356356600856e-03,-7.838561680780700008e-04,-3.488839776423030559e-03,1.674706816673278809e+00
-1.518903064816596454e-02,-9.611312829807845404e-01,8.406643538408505867e-01,5.741241641834764382e-03,6.503324109800003505e-04,2.123034180838917484e-02,1.561515927314758301e+00
2.685491431815506536e-02,-9.486849720641202799e-01,7.137249335469831868e-01,5.090371808132999540e-03,1.883012446326154951e-03,4.476885613670324171e-02,1.449012994766235352e+00
9.078968620137142786e-03,-9.786178151506653711e-01,9.499861138686017670e-01,-5.739549435465173509e-03,1.841739771724984053e-03,1.793755326249112103e-03,1.670419335365295410e+00
-5.801288589577886790e-02,-9.595648628855022455e-01,8.845908944029595711e-01,-2.241167173023643662e-03,5.478154979987058353e-03,8.606761038962892473e-04,1.597251176834106445e+00
-3.929386914279196091e-02,-9.707065109459099839e-01,9.418516521060040780e-01,4.407159570895936331e-03,-5.093601116599899559e-03,-9.345012685710311212e-03,1.656630754470825195e+00
-3.961690475255722627e-02,-9.728289682232632574e-01,9.349952084566229837e-01,-1.004777956919632826e-03,3.021800331560699953e-04,-3.491769692987754022e-03,1.652365922927856445e+00
-3.694889431643345185e-02,-9.808481908899376878e-01,9.451063026706014725e-01,-8.729983585114726172e-04,-1.129125025901097160e-03,-2.189013427864028999e-03,1.668040752410888672e+00
-4.205830859567992464e-02,-9.563945541534212280e-01,9.361201462507025006e-01,-1.566175424298659738e-03,-7.932807322695639360e-03,-9.172290469682677777e-03,1.639413475990295410e+00
-3.414788976071281290e-02,-9.710748498667172157e-01,9.271934133647853349e-01,3.747786977245916805e-04,-2.288478219584191744e-04,4.454293538391846524e-03,1.644012093544006348e+00
-4.901243169096040214e-02,-9.684210929595409301e-01,9.398295513084051755e-01,-2.817281542378997114e-04,-1.751176518152460946e-03,-2.143663182745073059e-03,1.652965188026428223e+00
-3.734404485035425214e-02,-9.670526471264861978e-01,9.199657848852810238e-01,-2.933141427446073115e-03,1.173087056248761032e-03,1.123157255106949082e-02,1.634389162063598633e+00
-3.758089454398742812e-02,-9.838048720901015898e-01,9.515877860427216506e-01,3.705529492087641843e-03,5.822768929624365201e-03,-7.743476132664171320e-04,1.676279902458190918e+00
-2.786459703424162132e-02,-9.360245780242358871e-01,9.480417062008122953e-01,-1.564475563428487743e-03,2.680482221657557243e-02,6.000623551134868713e-03,1.632696390151977539e+00
-3.735061340446908795e-02,-9.357411112139593090e-01,9.490812407623140379e-01,6.001786284528064360e-04,1.976446726778706767e-02,6.429922121223485484e-03,1.633294582366943359e+00
-4.114196642931514103e-02,-9.685482582508743166e-01,9.296067918672717978e-01,-1.260085444682105247e-04,2.196336164118759069e-03,-4.070305954867283957e-03,1.644012808799743652e+00
-4.962237058530773182e-02,-9.426860756473540714e-01,9.296679344203386819e-01,-1.725059467533774857e-03,-3.796158021685935597e-03,-1.435674186088721146e-02,1.622285842895507812e+00
1.283476310297663840e-02,-9.228977968492086958e-01,9.306521272299423941e-01,2.832077464136732378e-02,-9.775238696868400121e-03,3.490936999105176235e-03,1.606096267700195312e+00
1.126438504291021013e-02,-9.361211407240299653e-01,9.359848836954203222e-01,1.475289817949928910e-02,-1.385021249480068023e-02,-4.627438316790357178e-03,1.621729612350463867e+00
-8.947253162160061224e-02,-8.034497420541014678e-01,9.195570175573282157e-01,1.484298521250193830e-03,1.808738747269748176e-02,1.461640700962290804e-02,1.499985694885253906e+00
1.596942569930130673e-02,-9.909436221765284269e-01,7.850925923665003081e-01,1.807058796194371993e-03,-1.068723849102888729e-01,9.135498263699294574e-02,1.561786293983459473e+00
2.402603144531230764e-02,-9.956252424064057083e-01,9.563105448501870720e-01,3.131615838395782059e-02,-7.872651852995104713e-03,-1.358711107967439536e-03,1.691916584968566895e+00
-8.576301352075649601e-03,-9.317582126719053948e-01,9.475678788875966374e-01,4.769504645714096880e-02,-3.825876292753774104e-03,-4.098961688311543970e-03,1.629751563072204590e+00
1.220530446922030339e-02,-9.674497450282085742e-01,9.489670703235600913e-01,1.372264988713004299e-02,-1.053119653836087632e-02,-8.839360580132188047e-03,1.660145163536071777e+00
1.865299099334874477e-04,-5.900930657742613494e-01,4.584150425123144079e-01,-5.263033001417912610e-02,1.295638150811705136e-01,1.401691087181055617e-01,9.728816151618957520e-01
-4.657068748967596594e-03,-5.788370876111406105e-01,4.575007222644612570e-01,-2.016248389821875264e-01,1.203310625556176378e-01,1.348742816074393613e-01,1.014201164245605469e+00
-1.064100784780661751e-01,-4.746951421856034359e-01,7.799700456323691578e-01,-1.475311183581842246e-02,-5.361370283876242676e-03,1.184407414313153745e-01,1.136031746864318848e+00
-4.305469680383797182e-02,-1.032553262317665865e+00,9.664510781415464047e-01,-9.172186789026071096e-02,7.248775792051166678e-02,2.711077512339417350e-02,1.743651628494262695e+00
1.199374717412290958e-02,-9.997404986042309760e-01,9.831176186420440555e-01,-1.148572892705765694e-02,-5.544550890015995234e-04,1.899212684800724972e-03,1.717444181442260742e+00
-7.928247002857441439e-02,-8.679931231347716158e-01,9.428888797729547688e-01,4.486946038634528639e-04,-2.365466467042870446e-02,1.374358121997352328e-02,1.573321938514709473e+00
-3.509431825725279480e-02,-9.697757274551512818e-01,9.569012162619445760e-01,-5.043244089685310072e-03,-1.163915824232793390e-02,4.498146025412475685e-03,1.668960094451904297e+00
-3.107857978255206682e-02,-9.235505709499985949e-01,9.432677175197990982e-01,-1.207892751783469151e-03,-2.168208808486431216e-02,8.720068730234993223e-03,1.617738127708435059e+00
-6.880030502112653712e-02,-1.068078663129315764e+00,1.137808486331878255e+00,1.332362003564966160e-02,-2.356851387682262072e-02,-7.336901117667524869e-04,1.913739919662475586e+00
-3.947802364263779118e-02,-9.710317797524646855e-01,9.589287246662817621e-01,2.209837115302386214e-03,1.203239404170143058e-02,2.858863158957853073e-03,1.671870708465576172e+00
-3.605373339166529495e-02,-9.658355223954258051e-01,9.165303818651076018e-01,1.910979854800663833e-04,-2.991970845167887111e-03,-4.552101592590961782e-03,1.630243897438049316e+00
-3.133505250532537395e-02,-9.823827631714321384e-01,9.530200677106861473e-01,4.529886658984339648e-03,4.063360967349837188e-04,-2.973283561548701812e-03,1.676217198371887207e+00
-3.454365574492056223e-02,-9.954163694006663565e-01,9.609950054308737943e-01,-5.008110412838239801e-03,5.366352712661611596e-03,1.476533672295167812e-03,1.694440245628356934e+00
-4.071125200122845816e-02,-9.250697693360351304e-01,9.526923163174493281e-01,-1.239503733583975989e-03,-2.325692277819869230e-02,8.755082092201226657e-03,1.627673983573913574e+00
-8.004483415518234141e-03,-9.230249676900892375e-01,9.328480871545197228e-01,4.967435071780563344e-03,-1.217132009076495741e-02,3.688977837576105662e-03,1.607459068298339844e+00
-1.490786964020401062e-01,-6.562047574881986201e-01,9.124233210014108808e-01,2.261989505400646416e-01,3.457384231457413543e-03,7.909439654708397271e-02,1.447266459465026855e+00
-4.827348179993908028e-02,-9.837897760049397755e-01,9.368332161675229086e-01,4.794392181875386898e-03,-4.215027545803963320e-03,-1.867619823987747008e-03,1.663532972335815430e+00
-2.959973898287344973e-02,-7.852122518317526945e-01,8.936026910690981762e-01,9.826749761369560354e-03,-1.136122561088002622e-02,3.541950443642916655e-04,1.456541657447814941e+00
-3.257302927549741989e-02,-9.959621161942444623e-01,9.654303355964529709e-01,-1.260252648821139293e-03,2.437660473706693143e-03,-8.322155844339260318e-04,1.698711156845092773e+00
-3.038464036651575620e-02,-9.912240810756651754e-01,9.599674367022806853e-01,-1.516281438905109271e-03,6.009262651392031050e-03,4.416725542747884431e-04,1.689880132675170898e+00
-3.063466427582454618e-02,-9.908933515281054261e-01,9.598967720825865024e-01,-2.153079382349807648e-03,-7.136526248403769583e-03,-1.866862719286353518e-03,1.689554095268249512e+00
-3.277598911262752379e-02,-9.928283639521596760e-01,9.575480151797656214e-01,-1.795120374952733884e-03,-3.396178433064171026e-03,-8.160906329231607144e-04,1.689157009124755859e+00
-5.431231431699423684e-02,-9.249737598609043543e-01,9.401182737082989238e-01,8.350006046234842222e-04,2.236966216207352757e-03,9.802910740411372587e-03,1.616496562957763672e+00
-4.137623987475254339e-02,-8.935403417324061515e-01,9.325426710707287459e-01,3.295375007361499298e-02,-2.151104726826762875e-02,3.310993700243708426e-03,1.584083080291748047e+00
-6.428716920753865804e-02,-8.675634843647886951e-01,9.383275759691305229e-01,1.649867965142688816e-03,-1.432975829679717164e-02,1.371663335189649523e-02,1.567499399185180664e+00
-4.515743393947409257e-02,-9.506578057063386211e-01,9.492137812607108760e-01,-1.032251027221681335e-02,1.468094270071404342e-03,-2.218889819164060126e-02,1.646484613418579102e+00
-3.821785559174567526e-02,-9.584071450455047270e-01,9.329551873151316066e-01,4.680138077007727805e-03,9.533471940967987515e-03,-2.441120380109804144e-02,1.638814926147460938e+00
-8.014665202816868839e-02,-1.508840772453853729e+00,1.659125369366258207e+00,1.436342729246384287e-01,-4.299847644251114653e-02,9.900224353499259555e-02,2.765495538711547852e+00
-2.252137884499215148e-01,-8.646683762226520242e-03,9.334722721712616078e-01,1.912797624229551907e-01,1.090230582481984713e-02,1.657431803668144368e-02,1.117795109748840332e+00
-2.097568933654959389e-01,-8.883469708609328941e-02,8.639441658667807999e-01,2.745163814498375460e-02,6.974646950185664669e-03,-3.534580413029370788e-02,1.021653771400451660e+00
-2.955502530718989024e-02,-1.266063176246478461e+00,1.312791307887712033e+00,1.453592161961762830e-01,1.136402744613850728e-03,1.417354739091214802e-02,2.248257637023925781e+00
-1.647978333214095703e-01,-1.162375356335256238e-01,7.218370999285507184e-01,1.667235884464695062e-01,7.214874248980422677e-02,3.727245169867602487e-02,9.211941361427307129e-01
-6.901216460588320903e-03,-9.710011558633955264e-01,9.525793236940489628e-01,1.530095719248437958e-02,1.500613240123389522e-03,5.455262768330136061e-04,1.666084289550781250e+00
1.122332640031549825e-02,-9.542676854221744387e-01,9.620774090861811123e-01,3.752779816276832769e-02,-3.904359421025646246e-03,-6.300183347505034295e-03,1.660941720008850098e+00
-4.014305051264286349e-03,-9.826696550898481597e-01,9.661390756696517368e-01,-3.488557427228198443e-04,-7.317093014840896081e-03,-8.344094379041513271e-03,1.687832832336425781e+00
2.223632824394278923e-02,-9.793922407152551024e-01,9.547159000786045180e-01,9.490174712782363173e-03,8.360683094273693716e-03,2.413629027677382556e-03,1.675492048263549805e+00
3.514180575401908840e-02,-9.497854581043339017e-01,9.315146373211216080e-01,-1.866331364647573141e-04,8.880995034595706326e-04,-5.353650854159421090e-04,1.629856228828430176e+00
-1.553298618385420306e-02,-9.786448925430795143e-01,9.563248828349588671e-01,-2.417397243699442519e-03,-1.427970829624201216e-02,1.973523040029756884e-03,1.675929903984069824e+00
-1.218763052525145552e-01,-6.557423403501048131e-01,8.814714117563083873e-01,-1.441193699565179037e-02,1.285578225657684447e-02,7.780745847025073714e-02,1.358916401863098145e+00
-1.546208080069075563e-01,-5.879871301588018850e-01,8.727890007184787580e-01,8.232620464744766497e-03,4.781814729130899437e-03,-1.986788106843362031e-02,1.300030112266540527e+00
-1.701286548255990794e-01,-5.216506662001202388e-01,9.651774980261337289e-01,-3.515592662214341024e-02,-1.798049657180337754e-02,8.682627044375965109e-02,1.356048345565795898e+00
-5.687809131788497397e-02,-9.465622094398167263e-01,9.498151232336694560e-01,4.710471404890431875e-03,9.014468395000110185e-03,8.044774972184075626e-03,1.643506169319152832e+00
-2.807013059595028434e-02,-9.793879297341114842e-01,9.267728215008781412e-01,-1.456573261507723314e-03,7.563546276459460560e-04,-3.188670114707794264e-03,1.650796294212341309e+00
-3.547863379780062665e-02,-9.868840978186257384e-01,9.406800866020733620e-01,8.374666609517035162e-03,-4.613922712037021694e-03,6.375587625498580283e-03,1.669484138488769531e+00
-1.999058056478041634e-01,-5.949573090586031121e-01,9.934253464918650911e-01,-1.223973216511516499e-01,-8.790091932124974305e-03,8.931070328564112704e-02,1.456240534782409668e+00
-1.986019583776861830e-01,-3.623745938269972156e-01,8.717163847896096662e-01,-7.104386989670621877e-02,2.002065729676462749e-02,-2.320995237414134882e-02,1.168611168861389160e+00
-2.367331562184926685e-02,-9.862263687238863596e-01,9.615616520807980239e-01,-2.694867447611104961e-03,6.116884247761062050e-03,2.758572172141040939e-03,1.686918497085571289e+00
-1.599540454367452402e-01,-4.674705445872612275e-01,8.471246697710359541e-01,-9.653470429153274482e-03,1.098860563143994398e-02,7.816636221062847611e-02,1.198932409286499023e+00
-2.857023031592100318e-02,-1.117508949769051796e+00,9.989513622178571861e-01,-8.777796773082138272e-04,-1.625504224545880616e-01,4.952555214501815073e-02,1.856643438339233398e+00
-7.995887546844945848e-02,-9.243097360604951573e-01,9.478046956920390675e-01,9.232832900522383937e-03,-1.154029995931340861e-03,1.187223512623152531e-02,1.624100327491760254e+00
-5.280455362300717770e-02,-1.021523383793879081e+00,9.800713174665781624e-01,1.633318548302754511e-02,-2.087730905582849822e-02,2.148899304071590077e-02,1.734735846519470215e+00
1.874665176983217330e-03,-1.045332962611433825e+00,9.107151943559891327e-01,-5.246873807675828116e-02,-7.336683902609665575e-02,2.175626232876906943e-02,1.702999353408813477e+00
-1.568005827247202083e-02,-9.445004211537118000e-01,7.789705252969919558e-01,4.313963627836973902e-03,-1.249413192377833368e-02,-1.110457580001468535e-03,1.494253039360046387e+00
-5.667997656915960830e-02,-9.239958750371773943e-01,9.411019958635288285e-01,3.671904793884927555e-03,1.351758743344219117e-02,1.166103267973817373e-02,1.616847038269042969e+00
-4.975605649194379809e-02,-9.794766369452053700e-01,9.246987192152966717e-01,5.819685503482669407e-03,-1.101900455305297906e-02,2.759377818441802535e-03,1.649364113807678223e+00
-2.106498552871727270e-02,-9.536852935197505099e-01,8.055164936310623691e-01,1.518809765522945512e-02,-4.197742789468635397e-03,8.285668467481015209e-03,1.524747610092163086e+00
-3.585912691495008603e-02,-9.579422626274931574e-01,8.293085880680416411e-01,1.818743035376062245e-02,-2.797099220198551173e-02,1.983700516023649552e-02,1.549525380134582520e+00
-5.629151772778773211e-02,-9.451653014303605937e-01,9.509804155743152299e-01,5.656012134559477902e-04,-1.370437878670480863e-02,7.114589049065544318e-03,1.643395066261291504e+00
-3.789159514671863044e-02,-1.027482589569459925e+00,1.041303427850494234e+00,1.455877756193636914e-02,8.007391938246410240e-03,1.079843609552870801e-02,1.792509913444519043e+00
8.871365934003519471e-02,-9.364343871094891192e-01,6.178446296089703527e-01,1.367645504993190118e-02,6.080263503885076706e-03,1.145043060183656598e-02,1.369091272354125977e+00
-4.013667863387095774e-02,-9.696668095611710170e-01,8.753861904390904947e-01,1.018694915340625715e-02,-2.329574158274490964e-02,6.988636365184761230e-03,1.598530650138854980e+00
-3.703829613802196719e-02,-9.691313795402729525e-01,9.542957500677278215e-01,-4.374150228173434400e-03,-1.508007068345545813e-02,5.357234221081957209e-03,1.666247844696044922e+00
-4.315434570912037027e-02,-9.733203970246948611e-01,9.420190584411225476e-01,3.035171178459495148e-03,3.790721753249383700e-04,4.696169146935921801e-03,1.658989071846008301e+00
-7.367876727105687751e-02,-9.652911466663375295e-01,9.042961829711665400e-01,-5.675674370738719582e-03,2.339921251907522634e-02,4.472589140900841247e-03,1.620241165161132812e+00
-7.513885583346227581e-02,-9.800808423205888964e-01,9.442860440827620661e-01,-7.030051304187225590e-03,2.127132089854761807e-02,6.225372398147820986e-03,1.668019652366638184e+00
-3.466172207848627201e-02,-9.653276032187795286e-01,8.490530328299378260e-01,-1.152996100320227528e-02,2.144812892615183264e-02,7.487219803991761007e-03,1.572094440460205078e+00
-7.869300324242768652e-02,-9.716838627216972668e-01,9.350892852449705916e-01,-5.608902330130212041e-03,2.833966986928534992e-02,5.005991981552985158e-03,1.653198242187500000e+00
3.472118650924663208e-02,-9.545843037598871206e-01,9.347800862595136984e-01,-5.302099645885287316e-03,9.705264413791990161e-04,-1.534908677083436385e-03,1.636874675750732422e+00
2.552447155693449155e-02,-9.317248258199770650e-01,9.321420065209500283e-01,-1.733733287506588824e-02,-1.696865446232825739e-03,-6.407582295304539493e-04,1.614636898040771484e+00
-3.497676846719065258e-02,-9.803978336177023856e-01,9.338082131627513105e-01,-1.984447567588269647e-03,4.534689799533087040e-03,1.310694995049165078e-03,1.657815933227539062e+00
3.432560060215029268e-02,-9.545062365275532867e-01,9.345612542380334897e-01,-5.591605838789305734e-03,1.442154365433519561e-03,-1.220750115555262888e-03,1.636611938476562500e+00
-4.559467133145900242e-02,-9.443462917320339933e-01,9.446465122220490951e-01,-2.104144649382358283e-03,-9.125724510131761474e-03,7.885684274499859051e-03,1.636692643165588379e+00
-1.485001464862674425e-02,-9.897821087066615009e-01,9.613051921787213461e-01,-2.734879468294400175e-03,1.108955220511948121e-03,2.138048064042658795e-03,1.689703106880187988e+00
3.673091991519070870e-02,-9.480639790629294961e-01,9.315023557936135123e-01,1.248959700438292660e-03,-6.482062875325820747e-04,6.274703988713213696e-04,1.628376603126525879e+00
-8.075246419367113071e-02,-1.128644975789700799e+00,1.063450780160077658e+00,7.655992492569957397e-03,-1.818722975163648281e-01,-4.234839550597599422e-03,1.925030946731567383e+00
-3.788026525060075866e-02,-9.702130052377195835e-01,9.398949646582814843e-01,-3.421911098753498137e-03,-4.487839778054521396e-03,1.811075388840690430e-03,1.654389858245849609e+00
-3.605377101409922014e-02,-9.949041712908232027e-01,9.610684785614654890e-01,-4.600673517580590802e-04,2.326690054986446134e-03,6.335243474669535399e-04,1.694035410881042480e+00
-1.201649822958385239e-02,-1.680546904962066046e+00,1.420688354553933275e+00,2.060197911342000199e-01,-2.081079989016513809e-01,1.150266032717609799e-01,2.743009567260742188e+00
-3.884286415456805752e-02,-1.048777188658122528e+00,1.037656151154282336e+00,3.831797967658080034e-03,1.160881545735516912e-02,1.920025797713881830e-03,1.807337880134582520e+00
3.169720310973399291e-02,-1.140995519079263776e+00,8.573159271345368593e-01,1.268696954305263414e-01,-3.258895012322131080e-01,-4.532472564717363039e-02,1.843397498130798340e+00
-4.669346972617102742e-02,-1.012018005710182633e+00,9.579565023116510813e-01,-9.920538050081249490e-03,-2.684827262112652463e-02,-1.199847275147113146e-02,1.707007884979248047e+00
-3.786662864338630197e-02,-1.189134772693289488e+00,1.022420625744181688e+00,8.557954056627641373e-03,-2.445828546243679069e-01,7.727472792343666186e-02,1.966697335243225098e+00
-5.541136026266130915e-02,-1.015521316538149144e+00,9.948311835184756591e-01,1.656330912527763030e-02,-5.192759638837526198e-02,3.161737049808088611e-03,1.744164943695068359e+00
-4.428383142937238753e-02,-9.818418624565002917e-01,8.676927569199832657e-01,3.242476962757893238e-02,2.305893462433127733e-02,8.817316355491962299e-02,1.610534071922302246e+00
4.256928351453234671e-02,-9.923206464868423726e-01,7.700211883316198103e-01,-1.148971547353092731e-02,-1.216892595488815176e-02,-1.087511050021230420e-02,1.534343838691711426e+00
2.229677626899850829e-03,-9.583571238174497520e-01,8.375754386519261852e-01,-7.040699122537280759e-03,1.165741406145668659e-02,1.856642894644696881e-02,1.557094097137451172e+00
1.239547192198051789e-02,-9.713566395123367503e-01,8.179486117477545726e-01,-1.341203201746089119e-02,1.892160480292497116e-02,-2.088676854516833756e-02,1.553084373474121094e+00
-1.398510855983870621e-02,-9.554391047275261339e-01,8.292706127043584230e-01,-2.505801840729329679e-03,-4.713328442959287441e-03,2.685316251580378150e-02,1.547110557556152344e+00
2.483977536540664388e-02,-9.348980800408082104e-01,7.076183263305121374e-01,7.430206660073418630e-03,-1.376444831165322090e-02,3.561495032185137133e-02,1.430772900581359863e+00
2.998717977000357748e-02,-9.595191080402225570e-01,7.231271523912661259e-01,-7.501207460212256511e-03,9.624906196314769041e-03,5.156057586103130613e-02,1.467601537704467773e+00
3.811902174593676668e-02,-9.540740128346483218e-01,7.341380882473766967e-01,5.827733660854636510e-03,-1.627030611627285767e-02,4.233090459341237732e-02,1.471647620201110840e+00
-2.650394512012012316e-02,-9.804946594415919758e-01,8.902646575260979578e-01,4.208999210115151567e-03,-2.736943241062991111e-02,2.500684088919152837e-03,1.620947480201721191e+00
1.599450860773392324e-02,-1.009669591593777449e+00,7.304514777846385920e-01,-1.960776515259242750e-02,-3.097606433550412208e-02,-6.722039912680202733e-02,1.520794630050659180e+00
-4.327333049606606891e-02,-9.934435767097307135e-01,9.516043488225063296e-01,-3.788365546742988258e-03,-3.415433334084695682e-02,9.342868684294219211e-03,1.685738086700439453e+00
4.903814109969897861e-02,-9.445491194487437570e-01,6.427869370289843731e-01,8.780680130953111978e-03,-4.846630987581931199e-02,1.481312617189147439e-02,1.391988158226013184e+00
5.527088347720963968e-02,-9.368017805088795225e-01,6.058774167766496355e-01,6.842018177207528223e-03,-4.355210335161490559e-02,5.322073544915155441e-02,1.359391570091247559e+00
4.477922807443379671e-02,-9.489424476688117505e-01,7.056940706799545993e-01,3.995109340621031541e-03,5.835508421553731694e-04,4.346105510536562438e-02,1.444566369056701660e+00
6.462004413791425095e-02,-1.017280345156895915e+00,6.965011632971922495e-01,4.602461475477997652e-03,-1.387746035130596467e-02,2.929609955473378574e-02,1.502208590507507324e+00
-3.151245166014493559e-02,-9.766707742666178582e-01,8.956184341876091137e-01,1.104933720405277923e-02,3.826459142057944771e-03,-4.091881821157404564e-03,1.621617078781127930e+00
6.803067833082211691e-02,-9.326691534474896850e-01,5.983619768506638348e-01,1.803773595241192976e-02,-2.890405642048768028e-02,5.449780874795287500e-02,1.351201772689819336e+00
-3.318707171217542828e-02,-9.937173101144638476e-01,9.633100062510919770e-01,1.745328961557966480e-03,2.900215805655481822e-03,3.332843515910611587e-04,1.694941043853759766e+00
-3.871741842887495288e-02,-9.747120310705864599e-01,9.235182006902790119e-01,-3.313340935357223221e-03,-3.341521996750797426e-03,-7.138331532530664894e-03,1.644034624099731445e+00
-5.058320978339540808e-02,-9.606713130702689840e-01,9.373551944770333044e-01,5.475035637681195015e-04,-1.333296610586837258e-03,5.797642754314979822e-03,1.644232511520385742e+00
-1.501299041811616358e-02,-9.749268927263248230e-01,8.750577296008529293e-01,-1.259069067499925254e-02,1.760208264050155957e-03,1.089761078734951356e-03,1.602666616439819336e+00
-4.239349767290867543e-02,-9.722359001088949348e-01,9.361644317206725407e-01,-9.719336104202108174e-04,-6.502626693822865546e-04,4.614866656936846522e-03,1.652923226356506348e+00
-4.314944122489600825e-02,-9.610580622658071448e-01,9.372659205651155956e-01,1.822594687435727346e-03,4.807897612058631420e-03,6.159666820599601564e-03,1.644352555274963379e+00
-3.903038520886786128e-02,-9.792858292151507271e-01,9.393036930560467734e-01,1.268181884120531350e-04,4.256632708810795425e-03,5.076809868098577233e-03,1.661695957183837891e+00
-5.070319838629902542e-02,-9.354656773596536912e-01,9.219551192381520988e-01,1.333933198891292795e-03,1.883191224927177132e-03,3.329121775498376009e-03,1.609189152717590332e+00
-4.801047483392248405e-02,-9.803474294364330488e-01,9.477182190354961344e-01,-1.780267765913844591e-03,3.656007911014226043e-03,4.779818794152681030e-03,1.670089960098266602e+00
-4.878286702189488927e-02,-9.634925974686050498e-01,9.406749894666011080e-01,-2.184308679884463221e-03,-2.726586342224170036e-03,4.425467277437158953e-03,1.649509906768798828e+00
-3.579322819579434933e-02,-9.799344929341671229e-01,9.437652750215943520e-01,-4.308073044618699297e-03,7.400902793885368904e-03,3.609967492009116992e-03,1.666144728660583496e+00
-3.259779761328740477e-02,-9.752433029699710820e-01,9.256477170460111203e-01,-5.912118879159315721e-03,3.782982757715409351e-03,-8.614862291800379906e-03,1.646350860595703125e+00
-3.718310989274094258e-02,-9.837811247626807587e-01,9.480758333075227640e-01,-1.886748044518514900e-03,9.496303662240648813e-04,1.601744226914097752e-03,1.673155188560485840e+00
-3.629430622231617776e-02,-9.926916110168185758e-01,9.553148372553171841e-01,-8.277260426917192396e-03,-6.271376912734551515e-03,3.384494332460803289e-03,1.687221050262451172e+00
-4.225908651833699958e-02,-9.717679630605007279e-01,9.482928380667958734e-01,-3.837189297596280916e-03,-2.320454960864069306e-03,2.765850206672284574e-03,1.663126587867736816e+00
-4.969153940708556649e-02,-9.890308579222297780e-01,9.490584267554151854e-01,-3.943364916076125964e-03,6.233973056142087799e-03,3.453023975846287400e-03,1.678756713867187500e+00
-3.541277510041325460e-02,-9.860640449802711149e-01,9.587862686650518995e-01,-3.508208712345113525e-03,-1.448482512412441973e-03,6.019747903218005368e-04,1.684443712234497070e+00
-3.647732217711582847e-02,-9.945675086369152318e-01,9.579416794939650259e-01,-4.180880702161695640e-03,-4.522245462058726371e-08,-7.280268655493302328e-04,1.691036105155944824e+00
-4.750338090714894407e-02,-9.901713694421361289e-01,9.538082088634247668e-01,-4.331426854923485503e-03,-1.291571260871017318e-03,3.763696647818605152e-03,1.683821797370910645e+00
-2.756301567631839755e-01,-1.387340582330955363e-01,1.231008911791360516e+00,-2.551233091221468893e-02,1.801130959331817202e-02,-2.820316169418667085e-02,1.444908618927001953e+00
-4.725146166741676229e-02,-9.681628812692564257e-01,8.970959871681759568e-01,-6.619670032709422218e-03,4.657180142696759270e-03,-2.953593795423142734e-04,1.615464925765991211e+00
-1.381728394654579278e-02,-9.894229807758088135e-01,9.629227703029005214e-01,4.526086802530162570e-04,6.488467141349132418e-03,-1.092391090005128849e-03,1.690819740295410156e+00
-2.324702014334835767e-02,-9.830636028170259832e-01,9.621950156818935840e-01,-1.328600158570256845e-03,4.054304701330302754e-03,5.993127536026965872e-03,1.684740304946899414e+00
-3.445722440493967365e-02,-9.984616032315170031e-01,9.702598975362934919e-01,2.074421565817825982e-04,1.268484882718372850e-03,4.802849372660232558e-08,1.705085754394531250e+00
-2.023777313406419781e-02,-9.908510076186527460e-01,9.601874365607402373e-01,-4.279272571799727989e-03,3.578809282551826190e-03,-8.109456545209818828e-04,1.689684152603149414e+00
-2.216702623731099317e-02,-9.932399793048138914e-01,9.630093156736994064e-01,1.072457219577793415e-03,5.413529502437426123e-03,-1.111065008400048887e-04,1.694203257560729980e+00
-2.088321394004682627e-02,-9.949031228898153056e-01,9.635470344601242410e-01,-6.051490001237308080e-04,3.805685351533826845e-03,4.013233780603644822e-03,1.696102976799011230e+00
-5.188626168278545614e-02,-9.856073035156135420e-01,9.545112270106594909e-01,-5.471313492449511942e-03,2.504140593646272516e-03,4.003838888881517885e-03,1.680631518363952637e+00
-6.088192851805812600e-02,-9.815127489403847605e-01,9.383779716422900874e-01,-6.020049347815690718e-03,-9.854004228806729614e-04,5.764762459887866168e-03,1.663202404975891113e+00
-4.731767071110048323e-02,-9.803359403500270242e-01,9.289694823469569762e-01,-5.464925482482284845e-03,2.484742329493918982e-03,5.130190583279666504e-03,1.653705120086669922e+00
-3.427344445783321591e-02,-9.903624095822989304e-01,9.440181938772019832e-01,-8.279400520555150328e-03,4.854580289221780906e-03,5.409831832473833285e-03,1.675368189811706543e+00
-4.237762200312995831e-02,-9.903805306116535423e-01,9.532615472170256066e-01,-3.547464770323768488e-03,-7.279822065522078027e-04,2.347443217883749943e-03,1.683428525924682617e+00
-6.099202936283781851e-02,-9.833544126471540636e-01,9.467757392287418083e-01,-5.814987269540165989e-03,4.548038308298228000e-03,5.882365534310959702e-03,1.672167062759399414e+00
-2.341486140634979271e-02,-1.025456864174061122e+00,1.002175048103089106e+00,-7.132488881938342865e-03,1.810186526203405241e-02,-1.102393529882609441e-02,1.756447315216064453e+00
-8.351281466237200912e-02,-7.336443245752676257e-01,9.416234401548685407e-01,-1.009006371969385918e-01,2.945727983275499284e-02,3.708542375845318151e-02,1.475574731826782227e+00
5.211308186049111446e-03,-1.016150835688730103e+00,9.692566774464981272e-01,-1.806618228362972742e-02,4.566944082635719313e-03,-6.081041234451555963e-03,1.719987273216247559e+00
-2.623637027873222324e-02,-9.281113870536511490e-01,9.427323374061281624e-01,-1.890128788663311341e-02,-1.189316547886340621e-02,-8.977936860191735712e-04,1.621007800102233887e+00
-9.063894188346563463e-03,-1.004364107424055019e+00,9.831398906192752030e-01,6.827748854252690524e-04,-4.642152070598553129e-03,-5.989114010214723624e-04,1.721249103546142578e+00
1.697619849075372722e-02,-9.968343761857684227e-01,9.704455382153385212e-01,-1.812300902066458011e-02,-9.538964975315353256e-03,7.053643050746911947e-03,1.704394459724426270e+00
1.827131378569848974e-02,-9.804936074206129781e-01,9.628672010406856829e-01,-1.078366716011055527e-02,-8.809340199592749152e-03,5.872188324416961584e-03,1.683421254158020020e+00
-3.180420401668077740e-02,-9.645356078884610440e-01,9.117206868259718489e-01,1.567415303022466882e-03,-1.813096695551263656e-03,-4.057374612806979516e-03,1.624915122985839844e+00
1.807839198966957120e-02,-9.537167931855743408e-01,9.437651787902513467e-01,-1.276945735654640493e-02,-6.892220777482466545e-03,4.139669365274707409e-04,1.643621683120727539e+00
-4.610412854128574656e-03,-9.757367017977290891e-01,9.533318943445724392e-01,-3.799445441806522175e-03,-6.600850038349224957e-03,6.673788507697556898e-04,1.670687913894653320e+00
-3.439619301087243342e-02,-9.661360147079610661e-01,9.291709904893818983e-01,-6.818760027407057278e-02,-4.546511361829743553e-02,-1.346137432078877982e-01,1.664003372192382812e+00
-1.467810538497814621e-01,-5.061072469865234291e-01,8.544946868506836379e-01,-6.596570116755900472e-03,8.760141025960961614e-03,-1.385592295338387847e-01,1.244752883911132812e+00
-2.898570936499170799e-03,-1.018671318471286114e+00,1.013227334059780382e+00,2.018705394922035504e-02,1.058423799103941181e-02,6.346755594002854647e-03,1.760153055191040039e+00
-1.062104170715439944e-01,-7.589452328871801878e-01,9.219615197031357789e-01,-9.604703127295314505e-04,1.094084561627891965e-02,-2.424586940150352810e-02,1.468485355377197266e+00
-1.235368699122518510e-01,-6.538572662018995452e-01,8.747895748503520252e-01,-1.291271460618407252e-01,-8.209763513664670997e-02,-8.271973998627586699e-02,1.377714633941650391e+00
-9.800169700065883283e-02,-8.449473915352044839e-01,9.133039130031878061e-01,2.145450236876395717e-02,1.074411214785855710e-02,1.734398508453717123e-03,1.528984427452087402e+00
2.899268329283645473e-02,-9.453750666816365111e-01,6.860053868183877412e-01,-1.688627686539241612e-02,4.155224263681293190e-02,6.157664432523145270e-02,1.427809715270996094e+00
6.851402345258950088e-02,-1.102276353142426890e+00,7.307904912808333986e-01,-6.716529434375589913e-03,8.269528243502956288e-02,-1.871741541378088222e-02,1.614450097084045410e+00
-4.253488098358716718e-03,-9.790551966768635817e-01,8.008716553517015724e-01,1.695370971918702327e-02,9.021953739306166897e-02,-3.276514979390598992e-02,1.552998304367065430e+00
1.380058438614875649e-02,-9.570816233191112854e-01,7.505199526547936539e-01,-1.190044869872274036e-02,1.672508893299389302e-02,3.570550033023969783e-02,1.485168099403381348e+00
-3.767491171045983522e-02,-9.955344690570687716e-01,9.672527179577380396e-01,-3.888422351626135863e-04,4.102407713642420683e-05,-4.935154964084751891e-03,1.700008153915405273e+00
-4.109434531603896323e-02,-9.452021523434240846e-01,9.249389341790149599e-01,-1.307216299083305364e-03,5.266169007260457224e-03,-1.023807311268696424e-02,1.620009899139404297e+00
3.064957548698990508e-02,-9.662745392308622616e-01,9.397636125059934953e-01,-1.624932903081804155e-03,-1.242507031588292385e-02,-1.823507070453971035e-03,1.651406884193420410e+00
-3.954365188499794903e-02,-9.734565489371466152e-01,9.356528326671159634e-01,1.060483087859033502e-03,2.835512016991219297e-03,-4.127263218332231573e-03,1.653489828109741211e+00
-4.127770998838949101e-02,-9.658089860647648406e-01,9.385605572212798453e-01,1.894827469059487835e-03,3.780474794453076489e-03,3.035569974242147574e-03,1.649488925933837891e+00
-3.534989731237420801e-02,-9.903259074145662755e-01,9.607315155364641868e-01,2.999125476815950059e-03,-4.060352343231285986e-03,-1.658434022239087930e-04,1.689812898635864258e+00
-2.731257359625141254e-02,-9.977015249828284915e-01,9.667693980785418972e-01,1.364685339183482763e-03,-2.695143611485140839e-03,-1.351908587492406692e-03,1.701332569122314453e+00
-4.445202495303652440e-02,-9.614119521526516277e-01,9.363492700537128233e-01,4.609713189958700445e-04,9.013356597042819680e-05,3.915463420548623806e-03,1.643833518028259277e+00
-6.929454757587849567e-02,-9.697525976585831264e-01,9.222313115379150439e-01,-3.514934782767185212e-03,-1.790105380044120301e-02,-3.900337999967043445e-03,1.639457106590270996e+00
-6.800074719199293571e-02,-9.695036952550275533e-01,9.224087434486849535e-01,-2.336360978335659446e-03,-1.918878581303851485e-02,-4.987931891632269021e-03,1.639411807060241699e+00
-7.935099305652708324e-02,-9.657360482529185886e-01,9.224094439363925702e-01,5.861697834804265946e-06,-1.030835159214220538e-02,-3.773449843713864733e-03,1.636309742927551270e+00
-7.421723083473816263e-02,-9.706243475440932134e-01,9.291255365527708587e-01,-3.310399182278931859e-03,1.411537444948084054e-03,-3.790152297280031078e-03,1.646125197410583496e+00
-3.699735035684142276e-03,-9.796555163423757984e-01,9.526082570561608120e-01,9.244762250609071808e-03,-1.763048067398233568e-02,-3.185076534848532877e-03,1.673782587051391602e+00
-2.262440955321064207e-02,-9.847672996772371956e-01,9.616521318073499858e-01,-3.908809331134815816e-04,-7.341698949026048519e-03,3.508597033860725439e-03,1.685744047164916992e+00
-4.141626613711642951e-02,-9.839830903663228101e-01,9.605067685585527704e-01,8.643529830945538561e-03,-8.959555240478405541e-03,-4.401765987732803725e-03,1.684394359588623047e+00
7.919286165121159141e-03,-9.773781634244954608e-01,9.505836909849026961e-01,1.966680187080824087e-03,-8.211901521894753725e-03,-9.691503438312423432e-04,1.669864892959594727e+00
-4.654606699075745924e-02,-9.463564980071077493e-01,9.310409921560065527e-01,-7.292222486244149659e-04,7.790943787899589149e-03,1.308046721596908130e-02,1.626553177833557129e+00
-1.623359079104233146e-02,-9.847426038979145702e-01,9.596583198451331675e-01,-1.372930063332775726e-03,-7.592050702164146632e-03,3.473420877111642498e-03,1.683968424797058105e+00
-6.754953923111369635e-03,-9.841190050782089305e-01,9.577112724218771467e-01,-4.273370495199419090e-03,2.533673929022168397e-03,1.904785571493770261e-03,1.681711912155151367e+00
-3.672468712829428383e-02,-9.960895695015065110e-01,9.657877754251285030e-01,1.330649068130594853e-03,-9.108882386675221034e-05,-1.688820975097474284e-03,1.699176669120788574e+00
-3.794245924295823469e-02,-9.849667414707572455e-01,9.556448752214540265e-01,3.730643084698193404e-03,-4.644067723776914257e-03,-1.019331901726778589e-03,1.680812835693359375e+00
-3.545077039969304206e-02,-9.969308056878952717e-01,9.682977794984914954e-01,1.766522736685111322e-03,-2.215226722464460046e-03,-1.204431537026887317e-03,1.702077388763427734e+00
-3.419458844731021463e-02,-9.986785129981059494e-01,9.685932350556314407e-01,2.448709826097695760e-03,-3.757582886871757219e-03,-2.425630553562420258e-04,1.703832745552062988e+00
-3.479505095193027170e-02,-9.998845786505152766e-01,9.707571729569403063e-01,-4.731695765336972571e-04,1.277858062787821805e-03,-1.103005572385329852e-07,1.706747412681579590e+00
-3.622154959996384815e-02,-9.962219444616671193e-01,9.621711695055055191e-01,-9.606789371439769423e-05,2.953967852349474038e-03,2.391275156047142816e-04,1.696134567260742188e+00
-3.533614772835889928e-02,-9.936394210611787514e-01,9.635578533950309721e-01,2.581288460542466735e-03,-3.837297715503635545e-04,-1.451888352544648125e-03,1.695111989974975586e+00
1.766336384430385043e-02,-9.715669694374309273e-01,9.965136452980470905e-01,-5.992826045850638272e-02,-1.111555214817560623e-02,1.478275234110614303e-02,1.707873940467834473e+00
-4.067428459221701653e-02,-9.876678946700057082e-01,9.432402432769017020e-01,8.698597609051353374e-03,-5.098663069761541836e-03,4.214177220671910806e-03,1.672424554824829102e+00
-5.819345265117003424e-02,-6.893722105496616903e-01,8.711962573595917192e-01,-3.673643205102768150e-02,-2.640570125794572398e-02,4.019268228540425619e-02,1.363726377487182617e+00
-3.059714062423068287e-02,-9.958052161773888189e-01,9.601612384082857110e-01,2.143657427437023911e-03,-2.237350517444543739e-03,1.149367545251310995e-03,1.693974494934082031e+00
9.369983205569247520e-03,-9.819735976108976416e-01,9.531534518196116412e-01,9.285595132851095362e-03,-5.363293334450505365e-03,-7.125073171225944878e-04,1.676141262054443359e+00
9.324487496479552662e-02,-9.121200832236010525e-01,5.209458228542722669e-01,-5.250522628077262596e-03,-2.903282918579325536e-03,4.880450127767493353e-03,1.274308323860168457e+00
1.091116969289447451e-02,-9.652055883835709560e-01,9.485592957203277109e-01,1.669431720121340723e-02,-6.888073899106705519e-03,-4.438043118869612960e-03,1.657793521881103516e+00
1.589516167376997524e-02,-9.707627112669504621e-01,9.471681152216353539e-01,-1.914343674784778175e-03,2.746001335966823890e-03,7.412781587970311342e-04,1.661218285560607910e+00
2.531410992362757503e-02,-9.665879783286845939e-01,9.418138390220812672e-01,3.079199569481699990e-03,-5.596631433839842004e-03,-2.681959018608996107e-03,1.653198003768920898e+00
-1.903354797106028840e-01,-4.673193486342842040e-01,8.594847215468220947e-01,-1.231877488263337372e-02,-1.655625375466631549e-02,1.437048594596142259e-02,1.213063478469848633e+00
-5.210181081169525108e-02,-9.873380876853893318e-01,9.577265866401198924e-01,-4.801463527152576970e-04,-5.447310907902094997e-03,1.375638577585420672e-03,1.684916615486145020e+00
-3.590313845823004529e-02,-9.889601668937291201e-01,9.517502509673551048e-01,-1.727299690957898818e-03,2.133255661335889831e-03,2.470391267901315881e-03,1.680805683135986328e+00
-3.861957948455971290e-02,-9.849833649023296278e-01,9.546941013193784853e-01,-2.976309968211526043e-03,-5.642940466114393545e-03,1.251537118110368756e-03,1.680011749267578125e+00
-4.003475389653692040e-02,-9.725480614420579650e-01,9.356602793801463980e-01,-6.018608910323263329e-04,-2.559945385352624912e-03,5.352986780495543528e-04,1.652704477310180664e+00
-6.559071014913578357e-02,-9.816663526700318831e-01,9.476046588991166031e-01,-6.800158907257063687e-04,-1.031185388592035720e-02,-1.116127194428397432e-02,1.671710848808288574e+00
-3.923186628497539463e-02,-9.771115639570943090e-01,9.505791525058761016e-01,-5.368906615510395802e-03,-8.923031958639866812e-03,4.281109969531467219e-03,1.669744968414306641e+00
-8.377230160066091724e-02,-9.752820719830291862e-01,9.455223503906413640e-01,-1.892006895142201795e-04,-1.739485225827490725e-02,-4.451865417574060561e-03,1.665181875228881836e+00
-3.348471758073949534e-03,-9.776454735553117281e-01,9.545710200232188081e-01,2.218998499089784495e-03,-5.554492013230497710e-04,2.680018276552746138e-03,1.673379778861999512e+00
-4.872457341835563505e-03,-1.004388463621062488e+00,1.080858526735415603e+00,1.719507464841940614e-01,-1.604695209575016795e-02,-1.929761222971241447e-02,1.831294775009155273e+00
-7.181914851464675509e-02,-9.759351844656737329e-01,9.452517155681799954e-01,-2.841485753059427681e-04,-9.098045262684702900e-03,1.496827304318387817e-03,1.664831638336181641e+00
-3.533060047117644875e-02,-9.828973279580506262e-01,9.454862820444767113e-01,-3.805846667773644422e-03,-3.316577678588437418e-03,3.257630965817633409e-03,1.670144319534301758e+00
-2.952212919745834246e-04,-9.927353081748819807e-01,9.651591567006641004e-01,7.656134252409367916e-03,-2.851192774323018254e-03,-5.523651531883940619e-03,1.695726037025451660e+00
-8.008143684618783398e-02,-9.939224938003805576e-01,9.822640496598757931e-01,-2.684977209668354143e-03,-2.419952943721608019e-02,4.067916469605866001e-04,1.713556885719299316e+00
-7.543540762405531730e-02,-9.726208517711689705e-01,9.318504681525794364e-01,3.775561993370952531e-03,4.673617056374325916e-03,-6.061090605530862312e-03,1.650305151939392090e+00
-7.687032338648122631e-02,-9.717550159939520871e-01,9.341266671409694800e-01,4.684220534582002153e-03,1.923525985126707527e-02,-3.862543656865753162e-03,1.651932120323181152e+00
-6.820863999706179570e-02,-9.800621557591395749e-01,9.588565001276683208e-01,8.665295464253336888e-06,-7.598817588119641427e-03,-2.740055331617580539e-03,1.680198907852172852e+00
-7.523387838013559370e-02,-9.662225737465195419e-01,9.227120009030989056e-01,7.331619303457821528e-04,2.057553824248692029e-02,-3.623286902722163842e-05,1.637127637863159180e+00
-8.165537914006562592e-02,-9.674016743527465989e-01,9.289246704009097577e-01,6.429637819899692826e-04,1.005842857108423319e-02,-3.905408795887360326e-03,1.643559098243713379e+00
-3.770815596911875067e-02,-9.684310305741382630e-01,9.492660982110225909e-01,-2.308050098510032021e-03,-5.307874821697349671e-03,1.199565777098596069e-03,1.661044120788574219e+00
-3.730605161859938679e-02,-9.681978412174079285e-01,9.435996111963416144e-01,-5.287266014411911002e-04,-8.308592418914418840e-03,4.483649825164310286e-03,1.655935049057006836e+00
-3.518870233208538922e-02,-9.820408473381748715e-01,9.436555468666203428e-01,1.261080340398750346e-03,-1.433023430467956268e-03,2.703135668491116368e-03,1.667788505554199219e+00
-4.960485233379492709e-02,-9.889536853697391550e-01,9.656266313409037627e-01,8.418247554258401774e-05,-5.019051758565830010e-03,-3.402750286769515211e-03,1.693174004554748535e+00
-4.767115459746559814e-02,-9.874136808483184868e-01,9.552983229893466932e-01,-5.411737642330661846e-05,-8.010455000456903271e-03,-9.022965818196330978e-03,1.682864665985107422e+00
-3.909763950871975036e-02,-9.734412153395746170e-01,9.296409711585265079e-01,-3.312111397188336002e-03,1.279465421584142842e-03,4.960729487841090100e-03,1.648241162300109863e+00
-5.566413833684949464e-02,-9.959849515671818088e-01,9.752878142297066733e-01,1.390156789621488235e-03,-1.187709868981222730e-02,-9.550927893062203036e-03,1.707979321479797363e+00
-3.609179055524799895e-02,-9.803049555880194443e-01,9.431140552571205538e-01,4.801462785060616606e-03,-3.593580003499709935e-03,-5.720861474475283544e-03,1.665883421897888184e+00
2.534838156855332564e-02,-9.494959077341614817e-01,9.372512145009691542e-01,1.734762182840375241e-02,2.640089883071311799e-03,-1.747866644516997598e-04,1.634556651115417480e+00
3.556565007154594699e-02,-9.590477555024822243e-01,9.350097029847609376e-01,3.670422273124763698e-03,1.173736292011875277e-03,1.905096750505582326e-04,1.641005516052246094e+00
3.033156050740734577e-02,-9.511336333294148071e-01,9.361861915837227377e-01,1.808872772628468059e-02,1.101872776404222258e-02,5.220893705057209552e-03,1.635340571403503418e+00
3.679252932270467291e-02,-9.491917037124382173e-01,9.314711458217236340e-01,1.007406416252096606e-02,-9.160580909413737927e-05,1.497345061965137201e-03,1.629436969757080078e+00
-8.149150840478500135e-02,-9.697509791074629959e-01,9.305331957453935043e-01,1.319721890886326127e-03,-6.382138716455848515e-03,3.747590911380875361e-04,1.646896243095397949e+00
-7.421940996986194083e-02,-9.694856299628372698e-01,9.270381674934299321e-01,3.656869031814923184e-03,-5.686235713947933312e-03,3.581024403938344505e-03,1.643345952033996582e+00
-7.236149239168371272e-02,-9.760308210692481001e-01,9.428998555794151359e-01,4.044707893528891318e-03,-9.525940901329185001e-03,7.339877166556569611e-03,1.662924289703369141e+00
-5.862196298812154260e-02,-1.161393205592562428e+00,1.005609049706082336e+00,-1.435858892176781381e-03,2.444047811642613421e-01,6.148737366352066691e-02,1.926874399185180664e+00
-7.392251099493007960e-02,-9.621662354263019745e-01,8.932489186511872736e-01,-2.355922291273733742e-03,3.919566067413762789e-02,5.695484779232827793e-04,1.608759760856628418e+00
-4.401622332534775583e-02,-9.843369615682586726e-01,9.377614301358871973e-01,-1.287415128596810024e-02,7.869494350088801146e-03,1.837612914367052833e-02,1.665224432945251465e+00
-8.921611540021907871e-02,-1.070160497897043594e+00,1.028608419881424929e+00,1.624385587423950172e-02,2.127594800323856505e-01,-1.650946324369388998e-02,1.856264114379882812e+00
1.158416234865775052e-01,-9.732005829892873550e-01,2.873306151766208960e-01,-5.327623167008396776e-03,-5.412852871194183402e-02,1.912070056532886031e-01,1.233180999755859375e+00
-7.911598353687454566e-02,-9.891646990396796291e-01,9.842602184570705681e-01,-1.237954550684191484e-03,1.417400434179735304e-02,-2.625026618584386760e-03,1.710938215255737305e+00
-8.084829610989280324e-02,-9.726495862539115134e-01,9.447588464681886400e-01,-1.447422384384017529e-03,7.602207741549254008e-03,4.140226683086160875e-03,1.661941170692443848e+00
-8.351291959563894585e-02,-9.934126812493371261e-01,9.817538121867932510e-01,-3.390177414717526999e-04,-2.625682000485836734e-02,-5.795006577431628669e-03,1.712940812110900879e+00
-3.503322076705252253e-02,-9.995880178440403885e-01,9.695230911386604200e-01,-2.797309087026064300e-03,3.889975726456008573e-03,-3.137832514231025396e-04,1.705437779426574707e+00
-7.789151509895345105e-02,-9.933059089637608086e-01,9.868206815105522445e-01,-1.614933473310712925e-03,9.539112585694661806e-03,5.122493198459516714e-03,1.716568708419799805e+00
-3.111175259097810619e-02,-9.788090858854890941e-01,9.344594656970832691e-01,-8.211579557625053654e-04,-4.051342221740150858e-03,5.483346168153090464e-03,1.657005906105041504e+00
-3.040227447765538743e-02,-9.766746406313944195e-01,9.500981778470167782e-01,-1.255418987296106747e-03,3.275511558636459621e-03,3.902947507071831065e-03,1.668746709823608398e+00
-3.691611141784638395e-02,-9.823699730380482942e-01,9.204412831200760037e-01,6.703610687242440511e-03,-1.382105624403154841e-02,5.549614482962351991e-03,1.648136377334594727e+00
-2.721151214616913949e-02,-9.738827318646493536e-01,9.562413759884778042e-01,2.831820651654301784e-03,1.242504136833169973e-02,3.047246310363319229e-03,1.671791672706604004e+00
-2.695976290002831052e-02,-9.893746719814560109e-01,9.589588102328782115e-01,-1.553417634636472143e-03,-1.654644798404790885e-03,7.917765722519650232e-03,1.687407493591308594e+00
-3.014942865858021362e-02,-9.839562545273632388e-01,9.591751269009517467e-01,-3.376066278549812606e-03,6.675393645803715144e-03,-4.128807948772763442e-03,1.682959914207458496e+00
-3.886970220385944919e-02,-9.942138168802484577e-01,9.643608739270712604e-01,-2.573047822786312354e-03,4.973845369950350044e-03,1.514350873390978057e-03,1.696374177932739258e+00
-4.484902233491730450e-02,-9.902014950705564367e-01,9.548559616827821950e-01,-7.994071688493359709e-03,5.039562503238622683e-03,3.462818085910131759e-03,1.684778571128845215e+00
-4.691497496562462011e-02,-9.724082654432981698e-01,9.416451884780258075e-01,2.741124272151030609e-03,1.344863407495605796e-03,-5.918648920109228703e-03,1.657958984375000000e+00
-2.644677215246160271e-02,-8.294933764548395594e-01,9.087883646783416758e-01,7.073481336866015504e-03,-6.392854687168639596e-03,2.102687606987475259e-03,1.506941318511962891e+00
3.295449912858001984e-02,-9.611377220418735323e-01,9.429414493389652874e-01,1.452037889433507867e-02,-2.079835311386475129e-03,-4.563868650864348099e-04,1.649712920188903809e+00
3.199672086868977222e-02,-9.275938670821235466e-01,9.242036382438723052e-01,1.314131053283981200e-02,8.522920207210859167e-04,1.131568818169029385e-03,1.604220867156982422e+00
2.720813567645728737e-02,-9.651559462194374550e-01,9.434933652467467624e-01,6.036673288709614588e-03,-8.046035899229218857e-03,-5.110947381408430246e-03,1.653491973876953125e+00
3.288099624397192861e-02,-9.568236992447416434e-01,9.360216180025555666e-01,1.591361646519777809e-02,-7.415518261727275552e-03,-2.652042571400229504e-03,1.640111804008483887e+00
-3.886924193697133961e-02,-9.684198903731068286e-01,9.412784245692091822e-01,-2.547405765363789688e-03,4.282019566182950973e-03,-2.926326015267789130e-03,1.654070973396301270e+00
-3.325725277425296833e-02,-9.918001541577515789e-01,9.517564196563347290e-01,-4.208054176688960472e-03,6.104977229023623997e-03,2.496481881199912999e-03,1.683275938034057617e+00
3.090062267006268154e-02,-9.261174328009755818e-01,9.233317539005558849e-01,1.587892030838590485e-02,-5.207757717264510297e-03,2.290289817228349052e-04,1.602257013320922852e+00
-8.019573391450686428e-02,-9.697096596022505288e-01,9.296960844828894288e-01,4.662385614307160489e-04,-2.147618682120115696e-02,3.585779636892802370e-04,1.646455049514770508e+00
-6.544824725690814859e-02,-9.662547680996984578e-01,9.095206522656421599e-01,4.157444899373727992e-03,-1.441302163038959104e-02,4.261922815214802367e-03,1.625116825103759766e+00
-3.678352436022275240e-02,-9.233372127545407260e-01,9.403109949929669975e-01,-2.560805439499452222e-03,2.719667780284000871e-02,-7.870929432847787593e-03,1.615352153778076172e+00
-8.001825624663819192e-02,-9.652102973113563245e-01,9.220852931312485401e-01,-5.522697645926546864e-04,-2.451728971362370293e-02,-1.856993396058399218e-04,1.636042475700378418e+00
-7.436460198214693562e-02,-9.703133752552322022e-01,9.309671857462555877e-01,4.154948596819718100e-03,-3.841468082002692623e-03,4.753397993260820298e-03,1.647515058517456055e+00
-3.104674496748050655e-02,-9.856500287597895760e-01,9.300939988009524484e-01,-7.985453375021038525e-03,4.249829970826686509e-03,4.137711521977993460e-03,1.659175634384155273e+00
-1.221801291341741008e-01,-7.971214706206395384e-01,9.299684595861400505e-01,1.303081457424120140e-02,1.570287369522372842e-02,-1.331156391462291755e-02,1.508138537406921387e+00
-7.300056809586512319e-02,-9.604885832061321738e-01,8.988726902056722867e-01,3.889767066336512810e-03,-2.417602147526138126e-02,2.202777567788249957e-04,1.611365079879760742e+00
-3.251063853957117389e-02,-9.974657446226681268e-01,9.678954629756831851e-01,-5.468585692147588792e-04,1.888403453446110825e-03,-1.546455155611064797e-03,1.702150583267211914e+00
-3.606144842185465826e-02,-9.875160003778288287e-01,9.580093215852100164e-01,1.250821507737669234e-03,6.599365122857170016e-03,-1.304391598600075717e-05,1.685049295425415039e+00
-3.673123375194500828e-02,-9.835237734277899602e-01,9.492276761221679626e-01,-5.386311773477063178e-03,1.183929579360394092e-02,9.015527188353845284e-03,1.674150824546813965e+00
-2.983442278765070788e-02,-9.838337961912742013e-01,9.553037802935456790e-01,2.587045898823686976e-03,3.967153221671787001e-03,6.808758431017060192e-04,1.679435014724731445e+00
-4.113477141138646709e-02,-9.749540079039894502e-01,9.490553835537665073e-01,3.595902173866705534e-03,6.962007149988394192e-03,5.954728940057199896e-03,1.666566610336303711e+00
-3.215483903294824586e-02,-9.953982117167994303e-01,9.629374152995895386e-01,-2.913306768859594970e-03,6.613824576446573553e-03,-2.320039158739266826e-03,1.696094155311584473e+00
-3.313453434680668774e-02,-9.812157360701510012e-01,9.409932187911789203e-01,-3.464390364592769087e-03,4.666422779549813521e-03,-4.090117937119714178e-03,1.664778232574462891e+00
-4.907221316551176049e-02,-1.212963968329737963e+00,1.194907873303550971e+00,7.849076080039441017e-02,-1.193993782819088856e-01,-3.388565851542543750e-02,2.101114988327026367e+00
3.525561836010382422e-03,-9.803055041502577449e-01,8.239248987002195657e-01,1.348485281907075423e-02,-2.269212982655956570e-02,2.831974431028036823e-02,1.566080927848815918e+00
1.720575985270478281e-02,-9.370423615789447158e-01,7.290580105618739148e-01,7.121391668552016184e-03,-1.910579734641279157e-02,4.168608187994396475e-02,1.450195550918579102e+00
-3.851182619991691536e-02,-9.990190480664237205e-01,9.698620503557555672e-01,-1.771870337851549730e-03,1.380084279260443067e-03,-1.430316860651083765e-04,1.705273509025573730e+00
-2.774641351933121100e-02,-9.807615681159096432e-01,9.202303017290661691e-01,1.990876743385816810e-03,-6.000008086788288612e-03,-6.544425107144404875e-03,1.646384596824645996e+00
-2.774432700575351143e-02,-9.742670567136095805e-01,9.017114208352471350e-01,5.728799470274791028e-03,1.362199426421108195e-03,-9.480961140165380593e-03,1.624782443046569824e+00
-1.010948927224347843e-01,-1.499161775912390082e+00,1.568127662938018085e+00,3.158137269259039814e-01,-5.600427560751611994e-02,-1.434362520353162779e-02,2.717318773269653320e+00
-2.377837619118864862e-02,-9.973427475236698037e-01,9.676073327175616079e-01,-1.225681579711086159e-03,1.006640301399529952e-03,-2.335209271736799711e-03,1.701727032661437988e+00
-3.682806307908068066e-02,-9.925620501890988212e-01,9.549887782482266996e-01,-7.232777622831890792e-04,-2.195152103353191150e-03,-4.587736924616685544e-03,1.686748504638671875e+00
-3.494693378220153912e-02,-9.992065152931594030e-01,9.688162975972322011e-01,-1.142382453798093972e-08,6.773572042144059783e-04,-1.093496327521135221e-04,1.704472661018371582e+00
-3.403712594511792977e-02,-9.869758539257925678e-01,9.421537226803952114e-01,8.181265795812584299e-03,3.085913173137804465e-03,-5.770581185844096510e-03,1.670814156532287598e+00
-1.456968001344363661e-02,-9.782042111206025181e-01,9.578666542409594031e-01,-8.471677651178503854e-03,-3.144902918794014162e-03,5.409520400100932547e-04,1.676765680313110352e+00
-1.661315239760187065e-02,-9.835553393281289969e-01,9.604333861668248318e-01,8.762029396460540784e-04,-6.706920362583320035e-03,-4.686438909869926166e-03,1.683611512184143066e+00
-2.400828224941285727e-02,-9.896109438024821570e-01,9.628958440675957631e-01,-3.834074151097174843e-04,6.996283204952430737e-04,-6.789144744510980367e-05,1.690954566001892090e+00
-3.175496346431973954e-02,-9.973888251275334627e-01,9.658253126995813842e-01,2.266760057334284064e-03,-2.509278455152678770e-03,7.757350468382257609e-05,1.700278401374816895e+00
-6.421578170171927946e-02,-1.019620177464803046e+00,1.030148170383263118e+00,8.615645589069531552e-04,-1.285223035223053908e-02,2.974896368609995486e-04,1.776650786399841309e+00
-2.019843455783866260e-01,-1.221791319970414902e+00,1.610031072608396174e+00,4.649541459796450171e-01,-2.349668750079608737e-01,-1.429069307370409714e-01,2.654572486877441406e+00
-1.772105790405930151e-02,-9.921696589436312941e-01,9.606368191420621150e-01,-2.711404097992488847e-03,-8.104542814262547315e-03,-2.737635631195451356e-03,1.691252589225769043e+00
-4.646797655469162014e-02,-9.837778575156993499e-01,9.377372675344841646e-01,5.409513043444288440e-03,3.370680980796383376e-03,1.883648487423827348e-03,1.664285898208618164e+00
2.999455690118988382e-01,-1.660943470331498473e+00,7.235159206547411292e-01,-1.715168777612450235e-01,4.126582550351017287e-01,1.423694286272243759e-01,2.348402500152587891e+00
-4.576504373747766752e-02,-9.824066816718566297e-01,9.546042257893354588e-01,-1.025042918545699192e-02,2.338524479027579567e-03,-3.672955044575003727e-03,1.677914142608642578e+00
-2.862463691591012743e-02,-9.976813439183858101e-01,9.658822334663040854e-01,-1.285756095936544177e-03,-3.669171916999269638e-03,8.554670850456933071e-04,1.700557589530944824e+00
-3.694297539774753225e-02,-9.851078139965162572e-01,9.576908992633424988e-01,6.316564877854953866e-03,-1.216809939359821645e-02,6.066502459712764693e-04,1.682841300964355469e+00
-3.548751440944623858e-02,-9.876557002216949099e-01,9.532133616365644491e-01,4.237832471412356604e-03,-9.411904485187458586e-04,-4.673961190041181490e-03,1.680977463722229004e+00
-1.485224838476364301e-02,-9.747202233548446504e-01,9.038986268847295502e-01,6.645540347520550659e-03,4.381619900767981697e-03,6.439800670033316889e-03,1.627158164978027344e+00
-3.324722541111090057e-02,-9.919108520600341539e-01,9.650469974031178344e-01,-2.012279037008358803e-05,-2.090283416689923523e-03,-2.817400434296815051e-04,1.694895029067993164e+00
-5.133343606558751077e-02,-9.828124172234645739e-01,9.345809412002124006e-01,5.778244814228112106e-03,-3.886223004560043597e-03,2.083018427457673707e-03,1.660782098770141602e+00
-7.164740208437691757e-03,-9.660321156136117970e-01,9.475824423710561550e-01,-1.750889663284444647e-02,-1.554314191400285247e-02,1.416110670789288983e-02,1.657917618751525879e+00
-2.852894039686110217e-02,-9.894180427298699954e-01,9.639142672610070406e-01,-1.059403359555675971e-04,4.784180384032315353e-03,-5.139998994003848638e-03,1.691752672195434570e+00
-3.286986435157963210e-02,-9.935230553142552212e-01,9.568159520326390277e-01,-2.781964342759922059e-03,-1.237915615405158929e-03,2.041755458338970317e-04,1.689113736152648926e+00
3.338228598105755229e-02,-9.455081085523572293e-01,7.033319072213309875e-01,-5.108681415054410445e-03,-3.819540010151763892e-02,9.794149434332467818e-03,1.437918305397033691e+00
-4.602496776565971615e-02,-9.903413021481881628e-01,9.542565685309264412e-01,4.038994883679890291e-03,-5.701587817853292616e-04,-3.490084002892000943e-03,1.684329271316528320e+00
-7.933824251675505868e-02,-9.620503878687938215e-01,9.152629903127741384e-01,5.419356700496179031e-04,-8.623136834778375543e-04,5.533655203987676964e-04,1.626764535903930664e+00
3.871773803284878634e-01,-1.529748757715857277e+00,2.533152327243793356e-01,-2.040472956829567364e-01,2.493620839093796393e-02,5.254472713428588043e-02,1.889702439308166504e+00
-3.552583021818370157e-02,-9.938653860481373448e-01,9.558093474469612216e-01,-2.271081655977082430e-04,-3.166460307043707147e-03,1.293103847819913541e-03,1.688558936119079590e+00
-3.464181499941570291e-02,-9.885981487335685491e-01,9.590026284803344625e-01,-5.048087148975275405e-03,3.148783409283969180e-03,-1.126052020934393974e-03,1.686821103096008301e+00
-8.408441816704789740e-02,-9.735797664319210121e-01,9.468329456297805979e-01,-6.428323303362076888e-04,-5.244545959042235667e-02,2.207598866302920310e-03,1.667110085487365723e+00
-3.112547639473776939e-02,-9.812399138498393292e-01,9.240858828063458486e-01,-4.338119698517647893e-03,9.928242088621875780e-03,-8.598467830022422584e-03,1.650236368179321289e+00
-9.712008166866678560e-02,-1.259374913602288482e+00,1.232300086111470350e+00,-3.618878193234842389e-02,-8.573831101997110571e-02,-1.008482564062457331e-03,2.165480136871337891e+00
-1.281552957665913102e-02,-9.859990034574842577e-01,9.611222805526929980e-01,3.575050524591949063e-03,-1.849608115105842374e-03,3.905663903742556133e-04,1.686271071434020996e+00
-8.805899208216738661e-02,-1.016310930501564069e+00,1.032212697793235101e+00,-2.030585752099704137e-04,-9.773265958469343553e-03,-6.696088495804572091e-03,1.776788115501403809e+00
-6.409896770091726148e-02,-9.817984347923384147e-01,9.032742851696087261e-01,-6.220011371993644338e-03,-8.276738893026468202e-02,-2.137575105737096054e-02,1.639444828033447266e+00
-8.647929828652047013e-02,-8.190207392682097298e-01,9.292943703600703431e-01,2.253924079430697294e-03,-2.812430683556275263e-03,1.700382607021624568e-02,1.520991683006286621e+00
-8.713411213962743429e-02,-9.835467518462405190e-01,9.522823203946976234e-01,6.445939691731876996e-03,-2.447188729203072025e-02,1.285193316469575298e-02,1.678721189498901367e+00
-8.964520280427409893e-02,-9.976638680661114034e-01,1.009760885018796239e+00,-6.227391466144480310e-03,-1.934864091049487769e-02,-1.966763105615218152e-02,1.741801619529724121e+00
4.644074817896338969e-02,-9.431288389591762078e-01,6.864282347159463837e-01,-1.030704017495037705e-02,-1.378747235385315234e-03,1.093677634739201147e-02,1.422261357307434082e+00
-2.000530461708588739e-02,-9.699499958272158606e-01,9.544653034389374291e-01,6.507282881078313257e-03,1.039216917742048947e-02,-8.774076210389804981e-03,1.666842222213745117e+00
-7.771112992231499206e-02,-9.713139527632874692e-01,9.348939056092360200e-01,-1.006640093840863951e-03,2.766259338465387393e-02,2.624828525031522222e-03,1.652598261833190918e+00
-6.228528546801379018e-02,-9.829452058361377587e-01,9.395373578260993730e-01,-1.321998196284848714e-02,1.607686805750399225e-02,1.338279282170257330e-02,1.665964603424072266e+00
-7.499003598669193305e-02,-9.712870652539776772e-01,9.335855324512235542e-01,-4.209247373695447145e-03,5.127028642342329121e-03,4.169489141608839419e-03,1.650678753852844238e+00
-7.954495367901071035e-02,-9.650937353056896484e-01,9.266570413634797054e-01,1.046477381587409758e-03,3.851435511918255891e-03,1.667632861043813453e-04,1.639429092407226562e+00
1.001010205009446735e-01,-9.036545685935812866e-01,5.164459212197193283e-01,3.166088241199999705e-03,-3.379845354282762660e-03,4.459682163724910768e-03,1.264476537704467773e+00
-8.284627722644269388e-02,-9.706569033223887422e-01,9.337668242630670079e-01,-1.715636609562430897e-03,6.912592155525915452e-03,2.642742337027647985e-03,1.650588631629943848e+00
-8.027260844428166231e-02,-9.644457989909711593e-01,9.205674815785133136e-01,-2.165678937812560989e-03,1.639400845661918371e-03,-2.608475047921326052e-04,1.633518099784851074e+00
-1.978245741813145636e-02,-1.017480420595825663e+00,1.010049913882699935e+00,1.368185744537928419e-02,-1.033247548453400562e-02,-6.076261576859875307e-03,1.756248950958251953e+00
-4.761083371102606959e-02,-9.909083922820360879e-01,9.658879933582188437e-01,-5.022701252839227061e-03,1.134452994671328579e-03,-8.382682224332612189e-03,1.695084452629089355e+00
-2.794791293208601438e-02,-9.919127416402632180e-01,9.666141238039746009e-01,4.579190215401179875e-04,-1.070270024657954053e-02,-1.239797449254714866e-04,1.696304559707641602e+00
-2.725547578565457388e-02,-9.946895206211041618e-01,9.642391565367948170e-01,8.110594392172205784e-04,-3.961078642038401432e-03,6.278128005633807230e-04,1.696539402008056641e+00
-3.440480046248782509e-02,-9.829713157443772387e-01,9.300963312825459850e-01,-8.505424430065466890e-03,4.354465323083174869e-03,4.069912280105218716e-03,1.656882047653198242e+00
-4.211625731409805729e-02,-9.872459305590881584e-01,9.428254211142538255e-01,-7.850718806009088918e-03,2.385423718393720448e-04,-1.056111165421194133e-02,1.671764731407165527e+00
-3.772243297426965125e-02,-9.964854520437278484e-01,9.575191183740052736e-01,-7.925453705044419386e-03,4.121849801973276328e-03,-1.666400746669467097e-03,1.692389130592346191e+00
-6.375622222454643828e-02,-9.854942173952923046e-01,9.546481311711625395e-01,-7.620661930854276400e-03,-3.660978733539300110e-03,6.733639211269007311e-04,1.680971741676330566e+00
-3.350644956834743227e-02,-9.792843012523931856e-01,9.369760187366182880e-01,-6.723498767126188588e-03,3.522040949474685226e-03,-7.644230318816015377e-03,1.659680962562561035e+00
-3.226661535376844359e-02,-9.778090012022275790e-01,9.609386191943640743e-01,-2.233245714665071935e-03,1.103885445945521765e-02,-3.695432544947220392e-03,1.679299354553222656e+00
-2.302938745504322371e-03,-9.976433369127737372e-01,9.785955067743571378e-01,7.221787113423400357e-03,3.157470795132624134e-04,-2.301861825693792463e-04,1.711534142494201660e+00
-2.706456944944411053e-02,-9.780884361567028229e-01,9.302529260197555105e-01,8.943391178917380828e-05,1.671182686822059301e-03,1.537568119562220158e-03,1.652679800987243652e+00
-4.012207564116174185e-02,-9.874686460687037703e-01,9.468030485870725377e-01,-3.074383674076188074e-03,-2.721401768392959965e-03,-1.829309106555807030e-03,1.675263404846191406e+00
-3.849958085488210113e-02,-9.932306048849922631e-01,9.558591343475889568e-01,3.846433578343857085e-04,-2.218933727449230600e-04,1.391135022302222510e-03,1.688079357147216797e+00
1.966320932490821238e-02,-9.653044596840939517e-01,9.493791721037372344e-01,-2.664974535681077783e-02,-1.789370922857781362e-02,2.700072299006094773e-02,1.659985423088073730e+00
-3.948403478240703618e-02,-9.321009078615991594e-01,9.400868323784205005e-01,-2.901177239820893947e-04,-1.344154190542653886e-02,-3.136171864811013697e-03,1.622121214866638184e+00
-4.262514756538882121e-02,-9.908284837547423063e-01,9.562162501866500186e-01,-4.581774475016469131e-03,-2.381817694226013096e-03,-3.753218313781760129e-03,1.686416506767272949e+00
-7.826381788296604691e-02,-9.795177122569730388e-01,9.214367719634299903e-01,-5.959738466106541399e-03,5.911682806634465520e-02,9.948903351477442897e-03,1.650312662124633789e+00
-2.671787328254294352e-02,-1.134613041162483293e+00,1.107510483980550298e+00,-8.350926691003501823e-02,1.632961544984592450e-01,-1.546901323558012506e-02,1.967777371406555176e+00
-3.028825379105392138e-02,-9.876529622870015013e-01,9.541340921901391159e-01,1.554085978791605463e-03,-2.825691448847225846e-03,-1.985145123280085584e-03,1.681704163551330566e+00
1.089704289824467050e-02,-9.830439738344718403e-01,9.849767996556709759e-01,4.517109824528194734e-02,-2.044791356675100535e-02,-1.662784715369513763e-02,1.706790328025817871e+00
-4.588337467685807414e-02,-9.802482755340903298e-01,9.271939299100036003e-01,1.848267585841064254e-03,6.868985516566329837e-03,-3.644238896682794587e-03,1.652064800262451172e+00
8.643045244053463444e-03,-9.605687199083463579e-01,9.445725513516112226e-01,1.264995709270466499e-02,1.220731541975847434e-02,2.728912741422051796e-03,1.650272369384765625e+00
-6.847170777171127098e-02,-9.960029856761739575e-01,9.813607083700909284e-01,-5.646550867048244146e-03,1.768033468393790525e-02,-7.517035363233651526e-03,1.713889598846435547e+00
-8.026282364220710397e-02,-9.953673151569126798e-01,1.011953175111741210e+00,-3.377906414256521411e-03,2.736542090177945113e-02,-6.847465939575763175e-03,1.741340041160583496e+00
-9.144975333040893106e-03,-1.126011154272395620e+00,1.143654159833727979e+00,-1.393823470824323285e-01,2.713002831962083722e-02,-4.522710762118559331e-03,1.981012344360351562e+00
1.255229453164087572e-02,-1.039351916001888920e+00,1.001580407777420634e+00,-4.426521621916273963e-02,-1.137959784809314343e-03,1.111374146215349593e-02,1.769546389579772949e+00
-5.910758346645997308e-02,-9.802330693315950416e-01,9.368764998227042673e-01,4.851013182440163177e-03,1.242279544106636695e-03,-5.248842471504342605e-03,1.660735011100769043e+00
-1.047635009525677702e-02,-9.892388107115115403e-01,9.595599081042345269e-01,-1.372228437704366318e-03,8.006805651355723349e-03,-3.513866624977899982e-04,1.687773585319519043e+00
-2.815969113627558168e-02,-9.961665424499138721e-01,9.661832984298437399e-01,-3.435504756746793082e-04,2.689397699369903624e-03,-2.423153770937175799e-04,1.699502348899841309e+00
2.107036594427506848e-03,-9.696196282575748615e-01,8.043596411920861389e-01,-2.029967704568950634e-03,-8.688190016645003233e-03,-8.766581694333166336e-03,1.538798689842224121e+00
5.706314674292944922e-03,-9.580388663593494281e-01,7.956150776239422351e-01,-1.121236003215544952e-02,4.492337139811721121e-03,1.456161811511975587e-02,1.521546959877014160e+00
-2.217332619311797315e-02,-9.885206102601350464e-01,9.618196169811792373e-01,-1.073810015383247539e-03,5.969876011857570310e-03,3.479133964951105704e-03,1.689110636711120605e+00
6.295779676531345313e-03,-9.639045851702416901e-01,9.623931554441447211e-01,-3.922924857530953741e-02,-7.717126810460382333e-03,1.281828659543451064e-02,1.669821977615356445e+00
7.774868900826197374e-03,-1.002813951451436481e+00,9.836082955549131368e-01,-6.434152687313393106e-03,2.185503731343224306e-04,-3.915068870993246991e-03,1.720429420471191406e+00
2.341278712388790775e-03,-1.033189463992168822e+00,1.013594927390934375e+00,-3.060411760603114553e-02,-1.341074666681340427e-02,1.194321045127503915e-02,1.773674011230468750e+00
-3.914447317024163930e-02,-9.601613050054924603e-01,9.437324154672411813e-01,6.051892914589022260e-03,4.319047197055426134e-03,5.321852379516961440e-03,1.649186491966247559e+00
-9.386612153442397410e-02,-5.976817463427335220e-01,8.470489215042438236e-01,1.035635849261854202e-01,-4.509562420652513635e-03,-4.397398152244104408e-02,1.285004854202270508e+00
-4.884975672994451568e-03,-8.551212143926396614e-01,6.376434670649209213e-01,-1.871173116480077392e-01,1.682259517252162051e-01,1.325580353438615966e-01,1.387335181236267090e+00
-7.691717958408945954e-02,-5.607475946046456272e-01,8.378711669877710877e-01,-1.844178244300322400e-01,2.528820512186475966e-01,1.440173858252752608e-03,1.344401717185974121e+00
1.297696591910481312e-02,-9.582944052607512697e-01,7.649884549296397385e-01,9.919929825396019835e-03,-5.215719969274972521e-03,-8.665661663399418582e-03,1.496629118919372559e+00
-8.167057248928880075e-02,-9.839670076593574066e-01,9.769272016324109797e-01,1.592564403400968534e-03,2.059714902489410970e-02,-1.380373789946941551e-05,1.700358033180236816e+00
1.849965239234274417e-01,-1.501657198767669676e+00,6.589566268569476692e-01,-2.359966796697017255e-01,-3.608252947186684212e-01,-3.572150960842974121e-01,2.193016529083251953e+00
-4.040500964509270015e-03,-1.067107401717648507e+00,1.132468711905741499e+00,-1.386380826424815638e-01,-9.922040862537513661e-03,-2.783813046428493254e-02,1.920997500419616699e+00
-2.862432972004868431e-02,-9.827442248040115791e-01,9.716545551598063657e-01,-1.784477539778204147e-03,1.661447237503222568e-02,-2.342467506700777243e-03,1.692968606948852539e+00
-1.695519005807347712e-01,-4.176312958213448390e-01,8.146702385602985208e-01,6.619038200981195927e-03,1.976465664027709287e-03,-5.271982648090118607e-03,1.128994464874267578e+00
7.804717725454712873e-02,-9.354299613147603054e-01,5.126708061189990673e-01,-1.521318143939795649e-02,1.566704380381633843e-01,6.043696665357350256e-02,1.319774150848388672e+00
-9.570196627444979565e-02,-1.018835267610247675e+00,1.245657205768124776e+00,2.156683775062613884e-01,-6.248414620835515687e-02,9.209357581374394419e-03,2.010268211364746094e+00
1.097460537988762808e-01,-1.004011538369876666e+00,5.615226066772917024e-01,-3.180527910976249650e-02,1.150100311765857447e-01,1.030198863923884739e-01,1.422070145606994629e+00
1.052466368677941883e-01,-9.225531388274590405e-01,5.213825340714101086e-01,-2.574531970339011960e-03,-3.282050087893233214e-02,-3.411512583370552437e-02,1.289956927299499512e+00
-2.396224832340800026e-02,-9.715610574566542201e-01,8.971341738023079770e-01,-3.136955606099010255e-03,1.125347353403141626e-02,9.083239051977276546e-03,1.618594765663146973e+00
-5.485410665954595921e-02,-9.823463841392567897e-01,9.300740323734337789e-01,-7.297519069286682002e-03,-1.212974818288604928e-02,-1.725663202657896000e-03,1.656637787818908691e+00
1.241758190888910679e-01,-8.943109560493351928e-01,4.434702039296626319e-01,3.167514156962808816e-03,6.985501647064770551e-03,3.532538243684067280e-03,1.210237741470336914e+00
1.013474165481335065e-01,-9.377077941382028214e-01,5.744263840433615487e-01,-7.688108791239194745e-03,7.384155543401986488e-03,3.518657558167410243e-02,1.341286659240722656e+00
-3.129852951689231222e-02,-9.786202313353580262e-01,8.973667828666456181e-01,-1.386122207448973326e-02,3.210225185349854966e-03,6.160775632614464564e-03,1.624901175498962402e+00
6.581119280909181191e-03,-9.173459615078578544e-01,6.956449881918035372e-01,1.013035556336838311e-01,-2.475671293616522883e-01,-1.968770734055082239e-02,1.476791620254516602e+00
7.397604122115915282e-02,-9.069424337126633651e-01,5.500024246496956204e-01,-9.773822732394250867e-03,7.685782641662419756e-02,5.173727232374075724e-02,1.296835899353027344e+00
-2.478156804519044548e-02,-9.631058918186597984e-01,8.417862243047391502e-01,-1.471494081537314848e-02,-5.599083845248348235e-03,7.206230360795783324e-04,1.563732385635375977e+00
1.198457036093889677e-02,-9.497329208320204330e-01,7.633324588132806010e-01,-1.052022593027685318e-02,-4.489090232268616067e-03,8.565545299455376224e-03,1.487488269805908203e+00
6.501701047986635507e-02,-9.474693581161358624e-01,6.826580409522255977e-01,-2.225959657010128170e-03,6.097281833460211839e-03,9.763548495870296579e-03,1.425613760948181152e+00
7.885472207402556555e-02,-9.190057461694787211e-01,5.746362130591936568e-01,-1.416142806031692354e-02,-3.363484184332537347e-02,-1.218673527768255639e-02,1.319350838661193848e+00
3.079860851900995122e-02,-9.848882825104051664e-01,7.422532178419078974e-01,1.316544214648328413e-03,4.184930326222931901e-02,4.547888834948164011e-02,1.507271409034729004e+00
-3.498587836618937547e-02,-9.933910211815674129e-01,9.584784918489975825e-01,1.193155994866516509e-02,-4.754534621385609131e-03,2.698534333545076803e-03,1.690612316131591797e+00
-7.466047123302296806e-02,-9.903781225168978297e-01,9.650776478293832117e-01,-5.526688261553464737e-03,-3.752618363608827001e-02,-1.163693995274175941e-02,1.696002125740051270e+00
-8.673933207409598167e-03,-9.420919791163963053e-01,7.524594742370911415e-01,-1.223792891520925899e-03,-8.727370237489578964e-02,-3.591870632765293767e-03,1.477816700935363770e+00
-1.639367868798544126e-02,-9.570227850273327341e-01,8.172626557689633975e-01,9.238989045712095102e-03,-6.333104612833695413e-02,-1.633570230127989568e-03,1.541500568389892578e+00
-5.323637375642184533e-02,-9.833406011946191905e-01,9.306858521025599407e-01,-1.388149230646092483e-02,-1.770195432412218026e-03,1.745228373242315670e-03,1.657993912696838379e+00
-3.099419811553477677e-02,-9.845639911174663972e-01,9.518632771525458169e-01,1.607282838804450836e-03,-6.233763335335790190e-03,-9.915493602724013110e-04,1.677097082138061523e+00
-4.522299544793201981e-02,-9.620346305288306477e-01,8.767963994901082359e-01,-6.600872611869548767e-03,-7.698547762018318266e-03,1.280052220929359356e-05,1.592573404312133789e+00
-5.749881531071226320e-02,-9.585255931902758597e-01,8.792469060828349559e-01,-3.049429169763786564e-03,8.251254827407634995e-04,1.808443708325683337e-03,1.591670393943786621e+00
-1.286858462840945183e-01,-5.971838490086760487e-01,8.708927323491221228e-01,7.218038382831964452e-03,-5.210908753272860093e-03,-1.264055146461947124e-02,1.299101710319519043e+00
-5.086518039566619021e-02,-9.836020212636338300e-01,9.510021138085457126e-01,-2.986364123259586598e-03,-1.947706033247677401e-03,-3.732879127683480687e-03,1.675796747207641602e+00
-5.160164801573997179e-02,-9.892649010473991700e-01,9.704443781856613160e-01,-2.813712699358830727e-03,-1.173064897223743269e-02,-1.230170351203891885e-02,1.697944641113281250e+00
-7.736896931576953129e-02,-9.871942805821106726e-01,9.607868266543961866e-01,-9.533466876291682435e-03,-9.475319348576465711e-03,-1.642468483243501517e-02,1.688621163368225098e+00
-3.359894545893150897e-02,-9.913400022305917103e-01,9.609460281568336093e-01,-2.167299957145845789e-03,5.466245515251780263e-03,-2.555973366622130670e-03,1.690865874290466309e+00
-3.163054908378064300e-02,-9.775971590338751183e-01,9.334331251842956645e-01,1.156984638919508887e-03,2.405340131515575509e-03,-1.873879311951093382e-03,1.655037999153137207e+00
-3.648538520275740327e-02,-9.920526897811797751e-01,9.674155962364938688e-01,2.124277684875380302e-03,-3.037050936859032532e-03,-3.283095024588126437e-03,1.697143077850341797e+00
-2.982805943349499042e-02,-9.868664097241808264e-01,8.551659827114128642e-01,8.848452834000715417e-03,8.790794495050341384e-02,-1.752981807688140312e-02,1.603262424468994141e+00
-3.750082258648405192e-02,-9.815839846492677712e-01,9.237321227011675573e-01,1.472127709811713384e-02,-1.073598976016389714e-03,-1.156617864025368154e-02,1.650394082069396973e+00
-3.553951604936059910e-02,-9.731110350969647271e-01,9.427900611722237478e-01,9.872886735493755731e-04,-9.655696808943913662e-03,3.550354701291661384e-03,1.659440755844116211e+00
-7.425075533098383918e-02,-9.727675740623442646e-01,9.332539249629405731e-01,1.698360332893852236e-05,-5.213213243222949989e-03,5.111192355918911393e-04,1.651587247848510742e+00
-3.521056651025369216e-02,-9.829553403795959765e-01,9.456593507749931904e-01,1.166521681652133495e-05,1.693258897192988959e-04,2.876643659868489619e-03,1.670318841934204102e+00
-5.078224815698780675e-02,-9.890088439920108332e-01,9.726169296717355195e-01,-3.454940095861090861e-03,8.775726565824525441e-03,1.015677939956274867e-02,1.699521064758300781e+00
-3.887037848433765042e-02,-9.886097143902293771e-01,9.627789069538749134e-01,4.693544439583183236e-03,-5.742192195095990707e-03,-3.257571896386291486e-03,1.690209627151489258e+00
-4.471232119940800331e-02,-9.627872730755804298e-01,9.526015953292734650e-01,-2.714066901453537038e-03,-7.534370911361904649e-03,3.890704542171415006e-03,1.659320116043090820e+00
2.682891287119701373e-02,-9.529954250002632410e-01,9.358813996686727865e-01,8.640303467585817507e-03,-4.898499867525937107e-03,-1.764771938619526552e-03,1.636291265487670898e+00
9.156248654366934414e-03,-9.733665593111525682e-01,9.481558402568847077e-01,2.948867650872599938e-04,-9.860985324893288551e-03,4.423810609332015642e-03,1.664334893226623535e+00
2.235537555871917881e-02,-9.539145891351367146e-01,7.401627893693520921e-01,7.403174374539711090e-03,4.441248380539962459e-03,1.246644329097621948e-02,1.473028898239135742e+00
8.813058412006861270e-03,-9.756067568423630876e-01,9.489675606014018605e-01,-9.232282226768900608e-04,-1.120366613447671203e-02,3.114718842680106077e-03,1.666999697685241699e+00
5.856177213991355622e-03,-9.635966323833647929e-01,9.443543483393178617e-01,-1.700896245072914788e-03,-8.393559216537144207e-03,-1.971527035812993133e-04,1.652473092079162598e+00
-6.246395452287455824e-02,-9.700286300028130304e-01,9.091021076223759767e-01,7.628443704552107137e-03,-1.458119000888200879e-03,1.080937662821854824e-03,1.627746224403381348e+00
2.918557241089351703e-02,-9.649904094958517975e-01,9.447214970948187851e-01,-2.330434270520400936e-03,-8.427943933515712888e-03,6.713925068942477523e-04,1.654396057128906250e+00
2.476591520958003056e-01,-1.092925752559809283e+00,2.252534235459815459e-01,4.185859875706574723e-02,-1.890084186635692109e-01,-1.539808296583794200e-01,1.396850824356079102e+00
-1.257113612283759785e-02,-8.885061703835375191e-01,7.759858877969544322e-01,6.017041401232234299e-02,-2.789236040890860288e-02,1.495792494278157074e-02,1.446953892707824707e+00
-1.663196376046933295e-02,-9.022503315407939262e-01,7.458865002920282983e-01,2.903251742822067992e-04,-3.869991024040911332e-03,7.645380997420606062e-02,1.434794545173645020e+00
-3.212906995676467065e-02,-9.969598008765718777e-01,9.639730341530468039e-01,-2.971462825042556698e-05,-1.736454072470945491e-04,1.431137295292409959e-03,1.698291420936584473e+00
-2.638495851384952545e-02,-9.641736845484488727e-01,8.492836780960213439e-01,1.447797180041236059e-02,2.468117733709888992e-03,4.600621230720630152e-03,1.571033477783203125e+00
-1.306003188019885242e-01,-8.058079445391592710e-01,9.377402542252284423e-01,1.173693306260163542e-02,-2.948041262159452336e-03,1.333726396012019540e-02,1.523017287254333496e+00
3.559578669110517735e-02,-9.274806159181898657e-01,6.714931655763829443e-01,-3.734577458711629220e-03,-1.418593139007756979e-02,3.632240969521909058e-03,1.394626975059509277e+00
7.151824892783406606e-02,-1.039554010636372317e+00,7.811197780851446559e-01,-2.531211869584406443e-02,1.149686023851898831e-01,-4.754015343111567954e-02,1.604615211486816406e+00
4.036429441204034130e-02,-9.627998164059985431e-01,6.311205094045989616e-01,3.296740663120022868e-02,-1.061763511446399549e-01,-7.663101799581219231e-02,1.415151715278625488e+00
-2.229576212780629008e-02,-9.502619963275478199e-01,8.032994942623284951e-01,-8.530540222812946563e-03,2.012968075103743933e-03,-4.611714289694148275e-03,1.519587993621826172e+00
-2.317617153322609411e-02,-9.892608903454992442e-01,9.633951401754031751e-01,2.850679189682817256e-03,7.074219839273795940e-03,-2.063171975906244633e-03,1.691136121749877930e+00
2.121522376344745636e-02,-9.559649975971563629e-01,7.628712514863711380e-01,-8.551805777631159983e-03,-8.457223108479369408e-04,6.662520639565944376e-03,1.493325591087341309e+00
1.332996490319026672e-01,-1.006157761868476719e+00,4.438842353825003251e-01,-1.702256903579189851e-02,8.213998815246542282e-03,8.677596878649097151e-03,1.322883725166320801e+00
2.634452856335204318e-01,-1.068462590351221486e+00,1.378307236358746468e-01,-2.980357709670403490e-02,-1.051467771655725802e-02,-1.402393123549177945e-01,1.297862887382507324e+00
2.952029166343161926e-01,-1.335240366066402062e+00,3.225862725549313303e-01,1.333458840987869487e-02,-1.844440184731515053e-01,1.809200778821693778e-01,1.704268336296081543e+00
-3.575372049734235058e-02,-9.848043972656651546e-01,9.466444121356035746e-01,-2.463231889108886746e-04,2.812532463003903846e-03,2.548693444634441124e-03,1.672779798507690430e+00
1.119844723424054250e-01,-1.033394044459950978e+00,6.151649468410435029e-01,2.164127053084642649e-02,-1.602875804700430173e-01,-9.017280275431918679e-02,1.498095273971557617e+00
-4.840067291726979359e-02,-9.467247948873253049e-01,8.182893911057574909e-01,-3.838767166449225370e-03,-3.868499277705205602e-02,2.262100073912939966e-03,1.530116200447082520e+00
9.751163225564292436e-02,-9.176503166934443234e-01,5.284249380733585522e-01,9.931307030253229071e-04,-5.300169472624719283e-03,-5.191837517252926616e-03,1.286022901535034180e+00
2.011710275938392856e-02,-6.633673369488108928e-01,3.373008233020886593e-01,6.891943355360335977e-03,8.856287484779569799e-03,-5.518474427960120415e-02,8.911007046699523926e-01
2.799981159478688864e-01,-1.141111481450131970e+00,1.846684744376154153e-01,9.566952563511815777e-02,4.028236921878957655e-01,-1.749586815174774268e-01,1.580903768539428711e+00
-1.008061444064439066e-02,-9.642865839996328514e-01,8.242175159895106518e-01,1.369326375935857668e-02,-1.855975288611561719e-02,1.715561586137844333e-02,1.550849318504333496e+00
-1.024054369920251450e-01,-5.995876990481443514e-01,8.512388944931487123e-01,1.301303035624335087e-02,-8.777262886257816352e-03,1.010572593104678597e-02,1.277422547340393066e+00
-8.225195546216265696e-02,-1.014562869333372364e+00,1.023385519188642956e+00,-5.180144544955452533e-03,-2.130845971854606474e-02,-1.467877772632146874e-03,1.767451524734497070e+00
4.124361524555486547e-02,-9.746583333365823609e-01,7.139273332902335012e-01,-1.419767779259049206e-02,4.279877277751598097e-02,3.028354240508160378e-02,1.475395560264587402e+00
-7.828532140224979397e-02,-9.591365574947988693e-01,8.839547018576988657e-01,-5.296923344946314390e-04,-6.612141179152243586e-02,1.506895638117055659e-02,1.600997567176818848e+00
1.996560833155886783e-01,-1.036732980526125614e+00,3.340950928954142807e-01,-7.657687146408500602e-03,-7.419050343080334058e-03,1.226981789664817607e-01,1.326067924499511719e+00
-1.024906765536777453e-02,-9.318931363804902057e-01,8.116478202364709738e-01,8.236239541699543962e-03,-2.049002127666653753e-02,1.977010751905498159e-02,1.511646270751953125e+00
9.489167649129984228e-02,-9.354610604320243716e-01,5.882707081632396751e-01,1.194236894546735943e-03,5.969313105871052773e-03,-7.851122462506303357e-02,1.353516578674316406e+00
-3.600335211010763370e-02,-9.819877889506454238e-01,9.501980798321630894e-01,4.045595863067488925e-03,2.147592042369203015e-03,3.193141556034413426e-03,1.673470854759216309e+00
4.569385087467758844e-02,-9.215110839181549496e-01,6.346872773152382186e-01,5.875499630087748643e-03,-1.289625928666491249e-02,-4.416285932932298951e-03,1.361152768135070801e+00
2.067577161671339259e-01,-9.168324106364944548e-01,1.265429653273222599e-01,-3.360314846647337317e-02,-1.158291725369461206e-03,9.820108928371153179e-02,1.100492000579833984e+00
-7.519937228822692887e-02,-9.716871425467906720e-01,9.303902642301086212e-01,-7.014152048561199393e-03,-9.272607998099823045e-04,1.621186989518223591e-04,1.648195981979370117e+00
-6.736233207583874893e-02,-1.088718545549691274e+00,1.133119381509557266e+00,-1.868140113716951906e-02,-4.146245012842618427e-02,1.376275994106383217e-02,1.928008556365966797e+00
-8.700233313280204828e-02,-7.955338677393657409e-01,9.172261102009550138e-01,2.101253906392997525e-03,-4.331277541161606542e-03,-1.378048027492796875e-02,1.490858316421508789e+00
-4.467573589184330174e-02,-1.032949026150854266e+00,1.029542313916961938e+00,-5.028028153511632584e-03,-1.489686903408662423e-02,-5.792739299212833638e-04,1.786894559860229492e+00
-7.412668867971469733e-02,-1.016626628681763789e+00,1.039284182727455264e+00,-1.818089737458568767e-03,-3.708891569020602956e-03,7.036942703088073028e-03,1.782576560974121094e+00
-4.018433835196294490e-02,-9.805340244451200560e-01,9.255002288586140491e-01,-5.713997537878035687e-03,-1.764523456817903863e-03,1.740024850408053393e-03,1.650757908821105957e+00
-5.692540581371620390e-02,-9.650998840410034418e-01,8.816016302817736294e-01,-1.424374457617306675e-02,-4.082144981666663980e-03,6.851070296530648463e-04,1.599568724632263184e+00
-5.600735547856731944e-02,-1.050988166493504572e+00,1.065555336997510594e+00,2.807966444682471465e-04,1.294405367483508242e-02,-1.142480270025256206e-02,1.834316611289978027e+00
-5.023700603347147631e-02,-1.045640241541544890e+00,1.060458736366262089e+00,-4.587801552701228219e-02,1.414781708336092930e-02,8.229609863456600199e-03,1.826795220375061035e+00
-3.131919577702815122e-02,-1.622116294811885240e+00,1.456013191734698786e+00,7.486023452966074354e-02,-2.170193793380666425e-01,1.038577217466987376e-02,2.695786476135253906e+00
-6.447283636517114891e-02,-1.022413307778036629e+00,1.048466231775599056e+00,-7.954199719053332406e-04,-9.885821808997055909e-04,2.268727609161198810e-03,1.795113682746887207e+00
-4.590760971136287338e-02,-1.060595816880593789e+00,1.064786507696712903e+00,1.199143958599646446e-03,1.006096865381485989e-02,6.462634642043360404e-03,1.841378569602966309e+00
-1.898179143199437563e-02,-9.808567655348362502e-01,9.615566741533521089e-01,2.450880390266450999e-03,-1.950675188817565034e-02,1.379389803221766839e-03,1.682551622390747070e+00
-2.397358524998644685e-02,-9.933545654705169259e-01,9.579760090201683287e-01,5.943208196502111629e-04,-5.447249605762024237e-03,9.425513069494494958e-04,1.689940929412841797e+00
-7.197324580063371724e-02,-9.643067111014780313e-01,9.165919688732347970e-01,8.823674116933671180e-04,4.272477915413812680e-03,2.607978801938836029e-04,1.629634141921997070e+00
3.722084625012347936e-02,-9.835562280672590640e-01,9.659231775500474182e-01,4.185501566868220225e-02,-1.266904977143400873e-04,1.556604149478729802e-03,1.690483570098876953e+00
-4.298801666871999300e-02,-9.907230842463123910e-01,9.633190305109702312e-01,-8.073835424561564417e-04,1.160992311233354987e-02,-4.216573014893903321e-03,1.692639350891113281e+00
-4.043948135923500220e-02,-9.991568126265134575e-01,9.988404807924762263e-01,4.272580193663676890e-03,-4.610625593108953583e-03,-1.730481173030247542e-03,1.730822086334228516e+00
-4.826862021144388837e-02,-9.896456438731523475e-01,9.568277836920898727e-01,4.967311395878394598e-03,-6.188502637097378564e-06,-2.636826303996622680e-03,1.686024665832519531e+00
-4.959298833592398759e-02,-9.954674209966201115e-01,9.673873361029180495e-01,-1.249977051694568320e-03,-7.777552879992724599e-03,-2.307826580401848020e-04,1.700308680534362793e+00
-5.876714424504177192e-02,-9.566041945533363400e-01,8.816944500836809695e-01,6.492786225393819451e-03,3.126457873921361080e-03,-8.700739031462296396e-05,1.592204928398132324e+00
1.632978327723954015e-01,-9.142702857901455760e-01,3.767485046163068230e-01,-3.406350331265475123e-02,-5.723892486765522203e-02,-1.841038906692891997e-02,1.204594731330871582e+00
-3.680985558691457493e-02,-9.834729640188959454e-01,9.509188615017785118e-01,3.089676439173064636e-03,2.475012406918461558e-03,-4.953644761132460113e-03,1.675394296646118164e+00
-3.718709194815839753e-02,-9.938538438703273803e-01,9.603536927621224573e-01,4.631010699707541547e-03,-4.986239083648128520e-04,8.735091485495276743e-04,1.692536711692810059e+00
-3.634915261580536766e-02,-9.944472196601173986e-01,9.628208678307018653e-01,6.110793821490331269e-03,-3.732080992690207412e-03,-4.126733283993330476e-05,1.695213675498962402e+00
1.123520227878547079e-01,-9.175130699373765797e-01,5.189598104979705750e-01,2.244031156621863546e-03,4.690450898333607677e-03,-7.907199582362727658e-03,1.282564520835876465e+00
1.782887177031803119e-02,-9.293197570255163908e-01,9.457898096570348523e-01,5.777849987046987379e-02,-2.461197125441921536e-04,7.785803447439230409e-04,1.627002120018005371e+00
3.113899278839410423e-02,-9.843620108352540976e-01,9.709708917375464710e-01,4.021117226044559900e-02,-2.347118163605147693e-03,-1.588524121258103050e-02,1.695450067520141602e+00
-1.185027151874223222e-02,-9.339283687350811158e-01,7.555205067307925182e-01,8.817235992212140230e-03,1.069163881221544578e-02,1.336337735027118322e-03,1.465347528457641602e+00
-6.864188267424678469e-02,-9.748972006836998938e-01,9.386979223725634425e-01,-5.557415612044853612e-03,1.327750828766966103e-02,6.964150300132091603e-03,1.658223867416381836e+00
-4.203688548421598975e-02,-1.000253457619568742e+00,1.035667221445119912e+00,3.325312667099557251e-02,-1.195381423882005065e-02,3.151399653809110885e-02,1.766075968742370605e+00
9.711879401428001601e-03,-1.021021779163586718e+00,9.979229582218555050e-01,4.743257523158095346e-02,-9.354874681109810047e-03,-1.154678734459204330e-04,1.750590682029724121e+00
-2.180647855402940635e-02,-9.725944980885981028e-01,8.717158016589193759e-01,-1.311475764855775036e-02,4.631537179185671316e-02,-8.206299599591539845e-03,1.599713563919067383e+00
-1.041006403474487307e-01,-6.253624168989339038e-01,8.656088295037197566e-01,-1.299657642833603084e-02,1.078623952414286061e-02,6.505094302661107442e-03,1.310917854309082031e+00
9.725277279056410151e-02,-9.141381288247114600e-01,5.219340562178887977e-01,-4.571310086484612310e-03,4.140575678734568187e-03,-7.843707474984154548e-03,1.277921438217163086e+00
-1.155814034497244791e-02,-8.616907602146749445e-01,1.020032565116190337e+00,1.449018532774350443e-01,-2.344378749311424454e-02,-9.538404561098895104e-03,1.651909589767456055e+00
-6.224786006116327097e-02,-9.802454203056455428e-01,9.439142049703928006e-01,-3.517161858684279916e-03,-2.186559576765148907e-03,-5.096726578166278949e-03,1.666992902755737305e+00
2.586587080183924692e-02,-9.770990019681928818e-01,9.666480978874714136e-01,6.496565146152199870e-03,6.065991015035854250e-03,-7.474459947318042724e-03,1.683741569519042969e+00
9.985805940138191630e-03,-9.585203909404410583e-01,9.743720416537658968e-01,3.852538418868253073e-02,-1.015628282460488002e-02,-3.250684115360068932e-02,1.676302909851074219e+00
-1.907389537186475192e-01,-5.180192104143813703e-01,9.552812729737163444e-01,1.279650443095497470e-01,2.307733062170762989e-02,7.322261814142905223e-02,1.364680171012878418e+00
-6.606133061197339007e-02,-9.625873369450527184e-01,9.007561589855037631e-01,-1.846222573181308634e-03,-9.171219485258244597e-03,6.825995414078264364e-04,1.614167213439941406e+00
-3.524681738532360609e-02,-9.855536910328180911e-01,9.499315140217071685e-01,-2.364160753588511171e-03,6.528022163368272547e-03,1.164759462272415896e-03,1.676314353942871094e+00
-1.606481910917133549e-01,-4.199255357923489806e-01,8.476411540502345465e-01,5.191690371637965734e-02,2.447319297111618611e-03,1.234205069385631813e-02,1.163554787635803223e+00
4.337865587548787871e-02,-9.435646067983896046e-01,6.831039982458400051e-01,-9.368266758701795927e-03,5.956690479404591274e-03,-9.584653764448728547e-03,1.419620871543884277e+00
-2.772797663756675912e-01,-2.052617068335414463e-01,1.350977173723048708e+00,1.984094236377865750e-01,3.877710706494305604e-02,4.886632734826379387e-02,1.633682012557983398e+00
-1.610464277505816444e-01,-5.611780739618863478e-01,8.728952631850347421e-01,3.953838645564902027e-02,8.512496429754972532e-03,6.679712100464500757e-02,1.288854718208312988e+00
2.013765779573545300e-03,-9.557708700668120505e-01,8.335484438010857255e-01,-5.902835903609906024e-03,-6.842493907258772722e-04,2.220002146096065193e-02,1.551391959190368652e+00
-1.876281116826731543e-01,-4.418911307149117063e-01,8.328709154987652408e-01,-7.294678706757784861e-03,-1.000730604470197529e-02,-2.243963491760783864e-03,1.168767809867858887e+00
-1.657838135443982092e-02,-9.441265525621062027e-01,7.775555765939657915e-01,-6.996375473208389997e-03,-1.100457401051075507e-02,1.570877254975921056e-03,1.492685317993164062e+00
-3.497730901819825350e-02,-9.937343995644641881e-01,9.611218739720297499e-01,-4.304627776562767322e-03,5.297957081148850500e-03,4.992244758433445158e-07,1.693099379539489746e+00
-1.156648262370085223e-01,-5.823628146119188553e-01,8.658002337851137264e-01,4.400512195603056842e-02,1.802741459342141125e-02,2.346380679853385040e-02,1.283574819564819336e+00
-1.289536801501919017e-01,-5.399425245507661897e-01,8.474103738759882765e-01,-3.300205332320604867e-02,1.985950255518280708e-02,-1.032482284538669901e-02,1.236221551895141602e+00
-1.059156716375489748e-01,-7.129680337494144204e-01,9.153051494078976447e-01,3.944108000101770317e-02,6.615722863943768184e-03,5.100082056993733570e-02,1.429664492607116699e+00
-1.399872249150666548e-01,-4.793714085006857695e-01,8.573307787509247824e-01,5.411819458389529464e-02,5.892903650507785342e-03,3.686302980706381710e-02,1.208828330039978027e+00
-6.672023275571868639e-02,-7.165888549130311480e-01,8.628253170090686153e-01,2.357140327550567016e-01,9.824598716834909151e-02,-1.720292500028379745e-01,1.474750518798828125e+00
-8.095362779417684951e-02,-9.672758463380648486e-01,9.266586326101110549e-01,-2.770327139107310686e-03,-3.033372337514354464e-03,-2.747290993450230714e-04,1.641331672668457031e+00
-8.666299571873045671e-02,-9.769585167230939726e-01,9.516142987997742164e-01,6.851000129622864194e-04,-2.057193673322634669e-02,2.516235685426105109e-03,1.672216892242431641e+00
-7.161942176881806732e-02,-9.631845688439405473e-01,9.132749521816558858e-01,4.046621299817153121e-03,-8.613526328223695006e-04,5.529010307259009469e-04,1.625747561454772949e+00
-1.672997386179329027e-01,-4.810467326366809626e-01,8.650384005709924606e-01,5.745089180387401989e-02,8.159279648244085331e-03,3.706860843402326466e-02,1.225673675537109375e+00
7.920576087223726858e-02,-9.112735510379477155e-01,5.314247043657189806e-01,-1.551274679823123059e-01,-3.048414365554067418e-01,1.199036724296553280e-01,1.423929095268249512e+00
-1.125756031729793077e-01,-3.844014857024014020e-01,6.762902717675325359e-01,-1.526686535320980753e-01,-8.774867308523831566e-02,-1.849560005238172489e-01,1.051799297332763672e+00
-1.427698228656836821e-01,-6.900447297027201277e-01,9.248185517064684280e-01,1.082077020036909497e-02,1.793754990318019438e-02,3.648614551885523416e-02,1.424369812011718750e+00
-6.072420002998064198e-02,-9.581273706013173630e-01,8.778314461300267268e-01,-5.058117118468883136e-03,-2.557619158762068287e-03,1.126258486743731682e-03,1.590151667594909668e+00
-5.830544636127458352e-02,-8.827566971548082009e-01,9.205344726908279984e-01,-8.259740713027163145e-03,1.489985357229834002e-02,-1.145578708536483352e-02,1.564006924629211426e+00
-7.248159159674726071e-02,-7.594705474764227304e-01,8.582651776931191634e-01,-1.871324865381421981e-02,3.487053519040776445e-03,-5.978895507361134398e-02,1.410484790802001953e+00
2.659825664833271458e-02,-9.655804646110585088e-01,9.415680735472973240e-01,7.027017686807500872e-06,5.410671034819718866e-03,5.421673183505894625e-03,1.652143478393554688e+00
3.545080932436935062e-02,-5.410583550343693870e-01,2.138696844662270058e-01,-5.533193131080209673e-03,-1.673102132760451166e-02,-6.389253483364393249e-02,6.929896473884582520e-01
-5.826767381221828468e-03,-9.939400923678265443e-01,8.077858364297028082e-01,8.915151757729666837e-03,1.536863805772053192e-02,-2.697137379517876646e-02,1.563778877258300781e+00
-5.293351519577126768e-02,-9.885554977336034055e-01,9.595876648383152574e-01,-2.024177882309308944e-04,6.866967403599003039e-03,-1.439878107322694039e-03,1.687623381614685059e+00
-3.351678240639760498e-02,-9.927219025940557939e-01,9.608038238423819433e-01,-3.417848433850420239e-03,-5.921733891116186255e-03,-7.520311641772962257e-04,1.691936016082763672e+00
3.620116770209393098e-02,-7.716225495333864925e-01,4.529640092211924540e-01,-6.890620726918326999e-02,-1.593903402346312226e-01,1.634583317461209551e-01,1.154797434806823730e+00
-7.400426451957789475e-02,-9.616465935639527673e-01,9.039891650376491450e-01,3.534453756138530921e-04,1.615405961194838966e-02,-3.739381440935728856e-04,1.616561770439147949e+00
1.582405131534736498e-03,-9.973441548998195350e-01,8.619422018538870356e-01,-1.498519345773821621e-02,-4.174288190030125967e-02,4.583243989566153365e-02,1.615460395812988281e+00
-5.303102632447943485e-03,-9.476207824421435388e-01,9.638496314889694050e-01,4.526902578262312349e-02,1.116181343907896202e-02,6.586695218856360168e-03,1.657444119453430176e+00
-5.028746988844012833e-02,-9.538599870523373214e-01,9.353133735686914862e-01,4.374404967638577044e-03,-1.926609472557091465e-03,-1.402449072485975091e-02,1.636787295341491699e+00
-4.408882368383628542e-02,-9.771221961507380316e-01,9.085694170113419732e-01,1.929409573870625484e-03,2.773929220094398240e-02,4.278062294108890898e-03,1.633813142776489258e+00
-6.365448552579661134e-02,-8.810168246230387634e-01,9.156844263904371228e-01,1.673397536317396822e-02,-2.091176498602947270e-03,-1.611870580161450794e-02,1.558619022369384766e+00
-4.423816410877637328e-02,-9.631274621061878261e-01,9.575767948345259573e-01,2.852723311329357844e-03,-6.004956299525859506e-03,-1.014803792085842765e-03,1.663936138153076172e+00
-4.112304626399432977e-02,-9.838760517311434528e-01,9.351697263368837776e-01,-6.301118759398290428e-03,-2.098296649992499423e-03,-2.315297791492581560e-03,1.662071704864501953e+00
1.163202325362487216e-01,-9.332880609517543169e-01,5.026932257886383981e-01,7.085064253514074609e-03,1.694407827699829783e-01,7.055364274539813185e-02,1.325788974761962891e+00
-1.077650962695563680e-02,-9.596385834556112604e-01,8.071746625063699332e-01,-9.803126332458852663e-03,4.585008756780363515e-02,1.287173922326832233e-02,1.533818244934082031e+00
3.172300129626189069e-02,-9.408108778775514658e-01,6.854853103766542777e-01,-1.441918200396563252e-02,2.217081299754879425e-03,-8.996739678917167402e-03,1.417714595794677734e+00
-3.776447236291799459e-02,-9.768706295314641963e-01,9.182241059743572187e-01,-7.470239090035316054e-03,1.473578137539998528e-02,1.445782521145789340e-02,1.641662359237670898e+00
-5.025296829265919057e-02,-9.790386362330903980e-01,9.225993208457595740e-01,-5.189895699842627351e-03,1.522706957748034759e-02,1.312483612284116126e-03,1.647251367568969727e+00
2.687697661699700591e-01,-1.010016123637409446e+00,9.168244819619872366e-02,-7.025980373538737080e-04,-3.571847852348326857e-02,5.069617594033318936e-02,1.204879999160766602e+00
1.095804638339571424e-01,-8.890964800434530968e-01,4.801878603037836313e-01,8.190745277128803556e-03,4.107776683560512843e-02,6.722042243529431117e-03,1.228910684585571289e+00
-1.690336006387369028e-01,-5.466383055972761085e-01,8.647835959701867248e-01,-3.829411629376068202e-03,2.097921475361716123e-03,1.420413000432951649e-02,1.265859365463256836e+00
-6.192295412511626684e-02,-1.151016384714703022e+00,1.199684935643486883e+00,7.100207371619221552e-02,-5.133713749501449264e-02,2.351166542468813639e-02,2.043642997741699219e+00
-3.142996252701500681e-02,-1.164114079294437776e+00,1.057442272270283423e+00,8.236955362093192901e-02,-1.680824613586778538e-01,6.877104120204458049e-02,1.954804897308349609e+00
-1.722070081650645124e-02,-9.411502537839430138e-01,7.782084541546755441e-01,5.114954902998561023e-03,-1.283105865220042496e-02,-3.949841625704498572e-04,1.490586042404174805e+00
-9.099333601606385269e-02,-1.072390463431754926e+00,1.262972144653190743e+00,1.966701685452422466e-01,-3.716907974578039231e-01,-1.383442183387521562e-01,2.170957803726196289e+00
-6.868124221879043367e-02,-1.016798640302525980e+00,1.041815582818155006e+00,2.118779643771889418e-02,-6.378742140768753344e-02,-5.405157298996847957e-03,1.788477540016174316e+00
-1.043195268033351580e-01,-1.230149172703162375e+00,1.465772420575877089e+00,1.361483758796362686e-01,-2.684025094280512169e-01,-1.113253167132407101e-01,2.410237789154052734e+00
-3.552414898652300063e-02,-1.013205612302031877e+00,1.018389233730549792e+00,1.160004776193542149e-02,-1.002533717741602159e-02,-6.270171109854832427e-03,1.760059475898742676e+00
-6.677491173399155433e-02,-1.044673271277947846e+00,1.036501030816067592e+00,1.075386905094486908e-02,-5.434027205623596923e-02,1.987115189624953301e-02,1.806318044662475586e+00
-1.022185038948124902e-01,-7.275520391317478186e-01,9.035956370211588595e-01,-3.347759693226873539e-03,1.847025514297050836e-02,1.123891796412484698e-02,1.425871491432189941e+00
-6.986827717422142148e-02,-1.229539107625858385e+00,1.202676585482562954e+00,-3.101173523908809862e-02,-1.341301536400903993e-01,5.337858447317607447e-02,2.122580051422119141e+00
-8.924711692050184275e-02,-1.098593898992934026e+00,1.204754856842713329e+00,1.719271633122158860e-02,-1.746908108541278537e-02,6.304854019496319850e-02,2.003258943557739258e+00
-9.949195524430047566e-02,-1.255818312081437016e+00,1.266406636693641952e+00,-4.381024662674501413e-02,-4.443274435364451963e-02,-9.289336128821566512e-04,2.189492464065551758e+00
1.119392812832471773e-01,-9.423914327225690890e-01,5.500124830851148561e-01,5.940309300714147547e-03,-2.034936432320207100e-02,2.328983602645107176e-02,1.329801082611083984e+00
-6.273719595746056477e-02,-1.237463268068917044e+00,1.227686485676289907e+00,5.011076657810870603e-03,-4.147606847580692646e-02,3.762001658901484302e-02,2.137884616851806641e+00
-5.363102125368107015e-02,-1.219302427762398056e+00,1.231200048457755658e+00,-8.295485609862067108e-03,-1.653780107005076855e-02,1.566961073255006623e-02,2.123448848724365234e+00
-7.291599002353357784e-02,-9.687748173055090728e-01,9.234586164582113677e-01,4.537715664418235165e-03,-2.895270017425428857e-04,3.262712711648095131e-03,1.639521360397338867e+00
1.482855039481301151e-02,-2.268968467150618284e+00,2.064220006441463084e+00,-9.856582660767622406e-02,-4.077688492112395147e-01,2.820941373879953459e-02,3.824459075927734375e+00
-4.239795412335214259e-02,-1.047937344529551451e+00,1.051166684877065105e+00,-8.572146932071825209e-03,7.844267213232426327e-04,6.396948052108841071e-03,1.818505048751831055e+00
-8.130466913363704196e-02,-1.010501589980989934e+00,1.024363268903631274e+00,-1.018149054904801502e-02,-5.370381337902953300e-02,9.563903104258612495e-03,1.767068028450012207e+00
1.073612142528679314e-01,-9.380026704154895700e-01,5.272079575590018496e-01,-1.055430503780747367e-03,4.451893201755750124e-02,4.039608934660965378e-02,1.311027884483337402e+00
6.486143892623175145e-02,-9.328254115302867522e-01,5.987806898199317107e-01,-1.318984923296601629e-02,-7.425812085572092158e-02,-1.995833458358925450e-02,1.353289604187011719e+00
1.546341531825951021e-01,-1.025864621896556361e+00,4.891919901915349200e-01,1.849407649515723631e-02,-6.193079714153957444e-02,9.913248972570610357e-03,1.383213162422180176e+00
1.098428480850617006e-01,-1.069098488087632859e+00,6.077088761409212836e-01,-7.444075999035085212e-03,-1.486865881756269658e-01,-6.618108103683299770e-02,1.518010973930358887e+00
-5.759835771429336337e-02,-9.588323019490903043e-01,8.771315596495117273e-01,4.679909795864835298e-03,-5.403996822505347138e-03,1.323513555211695857e-04,1.590127825736999512e+00
-3.526697878348453857e-02,-1.103096402121709563e+00,9.948279538331619154e-01,-1.960529727414528911e-01,-2.234281686875015382e-01,-5.076793664353277530e-02,1.890535354614257812e+00
1.501287545798379863e-01,-1.449897432758624038e+00,8.975593836252866442e-01,1.160737186916734331e-01,-4.994598142456661005e-01,1.975741637548059787e-02,2.259339570999145508e+00
-2.011189973511455786e-01,-3.702304493697763932e-01,1.240465761705825010e+00,-1.999929737215510595e-01,-6.602344640110022200e-02,-1.169578590428692333e-02,1.576081514358520508e+00
-3.755044017661258310e-02,-9.968073351609872956e-01,9.680477173378831957e-01,-1.025399264090829255e-03,-1.661451800789704066e-03,2.700491248295592555e-05,1.701775550842285156e+00
2.933115054179445680e-02,-9.462038782636671419e-01,9.295372518218526503e-01,-3.046227247987982022e-03,-4.118181498660716941e-04,8.987802328271278680e-04,1.624885559082031250e+00
6.313217695937035912e-02,-9.722041174510825945e-01,6.678161110471865225e-01,-1.066157793732210902e-02,2.758014369354603798e-03,-3.604157322780153494e-02,1.438011050224304199e+00
-4.984335015068491054e-02,-9.849931632251048841e-01,9.423322837486693970e-01,-2.026072944618590777e-04,5.170758864758952071e-03,7.256219167003703785e-03,1.669427633285522461e+00
8.959575335108350969e-02,-9.300350765751248527e-01,5.684722280450755783e-01,-5.211453654410547025e-03,-3.528682062262485791e-02,-8.150941805348707950e-03,1.327125906944274902e+00
7.992950448734854885e-02,-9.401046482832351447e-01,5.878834645617425636e-01,6.241068378839201118e-03,-6.237718599110880779e-02,-2.702415211865761592e-03,1.352194070816040039e+00
1.351511729124076910e-01,-9.224753629991226944e-01,4.480147889123486382e-01,-5.170451878454516113e-03,-7.099463471868786013e-02,-2.655505824307327969e-02,1.250866413116455078e+00
-3.555165083849518015e-02,-9.962266601725892068e-01,9.640586217310107564e-01,1.695522778608425218e-03,5.261498594192259501e-04,1.974169757303577931e-03,1.697774648666381836e+00
-3.508228902734444876e-02,-9.968912994268128713e-01,9.658594284179873313e-01,2.216573491827568583e-03,-1.002119534554129793e-03,1.458445040228315524e-03,1.699911713600158691e+00
-5.794046232513078154e-02,-9.738536662899635044e-01,9.273012022446484037e-01,9.434652278308330777e-04,6.555506164286118570e-03,1.986369790579292389e-04,1.646853327751159668e+00
-4.846685397967744058e-02,-9.882350702885188687e-01,9.466510355770647589e-01,2.234405434559097112e-03,-8.501713403624820350e-03,2.425211864031539492e-03,1.675963521003723145e+00
-4.679102545236403510e-02,-9.905632250182617726e-01,9.578159475673848622e-01,4.380597180730481759e-03,-2.422817847862622845e-03,3.869949596175616385e-03,1.687655568122863770e+00
-3.364835879538728008e-02,-9.708626747277885327e-01,9.077841306660897613e-01,-8.395442210981094496e-04,-9.286495341523981484e-03,9.459041578522982621e-03,1.627119898796081543e+00
-6.755854572534290836e-02,-8.470852128339845244e-01,9.031312614982661691e-01,-1.386597041148077180e-03,1.351218803583954450e-02,2.324878761184730538e-02,1.519458532333374023e+00
1.215643414035608334e-02,-9.979681776647634228e-01,9.790636158681915724e-01,1.837501771973480691e-02,-6.085723565734323885e-04,-9.836452664010550840e-04,1.712593078613281250e+00
-1.716538029487914285e-02,-9.511463579653363087e-01,8.020921687498723252e-01,-1.173950745028641204e-02,8.527608289151533336e-03,-4.666300271820671402e-04,1.519640326499938965e+00
-4.416432354041008312e-02,-9.470752371873514264e-01,9.306196787638238987e-01,-6.205632270527933160e-04,8.173243549526082799e-03,1.315992381186884864e-02,1.626750230789184570e+00
-5.179929884567396198e-02,-1.002360458741430982e+00,9.860912479179235746e-01,-7.666713780286921361e-03,2.557122551586958267e-02,1.239603626965174454e-02,1.723357439041137695e+00
-3.537988239722027195e-02,-9.837989679017888900e-01,9.423919735150779742e-01,-6.285744914782506916e-03,9.618044764235583743e-03,1.009349339063850270e-02,1.668405175209045410e+00
-9.199642749690349619e-02,-7.713618535273906174e-01,9.161813914658097913e-01,2.673980595719773704e-03,2.294302245946338789e-02,-1.126052304237990832e-02,1.471346974372863770e+00
1.261405901401128071e-01,-9.080658665809220320e-01,4.625141685404355885e-01,5.604631353680009434e-03,-3.085445600359275342e-02,5.570864018722592077e-03,1.238407492637634277e+00
-3.772394396366374192e-02,-9.139494828801046911e-01,9.339949310011101957e-01,2.643557696784746419e-02,9.757594756827745949e-03,2.463819073033353749e-02,1.602391004562377930e+00
-4.341444720051725048e-02,-9.224579630014989595e-01,9.402300476082933178e-01,6.697435896905619065e-03,1.811968666803906100e-02,4.306256359758682539e-03,1.614346742630004883e+00
-3.537919166518925518e-02,-9.735663003162292606e-01,9.373158481245610352e-01,-5.159594830609502605e-04,-4.832895742009220806e-03,-3.865025481405823856e-03,1.654997348785400391e+00
2.737317943806722928e-02,-9.657614250503426812e-01,9.455792478966013048e-01,-8.903711166468208926e-03,2.227972771368161287e-04,-1.446131286606744219e-03,1.655767202377319336e+00
4.621902377432626774e-02,-9.436539321890101695e-01,6.823260116966148869e-01,-9.760885937932943512e-03,5.617656760861716031e-03,-9.500488462959092578e-03,1.419435381889343262e+00
2.560370057041807396e-02,-9.780392948352433224e-01,9.497537240592044405e-01,-6.857839913749191885e-03,-8.222314304568425700e-03,2.127561361308948941e-03,1.670097827911376953e+00
2.500858604247598732e-02,-9.593199093893816087e-01,9.428098970639728904e-01,-1.895125860804577032e-03,-6.249893312097618003e-03,5.625078303608973401e-03,1.647696137428283691e+00
3.727353745712531224e-02,-9.616024638700103599e-01,9.410734161583688140e-01,-4.664110103915904484e-03,1.765924802668245551e-03,1.123248558775141476e-03,1.648475050926208496e+00
8.046652090377462430e-02,-9.323461692058737649e-01,5.524455903863418893e-01,2.652922386861949339e-02,-4.562822240153888848e-02,5.155612803620984036e-02,1.320193767547607422e+00
5.323662158039801917e-02,-9.416821717678203196e-01,6.602884097702119703e-01,-4.996875401146361369e-04,-1.642388884395763055e-03,-1.313274269165040642e-02,1.401024222373962402e+00
3.105508113097245684e-02,-9.550337322059206935e-01,9.353186203321811609e-01,-2.007891326035112639e-02,-1.723285440665770765e-03,7.489477086492796892e-04,1.637976765632629395e+00
-1.339757481284105725e-02,-9.076756538849056755e-01,9.344914544266113010e-01,-1.871664522145660356e-02,2.722167894000366781e-02,-2.071314099085369217e-02,1.597017288208007812e+00
3.130888675602489651e-02,-9.348872959319716180e-01,9.277131929697550738e-01,-1.986338748742669594e-02,-6.366002402911329246e-03,2.591499558633979933e-03,1.613847494125366211e+00
2.841492165493541416e-02,-9.233637358111628224e-01,9.243428236961376276e-01,-1.952912678644809844e-02,-1.695749926594536643e-03,2.169947285974009425e-03,1.600769042968750000e+00
3.244179661926335084e-02,-9.583520339738934579e-01,9.402818231105475322e-01,-2.056082385718146013e-02,-7.151150622915964684e-03,5.628276310162410277e-03,1.645249247550964355e+00
2.997191422279035095e-02,-9.273802792221218505e-01,9.230900627092145649e-01,-2.020934950791491991e-02,-3.191580577296829115e-03,-1.415207809233930440e-03,1.603269696235656738e+00
-8.202699773285648810e-02,-1.002702403335300918e+00,1.009327662184647201e+00,2.035079096802456643e-03,-5.974578548617356932e-02,4.669942399314968087e-03,1.747646450996398926e+00
-3.941358320174547306e-03,-1.061014577808893300e+00,1.032278078451083436e+00,2.593750858207575366e-02,-2.294304323787731484e-02,-2.618243266664419672e-02,1.814433336257934570e+00
-1.617822691514993888e-02,-1.028580398494327808e+00,1.007135642609660708e+00,3.494834119898024977e-02,-1.095507058832132993e-02,9.954260650606335664e-03,1.764215469360351562e+00
-2.599964675734758868e-02,-9.084944307194856572e-01,9.114694552812282469e-01,2.681030077973716244e-02,-2.349789978564478278e-03,9.143516067933824334e-03,1.577143192291259766e+00
-2.976423608398744147e-02,-9.624809728557833788e-01,1.013825999629717201e+00,1.168740204489986459e-02,6.269833904512590525e-03,3.935959777366880227e-03,1.712597250938415527e+00
-2.816971118083917355e-02,-9.803492662963630977e-01,9.579140739063329857e-01,-3.340449494616075203e-03,-1.046661710823439768e-03,2.519019524287947204e-03,1.678687453269958496e+00
9.908147975439263178e-04,-9.651692555687024777e-01,8.269306541187150250e-01,1.426191582861715407e-02,1.174869184715702196e-03,-8.908113503080895140e-03,1.553861141204833984e+00
-1.824540621079823871e-02,-1.090298653489338188e+00,1.027613747427120083e+00,4.769850636982923830e-02,-6.057579714555531847e-02,-8.662444381355671047e-03,1.839128851890563965e+00
-4.222184027686948921e-02,-9.716212139802059555e-01,8.766520202943229867e-01,1.026823882216150625e-02,-2.599859413003514225e-02,1.269729663524313268e-02,1.601543307304382324e+00
-4.001085274819776716e-02,-9.910683662045919329e-01,9.611945537929207362e-01,8.404519636423876325e-03,3.453794022118271238e-03,6.540182731576005791e-03,1.691006422042846680e+00
-7.341261132573462245e-02,-8.658801574904998466e-01,1.044156530798869165e+00,1.546503355229184584e-01,-4.614049386594698543e-02,-5.018581698245126732e-02,1.687689423561096191e+00
-5.880846978656021490e-02,-9.742930562117431137e-01,9.279131725818476895e-01,7.332347135305746985e-03,1.763381671663043172e-03,8.888376043090050527e-06,1.647795677185058594e+00
-8.913028074264403577e-02,-9.292670188923942698e-01,9.567458281586592728e-01,5.334500040133347866e-03,5.122265303464920705e-03,-5.922625776113895311e-03,1.636653542518615723e+00
-3.728961406991992272e-02,-9.758658380936306997e-01,9.115113886672964183e-01,2.167845997966033438e-03,3.531366243907515471e-03,-8.152052747810488789e-03,1.634601354598999023e+00
-4.886512888346822292e-02,-9.738237927369680635e-01,9.070229348808380720e-01,1.263554026779912035e-02,5.219332867892835428e-04,-9.853116547386222591e-04,1.629082560539245605e+00
-4.372945186563260977e-03,-1.072004669713766623e+00,1.035938946336520727e+00,-2.122055560100559110e-02,-8.884033613915692969e-04,-1.445562786033547861e-02,1.826126098632812500e+00
-3.250087215934587687e-02,-9.939800557153539717e-01,9.554121018012144972e-01,3.000573926781414718e-04,2.200370950804910603e-03,-9.638494245523376424e-04,1.688280105590820312e+00
-3.898448557184444607e-02,-9.825554366650723903e-01,9.252400148963685345e-01,1.243513577205298225e-02,4.814841822741269470e-03,-2.659671577813287838e-03,1.652399420738220215e+00
-6.354215829220440093e-02,-8.365256506218590182e-01,8.982530370040117118e-01,-5.271984289146048643e-03,3.746421343337293271e-03,-2.444891767123166804e-02,1.505962848663330078e+00
3.725659997564348402e-02,-9.461768760961978275e-01,9.274150974598945885e-01,-1.561418347527190366e-03,4.610744914523360639e-03,9.397583620136919832e-04,1.623271107673645020e+00
-5.434331801164436759e-02,-9.630978504040815791e-01,9.387637292052684046e-01,7.764989811949484563e-04,3.976737411793032986e-03,-1.450835779660337955e-03,1.647617220878601074e+00
-4.230771047485080982e-02,-9.867821816127139156e-01,9.429683632619817457e-01,-7.528387176445213574e-03,-2.833472514782116747e-03,4.690147428301049554e-03,1.671415328979492188e+00
1.093021654407526008e-02,-9.704646805245280561e-01,9.469445516691087361e-01,1.396121229403838628e-02,-4.039017995934908976e-03,2.221909382318427995e-03,1.660875320434570312e+00
-3.454963088647146352e-02,-9.939331200818480871e-01,9.667801320837022816e-01,-4.186039973797989200e-03,-3.764321651435659482e-03,2.389470476892354041e-03,1.698190093040466309e+00
-1.846530712857045661e-02,-9.801126234606516441e-01,9.582199876410645301e-01,-2.239165841934595818e-03,-4.506611018085502490e-03,1.988891874268833553e-03,1.678688287734985352e+00
-6.033020758678239726e-02,-9.277946149413290877e-01,9.429982551168073490e-01,-2.829071193822490344e-04,4.735232283472625391e-03,-3.365031941030056060e-03,1.621608972549438477e+00
-1.572266134746177699e-02,-1.004974154844282985e+00,9.655931034481954889e-01,7.116796298919991770e-02,5.195761239332316594e-02,-1.334852064773618674e-02,1.713532924652099609e+00
3.535485727677609852e-02,-9.591701243978035807e-01,9.360547626839105240e-01,-4.518112377053606563e-03,-4.097231797240130906e-04,1.096254769423804032e-03,1.642003059387207031e+00
-1.264354588142402591e-01,-6.054065270242391383e-01,8.403604291790320868e-01,1.415393245536684247e-02,1.982618954958228694e-02,8.922668734815865366e-02,1.285627961158752441e+00
-2.275880392615109993e-01,-4.560846926205286422e-03,1.004434962871011860e+00,1.717559836038863308e-01,-4.409309995352267766e-03,8.479728006378831062e-02,1.184473514556884766e+00
-3.029674564180617410e-02,-9.898806687124994674e-01,9.656955415879984184e-01,-2.742547139417233527e-03,-8.788760267822548489e-03,2.143087008317599330e-03,1.693755626678466797e+00
-1.928827020597592978e-01,-8.929010103861581560e-02,8.456698644106683815e-01,-1.141639137336312171e-01,7.052621556809021003e-04,4.341252040877302543e-02,1.013159513473510742e+00
-1.926735309777145855e-01,-6.257620919518980251e-01,9.809225469110249840e-01,2.630535798836229275e-02,1.372640251527183081e-02,7.906758776238875797e-02,1.447259664535522461e+00
-2.580156767307729970e-02,-9.747818317292943346e-01,8.884943629822862343e-01,-9.491019870846859746e-03,-2.259018253903523430e-03,-6.148323408430654557e-03,1.613861322402954102e+00
-3.700216558245096599e-02,-9.921091518496936157e-01,9.629507709431480711e-01,-1.477228122803118070e-03,-4.132043834469574344e-03,-9.028311549828481591e-04,1.693297863006591797e+00
-2.243471071162441710e-01,-1.512592435065959195e-01,1.105715161869752938e+00,8.641038127566930734e-04,-9.442983416555311704e-02,2.846610134049060506e-02,1.306284904479980469e+00
-1.887587667636578259e-01,-6.095520127561456780e-01,9.797541727148723067e-01,1.010676616465790573e-01,2.603663834462170354e-03,5.546173190786144597e-02,1.440168142318725586e+00
-2.013350255106481634e-01,-1.978562790827463058e-01,8.781350438626719379e-01,-1.090712828206720497e-01,5.012315347660544623e-02,-1.239565857119563491e-01,1.118407249450683594e+00
-9.963697370728191727e-03,-9.717560721425230197e-01,8.513298090726374445e-01,-1.380608790976000505e-02,-3.150927183301574421e-03,-1.073067789050540129e-02,1.579937815666198730e+00
-3.671089744080396899e-02,-9.822607255332946874e-01,9.515800868122402667e-01,-5.663776248191496141e-04,-5.837640800124218460e-03,-2.521152028135141381e-03,1.674928069114685059e+00
-1.988452802467126079e-01,-4.236545704701957238e-01,9.183059044158866646e-01,-1.068629025998786147e-01,-5.425146341604644359e-03,1.070705324502493616e-01,1.272183775901794434e+00
-3.280000280776242116e-02,-9.638919361189186574e-01,9.186056017040424848e-01,-4.121481963552752099e-03,-3.598582255483632857e-03,1.362786387151039905e-02,1.630520701408386230e+00
-2.872212476553972701e-02,-9.757528170182271365e-01,9.081648890601565771e-01,1.046972360197488336e-03,-5.906589107807532065e-04,-5.714932446047453138e-03,1.631559848785400391e+00
-4.247036034430293899e-02,-9.533147291147985314e-01,9.346392904716755989e-01,4.059740123686654718e-04,-9.129366717090291530e-03,-9.314224121285770777e-03,1.635507941246032715e+00
-2.993223347794274347e-02,-9.138041289482219387e-01,8.758729909282796378e-01,-2.712618447149233412e-03,9.230332946033296569e-04,-3.148693281397800178e-03,1.549962162971496582e+00
-4.300852948036382184e-02,-9.623410282548057193e-01,9.340088177565658567e-01,2.871798302006275515e-03,-4.015648760660987457e-03,-2.277985766848834599e-03,1.642567396163940430e+00
-3.642688358050809316e-02,-9.798049916670279469e-01,9.400648689443406036e-01,-3.950869669070846552e-03,-5.110078856380552079e-03,-4.661503248046374240e-03,1.662795782089233398e+00
-8.053133387897593032e-02,-8.377684025011560287e-01,9.095634727713816092e-01,1.648312201545844551e-03,-5.495855328422260752e-03,-2.643750337412664395e-02,1.518429398536682129e+00
-5.457899605886304406e-02,-9.379468946302321752e-01,9.449542914583353159e-01,1.187959750746292323e-03,-9.287000866288195808e-03,7.819494877248395204e-03,1.631811141967773438e+00
3.122195936975165342e-03,-9.663096110473647915e-01,8.132332631810927914e-01,-9.176309725888329161e-03,-1.601832898157372559e-03,-1.358555546406537209e-02,1.543450474739074707e+00
-1.763184882502894305e-02,-9.782097282887063372e-01,9.118061376673575191e-01,-9.336033089768712087e-03,6.335606360826862016e-03,-1.253603803855026996e-02,1.637136459350585938e+00
2.566655913337516706e-02,-9.528815396715087926e-01,9.356900091555467869e-01,-5.680188232222076715e-03,5.519840345600554067e-03,-1.191719877047160529e-03,1.635968565940856934e+00
-5.597371328186068196e-02,-9.415889944049141702e-01,9.311957970555585495e-01,2.771457368245243717e-04,4.216991158659856749e-03,-1.355066876060100588e-02,1.622860074043273926e+00
-6.661179105840685233e-02,-9.818920858829427445e-01,9.400475817051289207e-01,1.124409220897959819e-02,-1.446055014198211440e-02,8.532047474520442973e-03,1.665443420410156250e+00
-5.200847172170004057e-02,-9.804090823434149504e-01,9.375388750093400780e-01,4.184423443079385296e-03,-5.398368256626399561e-03,3.752865361952708451e-03,1.661327838897705078e+00
-3.422933782994722063e-02,-9.728221627538029548e-01,9.282523281126149328e-01,2.565976293786240430e-04,2.523665711677457874e-03,-5.023784875903644642e-03,1.646450996398925781e+00
-3.066429874018054835e-02,-9.767608897625723596e-01,9.133616834203228674e-01,5.263175809990795068e-03,4.432672041294671156e-03,-3.466100491148132751e-03,1.636948943138122559e+00
-2.280193031215349206e-02,-9.930604884747746830e-01,9.578271499089754393e-01,-1.234916746612366861e-02,-8.884625221579384342e-04,-8.413439106339183973e-03,1.689725160598754883e+00
-3.713773068895394325e-02,-9.924926911925416873e-01,9.601022501983462742e-01,9.598876865534133190e-03,4.212443987052319830e-03,-1.390545482465135093e-03,1.691225647926330566e+00
-4.015088464220110953e-02,-9.813615823428759599e-01,9.231030066048856453e-01,4.082896859649167744e-03,-1.549082945293576118e-02,3.294453378677778509e-04,1.649585008621215820e+00
-3.804354816774547371e-02,-9.785064870609916365e-01,9.494731280851599342e-01,2.773768365091404398e-03,2.612906540965170138e-03,2.873695091894539616e-03,1.669865489006042480e+00
3.603165992074715968e-02,-9.642371803764981930e-01,9.379553038201202675e-01,-5.583163851175474215e-03,-1.131235871746800797e-03,-2.483873864586280439e-04,1.648110389709472656e+00
-2.783344240281673820e-02,-9.773978968456339400e-01,8.947673893509925369e-01,1.263974293987686799e-02,3.691119659129570886e-03,-4.070657398532873464e-03,1.621574521064758301e+00
-3.912794425803675646e-02,-9.901665772313551495e-01,9.516337152654246179e-01,4.397141933245354503e-03,1.898359488069649220e-03,1.443520394811568641e-03,1.681787967681884766e+00
-4.715035509608687253e-02,-9.896811007812933436e-01,9.538626422003768646e-01,4.346167366477042895e-03,6.860662627548288952e-04,3.953010067238304191e-03,1.683443427085876465e+00
-1.026519067699119964e-01,-1.046479184913641003e+00,1.215313494246456072e+00,1.784028091488100154e-01,-5.050430535088665240e-02,1.769641847352293809e-02,1.993952989578247070e+00
2.187067469269395048e-02,-9.422444773914404603e-01,9.493943806610685154e-01,5.141499431947793575e-02,3.584128966517631781e-03,-2.841042389519213545e-03,1.640747189521789551e+00
5.650398589552175360e-03,-1.072408697337051020e+00,1.099296339600122741e+00,1.796469054695779277e-01,-2.322884044534558046e-02,6.076558721559231768e-02,1.909660458564758301e+00
2.917336914431933881e-02,-9.095105494832615989e-01,9.209602370409865069e-01,3.652923902011914054e-02,7.600641089636795376e-03,2.856682874647738062e-03,1.586731910705566406e+00
-5.229695296663394027e-02,-9.818927786083149201e-01,9.291304420495722916e-01,5.790809010900224360e-03,5.344702377298006860e-03,-2.685707962288370367e-03,1.655260324478149414e+00
2.750342305575640550e-02,-1.063283939015498003e+00,1.048433603172816753e+00,1.668697935200104954e-01,2.236459824126801541e-02,3.434798785265130716e-02,1.853189110755920410e+00
-3.773811901049519552e-02,-8.766426961666867745e-01,8.928948045350243445e-01,-5.615750547860531329e-03,2.126864115707241890e-02,-1.766474610614661780e-02,1.533929109573364258e+00
2.672151081265726827e-02,-9.640824853671897676e-01,9.395785393853739453e-01,-3.580853830289247239e-03,6.337685002164764915e-03,-2.776974580406131772e-03,1.649134635925292969e+00
1.790742124441914787e-02,-9.926953436571943623e-01,1.007936743110796174e+00,7.131872568404876156e-02,1.970677997761171966e-03,1.833506875565852484e-02,1.737320303916931152e+00
7.107310357199471407e-02,-9.479970277868192685e-01,6.268857087426259467e-01,-1.494035996623780185e-02,4.230096303128622059e-02,-1.251939547726264867e-02,1.385767459869384766e+00
-3.349418952898104707e-02,-9.953537035520717557e-01,9.621735661474551948e-01,1.332261311977458789e-04,-1.653882587740246519e-04,1.518132161345690226e-03,1.695354700088500977e+00
-3.808489200351811155e-02,-9.979359413884864027e-01,9.685441142370337930e-01,-4.056880892062035635e-05,8.303582551408196120e-04,-4.476321785704149648e-04,1.703183054924011230e+00
-4.883208495133416205e-02,-9.944604229286686525e-01,9.666412047944799024e-01,-5.411577442458449100e-03,1.532204233769954901e-03,2.906174845525076687e-04,1.698750853538513184e+00
9.697359480850932870e-03,-1.009101762561149584e+00,9.813538218845503369e-01,1.624213952972070399e-02,2.749080268879837766e-03,2.300548218383776690e-03,1.724186897277832031e+00
-2.599035252120876494e-02,-9.741763247716955787e-01,8.618118797614635618e-01,-1.889810171610376358e-02,6.662977476005699316e-04,2.455791872277445637e-02,1.591204881668090820e+00
-1.173330979844264439e-02,-9.921202457796807206e-01,9.623590580325147581e-01,3.299520843905476980e-03,1.310625394980610443e-03,4.175390901170279202e-03,1.692658305168151855e+00
-4.558768835381714693e-03,-9.492279551180665687e-01,9.473901738881279622e-01,-8.834868800883617299e-04,-1.748284712103274213e-02,-1.155845207537057988e-02,1.642925262451171875e+00
-2.752352553501296456e-02,-9.932333262044412692e-01,9.536621266140477005e-01,3.184122850710922881e-03,1.194919942634869699e-03,2.076956393684117452e-03,1.686092853546142578e+00
-3.388152173333220524e-02,-9.963505746572550725e-01,9.659493170963018294e-01,4.788063359888816782e-05,6.613944707471433506e-04,1.326359470490836006e-03,1.699506163597106934e+00
-3.630828993269366589e-02,-9.965272212603092372e-01,9.667793658590188022e-01,-2.550898240800532953e-03,3.742001154061875244e-04,8.019870076556154985e-04,1.700414896011352539e+00
-2.862931311146172525e-02,-9.831726436765650945e-01,9.497779547007190182e-01,4.159175850892668155e-03,1.621736145125992528e-03,3.840562717985239786e-04,1.674044847488403320e+00
-3.494140749127530587e-02,-9.976799589543575708e-01,9.687858720770726739e-01,-1.859888778579462266e-03,-3.447236719236234596e-03,5.334646742080943966e-04,1.703146457672119141e+00
-1.994295911385737113e-02,-9.691512962080119920e-01,9.542543202920753531e-01,3.541099222033499902e-03,4.016776115128490622e-03,7.730357924485726021e-03,1.665844559669494629e+00
-6.724531392990067136e-02,-1.014295797843612679e+00,1.092223537145474266e+00,1.485726320546098267e-01,6.154228735736591571e-02,-1.835888027986752602e-02,1.848767995834350586e+00
8.555418578682437436e-02,-2.280592942646551879e+00,1.883649062933881124e+00,-2.164881545904731031e-01,3.871369912814641434e-02,-8.659718820076364731e-02,3.640597343444824219e+00
-1.695296310219793906e-02,-9.770680573638829136e-01,9.507826746778501592e-01,1.426790416980494233e-02,-1.318184085342374683e-02,-5.466306025377368162e-04,1.669911265373229980e+00
-1.247790463612010771e-02,-9.860434989608524159e-01,9.613377336630527514e-01,4.610858875245114029e-03,9.549272211068341766e-04,6.916005492035087396e-04,1.686501741409301758e+00
-3.536198744807345085e-02,-9.928488049521818626e-01,9.557304864024854796e-01,-4.656404409099755212e-03,-3.365352458717760665e-03,-1.227241024429958933e-03,1.687633514404296875e+00
-2.648299902648115073e-02,-1.285787401426451870e+00,1.312172251008855595e+00,-9.906573343623364947e-02,-3.612945756611708054e-02,1.195030568791070891e-02,2.257743597030639648e+00
-3.151041327736898295e-02,-9.797499008429535472e-01,9.596686027557249643e-01,-5.220060537466530808e-03,-1.445954863187857639e-02,1.402147286743850307e-03,1.679935693740844727e+00
-3.730980311087125911e-02,-9.923922364396722262e-01,9.653877500330932948e-01,-5.578695861744651166e-03,1.007853402187193015e-03,-8.376926665592357088e-03,1.695744872093200684e+00
-3.372772668035008137e-02,-9.901716161535450977e-01,9.433854544062284520e-01,-7.809689043238698947e-03,-5.660397747212340784e-03,-3.792838133439825794e-03,1.674637675285339355e+00
-2.180254735184898943e-02,-9.929340259131729240e-01,9.633475916173642739e-01,5.646424168007475701e-03,3.349462261984764710e-03,4.073105572993237426e-04,1.694242358207702637e+00
-4.357874874718786762e-02,-9.907494810989803113e-01,9.644491822174008355e-01,-6.338585987791780542e-03,-3.919014133931277705e-03,-5.581140411013822862e-03,1.693601846694946289e+00
2.109810183583899212e-01,-1.391719329060173482e+00,6.994201075426030867e-01,9.337109093684788086e-02,4.244272883550370690e-01,4.099894954644623529e-02,2.040013551712036133e+00
9.313615301257589796e-02,-9.343059042690430305e-01,5.593676051208578137e-01,-9.420779604951338808e-04,5.217755678414905118e-03,5.647668443849486464e-02,1.327285885810852051e+00
4.536893997637020393e-02,-9.510542451978399869e-01,7.142324226999051673e-01,1.286152452017744890e-02,-3.259589127498195571e-02,-1.467959368957111668e-02,1.452941417694091797e+00
-5.755691451545745518e-03,-9.612208700300516329e-01,8.437055515799022354e-01,-8.070410031075109583e-03,1.203472452971645658e-02,1.386062964546746698e-02,1.564396023750305176e+00
-3.162093485499013756e-02,-9.959439540934605928e-01,9.628670965783298064e-01,-1.190696527527289848e-03,2.393153159224001899e-03,-9.193356963847147244e-05,1.696453452110290527e+00
-3.409305911831710112e-02,-9.999726588573468744e-01,9.703624124744231194e-01,-7.209208424243653164e-03,9.345737498399155074e-03,-1.666376889156542893e-03,1.706594109535217285e+00
-2.848268786079847723e-02,-9.755607508477648349e-01,9.050572397422548265e-01,-6.172779999812040216e-03,-1.654138668051599592e-03,-7.260899428983951139e-03,1.628763198852539062e+00
-3.328512302126320627e-02,-9.941670739052337336e-01,9.614290691639201247e-01,1.247672015393307123e-05,5.154898232969704064e-03,-3.599348015933391369e-03,1.693715453147888184e+00
-1.392168325784682442e-02,-9.742058498140366840e-01,9.000766404338921278e-01,2.143314531929607896e-03,-6.178136461340105745e-03,-7.530639246090625738e-03,1.623433113098144531e+00
-5.278348069839986639e-02,-1.002236026349504927e+00,8.176712481739877303e-01,-1.598269621045889100e-02,-1.751871135704380356e-01,-3.602358209976619374e-02,1.606965422630310059e+00
-4.988574671581631065e-02,-8.021115565278940096e-01,8.452283926696035898e-01,2.989416861849393883e-03,-6.057448186003135636e-03,-5.876203523745570506e-02,1.432095289230346680e+00
-4.303499382023064090e-02,-9.610696730067903593e-01,9.530269444853062266e-01,1.038967049113361614e-03,-1.289581534552188685e-02,6.361011417271879992e-03,1.658303380012512207e+00
-6.119088975873723801e-02,-8.896446317112979285e-01,9.373830290354777661e-01,2.029135328686236268e-03,1.734622216870757710e-02,1.669245515786720729e-02,1.585089445114135742e+00
-2.794986027578729923e-02,-9.730049050806479638e-01,8.984501591153924993e-01,-1.733150419917412616e-03,6.766798722672722095e-04,-1.101648467196080124e-02,1.620869994163513184e+00
2.781756374852298319e-02,-9.442452368579636879e-01,6.176842820852658233e-01,1.004413421322803736e-02,-1.959470023411309658e-01,-1.082652362905887553e-02,1.407862305641174316e+00
-3.642420644224125814e-04,-9.478674199694718805e-01,7.353517616779283728e-01,-1.154877393112857704e-02,-6.274776545486539236e-02,-1.461872429991048321e-02,1.465942263603210449e+00
-2.297172990233800269e-02,-9.794643467828952899e-01,9.120356565535651105e-01,8.032339668198367616e-03,2.128569037303862550e-03,-2.843812948857886175e-03,1.638192892074584961e+00
-3.605848821252750913e-02,-9.657923532592929128e-01,8.417334655857473535e-01,-9.282805371804994654e-03,-3.019899817676552009e-02,-1.515711061374534416e-02,1.566754698753356934e+00
7.259649589887257060e-03,-9.535219381408339689e-01,7.361754613471068742e-01,-1.387370799987347643e-02,-5.020221003266400056e-02,-2.727204038638687128e-02,1.471433997154235840e+00
9.628772477851266220e-04,-9.850854117240127605e-01,7.644979906880712273e-01,1.159826281686183579e-03,-3.833836020099063574e-02,-2.630645352078444729e-02,1.521397113800048828e+00
-2.395325878896484295e-02,-7.959050282568734813e-01,7.809498625452894194e-01,2.258068406188530261e-02,2.220171409297463580e-02,7.595334825490811237e-02,1.373113274574279785e+00
6.116500307631236866e-02,-1.790839721335637735e+00,1.394521347644148923e+00,-1.223224276058597626e-01,-4.268982842200068628e-01,1.415809620640424427e-01,2.885982275009155273e+00
-7.248283246306136407e-02,-9.899106452798460687e-01,9.651269383180784978e-01,7.353238829071134450e-03,-3.222933571231529487e-02,1.138786814811059561e-02,1.695260286331176758e+00
-3.187719182966233800e-02,-9.998602871557428218e-01,9.660239955581220173e-01,3.913985908670883254e-04,7.042743902179205437e-04,-1.132545895940309782e-03,1.702573180198669434e+00
-1.290607256125188285e-02,-9.919430719549164888e-01,9.604636063160565396e-01,-1.143711045058653363e-05,7.257653789309549339e-03,2.263783055386945579e-03,1.690887451171875000e+00
-3.726772114745316444e-02,-9.907444978676133163e-01,9.542064123317074431e-01,6.659335944790879813e-04,5.796195572288231207e-03,-1.597011403422899430e-03,1.684516668319702148e+00
-2.781141717133995758e-02,-9.924346362834179924e-01,9.666477326303370976e-01,-2.163913387529392204e-03,-8.956631818421165528e-04,2.491878568659030343e-03,1.696691036224365234e+00
-3.168832363549294040e-02,-9.912633690932268760e-01,9.551320413591446457e-01,2.107231032597333895e-03,1.927459135808724366e-03,-1.107813250582961092e-03,1.685691237449645996e+00
-3.724940884642800876e-02,-9.936458499850384651e-01,9.613823859053186593e-01,-2.210481866509958655e-03,2.676902617767964489e-03,2.738127870494672794e-03,1.693253159523010254e+00
-3.512903714259495158e-02,-9.933954280140141480e-01,9.658291679341100000e-01,3.586336666444173583e-03,3.105627261816112754e-03,1.812015984475047210e-03,1.696895360946655273e+00
3.359104319409256245e-02,-9.546319074691255180e-01,9.350615794642759271e-01,-5.641255314255950656e-03,-1.823821840658795823e-03,1.110665558767348193e-03,1.637130618095397949e+00
-3.297877043557471272e-02,-9.989319702856097605e-01,9.694047065862675394e-01,-2.066072572322443846e-04,-6.929958303374887758e-08,1.514121970492675589e-03,1.704728960990905762e+00
-3.074888581828651851e-02,-9.961229226666497016e-01,9.642405121142473279e-01,3.489092021506344943e-03,1.071759910203609265e-02,1.700241054959745427e-03,1.697903871536254883e+00
6.365630460340064578e-02,-1.044784222535247276e+00,7.203225896614307011e-01,9.332678289799778426e-03,-1.237739903709940067e-02,-9.804348523872380428e-02,1.554762005805969238e+00
6.398717155252965638e-02,-9.173988912604122969e-01,5.703896377167541054e-01,-6.231917516927883540e-04,-9.314188863538880314e-03,-5.095386033715607055e-02,1.313235998153686523e+00
2.812384481549073945e-02,-9.762656828206900395e-01,6.898989001000908061e-01,8.781572373374020579e-03,-1.412980171945370234e-01,-1.786275636470216477e-02,1.473943114280700684e+00
6.621379231173674107e-02,-9.329551066282693039e-01,6.088243160097255302e-01,-1.681562090449504471e-02,-6.227463077439517047e-02,7.892288908638757025e-03,1.359262228012084961e+00
7.848586959985445755e-02,-9.433202484628536721e-01,6.044567355792477281e-01,1.378558121115996569e-03,-4.808837702052871227e-02,-1.090604750070750181e-02,1.365823268890380859e+00
8.814483358678015801e-03,-9.322519721549256122e-01,7.051205269008095078e-01,-3.092734760688106883e-03,-5.677133894710106182e-02,-8.997996322044103049e-05,1.426680088043212891e+00
-4.101863108120001877e-02,-9.190092035049244323e-01,9.495259369314804632e-01,1.835008843919294207e-03,2.445020266945056170e-02,9.448746535230865759e-03,1.619816660881042480e+00
-4.631908897689471227e-02,-9.952857839900507431e-01,9.653831979951730258e-01,-1.115254986258044619e-03,4.628285987039010632e-03,7.526465804004356017e-05,1.698298931121826172e+00
-2.970804886575690792e-02,-9.513804148109974435e-01,8.963283640764539983e-01,-6.504422378432641715e-04,1.046357265970868523e-03,-1.813039078655331177e-03,1.600168704986572266e+00
-4.505538392905975020e-02,-9.588230526493229933e-01,9.420553587129174566e-01,3.415701934687988945e-04,9.635638491487555704e-03,1.144463424484360933e-02,1.646821379661560059e+00
-5.077444819824351863e-02,-9.127503568597298278e-01,8.890621849984164937e-01,-6.348336000684244758e-03,1.085126451983434853e-02,3.934732936610223220e-02,1.562539815902709961e+00
-3.255153685897009541e-02,-9.798599257403253215e-01,9.267446849057557889e-01,-8.275728751026983215e-03,-2.935594258922422485e-04,3.330964529249335389e-03,1.651251316070556641e+00
-3.482356699958118890e-02,-9.800973924264458903e-01,9.157725748979581581e-01,7.313845234808200035e-03,-8.263787860320498738e-03,-1.062238104580753633e-03,1.641986012458801270e+00
-2.546681229365448801e-02,-9.558049986481531590e-01,8.733065253684377804e-01,-1.112989835839258909e-02,-5.033222940752575189e-03,-1.966655109724599684e-02,1.584643125534057617e+00
-3.978963233426104779e-02,-9.472963550128223886e-01,9.223579913927089091e-01,5.817051083469193529e-03,2.563245715180331209e-03,7.105500441911916619e-03,1.619482874870300293e+00
-3.340158179178913389e-02,-9.985216427454898236e-01,9.687935627853563325e-01,2.423083414237680536e-03,3.352241279745627432e-03,2.484944577708065954e-04,1.703860878944396973e+00
-6.041666317698632382e-02,-9.787150596548228609e-01,9.389808765806144653e-01,-6.782437968033753518e-03,-2.447094054908843797e-02,-1.280930657041963808e-02,1.661998629570007324e+00
-8.779433877568057834e-04,-9.603994311194995470e-01,9.474042554748497436e-01,-2.899927886316561111e-04,1.147312304761412272e-02,3.340218742829854752e-03,1.652345776557922363e+00
-1.566752865435210029e-02,-1.127022083781801909e+00,1.071037896226853636e+00,-5.416235199608829265e-02,-4.047907723416082626e-01,7.801918540675994995e-03,2.030838012695312500e+00
-8.921130578858926796e-02,-9.906468765851912384e-01,9.683876850796442337e-01,-6.649142616822474421e-04,-5.785580748490462555e-02,-3.634493344492203352e-03,1.701335310935974121e+00
-3.696169728115711317e-02,-9.992626370575576900e-01,9.697747072079166974e-01,-3.739677655777158658e-04,2.804140662408051259e-03,4.222209364486741721e-05,1.705388188362121582e+00
-7.660964068751580092e-02,-1.075747258747395740e+00,1.071913623811956651e+00,-2.546884582272154404e-02,-6.830609302092860435e-02,3.560910755216943700e-04,1.865705728530883789e+00
-3.147091130524332092e-03,-9.574642245298777832e-01,7.553952459095423233e-01,-7.129039615226268577e-03,-9.450567338683379948e-02,-1.003186515270982834e-02,1.495742559432983398e+00
-4.828468203415821336e-02,-9.546952375054584827e-01,8.366820003603235856e-01,6.179436746569213525e-03,-3.377271627867364789e-02,2.175817952206248341e-03,1.552559137344360352e+00
-7.928263538469786098e-02,-9.701876524415169456e-01,9.311521838246181737e-01,4.976201409684443029e-03,-1.520058074436720849e-02,4.928704014706801646e-03,1.647947788238525391e+00
-4.218401044894565244e-02,-9.558841564058421225e-01,9.349667638121330615e-01,4.526758853660572002e-04,8.002962258464450113e-03,-6.326380040763481503e-03,1.637927770614624023e+00
-6.699983280591180479e-02,-9.614969799872342682e-01,8.943829222146117974e-01,-4.703275262437847312e-03,-1.494407530089040571e-02,-2.159900173851443846e-03,1.607820391654968262e+00
-3.483978363118293842e-02,-9.865345898288804261e-01,9.511273318022370749e-01,4.686349021653676492e-03,6.580468386413975378e-03,-6.243621809424221205e-04,1.678210616111755371e+00
-3.586092984329136701e-02,-9.884160053133699275e-01,9.601177218081970999e-01,4.579766256662732606e-03,1.182557938382105406e-03,9.145865802465569672e-04,1.687639951705932617e+00
-4.751678127350407455e-02,-9.473564488178739529e-01,8.175915939708017222e-01,4.474617938449442466e-03,-4.331901068046793007e-02,-4.938443602837303502e-05,1.530448436737060547e+00
-7.099463006157519240e-02,-9.701445923075241451e-01,9.129293639547313433e-01,6.722015153404990555e-03,-1.034400812028807987e-02,1.438792710409190177e-02,1.631670832633972168e+00
-5.991145674506989649e-02,-9.678236093660801398e-01,9.040780022556709206e-01,7.563032427021402528e-03,-1.251483275324465072e-02,6.188296278731464373e-03,1.621590018272399902e+00
-3.944168615719553794e-02,-9.496411876966192045e-01,9.311187022788574019e-01,4.462641738579541106e-03,1.602352732456670866e-03,2.510969035594998872e-02,1.629666566848754883e+00
-1.234515910112910647e-02,-9.413384396842260360e-01,8.182282999044067084e-01,-1.870231408313524895e-03,2.806227800795139515e-03,-2.580923281491226753e-02,1.525290250778198242e+00
-3.483102120255865408e-02,-9.929865881337263112e-01,9.639062198309552576e-01,3.516921851172559194e-03,5.817555636740290997e-03,1.087161074090143209e-03,1.694882273674011230e+00
-6.017444297406866760e-02,-9.851372894659868873e-01,9.499532311234768489e-01,-8.896534461553113867e-04,5.141618207392048556e-03,-8.897237097329167843e-04,1.676403522491455078e+00
-3.326279426818497253e-02,-9.509412415123321693e-01,9.022344537301629774e-01,-6.834270250547704473e-04,-2.197062965088505265e-03,-2.336875507963809447e-03,1.604932069778442383e+00
-4.174390574167022305e-02,-9.843049056237209715e-01,9.329745416634582789e-01,5.984163253623477063e-03,7.234489547111699025e-03,7.247378186068360005e-04,1.660570621490478516e+00
-3.179262658189581370e-02,-9.899681603804437735e-01,9.585782130663227374e-01,4.590654509846072914e-03,-2.551868021512167586e-03,-4.373271256267833099e-03,1.687608957290649414e+00
-1.980053352625124607e-02,-9.885592632020235859e-01,9.706887097394500952e-01,-2.140584433417825130e-02,-1.000247139158766570e-02,-3.052184421165695521e-03,1.697294950485229492e+00
-2.647665556896637920e-02,-9.937300342523283092e-01,9.682889711558256840e-01,8.044338921472004439e-03,6.139227689521371129e-03,-3.690076687930425765e-03,1.699316382408142090e+00
-9.458101094257501118e-03,-9.253229554474146079e-01,8.019439887692211277e-01,8.202338639996937381e-03,-1.894108530463804209e-03,2.715715330793109367e-02,1.497578620910644531e+00
1.329456443632356412e-02,-9.787439045644696911e-01,9.487319177364134104e-01,-2.091488804435691698e-02,-4.669017403669192823e-03,2.420153909662787779e-03,1.669900774955749512e+00
-6.729408329565006452e-03,-9.801306655225403563e-01,9.564862833635262573e-01,6.930768320799155814e-03,2.308565659537802246e-03,-1.856043690735922382e-03,1.677217960357666016e+00
-2.794785400278006898e-02,-9.732902119186166434e-01,9.575749878256726300e-01,-6.375183137441378135e-03,-1.432407212720896925e-02,6.236643249256069825e-03,1.672554373741149902e+00
-3.277052961064071124e-02,-9.760441084701315662e-01,9.556689948181417149e-01,-1.373386230451935841e-03,-3.487366042401041869e-03,-4.566940978767287940e-03,1.673096299171447754e+00
-3.179977123692421387e-02,-9.998680998512829987e-01,9.662482413035110573e-01,-4.599471420026124608e-04,-7.872091054774666904e-04,-4.480710235333685860e-04,1.702773571014404297e+00
7.280178578284918212e-03,-1.242664963530028199e+00,9.802794335132526404e-01,-2.736122039560088745e-02,2.068121602843534801e-01,5.691570979243903809e-03,1.963655471801757812e+00
-7.953004439628544309e-02,-9.961786589634404887e-01,9.969824491265186772e-01,5.833007119460295251e-03,6.814354192168034507e-02,1.283467480205329608e-02,1.732176184654235840e+00
-2.340819604087615580e-02,-9.714954732351688271e-01,9.026909994891654243e-01,-3.919197934029947095e-02,6.058018267535948687e-02,1.138618631593166751e-02,1.628053665161132812e+00
-3.792653521944491790e-02,-9.901793047636207046e-01,8.618295137663581906e-01,1.467162970123975230e-02,8.805692377359695955e-02,-4.213477093789598504e-02,1.613187909126281738e+00
7.381291980661619512e-03,-9.703423584824184545e-01,7.417056608872282242e-01,7.755004551971055038e-03,1.125902148527831437e-01,-3.661182218174172803e-02,1.501790046691894531e+00
-2.737190390160128967e-02,-1.107955133644546786e+00,1.060450260499921082e+00,-6.598574275813012813e-02,8.119227750752003314e-02,-3.118331932801413076e-02,1.887393832206726074e+00
-3.509801829862199685e-02,-9.654750949451974540e-01,9.308871915402815445e-01,-4.244322121723901817e-03,1.929985464987965397e-03,-4.845495078462208963e-03,1.642435669898986816e+00
-4.985008130284651617e-02,-9.805634316548278440e-01,9.354627325988721376e-01,-5.170523735018679387e-04,-1.623235516623211820e-04,-2.810763204180566203e-04,1.659552216529846191e+00
-3.721944039443379759e-02,-9.736714365377545644e-01,9.360209708768628678e-01,2.828886331193585651e-03,4.887713220202503060e-03,-3.175415997906819252e-03,1.653982520103454590e+00
-1.270458977318288385e-01,-6.565566469281466366e-01,8.723607886044689730e-01,1.304594429109152687e-01,1.245281102471150481e-02,-8.664730470825351971e-02,1.372020244598388672e+00
-5.120130709367448629e-02,-9.163995189024566335e-01,9.092489679712058015e-01,-4.133863465048171620e-03,9.812131103789277498e-03,-1.931905382946317098e-02,1.582236528396606445e+00
-3.356758443669971559e-02,-9.693856265765963265e-01,9.346524377220244428e-01,-1.454151560661059561e-03,-5.376127794730749818e-04,-3.332904889344924342e-03,1.649037241935729980e+00
-7.708854735370532230e-02,-9.619058151246794308e-01,9.051222644444057996e-01,-5.931638388280672950e-04,1.343366636047892138e-02,1.603264629543111513e-03,1.617796897888183594e+00
-9.304287812623469878e-02,-8.377236154563104664e-01,9.203172985912959625e-01,-1.561534458796990038e-03,1.873395277434329338e-03,-1.815492260200511979e-02,1.528752684593200684e+00
-3.976333235186176041e-02,-9.768783380392368487e-01,9.378393222388341499e-01,3.005774245834564196e-03,3.026565623083894100e-03,-6.358436403368462192e-03,1.658370733261108398e+00
-4.980249150603231756e-02,-9.798438486076874732e-01,9.489555380259347972e-01,-3.178257455581636414e-04,5.159930909242503409e-03,-4.494986678786865551e-03,1.670784711837768555e+00
-4.061794327366571866e-02,-9.695338166425068183e-01,9.330297941442448062e-01,2.549344505849611702e-04,1.421469641349051415e-03,-3.770481411258540250e-03,1.647835016250610352e+00
1.762818384941790273e-02,-9.644359930591944741e-01,9.419103230881831212e-01,1.323112635123193824e-03,4.376499966034162444e-04,2.215281257133421694e-03,1.651203274726867676e+00
-7.604709338040480104e-02,-8.929033217952556667e-01,9.367622477903898570e-01,-1.413282006477295169e-02,3.101264220654095533e-03,-8.803534924233925949e-04,1.587761640548706055e+00
-3.550872601296986564e-02,-9.889898332257303082e-01,9.490305086063708373e-01,-2.539923932578108407e-03,2.874452943514559447e-03,3.729690380926671631e-03,1.678472280502319336e+00
-8.206280089909634423e-02,-7.960024406434970112e-01,9.205780126484469639e-01,-3.062650459299153492e-03,3.089630646444968196e-02,-3.970836050207475487e-02,1.496143579483032227e+00
-1.261340162826135591e-02,-9.631259779466120330e-01,8.069547796790836891e-01,-1.380792520209399472e-02,-4.106492932154019726e-02,-2.656949218203145252e-02,1.536855459213256836e+00
-2.574394548237564709e-02,-7.710430389160966014e-01,7.697619604069204646e-01,1.717456191339146801e-02,-1.204431602479423893e-02,5.947783107239466155e-02,1.339075446128845215e+00
-2.534071120118702031e-02,-9.733331216406354569e-01,8.911661636535196385e-01,-1.339329186457439633e-02,-9.652483760961953069e-03,-1.014586910338952618e-02,1.615129232406616211e+00
4.054960524472406291e-02,-9.252499005304689605e-01,6.573468879435681034e-01,-6.200139748612516072e-03,-1.372356798938217243e-02,1.478380909964038641e-03,1.381881713867187500e+00
-1.597979133460961099e-02,-9.567330938317665234e-01,7.892420615272897066e-01,-1.116597084719622886e-02,-3.995135188075425378e-03,-9.952716672423434982e-03,1.513814091682434082e+00
-4.043438284953919382e-02,-9.719327917062590139e-01,9.315535922279312153e-01,-2.322564780163166760e-03,-3.250189936150458050e-03,-5.925268718531137395e-03,1.648638367652893066e+00
-6.275448715213094442e-02,-9.774351860611276699e-01,9.285584716231450875e-01,5.197235161255199000e-03,-1.328631009010929759e-02,5.816600638498732948e-03,1.651299238204956055e+00
-1.500166663108540993e-03,-9.629377041368106793e-01,9.924693524604919492e-01,7.308149665000407413e-02,-1.518496271133986872e-02,-1.829476595984304982e-02,1.698733568191528320e+00
-4.128079975512467109e-02,-9.573019641986795225e-01,8.263026545254850141e-01,6.821853442201225408e-03,-8.728488862500397016e-02,1.009926969688217969e-02,1.552360177040100098e+00
-7.670867324208374693e-02,-9.242309361001199708e-01,9.443239041461770622e-01,-8.229224152140160106e-03,2.698448606081377352e-03,1.104558381370904924e-02,1.620722174644470215e+00
-4.475205017689996845e-02,-9.641063952777718660e-01,8.211897528064566743e-01,1.620657431103856129e-03,-9.797327716352481619e-02,9.918230189007731443e-03,1.555723071098327637e+00
-1.564312751512199340e-02,-4.449574441055533791e-01,4.788773677275693363e-01,1.675009544660993055e-01,-1.763000701523710911e-01,3.634770979368883576e-02,9.069423079490661621e-01
-6.176205673590631773e-02,-1.008112677760484077e+00,1.041435935121262091e+00,-3.775705259732567431e-02,-6.592978480935648977e-02,3.556624203622326535e-02,1.782624244689941406e+00
-8.050657193964375069e-02,-9.776660093318653155e-01,9.499412879787542119e-01,8.200231075275102657e-03,-1.654038800048393196e-02,1.131684512056032287e-02,1.671107530593872070e+00
-5.238044364164125277e-02,-9.870548253339014311e-01,9.497841615536823934e-01,1.067660652798866142e-02,-6.287755719053446032e-03,5.622401411533148666e-03,1.677856683731079102e+00
-3.715354885938708385e-02,-9.829359351157979097e-01,9.286316166930244087e-01,2.303647676874978189e-03,9.997022346489289890e-03,-6.143470191446524266e-03,1.655625820159912109e+00
-8.371309016525754765e-02,-9.789960689657650761e-01,9.603881994572801561e-01,-8.038482578730332759e-04,-1.128839951873620608e-02,-1.147842596161922175e-03,1.681318998336791992e+00
1.378251725872974010e-02,-9.434862144759844638e-01,7.620860285493774589e-01,-1.860707056714624823e-03,1.208552770188297681e-01,5.450332180041450592e-02,1.498462319374084473e+00
-5.078039862898733880e-02,-9.877580894410357137e-01,9.646699165146170873e-01,-9.094686998562258968e-04,6.611685173804221841e-03,-2.771111735676256172e-03,1.691353797912597656e+00
1.805049598218960716e-02,-9.060600744653456440e-01,9.219070518100740408e-01,1.731481829143943166e-03,-3.584339980954594218e-03,-2.426853408419924699e-03,1.583118915557861328e+00
-9.354166134905684410e-03,-8.724711557300697251e-01,9.183727610301285482e-01,2.320580199941561089e-02,-1.721524125994097071e-02,5.051017821044706708e-03,1.552084445953369141e+00
-2.311882874395078044e-02,-9.601636937901278923e-01,8.368771307853453134e-01,-1.134605450599737372e-02,4.164509573686135321e-03,-4.346072354302321292e-03,1.556918740272521973e+00
2.635718344920197354e-02,-9.593522235558777922e-01,9.385307056136059645e-01,3.948352649021037893e-03,-6.232966779436274578e-03,2.647980773540018797e-03,1.644082069396972656e+00
1.273113665755475424e-02,-8.088268051817546489e-01,8.888843243484321199e-01,4.308982044211646933e-02,-2.588691970190342296e-03,-1.516955897280412901e-03,1.472416281700134277e+00
2.600736179536354553e-02,-9.194225232791194413e-01,9.435704154007592548e-01,4.064786889279428661e-02,-1.768456240620860237e-02,-1.458477996381455852e-02,1.615482687950134277e+00
-3.220789912972221725e-02,-9.721384000776930323e-01,9.525895993739915690e-01,3.873469253001841743e-03,1.451148116579152429e-02,1.786899125276177752e-02,1.667504549026489258e+00
-6.519950654539284629e-02,-1.042747122828829864e+00,1.226130043071715692e+00,3.717013433435570890e-01,7.830858896611022843e-03,-2.451640698711280222e-02,2.074111938476562500e+00
-3.479055882917270887e-02,-9.950939767537058112e-01,9.654296316071409034e-01,-2.827412173481616726e-03,-3.715957992323738138e-03,2.611976214756388682e-03,1.698005795478820801e+00
-3.573593579932550501e-02,-9.923276043131989965e-01,9.559791919924164327e-01,-3.773288493231871221e-03,-6.918984604784716649e-03,-2.573179659874395668e-03,1.687435626983642578e+00
-4.704643358320152041e-02,-9.811576503042310771e-01,9.372084313917168341e-01,-4.003488595510842386e-03,4.583061852645865623e-03,2.579655711282698681e-03,1.661582350730895996e+00
-3.201031725194962430e-02,-9.830063227652618973e-01,9.526254790329122812e-01,8.412952238320676145e-04,7.604879514545489702e-03,2.930973999447243194e-03,1.676450729370117188e+00
-4.682324991476028569e-02,-9.796904679024308615e-01,9.302215145318476486e-01,-4.216964371283809382e-03,-4.946578356021444616e-04,2.076876856565078484e-03,1.654200077056884766e+00
3.004076400550746359e-02,-9.593623779970377186e-01,9.382662101649540398e-01,1.870262261070588378e-02,-2.642939622887937809e-03,-1.413880641491900353e-03,1.644223093986511230e+00
2.552341257302061586e-02,-9.611922266755363875e-01,9.441238325718205315e-01,3.934813906285193272e-03,-5.874789639158915951e-03,-3.124740366987132723e-04,1.650449037551879883e+00
1.300266369895547794e-03,-9.689063926516224834e-01,9.527943135985819101e-01,-1.271496516273787607e-03,-1.032791312339840020e-02,-8.861389502025753331e-03,1.664436340332031250e+00
-4.344027342650270962e-02,-9.900707690616544765e-01,9.632819451415605139e-01,5.016693137187108915e-03,4.718377033837115563e-03,-5.751351819484594799e-03,1.691991209983825684e+00
-4.628228994319491529e-02,-9.911076935031362112e-01,9.577435086919168228e-01,-4.207995632117506740e-03,2.454193073091610368e-03,3.872320101660300679e-03,1.688048601150512695e+00
3.471677938757489548e-03,-9.873887463929467145e-01,9.575951989966813294e-01,-2.228447562849746998e-03,-8.916723928502618204e-03,-8.169047583893611006e-04,1.684581518173217773e+00
-3.123502713412672216e-02,-9.706306601666223610e-01,8.833667824804622981e-01,-1.389886373737966863e-02,-1.949115385901323228e-03,-7.471261267456965303e-03,1.605892896652221680e+00
-3.905775428238954239e-02,-9.699946867562200259e-01,9.595222880180472869e-01,-4.192542156914180924e-03,-1.478019994971402525e-02,9.006902851178043637e-03,1.671637535095214844e+00
-1.101543411133051528e-02,-9.959265255059944755e-01,9.641383064320759866e-01,-8.341808782509967882e-04,-2.894346067237557434e-03,3.031968489208045937e-03,1.697489142417907715e+00
1.316060324955025188e-02,-9.611820005831525071e-01,9.448792499983592608e-01,1.111301915435240241e-02,-1.385750213540871620e-02,-1.605098398488302150e-04,1.651121735572814941e+00
1.828000744961246621e-02,-9.623216973456875101e-01,9.429648572081421598e-01,8.377192738573324346e-03,1.188500839907648959e-03,-1.454189342167840114e-03,1.650330424308776855e+00
-2.777291435656131444e-02,-9.941592816363361562e-01,9.636149530690504283e-01,1.437286768950848167e-03,1.665258160571713884e-03,3.794234033546091747e-03,1.695545315742492676e+00
-4.139013239811778488e-02,-9.897426088279025480e-01,9.431036801018928273e-01,-8.223836058659029016e-03,-1.205849461436968870e-03,5.451253834925894569e-03,1.674080014228820801e+00
-2.701339154219065120e-02,-9.999264761255564071e-01,9.648983998283959806e-01,1.851294341876093914e-04,-2.196694194773401304e-03,6.603566060395094474e-04,1.701619386672973633e+00
-2.783865766934665031e-02,-9.923088661155109458e-01,9.635482940844536381e-01,2.058937716263680145e-03,6.132236692741057336e-04,8.177825958243956517e-04,1.693880081176757812e+00
-3.221446975827809561e-02,-9.936878863108906668e-01,9.687715631264484095e-01,1.394100411855373270e-02,2.611418532481794841e-02,5.553356830484956590e-03,1.700454950332641602e+00
1.496758789430439364e-02,-9.220420973411332932e-01,9.448468113378217792e-01,4.168636049136560662e-02,-1.642450297652334884e-02,-1.119119928309872565e-02,1.618754625320434570e+00
-8.903114245370748192e-03,-1.151204634100114310e+00,9.521138488579953263e-01,4.171196042658883649e-03,2.830294888163324973e-01,7.623525350553103652e-02,1.893140792846679688e+00
-5.750344927593650790e-02,-9.367973957515368655e-01,9.466104900573668601e-01,-3.672096371724797772e-03,-9.788753582992490085e-03,1.284660506109205902e-02,1.632524728775024414e+00
2.760931931425249231e-02,-9.858878056712381266e-01,6.999188563440201793e-01,7.725540434602384821e-02,1.613500981143936031e-01,-6.383257556116032905e-02,1.506250619888305664e+00
-1.167335864889665863e-02,-9.959250461055466630e-01,9.619125682335805116e-01,2.242630080223422320e-03,-8.127855087248843369e-03,1.463411762341338893e-03,1.695610284805297852e+00
-4.291549627932782218e-02,-9.911485773912027675e-01,9.618892649042336540e-01,-1.657609765952914368e-04,4.245906051004296085e-03,7.560017515395573914e-03,1.691683530807495117e+00
-3.568675851236471908e-02,-9.872513508028327722e-01,9.391446710885162918e-01,-8.896696840465609379e-03,-5.235683203320818171e-03,-3.686711399949766516e-03,1.668456435203552246e+00
-2.319050275563236049e-02,-9.727312870285670376e-01,8.833960205186707215e-01,-1.193340027510895497e-02,1.465407594088892138e-02,2.804625706279303965e-02,1.608663678169250488e+00
1.593572704518428362e-02,-8.685590309706135992e-01,6.454303798541239923e-01,7.835776180208742225e-02,1.487981639345689888e-01,-3.951167884026372812e-02,1.350890517234802246e+00
-3.008090163359739347e-02,-9.941038688654515454e-01,9.596416348764253978e-01,-3.686571290554555274e-03,-3.629037692598355291e-03,1.651907521549058483e-03,1.692068219184875488e+00
-2.518120658432260878e-02,-8.520253777650155236e-01,9.165916919535354035e-01,-3.623680384183636076e-03,2.202316852348280146e-02,7.739590942492970138e-03,1.533290982246398926e+00
-6.264455907064748336e-03,-8.667643330143603997e-01,7.979615449951920070e-01,2.163952876594564256e-01,3.254961022596435938e-01,6.357166607697016525e-02,1.596785426139831543e+00
-2.051531699273160050e-02,-9.612250474043191328e-01,9.558242914228567422e-01,4.780960271680620606e-03,2.208662491953470100e-02,3.962742623624736053e-03,1.660784482955932617e+00
-6.153987191850646132e-02,-9.564167546143585996e-01,8.768559523325504257e-01,5.419817782528860671e-03,-4.930245951014640068e-03,-5.974562147754089447e-04,1.587860941886901855e+00
-3.018340814047315579e-02,-9.760809618119126174e-01,9.583568320262276785e-01,1.158857605044703691e-03,1.254813041364864594e-02,4.349001149207231548e-03,1.675567030906677246e+00
-8.022794293958807055e-02,-9.637410621840903913e-01,9.206822315559208825e-01,-1.537148537356091435e-04,-4.856855000328438486e-05,-1.782036640614742323e-03,1.633016705513000488e+00
-6.027505396743535609e-02,-9.799188937578636738e-01,9.389517915295212402e-01,5.604478332307692191e-03,2.373549652792209799e-04,5.224396920567732361e-03,1.662320137023925781e+00
-5.970624265345987614e-02,-9.674499771929373493e-01,9.008902193033044847e-01,5.750817093262063084e-03,-3.952090412898524863e-02,6.153477624786546363e-03,1.619758725166320801e+00
-6.079734407644333399e-02,-9.809538502626681256e-01,9.437845663211168468e-01,5.378070481429748050e-03,-2.659314976649157676e-03,5.407877471704861973e-03,1.667465448379516602e+00
2.554449216267070527e-03,-1.001598382222480765e+00,9.129018280209291181e-01,-1.383351839653551019e-01,-1.401341678010902536e-01,-2.616101847654545010e-02,1.693977236747741699e+00
-3.335245801440455543e-02,-9.579601674528221977e-01,8.251566459978307844e-01,1.463309553033466034e-02,-2.630858090078279712e-02,1.792032030376693869e-02,1.545769572257995605e+00
-8.605815036239045090e-02,-9.786325573094777353e-01,9.587054684533424798e-01,1.474199316927391325e-04,9.091939303881971940e-03,-4.804796549768394071e-03,1.679603099822998047e+00
-3.865763505526188804e-02,-1.013449985012674581e+00,9.468566031191439913e-01,-1.871212417468405206e-02,7.501210694531815215e-02,-1.817599762252648105e-02,1.703247547149658203e+00
-6.942211969045149200e-02,-9.810939598177750298e-01,9.613484888365457781e-01,-3.457722357685264424e-04,1.397157625929867399e-02,-3.550392790035039429e-03,1.683443427085876465e+00
-5.776280555997064664e-02,-9.693211412486426592e-01,8.844568369342545866e-01,1.430184450656387350e-02,4.914573660652193227e-02,1.111096420926441870e-04,1.607937812805175781e+00
-2.581249215209260525e-02,-9.763088221539532041e-01,9.024923596441568607e-01,-3.176592187170042270e-03,5.241730892918790774e-04,-5.853217163145642797e-03,1.627168536186218262e+00
-5.352170222442118735e-02,-9.281722967955282622e-01,9.386626783009491826e-01,-3.115724142410395379e-03,-2.429240754283933969e-03,9.964412419177124183e-03,1.617900729179382324e+00
-6.427799209211089437e-02,-9.777246715651465303e-01,9.396313039605327377e-01,6.570872755797883651e-03,1.815426126123805689e-02,-8.692420220502490580e-03,1.661499738693237305e+00
-3.771608245591399899e-02,-9.896037762068753407e-01,9.517000744009023183e-01,1.275194179248623563e-02,4.707404392330669790e-03,1.564924603576247145e-02,1.681706428527832031e+00
2.622990417391596329e-02,-9.656847304617581784e-01,7.947260799819614308e-01,1.127181416084791117e-02,1.014589286319107298e-03,-1.454198220108419981e-02,1.528980851173400879e+00
-7.750726523982838512e-02,-9.766901628575210825e-01,9.428043423364451669e-01,6.283324654671179968e-03,1.271586008755803271e-02,-9.780497457935206224e-03,1.663701534271240234e+00
-7.836552304508898059e-02,-9.291400211649589735e-01,9.487923526001866836e-01,-3.134231452311604313e-03,1.129582226945631540e-02,1.000894383912214088e-02,1.628945350646972656e+00
-1.718216590197033794e-02,-9.870023938079746095e-01,8.190240608653953647e-01,1.341443917393958171e-02,7.832114798361242136e-02,1.786048997662646048e-02,1.571833729743957520e+00
-6.029790714923279754e-02,-9.697069716543453843e-01,9.146754669115906289e-01,5.482207049561883469e-03,2.002752020883104278e-02,-4.321680262605282841e-04,1.632648587226867676e+00
3.423094257148057151e-02,-9.236592971329671276e-01,9.216634942671456665e-01,-2.215056973852660982e-02,2.381982964395046830e-04,-4.085476832156268584e-04,1.598945260047912598e+00
-5.650759415553302523e-02,-9.246062401157595367e-01,9.416171641251729341e-01,-2.735636114082553357e-03,-1.217937450655911386e-02,1.002289168985372528e-02,1.617741584777832031e+00
-1.897051366730537481e-01,-7.885061468449966471e-01,1.480512432498981790e+00,2.592981714155603301e-01,1.937230582463756456e-01,6.960837433155221861e-03,2.112523317337036133e+00
-8.934521854172387811e-02,-8.117780688930724686e-01,9.294385350865024265e-01,-1.545243013273459335e-03,-3.604615489076238525e-04,1.853309124639967997e-02,1.515542984008789062e+00
-7.147783187618081402e-02,-9.806095008177372341e-01,9.505205054671768128e-01,4.329355516336089345e-03,8.340889002799972696e-03,-4.257105663115551795e-03,1.673454880714416504e+00
-3.920351149820335002e-02,-9.294527894463285866e-01,9.396302964774226885e-01,-1.508449708972258102e-04,-1.715538245187374009e-02,-9.287026844664621542e-03,1.619631767272949219e+00
-3.994577394948216620e-01,-1.335898393219483449e+00,2.076771999073198316e+00,6.412425810324029474e-01,-1.075172759775826908e-01,4.070329986831588975e-02,3.255872011184692383e+00
-3.102459374084386157e-02,-9.813809622679587896e-01,9.469570817703957255e-01,1.060440496620599629e-03,-5.947395499439471836e-03,-1.043503342287729722e-03,1.670080661773681641e+00
-1.201536712522671690e-02,-9.846187511182618035e-01,9.570058041944522476e-01,8.895904718580554486e-04,-5.762098199814507174e-03,1.054239729573708522e-03,1.681528449058532715e+00
-1.084875891386001545e-02,-9.843266499682300497e-01,9.624762356127521956e-01,1.338606881599745568e-04,-7.227028935139365173e-03,-1.473872361505171487e-03,1.686029195785522461e+00
-6.493097860418008127e-02,-8.580521099242583993e-01,9.312799829459447176e-01,-1.357838773996027093e-03,-2.602884208667469168e-02,1.332636276088776557e-02,1.553758025169372559e+00
3.587216629119095029e-02,-9.594672275776318093e-01,9.329463962473721894e-01,3.343739844024298455e-03,6.326962452096481339e-04,4.126874362099155341e-04,1.639625310897827148e+00
-3.786664262136227310e-02,-9.644514161183331824e-01,9.339026923526823065e-01,1.848192682112862308e-03,-3.421146430373907428e-03,-4.561045029232397435e-03,1.644210934638977051e+00
-2.071405186214280575e-02,-9.449584419939971447e-01,8.369378334371255779e-01,-7.129858275539294708e-03,2.235698014605694197e-03,1.818862836949412115e-02,1.543902277946472168e+00
-1.120767857652845562e-02,-9.487388274077177552e-01,8.360139410743472332e-01,-5.493114309614881806e-03,-2.384096623148084827e-03,1.947077884346177720e-02,1.546703219413757324e+00
-5.016656097213453847e-02,-9.390250314826108502e-01,9.261311024799142588e-01,4.199607494818083375e-03,-1.048902598459136581e-02,-5.757772080674231595e-03,1.616013407707214355e+00
-7.090692062601741674e-02,-1.060901868882432986e+00,1.087093013858803747e+00,-1.291437516736729067e-02,-6.533731982503835321e-03,-7.716779606355473643e-03,1.862330555915832520e+00
-8.497408471068185892e-03,-9.918788431012689477e-01,9.611964223482302172e-01,-7.876514515504485061e-04,1.635259608545194723e-03,1.156974254243458601e-03,1.691430807113647461e+00
7.359476163707232010e-03,-9.574688279635628074e-01,7.376086389711898894e-01,-7.220335603827982875e-03,4.790923758695762869e-02,3.085138939903515204e-02,1.476014971733093262e+00
-3.918443089640272214e-02,-9.708656348105558775e-01,9.452638822457958279e-01,-8.284477687651284382e-04,-7.415087450490180643e-03,-3.552343755118911209e-04,1.659677028656005859e+00
-7.858294546850769224e-02,-8.589021844890287749e-01,9.382138312912042810e-01,-2.920758784522363601e-03,-1.970480410230262408e-02,1.302773811210986531e-02,1.561377406120300293e+00
1.180917322148925530e-01,-8.559593762733967992e-01,3.253778303167305097e-01,1.460286277934047805e-01,-2.642510723307687215e-01,9.406261368927305855e-02,1.222150802612304688e+00
-2.403257434115649294e-02,-9.739171455263296862e-01,8.900749628066417785e-01,-8.489502834178357799e-03,3.003357935795834387e-03,8.067818274839586024e-03,1.614499449729919434e+00
-2.559498760264930506e-02,-9.942896847029045748e-01,9.636547536405044578e-01,-3.718356710576319274e-04,3.518920242902596075e-03,1.846339209381721389e-03,1.695674896240234375e+00
-4.261356225267712988e-02,-9.525219611656196017e-01,9.488047036921931632e-01,8.133068031462119610e-03,-9.542683579732005178e-03,1.044852035188259878e-02,1.647343993186950684e+00
-2.288228357482687339e-02,-9.384955246232462578e-01,9.468295338333921896e-01,1.199763811847178764e-02,-1.707080904587512937e-02,9.355254267563685097e-03,1.633443713188171387e+00
-6.018496770314879507e-02,-9.644146896938672331e-01,8.905680591688651671e-01,9.424151005997180586e-03,1.649239090118959539e-05,1.305078816650484096e-03,1.606715083122253418e+00
-4.733301001085564452e-02,-8.994275283816697275e-01,9.307578733803886228e-01,2.288318425264819489e-02,-1.533292038066904651e-02,-8.779516893657707960e-03,1.587028741836547852e+00
-7.441802648161457978e-02,-7.668980789259706166e-01,9.246362997076027490e-01,9.291668146136289330e-02,-9.265968147971247529e-03,-2.434681598020302720e-02,1.482362866401672363e+00
1.238429288572040834e-02,-9.167408371302302461e-01,9.282774011244975254e-01,-2.570288217423204874e-03,1.059507842028209641e-02,-7.677894619483279989e-03,1.598013281822204590e+00
3.435822904686997026e-03,-9.802516419865368036e-01,9.729430838227457468e-01,2.760525630678147078e-03,-4.210343671079907861e-03,2.061781001474615946e-03,1.691557407379150391e+00
-2.049787683522667683e-03,-1.018718361476494527e+00,1.013204270294423504e+00,2.063343032818001216e-02,-9.141169575823313714e-03,-1.065401291741480821e-02,1.760227560997009277e+00
3.303574847803765480e-02,-1.202186637512434153e+00,1.075583592711044867e+00,1.592737139218178832e-01,4.497615353581339154e-02,3.292699610031856600e-02,1.996467947959899902e+00
-2.031767961444678507e-03,-9.777434438334422495e-01,9.542215148763053545e-01,-2.442463085131118053e-03,-5.601589394038285425e-04,-2.167874095617074344e-03,1.673168897628784180e+00
2.452804580371933246e-02,-9.164475936743208262e-01,9.263121530678192217e-01,-3.882454538938782257e-02,6.074785043474539153e-03,7.691582958596333798e-04,1.597448348999023438e+00
-6.184821807183151637e-02,-1.026205690656152525e+00,1.030853151615538366e+00,-2.384562071087231814e-03,3.009216672746901217e-02,3.945516375364095316e-03,1.783400297164916992e+00
-9.904386311945849453e-02,-6.002729859762633291e-01,8.571350890023439195e-01,-1.313814378058633138e-02,-7.067784625511506005e-03,-7.499929602804358310e-03,1.282813310623168945e+00
-2.437831918997500694e-02,-1.186243048252197951e+00,1.093135265934236156e+00,2.686113681533399550e-02,5.621561966088828299e-02,-1.796591763331973485e-02,1.977316141128540039e+00
-4.034515987105928569e-02,-1.024989695774054077e+00,1.018696922623574697e+00,-2.108204742300181199e-03,-4.489008988696412128e-03,-1.256986659995208743e-03,1.770297527313232422e+00
-5.580744859391173138e-03,-1.005126837261506312e+00,9.849547317495604970e-01,5.037845218438263568e-04,-4.843208326531910773e-03,1.749733358602916520e-03,1.723490357398986816e+00
-2.600712185256773973e-02,-1.008990971305504969e+00,9.775487262610970118e-01,-1.485982609141726224e-02,-2.675755223984172676e-02,1.387708680800591073e-02,1.721408963203430176e+00
3.385304747039395712e-02,-9.649772627210627673e-01,9.382873773314719390e-01,-1.994177613516718434e-02,-6.453096607109631844e-03,-5.660104191052610787e-06,1.649350762367248535e+00
-6.475849283662790667e-02,-8.700179358206622249e-01,9.429454208497674017e-01,-8.245347409352381078e-04,1.519141570850477026e-02,1.130952501417520004e-02,1.573674440383911133e+00
1.814540616892686142e-02,-9.658163840147234724e-01,9.418566635542101606e-01,9.033594981333374575e-05,6.656627804389771402e-04,-2.420007203384597419e-03,1.652373671531677246e+00
-8.251202391223949606e-02,-7.079203191941654261e-01,8.800658711963766923e-01,-2.637392348630878888e-02,1.473161236226771045e-02,-4.913638657065254323e-02,1.389128088951110840e+00
1.971232857261750668e-02,-9.773107170560157986e-01,9.478402953559884603e-01,-6.101918426574766408e-03,9.330200240363136378e-04,5.249104242057307237e-04,1.667620062828063965e+00
-1.753557815587031277e-02,-9.857589205416118494e-01,9.593092450464711929e-01,2.462769841057578686e-03,4.990904507738817136e-03,3.029160286273929834e-03,1.684519767761230469e+00
1.325192853023972606e-01,-1.278077883816397087e+00,5.242477263671379006e-01,1.972901730783505753e-02,-2.280464328268563129e-02,-1.575750131801073317e-01,1.665239930152893066e+00
1.745780573683789610e-02,-9.720466694481545433e-01,9.571293961285743945e-01,-4.247823741328210154e-03,4.442459710778523009e-03,-2.567435496898440653e-03,1.670941114425659180e+00
1.621461566746755512e-02,-9.769597395447264798e-01,9.592541491550174992e-01,-7.912908002693175291e-03,-1.225261019472134033e-02,1.229133391123160557e-02,1.677323222160339355e+00
1.220322834499264902e-02,-9.337835613790567146e-01,9.343676936743686712e-01,-1.427092641766936239e-02,-1.391731161034151856e-02,8.137273448295477551e-03,1.618340015411376953e+00
-7.505147495409317943e-03,-9.860859693220598299e-01,9.617093962517043737e-01,5.377249734217113501e-04,-6.383815142303609150e-03,-3.449234353069103275e-03,1.686893820762634277e+00
1.886986550070357538e-02,-9.795988558400711144e-01,9.489633103141844606e-01,-1.461244715124791196e-03,3.049476823866380465e-04,2.337030759934233086e-03,1.670540571212768555e+00
-3.928062561165537869e-02,-5.589440235917069177e-01,5.639821020924735695e-01,-3.376285775115109820e-03,-4.104221626507389281e-02,3.408869855078339173e-02,9.777746200561523438e-01
-8.708090947610505617e-02,-8.041623835531417352e-01,9.207714831350528595e-01,-6.087482016733679509e-03,-1.819738088152187197e-02,2.202600496739603314e-02,1.501747131347656250e+00
-3.236412558227479142e-02,-9.594433396576683704e-01,9.092952164280183602e-01,8.653657889375860430e-04,2.200930862217295204e-03,9.869184464401117851e-03,1.618486881256103516e+00
-9.338063071891564149e-02,-7.421365275235922709e-01,9.013625435018089993e-01,-5.518617251546245606e-02,2.106294961979324198e-02,-1.595290458713688811e-02,1.437697649002075195e+00
-6.154013946785517886e-03,-9.704312836869934955e-01,8.294350683284416048e-01,8.362239839359424456e-03,-3.252795949267836052e-04,-1.256131127093508201e-02,1.560276508331298828e+00
-4.213127061201650536e-02,-9.466857701277812120e-01,9.269943394382487156e-01,-1.848645985175806491e-03,3.016411418493739321e-03,-1.431115146521470642e-02,1.623176574707031250e+00
-1.282483319318271642e-01,-8.065582295353495024e-01,9.392861323679474461e-01,-3.498480745182206298e-04,2.648343949111274000e-03,2.304567755676522472e-02,1.524948596954345703e+00
-1.792647943504917241e-01,-5.045148479919874251e-01,8.540202851811575790e-01,-8.984538066407078000e-03,6.261745375448288763e-03,2.560643000900623793e-03,1.228788495063781738e+00
-7.391767932958745457e-02,-8.690369394297520200e-01,9.267697063945721236e-01,-2.342449538593756320e-02,1.198199456091719392e-02,-3.046976723793368841e-02,1.560165882110595703e+00
-2.447426014239998532e-02,-9.687392394587516220e-01,8.798766781640846579e-01,1.284669428534472059e-02,-6.566865386470260163e-03,1.879304539898240742e-02,1.601598501205444336e+00
1.955164724860206094e-02,-9.949404591133891307e-01,9.762139750757318213e-01,1.896177969395237972e-02,1.364034189651689398e-03,3.145120657605703779e-03,1.707640886306762695e+00
3.764443500958309513e-02,-9.627535721013933401e-01,9.328235960589671416e-01,7.029121144081528980e-03,7.718805574319443155e-04,-1.701768159114147409e-03,1.642509102821350098e+00
-3.349320999055465514e-02,-9.750712974803126265e-01,9.255253757359468425e-01,4.284330494768910126e-03,3.882814035448193049e-03,1.141024535001873737e-02,1.646137237548828125e+00
-4.824098114107869262e-02,-6.772840371424192485e-01,8.675619427086752600e-01,-7.828254572241297171e-02,-6.177590614404813649e-03,6.831008437803806621e-03,1.352445363998413086e+00
-1.737997520099546778e-01,-4.319277431958091218e-01,8.206410764432908733e-01,5.964893446137138275e-03,-8.354471088592867883e-03,2.940753507639605642e-03,1.145677804946899414e+00
6.353632870069049476e-03,-8.523404127994090862e-01,9.067866591009255961e-01,2.871971107455632832e-02,-1.281308281965120970e-02,-3.659216943785268978e-03,1.524578213691711426e+00
-3.167006354010461211e-02,-9.820749859527230230e-01,9.266439383376017247e-01,1.020047593459695416e-02,-7.944102236133947876e-04,-5.164083570522246501e-03,1.653123021125793457e+00
-7.593045169490519886e-02,-1.010603415910959146e+00,9.904149860676738637e-01,-4.969576343195529142e-03,5.437985392996110695e-03,-4.841758099265650213e-03,1.734250187873840332e+00
-2.423940213852204123e-02,-9.559173546323876947e-01,8.770768864880347238e-01,3.983076463462686956e-02,9.423923523029495430e-02,5.148498865256970897e-02,1.599839329719543457e+00
-7.553636722065165676e-02,-1.117156254389229275e+00,1.114093541010799271e+00,-6.643020416581017426e-03,6.170903055379114988e-02,-5.923445213550477054e-03,1.936748623847961426e+00
-1.112353942076459677e-02,-9.852379975826625058e-01,9.577362372954185687e-01,7.540313381175937696e-04,-2.978196161960723707e-03,1.276322619416950764e-03,1.682676911354064941e+00
-2.169036917938877984e-01,-1.875163035803665723e+00,2.225245645855228105e+00,4.599659427983229243e-01,1.894594572048569625e-01,7.027846609490029373e-02,3.677069902420043945e+00
-1.512344787661250994e-03,-9.812848107807511377e-01,9.567228679292573146e-01,3.566279829903393293e-03,-2.292624193668132970e-02,4.136091779312615901e-03,1.678894758224487305e+00
-5.748742792318808914e-02,-1.048184010273063738e+00,1.065776083615477265e+00,2.782079033278232055e-02,5.132817069519178543e-02,8.168504933110058014e-04,1.834732055664062500e+00
2.211142414553476931e-02,-9.618074880754966527e-01,6.747535478978750056e-01,-1.226086415167665193e-02,6.757201729258772993e-02,-6.272718298862832095e-03,1.431939959526062012e+00
3.052479617857324634e-02,-9.478084182801098656e-01,9.336413845773108289e-01,1.549888244462329506e-02,1.161904578522330103e-02,9.004593647337879453e-03,1.630237221717834473e+00
2.719136702063670516e-02,-9.646086097074820787e-01,9.402654959393468292e-01,3.377930458064698493e-03,-7.905143328282416768e-03,-6.316780168683812499e-04,1.650206446647644043e+00
-4.715070473907083393e-02,-1.026939747070872100e+00,1.015581482269825919e+00,3.332039217544462140e-02,5.090588783501740627e-02,-2.854367879123887418e-03,1.772503614425659180e+00
-5.271830458271821451e-02,-1.009361403730663742e+00,1.014542480336603436e+00,-1.336364898836392076e-03,4.361280222624511205e-03,3.528043480883053667e-03,1.753653049468994141e+00
-6.948867017772600296e-02,-1.015598304524554685e+00,1.015503917467846628e+00,-1.379835634597412902e-02,2.079839385892708406e-02,1.512612924019091087e-02,1.761081933975219727e+00
-6.916939754507109295e-02,-9.750049696901221807e-01,9.356638850375844640e-01,5.681916285990100651e-05,1.034343593846617088e-02,-5.908861327824152868e-03,1.655556559562683105e+00
-3.816063571925860931e-02,-9.899793436054744600e-01,9.376762830370005686e-01,1.009746891667934014e-02,-2.490346668121539483e-03,-2.913315622532127933e-03,1.669546723365783691e+00
-4.311977061088370644e-02,-9.807633761852666554e-01,9.196875819772911687e-01,9.511084510669535683e-03,8.033695021205228964e-03,-7.921389759368201167e-03,1.646085381507873535e+00
6.626490876104867978e-03,-9.644089550722548809e-01,9.465603755422200560e-01,8.774204741887609146e-04,1.241618528168560685e-02,1.839786718291634444e-03,1.655164480209350586e+00
-5.962351295530605999e-02,-9.656096925095851713e-01,8.924600845909836933e-01,9.871211335696974953e-03,1.149607308860603949e-03,-6.633347490919496402e-03,1.609433770179748535e+00
-5.752406280731579835e-02,-9.820941492091380676e-01,9.386959440012733191e-01,6.571961411993699001e-03,1.610839051106731888e-03,-8.872620325995833959e-03,1.663951039314270020e+00
-4.271743818029352657e-02,-9.584221121683258460e-01,8.533719081257234995e-01,6.149822589853409273e-03,1.457752147512747856e-02,-2.700362884475082138e-03,1.569336533546447754e+00
2.020674313303175498e-02,-9.658829043568215589e-01,9.440409352927641162e-01,-4.474503689464450276e-03,1.836755857937376064e-04,-3.525216658718748237e-03,1.654364943504333496e+00
-4.612630781603074825e-02,-9.752740857978274835e-01,8.930033924840961035e-01,1.560258603601742157e-02,2.181007909261751046e-02,-2.463041085132270866e-02,1.619212031364440918e+00
-3.534530781072557637e-02,-9.846882928975918547e-01,9.370282048882400128e-01,6.296504746755693382e-03,1.180097369231097870e-02,-1.211601540835865846e-02,1.664588689804077148e+00
-4.231955985303065965e-02,-9.529633254860911951e-01,7.976165240979190552e-01,2.859775271005822548e-03,1.142015823384116835e-01,-1.022005116820602286e-02,1.529415249824523926e+00
-6.154370120249446491e-02,-9.820719651208613676e-01,9.395722688682891510e-01,6.763609807723566271e-03,1.136738145584237011e-02,-8.889231975274679634e-03,1.664909243583679199e+00
-6.618181896638605788e-02,-9.932817068247765668e-01,9.818457503273347875e-01,4.026318926360484933e-03,1.033839561757041170e-02,-6.191765410022919379e-03,1.711720347404479980e+00
-5.974147296817403779e-02,-9.860121610895002942e-01,9.572431360049686866e-01,7.333784951954349859e-03,8.241033670285662083e-03,-7.230495955990992075e-03,1.683674573898315430e+00
-4.683725306656895404e-02,-9.856754318794070935e-01,9.525955081482994080e-01,2.773812440141813253e-03,6.151982295199852260e-04,-2.349041557246726256e-03,1.678877472877502441e+00
-3.620883540591036953e-02,-9.841613412439011999e-01,9.566718081338135837e-01,5.645351104217972635e-03,9.157818542034913342e-03,3.033360230297600896e-04,1.681064248085021973e+00
-7.007753959136808763e-02,-9.762711536100163734e-01,9.473464032105619603e-01,1.880080859908590633e-03,4.234403872918269217e-03,3.505733384808991989e-05,1.666849017143249512e+00
-1.894288351758182526e-03,-9.715007162955684450e-01,9.520299088810266763e-01,4.512519851128890015e-03,7.018428872475682145e-03,-1.475488489124838999e-03,1.665909528732299805e+00
-3.895059675818406640e-03,-9.274135773912558500e-01,9.381320007275495421e-01,1.105365392016256559e-03,2.134576352123890644e-02,2.502613724860497900e-03,1.616066336631774902e+00
-2.120082437258256208e-02,-9.972141718958400514e-01,9.780774790076801617e-01,6.975919219525113929e-03,1.817458273251673639e-02,2.926326198778797169e-03,1.711032032966613770e+00
-1.332877665495283415e-01,-5.500262394805478516e-01,8.507068299304924031e-01,-7.177202668477752033e-03,-1.927331904964918463e-02,1.135466796880907001e-02,1.246451139450073242e+00
-1.433502545097425397e-02,-9.938313729855889900e-01,9.591311141419289754e-01,-1.281763058405979271e-03,5.731867390329762300e-03,1.880657499175089706e-03,1.691351532936096191e+00
-1.001099466600933602e-01,-6.233455849797169268e-01,8.696581572579531461e-01,-1.140146766801752518e-02,4.318324213453863213e-03,4.383392695550322044e-03,1.312305808067321777e+00
-2.720023944229666910e-03,-9.851642264452032949e-01,9.550125623032756916e-01,3.782475516771437694e-03,1.500251534097414401e-02,4.329600823879740761e-03,1.680518269538879395e+00
-5.907882572590783532e-03,-1.043948291496251457e+00,1.056948501027458631e+00,-3.220996305791521547e-02,-9.703765278957054985e-03,9.459046189364182788e-03,1.820478677749633789e+00
-2.721573972690877752e-01,-7.238411953887797790e-01,1.562707784774341802e+00,-3.286512629359832904e-01,-1.034884025947174907e-01,-1.111594572042378937e-01,2.189237594604492188e+00
-1.280443701937361567e-01,-5.014179039286745798e-01,8.349425707903180838e-01,-1.675389401865579053e-02,2.407368020966626880e-03,2.506717089980338171e-03,1.194648027420043945e+00
-1.909147940722529802e-01,-4.676192390412705069e-01,8.615708847553569250e-01,1.603795429314052584e-02,5.504750213372731904e-03,-3.429825640898269412e-02,1.216515779495239258e+00
-1.447160032851914635e-01,-6.602566472807829268e-01,8.933014101804515050e-01,-6.315629520271154318e-02,2.629160119740118692e-02,1.904783762462828114e-02,1.376056313514709473e+00
-9.696373931826096637e-02,-6.998369502111121410e-01,8.873440240197987272e-01,-9.223469451453305060e-03,2.679045183754885304e-02,7.139012823894678311e-03,1.388629555702209473e+00
-1.421835635604435932e-01,-7.583774344385908472e-01,9.430151915292893650e-01,-2.324672272197372824e-02,4.142087227289938632e-03,-1.255359963872336448e-02,1.492712140083312988e+00
-1.587292490590123117e-01,-5.026969532632864501e-01,8.422520551573221548e-01,-1.155281082756686893e-03,2.074514454639834679e-02,1.922767766119913308e-03,1.210738897323608398e+00
-1.153739808173362968e-01,-5.032735153836975783e-01,7.960387262776963402e-01,8.612449436729095048e-03,-1.184283215119651296e-02,-1.082556623709971660e-01,1.170673727989196777e+00
-2.222814960183894240e-01,-5.019760036753708743e-01,1.007596512344791195e+00,3.383478467366710790e-02,1.713296017440779986e-02,-5.769450538255910949e-02,1.396108865737915039e+00
-1.899209788905796004e-01,-4.902140203374039107e-01,8.613461745743947739e-01,1.435846649309857267e-02,7.006383482526409162e-03,-5.934918839816931413e-02,1.233839273452758789e+00
1.639661411219187417e-02,-1.000896525449639807e+00,9.833202278705502897e-01,2.015302836451433877e-02,4.190922665006478406e-03,4.531339913800815078e-03,1.718954324722290039e+00
-1.472003104867101175e-01,-5.662254912567288301e-01,8.747932454521311074e-01,-4.739462962786167299e-02,2.267914326277169559e-02,-5.367271856922965073e-02,1.290433287620544434e+00
2.732901620403003357e-02,-9.595081619089883551e-01,7.897718775669502200e-01,-2.426891164024537093e-04,1.039629880358758016e-02,1.427226447026105557e-02,1.519377946853637695e+00
-3.401143139684375399e-02,-9.753808251771489690e-01,9.373646288324266607e-01,1.490726210403306917e-04,6.195367792314123399e-03,5.684973891816992933e-03,1.656618118286132812e+00
-9.826316124049913614e-02,-6.183222501997248655e-01,8.567575640151946503e-01,1.504603300718965198e-02,-7.232200216483986380e-03,4.055267910468175231e-03,1.296178460121154785e+00
-2.432221646408234614e-02,-7.948362399528013933e-01,8.992095259837138421e-01,3.110301573440107242e-02,-1.109899316389782731e-02,-2.322340088745745296e-02,1.470743536949157715e+00
3.714161962432434988e-02,-9.566641439712052497e-01,9.400502018623987377e-01,6.281315961596160326e-03,-2.838941111754680370e-03,1.598700241029997000e-06,1.643274784088134766e+00
3.626752184366876380e-02,-9.593488843926328835e-01,9.362970704764997931e-01,6.227002112897827082e-03,-2.754722922015223857e-04,-3.553454661510465490e-03,1.642420172691345215e+00
3.753946397732092766e-02,-9.658534079248720650e-01,9.350778290058356923e-01,7.478092173233712517e-03,-1.125699497195608439e-03,1.547061343698128083e-03,1.647159576416015625e+00
1.187270440356892436e-02,-9.325725997221929742e-01,9.343039608945996610e-01,6.798914018420234608e-03,-2.138322150607045030e-02,1.466086226732494233e-03,1.617269039154052734e+00
1.230332651811339578e-02,-9.145252548618578725e-01,9.419367925397311714e-01,3.156939556614175163e-02,-1.375323541892594856e-02,-9.339858892651304798e-03,1.608931183815002441e+00
-3.803298875336124513e-02,-8.466118895676296718e-01,9.172683555333517313e-01,4.331583888060522650e-03,-1.799381471558039736e-02,5.344508703734853795e-03,1.529689669609069824e+00
-1.927259525693342801e-01,-3.851870456865302828e-01,8.298142862102888540e-01,-1.481125885528868438e-02,-2.576053540295152391e-03,-3.675949132590973500e-02,1.133208155632019043e+00
-5.713454613441838748e-02,-9.831446340969798303e-01,9.523887940934838703e-01,3.548989636034161760e-03,2.248422027992394239e-04,-6.462346330730724814e-03,1.676789760589599609e+00
8.915924495443969255e-03,-8.279584905613540657e-01,8.979739653793614718e-01,3.392793793201002300e-02,4.572993636990775254e-03,1.865656405252496316e-03,1.496108055114746094e+00
-1.620848393319120617e-01,-6.315049955360225731e-01,8.914364200190776355e-01,1.755086025123032446e-03,2.602311419828722081e-03,-1.772836843473354906e-02,1.351213812828063965e+00
-2.566135989652758992e-02,-8.470054444188532816e-01,9.167481572087535779e-01,7.324134527908664205e-03,-2.753054706883001357e-02,4.591878797475093532e-03,1.529471278190612793e+00
-1.439705158811736552e-01,-4.282550686943680240e-01,8.446862682934512812e-01,7.680357176569574396e-02,6.036231139536551125e-03,2.288912945335137145e-02,1.165631651878356934e+00
3.416945167959470342e-03,-8.267662247338459780e-01,8.989850617173066327e-01,3.675536766045015696e-02,-9.776211377849864173e-03,-4.335475406623372761e-04,1.496352910995483398e+00
-5.132397637235880730e-03,-9.323837331808662032e-01,9.376769544670239265e-01,2.289531567601075981e-03,-9.857595036333519772e-03,1.921684742341336514e-03,1.619637012481689453e+00
-5.557089104716589345e-02,-7.536151756772047072e-01,9.040297467081117588e-01,6.798447990202853564e-02,-4.329548300920567014e-03,-8.559241409380814389e-03,1.446403980255126953e+00
3.709435856648196639e-02,-9.558912620494792733e-01,9.341959166823711191e-01,-7.492866509383232579e-03,-2.995789875985426561e-04,1.184582926013748750e-03,1.637618184089660645e+00
3.359669162322732189e-02,-9.274360101447226556e-01,9.236686926182025026e-01,1.891788309082654412e-02,-1.334907968605018001e-03,-1.466690600551330548e-03,1.603834748268127441e+00
2.713182403960997385e-02,-9.592488768096342211e-01,9.385235643882657852e-01,-1.269732522545539803e-03,-5.899524574818917032e-03,-2.158917874510694977e-03,1.643984317779541016e+00
-7.381835617275385453e-02,-9.616839104922140224e-01,8.897008493034117560e-01,6.975853595325737938e-05,-4.195088973311909136e-02,-1.087938330259715535e-04,1.605437517166137695e+00
-1.890660119677849138e-02,-9.398315443639184696e-01,7.789925945182653022e-01,7.195169428209715473e-03,1.061144921468225311e-02,2.638563717640857783e-03,1.489988327026367188e+00
-8.465690910745293785e-02,-9.734452450148088909e-01,9.482530166891193213e-01,7.358195599795068530e-04,-1.126841926419232080e-02,1.635989716248795319e-03,1.665916085243225098e+00
-6.299535412061815776e-02,-9.877739524505779745e-01,9.663403703395344602e-01,3.134849312660612994e-03,-1.476151069423107393e-02,9.051204208455759792e-03,1.693394303321838379e+00
-3.898203553909863200e-02,-9.894660610026828618e-01,9.577323102541556166e-01,1.115589092976198302e-03,-4.250474561413835305e-03,-7.600517970588846375e-05,1.686498880386352539e+00
-7.802444766965502265e-02,-9.749756496598636080e-01,9.447560632721079266e-01,-2.032818136910484290e-03,-1.235575725721100616e-02,9.653314854555744388e-04,1.663868665695190430e+00
6.300611853525295292e-02,-1.153922911070175861e+00,7.592647652256180324e-01,-2.626114375806184661e-02,2.567657979782488886e-01,4.616667435722992922e-03,1.735773205757141113e+00
3.794964164442169580e-02,-9.489556328773111060e-01,9.287482212878300780e-01,-2.248631978910047707e-03,-5.143396614058287457e-03,-5.927406792463757457e-04,1.626878499984741211e+00
3.809086442472731093e-02,-9.481115567687968815e-01,9.273656594276036280e-01,1.874129071343365880e-04,-5.244935326339057117e-05,7.175906951783180606e-04,1.624934315681457520e+00
-7.319002306098687516e-02,-9.791369982022970486e-01,9.497013863014579504e-01,-4.263329048827669068e-03,-1.104057121145555175e-02,-5.828001020848822857e-03,1.671602249145507812e+00
-8.057791659488552916e-02,-9.786273658582455015e-01,9.560797781897050207e-01,1.489494804080551118e-03,-7.208331979118690752e-03,-3.569207039886270957e-03,1.676998138427734375e+00
-7.429880608720271229e-02,-9.761429277411053373e-01,9.390786319746091682e-01,-4.919594614065565981e-03,-4.004423525374946682e-03,-5.085695611226543657e-03,1.659627556800842285e+00
-4.448652294546855818e-02,-6.478380991478109863e-01,8.504556154415995328e-01,-6.789406335113050417e-02,-7.435152288637032238e-03,3.399648023331876810e-04,1.311073780059814453e+00
-2.484967869677444929e-01,-5.533068060456000081e-01,1.479205563626279529e+00,-2.730196597497938638e-01,-9.212111953753857052e-02,-1.051658468065199206e-02,1.963134050369262695e+00
-5.031518395361091189e-02,-1.011750679414201048e+00,9.232604775343863368e-01,9.207940577203090407e-03,-9.733136664158836826e-02,2.339236720781283363e-02,1.684800863265991211e+00
-6.452041877126474256e-02,-9.641983629193424665e-01,8.952936080545889075e-01,-3.411571907039541093e-03,-1.535990430681541744e-02,-4.274973997682582003e-03,1.610895514488220215e+00
-4.705315494320039954e-02,-1.011203568494453586e+00,9.042574205255931030e-01,-1.962010481906212994e-02,-8.751307433841670758e-02,-3.672632012272922936e-02,1.667321562767028809e+00
-1.042780284879210873e-01,-5.263668082516539393e-01,8.357403185335039453e-01,7.108240271530744114e-02,1.708458539324588313e-02,3.448635597230681471e-02,1.215798616409301758e+00
-1.032636194699450699e-01,-6.222206782036153738e-01,8.625796213696971249e-01,-1.135169769266566528e-02,1.134197479990964146e-02,4.275349933381030788e-03,1.305460929870605469e+00
-2.033785863032799845e-02,-7.289478735938970111e-01,7.092630300330307058e-01,2.951316114154810544e-01,-3.149387032318479163e-01,6.178296166979014604e-03,1.452731847763061523e+00
-1.873261300518436756e-01,-3.738494818969808620e-01,9.237812047436370078e-01,3.652394291995674641e-02,-5.193516487323076442e-03,8.638750160786501375e-02,1.225997209548950195e+00
-8.063485990569374540e-02,-6.795392224783036728e-01,9.543196942160814267e-01,-3.192562350697856211e-01,-1.913710661240602129e-01,4.676557207736430077e-02,1.572214841842651367e+00
-6.855200996463672869e-02,-9.871721444677001855e-01,9.753858386555170901e-01,-3.643190010035176826e-03,1.854246466222836745e-02,-9.795639939559629833e-03,1.701179146766662598e+00
-2.072897265081081464e-01,-3.101524288735906243e-01,9.022973135930514310e-01,-2.556198978405377353e-01,-1.048112819463901391e-01,3.809081160678554068e-02,1.260647773742675781e+00
-1.888426572394164005e-01,-3.356276241257515891e-01,8.708522505541034242e-01,1.421103188177291476e-01,-2.289706977009628788e-02,-5.408968815186331741e-02,1.170889496803283691e+00
-1.646244658891104495e-01,-4.864906510588049016e-01,1.244654029839564524e+00,-1.999146888550535905e-01,-2.122691346240130339e-01,-1.582388725441367661e-01,1.695126414299011230e+00
-1.733804229083009130e-01,-3.962617940089080415e-01,8.325842672897300067e-01,4.196729515687652040e-02,-4.642935844802489193e-03,9.170187425311362300e-03,1.136420965194702148e+00
-1.537195495761868314e-01,-5.904581148361475185e-01,1.004978648298017863e+00,1.664277883539463099e-01,1.860003144548725770e-02,9.607431491239400156e-02,1.466694831848144531e+00
-4.035758774278412619e-02,-9.826513272178256653e-01,9.368116216069226621e-01,-1.033328439373533761e-02,-8.114686346548865420e-03,-1.014154942872444801e-02,1.662643671035766602e+00
-3.350022741451470776e-02,-7.700558401960561072e-01,8.917403336337005326e-01,8.708259797300334573e-03,-5.323914983557094180e-03,-7.700571468965054745e-04,1.442355632781982422e+00
-3.821243733818278226e-02,-9.918706625390032450e-01,9.557443501654475648e-01,-8.291020697596818492e-03,3.941333432728269873e-03,-1.717586279770338953e-03,1.686882019042968750e+00
-3.233496626302412996e-02,-9.455221016866894868e-01,9.007843023936918936e-01,-5.420064132852846391e-03,4.253348940917932655e-03,2.849565873451733768e-03,1.599031448364257812e+00
-1.363732318665291654e-01,-5.095832999326541657e-01,8.460080590587673033e-01,-5.567856143488684323e-02,1.207275567824071284e-02,-2.223739703679725524e-02,1.217462301254272461e+00
-3.500771056409118787e-02,-9.780271603698591498e-01,9.391992157526125595e-01,-3.878043446323262491e-03,-3.932198812206133542e-03,-1.068790428581468076e-02,1.660570740699768066e+00
-3.195222945972581163e-02,-9.830477517200690851e-01,9.543089797177198852e-01,1.266615532670906314e-03,-2.893838228104545374e-03,-1.261806278254069390e-03,1.677902579307556152e+00
-3.114957514979468933e-02,-9.764806792199482999e-01,9.091877499822802466e-01,-9.472987311621043627e-03,2.612275285150168509e-03,-1.069051786953267857e-02,1.633232355117797852e+00
-1.725826295859331228e-01,-3.000883987351098958e-01,1.166200293745883965e+00,7.692925541597539496e-02,-3.198521259993824389e-02,3.309993039604808285e-02,1.415418744087219238e+00
2.734237366492110050e-02,-9.273790271664174023e-01,9.271001309699843373e-01,1.775135088155145938e-02,-2.651034115566627044e-03,-2.873854528117338394e-03,1.606569647789001465e+00
-3.353351306669620502e-02,-9.615635091304048920e-01,9.266139968786362147e-01,8.182705301230019847e-04,5.950700442667378187e-03,1.171596761326879586e-03,1.635322928428649902e+00
-3.814689969360234023e-02,-9.552163290945189233e-01,9.441720861009850196e-01,8.423735605816497565e-03,3.224047317695181211e-03,-2.772602213778892905e-03,1.645323276519775391e+00
-3.324092570824623005e-02,-9.890451242489507466e-01,9.520600135039369860e-01,-4.963286360891690577e-03,-7.367671762001742203e-03,2.919763930130461500e-04,1.681181550025939941e+00
9.178297608670353547e-02,-1.017119804594491139e+00,6.277839466942854996e-01,-2.028654124772629689e-03,-1.056611049082414877e-01,1.368334930192969257e-01,1.483580350875854492e+00
2.704918970497546121e-02,-9.700802953779459337e-01,9.616427941028159454e-01,3.928860354520800902e-03,-5.448134038692863459e-03,7.358185122445680057e-03,1.673302412033081055e+00
-7.934796438109460726e-02,-1.037591330521620669e+00,1.034876252860904566e+00,2.378978931839172833e-02,1.525767340486607060e-01,3.102499134569558850e-02,1.817098855972290039e+00
1.822256248579009336e-02,-9.128919101210334341e-01,9.261762479324830988e-01,7.325232398481906423e-03,-1.013494056276166046e-02,-5.646633365364953647e-04,1.592869400978088379e+00
1.356205782522071010e-02,-9.865378644913199713e-01,9.542127871857254418e-01,1.054002271572948221e-02,-8.705127489085577597e-03,-6.570123482059058448e-04,1.681169271469116211e+00
-3.064813029783246962e-02,-9.463803058930448930e-01,8.911495796656082602e-01,2.597730919895743784e-02,4.550631306746385357e-02,9.129954750285742410e-03,1.594014883041381836e+00
3.479425337487693920e-02,-9.787796956983511043e-01,9.520093081939483559e-01,1.256664892778524417e-02,2.410295577631296760e-03,1.546421485777191122e-03,1.672955274581909180e+00
3.546209508617652328e-02,-9.555739940560933343e-01,9.344629906512826878e-01,6.564023092180831971e-03,-1.687919214087900367e-03,-1.480949867356182170e-03,1.637510895729064941e+00
-4.501878442489552767e-02,-9.932298328250117603e-01,9.654398581459751050e-01,-4.255761723763275273e-03,1.268046616441573238e-03,7.777240791134695450e-03,1.696614146232604980e+00
-1.587300642835598463e-02,-1.109296278973864291e+00,8.840524315006633715e-01,-3.340358722269926896e-03,-2.123091222103641595e-01,-6.122993572151787245e-02,1.770860195159912109e+00
-1.736423489522870844e-01,-4.838569488383951955e-01,8.519314459098441539e-01,1.351512514649684657e-03,5.190877115291973876e-03,6.075738294543248791e-02,1.215460181236267090e+00
-7.549869160165074630e-03,-9.355369882903818990e-01,9.395185647665189599e-01,-3.656972728522266472e-03,-9.147823726945562145e-03,-2.252536123523701979e-03,1.623968124389648438e+00
-2.980308227156273568e-02,-9.818060826729196888e-01,9.617253704110497736e-01,1.422201991154404318e-03,-6.127828498051658170e-03,8.322989680427746520e-03,1.683360576629638672e+00
1.041561301102214565e-02,-9.815464249616990822e-01,9.528718505987036069e-01,6.678861029288903680e-04,-1.292648846034251051e-02,-3.326493709339370906e-03,1.675598144531250000e+00
-2.694940503217037320e-02,-9.907419050077984624e-01,9.516296011132906463e-01,-3.617316282199036469e-03,6.167373075825955189e-03,-1.122231056675155030e-03,1.682206034660339355e+00
-3.919943954636169459e-02,-9.785834794340462217e-01,9.529824587594124541e-01,-3.427571264736257463e-04,7.434151051171597295e-03,4.421605138954439428e-03,1.673060655593872070e+00
1.781744009149878460e-02,-1.117489446232959427e+00,8.437439574435204870e-01,9.831327754156683751e-02,-1.691639139880076748e-01,-9.285468773079438853e-02,1.746272683143615723e+00
-7.890560419979214535e-02,-9.764671497989094728e-01,9.503882078965741886e-01,5.032790526791664637e-03,9.559988610403219456e-03,-3.349074487052146505e-03,1.670120000839233398e+00
-1.465243497527717043e-02,-9.765832012438566689e-01,8.579754864389919078e-01,-7.248081559640679253e-03,-2.411070699512059268e-02,6.981165899739644664e-04,1.590000271797180176e+00
1.591754116603189689e-02,-9.947308216419205040e-01,9.663402680292479952e-01,-1.320831167404836609e-02,5.040629496559539610e-03,-8.501821064043241531e-04,1.698781490325927734e+00
-3.519631924504663251e-02,-9.370850885484108828e-01,9.419992463483254364e-01,1.928851793734461710e-04,1.959366412402760091e-02,9.016140338745750812e-03,1.628198981285095215e+00
-3.804127980247856700e-02,-9.540492309072083899e-01,9.315298208524865897e-01,-2.693121611858423757e-05,9.201147576211285081e-03,1.311052487588479365e-02,1.633414626121520996e+00
-6.006075232814192533e-02,-9.870024075760109872e-01,9.429550015954460962e-01,1.315289846262057520e-02,-1.336924663276926328e-01,-6.639499941956054051e-03,1.687978267669677734e+00
-5.310981512363101287e-02,-6.686847979474982440e-01,8.643695075511158565e-01,-6.113844211557126207e-02,9.268651969178604705e-03,3.562295571740190393e-03,1.340517759323120117e+00
-3.567714627238343511e-02,-9.815823427638361576e-01,9.623983996799898577e-01,2.718147457672501644e-03,3.596707203687186678e-03,-5.791718068882106135e-04,1.683757185935974121e+00
-1.032602974524325368e-01,-5.588904477459325504e-01,8.369917217417432997e-01,-1.669454638895943518e-02,-8.878044301782492959e-03,-1.324205240917662512e-03,1.233352184295654297e+00
-3.033219488016936083e-02,-9.471211559119636636e-01,9.444772344476424220e-01,7.205321493494869743e-03,1.626119360233927585e-02,1.042269724977145512e-02,1.638818144798278809e+00
-4.663419351283051156e-02,-9.635915884258984265e-01,9.351081207926065231e-01,1.170063708676081712e-02,2.274378916525788066e-03,1.900825113478162281e-03,1.644774079322814941e+00
-1.778549112990952530e-01,-4.554218589732211275e-01,8.328299624907997689e-01,-6.759242934175546322e-04,-1.438928582375941650e-03,-7.474385835917655464e-03,1.174408435821533203e+00
-5.624749568476974937e-02,-8.277983491417341133e-01,9.246979060095397163e-01,-3.146136349882588945e-02,2.822503684153929507e-02,-3.508804513339666004e-02,1.524285674095153809e+00
-6.224589654343403583e-02,-8.227862689292972931e-01,8.900404632079073064e-01,-3.391548830747067797e-03,6.907258104066045599e-04,3.294443469056797941e-02,1.487553358078002930e+00
-3.996589179525138896e-02,-9.623544200552370809e-01,9.173122752874920405e-01,-1.675443055570887503e-03,-1.271931288687681415e-03,-9.224667976879256286e-04,1.627937436103820801e+00
-4.898836328263547757e-02,-9.517150532091422921e-01,9.277399395733768594e-01,-5.686260692686488302e-03,8.095238329722863422e-04,2.830842286985098960e-03,1.628114104270935059e+00
-2.774384231607565990e-02,-8.618001205390550812e-01,9.276115671117104444e-01,-9.121477644518045935e-03,-2.822581901984129796e-02,-3.507572887060035269e-03,1.551725029945373535e+00
-7.930456052830446578e-02,-9.112291301191463022e-01,9.491618742876677395e-01,1.497600389150367285e-02,-2.035194720871759573e-03,3.798064536332441000e-03,1.614365696907043457e+00
-3.742511363913250677e-02,-9.777652041310856967e-01,9.577075777970679438e-01,-2.409901392683534010e-03,2.220943280863142688e-02,1.780915736043369932e-02,1.677122712135314941e+00
-8.220430491421874819e-02,-8.224808069901502483e-01,9.021227331144953121e-01,-3.426243894747552348e-03,9.540167634276202962e-04,2.931684287409609332e-02,1.499399781227111816e+00
-7.544067222755448943e-02,-8.590368594125519230e-01,9.240648561673163730e-01,1.362808480896930685e-02,-4.929903414225852640e-03,-8.545232104210135141e-03,1.548254609107971191e+00
-3.515200897005432701e-02,-9.736558781860092937e-01,9.345768198631934087e-01,1.433660476471168305e-03,-2.040828931715724277e-03,4.431175299034246671e-04,1.652657508850097656e+00
-1.007071120380286650e-01,-6.743083992163753093e-01,8.837529269273242116e-01,-1.005704289172061616e-02,-2.505052493776979694e-02,2.405327153705701451e-02,1.366304993629455566e+00
2.002686518321719622e-02,-1.003593593174290088e+00,9.791068004887618637e-01,4.250353665938063491e-02,6.339803687659623446e-03,-1.285575463273846324e-03,1.718985795974731445e+00
-4.974615434072518494e-02,-9.679844945504503251e-01,8.910788368413289362e-01,-1.441437295573182002e-02,-3.577849111058824250e-02,-2.127526563647988075e-02,1.611842513084411621e+00
-1.663899338860773749e-02,-1.113594907583656424e+00,1.215198735959251319e+00,1.730826408201355249e-01,-5.482168209726406838e-02,2.088972243943758994e-02,2.042598009109497070e+00
-1.310815139286634623e-01,-5.537177839265329249e-01,8.619112408532930703e-01,-2.884549985332770378e-02,-9.366718238638872124e-03,6.625121932100891398e-02,1.265012979507446289e+00
-2.753501885815436492e-02,-9.743665639465795003e-01,8.982248981091576212e-01,-7.922729135057274275e-03,8.690530060332611866e-04,9.322573573116115994e-03,1.621885180473327637e+00
-1.597591049271933628e-01,-4.535644045056790863e-01,8.205903806978339654e-01,-4.503325855820469042e-03,-7.025247162289546474e-03,-9.195039175805410497e-03,1.155811905860900879e+00
-1.918296352844813257e-01,-2.703922437325484984e-01,1.351868048066685368e+00,-1.270807708705484207e-01,-4.288304350221992800e-02,-1.205627846589480030e-02,1.601515889167785645e+00
-8.903558418759636994e-02,-7.683292997952207992e-01,8.991267916473408839e-01,2.222552829249314216e-03,2.881640362131953140e-02,-1.062799828197058885e-02,1.453272938728332520e+00
-3.004988355672131087e-02,-9.843537922132304940e-01,9.252991286029631501e-01,-7.892671006635140762e-03,1.693589792739787128e-03,-1.430372117701315775e-02,1.654052734375000000e+00
-2.987691770092794005e-02,-9.851456592570617676e-01,9.178613202883552091e-01,-1.290992288937535884e-02,-1.004000493156782109e-02,-1.338458714634689628e-02,1.648463129997253418e+00
-3.770934198686837213e-02,-1.112968600810528397e+00,1.201359791592662596e+00,1.305358134580804907e-01,3.173067522260168000e-02,-9.952732422302559834e-02,2.026734352111816406e+00
-7.973799557255570325e-02,-5.362311405033188816e-01,7.009211293831494327e-01,2.961762331432641338e-01,2.799985925318911884e-01,8.263900104032614879e-02,1.301163554191589355e+00
-2.640093633459320022e-01,-2.316377025064125239e-01,1.363679226015773738e+00,-1.382774690586391353e-01,-6.262992139844263118e-03,-3.884509087856765491e-02,1.630868911743164062e+00
-5.980667913485338688e-02,-1.094966072708003502e+00,1.128516228918614139e+00,1.316669756120595822e-02,2.236933531250641372e-02,1.473176016970926920e-02,1.927807569503784180e+00
-3.226837892258260093e-02,-8.848340313111584532e-01,9.326113296209461723e-01,1.583464782166282619e-03,2.641289371799398350e-02,1.996842005065590717e-02,1.576001644134521484e+00
6.320148147520639192e-03,-9.519236482127723109e-01,9.430123018982216054e-01,1.253249111426753964e-02,1.366841006404180027e-02,-1.630291223517475437e-03,1.641414761543273926e+00
-2.523224936765437743e-02,-9.459905807250664767e-01,9.468267459691024346e-01,1.304715998499865817e-02,8.261633049279413013e-03,4.151186234439765846e-04,1.639646887779235840e+00
2.097284336826353568e-02,-9.566265589889429988e-01,7.776193077198030323e-01,-6.958323635448163472e-03,4.983644306393950757e-03,2.019020877585318841e-02,1.506437659263610840e+00
1.907365026157553656e-02,-9.639574384862104051e-01,9.434759951340795370e-01,3.749174348083750274e-03,-1.202815022259838459e-04,4.367656918712252249e-03,1.652176022529602051e+00
-3.309203788051551243e-02,-7.702430283122451149e-01,8.924765286945942622e-01,1.486557376854576867e-02,7.086521699010140708e-03,-3.619224339430900800e-03,1.443331360816955566e+00
1.621339424719851763e-02,-9.710812742829334487e-01,9.470494294548624792e-01,-1.540553751352501978e-03,-2.493889466088596539e-03,-3.142684690959618161e-04,1.661397576332092285e+00
-7.510975602462850037e-03,-9.857941691979082988e-01,9.590077611124910861e-01,-4.831651857981006729e-03,-2.713862569339381241e-03,-1.588910412007802243e-03,1.684287786483764648e+00
1.371594537104537173e-02,-9.858500133213902172e-01,9.534713579083088364e-01,5.472767803730706898e-03,-1.447442947425263199e-03,-2.250611078770300196e-03,1.679800987243652344e+00
-4.431309805157632870e-03,-9.933231785610729947e-01,9.578245342407449847e-01,-5.436767662993348925e-03,3.753655066382335231e-03,-3.942195824812180262e-03,1.689848542213439941e+00
-5.114584934125218640e-02,-9.869168591692334402e-01,9.560035114558924629e-01,-6.942032294018144790e-03,-3.697439842114622240e-03,-7.341126340743010965e-03,1.683099985122680664e+00
2.818761546046802055e-02,-9.792240938730483180e-01,9.490456072543870247e-01,8.104616120797039289e-03,8.206821794257532568e-03,4.849420959305412136e-03,1.670631766319274902e+00
-1.788457667598048048e-03,-9.411376141519287586e-01,9.440584914863825450e-01,-1.905957967967333031e-03,2.002526396818647692e-02,-3.511889531510839057e-03,1.633013963699340820e+00
7.394029799026490685e-03,-9.839237971889451817e-01,9.522609385536316973e-01,9.417870309751207383e-03,-5.907487938369273888e-04,-1.778093413818033781e-03,1.677028536796569824e+00
5.220634879749774804e-03,-9.864512624881192071e-01,9.647485965974260669e-01,8.983435070457327157e-03,-3.446329436484161460e-03,-6.476866368417181054e-04,1.689947605133056641e+00
-2.707564281122461919e-02,-9.867869333922602015e-01,9.658680427542857272e-01,-4.208088285051190570e-03,-7.428743703739295809e-03,-4.747837854666107395e-03,1.691215038299560547e+00
2.834884109055357815e-02,-9.681984706126873785e-01,9.447979352137212405e-01,4.627487991223583688e-03,8.342084132996412105e-03,4.531867393134023786e-03,1.657288432121276855e+00
-3.624726566266209260e-02,-9.966190118935185360e-01,9.634864569996365313e-01,-3.665044486369183866e-04,-3.637140248763325555e-03,1.251125476927031355e-03,1.697628378868103027e+00
-3.328630664768940373e-02,-9.948585383659167558e-01,9.675179716306985256e-01,5.209591431382274915e-04,-7.799935260845833242e-04,-2.249680127906754628e-03,1.699586391448974609e+00
-7.859997124217399378e-02,-7.545189501783275965e-01,9.040559538962490427e-01,-5.920697329248223242e-03,-2.499803919394517210e-02,-1.293417489298558792e-02,1.445391535758972168e+00
-2.219624847357547920e-02,-9.825844523390748764e-01,9.586711049965650489e-01,-6.332247824054295336e-03,-6.206553412308736702e-03,-3.578848978848168678e-03,1.681289434432983398e+00
-3.287130793956610786e-02,-9.875817840964266070e-01,9.407713131737461820e-01,7.461111674135118693e-03,-4.287263447966081255e-03,3.989117179992476142e-03,1.670110344886779785e+00
9.685316104145486743e-03,-9.661259558150652182e-01,9.445092465622819677e-01,-4.484994589078315601e-03,1.545299284013398281e-03,-1.616612134968830727e-03,1.654808282852172852e+00
-3.181280800186233465e-02,-9.715489336980913659e-01,9.496325621307242226e-01,2.067207409095835925e-03,9.292632828279318719e-03,2.338296859364522810e-03,1.664009332656860352e+00
1.839907907602218035e-02,-9.823049756145760814e-01,9.531729430654716229e-01,1.567689546350793097e-03,3.197591562630009050e-03,2.489142247417730795e-04,1.676508545875549316e+00
-6.238747664731047332e-03,-8.504308372259971049e-01,9.173013778840799493e-01,2.715167456790006442e-02,1.530372269017409373e-02,1.741573678630620181e-02,1.532663106918334961e+00
-2.263289167486082915e-02,-8.979312955028049270e-01,9.342324607206297093e-01,1.450279925153650541e-02,2.631884152281949163e-02,2.370762530318979225e-02,1.588608384132385254e+00
8.634901795908036040e-03,-9.773203731077649836e-01,9.616156400607578369e-01,2.008109087823797476e-02,9.493159685688276270e-03,8.307714333942570542e-03,1.679751038551330566e+00
-3.067468853129060730e-02,-1.067115837628525021e+00,1.073710698107017913e+00,1.860702748237827164e-01,-5.912234541702933444e-02,4.017979999247272421e-02,1.886187672615051270e+00
-3.574120223647878763e-02,-1.006498871725918676e+00,1.048569781697717751e+00,6.619157163790165277e-02,-4.208789203451620414e-02,3.323207411186161059e-02,1.786749958992004395e+00
-4.908733250060243192e-02,-1.025969150048037903e+00,1.038574765818261136e+00,6.889369247969215695e-03,3.330601994740664280e-03,1.061231340981397785e-03,1.788855314254760742e+00
-5.349681843351342114e-02,-1.014662570327130142e+00,1.040806481793844496e+00,-6.005761797312918898e-02,-1.162600840110101369e-01,1.725892811548245670e-02,1.795942544937133789e+00
-4.179915567268471105e-02,-1.212078546030141757e+00,1.120341860612808382e+00,-2.251198531667885847e-02,-1.286762455110199432e-01,3.105129220003463239e-02,2.033283233642578125e+00
-3.453589189911890345e-02,-9.818406095385650012e-01,9.402728386328363941e-01,5.401221217825044130e-04,-5.352019642992070572e-03,3.194278527689510191e-03,1.664691090583801270e+00
-6.286921373653003853e-02,-1.017878395525665391e+00,1.000482712932089679e+00,6.397476754910687811e-03,-1.053227150778732885e-02,-6.563564214422792920e-03,1.748958468437194824e+00
-8.184075360008824518e-02,-6.039728636999323053e-01,8.112762428552575678e-01,-2.650404404134793501e-01,1.443049804199048880e-01,1.847028343902778202e-01,1.382809281349182129e+00
-1.271893445159739122e-01,-4.512286423933947743e-01,8.939051695064392788e-01,1.998714253812000907e-01,3.522605576204615972e-03,4.445438913160892902e-02,1.266618251800537109e+00
-1.790496033487938288e-01,-1.759515791843429544e-01,1.284396188373501557e+00,4.915233537243548015e-03,-1.351510254859612445e-02,-5.609949134037638119e-02,1.465336561203002930e+00
-1.334159143655748447e-02,-8.408627517458610034e-01,9.680580653604995423e-01,1.166182216670202665e-01,-4.445927314743892099e-03,9.297369116894542429e-03,1.581513047218322754e+00
-2.139587513670667962e-01,-3.046558321012202697e-01,9.146418245210231612e-01,-1.148679400916246679e-01,1.034824774617053647e-02,7.671616823399257656e-02,1.200786113739013672e+00
-7.150389432511825016e-02,-8.782114602900877864e-01,9.414312444864144647e-01,4.022253918902362127e-03,-1.997931268756210355e-02,-1.450216748915025833e-02,1.579820871353149414e+00
-4.152970941834348284e-02,-9.345150958814042452e-01,9.520327751563618657e-01,1.308919087485603582e-03,-1.808338563905468460e-02,-5.563921521502838627e-03,1.634902119636535645e+00
-1.550291956293306517e-02,-1.021302184237076194e+00,9.219920088218241938e-01,-2.774873047590934241e-02,4.201302547380637853e-02,-1.181589540610443120e-02,1.685670375823974609e+00
-4.844309735499351122e-02,-8.108365128385340848e-01,9.158863659679982172e-01,4.674497440782754420e-02,-1.608973348822677688e-02,1.192690411019099554e-02,1.501376748085021973e+00
-9.131356965924378177e-02,-7.707784902711318775e-01,9.128712664770489704e-01,2.664500209783523654e-03,2.460264670169038520e-02,-1.146148716017859545e-02,1.467855334281921387e+00
-6.561148626639384807e-02,-8.582839585219576017e-01,9.213935743114892718e-01,1.563350183030784131e-03,-1.261715271732712258e-02,3.633298368695548480e-02,1.545744299888610840e+00
-2.760537988914568003e-02,-8.626766239697786220e-01,9.225383531978105234e-01,3.827327691474008420e-03,2.087116000889543618e-02,-7.170963032973305326e-03,1.547598123550415039e+00
-3.653699570835497457e-02,-9.733643688257436200e-01,9.341445719646161994e-01,-1.065447082243617567e-02,2.427725985042179097e-02,4.026946430432723489e-02,1.654147148132324219e+00
-6.612128737461028805e-02,-6.805027240112584419e-01,8.719100624430968782e-01,-4.361366147865648746e-02,-2.845611159491243450e-02,5.501413238825365176e-02,1.360474824905395508e+00
-6.780372687138194743e-02,-7.013175035672067903e-01,8.844809969683915529e-01,-5.312316942441350220e-02,-3.158074914662312160e-02,1.919099628066523941e-02,1.387095689773559570e+00
-6.479392310701731494e-02,-8.063897873357053214e-01,1.014210063975226950e+00,-1.548550632271668281e-01,-3.372127724882369865e-02,1.279590871267012597e-01,1.624460220336914062e+00
-3.678975575216977129e-02,-9.924925183411225094e-01,9.532268704915968227e-01,-4.835403232959562501e-03,5.035130433019969348e-03,3.460516864305111275e-03,1.685183763504028320e+00
-5.804714059699799672e-02,-6.930480468436275299e-01,7.941201305817152667e-01,-9.979053641294860499e-02,3.345097481069669171e-02,1.638045858658371962e-02,1.305595040321350098e+00
4.870149182872041994e-03,-9.641136233854137316e-01,9.468635480605970267e-01,-1.211868690628960330e-03,1.169012879982726273e-02,-1.725478552027535787e-03,1.655137658119201660e+00
-5.718299207544028095e-02,-8.318943682800685746e-01,9.164594185303284180e-01,-6.230220049722953735e-02,-3.211720076189232553e-02,-7.209297862911663059e-03,1.522282600402832031e+00
-9.160020368971091148e-03,-9.530279133943357905e-01,9.485295881618133196e-01,-1.826985546946818806e-02,2.814977566541769505e-02,-9.746498546891696133e-03,1.647923588752746582e+00
-1.563172941364706497e-02,-8.484556695139725546e-01,9.491473301727907375e-01,1.176089309314587716e-01,2.773123901253257695e-02,1.487312263839566696e-02,1.572371363639831543e+00
-3.086579149000837768e-02,-8.232598696621583612e-01,9.136637584024780434e-01,4.092416794786297302e-03,2.096540600696442797e-02,2.082687487460371106e-02,1.507028222084045410e+00
-1.986193450303229413e-02,-9.650775842547733019e-01,9.553947545191434632e-01,-5.588025783410046840e-03,2.205828073315436663e-02,-2.901442757729556354e-03,1.663720130920410156e+00
-1.149314003787030997e-02,-9.899749031674347499e-01,9.598547458319679482e-01,1.203812240563687528e-03,7.978569530870879833e-03,4.636910576362733745e-04,1.688663840293884277e+00
1.174177640478115195e-02,-9.163893692625136866e-01,9.368765744078582092e-01,-4.573107330275085619e-02,1.131045198133971176e-02,-1.148985285782313029e-02,1.607172012329101562e+00
8.834826555128478393e-03,-8.636828839104665478e-01,9.136381341817332302e-01,-4.874236410937820424e-02,1.031456385015445086e-02,-2.441348784967279500e-02,1.542286515235900879e+00
5.738694553025548879e-03,-9.520280522434289017e-01,9.424501779277115743e-01,-2.723559678855836524e-03,8.598643885415617125e-03,3.564399277512752574e-03,1.640786051750183105e+00
-1.294839631763195463e-02,-9.815828030373164870e-01,9.591819569918215160e-01,-2.421258623386012433e-03,2.072394163819638816e-03,-3.221114357530364437e-03,1.680770874023437500e+00
-3.415405666643574201e-02,-9.948673754565463545e-01,9.604772004653908679e-01,6.385247279654295526e-03,-4.427021294587014238e-03,-3.032494918595895258e-03,1.693524599075317383e+00
-9.311652717894887410e-02,-7.170386562603725533e-01,9.975232436878229692e-01,1.780196518863445543e-01,3.803757864252056697e-03,7.604032156987755586e-02,1.540036082267761230e+00
-1.461296932399142323e-01,-4.263168174259859278e-01,1.010586842049184586e+00,1.928177719882353258e-01,1.684948610322636528e-02,-3.009957311191023901e-02,1.362241148948669434e+00
-4.755667467257820857e-02,-9.952095214133205303e-01,9.651068512105985819e-01,-1.282621279597869228e-03,-6.813705251345721775e-03,1.593948948961674628e-04,1.698037385940551758e+00
-5.976068044868233439e-03,-9.798133365139520823e-01,9.563612291702575652e-01,1.086566013425269541e-03,1.369253209059637186e-03,-3.629911257739047107e-03,1.676800727844238281e+00
-1.717581338888610476e-01,-5.900144288423115890e-01,9.234357247759255038e-01,-9.536004862302041346e-05,1.656678404256620857e-02,1.060916576757503088e-01,1.366400122642517090e+00
-1.465679290635218956e-01,-5.351325140412792614e-01,9.464824310684533115e-01,1.032731025065466574e-01,3.680452491178570762e-02,7.925854586140146374e-02,1.351061701774597168e+00
3.753064391676216166e-02,-9.774603076117444056e-01,9.470028555094224254e-01,-9.167118496787626802e-03,5.463887483367490952e-04,-1.109411841996437885e-03,1.667545795440673828e+00
-1.317626034497620113e-01,-3.156530936973210855e-01,8.715300564697305852e-01,1.813902867336017743e-01,-7.072073968695736373e-03,-1.625550398829856552e-02,1.150894403457641602e+00
-4.896008464874003485e-02,-9.502632594075907102e-01,9.352880789011416285e-01,1.034984000293491004e-03,-1.108479572956870855e-03,2.563758510865887796e-02,1.634067535400390625e+00
-4.092381030496115846e-02,-9.848660624270459962e-01,9.305995877715483866e-01,1.074674724158639072e-02,3.761713539338593939e-04,-5.899918172109126953e-03,1.659035205841064453e+00
-3.578112263284424777e-02,-9.887798597638034481e-01,9.421514940585978826e-01,1.073466974141752163e-02,-7.231931074682881877e-03,4.586016552911866516e-03,1.672451257705688477e+00
-2.845724465633368491e-02,-9.258757040661469428e-01,9.439281703144308810e-01,-3.631080347655806125e-03,-1.379703016978068783e-02,3.773574779293329112e-03,1.619933128356933594e+00
-5.654088731531534823e-02,-9.382981658572259187e-01,9.436801796235549933e-01,-9.718331651334211421e-05,-1.124719968675277730e-02,5.735176753055052160e-03,1.631063580513000488e+00
1.060397314166683369e-02,-9.454176113264471937e-01,8.099655416603200875e-01,-4.271765385648489989e-03,1.093557363571231490e-02,-2.149080393738727127e-02,1.522813916206359863e+00
-2.514674070067138972e-02,-4.821417715163885953e-01,2.866824602371361719e-01,-1.005395972980071828e-01,1.909589218173987080e-01,1.241190009698736468e-01,7.965698242187500000e-01
-5.369347918944086806e-02,-9.530136808292566375e-01,9.419772804129377120e-01,-4.863549975031436663e-03,-7.438336795607406599e-03,1.255025028352429843e-02,1.642033338546752930e+00
-9.732602372642089328e-02,-8.340606669254760908e-01,9.560298704053046270e-01,3.281156778500664978e-02,3.137694600992499590e-03,2.754878971007998847e-02,1.560101389884948730e+00
-3.869672611645726124e-02,-9.657818151655956918e-01,9.306701581019423131e-01,3.147347761689606779e-03,-1.742587219789299259e-03,-8.516619225143103392e-03,1.642589688301086426e+00
-4.289218495269733755e-02,-9.565031768203450246e-01,9.378939481681063395e-01,-5.843921410094087170e-06,-1.201705959644360985e-02,5.991562355667367709e-03,1.641104578971862793e+00
-8.636155335888198725e-02,-8.167687906376757123e-01,9.231997558968900730e-01,1.908675489769420634e-03,-2.003109653431384488e-02,-1.411017029320458041e-02,1.513906121253967285e+00
-7.829253024203437772e-02,-8.956286169068000680e-01,9.315100957977457963e-01,-1.377014144265432147e-04,4.873050502776956651e-03,-1.248730207231768183e-02,1.585442185401916504e+00
-6.195415292149872993e-02,-8.777380176089349950e-01,9.371080983921663554e-01,1.859314940265301315e-03,-2.477867797497606411e-02,-1.480276558549340968e-02,1.575168967247009277e+00
-3.855690954972620932e-02,-9.743270613476515685e-01,9.386003597804425391e-01,1.922838666154564084e-03,-4.389683153027662717e-03,1.641296278879531218e-03,1.656796216964721680e+00
-4.762652504048618674e-02,-9.005507474772805887e-01,8.975496101312683273e-01,3.142407641217632996e-02,-1.239164672346550243e-03,-1.637835542278517909e-02,1.559093713760375977e+00
-3.707142481914861565e-02,-9.671035870022797187e-01,9.325906069797204045e-01,3.242736736885579868e-03,-4.206262230871259285e-03,-8.910900674356559553e-03,1.645400881767272949e+00
-2.656690707212518848e-02,-9.685072643335881359e-01,8.219822521009410021e-01,8.751298203904631264e-04,1.344694440836179949e-01,-1.878510196070267563e-02,1.569036960601806641e+00
9.842456579650379206e-03,-9.157413866795978130e-01,9.284420638512322910e-01,-5.096486682081392350e-04,-1.477647845592863426e-02,6.479122533526003244e-03,1.597358226776123047e+00
-2.647791069319442581e-02,-9.374917063144074802e-01,9.457792418019633773e-01,-1.596645176207350109e-02,9.203913707219783802e-03,-4.503650532282898198e-04,1.631560444831848145e+00
-8.551401182414614804e-03,-8.829507156979621296e-01,9.232639180895578779e-01,-2.981541022275326080e-02,1.287702890068380401e-02,-3.724620440607065690e-03,1.565515398979187012e+00
-2.535646100774600550e-02,-9.979475340128911576e-01,9.662578029951103264e-01,-9.332843507754050782e-04,1.114945698444863792e-03,1.609348848317692163e-03,1.701082468032836914e+00
-1.400679670080220637e-03,-9.830618324739894831e-01,9.570726409929186662e-01,2.812755995076342622e-03,7.727722949074602131e-03,2.155902671315364748e-03,1.680310249328613281e+00
1.266895109873799330e-01,-1.148269558672827984e+00,4.415936445045991476e-01,1.286334883113632865e-01,-7.670030656298050531e-02,2.729665270556815848e-01,1.554669022560119629e+00
-3.199341074744620206e-02,-9.725616802534771121e-01,9.372483772614340625e-01,-5.970443828102249507e-04,-7.926025893279784948e-03,4.038343448084196277e-03,1.654078245162963867e+00
-4.457756748932079072e-02,-9.697840117722460462e-01,9.491169809007587999e-01,-2.595015070884139699e-03,3.617202207082836039e-03,-2.988180672734147905e-03,1.662195682525634766e+00
-4.324625520633174763e-02,-9.675144373294960465e-01,8.739246392766764071e-01,-1.222202140584710897e-02,-2.587563599352416671e-02,-6.264958297710248973e-03,1.595543980598449707e+00
-3.992868784338635124e-02,-9.732536021190670850e-01,9.366092850094011046e-01,1.265897733280277847e-03,-2.930775245075735360e-03,2.259377366827443334e-03,1.654144763946533203e+00
-4.988966535611516484e-02,-9.390604692651598473e-01,9.272041923797298413e-01,4.542129239061504318e-04,-3.242123865571550599e-03,7.170014472003905306e-03,1.616888046264648438e+00
-6.399558009775395406e-02,-9.171103353368196265e-01,9.079418243640560160e-01,-4.755939483385670727e-03,-8.110020988749085114e-03,-1.402629342247879891e-02,1.581928133964538574e+00
-4.636183288275935038e-02,-9.893515103144051581e-01,9.522844269842353215e-01,-9.573115355138888879e-03,-3.141861618936557521e-03,-6.055302538033550258e-03,1.681859493255615234e+00
-3.336730144087612926e-02,-9.740085986646009886e-01,9.598004968627864564e-01,-5.236833525890442938e-03,1.352244843128337128e-02,-4.831219456648659302e-03,1.675142884254455566e+00
1.007794039896456155e-03,-9.644183765388946172e-01,9.474386438557532708e-01,-1.457680179528709921e-04,1.008950572715773195e-02,-2.506482757675118807e-03,1.655841946601867676e+00
-2.886491876174005280e-02,-9.692130174901101292e-01,9.010750955232178505e-01,7.441768504718147131e-03,-9.734970895888456210e-03,1.103951812853134692e-02,1.619977235794067383e+00
1.715302906657670268e-02,-9.697420774891518658e-01,9.465330042605436534e-01,1.005478482420042209e-02,1.651954403828682916e-02,9.679662011283854395e-04,1.660130858421325684e+00
-7.889496952013785869e-02,-6.153508512975345290e-01,8.968186035952847579e-01,1.893357155392283164e-01,7.696753138067288780e-02,-5.631336246685773872e-02,1.377700567245483398e+00
-1.136849962637493799e-01,-6.092496394053430464e-01,1.021683218149262773e+00,2.328322084560786043e-01,7.414073238639753982e-02,1.026231232154309059e-01,1.519214034080505371e+00
-2.903287801460993980e-02,-9.977174980719130115e-01,9.675312976427777878e-01,5.500798254815302479e-05,4.526447693211962942e-03,1.140091177578591132e-03,1.702031731605529785e+00
-3.067475666787310845e-02,-9.912746797877194371e-01,9.606063944509843910e-01,1.429754358941651019e-04,-2.017917922012144732e-03,-3.813503403295701293e-03,1.690464735031127930e+00
-1.634918761995874936e-01,-3.093562259977110651e-01,8.439818747913103714e-01,1.335386727517655081e-01,2.566501665144211089e-02,-1.458537522126851504e-01,1.141283512115478516e+00
-2.854661596419980629e-01,-1.812011863049584059e-01,1.334684739860992009e+00,1.524324715146672393e-01,-1.514319211198154047e-01,-1.484023882834496488e-01,1.634443879127502441e+00
1.916460175521268738e-02,-9.868856613050629445e-01,9.579516014976300342e-01,-4.427167426981245581e-03,2.909602607224751232e-03,5.566866415426840239e-04,1.684639453887939453e+00
-1.124759986795695332e-02,-9.920532561271517835e-01,9.589775351890036381e-01,-1.016266262112815438e-03,-8.016576229337567250e-03,-2.744547195316215851e-03,1.689715147018432617e+00
-1.527983723015207129e-01,-5.672758108132072152e-01,9.563893266081519018e-01,6.781332321144244168e-02,-1.532495892973616963e-02,-2.307424509306192292e-02,1.370372176170349121e+00
8.267218408128031160e-03,-8.881111668799001047e-01,9.319241866774412575e-01,4.050305094197348410e-02,7.144461789976425808e-03,3.547587393002506195e-02,1.579060673713684082e+00
-3.127722676958898107e-02,-9.910291017440617800e-01,9.613561649551266575e-01,2.122169719196409596e-03,-3.182386302038618664e-03,-3.280810741185201211e-03,1.690917730331420898e+00
-9.061284468610299181e-04,-9.217118750035662167e-01,9.908646330994335116e-01,1.123056865113345182e-01,-2.963661360609533627e-02,-4.667668624795539428e-02,1.670846939086914062e+00
-3.944357107591255074e-02,-9.902745508689684284e-01,9.438704184002039144e-01,2.784800496741766246e-03,-7.418041089885012845e-03,3.108504245289231849e-03,1.675162315368652344e+00
-2.818136324186320749e-02,-9.928862230493403773e-01,9.672948990439113048e-01,-1.019024873793947456e-03,3.408086246319434525e-04,-2.751753757098051364e-03,1.697644114494323730e+00
2.871355776933856921e-02,-9.712191207339027077e-01,9.464242480504910793e-01,6.621440411804134334e-03,2.225670842431510307e-03,-1.688419880902129484e-03,1.661283254623413086e+00
3.684921060611201504e-02,-9.592121609427337603e-01,9.394764851336099287e-01,4.171825399938111807e-03,1.857198988301837512e-03,-4.314197897391968545e-03,1.645012140274047852e+00
3.802429994506913158e-02,-9.777319530751925614e-01,9.461354543552321639e-01,8.512710635406615933e-03,1.020230543651854662e-03,-2.793389521011849404e-03,1.667060375213623047e+00
-2.621312017074102496e-02,-6.887007664194754186e-01,9.163042185019897312e-01,2.639866572609372852e-01,-1.062353507615324379e-03,-1.345372486238972931e-02,1.470118403434753418e+00
1.953005719759717818e-02,-9.680427701499484394e-01,9.473689960731710435e-01,7.083108424981995194e-03,6.951451606433041788e-03,4.486489012723172964e-03,1.659171342849731445e+00
-4.111703898326211221e-02,-7.077286384923747731e-01,8.771926871452492280e-01,-6.298036292033724892e-02,-1.168466877822577771e-02,2.706599496161915877e-03,1.382805466651916504e+00
-2.108863414670041764e-02,-9.938301709156045494e-01,9.612215399415748873e-01,-1.176514275652536202e-03,6.839276055380887412e-03,1.771029692232541390e-03,1.693176627159118652e+00
-7.954837485622097415e-03,-9.634715298890483837e-01,8.474271188507287444e-01,6.208725946478026170e-03,-2.793603486533604175e-03,-2.229409041194010607e-02,1.569602608680725098e+00
-1.584083215579892845e-01,-2.935844308023152771e-01,7.575310615373233025e-01,2.829203834567610154e-01,1.879347124367862221e-01,-4.721960493033784678e-02,1.154906868934631348e+00
-3.511758389532659841e-02,-9.865257690396710410e-01,9.522089084812813686e-01,4.716240342794672871e-03,-1.520446362651339247e-03,-3.134693132392851918e-03,1.679120182991027832e+00
3.177465459067723048e-03,-9.828366675901614169e-01,9.602367635042285965e-01,8.781763340387050516e-04,-5.075147759553652084e-03,-1.074139723275140514e-03,1.682837963104248047e+00
-3.402466824489435576e-02,-9.656515567106599418e-01,9.168763299987223725e-01,2.305053050397329589e-03,-3.047283216741258536e-04,-3.558049899133449746e-03,1.630362033843994141e+00
-4.680814634307245425e-02,-9.980178336475030720e-01,9.853088391720231654e-01,-7.624524550464062932e-03,-5.469671080182473243e-03,-4.898217070120007739e-03,1.718185424804687500e+00
-7.456484961978658565e-02,-1.040825351576338598e+00,1.019778510937887850e+00,-1.751341247177072439e-03,5.010177649232501473e-02,1.411511697069255458e-03,1.787795662879943848e+00
-5.451638633787449922e-02,-9.408285184957880798e-01,9.427760798683161303e-01,4.087935607818063248e-03,-8.585997582759555616e-03,-1.175703406505711722e-02,1.632403135299682617e+00
-4.208538004469795923e-02,-9.723229612991403092e-01,9.455063052202695717e-01,4.099499726649017371e-03,-3.660980775310452868e-03,-5.752429678876038593e-03,1.661193609237670898e+00
-5.826637543114007722e-02,-6.695590887890625620e-01,8.772065777703281775e-01,5.906511805621809247e-02,-5.022245799662746445e-03,-3.779076682140935671e-04,1.353210449218750000e+00
-2.911253296717830619e-02,-9.903940784907596662e-01,9.570066579428860853e-01,-2.931154061930531934e-03,4.711169641895735671e-05,2.836437721465713373e-03,1.686559081077575684e+00
-3.673263734428891536e-02,-9.756059398304725017e-01,9.367763337101828736e-01,-3.057940129984816624e-03,6.178382605547309836e-03,3.480134230421689720e-03,1.656316161155700684e+00
-8.059818523806280832e-02,-9.673753123335793180e-01,9.280497278153725382e-01,8.973029201253787711e-04,6.181748162367890764e-03,8.405340399036432080e-06,1.642652511596679688e+00
-8.221480068399310281e-02,-9.694665478037618467e-01,9.305158279385077336e-01,-7.469283579162639027e-04,5.788711940966511510e-03,-8.624357258757366258e-04,1.646660447120666504e+00
-6.652270095458102939e-02,-9.690618543352917946e-01,9.231799640693839626e-01,-2.800002383492359616e-03,1.714022376624554922e-02,1.354813974845955546e-03,1.639586567878723145e+00
-1.772930788759106285e-02,-9.648648784917457366e-01,8.718904380298901913e-01,1.421473737475529610e-02,4.993632967785426036e-03,-1.006737960357865710e-02,1.591246247291564941e+00
-3.251540129917066674e-02,-9.539684540738113672e-01,8.817527247717265038e-01,-3.040104448982891734e-03,3.217182718470543851e-02,-2.182730929306178971e-02,1.591219425201416016e+00
-3.467075069645757235e-02,-9.788411103736388563e-01,9.519375705636524687e-01,-1.911188410864362360e-03,9.022556792712323886e-03,4.233773815161691323e-03,1.672330379486083984e+00
-6.297116468372485065e-02,-9.341013575282254289e-01,9.521587813568972436e-01,2.147653896616988356e-03,1.178209539084537974e-02,-7.025671401635716698e-03,1.635311961174011230e+00
-5.923162620153399338e-02,-9.747963271787861705e-01,8.988666521765100725e-01,-3.593458122667244313e-03,5.261166917448598795e-02,-8.459084535630302659e-04,1.625348210334777832e+00
-1.630654149002502828e-02,-9.787782829068463197e-01,9.599500847989654861e-01,-1.029574202715845743e-03,-1.118111615018816361e-02,-3.752017414337517707e-03,1.679127335548400879e+00
-2.159717183800627729e-02,-9.722839143145635132e-01,8.760555810499860430e-01,-8.789411218616273100e-03,3.142536815997683947e-03,1.521593723797997353e-03,1.601012349128723145e+00
-3.256268197369741046e-02,-9.961708044030733733e-01,9.673780180618567481e-01,-2.587185288780433686e-03,4.050185638916923257e-03,-2.786060581168179045e-03,1.700607419013977051e+00
-3.711336564305750541e-03,-1.114963283082994305e+00,1.046529398174529835e+00,1.218651473231725513e-01,6.464464102370341692e-02,-1.375533717047205604e-02,1.887492060661315918e+00
-8.748556251827410701e-02,-9.740491467573654250e-01,9.514842035115411711e-01,-1.197578149101428610e-03,4.448305219778501962e-02,4.164577417487601817e-03,1.671095013618469238e+00
-2.081898610629451252e-02,-9.725628548896207981e-01,8.878348481855359298e-01,4.131120511897207952e-04,9.009102466595789518e-03,4.865327655391978555e-03,1.611393451690673828e+00
-4.804420179375305106e-02,-9.320219345107492170e-01,9.388476834636697577e-01,-7.819057968854938468e-04,8.488856368754170781e-03,-8.915290693160930757e-03,1.621178269386291504e+00
-3.698394151144523967e-02,-9.737587142150733177e-01,9.594592380672983811e-01,-5.240298706895516086e-03,1.680516131187799120e-02,-4.834232966160587237e-03,1.674780130386352539e+00
-3.159093266715584658e-02,-9.855207891088523242e-01,9.637388202393182279e-01,-5.421873623292905800e-03,1.415001450774636821e-02,-8.618558665885046443e-04,1.688439965248107910e+00
-4.708620819837072702e-02,-9.623064044145031026e-01,8.767691914806856612e-01,-5.708208236889369437e-03,3.333337298704402984e-02,-6.679266255824423766e-05,1.593768835067749023e+00
-5.022881897039833260e-02,-9.431985367856560165e-01,8.046098843836509973e-01,-1.027038686153013586e-04,4.525063724388905806e-02,4.092994526990003149e-04,1.515794396400451660e+00
-1.013318886018449716e-01,-1.159334363630422748e+00,1.347643592437770765e+00,-3.770954262878516428e-01,3.013124899159975723e-01,8.446326674979112714e-02,2.339293003082275391e+00
-2.949999981333176549e-02,-9.945992206770044586e-01,9.674549741257585378e-01,-2.761401269218457990e-03,8.484151454531987241e-03,-1.162725635330824712e-03,1.699334859848022461e+00
-3.410721450152543605e-02,-9.980786027707448937e-01,9.643904768253750426e-01,-1.866869264187648921e-03,4.981947115432272706e-03,1.510723585727754767e-03,1.699662685394287109e+00
4.614649404412597689e-02,-7.041181601971394644e-01,3.346504005421859218e-01,1.363586376697108749e-01,-6.651521337053435678e-02,1.653657919854455982e-01,1.006815433502197266e+00
-1.743414381767616206e-01,-2.477276538391277594e-01,1.291067071706274882e+00,1.274854948391793419e-01,6.652526383847928715e-02,1.295612151532287738e-02,1.524101853370666504e+00
-7.777410799555486975e-02,-9.657982805833500439e-01,9.242334990652369964e-01,3.695207020350438939e-04,1.944300709770595964e-02,-1.173604701505025476e-03,1.638154983520507812e+00
-7.807821724910138372e-02,-9.693553121024391928e-01,9.287054413585711377e-01,-1.032819896018541406e-03,1.762603052411435695e-02,-8.533323675571872092e-04,1.645068049430847168e+00
-3.657212535840503875e-02,-9.912923767508781125e-01,9.566030585291575017e-01,9.494913327761696914e-03,-5.823274677065067018e-03,7.136706094760489642e-04,1.687147259712219238e+00
-3.573984817333654418e-02,-9.836543387999645560e-01,9.512327037587838818e-01,4.077434216044901159e-03,-6.411756286370851737e-03,-1.955702670855683422e-04,1.675826787948608398e+00
-3.707232155746870150e-02,-9.581456047978025303e-01,8.429843037977656772e-01,1.375849843189540581e-02,5.402867175931962140e-02,-2.550945349015272881e-02,1.563569545745849609e+00
-3.931543285239391672e-02,-9.826848192951819216e-01,9.262745496534245948e-01,1.207245778131880477e-02,-6.781280724639861777e-03,1.930921797547959905e-03,1.653421998023986816e+00
-8.616549581701460347e-02,-9.731279705814115388e-01,9.483026985524597441e-01,5.659402902602623511e-04,9.611279978418110770e-03,1.973657294980950012e-03,1.665728449821472168e+00
-6.635866688398794899e-02,-8.465989858739942919e-01,8.246890009943020905e-01,9.904471367815730325e-04,1.263320219400039697e-02,-1.635764862113223833e-02,1.448881149291992188e+00
-3.099786435526154932e-02,-9.912451264935764339e-01,9.598432788997794951e-01,-9.287135055531486709e-04,3.550125254049773301e-03,-4.656102075841191471e-03,1.689792513847351074e+00
-3.903524905443423593e-02,-9.958598199038632970e-01,9.664756498999452772e-01,-6.611360953466565620e-05,1.258518687678876870e-03,1.220628240681316751e-03,1.699609398841857910e+00
-7.351085251473601923e-02,-1.007341979796575693e+00,1.004013826918957797e+00,6.623135199546053772e-03,3.690231690018914990e-02,-1.645067213173026510e-02,1.744807958602905273e+00
-8.065120074893467050e-02,-9.661107838313455209e-01,9.274137232135400977e-01,4.200306965008673453e-04,7.305400589033082814e-03,-3.291605923461392823e-03,1.641044616699218750e+00
-7.706869646087599612e-02,-9.749089931530573461e-01,9.410788560818477144e-01,-5.467329834339154995e-03,4.056363138049604196e-03,6.972811471156799973e-03,1.660469889640808105e+00
-8.050410173504020384e-02,-9.634804906798899449e-01,9.209621795939756383e-01,3.205508605036815604e-04,-5.204681605302673066e-04,6.582574278639760027e-04,1.633051037788391113e+00
-4.214846071093979185e-02,-9.558835561042400286e-01,8.450505032332349398e-01,-5.566815448598847436e-03,2.171104735944301423e-02,2.951632427487697191e-03,1.560202479362487793e+00
-8.798437897583714917e-02,-9.707097855454488444e-01,9.503014679350586524e-01,2.132813846469073984e-03,1.753123294300575757e-02,-2.301019406849390129e-04,1.665742754936218262e+00
-8.031324884118498653e-02,-9.852709630263599694e-01,9.512606504203744429e-01,-1.710267770695967238e-03,7.431046793238063955e-03,-3.634384538151589532e-04,1.678332090377807617e+00
-3.852735576707402854e-02,-9.902134532609841999e-01,9.606246988554152377e-01,-2.634770817266751490e-03,-3.865965570436162568e-03,-5.314387030644960805e-03,1.689686536788940430e+00
-5.475992003723845203e-02,-8.954694390762137912e-01,9.256376026670262158e-01,7.180941720857361363e-03,-1.047784815855355017e-02,-1.288747893102983912e-02,1.578981876373291016e+00
1.146989412433098710e-01,-1.020674712588397037e+00,5.252544600923760854e-01,3.038100868486965853e-02,8.745637890368636314e-02,-3.596623919612561976e-02,1.397626042366027832e+00
-8.069304145687966612e-02,-9.678199769442232814e-01,9.340320063193554567e-01,7.698326724238068733e-04,5.738273187458339114e-03,3.047300583740763374e-03,1.648326277732849121e+00
-7.261466726475171440e-02,-9.760289644346882287e-01,9.450228011753303292e-01,-4.699196543589331636e-03,7.572690199622133904e-03,7.976966438764993353e-03,1.664788484573364258e+00
1.097799917052438290e-01,-1.400360186983237165e+00,8.893631785869540174e-01,-1.765767398705928720e-02,3.907968032712792472e-01,-1.274248409501826662e-01,2.138543128967285156e+00
-2.259425257470235038e-02,-1.157722664030481408e+00,1.068584133714234108e+00,-7.922098215007981892e-02,-2.407523244919592686e-01,-1.552824423440157635e-02,1.977688193321228027e+00
-7.220393855173004583e-02,-9.683264179178038278e-01,9.176928856779588140e-01,5.234507776253685685e-03,8.754531196727099313e-03,-3.823861466001955353e-03,1.634122371673583984e+00
-7.243971657044412371e-02,-1.007499919947783873e+00,9.563817231071010116e-01,-1.494415793960026870e-02,5.464416152029573370e-02,1.849747021191265606e-02,1.704545497894287109e+00
2.290315052050917455e-02,-7.521172148583971095e-01,4.147148572336929462e-01,1.408682397043098111e-01,1.982422894953044315e-02,-4.088923664558258633e-03,1.057636857032775879e+00
-7.601953500995461965e-02,-9.694430340349063924e-01,9.248849830859394716e-01,-5.160922149469470734e-03,-1.765743444449935362e-03,2.947317426855551419e-03,1.641451239585876465e+00
-1.175325421238456597e-02,-9.624400470120137996e-01,8.159170791679827284e-01,1.623143697013157763e-02,-3.678748830320241470e-02,4.193382051964024415e-02,1.544611454010009766e+00
-8.808669811086126955e-03,-9.753845316833550383e-01,8.878762404933837615e-01,-2.508724044668197029e-03,9.529714255466338949e-03,-1.521717957730256768e-02,1.614314913749694824e+00
-7.552748334722639290e-02,-9.707463309236967763e-01,9.312677911384881213e-01,-4.152543690381957191e-03,7.116132076219328431e-03,4.012057736293172562e-03,1.648213386535644531e+00
-3.530273827049106722e-02,-9.853046130928954094e-01,9.526417821527344287e-01,-2.961037899683580804e-03,-3.377819127060088366e-03,3.239770199501099124e-03,1.678445458412170410e+00
2.525961866957711355e-02,-9.578243044378769167e-01,7.306505515924593963e-01,2.444982314900730896e-02,-6.078296807691697945e-02,9.812809745367299941e-02,1.482987999916076660e+00
2.678517584209534619e-02,-9.561708434558281455e-01,7.366009333710670237e-01,1.174147257121067531e-02,5.096076645786153103e-02,-2.063876653351101945e-02,1.475547671318054199e+00
7.970205367877125635e-03,-9.611018268196017678e-01,7.908635468602321916e-01,1.914932240556117826e-02,-1.371978050900930432e-03,3.139659497684062217e-02,1.521435379981994629e+00
-3.203586046024677753e-02,-9.159269025186835833e-01,8.794467045547975648e-01,-2.746725686219244505e-04,-2.185821482807858047e-03,-1.634435679598939461e-03,1.554907560348510742e+00
-3.566355770993408225e-02,-9.726594362740429434e-01,9.450046495467140373e-01,-5.536763061157007294e-04,-6.250450659158907421e-03,-7.519263392769003941e-04,1.660925388336181641e+00
-3.373584642430195457e-02,-9.869925488087356591e-01,9.477590505236505036e-01,-4.419872391769499691e-03,1.847075859054480001e-03,4.723336334870113264e-03,1.675644040107727051e+00
-4.749927360526748354e-03,-1.008706509442923061e+00,9.763430107578400241e-01,1.070578603794520092e-02,-2.009014665354489845e-02,-1.661337286846951630e-02,1.719834208488464355e+00
2.873469925853611162e-02,-9.510342972507068726e-01,7.288116070807358904e-01,1.180348433317599498e-02,-3.409886539461136346e-02,2.297340224530123112e-02,1.463372111320495605e+00
-9.303917939633383344e-03,-9.926199505649190291e-01,9.861063646054064602e-01,-2.343740883736182903e-02,1.296086235391148006e-02,-1.785711663285353620e-02,1.714544653892517090e+00
3.028574535445373306e-02,-9.717743929192034225e-01,9.450792101468967754e-01,-3.740685481325634401e-03,7.839524512251356408e-03,-1.854517898230699209e-03,1.660688519477844238e+00
-6.289101032212492115e-02,-9.863584652065696678e-01,9.514249582109141068e-01,-7.880669726219632909e-03,8.799271655188134651e-04,-5.354217267820456875e-04,1.678840756416320801e+00
-3.597313766718001488e-02,-9.977147137824848855e-01,9.667087839082562084e-01,-1.630736813529487083e-03,1.764151412003817174e-03,1.881476444138133588e-03,1.701372027397155762e+00
8.350343494496252628e-03,-9.831118517621419972e-01,9.540929416111305628e-01,-1.207976767069510269e-03,9.148414523390099168e-03,-1.874465497394790575e-03,1.677903532981872559e+00
-4.053676940764706915e-02,-9.840309221520286975e-01,9.347660460269616722e-01,-6.264284653788241598e-03,-4.473897164843283915e-05,-3.706426504964759321e-04,1.661838531494140625e+00
-1.348274434062608773e-02,-9.592996661569301864e-01,7.097748678195281435e-01,-3.448429586374681111e-01,-1.496341981648203756e-01,-3.375598468089702903e-02,1.590308189392089844e+00
-3.371948502591362584e-02,-9.974428503690260239e-01,9.660180896476244783e-01,-2.195886919667100045e-03,-1.828046860667264075e-03,1.003604584578392375e-03,1.700510501861572266e+00
1.341391540471903454e-02,-9.622265267180979409e-01,7.304552273441788923e-01,5.119811433950402675e-03,-1.289782489385802033e-01,4.969811954551744959e-02,1.490970015525817871e+00
-3.760216592637762034e-02,-9.961756556349945502e-01,9.643202068544600714e-01,-5.931369802788808224e-03,-1.222435991737028235e-03,1.567345410404236573e-03,1.698012113571166992e+00
-1.903738462624352326e-02,-9.885402058652260626e-01,9.605335943436711377e-01,1.021906251930684156e-03,-1.509494570932996306e-02,3.191923482099016246e-03,1.688167333602905273e+00
-4.906911403858665172e-02,-9.954126652459757141e-01,9.650979993195014650e-01,-5.572900797388677212e-03,1.481928248546857281e-04,1.912533873520490160e-05,1.698218107223510742e+00
-3.757666408774914396e-02,-9.774284502047216883e-01,9.042895382523274961e-01,-9.351569427733259082e-03,1.273976498132435575e-02,-6.073769697459516052e-03,1.629879713058471680e+00
-7.809576760268437112e-02,-8.962448009036384500e-01,9.344668723224380802e-01,5.192274032441294637e-03,7.848775278517246268e-03,-1.025085818175341078e-02,1.588602900505065918e+00
-3.577035967307697073e-02,-9.872368386618446401e-01,9.376882012145466572e-01,7.965820467674201641e-03,-7.198710678678419544e-03,4.357049626432057260e-03,1.667191028594970703e+00
-5.195286624299758765e-02,-9.818912564084104622e-01,9.134179151087860049e-01,-1.772320289915340144e-02,2.671579527903718970e-02,1.158497601594517257e-02,1.642543077468872070e+00
-6.624150994377418777e-02,-9.810865356751693467e-01,9.362277969402766908e-01,-1.092542896538269137e-02,9.509090395712013061e-03,6.901829428449591727e-03,1.661253333091735840e+00
-3.276542557387936150e-02,-9.911590586707594852e-01,9.453762963121480345e-01,-4.742510072901100215e-03,9.216225897009495092e-05,1.556460842031703656e-03,1.677140116691589355e+00
-4.836174463499354897e-02,-9.812787486192289244e-01,8.995252072563283408e-01,-1.458307987376680770e-02,2.709412113346225393e-02,2.295718955022456667e-02,1.630197882652282715e+00
-1.820308238549269431e-01,-3.077611906807173892e-01,9.766485139538609861e-01,-2.801344446315480186e-01,-3.863712048669305094e-02,-7.669212081624910944e-04,1.320580601692199707e+00
-4.225454340634278438e-02,-9.926767566260119580e-01,9.395966012970665693e-01,-1.333789752915341860e-02,8.429037639537536111e-03,2.138197528595654068e-02,1.674104452133178711e+00
-3.409857910449542312e-02,-9.929598714026728334e-01,9.602638811509267569e-01,3.946038078289432899e-03,-5.094471930035310639e-03,3.202198394382241775e-04,1.691671490669250488e+00
1.315418614268274722e-01,-1.388597467807238584e+00,8.298662446630207246e-01,-2.646997125424443431e-01,-3.954046247374406464e-01,-2.375219454701169575e-01,2.169910907745361328e+00
-4.256220340237533428e-02,-9.614384562718890637e-01,9.386201185507037081e-01,-2.197036778867292577e-03,3.874235673578338250e-03,-3.183288007192954829e-03,1.645821213722229004e+00
-3.417490693153012182e-02,-9.791618684856711052e-01,9.366894770230597134e-01,4.833285246276682739e-03,5.120196045592260905e-04,-3.872060174930103474e-03,1.659261345863342285e+00
2.678135987377599503e-01,-1.442806112929822859e+00,4.128837394817275741e-01,-2.622688573379061139e-01,2.939265961421995144e-01,3.381893656276323545e-01,2.001018285751342773e+00
-5.614830551629783340e-02,-9.313709610259840455e-01,9.458265268088453803e-01,-2.447845125640780474e-03,1.276883933008661487e-02,-1.310444027715785414e-02,1.627249717712402344e+00
-1.392928194156120916e-02,-9.766952795340619886e-01,9.078536012675675337e-01,5.637714023735054987e-03,3.088637201425129160e-03,8.987265112146460011e-03,1.632308006286621094e+00
-3.397214116189777727e-02,-9.867804426850819155e-01,9.407202789318859226e-01,-7.436077533464317130e-03,2.172496155308649185e-04,4.727011988460849343e-03,1.669370293617248535e+00
-5.305815463276268573e-02,-9.814724449978421417e-01,9.260805202836107641e-01,7.756524669088502369e-03,-4.200349960148552081e-02,1.783164204498330699e-02,1.654127955436706543e+00
-5.758003142131933039e-02,-9.830976757345661898e-01,9.535440616920795032e-01,-3.207947470319734602e-03,-1.425682447603423674e-03,7.107249696325122941e-03,1.677783250808715820e+00
-6.078179495652646924e-02,-9.850915679795375635e-01,9.531924064034366095e-01,5.681591415221665803e-03,-1.456924663819475366e-03,7.716416759321030779e-03,1.679285645484924316e+00
-3.483875917714112508e-02,-9.851619922700890486e-01,9.376375553141134134e-01,-2.869636315931852356e-03,-8.211946925806108341e-03,-7.317333574844556480e-05,1.665298223495483398e+00
-2.128089263694936742e-02,-1.021895829567288194e+00,9.843050329338541848e-01,-1.050484826536712997e-02,-1.054945971572630176e-02,-2.084500676575731619e-03,1.737617731094360352e+00
-7.486231198582821156e-02,-9.672874623153966400e-01,9.179630457484506678e-01,6.084158557398948279e-03,1.251732719738523833e-02,-7.082774597711880005e-03,1.633670330047607422e+00
-6.493656354546012421e-02,-9.797165430463952163e-01,9.513172207487431420e-01,4.761245993707891033e-03,4.630038157208812843e-02,6.556779189781118330e-03,1.675073385238647461e+00
1.162343147933300735e-04,-8.439491183319207668e-01,6.629303654362793674e-01,-7.012504785709476780e-03,1.620039613132684964e-01,-1.667130196947948229e-01,1.368755102157592773e+00
-3.086349006315270219e-02,-9.733699746749084891e-01,9.117699618737067357e-01,-1.708516130534074636e-03,-2.358198236445376017e-03,9.821849143905374280e-03,1.632675528526306152e+00
-4.246611493686732602e-02,-9.857534118061992423e-01,9.278354493026348404e-01,1.685123755365958501e-02,-1.181380440911775943e-02,1.406375516850578468e-02,1.657833814620971680e+00
-5.099587644761172101e-02,-9.854872539648611429e-01,9.525352162112489252e-01,3.752823000939722008e-03,-2.639258121308421003e-03,5.468269625237004092e-03,1.678777217864990234e+00
-2.443906381680394091e-02,-9.628859137137407709e-01,8.421032709563420759e-01,1.522776661500645223e-02,2.214801951915929511e-03,4.279576425496671097e-03,1.563824534416198730e+00
-6.491296280452601986e-02,-9.710310455449363554e-01,9.167088746414625566e-01,7.686128501929775925e-03,-1.823307327031078659e-02,-1.736071803316178769e-04,1.635625720024108887e+00
-4.106766138074151307e-02,-9.903320776085486887e-01,9.609429709317448554e-01,4.638149249542514521e-03,2.147015965233178055e-03,7.318426185229326940e-03,1.690130233764648438e+00
-6.971211937223018018e-02,-9.770730326053965742e-01,9.459794074229810334e-01,7.487498446198636833e-04,-3.935609791681247277e-02,7.622832349006553217e-03,1.667739391326904297e+00
-5.381450515501479820e-02,-9.849823414029736934e-01,9.508837377928408552e-01,4.596328058131023651e-03,-2.979051463891204451e-03,7.678035683715935152e-03,1.676991820335388184e+00
-4.450218979043932960e-02,-9.657216859542068210e-01,8.858197990685425793e-01,-6.244570863966071930e-03,3.052793244967129307e-03,-2.351960950620771498e-03,1.603538751602172852e+00
-5.079343343014985912e-02,-9.522411612005802217e-01,8.546451505944095972e-01,-1.168224094286141003e-03,8.174621880581926792e-03,3.923578145707460577e-04,1.564876198768615723e+00
-4.908724495800216581e-02,-9.980082277518548262e-01,9.725326672310411480e-01,5.086483802993865128e-03,-1.221309186418044132e-02,9.942329259262947666e-03,1.707166194915771484e+00
-4.853979338159716134e-02,-9.860418313271975821e-01,9.542113900881770139e-01,-1.699624561722135930e-04,-2.005440512248908569e-02,5.827939577388499721e-03,1.681014537811279297e+00
-3.133326716883142599e-02,-9.779067901672651164e-01,8.760878976431364373e-01,1.694194425363814566e-02,-1.304225265485899239e-02,2.536643169099253581e-02,1.606753587722778320e+00
3.002236002096200784e-02,-9.771318095220699051e-01,9.559111842998154751e-01,-1.425136134055103414e-02,-1.761515432809174740e-03,2.991368704576760976e-03,1.674750089645385742e+00
9.427306466170141952e-02,-9.086646571829177788e-01,5.425853093882804234e-01,2.851608773158782924e-03,7.280475027003713295e-02,3.303577743977646232e-03,1.293234705924987793e+00
-8.698907949706194409e-03,-9.802308114326172550e-01,7.954767253051943099e-01,3.150966465170432391e-03,1.097521717658348217e-01,3.654493602719041667e-02,1.553070545196533203e+00
2.105502667765694891e-02,-9.431000802813093165e-01,7.145623407118226744e-01,-1.261080810917838274e-02,7.074151951093822499e-02,2.167463150943378311e-02,1.447789907455444336e+00
-3.758143579131211637e-02,-9.921510161975330977e-01,9.606083185556146820e-01,-6.358266656650410700e-03,5.004492961294378442e-03,5.911703055082664915e-03,1.691368937492370605e+00
2.297308523166996172e-02,-9.108694164382620251e-01,9.212709505332293825e-01,-6.040105248605241034e-03,1.143604191734295776e-02,1.004106544104196863e-03,1.586938738822937012e+00
6.817104418971869917e-02,-9.232423793399090473e-01,5.878428145296620277e-01,-6.683572289002035448e-04,4.477578240260452619e-02,-9.293896675932614843e-03,1.332082629203796387e+00
-4.393899858324613883e-02,-9.788031579755672729e-01,9.462880587864789250e-01,-4.719506669023537139e-03,7.086279860674163898e-04,5.831425123165599571e-03,1.667458772659301758e+00
9.552395207967201429e-02,-9.270042191609847437e-01,5.769998512812729574e-01,-4.944004371642788699e-03,2.694433069676496761e-03,2.885585405704054612e-02,1.331277132034301758e+00
-3.513764257598264024e-02,-9.938825795442639555e-01,9.544190996879412525e-01,-4.843903037822545540e-03,-3.362405351668812728e-03,-1.087004248288198950e-03,1.687381029129028320e+00
3.241081999299430527e-02,-9.920455467102096137e-01,7.451391133743298090e-01,1.089179462496414098e-02,1.234176835604892108e-01,-3.675083059746534625e-02,1.528971910476684570e+00
-6.363930945071467893e-02,-9.826406202724137229e-01,9.085917808540059371e-01,1.669520365033302228e-02,3.308838434449529187e-02,-1.795277812929969852e-02,1.639623761177062988e+00
-7.729688331165496251e-03,-9.847422112317412157e-01,7.828396181825436617e-01,-8.734403189317608424e-03,9.748299279287472863e-02,2.773038910632485629e-02,1.543694972991943359e+00
-1.669807113434121706e-02,-9.281555890324026947e-01,8.556700336924679684e-01,-3.816288388727458181e-02,-3.416877746163576868e-02,5.219510320987923169e-02,1.550145864486694336e+00
-4.382631821770163749e-02,-9.922348213315400622e-01,9.564984381365966293e-01,-8.630230034007629197e-03,-7.176149860456608031e-04,-1.485300972950806021e-03,1.687920689582824707e+00
-1.697248560993239730e-01,-1.268078158685063794e+00,1.607748782314894376e+00,1.699115389282718769e-01,-1.362658039696450774e-01,1.010355098151480002e-01,2.547749280929565430e+00
-3.212368701949809557e-02,-9.888558088441332661e-01,9.654910576994877314e-01,-2.376274007295604493e-03,-7.652303607807239491e-03,2.972414007318359072e-03,1.692702174186706543e+00
-3.610478681583172839e-02,-9.945548271357328440e-01,9.559004544966039907e-01,-4.401888958134378546e-04,-3.047258782838162088e-03,-1.218509883138247643e-03,1.689236879348754883e+00
-3.902319342833950044e-02,-9.825962501697138585e-01,9.527427036913966862e-01,-4.166104120657699444e-03,-3.591561100308434361e-03,3.010813308569484405e-03,1.676261067390441895e+00
-5.376707119628738873e-03,-9.583669630884295021e-01,8.161264336968711008e-01,-1.015482772008222297e-02,-4.214197431209316773e-03,-1.810831318998137179e-02,1.538599610328674316e+00
-6.545372797662298014e-02,-1.226178522475581900e+00,1.274903130174868782e+00,1.772182646793014210e-02,1.929933384211874334e-03,-2.061524596852731470e-02,2.168375492095947266e+00
-6.837164040552086430e-02,-1.012037227782107474e+00,1.013926764978841044e+00,-5.832001154971871992e-04,-2.322435987046579664e-02,-4.074234529053448114e-03,1.756380200386047363e+00
-1.291478255100218520e-01,-7.791001769271049815e-01,9.221610098640481423e-01,-8.808433497633825701e-03,-1.912250537184147225e-02,-1.568146562495232807e-02,1.487634539604187012e+00
-1.216807046971575823e-01,-7.438160449734106949e-01,9.220748000492018370e-01,1.042421538390833624e-03,1.127536640273449353e-02,2.023820670253724877e-02,1.458577632904052734e+00
-3.350702838148966745e-02,-9.764215933827949945e-01,8.952861948840179496e-01,1.313939313941752188e-02,-4.492547523917556421e-03,7.088936045417298937e-03,1.621186852455139160e+00
-6.533722447737448646e-02,-1.008121851573207772e+00,9.917570123985600672e-01,1.721524970390551868e-03,-1.511163263004926954e-02,-9.619847628570708450e-03,1.733169078826904297e+00
-2.781340405476588618e-02,-9.806025120230610348e-01,8.951383099267228305e-01,1.417070533108981054e-02,-4.320457367542484065e-03,6.991915795027786248e-03,1.624755501747131348e+00
-7.437404462380836634e-02,-1.009911095378893453e+00,9.794116379163644304e-01,-8.188371340106736021e-03,-6.965135214145126707e-02,-2.588553420220277707e-02,1.728674292564392090e+00
-4.188891362360055992e-02,-1.001907316114726720e+00,9.968297530963859954e-01,5.859375951545229763e-03,-1.106466886663962481e-03,-1.881784936450490997e-03,1.731438159942626953e+00
-4.975350484335482049e-02,-9.860546681863889829e-01,9.445757330981460198e-01,3.121833262715756341e-03,9.502340828419851559e-03,-2.319011292826750857e-03,1.672321200370788574e+00
-3.698344912052083100e-02,-9.775660238478683928e-01,9.489152057620764413e-01,1.915153572852574789e-03,-2.198723949849373718e-03,-3.763063221732699994e-03,1.668555855751037598e+00
-3.825360229221010794e-02,-9.624363863489195925e-01,9.311726665796564717e-01,7.200484770996527090e-03,-9.635648932947788597e-03,-7.332823010070414586e-03,1.640251040458679199e+00
-7.799258604858816391e-02,-9.959190782369128359e-01,9.944395082137555963e-01,-2.950119201179058400e-03,-1.208177789731526390e-02,-3.373513910458353100e-04,1.725565910339355469e+00
6.136568197028818838e-03,-9.610504581736659668e-01,7.150887842957244223e-01,-3.310264162488328610e-02,1.961996264531589984e-01,-2.805862982747102385e-02,1.498294234275817871e+00
-5.001741163157652492e-02,-1.018751111008286969e+00,1.023593454527734536e+00,5.784365238311249503e-04,-2.199068627880512543e-03,-4.709340634380594290e-03,1.769522666931152344e+00
-7.241042040865419693e-02,-1.015472875738238301e+00,1.032105677813073719e+00,-1.293925830281981429e-03,-2.865592269870782544e-03,-2.120921520454549687e-03,1.775103807449340820e+00
-1.205614934866016813e-01,-1.299094705633090818e+00,1.487580128054836193e+00,4.530273442782108972e-01,-3.999236623772400856e-01,-8.104852514314914158e-02,2.643015861511230469e+00
3.406409880078305197e-02,-9.543366267724074925e-01,9.337800812749257329e-01,-1.418928402274738897e-02,5.100170938028373950e-03,-1.170942462866873205e-03,1.635967850685119629e+00
-6.532410132713141471e-02,-1.019125198083866479e+00,1.043308958055288560e+00,7.097633905445782480e-03,-1.857992942989572646e-03,3.210269374081229504e-03,1.787851095199584961e+00
-4.956478931881999617e-02,-1.016681207927736974e+00,1.024720091381757570e+00,-1.020068199532551262e-02,1.135238765135207668e-02,-9.448385715034331557e-04,1.768915534019470215e+00
1.619721093811726104e-02,-9.224279370678798440e-01,9.302838286058839889e-01,-4.774522436206928705e-02,-8.630161474460441764e-04,-7.591044014217522909e-03,1.606726527214050293e+00
-3.254361830616610968e-02,-9.834465905495524130e-01,9.268691102707238283e-01,6.282588656517134468e-03,3.335177248368979830e-03,6.634691337222238701e-03,1.654473185539245605e+00
3.349936667197593587e-02,-9.571040636121437295e-01,9.416089951545956183e-01,-3.764685328603486689e-03,1.469986808262941334e-03,3.459751422717382424e-03,1.644876837730407715e+00
7.990577011160415744e-02,-1.044980571883337150e+00,6.921788858919849519e-01,-5.053974640674539776e-02,-2.139722970137134805e-01,3.771434135464744181e-02,1.574251413345336914e+00
2.007051898270793139e-02,-9.585151510116968199e-01,7.548761451532889355e-01,7.063527473337691959e-03,5.841849797385746494e-03,7.956149664147992712e-03,1.488986730575561523e+00
4.296380775812673469e-03,-8.176201779874624487e-01,9.508218908432322092e-01,-1.546717149697936500e-01,1.184829946585354288e-02,-2.123290176484487340e-02,1.556587934494018555e+00
-4.397972324885131984e-02,-9.768557301164161322e-01,8.313983484210065722e-01,1.144352591374980278e-02,1.027924570291835482e-01,-5.263572472580313466e-02,1.579103231430053711e+00
-4.991035245433825263e-02,-6.536762119032064611e-01,9.098955819125889022e-01,-1.716714515523988516e-01,-1.147873861091284857e-03,-1.852609341935328169e-02,1.398107886314392090e+00
1.868019544328769488e-02,-9.363484430705681927e-01,9.370191634304423367e-01,-2.170652467226476257e-02,5.155697840558882798e-03,5.075270183993254441e-03,1.622971534729003906e+00
-4.006062250033438910e-02,-9.831056361693000234e-01,9.299900826394567055e-01,-6.715598165877027098e-03,-4.509725719403547819e-04,1.394537327764490842e-03,1.656887292861938477e+00
1.040802399332994843e-02,-8.999315577965408819e-01,9.199852375347574718e-01,-1.919532160255913843e-03,1.894600532411909455e-02,-5.165828670959608966e-03,1.576464653015136719e+00
3.647381044293786234e-02,-9.253631941396422977e-01,6.588023383704098013e-01,-3.849365396981956414e-03,7.838571064159194357e-03,-4.380451692672474549e-03,1.382493495941162109e+00
3.439503952890662214e-02,-9.585036920953688977e-01,9.416920544682366723e-01,-1.355068082028555373e-02,-1.525178231704895585e-03,2.874891228094589302e-03,1.646351218223571777e+00
-3.286002864054660133e-02,-9.824322793886927085e-01,9.384473825505235123e-01,-5.168318602507738016e-03,-9.828517373671517929e-04,7.896588015772429761e-03,1.663647294044494629e+00
2.219843615414746063e-03,-9.736562934523207424e-01,7.906822831782754912e-01,2.610253572828571261e-02,8.400387658019094206e-02,-3.932771327118234073e-02,1.539903521537780762e+00
9.716615652021545757e-03,-9.444735167753847138e-01,7.175445104833276799e-01,-9.311793462490371154e-03,5.113844018009258696e-02,6.034642727392468958e-03,1.447451710700988770e+00
-3.114789749123452953e-02,-9.927186971383376024e-01,9.577655601500122406e-01,-5.504499627692778334e-03,-2.586683277399369745e-03,6.493990549595380810e-05,1.689257144927978516e+00
-3.514849263160318288e-02,-9.618863788143222626e-01,9.188713113779739539e-01,1.759213437482503922e-03,3.339466316048137883e-03,1.192039783603675816e-02,1.628985047340393066e+00
-5.196097744192903350e-02,-9.408833573875142742e-01,9.306801926552983328e-01,1.654195722312192061e-03,-1.945969070811171247e-03,-1.284690258161476709e-02,1.621657490730285645e+00
-4.925369727094910943e-02,-1.191884951971022177e+00,1.223140394194750291e+00,1.049913979867109215e-01,-1.965999910874663414e-01,-3.877125178871881905e-02,2.128850460052490234e+00
-2.606288300583628828e-02,-9.727602418277911944e-01,8.825890472366760831e-01,-1.215904538958039599e-02,-2.256829555716969964e-03,-7.372313430520366882e-03,1.607085704803466797e+00
-7.018140895809577007e-02,-1.112952571960504677e+00,1.183833485255002760e+00,1.682990999259230402e-02,1.524225884246629796e-02,1.114903525408886785e-02,1.992359161376953125e+00
1.702850398738332827e-01,-1.155932940755244998e+00,5.276645337123919699e-01,-4.933652948978491104e-02,3.749828111627918070e-01,-1.604895667869341291e-01,1.693206071853637695e+00
-3.401531063575048003e-02,-9.890894924896088680e-01,9.393412595257817355e-01,-8.872277680238793707e-03,-5.707963068476803147e-03,-3.269519791425210768e-03,1.670204639434814453e+00
5.506876053323306319e-02,-9.601586881283243891e-01,7.099767845597746430e-01,-1.860935328172969722e-02,-9.638489646813530598e-02,1.078349637697296193e-01,1.479278922080993652e+00
-9.325051903107439699e-02,-9.455625644229189719e-01,1.121170208900989396e+00,2.277803032152907470e-01,-1.724193188014588318e-01,-6.157991431811957878e-02,1.868831753730773926e+00
-8.101815026246245166e-02,-8.238177241527623318e-01,1.072475854376669480e+00,2.185684553084975834e-01,7.125932085165866126e-02,-5.961418698816667305e-02,1.705381512641906738e+00
-1.564976935395075153e-02,-1.080870650614480510e+00,1.123679910728583753e+00,1.561796114888945319e-01,4.572946109241851631e-02,9.725803252839528706e-03,1.930320978164672852e+00
6.611920397411862396e-03,-9.997136838779656642e-01,9.879721762075045488e-01,-4.712083732887110271e-02,-4.194897835478085535e-03,1.826629427062390412e-02,1.723671078681945801e+00
-5.051444714869494923e-02,-9.606754241281233453e-01,9.379483276186961760e-01,-5.618139417700883289e-04,3.330166569794882573e-03,5.502234701586637688e-03,1.644760489463806152e+00
-4.650637381185726560e-02,-1.087674834723232120e+00,1.076567187990328245e+00,-9.818531384842973594e-03,1.416669188537873769e-02,-1.691835132537004957e-04,1.874973654747009277e+00
-3.801480736491263251e-02,-1.017205993375349449e+00,1.012457388431285077e+00,1.682607436040228907e-03,-8.979386268970082977e-03,3.397630488002016409e-03,1.758182406425476074e+00
-3.073718033017082581e-03,-1.016952665544508250e+00,1.000009593539803010e+00,-1.538370870442145460e-02,3.944590400109198799e-03,4.695697240621393882e-03,1.746984362602233887e+00
-4.544472219357847953e-02,-9.474262236675531357e-01,9.306300883557991899e-01,2.110373638165915101e-04,-4.991068355010468485e-03,-5.657038494536404533e-03,1.626918911933898926e+00
1.155237810425891777e-02,-9.982177972742467542e-01,9.799894416240749750e-01,-1.732869110607260232e-02,1.102528091795811765e-02,-4.354938878153160470e-03,1.713688254356384277e+00
4.070305857078697701e-03,-9.559263943961916477e-01,9.659557154895221931e-01,-5.307346610441088935e-02,7.373563812586978253e-03,-5.844932428664026750e-03,1.667015314102172852e+00
-1.776666406573018664e-02,-1.017086581350403751e+00,1.008218199682337834e+00,-1.094222328798713853e-02,-1.369812053175596504e-02,3.535220518995977213e-03,1.754289627075195312e+00
-2.222918028950041092e-02,-9.816090522973340837e-01,9.007976376342420322e-01,-1.110111882624706392e-02,1.436345742297714077e-02,3.303890923807005497e-02,1.631620287895202637e+00
1.311496076547863376e-01,-1.235160350030527932e+00,4.742091797785686902e-01,-4.808578021905572653e-02,-1.418874823254728246e-01,-1.486306128000944027e-01,1.608360886573791504e+00
-3.738356159488705199e-02,-9.913810974361471073e-01,9.597611795102548582e-01,-2.669634505339148721e-03,-1.962219827682790650e-03,1.213935968945208110e-03,1.689887523651123047e+00
-2.761371776652067622e-02,-9.891547238790110441e-01,9.667694366873453848e-01,3.373474794109105300e-03,-7.368302012838292246e-03,7.382118137931226350e-03,1.694066047668457031e+00
-1.103486133093207339e-02,-9.826629554196981697e-01,9.591389560692429317e-01,2.948811823891550003e-03,1.165583472379083142e-02,1.976095557379445745e-03,1.681782364845275879e+00
-3.765099587191376301e-02,-9.776583190683353353e-01,9.612427014405439119e-01,-3.547200960962963202e-03,1.340282340197827479e-02,-4.004334914762583408e-03,1.679581642150878906e+00
-3.034857489322604490e-02,-9.873261356224782848e-01,9.588483778020642223e-01,2.868631007813826368e-03,1.518705936597637089e-03,8.020566710500788218e-03,1.685580134391784668e+00
-7.496300325384459839e-02,-8.763578622463851220e-01,9.375795044333994355e-01,-3.127836556863639560e-03,1.558292439372910634e-02,-1.438109335544066926e-02,1.574897050857543945e+00
-1.653601862153058349e-02,-9.931420093020204565e-01,9.612247563287201757e-01,-1.728365564349985787e-04,5.384245043169377971e-03,-8.659860144965525713e-05,1.692557096481323242e+00
-6.809305077070098439e-03,-9.532697520736076457e-01,9.446598453543653129e-01,-9.797667207055290803e-03,1.509290477263758659e-02,-6.468014770768085002e-03,1.643990755081176758e+00
-5.432061743279988086e-03,-9.654052211964789798e-01,8.298212041462491584e-01,6.460351263653853551e-03,2.752904439678678693e-04,1.349622258909932183e-02,1.556177735328674316e+00
9.242595014285263921e-02,-8.972769903148751780e-01,4.909793836072308681e-01,2.139384852296415465e-02,8.598922387101728959e-02,-2.871873567764270108e-02,1.248533606529235840e+00
-2.917179204035373619e-02,-9.789658543568917626e-01,9.507531648951247361e-01,-4.067921177975548745e-03,4.181634534171713852e-03,3.796658310781896375e-03,1.671297073364257812e+00
7.507825235837083111e-02,-6.349809533466822531e-01,2.895959741330634274e-01,1.589887438084025897e-02,-5.324317802443083447e-02,3.428206546729178905e-02,8.457605242729187012e-01
-2.522502306555319748e-02,-9.585010200167550787e-01,8.924861294836594627e-01,-6.470635349233648699e-03,-1.369344484864640915e-02,-9.040506012577835711e-04,1.603236198425292969e+00
-2.513137006318912764e-02,-9.715257377758855784e-01,9.107977218628673377e-01,-4.917029110704560814e-03,6.081182615801534845e-03,5.154786494071627971e-03,1.630229115486145020e+00
-8.618006543208822645e-03,-9.875496971268908908e-01,9.760968266757197309e-01,2.567231569177123082e-03,5.835513807347128892e-03,9.821271064977669420e-04,1.700606942176818848e+00
8.250677263845675180e-02,-2.116986909974430286e+00,1.763152493404375853e+00,8.936648060900223567e-02,4.636514905304693901e-01,3.680823272119365837e-03,3.468116283416748047e+00
-4.565734922653624794e-02,-9.326089169085997055e-01,8.938241203169607907e-01,1.068408213473676927e-01,-7.223988204068214347e-02,5.248479307835298563e-02,1.600233674049377441e+00
-1.260521323864809973e-01,-3.941272274864693337e-01,7.642712860115098428e-01,1.708390214961230391e-01,-3.612790978406877490e-02,1.535566999575651015e-01,1.124911665916442871e+00
-8.217991276961481018e-02,-9.661410936762703239e-01,9.279449422781413936e-01,9.238871568759636889e-05,8.626116545488917570e-03,-2.789662356205284497e-03,1.641614198684692383e+00
-4.983854063099366766e-02,-1.022664359286138858e+00,1.009076574573628093e+00,7.320762265849467196e-03,1.699927939818716288e-02,-8.775834940632984416e-03,1.760423302650451660e+00
-1.502902382569639705e-01,-6.099341040191135210e-01,8.978614662338980645e-01,1.139358785571176029e-02,-3.075896111411793171e-02,1.427050164070969296e-01,1.362348318099975586e+00
-1.226846848153265168e-01,-8.038249282543012963e-01,1.023899317701268741e+00,-4.391112963795065533e-04,6.326725565038356092e-02,3.800970212586924496e-02,1.604971766471862793e+00
3.483784304182609842e-02,-9.956264038735298527e-01,8.023594359285647348e-01,1.835989008322352900e-02,-6.366823522445407002e-02,1.015849667528437306e-02,1.566949725151062012e+00
-5.025613255250493960e-02,-9.782694176589266100e-01,9.189059243783835873e-01,-1.100291124989991043e-02,-4.722777101469612061e-04,6.822549136698570667e-03,1.643284082412719727e+00
-2.942428023981108823e-02,-9.769535246099420034e-01,9.073053352632728386e-01,-9.387506727756358971e-03,-2.249570709744960068e-03,1.158453815601770756e-02,1.632033944129943848e+00
-1.978683835980072497e-02,-9.745309230360771346e-01,8.677833919132339480e-01,-1.020527325918983361e-02,1.255007908610926773e-02,-8.998564501554357636e-03,1.596166491508483887e+00
-1.210246083548121437e-02,-9.591417679229768956e-01,8.117809469412800016e-01,-1.239336018015517286e-02,2.828694282161820991e-02,2.793912902936557946e-02,1.536593794822692871e+00
9.113550483873182617e-03,-9.779864587649035323e-01,7.828135741542260329e-01,-1.436558651355385706e-02,-1.062255155972966492e-01,3.460204045987389822e-03,1.539871454238891602e+00
-6.541273050476290041e-03,-9.592148214803283279e-01,7.825570399744581351e-01,-1.724109402972252500e-02,-1.069844241835397058e-01,-1.668322407722540313e-02,1.522524237632751465e+00
-3.515513396063790763e-03,-9.880611654975102187e-01,8.033209575142787884e-01,4.556678914408240216e-02,9.034547512462896834e-02,-4.755659875149174237e-02,1.565944910049438477e+00
1.429561968000735844e-02,-9.542293187007023780e-01,7.742275906271602892e-01,-1.426751551068287417e-02,1.555732484666232486e-03,-1.242123773960742035e-02,1.500876784324645996e+00
-3.683226245424159329e-02,-9.661670478814757823e-01,9.499261173495500143e-01,-3.020000096365330327e-03,-2.443210883772474820e-02,-9.224451323761234667e-03,1.660258293151855469e+00
-1.247708091446602524e-02,-9.374118275332909977e-01,7.572310858697510749e-01,-2.625441980105201484e-03,-1.399244829631064030e-02,-2.717350313227685429e-03,1.469869017601013184e+00
1.686108942337209010e-02,-9.507340634015770675e-01,7.722056675211744770e-01,-1.116253806478658371e-02,2.588711783852247592e-04,-1.354175320628085016e-02,1.496187686920166016e+00
-3.445194122013425092e-02,-9.892102256488869427e-01,9.575415680112077110e-01,1.988696649554257123e-02,4.380803629136374028e-02,-4.177688029336485212e-03,1.688112735748291016e+00
4.402319269288974823e-03,-9.678813760930975452e-01,8.253299449777392605e-01,1.520525695127580845e-02,2.543729539596626711e-03,-1.200401893184688956e-02,1.555177688598632812e+00
-3.419689346614820935e-02,-9.736001996525375235e-01,9.377206931561857806e-01,2.403521132902104729e-03,-6.375230564458659460e-03,-3.153833909930651210e-03,1.655383348464965820e+00
-2.782479706734017344e-02,-9.823290764194153590e-01,9.140526677952024448e-01,-6.995437942296904750e-03,-7.542543660833516891e-03,-9.726510171253300446e-03,1.642509937286376953e+00
-4.820485357483872413e-02,-9.083556756625656980e-01,8.862374925999503272e-01,-7.066093204767307998e-03,-1.573493038399217860e-03,-3.894579680139251352e-03,1.554672360420227051e+00
-4.223788430663401317e-02,-9.595107220268100923e-01,8.503519283161832254e-01,-1.275115886820610452e-02,2.583661714438235252e-02,-1.367997303207617787e-03,1.568231582641601562e+00
-3.720122372207453065e-02,-9.683403788987937633e-01,9.330856368037593329e-01,1.217122872530590136e-02,-5.831881712159245768e-04,-1.427282188733263769e-02,1.647120356559753418e+00
-8.340639172628649955e-02,-7.570866450401926295e-01,8.645846681339971473e-01,1.497213173147883200e-02,-5.710572735498036304e-03,-5.819011919398876104e-02,1.414957046508789062e+00
-3.401313805721616068e-02,-9.792799560647779122e-01,9.615680679700766564e-01,-2.528523578954037891e-03,-1.178324130431903857e-02,6.249955424282128275e-03,1.681176424026489258e+00
-4.390905380131764069e-02,-9.494449263588988774e-01,9.036118595555395760e-01,3.683076201318927212e-03,4.213972364097290368e-02,2.998185742099510054e-02,1.607442021369934082e+00
-3.658258901241076555e-02,-9.649799702947240432e-01,9.219530217559339658e-01,-8.997635965090268473e-03,5.221823471981636502e-03,1.845728768393643457e-02,1.634613394737243652e+00
-2.989562444865860591e-03,-9.747105100050275084e-01,8.475596052925867818e-01,-1.640125474145603945e-03,1.553797484979028715e-03,-3.186788554984035238e-02,1.580263853073120117e+00
-6.111881209479223115e-02,-8.971206533270403849e-01,9.373215034206680008e-01,7.040684882746339095e-04,-2.120898509455804506e-02,-3.243372739806095473e-02,1.592164158821105957e+00
-1.132190042724087048e-02,-9.683075241821752499e-01,8.820385410294611095e-01,5.959605769594964342e-04,2.596711512991747850e-03,1.957517624159385572e-02,1.603127717971801758e+00
-2.973718145134575386e-02,-1.063277847482767546e+00,1.092710965121153510e+00,-4.383498644108482778e-02,7.430578927315725692e-04,-1.491765332784485837e-02,1.869391798973083496e+00
-3.864297426937071678e-02,-9.616542381668513606e-01,9.138608277741031571e-01,4.520089180950963986e-03,4.141080497687646411e-03,-1.046454968555675380e-02,1.624446511268615723e+00
-1.380358680707763873e-02,-5.857437984297692024e-01,5.631735673757226612e-01,8.044792182664664559e-02,1.071081299970161049e-01,-3.819354735126744699e-02,1.023827552795410156e+00
-8.207503442636338020e-02,-8.613787644712376235e-01,9.116647462958890058e-01,1.888463472190726397e-02,1.139164508933167112e-02,1.544458901137796616e-02,1.539945721626281738e+00
-1.330532664374005705e-02,-1.008487406940810072e+00,9.381922973388688858e-01,3.721580889326832342e-02,1.852942998126834787e-02,-2.957568322045057985e-02,1.688329815864562988e+00
-2.282509233200427645e-02,-9.691692045967532643e-01,8.656074289576372038e-01,-1.010051499826070814e-02,4.089158358286628520e-02,8.769305114788071651e-04,1.590901374816894531e+00
-2.508311829621438782e-02,-9.661996168270677865e-01,8.854282076720734196e-01,-5.684274288859011807e-03,4.100118600307752978e-03,1.943240637836794044e-02,1.604028820991516113e+00
4.544518980747848380e-03,-1.130116864299229640e+00,9.405248445781017042e-01,7.797110121099033730e-02,1.651125229661163096e-01,-8.699202956343922433e-02,1.829826235771179199e+00
1.820537973826102246e-02,-9.816437250218487121e-01,9.552422518141308050e-01,1.921825621356047439e-02,-5.175561168939286569e-03,-1.457460127042682803e-02,1.678230404853820801e+00
9.690968625015360105e-03,-9.581163920557529412e-01,7.812640375542911908e-01,-1.123059030768354697e-03,-1.643822384497911019e-03,1.488829542282277089e-02,1.509763956069946289e+00
1.510473543287800709e-02,-9.480186873635687572e-01,9.412345042182409527e-01,1.794002466966571063e-02,-2.210740252019374220e-03,2.481987686706754129e-03,1.636550903320312500e+00
1.190199037432665419e-01,-9.113800546501960032e-01,4.939237492686033848e-01,-8.719962275820886902e-04,2.135856658412107600e-03,-3.915344835395940214e-03,1.260412573814392090e+00
1.344360736709375621e-02,-9.563688389770051979e-01,9.451966660958250888e-01,1.115105521706910921e-02,-1.132216753305902851e-02,-6.731489062607238952e-05,1.647143959999084473e+00
-3.938384477778569814e-02,-9.651235537834635947e-01,8.653626010292480020e-01,-1.058510203402932698e-02,2.440978271552690648e-02,-3.857965445867647149e-03,1.585965991020202637e+00
1.957937221217444235e-02,-1.168457469461815723e+00,8.766074927147438078e-01,1.639797166497506190e-02,-2.684344293366786594e-01,4.374418508976969221e-04,1.838773488998413086e+00
4.975831213220242855e-02,-9.468658675064838270e-01,6.726758979341440625e-01,-3.027885293180982221e-03,6.189558222747539550e-03,1.234661633939980636e-02,1.415168046951293945e+00
9.527270152998323222e-03,-9.561203890268514805e-01,9.420423712693207774e-01,1.469650230293319086e-02,-3.777910122142781775e-03,-1.236132885677554329e-03,1.644152164459228516e+00
-4.132863690313176575e-02,-9.585403827464759052e-01,9.403522194857537597e-01,-1.150866577433714080e-03,1.012701781884166319e-02,1.179246621963355932e-02,1.645026683807373047e+00
-1.154985429522856905e-02,-9.801875749366552038e-01,9.588756159723484940e-01,9.810677829996844110e-03,1.844949255030542282e-03,4.619803149838465003e-03,1.679386258125305176e+00
1.058823055554774378e-02,-9.638435059926326876e-01,7.818791272814346049e-01,-1.026146727671511938e-02,-6.713574385271771881e-03,-1.716060917684928550e-02,1.515688538551330566e+00
-4.042654359635708405e-02,-8.357798214799913028e-01,7.685997275720296562e-01,-1.584214897540098810e-01,-1.777218411959536892e-01,-7.965198185598255931e-02,1.455902695655822754e+00
-2.922584605582702333e-02,-9.821676954193645503e-01,8.981864273235822260e-01,-1.457263747922967617e-02,-5.832234755316312996e-02,-6.614213621564819442e-03,1.631850004196166992e+00
2.854454626842349574e-02,-9.832979989975292323e-01,9.499938889804666609e-01,9.904181842831696544e-03,-8.248687912920146803e-03,-4.636368284648869666e-03,1.675057888031005859e+00
-1.172219681775818825e-02,-1.046322492205894239e+00,1.060620157970413091e+00,6.657750142039461916e-02,4.622087866832897546e-03,-1.935265683848084312e-02,1.828728199005126953e+00
-8.160716913219497048e-02,-1.657203513213332258e+00,1.642735274613640772e+00,3.917457354648270496e-01,-2.057465397147784647e-01,1.348144714005584666e-01,2.968946218490600586e+00
-4.970684709185865108e-02,-1.158357363922875249e+00,1.181068093553617082e+00,4.797821683686797484e-02,2.212499628105112429e-02,-9.012751726206022496e-02,2.034982919692993164e+00
-7.942395352534226127e-02,-9.964007180846384815e-01,9.943422479638801548e-01,-6.930604183086843577e-04,-1.229312436835162253e-02,-4.787359198692158792e-03,1.725967049598693848e+00
2.183854376362008853e-01,-1.101226543672500169e+00,2.638118608656465636e-01,-3.764734235617733793e-02,1.744143808398675999e-01,-8.330247400403927027e-02,1.385537981986999512e+00
-6.802637817588053082e-02,-1.294518299470298617e+00,1.366667906565484536e+00,1.941008156632091641e-01,3.109089143390408524e-02,1.590058773007697879e-02,2.332156658172607422e+00
-7.920064472667019684e-02,-8.746460117323604511e-01,8.678962996140995312e-01,-4.105297040371425760e-03,-7.414048162376202233e-02,2.093726387742377362e-02,1.516886949539184570e+00
-6.305619485747598896e-02,-9.761181659070918837e-01,9.350405706051949650e-01,1.180398382267874077e-03,-2.074662114648779306e-03,-2.453416718195636573e-03,1.655668616294860840e+00
-7.400076516117529146e-02,-1.251066015415843058e+00,1.333061495066009572e+00,1.943705815759301514e-01,1.475934407737661824e-01,8.455157903591760393e-02,2.285092830657958984e+00
-1.009827002106177540e-01,-3.315905530020948899e-01,4.873974710069974847e-01,5.961171591880660980e-02,6.252250851003600396e-02,-6.042730186418028560e-02,7.539221048355102539e-01
-9.935476570481899250e-02,-5.185374352566374245e-01,6.512500405260479575e-01,1.449739913748429587e-01,1.846037466203122590e-01,5.294339612561069913e-02,1.107907533645629883e+00
8.749357945052718688e-02,-9.344544920897032148e-01,6.207293109660023678e-01,-6.772605630208306448e-04,-1.909596227075604756e-05,-1.223443237703395262e-02,1.368980646133422852e+00
-6.061476479082649610e-02,-9.729232853269711434e-01,9.035086153423529387e-01,5.211744612790255096e-03,4.892824321678064525e-02,-5.138503833586747366e-03,1.627501606941223145e+00
-7.615985711093981037e-02,-9.725612217129083747e-01,9.315254378898064624e-01,4.173042309755015979e-03,1.865476082336856023e-02,-6.075824990286517353e-03,1.650291681289672852e+00
-3.577697863617980423e-02,-9.689386015399644725e-01,9.289536884551170548e-01,1.498289371125782104e-03,-1.843818433254195647e-03,-5.295394835572505426e-03,1.643729448318481445e+00
-4.262458438355240520e-02,-9.692570953597493544e-01,9.468163468404487970e-01,2.861393499538320267e-03,2.449822197767353212e-03,2.512741829444880594e-03,1.659683942794799805e+00
-1.187263143332950924e-02,-9.745897300723889156e-01,8.963479839534497229e-01,1.433294927547882139e-03,-4.374064408184598525e-03,-1.034420010819750088e-02,1.620627284049987793e+00
1.032067659489682709e-02,-9.491010925194640624e-01,7.643639389668857032e-01,-2.708867217374219972e-03,-2.395360564019626687e-02,-9.058695619994842213e-03,1.488121747970581055e+00
-6.378453034608333461e-02,-9.843331366853764752e-01,9.525668410287067012e-01,4.395366718626407022e-03,8.234699299669780148e-03,-2.240922902090088185e-03,1.678170800209045410e+00
-2.518747386804361804e-02,-9.844162800664157942e-01,9.266895732816498032e-01,4.598962418789406641e-03,-9.578557776999188644e-04,6.711903072129305967e-03,1.655131101608276367e+00
-6.581180596663874227e-02,-9.726077187385407941e-01,9.302950175119096832e-01,-6.264136892244269689e-05,-1.465882012915532362e-04,4.236889892911421427e-04,1.648567199707031250e+00
-7.866896308233900514e-02,-9.777330980094461887e-01,9.480113290109951629e-01,2.582496930919641817e-03,1.007162875520975845e-02,2.352140522420938934e-03,1.669065952301025391e+00
-4.552802853989013077e-02,-9.051898095268937627e-01,8.822785632721440452e-01,-1.985005707094461731e-03,-9.253174817318925507e-03,-2.905115609674041501e-03,1.548462867736816406e+00
-2.548101650365163992e-02,-9.760006332901943749e-01,9.078462743044070082e-01,5.063992856220922087e-03,-6.450717853471878149e-03,8.395215854139940342e-03,1.631608605384826660e+00
7.561282471296004726e-03,-7.577590900402176866e-01,4.953849516800474251e-01,4.518543089913429345e-02,4.048353131062389088e-02,2.412533092446388916e-01,1.175874114036560059e+00
-1.292463343369884901e-02,-9.727542228047606487e-01,8.899378456315711894e-01,-1.274045216648226307e-02,-1.127659662776007640e-02,1.305700280584335370e-02,1.613817691802978516e+00
-4.008383469332481297e-02,-9.745994349980448002e-01,9.485672406973633120e-01,-4.491883682890851839e-03,6.489450437064640462e-03,-6.172885838969625893e-03,1.665821552276611328e+00
-1.696895628097585401e-02,-1.039388383009870243e+00,9.403644435473220708e-01,-2.485480916718759911e-02,4.509601078284401765e-02,-1.887725916719434210e-02,1.717453956604003906e+00
-3.822938535615350714e-02,-9.790273565436291570e-01,9.248892428278148170e-01,-9.710547157837968318e-03,-8.871000217012888975e-03,-1.516098436725764852e-02,1.649244308471679688e+00
-3.118502607626444378e-03,-1.016233274648212559e+00,8.710255873138408322e-01,-3.241924007908469907e-02,-2.683887724802653391e-02,-4.712935208337784565e-02,1.639547228813171387e+00
-2.522001249506862844e-02,-9.579488420325665832e-01,8.720231833238252239e-01,6.743600318645649565e-03,6.433053289766284960e-03,-1.382396494345038487e-02,1.585164666175842285e+00
-5.120509689603156001e-02,-9.463756151483636581e-01,9.393840485376860894e-01,-3.874674217232140089e-03,-7.091404659971703092e-03,3.040999145739685036e-03,1.633880972862243652e+00
-8.030851270453209789e-02,-9.834638322931912313e-01,9.777227897829727787e-01,3.011624101774778347e-03,-1.999399533294812792e-02,-5.869942443634615543e-03,1.700592875480651855e+00
1.256737715665310826e-02,-9.412667792482332096e-01,9.381182717517549952e-01,6.896850602403319444e-03,2.178926129005363463e-02,-2.309148084724761511e-03,1.628142833709716797e+00
-5.959417521280135216e-02,-8.546916231429841915e-01,9.164240804597579837e-01,-4.516289287526741719e-03,-1.139865019995739241e-02,3.220179517863200336e-02,1.537654995918273926e+00
9.421798448994410380e-02,-9.062663279327755061e-01,5.204596694237957344e-01,-6.045461926131953483e-03,-3.368739653664181311e-03,6.537309721400298701e-03,1.268609762191772461e+00
-5.374586047779828651e-02,-9.386581513289418144e-01,9.462968218117603358e-01,-3.671410471963503386e-03,-7.513104296368759878e-03,-8.563971832376887985e-03,1.633565068244934082e+00
-3.421734771499128358e-02,-9.627053101006931568e-01,9.271474675808145660e-01,1.936610642009987124e-03,-6.247346170731901682e-03,-2.296704786893404276e-03,1.636787056922912598e+00
-4.152117095890756060e-02,-9.174842251169160745e-01,9.347751083317079601e-01,-4.766618863663605286e-03,-2.004142753216199210e-02,1.124758708175082646e-02,1.605402708053588867e+00
-1.416415393580134838e-02,-9.683316320380661590e-01,9.533253188769703623e-01,7.937744520711085411e-03,-1.979942544484930827e-03,-2.377941949761648837e-03,1.664282441139221191e+00
-3.305520106782428719e-02,-9.768932057662924606e-01,8.976273792182363209e-01,-1.302156892303197276e-02,1.917454396405152270e-03,5.077278610065651815e-03,1.623579621315002441e+00
-1.186485415064732762e-01,-7.423011160728270053e-01,9.339077086083866774e-01,3.192826068775759252e-01,-1.502838299573335257e-01,5.461139593366276523e-02,1.592411279678344727e+00
-3.497981315524994333e-02,-9.665972105784719215e-01,9.330949635723747582e-01,-9.165353053208506393e-04,-5.340618871193071777e-03,1.338280210965479486e-02,1.645472764968872070e+00
-3.196282546535941099e-02,-9.660594893123524152e-01,9.165291905253730720e-01,4.187945012456040748e-03,-1.062156155335922591e-03,7.852941982362342949e-03,1.630459427833557129e+00
-5.234876642321592555e-02,-9.343221042656230102e-01,9.427254938794918937e-01,-1.248232491869094444e-03,9.748051159677981539e-03,9.280292125797555414e-03,1.626722693443298340e+00
1.015766522416733653e-01,-9.273516259347298618e-01,5.413129030182612933e-01,4.421599568598690716e-03,-1.027577913702910212e-02,1.171330691351933975e-02,1.305873394012451172e+00
3.997048273409385677e-02,-1.115307373008487923e+00,7.636746453873428653e-01,-1.578189280878499259e-02,-1.402770809528783302e-01,-1.043359184532583611e-01,1.669410705566406250e+00
-3.746656394265476808e-02,-9.649470776693370722e-01,9.178521356473592352e-01,2.068621970422222702e-03,-1.578536526089826500e-04,8.751256351841362260e-03,1.630685806274414062e+00
-8.317973970583769638e-02,-8.883617438731912230e-01,9.847489138865910263e-01,3.762881592416472687e-01,2.075089246416355615e-01,-1.982465156026565478e-01,1.822232127189636230e+00
2.536484990496123415e-01,-9.521184482049223075e-01,4.055660122224563624e-02,2.646877217481118788e-02,2.154095841019953439e-01,-5.170278709812663881e-02,1.179689884185791016e+00
-4.912211497737582755e-02,-9.402269782900765094e-01,9.256804105829709028e-01,1.573340842710123908e-04,5.285404164309262000e-03,-9.217952722278932587e-03,1.616569757461547852e+00
-3.219442448182309457e-02,-9.937027292238276299e-01,9.623382359456941204e-01,4.839503915192329138e-04,6.707644786416136658e-03,2.794345856339460225e-04,1.694101810455322266e+00
4.325251654228320919e-02,-1.168985964052069004e+00,9.163480654676450232e-01,-2.863102343504450586e-01,-3.342357342053482450e-01,-2.869316515443163206e-03,1.967562913894653320e+00
-3.865414154130181190e-02,-9.676973342720338600e-01,9.384792557012147096e-01,2.859183516960369861e-03,4.919288292217480207e-03,2.511675377194775086e-03,1.651007652282714844e+00
-2.562669544171312930e-02,-9.734151511370612297e-01,8.997141707618754314e-01,3.004040362528280321e-03,3.825099763786250599e-03,-8.472886213776663691e-03,1.622304677963256836e+00
-5.914732092350331871e-02,-8.417847203505873788e-01,9.025598418828284508e-01,2.744291389142935588e-03,-1.079852381393386386e-02,-3.064980287994871141e-02,1.514351606369018555e+00
-4.343297783374820697e-02,-9.615996168437732639e-01,9.354946941382625836e-01,-1.320340172421208312e-03,7.672259211591642061e-04,4.488271610288701793e-03,1.643233299255371094e+00
2.027881999881241404e-01,-8.169557821698812949e-01,8.825454003825161653e-02,7.307648494666300898e-02,2.994245387468128655e-02,-1.317231420815431764e-02,9.774617552757263184e-01
8.658855617114824543e-02,-9.203281012906887604e-01,5.706022576195841634e-01,1.391296611028284939e-02,-3.720196462667341771e-03,-4.886143641691141105e-03,1.317651629447937012e+00
7.275698835850891166e-02,-9.210190646791970304e-01,5.341185239266155182e-01,1.213985565551318688e-02,-1.222704261444503351e-02,5.034242351498822987e-02,1.291289687156677246e+00
1.324080876495090653e-01,-9.359318404077090481e-01,3.488715706317938037e-01,1.074225190997093599e-01,2.807495299528303123e-01,-7.426213892411119566e-02,1.306555628776550293e+00
-3.949248256312939964e-02,-9.737922203330958704e-01,9.342124794962138878e-01,-1.408233678498340899e-03,1.497965474643632531e-03,-3.620961948119713614e-03,1.652513742446899414e+00
-1.477910071884047660e-02,-9.736340058799982655e-01,8.949434716107892429e-01,6.459641413966523728e-03,-3.313144154739778463e-04,-9.921580856887327743e-03,1.618551969528198242e+00
1.318699308248360430e-02,-9.625725100644910714e-01,7.833108469502821913e-01,-2.169639233775251010e-03,-8.347892056208656639e-03,-1.595696998462808880e-02,1.515796899795532227e+00
-4.018263412231788678e-02,-9.683367881355212647e-01,9.283597745371096055e-01,-7.700311938910754097e-04,1.724758696872481876e-03,-4.544110006384177551e-03,1.642733693122863770e+00
-4.239892591158352098e-02,-9.142495297703080448e-01,9.464443685736950718e-01,3.688295535884975745e-02,2.044996870849262460e-02,-7.050076217993256865e-03,1.614169478416442871e+00
-1.386846837627010443e-01,-7.788192906570154950e-01,9.941687946695310085e-01,3.154001126290138513e-01,-1.108136278088083099e-01,9.276546128822124593e-02,1.667151808738708496e+00
-2.823589608987271335e-02,-9.742026732903259489e-01,8.992768612666683925e-01,-8.888185228175648350e-04,-9.766521024989860238e-04,-9.964172133698450187e-03,1.622600555419921875e+00
-3.457995896022592053e-02,-9.716410578611306414e-01,9.346607039656651406e-01,2.802541840647322126e-03,6.914452527238553782e-03,-4.528603879705880809e-04,1.651034951210021973e+00
-5.889481695420616808e-02,-8.072982997907049985e-01,9.355315024076921171e-01,6.830549786669967705e-02,2.424205808928549168e-03,3.520687770952603268e-02,1.520183086395263672e+00
-2.071434732207244611e-02,-9.777535426917198791e-01,9.039258738849017538e-01,7.462960935327947291e-03,4.841515494753912546e-03,-1.039145992674261713e-02,1.629834890365600586e+00
-8.315434126556331407e-02,-9.841681340845002124e-01,9.370222191987501725e-01,4.171067257094219702e-03,6.516962080710025917e-02,-8.845070334755338048e-03,1.668774247169494629e+00
-8.367653179114112327e-02,-9.169345804420486745e-01,9.513661206584483887e-01,-1.705458709196524614e-03,-9.639517606533544317e-04,4.885540214020641335e-03,1.621164083480834961e+00
-3.134075895421511992e-02,-9.859592669360627282e-01,9.506000547747095464e-01,1.457816346861027547e-03,5.134111327108195795e-03,1.428985394257421869e-03,1.677192449569702148e+00
-2.595556141406671347e-02,-9.917002122443597800e-01,9.580009437451887377e-01,-1.380830030406168026e-03,3.939741284183497123e-03,-1.871780258697254779e-03,1.688533902168273926e+00
-1.007140467386171134e-01,-6.842971413242907586e-01,9.028905517272097780e-01,2.346559812816027268e-01,-1.219162022464054251e-01,4.932280483002716986e-02,1.466477870941162109e+00
3.678780065137830790e-02,-9.603448004919257208e-01,9.359111322528848032e-01,-4.676455624161387006e-03,-1.726284031670022746e-03,1.487573742962355330e-03,1.642961502075195312e+00
2.923627179070159565e-04,-8.708593091662091279e-01,9.201811764572210839e-01,-4.174447020054627283e-02,-6.657366780329051874e-03,6.632118552222533974e-04,1.553005337715148926e+00
-5.862196110248464945e-03,-9.541145065093145083e-01,9.869060768249691140e-01,-3.782789209117034396e-02,1.139094644774094056e-02,1.372724963965845160e-02,1.682680487632751465e+00
-3.512650008462164797e-02,-9.949829864005089730e-01,9.591390062577587194e-01,-4.893877626037842696e-03,7.651420994262344254e-03,1.400084257927594654e-03,1.692481637001037598e+00
3.799659543908550513e-03,-8.369174761615766345e-01,9.058025627733622409e-01,-3.502686851942549140e-02,6.276948861457404619e-03,-1.303208633191386620e-03,1.510810256004333496e+00
4.719642780312299779e-02,-9.261008898607583362e-01,6.557616266646941749e-01,-2.953009002413213655e-03,-1.183926703902301626e-02,1.338931069010954955e-03,1.382181644439697266e+00
6.407309643362269630e-03,-8.267227462462500842e-01,8.959202382280343491e-01,-3.103699809165331655e-02,-4.945618693761252155e-03,3.852511134864714751e-03,1.493126511573791504e+00
-6.076671421189551447e-02,-9.856244947307059023e-01,9.519832507786811782e-01,-9.971863353129510957e-03,-1.266680953294828989e-03,-9.516004719400748824e-03,1.678764104843139648e+00
6.198426474978432910e-02,-9.358440980879283444e-01,6.297201586305491983e-01,2.902595103735110781e-03,-3.190470901730758230e-02,-2.670641848938227082e-03,1.373895525932312012e+00
3.680582404672228664e-02,-9.535876349306325883e-01,9.320200053629340564e-01,-2.322485022167451035e-02,2.463363447294063648e-04,-1.355090412840577463e-03,1.634174346923828125e+00
-5.249884607085328336e-02,-9.830773999891109227e-01,9.338798383120804347e-01,-1.323757564160411328e-02,-3.898440441683709116e-03,1.434974968315316703e-03,1.660542011260986328e+00
4.460513891224503202e-02,-9.793052988973257600e-01,9.459293281008133158e-01,-4.853400794073035873e-02,2.786290189551942145e-03,-2.853077019515049169e-03,1.670559048652648926e+00
-9.450031885422927047e-02,-3.593839775998473041e-01,7.172583466720574563e-01,4.610177031930379199e-02,-1.855216061112002768e-01,8.723437578960482885e-02,1.037592172622680664e+00
-2.837135241614262976e-02,-9.763901217111164987e-01,8.959861638370339998e-01,-1.030186627900114144e-02,3.013165545540653825e-03,5.151770320326582928e-03,1.621699690818786621e+00
2.204498015040806669e-02,-9.716176932542764932e-01,9.475381008104843961e-01,-1.193574836673419806e-02,7.240489334362539518e-03,-1.490319608036236743e-03,1.662564992904663086e+00
-2.112060081414953577e-03,-9.931005665692582696e-01,9.586958978194283221e-01,3.719116016699505235e-03,-1.290744244124727297e-03,3.952822527209126982e-03,1.690400242805480957e+00
-2.307832300985131480e-01,-6.686644101913234994e-01,1.453798841707004241e+00,2.944388252020135321e-01,-9.939764436681133852e-02,-2.202477722383735376e-02,2.014542341232299805e+00
-5.567666718829735600e-02,-9.693959121488368025e-01,8.907076869692190924e-01,-1.388497449068317076e-02,3.845768336368494099e-03,-2.178538396926182289e-03,1.611177444458007812e+00
5.521094993609481846e-03,-9.086474371307409204e-01,9.359293207142274085e-01,-3.865056872470792881e-02,-1.364335103734067370e-02,1.046266097118284458e-02,1.599150419235229492e+00
1.521976364445741699e-02,-9.624400969969515440e-01,9.469240576938678933e-01,-8.564643958314818381e-03,-4.657516089140207802e-03,-1.144777485005089943e-03,1.653804898262023926e+00
-1.481454338994084990e-02,-9.868458535910348273e-01,9.852995759959662925e-01,1.153428420316187641e-01,-3.022742869891890255e-02,7.177247442947863598e-02,1.724912285804748535e+00
8.671248155521053824e-02,-9.214056268932780958e-01,5.709084041503132978e-01,1.212431421727044271e-03,-3.082176527809643487e-03,-4.865382950730626731e-03,1.318703293800354004e+00
-1.801882418554345139e-02,-9.553634585909203114e-01,7.977784299672457946e-01,-1.476466388694185235e-02,-5.539980109134941440e-03,4.439482710258122952e-03,1.519746184349060059e+00
3.279024738107864934e-02,-9.575401346769497612e-01,9.375479739348067110e-01,-2.262353567405542623e-02,1.211571858716522371e-02,-5.409334714738952068e-03,1.642380475997924805e+00
2.118350468182550461e-02,-9.398234954901172333e-01,9.325122693313652178e-01,-1.401407002850530055e-02,5.891061912345629120e-03,-2.267471145401296542e-03,1.621899127960205078e+00
2.295358751450512699e-02,-9.598214251642315231e-01,9.394811721376122859e-01,-1.545999741647151315e-02,5.872223334028254041e-03,-2.577458021436043398e-04,1.645427227020263672e+00
3.917781027126851501e-02,-9.646765247353180639e-01,9.332581712294354404e-01,-6.796787242430773687e-03,1.058055331062494062e-03,1.749015732107324014e-03,1.644621729850769043e+00
2.270454432430811520e-02,-9.786146510666837717e-01,9.551666149299729014e-01,-3.149110760526982206e-03,-3.822814625448718324e-03,2.517915549593589732e-03,1.675085186958312988e+00
-7.766535721552841540e-03,-9.953050619605838811e-01,9.783217261235551687e-01,-1.034017165453917329e-02,-3.145605711887067626e-03,-3.272081518444017460e-04,1.709313750267028809e+00
-5.809856839802642059e-02,-9.865397997400725538e-01,9.594020882926900251e-01,3.002960046892552172e-03,-2.477183085302521980e-03,-3.651059148622557739e-03,1.685848712921142578e+00
-1.978580285833010655e-02,-9.568492377850330577e-01,8.018478198502676513e-01,4.491706594015727923e-03,-7.308489351685969020e-03,-2.728770148434918590e-03,1.524249196052551270e+00
-7.137563896571592903e-02,-9.640332037968207812e-01,9.154148258037105856e-01,3.584678509764177914e-03,-1.132549410038665837e-03,6.742711145673304719e-05,1.628343105316162109e+00
3.802176016905138567e-02,-9.602187192867995824e-01,9.354991160901211522e-01,-6.110651447895730851e-03,3.624294054054121440e-04,-2.632325984491787167e-03,1.642553210258483887e+00
3.622687273417068976e-02,-9.341350927695534212e-01,6.861084541836501849e-01,1.571223341829692741e-02,-8.094041135513454360e-03,-4.763298246177446495e-03,1.412647843360900879e+00
-2.685899502733135255e-02,-9.567778985703737638e-01,9.477588349569062709e-01,1.342042443143116534e-02,-2.211922752411250859e-02,-1.390757341449102777e-02,1.650313019752502441e+00
-1.385602605505030782e-01,-4.888405520192070641e-01,8.427488660314469415e-01,4.737783180011478912e-02,-2.047853668097166305e-02,-2.148483407181808053e-02,1.199489116668701172e+00
-1.125475957482089014e-02,-9.927704035341848865e-01,9.628892250377641959e-01,-2.381334585186359581e-03,-1.903731984772004480e-03,3.100420459719421817e-03,1.693671703338623047e+00
-1.057528658630260132e-01,-3.607403260592944028e-01,7.283113270587653343e-01,-8.799646548739625818e-02,-4.460666262719804182e-02,-1.431170383933109691e-01,1.031505942344665527e+00
-3.430256728536609789e-02,-9.807743717756469692e-01,9.378732997370552438e-01,1.060147231940946483e-03,4.895534956989354945e-03,-3.181306083574070905e-03,1.661679148674011230e+00
-3.656197731357177516e-02,-1.392299473152087463e+00,1.229805834073421478e+00,-4.724533470398246116e-01,-2.500118622100577781e-01,-5.862910762110952467e-02,2.454799413681030273e+00
-2.178137606060046860e-01,-2.875655904483180869e-01,1.041215669952468392e+00,-1.342821753862943890e-01,5.708930151616940004e-04,1.494953608621831243e-01,1.341261625289916992e+00
-3.022061315861932981e-02,-9.916880770047528104e-01,9.616704566500527962e-01,-2.430531937827358350e-04,6.870957295721707124e-03,-1.912013594166287085e-03,1.691771626472473145e+00
-3.320379611035904205e-02,-9.796786676850753883e-01,9.029442284160952292e-01,1.236929392598156915e-02,5.263588449544662380e-03,-6.048783985259665805e-03,1.630607366561889648e+00
-2.922877549042727369e-02,-9.736155532710740745e-01,9.012906112904025546e-01,-7.264159477294309178e-03,-4.388872465432637135e-03,-1.037126157275955127e-02,1.623897075653076172e+00
-2.835298405456296300e-02,-9.749680030314720192e-01,9.052001914496469182e-01,4.759371048395587972e-03,4.161518696629140993e-03,-1.020390333996203103e-02,1.628419280052185059e+00
-1.702013311231306003e-01,-7.053958846223249424e-01,1.081120648288406150e+00,-3.595399038835483951e-01,-8.531715711625856291e-02,1.191689464726321812e-01,1.724583506584167480e+00
-3.332080338854551821e-02,-9.802084601006845199e-01,9.579709258586043275e-01,-4.151656459232839352e-03,4.379802435209578793e-03,-4.299591233219265311e-05,1.678691983222961426e+00
-3.450710677304486690e-02,-9.865411937661224817e-01,9.344803310682264774e-01,6.012368803877544965e-03,6.536479408642827463e-03,-2.241457388626710758e-03,1.663750648498535156e+00
-1.042693818736510208e-01,-7.890561094621958427e-01,9.379812834601183313e-01,2.289347972677675119e-03,1.626506492871736612e-02,-2.047200047103010182e-03,1.506572484970092773e+00
-1.398754915782549763e-02,-9.942915447571781806e-01,9.634110091234820983e-01,4.707684836020954028e-03,-1.735319302240738003e-03,1.061324025083345765e-03,1.695443987846374512e+00
-1.375875412326486302e-01,-6.155336710005729906e-01,8.898544964742995944e-01,9.362208132093352564e-02,-3.538433001091297308e-03,-2.865540708073322299e-02,1.343103766441345215e+00
-2.404529826510637958e-01,-3.855216681408278889e-01,9.753488578468163528e-01,-2.062001750359497565e-02,-9.628057527774271096e-03,-8.526421422919090720e-02,1.303440570831298828e+00
-2.548319727285677447e-02,-9.919168990494593441e-01,9.634031822208013462e-01,-2.399668588191310582e-04,-3.553769852931243454e-03,-4.105055204623635559e-03,1.693420290946960449e+00
-3.565290578987968112e-02,-9.812560395614919884e-01,9.341397907700973446e-01,-5.994689680970447659e-03,5.956150879032522452e-03,4.676541114771278623e-03,1.658909916877746582e+00
-3.749941209119696944e-02,-9.926703267751224580e-01,9.548419046467204740e-01,-5.006942374137402819e-03,3.452639569656650378e-03,9.374055452165662179e-04,1.686731100082397461e+00
-3.114041219438972233e-02,-9.845148938945910144e-01,9.340049529951216511e-01,-5.136273838540849832e-03,5.823110239401191844e-03,4.754053419729636736e-03,1.661572217941284180e+00
1.315843173912310815e-01,-1.450916130852227592e+00,8.629350003878042408e-01,-3.230759745748914558e-01,-3.797807384039494361e-01,-2.404904492763778601e-01,2.261832475662231445e+00
-1.504080741364286801e-02,-9.847632181560802556e-01,9.595209115641240016e-01,-2.625286580520596116e-03,8.579024761299642449e-03,4.155811371084310556e-03,1.683888316154479980e+00
-3.144749909771757390e-02,-9.891587020245041773e-01,9.671909849086608446e-01,9.842203986284139752e-04,-6.270244207714325245e-03,-5.617110730250467546e-03,1.694435715675354004e+00
-8.128938689463946488e-02,-9.963482314767768688e-01,1.000849884206479468e+00,4.799862427901461235e-04,-6.327034490081794027e-02,1.144004608169790597e-02,1.735218167304992676e+00
-2.074952305261027960e-02,-1.177937104060924334e+00,1.122116632407754055e+00,-6.383124428204244027e-02,-8.903637692185992214e-02,5.690855034501072010e-03,2.000959634780883789e+00
-3.001051838209906411e-02,-1.000660939517501014e+00,9.875732789524545030e-01,-1.232863605002716828e-01,-1.675979052125607938e-01,2.154695445958845421e-02,1.759720325469970703e+00
-8.789170832269878331e-02,-9.482695801349263487e-01,1.019567362425541246e+00,-3.270692585426162591e-01,-1.718954566107386839e-01,-1.675760665981440856e-01,1.847528457641601562e+00
-5.524160599354359380e-02,-9.860349726785574420e-01,9.530270428076594857e-01,-8.634701523703837076e-03,-6.679409612125702424e-03,-1.082358484276588206e-02,1.679934740066528320e+00
8.304082016350361473e-02,-1.265637222017829799e+00,8.903146189172468361e-01,-1.112331728452779223e-01,-3.832410636451891728e-01,3.562617926205485785e-02,2.010204792022705078e+00
-8.083681474138457168e-02,-9.650158774089976355e-01,9.221651341255150403e-01,-6.439350299332507500e-04,-1.571532306003938992e-02,3.295462614947358530e-03,1.635663032531738281e+00
-5.026711482832130901e-02,-9.846922547116551128e-01,9.427867296709789846e-01,-2.643315805586842707e-04,9.299486981905184151e-04,1.159059438478326608e-03,1.669505238533020020e+00
1.096835679162541655e-02,-9.727801158150000127e-01,7.636730349302998100e-01,-1.139679739076339682e-01,-3.003194437621402035e-01,-9.712802398273561247e-03,1.607675909996032715e+00
-2.111436604706432366e-02,-1.016800146938583449e+00,1.006428730004858663e+00,-1.077576360132242658e-02,2.581459041724953711e-03,-8.966667319536145153e-03,1.752413988113403320e+00
-8.371611399392342445e-02,-9.818390556192255758e-01,9.620713054142664422e-01,-4.884099491510715194e-03,-4.241531145865877483e-02,-7.481038494215987329e-03,1.686765670776367188e+00
7.841920855113733435e-02,-9.332402406396981265e-01,5.899614233984500355e-01,-6.615932107807059870e-03,-5.882795659584518638e-03,-3.426150122587070385e-02,1.344021439552307129e+00
1.992515173141663418e-02,-9.133741441207026135e-01,9.244686811910493018e-01,6.512931617772587008e-03,1.159570969376457622e-02,-1.386937968845026970e-03,1.591851949691772461e+00
-4.390323756302161318e-02,-9.863729556225315775e-01,9.465158395195795160e-01,8.888847323712664381e-03,2.640100443129005320e-04,6.291249405351833322e-03,1.674208760261535645e+00
-1.428575511150717570e-01,-7.277643685895666126e-01,9.850634620564531208e-01,1.389388366329312452e-01,-3.613479669616104228e-02,5.115891242706341324e-02,1.530925035476684570e+00
-2.457773941275563645e-02,-9.558247697661498288e-01,8.236389270831967480e-01,1.195510553529684217e-02,-8.340527567972475399e-04,-2.835003138002591995e-03,1.541767358779907227e+00
-4.232342108036277195e-02,-9.904470169731552920e-01,9.527907175804763984e-01,3.542266517261388747e-03,5.765727071208104956e-04,1.234451132340557908e-03,1.683070063591003418e+00
-3.445010928641660530e-02,-9.896137297856717474e-01,9.491623904118106081e-01,2.988288823074110572e-03,-3.748714893731797549e-03,1.113874138512107323e-03,1.679111242294311523e+00
-3.508880783752846289e-02,-9.884872060801139781e-01,9.436667565263092694e-01,6.732410451293615629e-03,6.135283025381509017e-04,-3.013597874794279787e-03,1.673391580581665039e+00
-3.074440247409317498e-02,-9.842725823471973889e-01,9.634562897488422317e-01,-4.296238382625083602e-04,-1.492089119920270591e-03,8.774241277494741059e-03,1.686975836753845215e+00
-1.776646422183542073e-02,-9.947766317231390154e-01,9.651833705093896265e-01,-2.902748593812212209e-03,-6.060146413395101767e-03,3.003718765307376339e-03,1.697425603866577148e+00
-2.410882032203981451e-02,-9.469559048262204959e-01,7.994973607520790004e-01,6.958479052136310079e-03,-7.172467146141026442e-03,-2.981652600362775119e-03,1.513394474983215332e+00
-2.488556163530995444e-02,-9.857040495950779579e-01,9.616935073719297122e-01,1.811798356013442565e-03,-1.166768140425040665e-02,3.662947348488203303e-04,1.686669111251831055e+00
-2.446736421220958510e-02,-9.822607623397888732e-01,9.624054095406739950e-01,-4.680266710729109880e-03,6.949472810439865332e-03,6.069047859092500420e-03,1.684288382530212402e+00
-2.267938614148243270e-02,-9.954351858823119459e-01,9.648214226628670787e-01,-1.113124009968543410e-03,-1.222044900338105540e-02,2.739946142384195628e-03,1.697787761688232422e+00
-1.301304636253326243e-02,-9.874101061004540991e-01,9.618285415144066652e-01,3.687938394140632004e-03,1.986322441635554950e-03,2.203879614708949709e-03,1.688110113143920898e+00
9.979738841694545809e-03,-9.874117419175377774e-01,9.557443432869513478e-01,2.754585417148067649e-04,-1.288616264277204007e-02,2.347148413904328202e-03,1.683173418045043945e+00
-3.567164645613830898e-02,-9.822069704516369626e-01,9.449260684900111507e-01,3.609192840388341381e-04,1.127768326445182647e-03,-2.427726829167482780e-03,1.669039607048034668e+00
3.071030913904381626e-02,-9.482737347738375844e-01,9.337726324432034097e-01,1.945028461190071584e-02,1.160227117873719425e-02,8.324160170682673443e-03,1.630877494812011719e+00
-3.302727217504872192e-02,-9.968193473558790707e-01,9.680052150982595416e-01,1.445608168001734622e-03,2.297898431230082500e-03,1.213866815598835507e-03,1.701697707176208496e+00
-3.121052363438771987e-02,-9.698585031295736680e-01,8.829719501337058851e-01,-1.081190470599550056e-02,1.141875002829590910e-02,-2.826159213563726562e-03,1.604883432388305664e+00
-1.598687879440404899e-02,-1.063034080942852011e+00,1.055937602286822319e+00,1.237166213604475873e-01,-6.097018682038340270e-02,3.345828915953670546e-02,1.851516485214233398e+00
-3.056972783227088208e-02,-1.145507275421287607e+00,1.170018489344405221e+00,5.906428392600436561e-02,-1.073160197174115454e-01,1.806042294837486564e-03,2.016954183578491211e+00
-2.590045385142349457e-02,-1.114717750080224112e+00,1.082725095684383465e+00,4.686311904324731020e-02,-5.339244958661885226e-02,4.073064001221248301e-03,1.907053947448730469e+00
-3.956652007529850440e-02,-9.826501383583896576e-01,9.528336553390222008e-01,-8.330937629345940010e-03,3.688806881620587067e-03,-4.072381088205139291e-03,1.676448583602905273e+00
-3.268907535129889075e-02,-9.863768341563599051e-01,9.837577988483479086e-01,-5.140168847463521748e-03,-1.692985228231376829e-02,-1.758877085459729928e-02,1.707022190093994141e+00
-6.729763380287162589e-02,-9.787108127303911775e-01,9.469417285850094679e-01,8.508933739369530977e-05,4.316502473151747656e-03,6.358683075717154291e-03,1.668509483337402344e+00
-3.211692973722382605e-02,-9.975392868967996041e-01,9.644731140957272242e-01,-9.890930601207719927e-04,2.118466006285971582e-03,8.682970447104190401e-04,1.699229478836059570e+00
1.453539446178529412e-02,-9.961191135303839594e-01,9.671807924286265346e-01,1.305322200640747152e-02,7.524927423551369156e-03,6.525182544419813081e-03,1.700752735137939453e+00
-4.868679977949334770e-02,-8.039630600786953352e-01,9.068516049384587330e-01,4.523273751091997502e-02,1.996395677282485417e-02,2.617661206539409827e-02,1.488146781921386719e+00
2.087395903291970889e-01,-1.699577183989446016e+00,9.997250794085557057e-01,2.185705885647384328e-01,5.907407837812298501e-01,-4.037039657369181217e-02,2.640438318252563477e+00
-6.140190150331029800e-02,-9.858031074269676397e-01,9.481348246049425832e-01,-8.674000238003807053e-03,-8.773267566157531188e-04,1.950649894895031388e-04,1.675448298454284668e+00
7.810905269010745902e-03,-1.007975937310323422e+00,1.009150509352327640e+00,5.337035986812762450e-02,-1.602774461884208523e-02,-1.606555927201145512e-02,1.749783277511596680e+00
-4.540430639431790316e-02,-9.897801107607847593e-01,9.520318466928425760e-01,-5.195942331154158184e-03,2.863681511249632772e-03,-3.068328541976140991e-03,1.681907534599304199e+00
-8.109402485802469362e-03,-8.678766484869707698e-01,1.001117609799232477e+00,1.353486319723707643e-01,-2.821171402040215104e-02,-8.845629333605503630e-02,1.645070910453796387e+00
-4.643154985258643452e-02,-9.237440856340786155e-01,9.400344104953758384e-01,-1.039306204880756281e-03,1.482504993691453540e-02,-8.583431724857381456e-03,1.615275502204895020e+00
-3.724311788920934424e-02,-9.288033750409155909e-01,9.373717421809560912e-01,-4.586722492518327445e-04,1.644899894527012546e-02,-1.193074699391921505e-02,1.617071747779846191e+00
1.287653231308444335e-05,-9.321221619166075723e-01,9.490060245957502305e-01,-1.994121052485665901e-02,1.905019977318143584e-02,-1.624008950799681050e-02,1.630069494247436523e+00
-3.503174777658864952e-02,-9.805144708532862463e-01,9.539505244565007480e-01,-1.084491761000268371e-03,8.898159740201324816e-03,-4.671414381255370625e-03,1.675528526306152344e+00
-2.896229252394457582e-02,-9.383080890598285428e-01,9.384669086285200024e-01,-8.924707535509585066e-03,1.682438275752056595e-02,-1.300721485616645676e-02,1.626085042953491211e+00
-2.392533748380445274e-02,-9.873312383837349326e-01,9.597934727350883044e-01,-3.300765184236043297e-03,2.179588251752076489e-02,-1.589894095436430663e-02,1.686946988105773926e+00
-5.758188751155567803e-02,-9.608947525083778585e-01,8.773393216009003348e-01,5.393103147749532880e-03,-3.852473385694436380e-03,-1.608343010354108121e-03,1.592079639434814453e+00
2.539771607270724374e-02,-5.125919219827844708e-01,2.713147551471846164e-01,-5.666157749208406563e-02,-8.245362001961080434e-02,-1.379178989536827549e-01,7.545199394226074219e-01
-2.284307220526744092e-02,-9.740389319579469962e-01,8.802525607347996273e-01,-2.139069183179069956e-03,-2.669189753467687484e-02,-5.062019395185117336e-03,1.606737136840820312e+00
-1.781017095396559419e-02,-9.537338699913654461e-01,8.622052789352502300e-01,-9.584857327152120077e-03,1.165449712423038357e-03,-1.667904516937322723e-02,1.573252081871032715e+00
2.855876766182747009e-02,-8.525373553347911360e-01,7.954880162349250439e-01,-1.412188291121158068e-01,-3.122677470773613795e-01,-1.148358518090933367e-01,1.559542536735534668e+00
-1.801953098700698891e-04,-9.924532473548570710e-01,9.603645269975212839e-01,-1.647767727202950269e-02,1.706478092714394310e-03,4.505088876087704960e-03,1.691525578498840332e+00
-1.885603658025523238e-02,-9.855699242686907224e-01,9.270257700582387184e-01,-5.182181647827376059e-03,-8.403464185434387709e-03,-4.057961684857774864e-02,1.657967925071716309e+00
-3.611444979328910093e-02,-9.914721335479832476e-01,9.220166661166504518e-01,-1.299165225713688060e-02,-4.391938349020482399e-03,-4.488266035822487316e-04,1.657300949096679688e+00
-5.299971923656048023e-03,-8.174980693827257339e-01,9.525928397560589067e-01,1.662536905218930106e-01,2.420554659541301890e-02,1.991446009917169531e-03,1.562022328376770020e+00
-5.933408701338614005e-02,-9.602563737542626487e-01,8.844600236439109642e-01,-1.836786476861883288e-03,2.032661346157911639e-03,2.111896754902758619e-03,1.597726345062255859e+00
-2.868408396146284595e-02,-6.167769299220325907e-01,6.184852660168157490e-01,-2.029993142275044460e-01,-1.559601862902766367e-01,-1.485271439085932288e-01,1.186614871025085449e+00
1.224492548966672756e-02,-9.775849618420953124e-01,7.625332510913893636e-01,3.892388349823381298e-03,-3.066503849757071937e-02,7.051838546712087263e-02,1.517609477043151855e+00
-1.489930975977445948e-01,-6.563790321559686003e-01,8.930686863947732146e-01,-1.217183722385284037e-02,-5.862834030855964412e-03,7.547657445071052906e-02,1.374662995338439941e+00
-6.825035498127515754e-02,-9.693934183649821623e-01,9.247897644007828655e-01,4.129550140635707134e-03,-1.581856093367146193e-02,3.703878378161324595e-03,1.641310930252075195e+00
-5.053965422814059305e-02,-1.029884454333367838e+00,1.036915810863595411e+00,-6.262817186202074976e-03,4.951540955246228407e-03,-1.878437378517668326e-03,1.790773987770080566e+00
-3.620605446973317043e-02,-9.818239838601430236e-01,9.484586023789353115e-01,4.985376593423929484e-03,-8.212946232229983989e-03,1.583973844304391396e-03,1.671872854232788086e+00
-6.016227609868354115e-02,-9.076414463156865509e-01,9.358900511147841828e-01,-1.151191965718894586e-03,-1.327967394788596772e-04,1.193584761242974523e-02,1.598407387733459473e+00
-8.489220527843070740e-02,-7.725416687505566316e-01,9.148759876176881800e-01,1.472881176937070350e-03,-1.671650661551399991e-02,-6.312421764148844379e-03,1.469983935356140137e+00
-4.117690378606687907e-02,-9.680359619897683787e-01,9.382153456526951540e-01,2.901928294446079731e-03,-3.905571405744438090e-03,4.280879128033149452e-05,1.651092529296875000e+00
-4.329627299541569108e-02,-9.649417362136809562e-01,9.441973769812623818e-01,7.548231998861904511e-04,-8.869126122681991048e-03,4.202956778677916297e-03,1.653778672218322754e+00
-3.221087695405881052e-02,-9.996794501114646403e-01,9.671672056920195271e-01,-1.889044083964171270e-04,1.885377353531862623e-04,9.465349060124101299e-04,1.703414797782897949e+00
-3.588385824479197600e-02,-9.996539647327545852e-01,9.680119795159517482e-01,-9.267640088723881273e-04,-2.311304531068874776e-03,1.530065903725241067e-04,1.704172253608703613e+00
-6.700186859410034446e-02,-9.764544036344804390e-01,9.405061435307130457e-01,-7.647651177105050128e-04,1.101550161981665029e-03,4.130021765079123532e-03,1.660877346992492676e+00
-3.502731116523594146e-02,-9.812039711885957027e-01,9.204906628862027373e-01,6.322885714043312635e-03,-1.070434140798201018e-02,3.818569270366825672e-03,1.647076487541198730e+00
-3.609804645317674782e-02,-9.897308656319301345e-01,9.582005883164906868e-01,2.314875924493998809e-03,-1.672042301214350874e-03,5.701195576131966184e-04,1.687088251113891602e+00
-3.714060818846526280e-02,-9.894429459168890828e-01,9.625639350374675107e-01,4.449602394321057995e-03,-4.076607247980784665e-03,-2.466927007645081018e-03,1.690691351890563965e+00
-3.640485995072759856e-02,-9.815306424944202357e-01,9.530647499743601925e-01,2.582810976711821284e-03,-8.516406158231785983e-03,1.616870179910750429e-03,1.675628662109375000e+00
-3.308895462461017983e-02,-9.840423599201841842e-01,9.649485153572635587e-01,4.020166173003073169e-03,-1.322314933946756692e-02,-1.277907396503575200e-03,1.688210964202880859e+00
2.934697757334388604e-02,-9.591034619113845139e-01,9.373042552286712237e-01,-5.265362893538587732e-03,5.534077207808105886e-03,-3.856169303012518075e-04,1.642883777618408203e+00
-2.816542736086488294e-02,-9.986638386718039717e-01,9.680835542800305671e-01,2.420667468534447395e-03,-5.530058890874295146e-04,2.484633647000797428e-04,1.703307390213012695e+00
-3.711894390840043967e-02,-9.919448178936345339e-01,9.608222441023546168e-01,4.765129605235620194e-03,2.205954538425396703e-03,3.089036756404510073e-03,1.691316246986389160e+00
-3.233530520578895701e-02,-9.978892719240634035e-01,9.689503499447786883e-01,2.793898925765742882e-04,-9.189914341047334132e-08,-1.484272773563240395e-03,1.703428745269775391e+00
-3.562720857350550052e-02,-9.904212954610311925e-01,9.526655577084370830e-01,8.502946709830353292e-03,6.532820045630459427e-03,-1.157532804190709646e-03,1.682949662208557129e+00
-2.099758373233940462e-02,-9.798279343687625875e-01,9.585723928405911476e-01,-3.997222789075536610e-03,-4.178712402280512946e-03,-8.573478825226387920e-04,1.678766489028930664e+00
-6.235416976140631395e-02,-9.846683228663171139e-01,9.426843803613454975e-01,-1.552404332011114892e-02,-2.618648596472201301e-02,-2.588222100363206379e-02,1.671082615852355957e+00
-3.564366727266801704e-02,-9.950970823144187349e-01,9.644005488191167430e-01,5.442158292375947129e-03,6.533762396039386432e-03,-6.990143874991260747e-03,1.697203159332275391e+00
-3.529527870964452307e-02,-9.924008430022389637e-01,9.801965017754821208e-01,6.726240334304250598e-03,-1.706442590086025037e-03,-1.142785037013408292e-02,1.708725810050964355e+00
-2.633741161651905610e-02,-9.917235047926791225e-01,9.662643988120341865e-01,4.753958371435057593e-04,4.341686516756058608e-04,-2.663849833996015295e-03,1.695728540420532227e+00
-1.232955112720521690e-01,-4.668828685122841660e-01,8.334985086406568877e-01,-5.910898972750570912e-02,-3.184909262228096966e-03,-1.617116832537816157e-02,1.171983718872070312e+00
2.581579759129706830e-02,-8.846499353614865058e-01,9.270860138147294371e-01,-7.886260555940423356e-02,2.304508186236337692e-04,2.596881711923214493e-03,1.574957132339477539e+00
-7.295223551240534454e-02,-9.716962949061065391e-01,9.337045570635541525e-01,-3.227718694207566512e-03,-2.812197037500123887e-03,-3.843625609637032949e-03,1.651037573814392090e+00
-4.610906311130597013e-02,-9.927699362502679925e-01,9.575825168996521253e-01,-4.830776075963382453e-03,3.093032930787760135e-03,9.523886643139583110e-04,1.689325451850891113e+00
-3.550240708877154538e-02,-9.930824423288445724e-01,9.543768045368382635e-01,5.639152581856327149e-04,-2.491560102199188217e-03,1.121283043021220529e-03,1.686633467674255371e+00
-3.745755257491967943e-02,-9.978287296464862788e-01,9.671969197536273155e-01,-1.707993019751465752e-03,1.730038867728455644e-03,4.854331648959376829e-04,1.701911568641662598e+00
-1.821919901402921926e-01,-3.520643654511568243e-01,8.361353081853034608e-01,-1.513167425088746687e-01,7.969742716010527056e-03,-3.031605437539264952e-02,1.144757986068725586e+00
3.508665538026276703e-02,-9.488510362278463894e-01,9.310923114341533857e-01,3.174519490827182929e-03,5.873192894085895767e-03,-5.515566915646520640e-05,1.628713250160217285e+00
-3.652111880021719631e-02,-9.937701704880300690e-01,9.628544076005918217e-01,1.082693538256669294e-03,5.728294256885958780e-03,-2.505088221533044446e-03,1.694653153419494629e+00
-1.552592711638182965e-01,-4.497647023789015375e-01,8.453480722748365483e-01,-9.733310260217263588e-02,8.896205881249792669e-03,-3.280265412600510272e-02,1.189335703849792480e+00
-7.964111053948187691e-02,-9.675397589783611974e-01,9.240915430461189572e-01,-3.247450244861969926e-03,-2.110914121024030400e-03,-5.492777858209103295e-04,1.639238238334655762e+00
-2.035109037684290356e-01,-1.057685717224316757e-01,8.629216231535455917e-01,-1.253371353434243052e-01,2.077259185282579260e-02,-1.001697144623569027e-02,1.044662594795227051e+00
-1.758328609062554948e-01,-1.968891766744466088e-01,8.903573049658959349e-01,-2.243898493963429885e-01,-2.784287411559372392e-03,7.903523852546974482e-02,1.153026580810546875e+00
-7.573746601213023066e-02,-9.737237562522129686e-01,9.385781809484383675e-01,-7.064617122905184760e-03,-2.984508375367295272e-03,1.864753796824819804e-04,1.657176375389099121e+00
-1.593881966271125106e-01,-3.916411096038568407e-01,9.145311181156176028e-01,-3.114626305336750112e-01,-1.024314920576684107e-01,4.678084882453395488e-02,1.336313486099243164e+00
-2.004983911546243114e-02,-1.027081424432314094e+00,1.122365147509224448e+00,1.246154922953845862e-01,3.563665860085036760e-03,-5.942869113714194240e-02,1.878002405166625977e+00
-7.075135565823542638e-02,-9.755777187104593962e-01,9.449366415022352195e-01,7.041493532656505072e-04,-8.055602145853352214e-03,-1.448036569956027454e-03,1.664198517799377441e+00
-7.337328292313989586e-02,-9.651864202008351157e-01,9.211946922114619962e-01,1.123520154506967364e-03,-2.296896751982606486e-03,-5.981219646136529122e-04,1.634467959403991699e+00
2.591033421448406537e-01,-1.003685074788594811e+00,7.343034335115114497e-02,1.889034937802176392e-02,2.193139626751548499e-01,-2.936690645272595560e-02,1.242013216018676758e+00
-8.717878348027077728e-02,-8.303799117399958130e-01,1.116823643340196348e+00,2.294912582931621925e-01,8.780397158031262583e-02,8.434084331927080291e-02,1.760469555854797363e+00
-1.727500162158665531e-01,-1.296853387782307410e+00,1.725572147970736436e+00,1.737994336680064311e-01,1.711429087126609683e-01,-2.109304848388963982e-02,2.679733037948608398e+00
-2.720988264588165145e-02,-9.882622062841257549e-01,9.625174583304864084e-01,5.076440495440318751e-04,-1.829176093558325432e-03,-7.278898165250256846e-03,1.689535856246948242e+00
-1.354402836228972284e-01,-8.556167542690729100e-01,1.149576925554433249e+00,4.202036555581573074e-01,1.920063699192794682e-01,4.419880891329412004e-02,1.934304952621459961e+00
5.453872197507095981e-03,-1.075199974982761875e+00,1.155820341758157399e+00,1.670797544301291793e-01,3.608675021526988602e-02,-3.906020343171614367e-02,1.956153035163879395e+00
-6.162417141312871022e-04,-9.829152649528065666e-01,9.567449479851665162e-01,-4.152613743689394232e-03,7.617403794487455013e-03,-1.819910736545415041e-03,1.679911494255065918e+00
-7.891941142020421351e-02,-9.629404788643013413e-01,9.173646373539872112e-01,1.533140869662426276e-04,2.885432198592826811e-04,-9.895916190013346247e-05,1.629359245300292969e+00
-6.738821127305499870e-02,-9.804375171637930153e-01,9.588615429175818550e-01,-4.322561702146426226e-04,-7.994685965161884081e-03,3.408593081207315738e-03,1.680503368377685547e+00
-1.576182978568876902e-02,-9.871702045165678951e-01,9.623771810469839982e-01,1.404423380316697969e-03,6.378911739130609278e-03,3.799234872994473444e-03,1.688411593437194824e+00
-6.395041024829382220e-03,-9.857208359943236964e-01,9.586502445069561285e-01,4.788626294534890221e-03,-2.580880001071087469e-03,1.830760785462465104e-03,1.683919191360473633e+00
-4.902823495069714987e-02,-9.868395046569076179e-01,9.520317959239428252e-01,-1.236445898827976753e-03,4.535186129467166233e-03,4.179194830146505148e-03,1.679444909095764160e+00
9.501166846223577447e-03,-9.777874468911466055e-01,9.513818996970746511e-01,-2.373012148009359407e-03,1.035441576549507581e-02,-2.041674731586378116e-03,1.670969009399414062e+00
-2.673766806511169644e-03,-9.833467635247149508e-01,9.561172705191315346e-01,-6.263906799080065646e-03,1.527558981165090882e-02,-5.294352742891945225e-04,1.679904460906982422e+00
-5.151385940002597280e-02,-9.881930050509609709e-01,9.548506129880455218e-01,-7.179474218602325403e-03,4.641586494314550726e-03,7.957958719293882488e-03,1.683207392692565918e+00
-4.905807572012648582e-02,-9.699015974242749527e-01,8.983522711481968237e-01,1.381210009702589156e-02,1.845757456040187120e-03,-9.104791119867353772e-04,1.618190646171569824e+00
-6.045310415719406388e-02,-9.880336520749193330e-01,9.565078403041449295e-01,-7.332551503450606377e-03,-1.009135259913014485e-03,8.008283589653986817e-03,1.684721112251281738e+00
-2.184565649339068744e-02,-9.910213486400990535e-01,9.624966403023899053e-01,1.052803445054006015e-04,-6.850992046047109894e-03,-2.373979507040740360e-04,1.691854834556579590e+00
-3.217537571802907281e-02,-9.959504879796936549e-01,9.646795341244769340e-01,-3.343194342456423424e-04,-8.241707415968930984e-04,8.715584644866645504e-04,1.698037385940551758e+00
-5.027926524251414425e-02,-9.915038941619532809e-01,9.628253852968368109e-01,-2.159427477371933003e-03,3.646765726198030258e-03,2.440794900335379637e-03,1.692901492118835449e+00
-4.911489833646877357e-02,-9.830656763717631197e-01,9.505558611654533196e-01,-5.410664840228849096e-03,2.461571957203406453e-04,6.096922440519309677e-03,1.674947261810302734e+00
-1.948017155496671246e-02,-9.912316564340283298e-01,9.602041670783505456e-01,2.636626483997561200e-03,-1.067625169275918454e-02,2.726856134549715278e-03,1.690111637115478516e+00
2.756478547273718063e-02,-9.531931938448380270e-01,9.353697496218229546e-01,6.162587658903282382e-03,6.013724259597044187e-03,2.127999831884992525e-03,1.636022329330444336e+00
3.152625662451630228e-02,-9.249019237055500220e-01,9.214226124318029010e-01,2.224098510879418678e-02,6.017970735217196242e-03,-4.736460629553431801e-04,1.599807977676391602e+00
2.761767167614847737e-02,-9.635430402024631746e-01,9.392537024039699922e-01,3.245517782139804592e-03,6.751006033019457328e-03,3.553640898025679697e-03,1.648412466049194336e+00
3.444878624390083216e-02,-9.579020538554192665e-01,9.397188243026729504e-01,1.910538531680414445e-02,-5.062275627297550904e-05,-4.385950513350638479e-03,1.644315123558044434e+00
-4.055771324080781337e-02,-9.943210120303451749e-01,9.664303172014556687e-01,4.127814149645108095e-04,-5.581204502808098742e-04,-4.675409499134862076e-03,1.698288679122924805e+00
-5.974014962428580294e-02,-9.818569913421166806e-01,9.446637168000110441e-01,-6.204480934641273294e-03,-2.579827975520082931e-03,-3.368318607378285607e-03,1.668973922729492188e+00
-3.172619930796640592e-02,-9.915216991983920591e-01,9.666083710875792434e-01,-2.289703228844568866e-03,7.826365753257975150e-03,-2.386375159963848632e-03,1.695963740348815918e+00
2.043238700020337806e-01,-1.099635738921792338e+00,3.449304350981132750e-01,9.113007246600315914e-02,-2.621568676249516616e-01,-4.987198948606563764e-02,1.463550686836242676e+00
2.161277970179218966e-01,-1.119664849501182946e+00,3.173844266287234039e-01,6.949099772473749104e-02,-3.379358852395975554e-01,-8.042418790631694625e-02,1.518665790557861328e+00
-4.447439300361162584e-02,-9.632521600741893453e-01,8.810104450139119026e-01,-5.666180222288144316e-03,-7.905134734465869492e-03,7.079259335643604562e-04,1.597271084785461426e+00
1.169284276831402958e-01,-9.477080372413063669e-01,4.225447222712644946e-01,-1.590381690945324913e-03,-1.106827300793824104e-01,-4.236003856002279466e-02,1.262681722640991211e+00
-4.287990380904165011e-02,-9.874618247350447353e-01,9.514330652704784397e-01,1.645137741311897793e-03,-4.916346320650685081e-03,-3.081079669041365300e-03,1.679348826408386230e+00
1.191854057645498066e-01,-9.069630327294897487e-01,4.482637471556433773e-01,-1.010231170626078867e-02,-2.394116875333496958e-02,-4.496124605085893844e-02,1.227618336677551270e+00
3.628505556012324301e-02,-9.829381476530589801e-01,9.517474732452867459e-01,4.080260584560234383e-02,7.078841096332392363e-03,2.609927170413630423e-03,1.677829861640930176e+00
-8.589055328653803778e-02,-9.777171284288946884e-01,9.531917268720536685e-01,1.673705632810418807e-03,-1.372910244052759701e-02,-3.375141333673715299e-03,1.674017906188964844e+00
-6.012409763886318592e-02,-9.750254483934602812e-01,9.341560260390330273e-01,4.854645830536428682e-04,-2.976712168713566403e-03,1.865073402200053071e-04,1.653884291648864746e+00
1.744443747359865071e-01,-1.031355154464296486e+00,4.445955415765063812e-01,-1.405885802571696548e-02,1.546931812870752099e-01,5.914430348801894000e-02,1.391243815422058105e+00
-8.375357715107459300e-02,-9.717808647517284237e-01,9.506010369877463395e-01,-2.692581358790158055e-04,-1.267344134572490413e-02,-1.018396770505895007e-04,1.666583061218261719e+00
-4.158135379607993953e-02,-9.910037540986781357e-01,9.641899653460113129e-01,5.131070878149913625e-03,-3.574952393303768190e-03,5.199076938404035425e-03,1.693540453910827637e+00
2.676035556837434021e-02,-9.504784861982086275e-01,9.335944293649883763e-01,-1.637935114095651361e-04,-4.556071012449468619e-03,6.997187763628688476e-04,1.632054209709167480e+00
-4.810002909889318085e-02,-9.543677126681167078e-01,9.580493831450016540e-01,5.151641384395123577e-03,-4.214016785938354444e-03,-7.013572892960426124e-03,1.657039165496826172e+00
-5.653800003922301864e-02,-9.973720897950296704e-01,9.771913996841009586e-01,3.798503618963869257e-03,-1.256391383391171693e-02,-4.994160530616352164e-03,1.710825800895690918e+00
-9.786887373184127020e-03,-1.030649547807576338e+00,1.020725006669320534e+00,-4.529650591261696196e-02,-2.849624098827926305e-02,-7.739684603551111146e-04,1.778965950012207031e+00
-6.428195582591410273e-02,-9.743170896926111046e-01,9.319884325320553220e-01,8.027397898407899262e-05,2.032134778270635548e-03,6.233343341252644762e-04,1.651476144790649414e+00
-1.388504744837927851e-01,-2.042806000578183123e-01,6.565847237449228269e-01,9.891497050773455368e-02,-1.346428386761037987e-02,1.138222347230652687e-01,8.705208301544189453e-01
-5.652692902076236758e-02,-9.892548652582816571e-01,9.712236599083525768e-01,3.894587933791654813e-03,-1.247863659800949564e-02,-6.773807244374592355e-03,1.698680281639099121e+00
-6.424350277214611882e-02,-9.698913106459948752e-01,9.174935433874800150e-01,-5.829123692556946110e-03,-2.083603277868694564e-02,8.305715666473202120e-04,1.635396003723144531e+00
-3.597230663549236263e-02,-1.007923124294007433e+00,9.953831517321751754e-01,-1.488952937652759378e-01,-1.834226028347526460e-01,2.322936292866595309e-02,1.783218741416931152e+00
-1.352080283647016934e-01,-1.423066301369619202e+00,1.406369042670521541e+00,-5.317020304962318811e-01,-3.241897097121460274e-03,8.599241827786449632e-02,2.625015974044799805e+00
-7.266753662309967388e-02,-9.666871772180640754e-01,9.124878776889466803e-01,7.361520449746146444e-03,-1.755716746898100186e-02,6.933480174486459681e-03,1.628429293632507324e+00
-5.185928925870939704e-02,-1.074523257160004963e+00,1.114950228097780327e+00,-3.207036989201653837e-02,-4.144277905896771169e-02,1.046750036337324753e-02,1.899764895439147949e+00
-5.436446716365971737e-02,-1.741211614296449550e+00,1.643703797160666946e+00,2.444065356644303799e-01,-4.427108987040133115e-01,1.778345114500261281e-02,3.059640884399414062e+00
-1.776829587754209100e-02,-1.268288081196916162e+00,1.240324772743122805e+00,-9.034378612842493272e-02,9.592405215213068099e-04,-1.724463578560541136e-03,2.178156614303588867e+00
-7.621499325962151350e-02,-9.604951386348710152e-01,8.991664444050347926e-01,-7.836100781466123506e-04,-2.066604766492231501e-02,9.679585949480585833e-04,1.611557245254516602e+00
-1.395687423124179483e-01,-1.297917848292801768e+00,1.468337624781234307e+00,-4.348184029107160509e-01,-1.731537262831020774e-01,-1.423783401347425703e-01,2.551002740859985352e+00
-5.292348223464697632e-02,-1.200165509079771820e+00,1.189633054691963565e+00,-5.841543705419479163e-03,-4.530080583544938283e-02,4.276227741064612259e-02,2.073009490966796875e+00
-4.350812239623302186e-02,-9.854886637942876781e-01,9.448552004483606881e-01,7.634036281730968709e-03,2.508933695234081759e-03,-8.261891341231873426e-04,1.671946167945861816e+00
-6.461617219458919148e-02,-1.014695235589389677e+00,1.028521938194330243e+00,5.679813013423264806e-04,-8.986729013573198713e-03,2.878743735614336819e-03,1.770998835563659668e+00
-6.503635887137419747e-02,-9.816325198307092048e-01,9.485689056783954687e-01,3.254793122705172703e-04,-1.119896632770703802e-02,1.092120782215084962e-02,1.672526597976684570e+00
-7.171956802578909052e-02,-9.692022425977281364e-01,9.218574157015256842e-01,-3.282762947889593906e-03,-7.835027158421456125e-03,-4.449233606824940478e-03,1.638494491577148438e+00
-6.548494566586322840e-02,-8.477606258168358666e-01,9.065458101757392084e-01,-1.059599929224585560e-03,7.696192105466573112e-03,2.260552011660883417e-02,1.522796511650085449e+00
-1.955034461634463580e-02,-9.746821295470468050e-01,9.020981408977531979e-01,7.192007080416631948e-03,-1.468991078714579866e-02,1.327955928614295462e-02,1.625835180282592773e+00
-3.362041360895871855e-02,-9.794556093168076405e-01,9.349311657634830075e-01,-4.654483901100282123e-03,7.334883356801930824e-04,-6.166556886375847840e-03,1.658000946044921875e+00
-7.238993577925931233e-02,-9.688759774600430585e-01,9.237240048038105611e-01,4.472522389365035482e-03,-4.308930303593397262e-04,4.312676845039271727e-03,1.639831900596618652e+00
-2.869764050966588584e-02,-9.837808385337909467e-01,9.567479712753506060e-01,-5.332914789783205212e-03,-3.171073046530810402e-03,2.690922258852575764e-03,1.680656671524047852e+00
-3.738762775942995609e-02,-9.807852089231219317e-01,9.511664060086711947e-01,-1.000216215630668655e-03,3.718159589482329663e-03,-3.079410890787714732e-03,1.673293352127075195e+00
3.982291671063856175e-03,-9.491439851287821750e-01,7.005161615480748338e-01,6.001837083318627489e-03,-8.241542972995942462e-02,1.531912057813139202e-02,1.441763758659362793e+00
-5.090065093740474972e-02,-9.846082017831353506e-01,9.422246683230608433e-01,-1.707687998047331462e-04,-3.378459318236538139e-03,6.634720280297065273e-03,1.669000506401062012e+00
9.475425968089304374e-02,-9.321981643347385660e-01,5.373759786685243789e-01,-7.681101612014979135e-04,9.288402105747464721e-02,3.595362812959480153e-02,1.317140340805053711e+00
-4.077289513653954700e-02,-9.633120729395725501e-01,9.166874067948936888e-01,-5.119646168306702175e-03,-1.998540456444553633e-03,-1.235013877727145389e-02,1.628389239311218262e+00
-4.473824316845524673e-02,-9.893897572792931250e-01,9.535389014049808765e-01,3.665038401746353869e-03,-9.778801063132964728e-04,3.654607730649295661e-03,1.682863950729370117e+00
-4.556146686622992298e-02,-9.889092935729656419e-01,9.553370120748049255e-01,-5.650584979746658531e-04,-7.582551434589009619e-03,9.279474687994920812e-03,1.684140801429748535e+00
-3.582615123490269504e-02,-9.964896184348307484e-01,9.660345860189621936e-01,1.817423233900947741e-03,-3.749058933530830537e-04,4.605097267686519922e-04,1.699723839759826660e+00
-3.348015373444609422e-01,-8.856598422089878575e-01,1.674122043746263166e+00,-5.316136771681121420e-01,-1.347225741325099591e-01,-1.200347733743767353e-01,2.528115034103393555e+00
-3.651883497968724801e-02,-9.836414172895567853e-01,9.413580564712487053e-01,-4.982957687794498103e-03,7.188973594404887701e-03,7.554541123081535102e-03,1.667289495468139648e+00
-4.325349935152948688e-02,-9.747791274004561357e-01,9.370035297181480427e-01,-2.560698490489224030e-03,-6.162039959657389810e-04,4.191207999006009606e-03,1.655853867530822754e+00
-3.128866430549333277e-02,-9.857144128355189716e-01,9.624595062259941880e-01,6.161957052513302759e-03,1.437351953744422060e-02,2.715896643004585970e-03,1.687506675720214844e+00
3.131788395267179337e-02,-9.885096473497170244e-01,9.702902182691723887e-01,-4.191146906398424132e-02,4.223135014344065255e-03,-5.656585161376733589e-03,1.698448181152343750e+00
-2.310822665907470014e-02,-9.842029307000856875e-01,9.624289533364885907e-01,-2.279784983593809351e-04,5.808345383186128141e-03,-5.286045370049082155e-04,1.685907244682312012e+00
-3.651246267816517926e-02,-9.939926386520632207e-01,9.540910697017656039e-01,-6.727800470775481892e-03,4.732931211375483206e-03,-4.276407152259912442e-03,1.687247633934020996e+00
-9.879489501160408291e-03,-9.929449332355820834e-01,9.599502569648143968e-01,4.149488304707271355e-03,9.374392708804222402e-03,3.018775428243553917e-03,1.691371083259582520e+00
-2.529488660911640915e-02,-9.931386297593631785e-01,9.570398224308591661e-01,-8.484998510485800872e-04,3.044272747743451135e-04,-4.193017674339013828e-04,1.688920497894287109e+00
-2.660239209064430010e-02,-9.792617588410573726e-01,9.606555035064117121e-01,1.579201993591699930e-03,1.155861376611630117e-02,4.600493453240262799e-03,1.680247068405151367e+00
-3.953051491580645421e-02,-9.617500775718310635e-01,9.477106398070093141e-01,-4.382037795819542295e-03,3.216068455252455403e-03,-8.783656183425686461e-04,1.653988480567932129e+00
-3.150750102621159565e-02,-9.617753073346032577e-01,9.223039540729961461e-01,3.855651975575827457e-03,-2.703170983050308656e-03,3.279236059296254148e-03,1.631733179092407227e+00
8.844591019418590605e-03,-9.623852007159662270e-01,8.098316275805353959e-01,-1.452751814449781617e-02,-1.155411057589646878e-02,2.075280530417724506e-02,1.537899732589721680e+00
-1.809582365342673332e-02,-9.536847631161191607e-01,9.424585346431737509e-01,2.663790030184108246e-02,-2.995991942870714596e-03,-4.320422056997400700e-03,1.642828941345214844e+00
-1.668791815820524355e-02,-9.405356528233956848e-01,7.596091695980693448e-01,-6.439003756050589757e-03,-1.278292879877126163e-02,-2.074986457643368965e-03,1.474428534507751465e+00
-1.343042422328656268e-02,-9.987858628575957409e-01,9.753199288934539801e-01,1.349364005129431200e-02,-1.188526336052237245e-02,-1.004543607387349720e-03,1.709911108016967773e+00
-3.837611720039160734e-02,-9.958291427531515971e-01,9.613721131082958449e-01,-6.249569551766681781e-03,4.803501822137506462e-03,-1.414376589566847340e-03,1.695174694061279297e+00
-5.844348094514493358e-02,-1.020167788682521115e+00,9.129833193654537382e-01,-3.645867904182038387e-03,-8.119081343661958827e-02,-8.666424863100702716e-04,1.680073380470275879e+00
-3.466705139667444757e-02,-9.784816708456933743e-01,9.076197858613552771e-01,-9.767778354068872709e-03,-8.485271111880750283e-03,4.883099822486246765e-03,1.633587598800659180e+00
-3.281969513887496998e-02,-9.955450119509072771e-01,9.701273041814741926e-01,4.344273008560601071e-03,-6.856320474299482451e-03,-4.510823633581302616e-03,1.702516913414001465e+00
-6.460289649728626071e-02,-9.642953657938941880e-01,9.048703339121529909e-01,-8.307066306195311613e-04,-9.703202303778685547e-03,1.171779700255514778e-03,1.619210124015808105e+00
-6.367504286157327220e-02,-9.858124561137472375e-01,9.573671593800526791e-01,1.690182456123809438e-03,-1.139229240459423663e-02,-6.471479438166888656e-03,1.683724880218505859e+00
-2.485462516699465663e-01,-5.587349205217060355e-01,1.434238589816468012e+00,2.985932963950886365e-01,4.953810290367753610e-02,-1.786479660677095516e-02,1.930221796035766602e+00
-3.739797791193396476e-02,-9.726959060035464955e-01,9.449659044210365622e-01,1.583049947546484853e-03,-2.621218551616801094e-03,-3.547227949537498561e-03,1.660930395126342773e+00
-5.471437200013416768e-02,-9.867380257298602464e-01,9.549181521348572010e-01,-8.354969291056061481e-03,-9.532257548873313696e-03,-1.013353116173911460e-02,1.682206153869628906e+00
-3.345726703531691493e-02,-9.865664817945746234e-01,9.294375709058840807e-01,-8.306765938609454725e-03,-3.546025957041045655e-04,-5.927914243825664793e-03,1.659409642219543457e+00
1.073603899696372321e-02,-9.462405131851708839e-01,9.388208150880223979e-01,6.920377020990296432e-03,9.714562252430407677e-03,-2.623984079035040877e-03,1.632711887359619141e+00
-2.432683917871738752e-02,-1.056631425529266810e+00,9.730636907730593199e-01,8.964402846476428321e-02,-9.383548316828002611e-02,5.097690341220356691e-02,1.774364948272705078e+00
-3.591200091625845747e-02,-9.706358673941754001e-01,9.341543480218111872e-01,1.856408512435808993e-03,6.251330263730188984e-03,-9.414091548332578427e-03,1.649810552597045898e+00
2.386450884832762298e-02,-9.762037399242615709e-01,9.554456715506303155e-01,6.287987700084035972e-03,-4.031383498166506672e-03,-1.607212903220944658e-03,1.673260211944580078e+00
-9.960025457799581705e-02,-7.211356857426847178e-01,8.965762487988810925e-01,-5.084502087650690644e-02,-1.590529819580080266e-03,9.370407044317385914e-02,1.425460457801818848e+00
-3.970507174716989690e-02,-9.878459307055811323e-01,9.594916094445710142e-01,-6.883844458031083621e-03,-6.084232464553739408e-03,-6.911863976233511425e-03,1.686754584312438965e+00
-8.412363379036164046e-02,-9.781094171993950370e-01,9.522840087303450218e-01,2.865023036491506393e-04,1.315050508394453518e-02,3.779010191836421496e-03,1.673453569412231445e+00
-6.569187737489608214e-02,-9.588735515630915085e-01,8.860460578038197310e-01,1.041752023879937046e-04,2.852300589176036839e-04,1.950407835329425236e-04,1.598015546798706055e+00
2.802936939260940868e-02,-9.272446391784682218e-01,9.324569285794617191e-01,4.376311709645930997e-02,9.712845663610946909e-03,5.914896402296837552e-03,1.612652301788330078e+00
5.465920450640744319e-03,-8.529507753581538898e-01,9.069152065974256383e-01,3.299415224694534493e-02,8.644847928689325736e-03,4.944768467132616870e-03,1.525408983230590820e+00
2.599446701894864500e-02,-1.000390407026452655e+00,9.743895904435587729e-01,3.025247172036359816e-02,4.438278743550008384e-03,-1.642726040358785059e-03,1.711476087570190430e+00
-4.465810324550558569e-02,-9.904233534585817900e-01,9.620580771904473361e-01,1.594430725919361927e-03,-5.764443260066183169e-03,-7.882656998996201772e-03,1.691259980201721191e+00
1.344245522834625062e-02,-9.079376834722782119e-01,9.255595712907274120e-01,4.444646875975957756e-02,4.548685753182598983e-03,3.698335295197359256e-03,1.589759469032287598e+00
-7.486358342930038434e-02,-1.030853166559142275e+00,1.002789454738546970e+00,4.303941530006545960e-03,6.129732185814418949e-02,1.930751648655348049e-03,1.765450716018676758e+00
-6.923584448417617609e-02,-1.168007121507452561e+00,1.149733630932136208e+00,-9.373814553987391829e-03,1.080513878870678623e-01,-6.745929792783874474e-03,2.016923189163208008e+00
4.915638189207760522e-02,-9.408796019654187548e-01,6.779191369482029383e-01,-1.087648839064780937e-02,2.999410507130133110e-05,1.260185962656493533e-02,1.413804411888122559e+00
1.732894203788927848e-02,-9.932473867173507998e-01,9.773115752284902147e-01,-5.647188794372323684e-02,-1.121173138722208465e-03,-1.036875521320022343e-03,1.709544181823730469e+00
-7.468893792874706228e-02,-9.859863274664493193e-01,9.607079868332654149e-01,7.447779893389417857e-03,-5.748511759756261795e-03,1.207161430237047375e-02,1.687236428260803223e+00
2.497069961263030657e-02,-9.791874178201664947e-01,9.697832513367123930e-01,7.199018097927850461e-03,5.453964296781822589e-03,9.450659134971751800e-04,1.688192248344421387e+00
2.444271756623184882e-02,-9.282906393211333151e-01,9.295946956016671869e-01,1.329803349895827304e-02,2.283060677193287941e-03,1.415929338646187930e-03,1.609323382377624512e+00
-3.122927086519896103e-02,-9.916208707056023419e-01,9.613757830226378198e-01,-5.493174795013273937e-03,-3.461030819906180632e-03,7.493805234211167038e-03,1.691508531570434570e+00
-5.285748407808062849e-02,-1.199508513092243822e+00,1.115480056500923078e+00,5.898827062470534538e-02,1.675179095384971839e-01,7.748139529147497762e-03,2.028374195098876953e+00
-2.868115475867521677e-02,-9.914272046110419456e-01,9.628186150199018467e-01,3.957581351988950086e-03,6.284042486072185206e-03,3.948594558888012841e-03,1.692550301551818848e+00
-4.757421397780024069e-02,-9.898807968706612170e-01,9.656229066203820821e-01,-8.261448802187095625e-04,-4.628687275025948449e-03,3.294605280806365069e-03,1.693915963172912598e+00
-5.458872610354795901e-02,-9.824198895970934764e-01,9.336753494320014779e-01,7.463475971928661482e-03,1.397765591095243530e-03,-2.604608177527743384e-03,1.659720540046691895e+00
-5.269676834901392687e-02,-9.787900021328226341e-01,9.221088702228464884e-01,1.145087980436280614e-02,-9.070850385649954556e-04,8.290071923016853472e-03,1.646589756011962891e+00
-2.447823169481312330e-02,-9.923258016499277856e-01,9.656863641243692564e-01,-7.132415366557311870e-03,-7.165028612231593916e-03,5.139191608772582243e-03,1.695838809013366699e+00
-2.554768286877846101e-02,-9.764367133915364816e-01,8.983854492345579867e-01,7.323236548229842928e-03,-1.603191584540505227e-02,2.303725376276772457e-02,1.624476671218872070e+00
-9.051303428450503674e-02,-1.017893265945818193e+00,1.010349131855877713e+00,-1.295964645792854926e-02,5.628994378856257141e-02,4.474101337334206868e-03,1.761510372161865234e+00
-3.155137876086208659e-02,-9.960238544795591009e-01,9.627816266023649927e-01,4.160219043937464500e-04,2.733700871893407665e-03,-5.156922351680445380e-04,1.696447968482971191e+00
-3.292832207180851345e-02,-9.974790789530039170e-01,9.742495678006408699e-01,-5.920570748265845985e-03,-1.032825887275057048e-03,4.355264484201428268e-03,1.707748532295227051e+00
-6.332965960186601184e-02,-9.944787238858574518e-01,9.638298730641559064e-01,-1.503320897778497207e-02,3.282057680973250735e-02,2.432738995371961851e-02,1.698298811912536621e+00
-3.991392537116120187e-02,-9.852256293410147636e-01,9.479504489332980510e-01,-2.788265449631992070e-03,-2.218744597559521321e-03,4.160770868393270754e-03,1.674341678619384766e+00
7.956659961877927609e-03,-9.796898473930719664e-01,9.516460676649107775e-01,5.210862170408774030e-03,-1.421225617022396203e-03,2.400966627729779652e-03,1.672761678695678711e+00
-1.536032636300068387e-02,-9.800836176510839826e-01,9.593917508187097543e-01,2.397595456718224199e-03,1.264963518093580735e-02,2.345302129684870979e-03,1.679795384407043457e+00
-2.978575808195205871e-02,-9.912282498645471618e-01,9.605814814244327815e-01,-9.130142026481562548e-04,-1.919501774866964536e-03,3.659934474464858999e-03,1.690394520759582520e+00
-7.421531445433393603e-02,-9.881253930396713958e-01,9.610561746589345589e-01,-8.125250711377906762e-03,3.715947816370821465e-03,1.003304340424962526e-02,1.689291357994079590e+00
-4.123383133161211134e-02,-9.699705854946298889e-01,9.411307075649322229e-01,2.256043431683102136e-03,-4.264591117358790089e-03,-2.865610702118698890e-03,1.655308008193969727e+00
-6.993772133514407352e-02,-9.806649509029263800e-01,9.190845844287797162e-01,-8.985055690619348640e-03,5.886799811831379403e-02,9.330894149725696418e-03,1.649005293846130371e+00
-2.524868657750876100e-01,-9.991028635510555977e-01,1.580462706929506744e+00,5.010464397512280899e-01,-1.494583987065488118e-01,1.158022262799622559e-01,2.479120016098022461e+00
-3.281646002506923704e-02,-9.923047879965543050e-01,9.676971598061162583e-01,4.286420884190890630e-03,-6.881862089003513636e-03,-5.178839045176594422e-03,1.697617173194885254e+00
-7.654744981658911929e-03,-9.677650653714000573e-01,8.304822080929912254e-01,8.417696166047169623e-03,-1.145358301994323829e-03,-9.448358010977911739e-03,1.558676838874816895e+00
-6.473257309512812918e-02,-9.740030235074406129e-01,9.313993689442143786e-01,4.017895072771672646e-04,5.160079274036263007e-04,-4.312428331645531661e-04,1.650698900222778320e+00
-2.081951847651096754e-01,-4.015507623425016992e-01,1.325861746960617316e+00,1.785358894234184146e-01,-4.961465754477637630e-02,7.974316382780032020e-02,1.676133155822753906e+00
-5.389569571592205122e-02,-6.452642172502803808e-01,8.920372716683653280e-01,-1.419929268173418802e-01,9.918452759246262559e-03,-1.284065833101065597e-02,1.365714669227600098e+00
3.638177485081131590e-02,-9.827240980759348599e-01,9.451271555606053365e-01,1.274560351216180720e-02,1.071497582047362378e-03,2.064382582127991667e-03,1.670630455017089844e+00
3.475406290052227704e-02,-9.552951867524944740e-01,9.352211213066208284e-01,6.541482063559716023e-03,2.243871579028607760e-03,-2.816499214022856598e-04,1.637891650199890137e+00
-2.677321267988643991e-02,-1.044415781492774808e+00,9.911648890593804939e-01,4.497673490655919315e-02,-6.042622668741874647e-02,-5.015999631076037933e-03,1.767707467079162598e+00
-2.035637509678195345e-01,-3.316170358312903188e-01,8.843476689712277405e-01,7.640436517686671758e-03,-2.040990479780815936e-02,1.473568691729227331e-01,1.185675501823425293e+00
-6.432525564074935420e-02,-1.014917000784273604e+00,1.028282132037733554e+00,6.426029015771312844e-03,-2.114864763339328424e-04,2.715685051192504897e-03,1.770927786827087402e+00
-6.005239923582579575e-02,-9.691008671412914000e-01,9.014532362735301341e-01,-1.381104715883114953e-02,4.670065091146808137e-03,-2.954502289728522333e-04,1.620356559753417969e+00
1.150847609958731421e-02,-9.843920052760531947e-01,9.596673682980383369e-01,6.266744059767907077e-03,-8.642179983318083042e-04,-7.637974437873470187e-04,1.683810234069824219e+00
-1.169832264338120098e-01,-6.414510458353526179e-01,8.640409760595101352e-01,-1.387535030705641104e-01,-2.239847940133363885e-02,4.436980199696702321e-02,1.348020553588867188e+00
-3.201971728062981415e-02,-9.902337251200210577e-01,9.580583607077183261e-01,-6.081756217052506838e-03,5.686479369195130557e-03,3.340923755131198006e-03,1.687417149543762207e+00
2.157725361599875658e-02,-9.808715593550401124e-01,7.594400664568149439e-01,3.599458542829118146e-01,4.312893755728647860e-01,-1.518905546045855141e-02,1.799005746841430664e+00
-2.873520072154914229e-01,-1.111087189826183597e+00,1.673201737178342308e+00,5.117188771841751915e-01,1.703041771636817359e-01,-2.650034967227680310e-02,2.648013114929199219e+00
-1.393260055634772676e-01,-6.773011957949435224e-01,1.023538815645026245e+00,-2.146795956779176118e-01,-6.835806052170504722e-03,5.249065138218526883e-02,1.553683519363403320e+00
2.177939693655980002e-01,-9.653021218121724534e-01,1.393720453480146448e-01,-2.505853556625249959e-02,1.065304936143373071e-01,-2.316413916882104768e-02,1.162164092063903809e+00
1.376031281360086678e-01,-9.828665129719379445e-01,4.874041502626452749e-01,-4.124006947512371887e-03,1.248467004186584392e-02,-1.333890700529950513e-01,1.350426197052001953e+00
-2.825289772450112480e-01,-1.435762610189780686e+00,1.843265075133335262e+00,5.323128467017470555e-01,-5.892290593675998667e-02,-9.443280195557210432e-02,3.031126022338867188e+00
1.021510450960988470e-01,-9.057281818808810003e-01,5.181715827923365492e-01,-1.240982460502246861e-03,-2.737824208665676565e-03,6.585335668450427275e-03,1.268207073211669922e+00
-5.750564875807508136e-02,-9.876190171008203400e-01,9.741600428435962522e-01,-2.474395707238792597e-03,-1.227549644721727569e-02,5.349326700818527944e-03,1.699872732162475586e+00
7.186699498967510924e-02,-9.605039854159640456e-01,6.311055667936897873e-01,8.669105994477076943e-03,-2.256742527038588936e-02,1.483483615962393788e-03,1.399156570434570312e+00
1.630947793755322672e-01,-9.358132971294670366e-01,2.883893766155258831e-01,2.916289326468234078e-02,-1.436929391615183182e-01,7.938359920834700545e-02,1.201825499534606934e+00
-1.230279666354255549e-02,-9.890391167097554170e-01,9.599259914527674686e-01,1.567273445295583496e-03,-9.618047727112138956e-03,-6.227460938014529098e-04,1.687939524650573730e+00
-3.807599865204487621e-02,-9.736004483606955917e-01,9.377204290253652319e-01,2.703933419804844911e-03,-5.237705145134817844e-03,7.758796293170641071e-04,1.655406951904296875e+00
1.423580541994312054e-01,-9.895738629632255812e-01,4.069937564277827380e-01,5.488667740160291242e-02,-1.337905847341243071e-01,-5.330809029370221080e-02,1.312293529510498047e+00
-9.359675333676759426e-03,-1.032894159694718761e+00,1.007233265256151533e+00,7.878961509516361691e-03,-1.150516433625044070e-02,1.784774010991923177e-04,1.766970634460449219e+00
-8.136221188632555834e-02,-9.930103312295117668e-01,9.818933163910836814e-01,8.428475017233129363e-04,-2.336159513964400358e-02,4.193065671882820374e-03,1.712489962577819824e+00
-3.667351139633356211e-02,-1.033002560489342248e+00,1.035471650466802007e+00,5.901525752170639055e-04,1.038584069113458394e-03,-1.642243331750821520e-03,1.791755676269531250e+00
-5.178565956407892024e-02,-1.027710777894464300e+00,1.041611630283497902e+00,-1.066049280479516859e-02,4.071688195606704835e-03,-1.411788289739699873e-02,1.793323755264282227e+00
-4.115585206083277603e-02,-1.029900099476345643e+00,1.022431246218896916e+00,-3.004784333383339091e-03,-1.160619627850332375e-02,-5.835756106352565746e-03,1.777915000915527344e+00
-3.615440299389251211e-02,-1.163306724605522424e+00,1.223178347587813519e+00,1.343868858514168929e-01,-5.584352420794788663e-02,9.740622843925721142e-02,2.089940309524536133e+00
-3.486913950968329595e-02,-9.812093365009765256e-01,9.396812611412939109e-01,8.517948661796348638e-04,-6.036449104408318084e-03,2.483588407194644437e-03,1.663638949394226074e+00
1.613450051669157448e-02,-9.993239521387570212e-01,9.690366057012225198e-01,5.568254877693976090e-02,-1.189524203800304200e-02,2.589651409293967314e-03,1.707792997360229492e+00
2.418919124945091877e-03,-9.808597656333327697e-01,9.760044424533418361e-01,2.942980834646051480e-03,7.062218988256505590e-03,-4.865592585846194654e-03,1.694773793220520020e+00
-2.456585347581336995e-02,-9.680525303369142964e-01,8.790673530388305457e-01,-4.282935173858756252e-03,-1.819380752090331288e-02,-1.139174268102740965e-02,1.600226044654846191e+00
5.843605233927574860e-02,-1.054234839723737105e+00,7.419528002778785769e-01,3.090080230675753062e-02,1.281054374168745791e-01,1.993287277090750181e-02,1.587151646614074707e+00
-4.124789366487299769e-02,-1.008807479991037370e+00,1.003889601229065009e+00,-5.142318606978983457e-03,-9.585006395079679123e-03,3.950818572973118642e-03,1.743593573570251465e+00
-7.797181558051317907e-02,-1.011460971767479178e+00,1.017165763229713527e+00,-3.513345839693641625e-03,-2.041036841391246498e-02,4.194133484259953380e-03,1.759081244468688965e+00
-1.942205912094983195e-02,-4.666849346283734601e-01,3.522465052735982982e-01,1.614862049145381062e-02,1.464403036112933883e-02,-6.553041876502756213e-02,7.202246189117431641e-01
-1.156896436734787190e-02,-9.858154468665787373e-01,9.591249750194369428e-01,-3.765474488315564625e-03,-2.264763969580392469e-03,7.824598141700961395e-04,1.684386491775512695e+00
-1.023793885512548490e-01,-7.086995406731328995e-01,8.901438917268273965e-01,-9.665101552691641312e-03,1.610453487556187321e-02,-3.860026964375423003e-02,1.400014877319335938e+00
-2.238979587137526848e-03,-9.497340250295549513e-01,9.462442269561766039e-01,-2.712491866302720999e-03,1.704028792071887732e-02,-7.474767092430600716e-03,1.642288446426391602e+00
-1.865851499219335630e-02,-9.776828193045233872e-01,9.588099206137765673e-01,-1.674045454838966494e-03,1.461536908261542103e-02,-5.393916654102042831e-03,1.677296876907348633e+00
2.926758212271777376e-02,-9.638680809429273078e-01,9.382927124164390786e-01,4.506491452866231116e-03,-5.961188930934963742e-04,2.064007592405932550e-03,1.647879004478454590e+00
-5.529829972978791974e-02,-9.269992884613366124e-01,9.354470145909047352e-01,-6.863276460090161901e-03,-5.271036579286738147e-03,-8.490782119666926211e-03,1.614160299301147461e+00
3.133636364635231097e-02,-9.419821179188432314e-01,9.321392431346942065e-01,-1.937353393175890448e-02,1.209244167826229940e-02,-6.895300892990369190e-03,1.623967409133911133e+00
-3.317632815182457173e-02,-9.640735284487556012e-01,9.187929461176292945e-01,5.113476480356792149e-03,-3.710246867911681269e-03,-1.175557775229205473e-02,1.630808115005493164e+00
-1.505259170258390136e-02,-9.995010611964574299e-01,9.836425648719111514e-01,1.333038184449268290e-02,-1.020000182140503794e-02,-5.839608446832756164e-03,1.717743396759033203e+00
2.731917118930814528e-02,-9.696644169082968556e-01,9.477467905138248216e-01,8.589843276437593086e-03,-7.626810553474275669e-04,-1.026082917847169571e-03,1.661036014556884766e+00
-7.303366560674323313e-03,-9.270068922027200342e-01,9.458188581286043339e-01,4.053125473803574630e-02,-1.888893604755702282e-02,2.103572034659580061e-03,1.623852968215942383e+00
-4.166061366398313842e-02,-9.461537900903453924e-01,9.270030728942865172e-01,-1.651519551313717499e-03,-4.029742439914101026e-03,9.295067542907301320e-03,1.622616052627563477e+00
-1.888380605468556808e-02,-9.203040010258698445e-01,9.450991410554308025e-01,4.552841937136557771e-02,-1.036614039188357358e-02,-3.104581608354302618e-03,1.617821097373962402e+00
-4.457897795267969782e-02,-9.913790542455516164e-01,9.715617355911959629e-01,1.787836868928372510e-03,6.068369316854687126e-03,5.537704081591451541e-03,1.700372457504272461e+00
-1.282891183089260832e-02,-8.919727374841912582e-01,9.350326716944975525e-01,3.765358169747158590e-02,-1.809888419733543183e-02,-2.849488707383182259e-03,1.584267139434814453e+00
8.126104696978775355e-03,-9.595564721629230576e-01,7.528752544516509326e-01,2.824119851572613055e-02,-1.127369865899472551e-02,9.593341554715346595e-03,1.488217592239379883e+00
-2.297129435552964366e-02,-8.207088159451102483e-01,9.131311552617540350e-01,1.227128318229846748e-01,1.505372122727119226e-02,1.319587420772482672e-02,1.518490910530090332e+00
-2.166596450685879388e-02,-9.937990491178787522e-01,9.598677374802557782e-01,1.817711074136107801e-04,9.827397868942093495e-03,-5.634520485999861081e-04,1.692017555236816406e+00
-3.332158819746756928e-02,-9.983232797788577084e-01,9.682623727025233551e-01,1.954087602744700690e-03,2.801408533751389898e-03,4.204683022987709901e-05,1.703221678733825684e+00
-2.707041832129841175e-01,-2.836058298920956511e-01,1.451575672912804205e+00,2.420065190979506231e-01,1.493155776641045818e-01,-2.601929403299654275e-01,1.853192567825317383e+00
2.557447166629181479e-02,-9.300668809914610646e-01,9.268913319066127698e-01,1.421620979250372806e-02,3.445846736203535439e-03,-1.345305468774818641e-03,1.608603596687316895e+00
-3.269932917825917051e-02,-9.995191454614639204e-01,9.698387801582621925e-01,-3.346871211106352086e-04,-8.247397510412371284e-04,5.035646409259721173e-08,1.705608248710632324e+00
-3.246722032614980658e-02,-9.978901080456569206e-01,9.660614057462656445e-01,1.212289094645335264e-03,1.985888100264062567e-03,-7.551194387850541402e-04,1.700917720794677734e+00
-2.638180452561454947e-01,-5.922309645797834143e-01,1.455696412024054309e+00,3.667558362802977867e-01,5.595485171097958066e-02,-1.119534510946169903e-01,2.019856214523315430e+00
-1.139634511716171167e-01,-1.151327660395775609e+00,1.125891466893323312e+00,-2.680513608530799008e-02,-2.014578532035470881e-01,-2.033519843444733105e-02,2.006165027618408203e+00
-1.747328844437116488e-02,-1.018073642353340968e+00,1.014663217868444045e+00,1.718318513144713455e-02,-2.297905619461872682e-03,-3.666117264920474867e-03,1.760739922523498535e+00
1.417754276937874952e-02,-9.884396845339292748e-01,9.618852831115947133e-01,1.938750188139238412e-02,2.592256178324765358e-03,3.565045153279352078e-03,1.689605116844177246e+00
-5.116577190097365557e-02,-1.007905169478617857e+00,9.983512368144620286e-01,7.524274991113776186e-03,-1.904167383674231634e-02,-8.285828147611695726e-04,1.738450527191162109e+00
-4.125616670609991155e-02,-7.313710178416430452e-01,6.541710250127510395e-01,8.463133915453804890e-02,1.010525014460026821e-01,-2.002592171406261945e-01,1.269738435745239258e+00
-7.876234554101821383e-02,-9.657484489716450238e-01,9.192930628020404837e-01,-3.340856937382358921e-03,2.150596959894419437e-03,-5.292863966096912295e-05,1.633452653884887695e+00
-2.747923336711555198e-02,-9.965337566778116329e-01,9.661164826654867754e-01,-1.564738008613920592e-04,4.113111891028864431e-03,1.062247622484132053e-03,1.699765205383300781e+00
-3.654141014528951292e-02,-9.963569390105717627e-01,9.656142323552540097e-01,1.572003685110416951e-03,5.187648970299763495e-04,7.249556568267785141e-04,1.699251651763916016e+00
-1.390391919597571690e-01,-6.149992676630451349e-01,8.732094419821342379e-01,4.922396250188549455e-02,7.083096410757204822e-03,4.053348221817042879e-02,1.321106910705566406e+00
-1.216208269590294822e-01,-7.383797959410390854e-01,9.192285656360489332e-01,2.445060723879700958e-04,2.273353391812286961e-02,-1.643148574060582234e-02,1.451920390129089355e+00
1.478776017820867816e-01,-1.849061300465710822e+00,1.217927624471842885e+00,3.418270270447320430e-02,-4.970180673501024549e-01,-3.176876523049224771e-02,2.831467866897583008e+00
-1.744803489765031079e-01,-4.691923023340871524e-01,8.557191541553829106e-01,1.758664326980383151e-03,3.601133498890678728e-04,7.615545640169407715e-02,1.212100148200988770e+00
-2.000700723172843531e-01,-4.038492579789779713e-01,8.332288207594107377e-01,2.839904005581182778e-02,2.365395578791246178e-02,2.479456077945423401e-02,1.151407718658447266e+00
-1.648612578262516615e-01,-6.067435073889371200e-01,9.832348828972383714e-01,-1.029632084776705703e-01,1.183430975361531544e-02,1.193100668405677744e-01,1.447631597518920898e+00
-1.504017738065138721e-01,-3.959275498534479687e-01,8.374533711046061590e-01,3.623736818865318232e-02,1.945705440413718346e-02,6.527777455270788315e-03,1.133087635040283203e+00
3.524241215921314341e-02,-9.782237421316298809e-01,9.512725460125202037e-01,-1.049516125769977583e-02,1.345659507722887956e-03,-2.661383147198283748e-03,1.671809673309326172e+00
6.340840648330056672e-03,-9.811344901511664940e-01,9.542984513240612143e-01,2.824199981784677321e-03,-1.084863455054031235e-02,-4.681605622747560258e-03,1.676382660865783691e+00
-5.611105818686289159e-02,-9.680275343758761863e-01,9.026328047261334975e-01,8.820100258984726882e-03,1.601163479492122288e-02,-7.193173360050644435e-03,1.620565772056579590e+00
1.474703288737661336e-04,-9.889651415636439014e-01,9.667011527704915119e-01,-2.577952960843365483e-03,7.627185963487548293e-03,6.807234149954620884e-04,1.693752050399780273e+00
3.997176950791044014e-02,-9.346341680140903829e-01,6.727141687254354352e-01,-4.927829132458116414e-03,-1.317568308586425374e-02,2.105748733406832395e-03,1.402676463127136230e+00
1.650423493292239863e-02,-9.051105940373662673e-01,9.225450033220815582e-01,-7.196143792153881884e-03,-1.021162372252465075e-02,-5.727303043178881906e-04,1.582963585853576660e+00
1.755848995990211964e-02,-9.281931788481457835e-01,9.341517342143581537e-01,2.500700488892345502e-02,-8.407009054164255339e-04,5.825274402515435990e-03,1.613517522811889648e+00
-2.055276466378245723e-02,-9.803974401431198027e-01,9.679546517333232902e-01,1.419774936541047181e-02,-2.499286146955883095e-02,-8.733527354785457567e-03,1.688185334205627441e+00
1.801651633452885232e-02,-9.631245258427395539e-01,9.471032453953928121e-01,1.022695305831293824e-02,-5.574639523926221141e-03,3.341469051787326287e-03,1.654643654823303223e+00
2.828304180656935132e-02,-9.483971858367934438e-01,9.312150627628832389e-01,-9.849725161944855676e-04,5.340705961477028481e-03,6.039809060388182452e-04,1.628237009048461914e+00
1.343998285592032035e-02,-9.265813279840012795e-01,9.302742711234074369e-01,-3.322173228726051867e-03,1.241099273577688997e-02,1.807232649953699781e-03,1.608282923698425293e+00
-1.684140981400229081e-02,-1.191951551634366391e+00,1.118175611412316472e+00,-1.257200277737687173e-02,-1.315280442486130644e-02,9.435218967727487110e-03,2.001044273376464844e+00
-4.032446078099256870e-02,-1.042843568215374939e+00,1.031938585029783528e+00,4.724289478575231967e-03,1.038441390547848245e-02,-7.812392635736849916e-03,1.797312021255493164e+00
-1.332387032931877102e-01,-6.303210910412004875e-01,8.832035608813108007e-01,2.297619204287792722e-03,-1.438991194956521641e-02,-1.762005407384265032e-02,1.336813330650329590e+00
-7.176208010440890406e-02,-1.013819050101521846e+00,1.043404050815927020e+00,-3.665427101154789154e-03,1.568458930644575731e-03,-2.096267912133691243e-03,1.783725857734680176e+00
-5.836214626428191249e-02,-1.026435461551014283e+00,1.056002141001034289e+00,1.154291882570917388e-03,8.043259624220342602e-03,-1.389221382136657983e-03,1.804983019828796387e+00
-1.821083105052827278e-02,-1.046741798191399786e+00,1.055683261400379713e+00,-4.783369134384438115e-02,-1.479589988291223762e-02,1.397284632462433319e-02,1.823119401931762695e+00
1.359110823324639720e-02,-9.808871534127393543e-01,9.576891649984641264e-01,-7.223335935106005648e-03,8.935878428598364445e-04,-2.639966413738967666e-03,1.679098844528198242e+00
3.771294356492107397e-02,-9.544876121020551274e-01,9.320411314147470927e-01,-6.037921510399175962e-03,-2.025217398960422696e-04,-1.123981743191187870e-03,1.634549140930175781e+00
7.390686994225516282e-02,-9.424255526583508180e-01,6.547319904279373937e-01,2.099811101996799500e-03,2.506247670833216309e-03,-1.220609834728952729e-02,1.400385618209838867e+00
-2.024284270702492172e-02,-9.682370683002082812e-01,9.337966947980402832e-01,-1.981238168489480797e-02,-9.866698152967970023e-03,8.307858822215319697e-03,1.647721171379089355e+00
-6.777592928051301424e-02,-1.042602405218151285e+00,1.070458525714923725e+00,-6.548619444439102155e-03,-2.337125997650200612e-02,1.664431893519334980e-04,1.832269906997680664e+00
6.036308559137797472e-03,-1.009297289768740002e+00,9.782136514016819273e-01,-4.718952691441746783e-02,1.124686637220397717e-02,4.802497580928067125e-03,1.723439812660217285e+00
1.215858661101017202e-02,-9.554456691892811993e-01,7.289415381632933233e-01,1.039850785791664525e-02,7.042117462945518547e-02,-2.452015332584013552e-02,1.469899177551269531e+00
1.924225578528277261e-02,-9.951924163197993778e-01,9.641697452046562589e-01,1.792017406022903409e-02,-6.865761064557121540e-03,5.076881065550550333e-03,1.697561502456665039e+00
-2.642082395795167932e-02,-8.843648693144583461e-01,9.378424798901123793e-01,-8.507995029805791309e-02,-1.987777637070347811e-02,-7.846737533244746432e-03,1.586266517639160156e+00
-5.371090995168437132e-02,-8.280196776184993723e-01,9.264527087882505896e-01,-3.652822300596751670e-02,-2.234748306103152837e-02,3.896232928088350783e-02,1.526197671890258789e+00
-7.351181820584049009e-02,-9.931491685450940521e-01,9.798679836373475061e-01,8.020044751432493096e-03,-2.031992839843071649e-02,1.116116464925809813e-02,1.710518836975097656e+00
-5.769487673429886387e-02,-7.538960323528642871e-01,9.152625934413287645e-01,-3.398823626868000686e-02,-3.521942783782554959e-02,1.797334459183348720e-02,1.454947590827941895e+00
1.565088758139449032e-02,-1.003073358937885740e+00,9.876977726319878803e-01,1.805000811631289614e-02,-5.987139111983634868e-03,-4.582298907173386164e-03,1.724549174308776855e+00
-4.988830426890919489e-02,-1.237492670940555373e+00,1.113607496888854076e+00,-6.221873560229768813e-02,-1.544436099204732904e-01,3.023810977778837450e-02,2.057137489318847656e+00
-6.531097582972433813e-02,-9.653552848983735224e-01,8.890937739014708185e-01,-8.817426927767362671e-03,5.495855739469398052e-03,8.641403342589839935e-04,1.606331467628479004e+00
-1.170956433781787931e-01,-1.081675352345191632e+00,1.226734790494669936e+00,2.363144827980063756e-01,-4.311405013719429163e-02,-4.264810095071395329e-02,2.052094697952270508e+00
-1.846850153936493710e-01,-4.663176206645233135e-01,1.094104331962698629e+00,1.307051665390217832e-01,1.065493811295481902e-01,-3.924931861800507252e-03,1.469735980033874512e+00
-5.590137249319671042e-02,-9.855254971397167107e-01,9.536913481289508443e-01,3.108464088748661217e-03,7.122702898113614960e-05,5.667675671626635006e-03,1.679924249649047852e+00
-6.633922046922333116e-02,-9.944650887618690094e-01,9.845434917306465916e-01,6.126976961786671262e-03,-1.274963855529934881e-02,1.708060209930330545e-02,1.715400576591491699e+00
-6.628737616321571380e-02,-1.039722088621076068e+00,1.037588538392961945e+00,1.059731662156213582e-02,-3.412105055911258955e-02,1.980211652286169646e-02,1.801575541496276855e+00
-7.580509889596885598e-02,-1.062450909292365964e+00,1.039414768609175033e+00,8.116126926232781428e-04,-1.223011105303485752e-01,3.710133424746900332e-02,1.834806919097900391e+00
-3.290875705900131454e-02,-1.015711505463573916e+00,1.007791857067308339e+00,1.276488188284514297e-02,-1.369849986060699999e-02,2.281089428939508511e-03,1.752948880195617676e+00
-5.095917664633573679e-02,-1.005793687933383973e+00,1.016379175847303973e+00,3.219113300658084376e-03,-4.126793293981087865e-03,1.245471433277875982e-02,1.752312541007995605e+00
-3.458282363054565600e-02,-9.775265012913283424e-01,8.954072383296187709e-01,1.424187140242939159e-02,-1.282136029870725377e-03,5.617133653629258205e-03,1.622239351272583008e+00
-3.242953141575403986e-02,-9.925758950214951248e-01,9.624835556318825924e-01,1.886321564570997422e-03,4.196034494253460603e-03,1.209270813667488341e-03,1.693240404129028320e+00
-5.830414116847462691e-02,-9.745358002359142402e-01,9.289244723595887487e-01,7.514192265848714837e-03,-3.298181941319980261e-04,6.755633626361295767e-05,1.648878574371337891e+00
1.627438606552465000e-02,-9.933289508094502729e-01,9.627906678603324053e-01,-1.381576739321501573e-02,-2.417612560751684642e-03,4.880365743104421970e-03,1.694538116455078125e+00
-3.360460911898917324e-02,-9.801946372632506232e-01,9.358077889222385926e-01,3.200561412547251339e-03,-6.599819405150572692e-05,5.079413397316680928e-03,1.659378647804260254e+00
-6.503306290613670992e-02,-1.019015780447604325e+00,1.033571952962857310e+00,-5.384492673959946499e-04,-1.051144672274895164e-02,2.623855295064669337e-03,1.779162526130676270e+00
-3.677246771204023545e-02,-1.013024513431746154e+00,9.946307730113412848e-01,-9.259404802543984986e-03,1.571948244289018276e-02,7.035657990133178203e-04,1.739186644554138184e+00
-3.580154034748633807e-02,-9.921587808577017054e-01,9.898083108967360433e-01,-1.223094168196642122e-02,-2.781731329350000358e-03,5.507891564524718640e-03,1.716947078704833984e+00
-3.435813700471007648e-02,-9.803817255927055330e-01,9.394817129213786089e-01,3.874517828437267202e-03,3.012468335134219771e-03,6.665234910536544516e-03,1.662770509719848633e+00
-3.495129841353443456e-02,-9.916743534107905766e-01,9.579388833709281403e-01,1.956612037120236507e-03,1.561945101967014823e-03,-5.890746889298490189e-04,1.688517332077026367e+00
-2.316423376985123767e-02,-9.894473862139009368e-01,9.109765860371892288e-01,6.435482551936531383e-03,7.069651527136333428e-03,-1.655980001571686483e-02,1.646227121353149414e+00
1.147907672156281249e-02,-8.962055293006402357e-01,9.178061317595791468e-01,-4.978063418614079617e-03,7.647751334666824143e-03,-3.669876798750444885e-04,1.571059942245483398e+00
-4.606472370168348401e-02,-8.137548675073277282e-01,8.602842423770162839e-01,-1.603745341168947777e-02,4.464131190640887280e-03,-6.102803021452104376e-02,1.455546736717224121e+00
-1.501349819291337637e-02,-8.422907013164244727e-01,9.486899237794869100e-01,-1.484410511905635000e-01,-4.081019492508473900e-02,8.814621403080659043e-03,1.575339794158935547e+00
3.047607408326348782e-03,-9.778148638883007449e-01,9.647789788908421871e-01,-7.372360136761957339e-02,-1.351943523343466201e-02,-9.048102776307331493e-03,1.687437176704406738e+00
-1.494180859444566370e-02,-1.019516441014063135e+00,1.014653415677926551e+00,-1.134444833566231568e-02,5.333069078740821116e-05,-1.199533109198531967e-03,1.761798024177551270e+00
5.734749418280176911e-03,-1.015103958553761343e+00,9.892955605046067635e-01,-1.537169656252340005e-02,2.267092015091795934e-03,4.668708995426680032e-03,1.736188411712646484e+00
2.987379888498332969e-02,-9.487883384177216994e-01,9.299628390366132535e-01,-3.597578022672929653e-03,6.291636176565824218e-04,-4.008097340809702361e-04,1.627532958984375000e+00
4.952906035011442332e-02,-9.785232167234025891e-01,7.314910931597838895e-01,5.991777856282793149e-03,-2.728526020309282596e-02,2.130336761038362572e-02,1.492232918739318848e+00
-3.713890172152695818e-02,-1.001148211999858040e+00,8.498352860362708983e-01,5.649066798849142792e-05,-1.275031382080417386e-01,-8.746945294809587226e-03,1.618668913841247559e+00
-2.717865526837359713e-02,-1.004126537087111526e+00,9.878957957514963306e-01,7.043551020979379150e-03,-1.064651965606094181e-02,9.390871233829960890e-03,1.725465655326843262e+00
3.480166250764432645e-02,-9.457810631997285444e-01,6.918879368153829645e-01,1.917698523065146377e-02,-9.233510406392639314e-02,1.063619579399296619e-02,1.436889767646789551e+00
-6.181024678670773986e-02,-9.787054628091542696e-01,9.454315429889688094e-01,1.989069481378241515e-03,1.147160494947476947e-02,4.489262219566516818e-03,1.667103767395019531e+00
9.748067887340332305e-03,-9.043869443446058698e-01,9.204551931269110421e-01,-5.592584716511115467e-03,-3.307797840386420083e-03,-1.461044706616235461e-03,1.580402731895446777e+00
-1.438925061749475598e-01,-2.761794625657311153e-01,9.765149372309029907e-01,7.167371075591220941e-02,1.115862546030521318e-01,6.937287536944278243e-02,1.219931006431579590e+00
2.875295654088774744e-02,-9.568024733419793204e-01,7.326398222160286355e-01,1.211653875560163990e-02,-2.625021498177990825e-02,2.956869906707286499e-02,1.471606731414794922e+00
-7.669302123390273063e-04,-1.113839434524662053e+00,1.219669538227067251e+00,1.633594664051995493e-01,-2.528720391745487364e-02,-2.615369928761929544e-03,2.041770696640014648e+00
1.095004396383944013e-02,-9.108648797683241982e-01,9.270504466883807693e-01,2.449418288958467478e-03,-8.194025972338103009e-03,1.222059878936377839e-03,1.591754317283630371e+00
-9.733657981759860633e-02,-7.202949077302103209e-01,9.345089395388819220e-01,1.141449274618188681e-01,1.164272665104914839e-01,-1.782745720305001572e-02,1.475223898887634277e+00
8.502947087117619651e-02,-9.078825402936123723e-01,5.093468421275395563e-01,-9.647532749131335419e-03,-6.198911269794078749e-02,2.782872354032659562e-02,1.265448451042175293e+00
6.421703260476641084e-02,-9.685994772974619860e-01,6.913692681444538746e-01,1.135727521219647394e-02,-1.692156046391466231e-02,3.305273312076518338e-02,1.453370690345764160e+00
-6.110978637206183200e-02,-9.602981678644079144e-01,9.323093647667378692e-01,3.358477462694010873e-02,6.548595721031920738e-03,-2.019393388399477740e-02,1.641166687011718750e+00
9.010146137772612196e-02,-9.321116288859414567e-01,6.050979916070393649e-01,-7.712730688829088493e-03,3.713688503089464243e-02,-1.044579947987333071e-02,1.356915831565856934e+00
3.432395934027714091e-02,-9.787471791030547541e-01,9.520836628813006408e-01,1.382739481182440958e-02,-1.213438530114575127e-03,-5.006814562230925067e-03,1.673022747039794922e+00
-4.495683601504252974e-02,-9.919372774877879273e-01,9.737728274899739578e-01,1.762858321226419989e-03,5.404829822638001005e-03,4.491816334716887925e-03,1.702779054641723633e+00
1.293748139903793185e-02,-9.858723194473331120e-01,9.538638011176212572e-01,5.678611365109279691e-03,1.011136536676629505e-03,3.940392286260379143e-03,1.680153608322143555e+00
6.377778289550602164e-02,-9.285070195778938329e-01,6.267609121357553548e-01,1.207598947642313583e-02,-3.367060326513376251e-02,-3.303602030916524650e-03,1.365316867828369141e+00
8.251121314726095335e-02,-9.255032740557650461e-01,5.366908840023694172e-01,1.284235973204910994e-02,-4.534384291472026707e-02,3.308837994115291364e-02,1.300053715705871582e+00
-2.620138608559060417e-02,-9.571010952422176477e-01,9.553475882823528886e-01,-3.672744815328906308e-03,-1.373662578922942197e-02,-7.040838709791363489e-03,1.656650662422180176e+00
8.716166105605854808e-02,-8.083813607171809190e-01,5.013387035248475510e-01,-9.357492780936260690e-02,-5.715610454776068328e-02,6.040772183176487675e-02,1.179605841636657715e+00
4.528755877196477542e-03,-9.858887089855126185e-01,9.561307776195209218e-01,4.325952373590472889e-03,-9.564325142531682894e-03,1.005935197553301744e-03,1.682049393653869629e+00
-9.836545156978826129e-03,-9.900655609154774828e-01,9.757118031043292561e-01,1.149321329277596532e-02,4.493081170128161023e-03,1.301111286155450224e-03,1.702550888061523438e+00
-7.620003883342230111e-02,-1.011850381723055747e+00,1.017246967793803192e+00,1.753666344320082941e-03,2.144687680632456628e-02,2.641409851280555107e-03,1.759420990943908691e+00
1.323173259765274834e-01,-1.109280220697501873e+00,5.520793261998311330e-01,-8.358384601234707806e-03,-1.013385179244972734e-01,-1.041180389505434456e-01,1.517392396926879883e+00
-4.650882830456371658e-02,-9.748540329713779595e-01,9.059999353112725418e-01,1.372425419268373005e-02,-1.455984800796967810e-03,1.079982440537465178e-03,1.629088640213012695e+00
-3.302447453038301339e-02,-9.979301182512400059e-01,9.733352889076507530e-01,5.565986456181623923e-03,2.583719452419853263e-03,7.212201327024926785e-03,1.707370519638061523e+00
-3.162019669340729311e-02,-9.788694686998776762e-01,8.918593837385668799e-01,-1.450521274257901040e-02,-1.838467073727981498e-03,-5.958917150909869009e-03,1.620373129844665527e+00
-2.195361954675256744e-01,-2.163177690074813975e-01,9.562173515071414887e-01,-6.532294367080187548e-03,-4.666552172469531912e-02,1.101386944855408806e-01,1.192340254783630371e+00
-6.549813036579216208e-02,-9.574831396045683229e-01,8.841193635250540472e-01,2.542542021377559511e-03,3.131357793674046600e-03,-8.689797382041443538e-05,1.595150113105773926e+00
-1.836188374262263112e-01,-3.304930160194650690e-01,8.251661706370039262e-01,1.395527443930229816e-01,1.236426369742319592e-02,1.011080579069687652e-02,1.116500735282897949e+00
-5.540472332256696913e-02,-1.109991172908389334e+00,1.153486136528306005e+00,-1.140691736673328863e-02,-8.300272210772549619e-03,1.574865582317694877e-03,1.961900591850280762e+00
8.994556989302635031e-02,-1.167995201982522824e+00,6.738147691760174585e-01,4.009136996981768619e-02,2.411158354861226427e-01,8.077824541655943824e-02,1.690147638320922852e+00
-1.388749405090442535e-01,-4.469951551219333852e-01,8.414609551420939582e-01,8.064485776736819711e-02,-2.847273415740434258e-03,-1.020942866668667071e-02,1.173842310905456543e+00
-5.832935127833116518e-02,-1.012855927113693877e+00,1.036005417817822183e+00,-4.830501758246195931e-03,8.252238491386485603e-03,-3.415408191855822014e-03,1.775829553604125977e+00
-1.413103899794654061e-01,-5.077977429755357042e-01,8.588051121558480938e-01,5.412688508684918715e-02,4.787302131476639262e-04,-3.987217955305010809e-03,1.228784441947937012e+00
-7.646741658016495413e-02,-1.004110837838732229e+00,1.013017214062250870e+00,1.074298465467623544e-04,2.100605228378660955e-02,-3.853524916462214484e-05,1.749135851860046387e+00
-6.216786557732834062e-02,-9.766870520308166270e-01,9.338961542444229602e-01,-4.128459075510917953e-03,3.838896434128612895e-02,-3.032428160671713988e-03,1.656474709510803223e+00
1.107068140402055895e-02,-9.361180765030251427e-01,9.376096052677737047e-01,-7.310926878106482202e-03,-2.300822016675242720e-02,-1.540976122632292666e-03,1.623269438743591309e+00
-1.957648555651316791e-01,-3.910049190698391963e-01,8.415151729738231667e-01,3.085333334450422391e-02,3.064998377672861068e-03,-1.454026690671226738e-02,1.148958444595336914e+00
3.936089937006630873e-02,-9.763754139980319602e-01,9.412598739803000880e-01,-1.131118008533524115e-02,9.524791373585490134e-04,3.478095347570681929e-03,1.661823272705078125e+00
2.343270431846376529e-03,-1.018154214270408531e+00,1.007872785171699759e+00,-1.568313715110641535e-02,1.056168237484373003e-02,-5.162832495427630355e-03,1.754935145378112793e+00
-4.482597635127054392e-02,-9.854526283917873775e-01,9.449919906553906346e-01,7.276530420760384671e-03,-3.696981333405140527e-03,2.291048579004918511e-04,1.672054767608642578e+00
2.727307399993914028e-02,-9.151453360256823766e-01,9.257842628048854605e-01,-3.613836476521418983e-02,-2.165576234309117901e-03,7.014868023670812764e-04,1.595675945281982422e+00
-5.642636643849385791e-02,-1.002226256746058475e+00,9.321463186547251922e-01,2.089431553740164760e-02,1.090687543425596651e-01,-6.839246054992577373e-02,1.690513372421264648e+00
-8.257698586912606831e-02,-1.057165804265396636e+00,1.076889651261209613e+00,1.686859104847193355e-02,7.479446378021076258e-02,-1.875356948187175202e-02,1.855500102043151855e+00
-4.428476822931093349e-02,-1.160286778250848139e+00,1.146407916473844324e+00,-8.232651017354643275e-02,2.064487002036680119e-01,-1.005219927771769661e-01,2.042188882827758789e+00
-1.292178262753304885e-01,-4.099445831186765421e-01,6.831581340195101992e-01,1.289238101619308574e-01,9.158090863543477678e-02,-2.835480252932831916e-02,1.021888017654418945e+00
-1.176208933930475153e-01,-7.563931962742387327e-01,9.423898223710471811e-01,-1.332157250310605501e-01,-2.621806833498351030e-03,1.584904038065937382e-01,1.528847813606262207e+00
-1.890683948521522662e-01,-4.543168415407713989e-01,8.496518397906016595e-01,-2.242151975623029800e-02,-2.481848589315829856e-02,1.456447506141688407e-02,1.195327520370483398e+00
2.750985987635598540e-02,-9.660373504557763225e-01,9.404966326278598743e-01,-3.369133772006935659e-03,-7.903382204228851307e-03,2.537851600000969737e-03,1.651671051979064941e+00
-2.091604264612785258e-01,1.215395733121329980e-02,8.330534845269197408e-01,8.834212046459231568e-03,-1.747406256522284623e-02,1.908677229860858762e-02,9.522478580474853516e-01
-1.384037024137475813e-01,-4.263480503489779361e-01,8.244401679457573628e-01,-1.448618446168240814e-01,6.530044973718571177e-02,7.413685827437616060e-02,1.174504995346069336e+00
5.272701169895036705e-03,-9.800209237380056448e-01,9.544040846525555510e-01,-1.939658914305371134e-03,-1.072301772993736885e-02,1.642828543055488422e-03,1.675467491149902344e+00
-1.308102280210247936e-01,-3.382666372573338021e-01,7.964006707410880015e-01,-2.175693500712128359e-01,8.504807921321776154e-02,7.144855427900606570e-02,1.128777027130126953e+00
-2.743932140504562814e-02,-7.849798621422554579e-01,8.920090965671523264e-01,1.049492287325163448e-02,-1.070462013131881322e-02,2.212680428259541983e-05,1.454801321029663086e+00
-1.066796643513086007e-01,-7.454111992035233891e-01,9.724525498661487077e-01,1.450646633483935674e-02,-5.038833934715931939e-02,5.384070964168507362e-02,1.509544610977172852e+00
-1.474000995833098793e-01,-5.333035402816946879e-01,8.593143335350171830e-01,3.157454244266046095e-02,8.962638972967333639e-03,1.155179646226015128e-01,1.262598514556884766e+00
-1.628896247657257434e-01,-1.703966562333612267e-01,7.098601506377641979e-01,4.386184181843044705e-02,-2.293166216444050311e-03,2.316803981941413168e-02,8.807371258735656738e-01
-1.248344252093986362e-01,-7.870335642962857925e-01,9.427498151793670678e-01,2.333247185152267228e-02,5.143459666997517513e-03,4.317890994960980194e-02,1.514101386070251465e+00
1.278443142881433015e-03,-9.197012826810765374e-01,7.132714624008810178e-01,1.474235656951803919e-01,2.178277170182468525e-01,-2.432428946043820733e-02,1.490030765533447266e+00
7.873343798731769622e-04,-9.898736046041577419e-01,9.576288810735745782e-01,-3.843044336471240947e-03,-5.021707540136784512e-04,-3.332087847371213198e-03,1.686694622039794922e+00
1.939898129484868630e-02,-9.642358113583904267e-01,9.405903101798905874e-01,-1.032238697757789300e-02,-9.342345511460955348e-03,1.221160537370847904e-04,1.650099515914916992e+00
-1.412265399783231845e-01,-7.107370968408834866e-01,9.117631027913846165e-01,1.037103461834882820e-02,-1.087759139584818305e-02,1.475305660582092518e-02,1.426235914230346680e+00
8.645515333478996645e-02,-8.163727285435422587e-01,4.617027433696086480e-01,-2.885424656164150559e-01,3.254478645199125331e-01,1.310002332632067001e-01,1.383363723754882812e+00
-8.728952388088354747e-03,-1.036974362725909593e+00,1.093962942558013074e+00,-2.942240438497668031e-01,4.187879005482565420e-01,1.440851003467020497e-01,2.062811374664306641e+00
-6.575693736557912394e-02,-9.605517854181796489e-01,1.023116126517063851e+00,-2.119332157730541566e-01,1.952637584438114693e-01,1.225605230880822683e-01,1.804110407829284668e+00
-5.643984345936740171e-02,-8.633008314981306386e-01,9.101388224340813959e-01,4.790075207125193274e-02,1.047065368288650766e-02,-1.141882596019461876e-02,1.540388584136962891e+00
6.083387217744178066e-02,-9.284026391784411247e-01,5.893430269503554531e-01,-7.856523555992991903e-03,8.863065621549058581e-03,-4.039436231298978996e-02,1.336430788040161133e+00
1.413872555599864078e-01,-9.622533655382039530e-01,4.340082257470853078e-01,1.979879033380355091e-02,1.107670543588554074e-01,-4.229360238959301715e-02,1.292264819145202637e+00
-6.651154351048489677e-02,-9.806838100819874615e-01,9.575891832438181428e-01,1.709481405313238050e-04,7.252452930547254213e-03,2.443022638577902785e-03,1.679545640945434570e+00
2.320755873740115716e-01,-1.586634910646889995e+00,7.642498855482395825e-01,3.035084540224534666e-01,5.222529352855890261e-01,-1.120316954322542538e-02,2.377763986587524414e+00
-4.805108902710987506e-02,-1.021232481070768472e+00,1.023609152462982896e+00,-6.561402944233974029e-03,-9.845933649505974466e-03,-4.070021841677979105e-03,1.771701812744140625e+00
6.323680186552366363e-03,-9.714188360938927902e-01,9.486643969199022308e-01,1.932464037289841194e-03,-6.527292541919588707e-03,2.088610081507515873e-03,1.662980794906616211e+00
-1.876459087083894584e-01,-4.175283177930050327e-01,8.547025389240452409e-01,-3.709373893778537129e-02,2.694816872486834047e-02,6.735912311910495845e-03,1.177028656005859375e+00
7.629749760021724281e-02,-1.245419987161134223e+00,7.979822418589507249e-01,8.071207778491731877e-02,3.405588253791023146e-01,-1.084492370758737556e-01,1.903784990310668945e+00
1.821954837239852243e-01,-1.148551182414255800e+00,4.048750551683204524e-01,-1.419805890448192637e-02,3.435537194089134383e-01,1.749987024420397719e-01,1.601052403450012207e+00
2.373839571127924764e-01,-1.630160942846697880e+00,7.352607156173505132e-01,-3.764324380276856119e-01,4.013264594728984114e-01,1.224250214993462815e-01,2.370373249053955078e+00
-7.277604572429652308e-03,-9.401510991892811919e-01,7.267297382968777031e-01,1.250893738266182185e-02,6.165614124160372772e-02,-2.515616727735980884e-02,1.451732754707336426e+00
-7.228501852906461800e-02,-9.665204473680205632e-01,9.086350067468385028e-01,4.674993629090681141e-03,1.999072447319583112e-02,-3.568260477286652223e-03,1.624911427497863770e+00
8.077847468609505865e-02,-1.109408431570762410e+00,6.631995756211788162e-01,5.409190117049132718e-02,-2.634802064466210680e-01,-6.811331548548783810e-02,1.637043237686157227e+00
-1.137765137168224305e-02,-9.601537479285959797e-01,8.099476395816450625e-01,-1.582314500204923258e-02,-4.335271694448707136e-02,-1.978041297119204067e-02,1.536739587783813477e+00
5.964747749085275164e-02,-9.322703624142334444e-01,6.004148528760985259e-01,-7.158075204637872474e-03,-3.070071477585922110e-02,-4.566359149176150295e-02,1.349801421165466309e+00
-1.073176150096225856e-01,-6.071723680271111645e-01,8.327110858894740675e-01,-6.119573309875656758e-02,8.299507099422199011e-03,-6.674457437890470024e-02,1.276006460189819336e+00
1.636626018619823097e-02,-8.994198296684220439e-01,9.189816890479327594e-01,-2.202100599657955474e-03,-3.827667018335294963e-03,1.270209646626324108e-03,1.574815750122070312e+00
1.300998911272983199e-02,-9.615179292667136446e-01,7.710993661673642974e-01,-7.506826232417010414e-03,-8.950784609340305467e-03,-1.834881097039244707e-02,1.504859805107116699e+00
-4.466963315301146487e-02,-9.850668827935239458e-01,9.532467152794920073e-01,-5.761215147883839809e-03,4.473934928389560264e-03,-5.161435622448719111e-03,1.678946495056152344e+00
-3.953908146807703222e-02,-1.001565122949151565e+00,9.992862444987297144e-01,-9.362514637459372346e-03,1.578962096322848382e-02,-1.020550018055882413e-02,1.733595252037048340e+00
4.198998425845516802e-02,-9.428237717025794717e-01,6.905870514152152584e-01,-5.674319625794263348e-03,-3.153585108771461698e-02,1.150458599962682002e-02,1.425749182701110840e+00
-1.230290138450883253e-02,-9.503759229416210985e-01,8.216026095403323737e-01,7.259757649882328003e-03,-1.762353928938928393e-02,1.962285381601646360e-03,1.535820603370666504e+00
-2.045472749419076919e-01,-4.445540873791564707e-01,1.030624884026968724e+00,1.665799210979898859e-01,1.317388379182636224e-02,-3.295391614445741801e-02,1.402400970458984375e+00
-2.155099292592508320e-01,-4.002827381119174466e-01,1.255281014124766337e+00,2.290691704727873534e-01,-1.686256292834567919e-02,-5.424699224828018196e-02,1.623646616935729980e+00
-1.958562657904695248e-01,-4.081585798619354888e-01,1.284410367553598276e+00,1.795990115903575435e-01,-5.051053025833221466e-02,-1.671262632633167128e-02,1.629657864570617676e+00
-6.491909834931685122e-03,-9.947740652650116644e-01,9.688329529045156541e-01,-5.296132723025182530e-03,5.873913675630166101e-03,1.783135925649430298e-03,1.700603842735290527e+00
-8.264469832549640321e-03,-9.978140027169937198e-01,9.796686045488597339e-01,-5.301435799064333106e-03,5.832158800615876160e-03,-3.064948214992660458e-03,1.712612986564636230e+00
-4.412576679702848170e-02,-9.889710312019525107e-01,9.708406666070216184e-01,-7.065342484503051891e-03,1.445608143118772525e-02,-7.802549191057234906e-03,1.697891354560852051e+00
-2.017988888773415146e-01,-4.181961381367109709e-01,1.009261620432124973e+00,1.696841272654350807e-01,3.921902947575037213e-02,3.779133074600710129e-02,1.367787480354309082e+00
-3.675228854638296766e-02,-9.954013731996789183e-01,9.632112737514630929e-01,4.549458524834287939e-04,2.025984381161959839e-03,2.565531099152327534e-04,1.696337938308715820e+00
-1.941123588015097323e-01,-3.873270735794958064e-01,9.084597812846990639e-01,1.764316376731925040e-01,3.351751797430099203e-04,-1.481706019139649756e-02,1.249029159545898438e+00
1.248692456655288267e-03,-9.588380644561957933e-01,9.436440099400015269e-01,1.968390219594655030e-02,-1.149051740553261487e-02,3.105655857933835220e-03,1.648103237152099609e+00
-1.702505535718022989e-01,-8.765783192606857455e-02,9.658164872691129554e-01,2.035282603046752459e-01,2.463423344655493175e-01,2.237041850577694418e-02,1.229416608810424805e+00
-6.809621633016567366e-02,-1.194311467576058661e+00,1.185153710114509984e+00,2.090232220339470481e-02,9.821370438613927223e-02,3.466664869906024848e-02,2.069849967956542969e+00
1.362958387153845874e-01,-1.840654890259960652e+00,1.295612139634095605e+00,8.610028679376688365e-02,4.784725706224237651e-01,8.071507538469749332e-02,2.876256704330444336e+00
-1.333833043707463584e-01,-5.555276638166909420e-01,8.889421152628139700e-01,-1.854025751175900072e-02,-6.449493713577905685e-03,-1.954870857112096100e-02,1.287333130836486816e+00
-5.951261730377774284e-02,-1.143259050336361771e+00,1.035031150122130761e+00,-1.246544736036871159e-02,1.339959065069924737e-01,1.904344015533613460e-02,1.901094198226928711e+00
-2.464679603787491013e-02,-9.924157707340175438e-01,9.497467559226485667e-01,1.893105812481675129e-02,2.579254402394895798e-02,-6.991029361044990079e-03,1.682921528816223145e+00
-3.545637552266284187e-02,-9.899044600706354835e-01,9.582874283830689066e-01,9.228053747884234527e-04,4.015914082439604391e-03,4.572551435669583095e-03,1.687331795692443848e+00
2.679601421635602332e-02,-9.647202332275549574e-01,8.035653552592729731e-01,1.080816817041843972e-02,-6.688308519261318419e-03,-1.380079576218485107e-02,1.535483837127685547e+00
-8.792800425805387399e-02,-1.035590611552556384e+00,1.076230026181399291e+00,1.829908485244031296e-02,1.443337789589768383e-01,8.791959892127723664e-02,1.855599164962768555e+00
-8.939616153130808263e-02,-1.062389152875961251e+00,1.045645759769305627e+00,3.236762426817200999e-02,1.850261634475305339e-01,1.247400888169094071e-02,1.856269717216491699e+00
-5.422872070851520593e-02,-9.963863356809550265e-01,9.731078435363964552e-01,1.208201088432886341e-03,1.258406878909896359e-02,9.603938406984251219e-03,1.706385254859924316e+00
1.926186950058794700e-02,-9.386537451280216882e-01,6.563242946837555269e-01,1.592973184684352839e-02,-6.815321132036916696e-02,5.758863457119367882e-03,1.395886182785034180e+00
-6.377279570367061501e-02,-9.710426347460786589e-01,9.150366411535317823e-01,-6.678750373066233946e-03,1.512451001317884069e-02,-3.092256860788005911e-04,1.634035229682922363e+00
-3.915790861774966214e-02,-9.825688997740226194e-01,9.569652876523657703e-01,4.122812397501741596e-03,6.480766088778066279e-03,2.619597364947535284e-03,1.679951429367065430e+00
-6.380381128705503446e-02,-1.106146522102988250e+00,9.513969229114506154e-01,-2.116305403455403036e-02,1.750965023548878841e-01,9.762347632966107691e-02,1.815821886062622070e+00
-3.844669094526702302e-02,-9.621564950151888507e-01,9.396494104301577055e-01,-3.632284706882486845e-04,1.031325626866509346e-02,-1.139316263072503652e-02,1.647451877593994141e+00
-3.789628243980282252e-02,-9.770080770352495003e-01,9.556547913572412956e-01,1.135405733737152338e-03,9.554961400477799197e-03,-5.144573033565239505e-03,1.674063086509704590e+00
-3.667300175817744118e-02,-9.825787161753514187e-01,9.457071500431825095e-01,1.677309515920653079e-03,1.315215048650873048e-03,-2.364658505060843359e-03,1.670053243637084961e+00
-7.445448914249368222e-02,-9.777020954134690855e-01,9.494631355365413805e-01,7.122221230127771417e-04,1.018837941683422253e-02,-4.490433516128193407e-03,1.670176029205322266e+00
-5.894161181214636891e-02,-9.779942068277596157e-01,9.241465433198347013e-01,3.640958121825454367e-03,1.490275452991265612e-02,-1.809339594126650958e-03,1.647830605506896973e+00
1.075964805602679375e-01,-9.328252584394389757e-01,5.567914853513167284e-01,5.312585150940679103e-03,-1.435562893384226962e-02,4.758589090396699028e-02,1.326311469078063965e+00
-8.832031630210186723e-03,-1.028435729118229336e+00,9.443633096340960931e-01,-4.132001331767932994e-02,-6.041342475361406034e-02,3.728619250905897825e-02,1.714729309082031250e+00
9.035557004277178228e-02,-1.089351182242269012e+00,7.080771854770413487e-01,-1.180684868739565949e-02,-9.433399152800218956e-02,3.915658712558025417e-03,1.590339303016662598e+00
-8.508266489566931878e-02,-9.831111225001838427e-01,9.781727265479178701e-01,-4.694398834437169877e-04,2.175628105814907814e-02,-4.069121331017647517e-03,1.700961828231811523e+00
-7.177036035012235304e-02,-9.623934528434437974e-01,9.040204099403554849e-01,7.216851950762060699e-04,1.800668875472790850e-02,5.243256444351188398e-04,1.617224216461181641e+00
1.189433909042567211e-01,-9.709628501785725341e-01,5.143570258809284645e-01,-3.686084538794963394e-02,4.165990694377735837e-02,2.210027068911622067e-02,1.336397886276245117e+00
-4.144458632318397812e-02,-9.668775227314561072e-01,8.666298367005194070e-01,1.144149314786173377e-02,2.207518136173678217e-02,3.487463710739153403e-03,1.588483095169067383e+00
-4.699395891464440422e-02,-9.897260130073404216e-01,9.544273302726444808e-01,-3.340288769330601679e-03,-1.866000828342562548e-03,2.857220400330707979e-03,1.683962225914001465e+00
5.328705859521014332e-02,-9.357014946765588315e-01,6.326954478805520976e-01,-4.145783651500943253e-04,1.075713868136266189e-02,4.430436313715273647e-03,1.373771190643310547e+00
-3.185266458558113495e-02,-9.923120870267770899e-01,9.588402771199024954e-01,-3.929838673358498034e-03,-3.342271385540168758e-04,3.148384246058426837e-03,1.689837694168090820e+00
-1.657742829834593298e-02,-9.920089954435755697e-01,9.660776419947035842e-01,4.447978399294928720e-03,-8.481349030416512197e-03,-5.496297369230768171e-03,1.695864439010620117e+00
-3.390533831029093198e-02,-9.961379313368530219e-01,9.678535894377373605e-01,-3.186735427333301776e-04,-1.729613196380587643e-03,1.354292797997932486e-03,1.700985670089721680e+00
-2.956132771999489886e-02,-9.941234072988661685e-01,9.653176149059281563e-01,8.728087445903853162e-04,-4.552497743346375740e-03,-1.018993631549769451e-03,1.697013258934020996e+00
-2.305799408719448954e-02,-9.633958902297277138e-01,9.521051011959804633e-01,7.144657830493670583e-04,-1.535635750142843106e-02,4.711516327830325181e-03,1.659197688102722168e+00
-3.371118808671297318e-02,-1.060452130184632136e+00,1.025661100712765839e+00,1.354078357705329819e-02,1.246896766660810646e-02,-1.050488149913255016e-02,1.807073593139648438e+00
-3.709765893141790671e-02,-9.756147241295155537e-01,8.952213666744127663e-01,7.322194398946728702e-03,6.904207508148993248e-03,-5.815580325613261062e-03,1.620319604873657227e+00
-3.465557258848026012e-02,-9.978586659914221446e-01,9.675543321955656362e-01,2.456132927214207050e-08,-5.635532125914397353e-04,-2.823811044622916329e-04,1.702209711074829102e+00
-2.958351436591210790e-02,-9.974743512761754527e-01,9.623271414051677297e-01,-2.347966992860263131e-03,-2.788559461356978578e-03,1.462504558274422563e-04,1.697292089462280273e+00
-2.964273812316955276e-02,-9.979273825698861122e-01,9.685424726393943029e-01,-2.446359199531138520e-03,8.352400356121199212e-04,3.795767187242516218e-04,1.703084468841552734e+00
-1.876472070390187707e-01,-4.209519289245784446e-01,8.404272659072129503e-01,-5.556118334888764804e-02,-4.646959407078422172e-03,3.744470670567352083e-02,1.168227314949035645e+00
-1.953606483752896583e-01,-3.463540442076914472e-01,8.502429657389103390e-01,-1.499476715703451368e-01,4.105792686903289058e-03,4.629056767627003077e-02,1.160989761352539062e+00
-1.445453396556423131e-01,-4.592812808070195763e-01,8.594641459811775963e-01,-5.085032657173951115e-02,1.186035745854514475e-02,-3.389212211483511039e-02,1.197796702384948730e+00
-2.037939801972290244e-01,-3.484317544506005948e-01,8.539260637170124069e-01,-1.067576022561328719e-01,-4.246836122798188645e-03,1.430266421798830900e-01,1.178258657455444336e+00
2.074122942794935295e-02,-1.064960932882709210e+00,1.055641241275224740e+00,-5.705566726080672779e-02,-5.077622237190580930e-03,2.794259778826115904e-03,1.839355111122131348e+00
-3.789346380781882795e-02,-9.921073746149099426e-01,9.562591527532583457e-01,1.320406304374058010e-04,3.016732306096653500e-03,3.965522493266137108e-03,1.687475204467773438e+00
-1.960570745028970135e-02,-9.886072797872739182e-01,9.598843104389602754e-01,1.375805828532315582e-03,5.926026857197561667e-04,-2.234820155501290547e-04,1.687453389167785645e+00
-3.340068526266865012e-02,-9.873718149952451784e-01,9.434853249123544838e-01,-2.044721199701605291e-03,5.650316580596620973e-03,-8.078117247029349994e-04,1.672243595123291016e+00
-4.252819143480546238e-02,-9.893058045665513722e-01,9.602738888088607760e-01,1.782453263536905004e-03,8.933198402596662438e-03,3.746264002927352822e-03,1.688704133033752441e+00
-3.666571298023352243e-02,-9.946362919249976953e-01,9.675656263592339323e-01,9.242243352700905187e-04,4.018693048791637662e-03,1.840691819275650128e-03,1.699492096900939941e+00
-3.030309803751154302e-03,-9.847950410662217324e-01,9.545355800327914864e-01,7.432519514412019336e-03,-1.724000870522699597e-02,-7.830453861977336102e-03,1.679922699928283691e+00
-3.842966298355052213e-02,-9.773000394718081019e-01,9.492553376836875278e-01,-2.044331471733628214e-03,-2.505042598683841944e-03,2.896214870233453260e-03,1.668641328811645508e+00
-3.621022511325810295e-02,-9.846671874993309093e-01,9.605404998825302076e-01,-4.807491640797629910e-03,3.949136738624342904e-03,5.869034354213229464e-03,1.684837460517883301e+00
-3.317289837742243980e-02,-9.953207855484623723e-01,9.668880630155076705e-01,-4.309585875431357939e-03,-3.949682764474181373e-03,2.598477010220512449e-03,1.699464559555053711e+00
-3.315831618885679843e-02,-9.855335737556980558e-01,9.517060554281944196e-01,-5.142676546230327134e-03,-7.302312850712460585e-03,-1.061070526930791674e-04,1.677848696708679199e+00
-4.736645689321550279e-02,-9.870040970917097756e-01,9.510043698267367507e-01,2.204536954415597765e-03,-2.563760067994943440e-03,4.094774442151719561e-03,1.678646683692932129e+00
-6.096721848371115110e-02,-9.860758753498933826e-01,9.505954293159127877e-01,-7.089400001414746834e-03,1.598025692869564987e-03,-2.588080858767756540e-04,1.677810788154602051e+00
-8.084425403132541876e-02,-9.897744332236083631e-01,9.692204836971025639e-01,-5.403869035289521686e-03,4.326297388101803254e-02,1.069516560397381841e-02,1.699785709381103516e+00
-5.363487416051504475e-02,-9.839664399598118116e-01,9.391336705909247851e-01,-1.290833809655446938e-02,1.774424899458152847e-03,-2.337078995155286981e-03,1.665903925895690918e+00
-6.651006071013297605e-02,-9.822120827621447781e-01,9.413419256074722075e-01,-1.089813966507001929e-02,1.577979210777519931e-02,7.382859938160249436e-03,1.666863799095153809e+00
-7.722861731900937388e-02,-9.709737847090920138e-01,9.261997812348284898e-01,-7.936793631176483621e-03,2.160742388082401502e-02,3.079345733974018107e-03,1.644407629966735840e+00
-6.427626753802778703e-02,-9.841793084320988871e-01,9.495298041364639285e-01,-1.008230122329640925e-03,1.004970970302918563e-02,1.010713660501864897e-02,1.675482034683227539e+00
-5.810317823787352481e-02,-9.810318639534671981e-01,9.404862928860778792e-01,-4.266750102985579843e-03,2.576772184183069581e-03,2.689765533505400659e-03,1.664542436599731445e+00
-6.802825235120001091e-02,-9.748965373019505831e-01,9.313336454117312480e-01,-3.831298408170961348e-04,5.465473971260103800e-03,6.408119115548419238e-03,1.651556015014648438e+00
-3.771217415297981046e-02,-9.526781328242951430e-01,8.046543653168876098e-01,-1.012768895154574078e-02,3.559871230955063970e-02,1.736883594217202009e-02,1.523973584175109863e+00
-6.626952182614770370e-02,-9.769163094217578891e-01,9.402359537610176510e-01,9.050098710347207181e-04,-1.522757722900349407e-03,4.031136593787834274e-03,1.661011695861816406e+00
-3.732142639450732741e-02,-9.757668960358175658e-01,9.549305909358549727e-01,-4.359832152535026068e-04,-1.364938703683719022e-02,9.874405393173123560e-03,1.672504186630249023e+00
-8.026483239455055319e-02,-9.672678963744703040e-01,9.274547071305245804e-01,-8.396405373007029033e-05,5.997786032836887465e-03,2.274998995143992682e-03,1.642025232315063477e+00
-6.831390835156206376e-02,-9.425060736109616144e-01,9.598800122110549005e-01,-3.729871358628746546e-03,-1.294612194093661822e-02,4.320492503991843480e-03,1.649495124816894531e+00
-8.379791097777308795e-02,-9.777654705983814809e-01,9.493985769634698535e-01,-3.306881226332141735e-04,1.344162432265015063e-02,5.491488194774551621e-03,1.670613646507263184e+00
-6.177949770526608431e-02,-8.632748150636185835e-01,9.187306252648540505e-01,-4.314219312748474033e-03,-1.130720197295635374e-02,3.315684475995789304e-02,1.547063827514648438e+00
-8.034752729194616361e-02,-9.684013212468836063e-01,9.332505155691083187e-01,1.194009185104031142e-04,5.834355415726181181e-03,-2.694547603715321052e-03,1.648112297058105469e+00
-8.757967484304271522e-02,-9.774909450025437430e-01,9.535617233959655659e-01,5.609667486006141512e-05,1.114840863159979184e-02,-1.904277257535771798e-03,1.674163937568664551e+00
-8.732878317787434730e-02,-9.712220829084461382e-01,9.479338887603507846e-01,1.230057408395827251e-03,1.210673768562012254e-02,-2.639053658942101983e-03,1.663899898529052734e+00
1.109628755407263828e-02,-1.000204798024193042e+00,8.624883646847266716e-01,1.164961479547877571e-02,6.702559755456602431e-02,-1.164112132612403532e-04,1.619412422180175781e+00
-6.454167131294211157e-02,-9.652492594549730853e-01,8.937458322205811267e-01,1.520128878749798552e-03,3.555574716479125569e-02,-3.254984571447575720e-03,1.611383676528930664e+00
-6.837298720848844491e-02,-9.772298780187280709e-01,9.457568057361060987e-01,2.583280701241176644e-04,3.865381553198222672e-03,-6.373016450899030363e-03,1.666236996650695801e+00
-5.745100123624344995e-02,-8.957607243000342834e-01,9.260897049307619255e-01,-5.721995149142245548e-04,-1.649542848117924870e-02,1.940814320239013166e-02,1.580055236816406250e+00
-3.963046450872728665e-02,-9.098083776229004549e-01,9.220132888758462153e-01,-2.310214783397960756e-02,-8.377812969085888031e-03,2.833993459494896922e-02,1.588392496109008789e+00
-5.851490023112976280e-02,-9.805173578489128072e-01,9.398315745843274227e-01,4.918570263283412146e-03,-1.727457096712948581e-03,3.806463068175155572e-03,1.663546562194824219e+00
-7.610106075849973339e-02,-9.836431649482768602e-01,9.614999064597175016e-01,-7.335283778067743106e-05,7.289617420321537963e-03,-8.146437087405703631e-03,1.685904383659362793e+00
-5.864006436430460600e-02,-9.803750676676835640e-01,9.392347489213134226e-01,5.898068580423265241e-03,-5.727449627093113890e-04,5.008824559550207646e-03,1.662921071052551270e+00
-5.466739748748962457e-02,-9.872923824993363739e-01,9.592482225390557282e-01,3.496631830322012027e-06,-6.539519528965501323e-04,-6.792485662154009590e-03,1.686285018920898438e+00
-1.196010358177022198e-02,-9.834514390382504967e-01,9.649657379883890274e-01,-7.082102142273025668e-03,-1.130798181748636153e-02,-1.040352200624050823e-02,1.687635421752929688e+00
-5.164111900344758865e-02,-9.864994017003588800e-01,9.548541569294978215e-01,-1.033311080118855209e-03,6.170348604623135391e-03,-3.378312349161400815e-03,1.681688070297241211e+00
-3.843221649507497228e-02,-9.894642775109214750e-01,9.501215394908031353e-01,3.938763479502306424e-03,2.326195885000162053e-04,2.764382976553679625e-03,1.679856061935424805e+00
-4.435416718669914216e-02,-9.904711499728436896e-01,9.624428125850790217e-01,4.092977239187799154e-03,1.233956520621311065e-03,7.441263653389881307e-03,1.691610574722290039e+00
-5.382618240685136529e-02,-9.872627336201310611e-01,9.580285892186822805e-01,-9.288851593355057078e-05,-5.832046593518471801e-03,-1.751515068299473645e-03,1.685160875320434570e+00
-4.683694329810378365e-02,-9.900026080843280507e-01,9.569078072717367434e-01,3.797880975367374980e-03,-1.556408556824280271e-03,3.506577824679927950e-03,1.686371803283691406e+00
-1.455542056475715162e-01,-5.689178397708278823e-01,8.628463989627960240e-01,-7.195802708358683963e-02,-2.240985682428525347e-02,3.536493113071753625e-02,1.282115936279296875e+00
-1.116662897886661412e-02,-9.999135163563785955e-01,9.855170187730796227e-01,-9.209951913321282393e-03,-1.913532554705821287e-02,-7.102467634855065548e-03,1.719875216484069824e+00
-5.489790333450132731e-02,-8.001271541522058106e-01,9.133591692766175330e-01,-2.930513844761645573e-02,-1.996531439410914946e-02,-9.854178103653231727e-03,1.489471554756164551e+00
-3.522186691107227069e-02,-9.942092267531928984e-01,9.608389435626659703e-01,5.600039710491953697e-03,-2.967523984615326460e-03,3.508971154676158543e-04,1.693258523941040039e+00
-3.139011700485573597e-02,-9.938142618885468238e-01,9.665329414488866844e-01,-3.899499293566165148e-03,4.789024237983107411e-03,-5.157638808933455790e-03,1.697860479354858398e+00
-4.816192475282390223e-03,-9.647936767030086402e-01,9.548414942915398607e-01,9.305107494581363672e-03,9.963915511235568040e-03,-6.184752731728970776e-03,1.662654995918273926e+00
-1.612317588282154504e-02,-9.504172341373559041e-01,9.450816083183166683e-01,-1.299719997188702666e-02,-1.904202484590403199e-02,-1.093904750544456329e-02,1.642200231552124023e+00
1.724375241818271176e-01,-1.077081985493455463e+00,3.299704204478770553e-01,-1.024092049648367003e-01,-2.990205619578311103e-01,2.885946716903543818e-02,1.444007396697998047e+00
-1.300964497206038781e-02,-1.018688872116438660e+00,1.013938402497568614e+00,-1.471539674558311993e-02,6.142597331213295146e-04,1.094696759994487519e-03,1.760524868965148926e+00
-3.902106720281421637e-02,-9.960128121966429493e-01,9.536812035148242161e-01,7.713955807749136445e-04,-1.581002140130144396e-02,6.718771109209159195e-03,1.688841581344604492e+00
-2.220025174605718410e-01,-3.600397141864108974e-01,1.311135495308801246e+00,-2.201948987239915334e-01,6.874406119059910114e-02,5.669919173463882495e-02,1.658455729484558105e+00
-2.570663800564792004e-02,-7.868962597111549551e-01,8.910990694220531916e-01,-5.062305584347724305e-03,-9.607540588277625748e-03,1.943112420482396609e-03,1.455393552780151367e+00
-5.125136840010403871e-02,-1.014522728638149296e+00,1.019446220373370071e+00,8.689931897785477602e-03,-1.331288733691336074e-02,-1.114051874073504781e-03,1.762503743171691895e+00
-3.299513690958008616e-02,-9.802525270819438807e-01,9.621188701705096769e-01,2.405310129133623196e-04,6.194447440970543561e-03,2.789792993498400441e-03,1.682354331016540527e+00
-4.698274752630633017e-02,-6.566197714522773454e-01,8.652913267512185591e-01,-1.504873947123120392e-01,2.236135638208886639e-02,1.877558923210137162e-02,1.352979779243469238e+00
-1.654367858019906989e-01,-1.414005226072248267e-01,8.428462136495941115e-01,-5.189750560009041662e-03,1.928681721053741860e-01,1.836802551542579265e-01,1.098119974136352539e+00
-2.766648435437613074e-01,-1.825942463191998488e-01,1.312462771317980170e+00,-2.073548534709915292e-02,-4.398671768055036069e-02,-5.402075084741733701e-02,1.549365878105163574e+00
1.012398357889749689e-01,-9.440656718975141137e-01,5.536455663932227100e-01,-1.406857896109280385e-03,-1.895266040378030745e-02,-6.683285344770255321e-02,1.335934162139892578e+00
1.853406590325398229e-01,-9.480793106334729492e-01,2.317766560896956651e-01,2.410066566017124434e-02,-1.111782716853180614e-01,-1.857654488775434543e-01,1.217283606529235840e+00
-2.507709072823819524e-02,-8.279765903162668028e-01,9.070293736994646805e-01,6.129809565200985792e-03,-2.607609743161547200e-02,8.517873728751247306e-03,1.504735231399536133e+00
-3.530898417666731431e-02,-9.826470049705691157e-01,9.606625182804003904e-01,2.072610813903782816e-03,-4.017529783909403254e-03,-1.183016095399550081e-03,1.683150529861450195e+00
6.904758660883354715e-02,-9.489601651420134232e-01,6.750749138336956667e-01,-3.945932531444978388e-03,7.939211547712219166e-03,1.029161182455509693e-02,1.421655058860778809e+00
-5.656950434004573425e-02,-9.937226906003763238e-01,9.741439695075184702e-01,-1.213107716331731940e-03,-1.292236207160393432e-02,9.598137535764347458e-03,1.705093741416931152e+00
-2.397585856962169415e-01,-1.511010506004109688e+00,1.825745199004118247e+00,4.964115197894989340e-01,-9.404389512439287335e-02,6.173375363186553444e-02,3.047195672988891602e+00
-5.531461583447601360e-02,-1.238803423002732051e+00,1.189111313379537238e+00,2.003149285540753444e-01,2.523784550462452869e-01,-2.322572221406073514e-02,2.176025390625000000e+00
-2.790617328071022252e-01,-6.802958624618840044e-01,1.592816093703915081e+00,-3.453591649083027626e-01,-5.414274055929960139e-02,1.042322329840001394e-01,2.194352626800537109e+00
-7.622881547812407343e-02,-8.006513844052655093e-01,9.106944782700515661e-01,3.571038473153968773e-02,-3.372763244437530783e-02,-4.072275124210892466e-02,1.491968035697937012e+00
2.807886983879562953e-02,-9.501420459093621318e-01,9.921234335893626133e-01,-1.099879086495181152e-01,5.094012554404928408e-03,-1.142603627781341342e-02,1.692958354949951172e+00
-1.825335084095829896e-01,-3.425403711437483567e-01,9.597878380906769147e-01,-1.537215756352325324e-01,-4.815929230190047622e-02,-8.994349372356748307e-02,1.270983099937438965e+00
-7.778859104341755148e-02,-1.222909161644599285e+00,1.241641317568564329e+00,-4.838869793042123446e-02,4.961328738479723471e-02,-2.034722073530856670e-02,2.139802217483520508e+00
-2.629342675725838685e-01,-2.544062981881077823e-01,1.417907486455895594e+00,-1.123472355430583103e-01,2.676900729350918315e-02,-4.361540642637494469e-02,1.690174579620361328e+00
-6.620018135879854326e-02,-1.022268889886884358e+00,1.042366295275340082e+00,7.440429227312989752e-03,3.207294348806045969e-03,-1.282197410354352822e-03,1.789708018302917480e+00
-9.831226323110321685e-02,-1.114804794089462980e+00,1.233781550451827469e+00,3.486687032452836510e-01,2.999744805605263354e-01,-4.966295346475284311e-02,2.191770315170288086e+00
-3.685124370556705498e-02,-8.588938612838471487e-01,9.285527274007899790e-01,4.428418874372678365e-03,-2.961419318662952826e-02,1.209383139516713099e-02,1.550642013549804688e+00
-2.946178703830130627e-02,-7.850257237548746714e-01,8.926805104664917723e-01,7.361819179812837712e-03,7.577057888068328834e-03,4.201849807690200759e-04,1.455436706542968750e+00
-2.315222978620763705e-02,-9.852154815750325811e-01,9.616533383845679017e-01,3.050267399997698328e-03,-6.685752030492648872e-03,3.093321257906348626e-03,1.686132788658142090e+00
-1.861554894292736795e-01,-3.717775958814118487e-01,9.596879554674326851e-01,-1.908054664895412200e-01,6.283230760031754958e-02,1.188358353535987344e-01,1.312835216522216797e+00
-2.537822994453517444e-01,-4.823706397475073238e-01,1.471961850362032420e+00,-3.017830565039194002e-01,-8.815270236069891463e-02,-5.878901535162626285e-02,1.931794643402099609e+00
7.803889968560165369e-02,-9.458689909069877277e-01,6.643686684861591640e-01,1.309988898779198066e-02,1.237245372694898912e-03,1.202794710257834056e-02,1.411903381347656250e+00
-1.657948685500959876e-02,-9.508551648098991782e-01,8.500180698577094462e-01,3.681118253497925492e-03,3.828618456525061803e-02,-2.329011270596614835e-02,1.561911940574645996e+00
-3.941357218194833922e-02,-9.784212430178058639e-01,9.365229639902941106e-01,-1.235197017822216737e-03,2.742601288645821547e-03,4.087561311305052889e-03,1.658516407012939453e+00
-1.220432890286187594e-01,-1.557327830470740304e+00,1.649700843229216396e+00,4.905810989501735442e-01,3.141528110930752460e-01,-1.340658265335756827e-01,2.968852043151855469e+00
-1.401898406096858118e-01,-4.975169943306389508e-01,8.302376810728426815e-01,5.342762639393501545e-02,4.673108506132365655e-03,-7.058452675273206925e-03,1.193713068962097168e+00
-1.833314672887384478e-02,-9.696605521109485926e-01,8.733770297175994513e-01,-6.826218678663706829e-04,2.460488870642252648e-02,-4.200682536947752607e-03,1.596981406211853027e+00
-4.430776705000667032e-02,-9.642321383009150315e-01,9.385922245545791354e-01,-4.203135852141440840e-04,-1.592671389490471056e-03,-2.590673159367889479e-03,1.648203611373901367e+00
-6.525114734135196992e-02,-1.015943425494360897e+00,1.032398600668933630e+00,-3.683679335688331657e-04,-1.142665013710553526e-02,-3.729389310494416691e-03,1.775559544563293457e+00
-4.071449725937986708e-02,-9.719617060278713527e-01,9.344415742487648391e-01,-4.650183117255982275e-05,-8.543380874147965976e-04,3.617177064390384150e-03,1.651152133941650391e+00
2.918703887005735451e-02,-9.613705747139105195e-01,9.384137583974948571e-01,2.238576011424590374e-03,-1.222564135350433928e-02,1.483342331258918423e-03,1.645906805992126465e+00
-1.179347142405277743e-01,-6.338285157626416533e-01,8.909124241668564537e-01,-1.025929745594265224e-01,2.324030276372326866e-03,-2.715330729331778825e-02,1.355795383453369141e+00
1.185889080944850238e-01,-1.016808590864576312e+00,4.887534218058225410e-01,2.894041830599596021e-02,1.557445562281439475e-02,-1.497312419709634634e-01,1.384533047676086426e+00
-6.457586523413701152e-02,-1.203527104133195857e+00,1.259316984040057319e+00,1.631319381378906752e-01,2.020363806711754640e-01,8.749696795856101716e-02,2.187009572982788086e+00
-3.542746240474420327e-02,-9.727613225615976411e-01,9.331139008343825036e-01,2.342675351244719300e-03,-9.519652100157716297e-04,3.626806997307282978e-03,1.650627851486206055e+00
-4.191160909966165637e-02,-9.597225942269995702e-01,9.238852680188806010e-01,-1.592019035898264252e-03,-2.861457478231952279e-03,-8.833629801927910322e-03,1.631510257720947266e+00
-5.801191129473932256e-02,-9.291850574951910913e-01,9.393192529671426927e-01,1.068038019094346217e-03,1.645714114227601063e-03,-9.690254874180261740e-03,1.619491696357727051e+00
-3.995128268070935462e-02,-9.792233615299601457e-01,9.392201405463564967e-01,-3.223643512695027052e-03,5.091808372790135317e-03,8.684975921976428523e-03,1.661641478538513184e+00
-1.871040265270040859e-01,-6.273885841676308806e-01,1.232174340769268461e+00,-3.244270777451554455e-01,9.503803972765961783e-02,6.384428049599583099e-02,1.785545229911804199e+00
-1.104207369298649266e-01,-6.617919084921261019e-01,1.040472175789829201e+00,2.903101379958512029e-01,2.585014947425655629e-01,-1.203023933996437596e-02,1.648295164108276367e+00
8.123733598246682397e-03,-9.916692238261296533e-01,9.694546591960655491e-01,-2.377981277922942491e-02,2.044990154900745705e-02,-1.466785633647104369e-02,1.699550390243530273e+00
-1.001389805578291187e-01,-9.482683170810309869e-01,1.119381319836759259e+00,2.367394071936649580e-01,-1.856289463579153254e-01,-5.800717216843198631e-02,1.876824378967285156e+00
-5.921861082316575570e-02,-9.562652217738766280e-01,1.122731780652092892e+00,-2.599542972287858245e-01,-1.153089452036408079e-04,2.521607419115646717e-02,1.861880779266357422e+00
-2.445973174977581974e-02,-1.006381851839572406e+00,1.082025651346848694e+00,-1.137721484823706608e-01,4.371951805793022894e-02,-1.415848267771860174e-02,1.822122693061828613e+00
-2.990252047487353126e-02,-9.774317167150327057e-01,9.145433321220134415e-01,-1.018874874799068075e-02,6.278484918149130484e-03,5.316414031683272534e-03,1.638656139373779297e+00
-7.564837380412832435e-02,-1.015133737855953289e+00,1.082620501338348529e+00,2.189415274815336154e-01,-1.684320380299351161e-01,9.553091558697290875e-02,1.889097332954406738e+00
-3.942393494808293930e-02,-9.556571651543047663e-01,9.508941515521104337e-01,4.513208709977254394e-03,1.239467668674716812e-02,-5.468522715676923072e-03,1.651722550392150879e+00
-3.690131881251391965e-02,-9.135890692312731431e-01,8.761329981072413231e-01,7.573533113992970793e-03,-2.496941824855916994e-03,-5.283181264783931401e-03,1.550139904022216797e+00
-5.895098395728651242e-02,-9.464338141116384051e-01,9.378982893950827959e-01,3.461088574845238436e-02,-1.457696608917908795e-02,4.536105285823235217e-02,1.635978341102600098e+00
-1.346467840788338477e-01,-2.755232535386833992e-01,6.757265158627181467e-01,-8.366416594730398393e-02,2.190867104482286873e-02,1.493935922241737269e-01,9.381406903266906738e-01
1.464882499427703488e-01,-1.162018768593186868e+00,4.419397669992016775e-01,-2.450461705900026654e-01,-3.511928288218036931e-01,1.668749457666783564e-02,1.654409289360046387e+00
3.926154192943571986e-03,-1.112111141818081128e+00,1.218972180529980687e+00,-1.434161498904280019e-01,1.486923719027943847e-02,-1.714124551941164677e-03,2.034770011901855469e+00
-1.847900801310869284e-02,-6.728783992460208863e-01,5.535713659086932692e-01,-2.463345606007846800e-01,-2.412060148019943562e-01,-1.181731145207320643e-01,1.236247301101684570e+00
-4.963769985827788667e-02,-9.732885679659942779e-01,8.870183019581618922e-01,-1.462633000440877011e-02,-1.117324704114842741e-02,-1.603979167267305730e-02,1.611640930175781250e+00
-3.449375665310693007e-02,-7.842972932178245982e-01,8.923927265117717056e-01,-1.010697692853769480e-02,8.244181587605956679e-03,3.458818025904516168e-03,1.454940915107727051e+00
-3.406808982904740990e-02,-9.835832612342646497e-01,9.575342015677175134e-01,-2.142282551789826198e-03,1.138769699221794940e-02,-5.552878873546573425e-03,1.681336045265197754e+00
-5.195665517501131536e-02,-9.916408394315275876e-01,9.632150989783136996e-01,2.275189048849402765e-03,-3.470302312301617922e-03,2.409910424205171774e-03,1.693395972251892090e+00
-1.881556367894557102e-01,-4.142746966611307036e-01,9.002911165867123477e-01,-1.628310496167649224e-01,2.907468051242331764e-02,1.561287656697762927e-02,1.250909209251403809e+00
-7.058028378388771229e-02,-1.060513442914134963e+00,1.101895880297144803e+00,1.335320640123912120e-02,2.166166123056602680e-02,-2.833213936155969809e-02,1.876084208488464355e+00
-1.741439984765462134e-01,-4.245525304489149998e-01,1.007114887293169891e+00,-3.188152400024936162e-01,7.209697776903790933e-02,-9.157283165216305310e-02,1.448983907699584961e+00
-8.759130878110998886e-02,-7.215908407824850324e-01,8.950241748901616168e-01,-1.267498895783376323e-01,2.287606049221862364e-02,-7.426554978882647651e-02,1.434147477149963379e+00
-1.746081526671338646e-01,-1.783787941300176150e-01,1.210262358357935719e+00,-1.732121804228124035e-02,-1.238876445815285075e-02,-5.743792930877191644e-02,1.390812754631042480e+00
-4.115306370421442650e-02,-9.730307107498592512e-01,9.608661913742209126e-01,1.043012135743991674e-02,-1.485900125045123976e-02,-4.418747475185094177e-03,1.675483584403991699e+00
3.198703359284618686e-02,-9.127392897596585675e-01,9.260433836316910305e-01,-4.229893378920054209e-02,1.989265529669708365e-04,-4.785637434218109956e-03,1.594339847564697266e+00
-2.131235508054672989e-01,-2.604326286066081519e-01,8.673261385550479208e-01,6.490805483079408605e-03,3.280692689570395559e-02,-1.065971278474367734e-01,1.121681213378906250e+00
-1.795513778727857446e-01,-2.584391961400812066e-01,1.244767593687105878e+00,8.213669802946306497e-02,4.201538806476182164e-02,-6.439310208282075787e-02,1.478257060050964355e+00
-3.372750385581328725e-02,-9.729118522446760231e-01,9.289551790914474250e-01,-5.365191226611961892e-03,-2.199337766949117923e-03,5.858539866156762047e-03,1.647168993949890137e+00
-1.949625006194692922e-01,-2.407350604853019105e-01,1.336787784856416472e+00,-1.402812432563108891e-01,-5.893590089622664091e-03,5.525140305375487310e-02,1.576948046684265137e+00
-5.296960620772804551e-02,-1.025313858108335419e+00,1.035420215561750235e+00,6.737234371139824533e-03,-9.162518176230403238e-03,1.744003257559622981e-03,1.785702228546142578e+00
-2.583597890880158163e-02,-9.611878908959693435e-01,8.400283649089549387e-01,1.317287994374987878e-02,-2.588026184744578791e-03,-4.513013398944174318e-03,1.560478687286376953e+00
-1.570223012604640700e-01,-1.562818721804091759e-01,9.898883186847595717e-01,-1.017455814515951934e-01,-1.288752425631870535e-01,-8.177706588428958201e-02,1.189748167991638184e+00
5.078870721380757125e-02,-8.763859401080990041e-01,6.159663200050278231e-01,8.345547895130792440e-03,-1.580220370351015369e-02,9.924146622754077829e-02,1.316663026809692383e+00
-3.091921873933938664e-02,-8.639675499363909106e-01,9.252447045579825780e-01,-6.421787422760170602e-03,2.224977370581418881e-02,4.418148137946376758e-03,1.551263093948364258e+00
-1.890605389228984246e-01,-2.290663614608977605e-01,1.313543727888134560e+00,-1.075331197011046569e-01,-7.520548359526212090e-02,5.194446771045194144e-02,1.542493224143981934e+00
-6.564345362805876216e-02,-9.521026232360919606e-01,9.596041770273813221e-01,2.053426919025420558e-02,-1.285377763272600900e-02,-8.641592862699866429e-03,1.657639145851135254e+00
-6.524281208579600644e-02,-8.601592568095440816e-01,8.971533275275229702e-01,2.654322363500686427e-02,-1.469282404389745701e-02,-3.335767389235500674e-02,1.526179075241088867e+00
-2.304225173811167982e-01,-1.260533139238416700e-01,8.786878212207700489e-01,-1.997430538150069337e-02,3.884364463935990712e-03,6.735423288214474613e-02,1.067761063575744629e+00
-1.613481181085552746e-02,-9.781936178902462808e-01,8.367463810006943170e-01,-1.629976327120150406e-02,-4.812695772517898429e-02,-2.970067698589740068e-02,1.576032161712646484e+00
1.162899217786657335e-02,-1.200079658808129723e+00,8.463902909844368549e-01,-4.400426855788235891e-01,-3.709985717116730530e-01,-1.445530583816348469e-01,2.057442903518676758e+00
-9.163437863346958132e-03,-9.758267205328644556e-01,9.540812803777773965e-01,-6.350667761235785939e-04,8.436007220104296475e-03,-4.895816468621112935e-04,1.671414732933044434e+00
-1.379174428250437290e-01,-5.281702439179785102e-01,8.455059002079723385e-01,-6.131712476045567822e-02,1.190371450667595393e-02,8.247581522088490852e-03,1.230898380279541016e+00
-1.460073270480271440e-02,-9.401279974516310034e-01,7.755089383945070747e-01,-3.981273048942348021e-03,-1.036743549447571508e-02,2.347722180369676229e-03,1.487457036972045898e+00
-7.478611756513431352e-02,-9.657714810760980040e-01,9.241216778195389114e-01,1.150046238432402348e-03,-2.447967256886078493e-03,-1.758136491116465462e-04,1.637591481208801270e+00
-4.298024685318702770e-02,-1.207593632507909076e+00,1.128310741824108066e+00,-1.924219692725565312e-01,-2.004878575528154794e-01,-5.676709862635569148e-02,2.081749439239501953e+00
-7.401128577797108643e-02,-9.653489179651132401e-01,9.073699809846947906e-01,5.148640461990826138e-03,-1.452262917358195481e-02,5.718514379025672889e-03,1.622696638107299805e+00
2.193012287993313381e-01,-1.394368481943947913e+00,4.258850212181399808e-01,-4.461282145662213289e-02,8.963772500573521929e-03,-7.150628977802470088e-02,1.732488393783569336e+00
-6.576916690077439995e-03,-9.915930759703277531e-01,9.662835623138136265e-01,2.024693643391450512e-03,1.118855466566016574e-02,3.504639491453354506e-03,1.695707082748413086e+00
-1.748201310238020334e-01,-4.399995909297278462e-01,9.585090942814699089e-01,-1.783032552506710888e-01,-1.510959103287802703e-02,-2.653579192562641187e-02,1.324184417724609375e+00
-2.102648426920626923e-01,-1.458467471970484319e-01,8.882643650268515767e-01,-1.699048711287242108e-01,-5.231846439764616108e-02,5.681303215730284378e-02,1.115638256072998047e+00
-2.432709568892500174e-01,-3.548048489069138833e-01,9.734111458140758399e-01,-4.314589829651379466e-02,2.142421488423170914e-02,-4.343112156814275121e-02,1.281045198440551758e+00
-7.362367797676611092e-02,-9.189521323431704136e-01,1.121031462120310573e+00,-2.681344782899213186e-01,5.091969129141853470e-03,5.066899909898968379e-02,1.837151408195495605e+00
2.775216849141780573e-01,-1.516174757632346548e+00,4.066350298081761183e-01,-6.971799566745429111e-02,-1.014678502981115893e-01,-2.388375249335325801e-01,1.918907642364501953e+00
5.606001592488580980e-03,-9.681358207293063733e-01,9.476377969975829929e-01,-3.624697185624661117e-03,6.888345105832510001e-03,1.804325472730670867e-03,1.659242153167724609e+00
-2.231934110229497753e-02,-9.584297883071321023e-01,8.392798496434857869e-01,-1.116088071996032202e-02,-4.773469368193834599e-03,1.686999467033698180e-03,1.557452559471130371e+00
-2.063361228238654310e-01,-3.336410488429379928e-01,9.605817392018825007e-01,-6.972437766805450465e-02,1.070505734242403230e-02,-3.450512580502013843e-02,1.242963552474975586e+00
-2.325764954068556059e-02,-1.190469193281489702e+00,1.196897828551557463e+00,5.957068245009451007e-02,-2.664611151772516839e-02,1.543353281580595385e-02,2.070949554443359375e+00
-1.850308950137639560e-02,-9.786493404640901339e-01,8.774309532594610772e-01,1.368527306239396973e-02,-9.165317018231131097e-03,-1.113289491337091401e-03,1.607987523078918457e+00
-5.432562558163660932e-02,-9.641440378541510370e-01,9.346450982791028039e-01,6.305190616795592479e-03,-1.837605152832563413e-02,4.320632659152182087e-02,1.646921038627624512e+00
-1.770879986010423512e-02,-1.067818874310772159e+00,1.034052240067969031e+00,1.628404488553336985e-02,-2.849657023985198087e-02,-1.817407972465259758e-02,1.821433424949645996e+00
-1.371938099839993819e-01,-3.475743884490709035e-01,8.642038215034515414e-01,1.858593782416536888e-01,-9.339406239470182669e-02,-5.548103246511283670e-02,1.181848049163818359e+00
3.289679530306684890e-02,-9.284740683318881693e-01,9.221353345225947740e-01,-1.622264966806216333e-02,3.408067417974936213e-03,1.461158914683098956e-03,1.603339552879333496e+00
2.110932992718019333e-02,-9.496474693900922581e-01,9.386182578886193006e-01,9.608081915307093226e-03,8.668396919956302196e-03,5.413953129726974166e-04,1.635656595230102539e+00
-1.563786590839882223e-02,-1.009294048561229173e+00,9.926869062041524527e-01,1.638404298622393729e-02,-8.820299447475025978e-03,-4.842164376400706974e-03,1.734101653099060059e+00
-1.801684750691269835e-02,-1.017088473924178782e+00,1.009930121700339356e+00,1.553766081812742866e-02,-4.838084348086952799e-03,9.327505944139742990e-04,1.755735993385314941e+00
-1.165773281230499947e-01,-5.832656758132618302e-01,8.636441804858094873e-01,3.855097513821551664e-02,-1.556649965129088507e-02,-2.139548734186157153e-02,1.281658649444580078e+00
-3.477407830240599601e-02,-9.797856665671413889e-01,9.685360683414782068e-01,-2.416614926975614846e-03,-7.512137757393419360e-04,-1.462986496722239703e-02,1.687743782997131348e+00
-4.194218932452575127e-02,-1.750803171130607794e+00,1.592683694667769378e+00,3.409875359866691991e-01,-4.410621523075502481e-01,1.288425252618464328e-02,3.052618503570556641e+00
-5.708692356080895258e-02,-1.023066230409907629e+00,1.028102377395428091e+00,5.741429241884961863e-03,-3.734835521684982951e-02,-2.762344600438381564e-02,1.779211878776550293e+00
-3.614251842180005170e-02,-9.611325402906983895e-01,9.370356968055243430e-01,-2.570633575447877836e-03,-9.057651112942637778e-03,7.983193899201601607e-03,1.644177556037902832e+00
-3.209859568950956810e-02,-1.083652930527744696e+00,1.008590502801018696e+00,4.119557715070438358e-02,-1.345425380351116806e-01,-1.565131228794543541e-02,1.828461885452270508e+00
1.052652733526771578e-01,-9.604711296350650906e-01,4.791046001902321549e-01,1.395603176153436056e-03,2.192168324838736915e-01,-1.343101168752440164e-02,1.348584175109863281e+00
-2.777570921363767438e-03,-1.008602150185258228e+00,1.009406242164847978e+00,3.832323689067071437e-02,-1.132237722149642516e-02,5.625136645507432427e-03,1.749046564102172852e+00
-1.718592027497954366e-01,-5.982628405607990363e-01,8.774249400279008348e-01,1.455320117542185758e-02,2.400475907529768874e-02,-1.383994184864527875e-02,1.316500902175903320e+00
-8.147004007534261460e-02,-5.240057466339407277e-01,6.684864176202124364e-01,-9.375747514480511913e-02,3.267804092388204573e-02,1.277236011687300499e-01,1.081050395965576172e+00
-1.665616929339072683e-02,-9.484336512457673951e-01,7.919254849009333963e-01,-1.578278096145838832e-02,-6.601501722921425917e-03,-2.444834940019698089e-02,1.509338617324829102e+00
-1.357324178499169642e-01,-9.177880338451805953e-01,1.113568324814329102e+00,4.912863570942946345e-01,-1.911790037872051484e-01,-4.160614767615001923e-03,1.995788812637329102e+00
5.203090793601314323e-02,-9.297693294396648378e-01,6.332216402769326180e-01,-9.089309605365808106e-03,1.255746519504555465e-02,-3.144634396912212616e-03,1.368604421615600586e+00
8.892854841186381698e-02,-1.886206096375093511e+00,1.483215876383713772e+00,-3.802506264178746043e-01,-5.208326846405009203e-01,-4.250833229269261604e-02,3.138804197311401367e+00
-1.316612706080314173e-02,-1.000400566430514671e+00,1.007653300879607583e+00,4.411071845881024689e-02,-2.786936694237485482e-02,-2.004162937798597416e-02,1.741799235343933105e+00
-1.889971264250637217e-01,-1.739396063463482855e+00,1.985203526063943347e+00,5.454100477351134790e-01,1.598481635572888138e-01,6.152429974583158157e-03,3.386878728866577148e+00
9.542975528608332869e-03,-7.699130225793343607e-01,8.867261695022462531e-01,1.080072529380827900e-01,2.736297871677805839e-03,7.908442535478920656e-04,1.447670102119445801e+00
6.382197846157053323e-03,-9.687288177837226621e-01,8.275239137978002146e-01,1.116387673268841654e-02,3.566187133182515973e-03,1.280679312319610644e-02,1.557794451713562012e+00
-1.063055182818094108e-01,-6.103053036615293525e-01,9.166507124829729181e-01,-1.960114855473736595e-01,-2.705790360390571136e-02,3.501311125100364796e-02,1.391819119453430176e+00
-1.636025211336557955e-02,-9.404915928710637640e-01,9.494526342781370865e-01,5.159780700306879531e-05,9.425486869059990919e-03,-2.625796530097647321e-03,1.636960148811340332e+00
-7.998607203221094059e-03,-9.928609525000998692e-01,9.689555939083434044e-01,1.066070405938891567e-02,6.584486686156604263e-03,7.545389132742810236e-03,1.699176430702209473e+00
-6.296840696778149837e-02,-1.038297763422176168e+00,1.047887566003337323e+00,8.858308857984286550e-03,3.913876709418216172e-03,7.261677532132753896e-04,1.808038115501403809e+00
-7.899465775081895846e-02,-1.006930435876533192e+00,1.014110026259916753e+00,-5.464482427491039636e-03,2.800743360954780631e-02,-1.503933874739747482e-04,1.752916574478149414e+00
8.911793396374255438e-02,-9.390895687071415532e-01,5.855908210636945332e-01,-5.367370852665456250e-03,7.246320076068643590e-02,-1.705035625327796026e-02,1.353101849555969238e+00
-1.478099925752011379e-01,-1.520758880892743248e+00,1.721263672272922873e+00,5.225861718662777600e-01,3.281849100040248324e-01,3.211888725459072225e-02,3.014973878860473633e+00
-6.799321421205840876e-02,-1.244004989780050030e+00,1.271729759784194780e+00,2.071040810649760547e-02,1.239946080544791426e-02,-1.196691524011900612e-02,2.180726766586303711e+00
-1.879680595468278051e-02,-1.015197277704817047e+00,1.014040866684902564e+00,1.218497373043703376e-02,-3.768227943892191699e-03,-8.532138950498855713e-04,1.757605671882629395e+00
1.159886243210992707e-01,-9.482441598772288760e-01,5.539798725006525038e-01,9.861696256969992684e-04,-4.540201880289324726e-02,-3.491730124231435389e-02,1.341788768768310547e+00
-1.441512804740401887e-01,-5.702859817635782536e-01,1.019088955969412735e+00,2.116657339684988592e-01,-1.800764473664969723e-01,-8.275939961475270445e-02,1.510845065116882324e+00
6.443356034623462514e-02,-9.332915808529747004e-01,6.058328821051894852e-01,-1.124343582366722771e-02,-5.305246747887791547e-02,-2.227989396473091521e-02,1.356115221977233887e+00
1.177028135595393488e-01,-9.399729648150280115e-01,5.382790507912722511e-01,-8.043687237173025029e-03,6.380752710815533468e-02,2.829429862380675523e-02,1.324841737747192383e+00
1.447770956032245482e-01,-9.412226167979839131e-01,4.608435999776943071e-01,-2.071752372512825763e-03,-1.499628758014390738e-02,-1.350459464497474373e-02,1.274274826049804688e+00
2.206928317332595701e-01,-1.013304150263602876e+00,2.685579176325212369e-01,2.199874494977474906e-02,-1.182527501596488118e-01,-7.067123169777146663e-02,1.281597137451171875e+00
1.556802289525316407e-03,-8.544611966158719429e-01,9.173388632987583557e-01,3.298930814633232317e-02,7.436492251561770822e-03,3.147805752499855877e-03,1.535841822624206543e+00
-1.160053105114184357e-01,-2.060574046247112712e+00,2.090111417151277795e+00,1.159050567240712398e-01,-1.013386879457912615e-01,-6.185106041141267587e-03,3.606864213943481445e+00
-7.867876937786814906e-02,-9.999268949062948275e-01,1.012339940900026880e+00,-2.792069028038110350e-03,-2.030777294535090691e-02,-7.599876922602208807e-04,1.745102047920227051e+00
1.514119297945172582e-01,-9.388899281451642542e-01,3.608817624194132767e-01,-1.339891193312678017e-02,1.331308753115755250e-01,4.182618960402705727e-02,1.232874512672424316e+00
-2.237760568781999304e-01,-2.899926687752301113e-01,8.307637534075179575e-01,1.878221088649332723e-02,2.409421836262054528e-02,-5.483250000047329605e-03,1.090484738349914551e+00
-1.238492570889672059e-02,-1.008186240614379559e+00,9.938671486156143153e-01,-1.300681635468668197e-02,-5.289162616364427409e-03,4.432302641068218418e-03,1.734024524688720703e+00
-1.566900798797331573e-01,-5.718332782697808092e-01,8.831957122162455986e-01,-4.656921498429145850e-02,-5.733140296260999524e-03,3.094372661082246678e-02,1.301877498626708984e+00
-5.545457502490643703e-02,-1.017813138499821690e+00,1.025949104686351365e+00,-5.626023154390523764e-03,9.990259942480617453e-03,6.548235552692207445e-03,1.771098256111145020e+00
-1.175380955045943025e-02,-1.004203982972765585e+00,9.852621780802089946e-01,-1.611758478380523373e-03,-4.930867179435012224e-03,1.480310263767840775e-03,1.722955107688903809e+00
6.148865272307835021e-03,-9.836183054344768140e-01,9.980356972068904486e-01,2.109597492974749772e-02,-1.826922517843691807e-02,4.459802160007474083e-04,1.716843724250793457e+00
-1.991740784570394246e-02,-9.568988660650271649e-01,8.226358870113147370e-01,1.391851027670158551e-02,-1.999117687886030597e-03,-2.637351518067381981e-03,1.542044520378112793e+00
-1.417188932235145978e-02,-1.021016302325095104e+00,1.026972593257083899e+00,1.803175436421615777e-02,1.569517710589623041e-02,8.944504349078069225e-03,1.774244189262390137e+00
-5.959237810197361151e-02,-1.049853419433485646e+00,1.066772304160014118e+00,1.696979310871542419e-03,3.266291422011133230e-03,-6.382617518062875736e-03,1.834358811378479004e+00
1.528370575146975330e-01,-1.030303659748156075e+00,3.079247929352620927e-01,-7.345670102137978608e-02,3.626550244011767649e-02,-1.088856836621488883e-01,1.289599299430847168e+00
-8.162367391696920271e-02,-9.763842217226899045e-01,9.469831863311121145e-01,3.225601960676248111e-04,1.072139188524832976e-02,-2.192744385758668875e-03,1.667136788368225098e+00
-8.492921718704804501e-02,-9.881686669580812543e-01,9.810173375640580673e-01,-1.453451308534499083e-03,2.151928294669547964e-02,-2.374052567317323954e-03,1.707718133926391602e+00
1.758763020426160756e-02,-9.436498889390834144e-01,9.366563795195349540e-01,5.520866265619125794e-03,6.004873257341122351e-03,4.823978902099468509e-04,1.628590941429138184e+00
-1.728857208646520371e-01,-4.385489068484416109e-01,8.423913766957512594e-01,-3.444994917607640232e-05,1.055340431215837441e-02,-5.303973397891695307e-03,1.171112656593322754e+00
3.054122850844633030e-02,-1.720260679203821974e+00,1.433197408997014533e+00,3.532850298913677300e-01,5.033069936735712346e-01,-4.971582157004408864e-02,2.937741279602050781e+00
-1.072577004762085423e-02,-9.422983744933099981e-01,7.582054813403166227e-01,5.330766544153918776e-03,1.062612358429027015e-02,3.482290927833660028e-03,1.475079178810119629e+00
-1.778833781906049849e-01,-5.376968890070915608e-01,8.737061715812608487e-01,4.080110824442959028e-02,9.756887031352049974e-03,1.985244557798298073e-02,1.272848963737487793e+00
-6.454372930729766755e-02,-9.903314180793738597e-01,9.688987298468866305e-01,-5.082995311365938115e-03,1.308963090017340423e-02,9.449610099252920767e-03,1.697849750518798828e+00
-2.163435703138124055e-01,-5.294926372805131010e-01,9.748778640279347485e-01,8.490654895241452407e-03,2.110179776836857649e-03,6.218649748391924525e-02,1.379105448722839355e+00
-1.720464374098607252e-01,-3.064647609537024531e-01,7.938253924301487130e-01,4.422404966766233653e-02,1.016091228935488318e-02,4.794367039787715556e-02,1.045887351036071777e+00
3.516363656879718802e-02,-9.652956282485709583e-01,9.379906953333488895e-01,3.260234920158750719e-03,-2.859727753925972492e-04,1.242056279296873452e-03,1.649028182029724121e+00
2.480342568003363612e-01,-1.628733302351591306e+00,6.557392590951065525e-01,2.176800025502980129e-01,2.868563112011446314e-01,-1.663643897544009320e-01,2.219389915466308594e+00
7.039766512660730613e-02,-1.783512498923104594e+00,1.394461558649136679e+00,-1.018356139346827602e-02,3.859525525997827833e-01,-1.929661389600878518e-02,2.844842672348022461e+00
9.138078100964552863e-02,-9.242978978449063465e-01,5.816940120949769533e-01,-5.472674771539421182e-03,4.415028101062864335e-02,-8.780035905323623630e-03,1.332733988761901855e+00
1.713438210089869018e-01,-1.038837864438997061e+00,3.980034015291694649e-01,-5.250611639731100205e-03,1.272342791199276568e-01,3.736195266711023200e-02,1.357589602470397949e+00
-7.128078998757673285e-03,-9.281947778949468653e-01,9.397897653425729692e-01,1.279633100683254341e-03,-2.152352148994798181e-02,-3.843756553492587956e-03,1.618218421936035156e+00
-2.042615579947339166e-01,-1.443876137472737409e-01,9.900081740061730251e-01,1.407047289775016641e-01,4.862210470496372561e-02,-8.751452828970081310e-02,1.203254580497741699e+00
-4.001893740257485288e-02,-9.802953128723705944e-01,9.521596003696090049e-01,-4.714903743531599460e-03,-6.660240722120966753e-03,5.825074100845876318e-03,1.673846364021301270e+00
-3.064080413521148155e-02,-9.738722816559224338e-01,9.412697665639270239e-01,-1.210067632509525658e-03,-7.551004458223245855e-03,-2.209437109999746150e-03,1.658680915832519531e+00
-5.154188314770040413e-03,-9.595016314064018781e-01,8.380285593771917840e-01,4.831620794787501449e-03,1.149535254189154240e-03,2.662110493105419862e-02,1.558404803276062012e+00
3.502266748033106003e-02,-9.587217495192454919e-01,9.335519248467202269e-01,3.360554977027821032e-03,-2.323995923938331474e-04,-3.384846234565517999e-04,1.639458894729614258e+00
-1.236662377257567030e-01,-4.453684497715870161e-01,9.173418926735735779e-01,-1.165522118470775914e-01,-1.042134770852381626e-01,-1.260761209146146478e-01,1.281836628913879395e+00
-4.321151541369609023e-02,-8.729720724190139780e-01,9.075886153681429480e-01,-1.741013801695409993e-02,9.770470421685481521e-03,-4.083259047197013158e-02,1.545204639434814453e+00
-1.755844724773893140e-01,-5.519266560008808664e-01,8.629910666837159461e-01,1.344935634588556844e-03,4.848377221983810742e-03,1.151921651394607199e-02,1.269490599632263184e+00
1.111398119823177044e-01,-9.163644827633352641e-01,5.265565029941025044e-01,1.199988665676542023e-03,-4.067818475646522991e-02,-4.857624145895311080e-03,1.288494348526000977e+00
-1.389075698299578332e-01,-3.559611138125797214e-01,8.147880664458863054e-01,-1.495684391910146460e-01,-4.602607093149928275e-02,-1.593491637285849097e-02,1.112600445747375488e+00
2.792661362266900260e-02,-9.370245956011103994e-01,6.894782745722954909e-01,9.725483559030386263e-03,-1.102960232292420767e-02,-5.570889020006998538e-03,1.416999816894531250e+00
-1.600036815987530003e-01,-8.135061192585406609e-01,1.276792457902635292e+00,-2.979357868716203672e-01,-1.809556323284431112e-01,8.580805885161493091e-03,1.948114752769470215e+00
-3.580675952323181255e-02,-1.024472544394564810e+00,1.018228809423813885e+00,-3.886651537903362667e-04,2.179730954408378232e-03,1.988778382949553218e-03,1.769340634346008301e+00
-8.697163322902819182e-02,-8.367902589422379078e-01,9.325988597069311270e-01,9.083487362467708090e-03,-1.285280382287378245e-02,1.717510633906400852e-02,1.538789391517639160e+00
-8.518959562049646661e-02,-6.995057078259929728e-01,8.847932216841686293e-01,-1.162462692273220043e-02,1.910936093779999623e-02,7.313524662653609135e-03,1.384120106697082520e+00
-1.845869021245976349e-01,-4.340004954440170870e-01,8.348114818293635997e-01,6.001514532444084810e-03,-9.333330931108685738e-03,2.973833897583127994e-03,1.164486169815063477e+00
-1.454838152129279971e-01,-4.401705737890355685e-01,8.086845653931825639e-01,-5.487842859450896282e-02,6.509414624331922791e-03,-9.930977196081103298e-03,1.134863972663879395e+00
-1.091410360632742854e-01,-6.969111775875570514e-01,9.926304993048570280e-01,-1.312662152315646202e-01,3.150296855679808605e-02,-1.198779681092613930e-01,1.518138527870178223e+00
1.818166027719738398e-01,-1.428277178033361405e+00,7.583059046314852836e-01,-1.569067868655381337e-01,-4.872215632385419326e-01,-4.703618852060740402e-02,2.155364274978637695e+00
-9.101771021971635789e-02,-9.908536986262208579e-01,9.843175896494055221e-01,5.229757973904203619e-03,-3.477275799168860065e-02,1.561697326529955417e-02,1.714093804359436035e+00
-2.797371950453624023e-02,-9.740516326388074519e-01,9.604313065757584811e-01,-3.901486219708929018e-03,2.079175758429634840e-02,-3.672096767576155541e-03,1.675857663154602051e+00
2.561186743644002645e-02,-9.438380259142685746e-01,7.356354500176103262e-01,1.414344870976077390e-02,4.993434436148148567e-03,1.340178520030623280e-02,1.460654854774475098e+00
-4.710546238856502810e-02,-1.028863549461404681e+00,1.021411286469589452e+00,-5.302894578191432937e-03,-1.361760263704487120e-03,7.609014466715824506e-04,1.776145696640014648e+00
-1.415622463127463038e-01,-5.457081051807075589e-01,8.602913505213173329e-01,3.279568713473086233e-02,-2.473387611504906589e-02,-5.268230067042212889e-02,1.259097933769226074e+00
-4.101741447194791335e-02,-9.323165443024610255e-01,9.414802767971224284e-01,-9.150745162792011268e-04,-1.314070286202225282e-02,-3.563189534786766113e-03,1.623568296432495117e+00
-1.012334684132747686e-01,-5.589342746997999489e-01,8.373088439203947297e-01,-1.634811089981125926e-02,-1.060247966393255276e-02,-1.465911261941467945e-03,1.233316183090209961e+00
-2.180347943296351010e-01,-6.259884898180637647e-01,1.414552521428672049e+00,-2.699951172908533481e-01,9.781511170248008424e-02,7.774657488876545938e-03,1.935294389724731445e+00
-1.629473146172402687e-01,-4.924945153646131391e-01,8.673309024077726637e-01,4.432454361690695011e-02,-1.211311539691135343e-02,-2.398534844686597486e-02,1.231933355331420898e+00
-1.392065869110042375e-01,-6.322779542345117187e-01,8.785786044479185763e-01,3.056262619562536906e-02,-2.410351450899064080e-02,1.605687782993898277e-02,1.336475014686584473e+00
-1.587081416470649819e-01,-4.389451112896292084e-01,1.041217611315017777e+00,-1.881650039366882243e-01,-1.126332454962926943e-01,5.137827004792815122e-02,1.416620731353759766e+00
4.385906066344317372e-03,-8.083773917412220289e-01,8.972583732111718557e-01,3.884362375006584350e-02,5.799189885504944277e-03,1.084558269163040864e-02,1.479351043701171875e+00
-2.140696561105714935e-02,-9.138457646618748376e-01,8.455879178109951821e-01,6.606544690498636352e-02,5.622884839590323175e-02,3.555151984448649827e-02,1.532396078109741211e+00
-2.251281736781102563e-02,-1.098644221202826898e+00,9.922227158616917508e-01,-6.323461744596542422e-02,9.796060413873686201e-02,7.219525501029960823e-02,1.826514959335327148e+00
-1.247369038217103487e-01,-7.074400547314247945e-01,8.962317854782164694e-01,-8.257930201288001155e-04,2.011108917548010133e-02,-4.215792058206106058e-02,1.408328413963317871e+00
4.341297572455259449e-03,-9.984958386913573847e-01,9.832179672502571188e-01,-1.673110803704527458e-02,4.079562664466823696e-03,-3.258301291480746129e-03,1.716524720191955566e+00
-2.442683897578069516e-02,-9.575975694734329968e-01,9.547000138603163322e-01,2.898205387090106114e-03,-2.194959908088327596e-02,-4.379553240469604737e-03,1.656718969345092773e+00
1.888864782376796676e-03,-1.012413704304634177e+00,9.952310419258795227e-01,5.573118485568641020e-04,-4.110809110314040012e-03,5.669888929687621690e-03,1.738745570182800293e+00
-3.988574658275955559e-02,-9.979813611969403642e-01,9.894333479530388331e-01,-6.722987751639479537e-03,-1.237000259529780558e-02,5.832035730722724687e-03,1.721722364425659180e+00
-5.951323611029206082e-03,-9.944827008369766519e-01,9.689510042797340184e-01,-1.020294252732354898e-02,-4.649627686767790133e-03,5.133665866269170909e-03,1.700531244277954102e+00
-3.782751965063706895e-02,-8.531068150643171810e-01,9.242255297667808511e-01,-3.991976789428651300e-03,2.722526551349805507e-02,7.641882911168917242e-03,1.541757106781005859e+00
-7.581165235455233908e-02,-4.973571498987633399e-01,8.295171246917305563e-01,-1.860816983001912228e-01,1.376574066213029184e-03,1.348949593291743493e-02,1.217944502830505371e+00
1.266777714944074540e-01,-9.288923356760540040e-01,4.661584527590018068e-01,5.978303514500972558e-04,6.430692427985209778e-03,3.493082954753395919e-02,1.261588931083679199e+00
1.358145251774782736e-01,-9.373476490568346531e-01,4.619151418075405635e-01,8.715514284815172041e-03,-1.795678410690861038e-02,-7.174463008419952950e-03,1.268592596054077148e+00
7.226063088564149695e-02,-9.726899727388700345e-01,6.130752306399644969e-01,-2.371348723146681978e-02,9.722992542471123323e-02,1.455166974001590764e-02,1.407199382781982422e+00
1.311611126514859171e-01,-1.128249281576963137e+00,5.775474746043964824e-01,5.109592954016362694e-04,1.982942770779322350e-01,1.818359860752955534e-03,1.570201158523559570e+00
1.571509371680833433e-01,-8.833665207497316540e-01,2.502680647381114731e-01,-1.055252084285797504e-01,1.975093307947160537e-01,1.750131664609038407e-01,1.196061372756958008e+00
-7.131158389422435906e-02,-9.979331711430844409e-01,1.006005984107939177e+00,-3.845540705599414556e-03,2.312397325334741849e-02,8.353275688258396956e-04,1.737572193145751953e+00
-5.712344918016018513e-02,-1.015188153207474464e+00,1.031997516270806603e+00,7.927241812166311869e-04,1.392942612689896179e-02,4.630859707551906145e-03,1.774308085441589355e+00
-1.762744396681703574e-01,-4.672378425876138608e-01,8.434110674464906365e-01,6.821248899913108683e-03,-4.153543618550386250e-03,-5.208403996424505050e-02,1.195591449737548828e+00
1.376194166109532269e-01,-9.520877954132687115e-01,4.886509822560027305e-01,-1.487173347893666620e-03,-5.407334547726996149e-02,-1.093017552481651000e-02,1.304738879203796387e+00
1.323148322490561579e-01,-9.301599707446781551e-01,3.987938645269558102e-01,1.165153500493985340e-02,7.092339963134931813e-02,-2.048172405857246609e-02,1.224641680717468262e+00
1.719272027947991166e-01,-1.046458593184948382e+00,3.630751176698907567e-01,-1.014372240771855074e-02,2.154959169324165424e-01,-5.571367965286432022e-02,1.379430890083312988e+00
-1.458925203945556776e-02,-9.946361823707088323e-01,9.637807516107896877e-01,-4.024268951364742310e-03,-1.468669378299044571e-03,-1.072946152863935455e-03,1.696056246757507324e+00
-1.708441810048212384e-01,-4.262752858491094532e-01,8.227088654685299485e-01,3.692278109377573631e-03,-1.617545075684926606e-03,-6.529622669244319368e-03,1.142958283424377441e+00
5.890523838396509275e-03,-9.717002824751417300e-01,9.497486203833469531e-01,1.513118745491824233e-03,7.879884466349100156e-03,-1.440635030152115619e-03,1.664168953895568848e+00
-1.222182620189601054e-01,-8.128161703543896888e-01,9.391838409944708310e-01,-6.956641021411527127e-05,1.995523689720183486e-02,1.862895065095203015e-02,1.529293179512023926e+00
-6.046817619142374339e-02,-8.997039957717051228e-01,9.407468005958073975e-01,-4.728373209039079790e-04,1.650718859554395693e-02,-2.387910951621029926e-02,1.596725583076477051e+00
-1.868963209796487002e-01,-4.574377973041564571e-01,8.422397910690825329e-01,-2.025027518893614265e-02,-1.139928448217697628e-02,7.764357553549888595e-03,1.188502788543701172e+00
-5.119581281000651352e-03,-9.570297265110060403e-01,7.945425844865811049e-01,-5.858549727897538473e-03,3.439225611696285212e-02,-1.021545669364213281e-02,1.520119547843933105e+00
-1.435088252728690950e-01,-5.972853935957063154e-01,9.030214387724616598e-01,3.992998350347080200e-02,-1.979613391214618545e-02,-1.187481118352902570e-01,1.350663542747497559e+00
-1.251221013504170143e-01,-4.729985851225774751e-01,8.337342414598702955e-01,7.600474870231288538e-02,4.713665864655981058e-03,6.501059001822986211e-03,1.179623126983642578e+00
-1.952534341602701895e-01,-2.744383586103900097e-01,1.318616543918820216e+00,-1.079912222354684759e-01,-2.573672450715588922e-02,-4.546065888853186715e-02,1.568796277046203613e+00
-5.789150840206444548e-02,-7.537661760729805760e-01,9.156232723702811827e-01,1.471845714350665524e-01,1.193293459974905865e-02,4.593285792718622418e-02,1.476876258850097656e+00
-1.780189659817100756e-01,-1.222458323763349619e-01,7.831619148919914952e-01,5.951902198289672763e-02,6.268638873212348250e-02,2.103676374748578506e-02,9.471616744995117188e-01
-1.208849385567895979e-01,-5.151908634664116304e-01,9.083402386979728682e-01,2.185203745169279621e-01,1.870212437517783932e-01,-7.303461422559628935e-02,1.372879385948181152e+00
-1.523854470191364219e-01,-3.718371621167747554e-01,8.936416835061382624e-01,-1.478448936454261897e-01,4.480882191810021953e-02,-6.212694280576686046e-02,1.206259250640869141e+00
2.090248059577726539e-02,-9.770479686810901176e-01,9.477901801177053276e-01,1.004361811371110198e-02,1.832016064675827307e-03,-2.636046126245650614e-03,1.667437434196472168e+00
-6.259611242308099621e-02,-1.063216115742722456e+00,1.067669945317561098e+00,-5.694722478616270900e-03,3.448853612098107257e-02,7.878849189244098092e-03,1.847582340240478516e+00
-4.933191052615911593e-02,-7.389322332399567150e-01,9.028939628913646986e-01,9.907005032436351499e-02,1.815200983059558123e-03,2.058586733587828774e-02,1.438632607460021973e+00
-1.446984288738764786e-02,-9.967901498959849116e-01,9.819375537542720522e-01,9.901764222496996920e-03,8.363261994828057044e-03,2.669526162403367420e-03,1.713796257972717285e+00
-1.875023064859644706e-01,-4.781795596945379034e-01,8.485153866711432347e-01,-2.189501873886785105e-02,-1.294999128987421588e-02,-5.633922304595825881e-02,1.212615489959716797e+00
-1.596855399349672577e-01,-5.035821516414583643e-01,8.485974059625004395e-01,-5.368177891375933153e-03,-4.977970898944117026e-03,2.524322909627272227e-03,1.217302083969116211e+00
-7.153595193009985864e-02,-8.290894421719927632e-01,9.265115026482353411e-01,-2.406368623790499164e-03,1.250771737538776754e-02,-1.914878821386533161e-02,1.525662779808044434e+00
-8.785058030236816973e-02,-8.040333225535420958e-01,9.246364396599207058e-01,-1.128387198022884168e-02,1.982464620749265632e-02,-2.055856138545689681e-03,1.504907727241516113e+00
-5.676281533542319041e-02,-7.569429172619260848e-01,9.591146215970235422e-01,9.904730432514349814e-02,-5.463630165227591727e-03,1.532753503765469337e-02,1.504586935043334961e+00
-9.887039961942718780e-02,-8.096071567633676969e-01,9.345624130585774569e-01,4.789760445651598114e-02,1.911923609102218063e-02,2.632041723680210790e-02,1.522394895553588867e+00
-5.401977387008216613e-02,-8.393785463037813921e-01,9.430479596567432621e-01,1.583765701757222644e-01,1.365149073031005772e-02,3.308876133002126851e-02,1.572603344917297363e+00
-8.738917716631476595e-02,-9.847354687820347729e-01,9.829212074614673833e-01,-2.011632184784852202e-04,2.020053504695812005e-02,7.970961078917527393e-03,1.706648349761962891e+00
-3.229015245238495146e-02,-1.137662874905606358e+00,9.259350091359240809e-01,-1.665424315471551861e-03,1.577871732033070962e-01,1.652405485355436243e-02,1.809629321098327637e+00
-2.925374594158863806e-02,-1.178785085596517845e+00,1.090378968946255522e+00,-9.584185941014281007e-02,2.024173555106625888e-01,-6.706525681359556956e-02,2.006494760513305664e+00
-1.826904843665671241e-01,-9.667004895556393640e-01,1.402572989646713841e+00,3.340010117595481609e-01,2.024854738455809655e-01,6.261745077648962765e-02,2.200006484985351562e+00
-6.735524118938435167e-02,-6.629423199519525189e-01,8.779675473780617079e-01,1.350174476442682625e-01,-2.407228001323045378e-03,3.690088128986379959e-03,1.366063117980957031e+00
2.104538343379688814e-03,-8.742416685586831271e-01,6.735765726164493206e-01,2.004840577264825063e-01,2.323580415059640081e-01,-1.555844860904692095e-01,1.470534324645996094e+00
-1.501551998354775375e-01,-4.754192392167954084e-01,8.481331580137037029e-01,9.753592567576044314e-02,3.006281230587954517e-03,7.763982482946821251e-02,1.213974595069885254e+00
-5.690591528885272088e-02,-9.381688964861349955e-01,9.610888725368875729e-01,1.770075387683240492e-02,2.955347875367261151e-02,4.451154660759645137e-02,1.649109721183776855e+00
-1.599277751876211906e-01,-4.039409413273312710e-01,8.812360965703924798e-01,-9.300125249404661565e-02,-1.650879950291461729e-02,-9.479094973513318978e-02,1.204717278480529785e+00
3.334618582755928540e-02,-9.490830442490426622e-01,9.320300522586091319e-01,1.682902558949810404e-02,5.891458698409335597e-04,9.286546867585561676e-04,1.629891514778137207e+00
3.780165462695704581e-02,-1.012976017876231483e+00,7.123333215238307758e-01,9.493967347909537668e-02,2.062732354551118918e-01,1.263188574455471024e-02,1.556622862815856934e+00
-2.093618017327517761e-02,-9.474879139987794074e-01,7.946725266781317076e-01,-6.799212997642419855e-03,1.191117113375582230e-02,-7.005354348529573135e-04,1.509961962699890137e+00
-1.982822998469442599e-01,-2.029551478476637472e-01,1.055382626869373563e+00,-1.597903398791708507e-01,-1.286330804981680176e-01,4.241762660355677395e-02,1.307360649108886719e+00
-1.791518355061068324e-01,-4.043363494905433120e-01,8.329102415974665163e-01,-6.260715595195861377e-03,-8.318818619814791898e-03,2.934242541677092517e-02,1.142710208892822266e+00
2.106662477784308068e-02,-9.163755472957650916e-01,9.251415018041393434e-01,6.098849093845649938e-02,-3.085633452704711344e-03,-5.834894687050394850e-04,1.598391532897949219e+00
8.108223076243523120e-03,-9.707047987852447379e-01,8.166663777501528276e-01,-8.845416914152486390e-03,-9.491238679109057549e-04,-2.053545820781476142e-02,1.550732374191284180e+00
-1.211270560169700472e-01,-7.976863112085548213e-01,9.608625592326506260e-01,2.469876384530997337e-02,-1.729373374223762416e-02,-1.491914342621779299e-01,1.558834671974182129e+00
-5.007408160589436191e-02,-8.521082637305424923e-01,9.487580257345162860e-01,4.153068450168678760e-02,-3.520542231181832821e-02,-3.815321652991289503e-02,1.566933751106262207e+00
-2.541536019004153601e-02,-9.646831960314374843e-01,8.392754067426710929e-01,-1.474072881243616157e-02,4.304733553328541663e-03,-4.191830800651644498e-03,1.562962174415588379e+00
-2.062548884644532440e-02,-9.814764994908877771e-01,9.628104275884625807e-01,-1.433720774007666643e-03,-1.136445972481976360e-02,4.099075366795465296e-03,1.683971524238586426e+00
8.402057753169232812e-03,-9.725547561911447314e-01,9.486559543021103602e-01,-4.795305415953858195e-04,-6.712512181695701359e-03,-2.409378607796242369e-03,1.663987755775451660e+00
-1.451483703291465144e-01,-4.096925510623101729e-01,8.424881524225326102e-01,-9.312565000217450095e-02,1.231455956234320682e-03,7.478808229892792937e-04,1.154429078102111816e+00
-1.854340400133484001e-01,-1.271620549988483617e-01,8.067615652531385795e-01,-1.525420390328095510e-01,-5.964786600424278051e-02,-2.556309943945340394e-03,1.005251646041870117e+00
-1.036183407997320338e-01,-3.839883766494481820e-01,7.518410026921654721e-01,2.171873195914963972e-02,-7.843330978581483648e-02,-1.216708165490204968e-01,1.055720210075378418e+00
-2.378864589972853327e-01,-2.753616035558152930e-01,9.418941269573968267e-01,1.675876897112890326e-02,1.767524397518114437e-02,5.709140278256585183e-02,1.203767895698547363e+00
-1.740978467603869762e-01,-1.159595861206929035e-01,1.205889834310744035e+00,1.967461487806181908e-01,1.043200896173691883e-01,2.024949243396568788e-01,1.448897480964660645e+00
-9.279838821852848252e-03,-8.330698477665541279e-01,6.211837993226732024e-01,7.116448408061078201e-02,6.198707001859467269e-02,-1.634245016872774570e-01,1.304732561111450195e+00
-2.619285530050514121e-01,-5.451462756147890110e-02,1.409101132438667747e+00,2.756114428950219228e-02,-6.439822513704521190e-02,1.046885083784187924e-02,1.582344770431518555e+00
-2.137095292638659105e-01,-1.326455682932124180e-01,9.525158370879254210e-01,-1.542216542906622578e-01,3.110441111792330848e-02,-1.757336300150700859e-01,1.199590086936950684e+00
-4.156828714134548630e-02,-9.411977466625004451e-01,9.707818646196283430e-01,2.704901282148434311e-02,-1.220049859892042773e-02,3.751403517955467087e-02,1.658851861953735352e+00
-1.143754944290651110e-01,-1.290975724828094251e-01,8.433064093554025753e-01,-5.981454580319892078e-02,5.577815317070065892e-02,-1.076236951548794479e-02,9.756458997726440430e-01
-6.224542787243834974e-02,-1.538823033257461947e+00,1.528767541859446411e+00,-4.622263746611317003e-01,-3.662111416674077580e-01,-7.722925993699876479e-02,2.849919795989990234e+00
-1.864352335624413354e-02,-1.051187978856306549e+00,1.076527798045955997e+00,-4.748984719865428222e-02,5.659436445881857371e-04,1.809454460598700510e-03,1.844759583473205566e+00
-3.288933528995281047e-02,-9.180360812429101403e-01,9.431184535306879058e-01,2.024757890984749814e-03,2.205990394469866875e-02,9.537701861071277640e-03,1.612988233566284180e+00
-1.533809012289989032e-02,-9.734466718984402522e-01,8.751420796672044755e-01,1.112275117983784443e-02,2.617348054495316489e-03,1.762739435062440213e-02,1.601695179939270020e+00
-1.691488382358689868e-02,-9.916760642305426643e-01,9.592592065364730081e-01,-2.070011655005847811e-03,7.918599571337375104e-03,2.416322518828174695e-03,1.689624309539794922e+00
1.532774009566700672e-02,-9.860692188590253204e-01,9.532425726763125162e-01,-5.877913877448333844e-03,-9.723015554988282110e-04,3.687257848311779971e-03,1.679836988449096680e+00
-2.843141664634103033e-02,-9.817794465416868066e-01,9.022821513965966211e-01,1.388938187443659183e-02,4.611063412962702543e-03,-5.827813624906223386e-03,1.631912589073181152e+00
-3.782091192769856253e-02,-9.709840264386843112e-01,9.568460880919712475e-01,3.949268622663612213e-03,1.463781507308455250e-02,3.900809361931236591e-03,1.670053124427795410e+00
-1.593871490105913113e-01,-3.933186389343513722e-01,8.385098499794507720e-01,-7.551922989757200999e-02,-1.867849657591456967e-03,-2.702419972121088663e-03,1.140659332275390625e+00
-1.897889538386413333e-01,-3.985146930172384083e-01,8.347008017844731453e-01,-7.617997147389695550e-03,-8.468166022677137139e-03,2.707096597134941648e-02,1.144364833831787109e+00
4.019275870271561690e-02,-8.687270188879070432e-01,6.836584091339699132e-01,-2.389673194818791591e-01,-3.218733378134179812e-01,-2.045719032008687377e-02,1.519348859786987305e+00
-6.159006644392628349e-02,-9.679114928221208558e-01,9.014792695059420380e-01,8.176960415865377335e-03,-1.967139747577392912e-03,-4.451209928165455760e-04,1.619254231452941895e+00
-6.970158754546285085e-02,-1.060814904390322555e+00,1.133236614032977929e+00,-3.474837969424542372e-01,-2.894208778739721377e-01,-2.001530288983962083e-02,2.058238029479980469e+00
1.981330946133141868e-02,-9.668471841063154271e-01,9.444989292571679407e-01,3.331315678375129131e-03,5.622355772723487514e-04,-3.226087991204559281e-03,1.655584096908569336e+00
-7.242038072963399853e-02,-4.797720235163601687e-01,7.564609942016047306e-01,8.347020397264134917e-02,-6.784930393874019638e-02,-4.784653960448468496e-02,1.110047817230224609e+00
-6.591228866018973565e-02,-7.288240791630392623e-01,8.232965340574471824e-01,-5.565611996157899394e-02,-2.019730453033455873e-04,-2.928700384999972234e-02,1.353320956230163574e+00
-7.381233866740721794e-03,-8.338736179593619902e-01,9.501418518690324388e-01,-1.384155494730779090e-01,-2.857666899600987132e-02,2.207087003206493342e-02,1.566114187240600586e+00
1.172335092990431198e-02,-1.037652753415107654e+00,1.008483943252913573e+00,-4.827541126785774017e-02,1.161959337279397028e-02,-1.433807003039801534e-03,1.774289011955261230e+00
-3.045177461928491591e-02,-9.954285372634142925e-01,9.669001842092357357e-01,-2.592330289595406469e-04,-5.044618888741264238e-04,2.470631351351399406e-03,1.699509263038635254e+00
-7.637220173933872980e-02,-8.467248636720718924e-01,9.247515179835682497e-01,-2.282532227035054609e-02,8.220969509165560254e-03,-2.067670929771798713e-02,1.539466977119445801e+00
-1.883609622278867024e-01,-3.788017419281676235e-01,8.440692136128515877e-01,-1.028341402910499247e-01,1.710151378832668176e-03,-9.685222421461981909e-03,1.153607964515686035e+00
-1.879586749053095418e-01,-4.934676476897564834e-01,8.654922925088625041e-01,-1.040051628479313379e-02,-4.021665931304133426e-03,6.080000340364363071e-02,1.239514589309692383e+00
-9.843617833305298714e-02,-6.804425476472757417e-01,1.051916428484146682e+00,-3.148183835907225614e-01,-1.693908863910591478e-01,9.126822967839308409e-02,1.655281424522399902e+00
-1.682340602097160132e-01,-2.547259239840446998e-01,7.834613698509096391e-01,7.027923099196042855e-02,-1.214939289842536380e-02,4.604603130926019500e-02,1.008533596992492676e+00
-9.231668767934320119e-02,-8.461708189149741433e-01,1.094008358460546670e+00,-2.806110984775581629e-01,-9.037161905874405154e-02,7.041751265330073450e-02,1.773579359054565430e+00
-8.879473835607874788e-02,-1.002094643330251111e+00,1.016328739378714818e+00,6.001702366845404132e-03,-1.610653987696610348e-02,1.737686650624655979e-02,1.751147031784057617e+00
-8.383050956158888400e-02,-4.896591919939443649e-01,7.886083006899713421e-01,1.753316383129262246e-02,8.110560314785915381e-03,-8.533065933013005144e-02,1.141433596611022949e+00
-2.397757367435594811e-02,-9.735424874907672166e-01,8.548394235774791072e-01,1.814734287987383732e-02,2.721612099179886298e-04,2.829576716593017183e-02,1.584890127182006836e+00
-1.701778175706257501e-01,-1.278395085985239987e+00,1.665246518794302188e+00,-1.951906145248227809e-01,-5.714641753348849440e-02,6.070342555889939387e-03,2.599073410034179688e+00
-1.277692871832061539e-01,-7.133275748370715430e-01,9.097259073924517381e-01,-3.483920040920985423e-02,-1.104457717300177250e-02,-1.463391117957250735e-02,1.425285339355468750e+00
-2.583683015345835110e-01,-8.260813977702133881e-01,1.410009871173971474e+00,-4.807198231601370608e-01,4.216291431562691622e-02,-1.618248645239961647e-01,2.197751998901367188e+00
-1.905172109611014686e-01,-1.541662194837708499e+00,1.835213826387698255e+00,-4.990307277654845719e-01,-2.013769195268363954e-01,-1.840646081336455298e-01,3.104291915893554688e+00
-6.557886177215484225e-02,-7.224382196386075483e-01,8.694084690614215516e-01,-2.640177585344830602e-01,-1.558477836591719012e-01,-7.903071531657560045e-02,1.490147590637207031e+00
1.264582473668099394e-01,-1.141636497311110388e+00,6.171307876513982826e-01,-1.855725268096839187e-01,2.929588232530726533e-01,1.209034559578208989e-01,1.695783615112304688e+00
-1.096855254181013234e-01,-4.430338781490925637e-01,8.360520219129115027e-01,-1.027303683584133431e-01,4.898290894525752365e-02,-2.173490469095330779e-02,1.166651844978332520e+00
-8.274160461748314432e-02,-9.755340592382143461e-01,9.484804302966428624e-01,6.957940391824222939e-04,-1.373503333561266332e-02,3.902408530970778201e-03,1.667866230010986328e+00
2.014571709770988234e-03,-9.647646533045148853e-01,9.508031823283134010e-01,-2.980750855128906640e-02,1.534582372634306184e-02,4.050209715182578885e-03,1.659985542297363281e+00
-1.379742719867621537e-01,-1.225763033432836768e-01,8.286983219300223524e-01,-1.141681153008417132e-01,1.968593678623277096e-02,1.534293639017620704e-02,9.801939129829406738e-01
2.919315376549737676e-02,-9.798116518624254700e-01,9.484666151100856757e-01,-7.299584864207405745e-03,7.398092689545382808e-03,-2.701217348738459666e-03,1.670644044876098633e+00
1.681641679673671549e-02,-9.955031752188877592e-01,9.821061101466911358e-01,-1.860867732603219485e-02,-9.602706004360826719e-03,5.615810915955861231e-03,1.713232874870300293e+00
-1.217135850881517767e-01,-2.123246563454320057e+00,2.160435006667995594e+00,-1.832266679815892640e-01,-1.088487386166252513e-01,-3.932118898796950479e-02,3.731357812881469727e+00
-1.190221704708755018e-01,-6.060126741826750152e-01,9.354776540541520635e-01,-3.571354594326844878e-01,1.604267120428740645e-01,-1.351640143123945467e-02,1.524157643318176270e+00
-1.750944907995622690e-01,-9.523758772062894673e-01,1.557374730903427595e+00,-2.959023638027639125e-01,-1.328180019246193999e-01,8.121098218381654632e-02,2.299481391906738281e+00
-5.927287721757282246e-02,-1.125034273035562915e+00,1.089601046244883742e+00,2.417152177518851284e-03,-7.115328535408554922e-02,-2.368304207954531615e-02,1.922777295112609863e+00
-1.475119860474467803e-01,-4.266312229698994152e-01,8.947031662149378395e-01,-8.628677882188498516e-02,-5.144502279943007593e-03,9.180233184920309764e-02,1.225855112075805664e+00
2.701471883249780825e-01,-1.500865138270901955e+00,3.707234575647637698e-01,-3.734893170184333533e-02,9.585943390260576180e-02,8.246153754761210986e-03,1.832123875617980957e+00
2.204285689741563581e-01,-1.403568063498889851e+00,5.083041000057928471e-01,1.321857940951206567e-01,2.704041633510042009e-01,-1.229810542107336035e-01,1.872136116027832031e+00
2.406476617625621650e-01,-1.473656739748860245e+00,4.984123084934205528e-01,-8.693379241448861983e-02,-2.931940274748793818e-01,-3.476872740668132122e-01,2.022471189498901367e+00
2.366342537279003677e-02,-9.667912585814897319e-01,8.073093399275158566e-01,1.657540791487197495e-03,-6.519474291283033213e-03,-1.349473345362089960e-02,1.540113329887390137e+00
1.048285469622405319e-01,-1.125344002759010920e+00,5.783620277294359013e-01,-9.032463231558898742e-02,9.175420364998637668e-02,1.501230693771171687e-01,1.561226844787597656e+00
-3.126069065960257465e-01,-1.361191820620245352e+00,1.879794873189898130e+00,-6.009162326213252081e-01,5.581138588185220045e-02,-7.257990503703318219e-02,3.051806688308715820e+00
2.707115279970369048e-01,-9.996837602361499098e-01,3.771777215515706438e-02,-2.210330318116216636e-02,2.348215910109508614e-02,5.527869894868144701e-02,1.176640629768371582e+00
2.252979248409570368e-01,-1.791955248862505679e+00,9.943756691189555852e-01,-5.868537043353681815e-02,4.716603435683056622e-01,3.020291144976247621e-02,2.625390291213989258e+00
-5.715812831923826332e-02,-9.838031596947073298e-01,9.274791426439860098e-01,4.056916765661462872e-03,4.905237503965052814e-02,-1.205019460802664484e-02,1.657798051834106445e+00
9.048869610256833618e-02,-9.770415329042857477e-01,6.428816727343472648e-01,8.362089739427714871e-03,4.461712132286062976e-02,-3.429866000563831785e-02,1.429743289947509766e+00
4.318138304069243927e-02,-9.243218884108861388e-01,6.455716130855677637e-01,4.957201458942009017e-03,1.194049243635691461e-02,4.313377321496359232e-03,1.371972441673278809e+00
8.956301310780902247e-02,-9.951221271505212851e-01,5.933790698588093937e-01,-4.577762523095005656e-03,4.228576683847227319e-02,2.292885427440226331e-02,1.408495187759399414e+00
3.924667643246311510e-02,-9.810199529141959696e-01,7.596155177656563895e-01,9.222016441943089310e-03,1.408709756672739399e-02,-6.278134368746091099e-02,1.519051790237426758e+00
3.166306957289104218e-02,-1.391282668835155611e+00,1.032698866390628467e+00,4.031065730315677720e-01,4.528841439417908843e-01,-2.021094493312690088e-01,2.382563352584838867e+00
2.168572759450383136e-01,-1.716534256778583734e+00,9.553461178259796682e-01,2.447351247467770552e-01,5.189334209675420251e-01,3.017090676893365020e-02,2.588715791702270508e+00
4.145734326471245401e-02,-9.767305201873744958e-01,9.404693642310945068e-01,1.354412254498005459e-02,-1.197499387691672908e-03,3.521756052637810361e-03,1.661590814590454102e+00
1.134263666974699297e-01,-9.429212368825952151e-01,5.315705090055736770e-01,-4.556617329054875147e-03,3.731938945648168721e-02,-4.063590396751628336e-02,1.319702506065368652e+00
1.056331142061432693e-01,-9.267751926526228701e-01,5.328498769332705720e-01,8.474241339763198891e-04,3.222923716335111127e-02,-2.131553302774474509e-02,1.301508545875549316e+00
-5.093329455752531459e-02,-1.039393434512698056e+00,1.062073200847143184e+00,2.199026450856375603e-02,-3.938474499832506082e-02,-2.328269365891104392e-02,1.823109984397888184e+00
5.915243141736174770e-02,-1.141456921538386293e+00,7.535895065909646862e-01,1.903451005067776924e-01,3.055607721950707178e-01,-2.164814924556512921e-01,1.812964916229248047e+00
-9.933331592791896925e-02,-2.059003938814121693e+00,2.097784552172267336e+00,1.367027284869234971e-01,1.184719060037199845e-01,3.495235767989370024e-02,3.615950584411621094e+00
2.524965026207526275e-02,-9.477277719226986363e-01,7.495052256265747337e-01,1.516104897729208395e-02,5.486585277693668827e-03,7.500324121198093281e-03,1.475419998168945312e+00
1.218746087977842507e-01,-9.012984169711603100e-01,4.713899205818538052e-01,5.657671439473056438e-03,3.628305489203988154e-03,2.242395398042626529e-03,1.235641241073608398e+00
1.478806985202985869e-01,-9.530002679797968668e-01,2.230303740408099700e-01,-7.202892573145519561e-02,-2.230883882700164245e-01,-4.005031434862935114e-02,1.212435245513916016e+00
6.720702139194151270e-02,-9.289855824283668184e-01,5.906934810964219462e-01,1.615889416275421292e-02,3.427405526466340696e-02,-4.894133730669020937e-02,1.341426253318786621e+00
1.073137805913192133e-01,-1.075002513445893371e+00,5.823598379521766066e-01,5.869844482992412488e-02,1.795792201888504469e-01,-4.090353831270323454e-02,1.515683770179748535e+00
4.265365946537276465e-02,-9.352474792808123105e-01,6.604392419904199230e-01,-5.437641111716401757e-03,6.253355284988220894e-03,-2.067779642791243468e-03,1.393664836883544922e+00
1.616440700393482477e-01,-1.021794151410633900e+00,5.057247950528066527e-01,-7.511565743668449299e-03,-4.580652219506430728e-02,1.443008738008355184e-04,1.390172600746154785e+00
-1.112588005891737841e-01,-1.022003166387094319e+00,1.227628417214168044e+00,-1.672116663276058401e-01,-1.587287852418033801e-02,-3.160588997672815481e-02,1.982193231582641602e+00
2.719025683162718671e-02,-9.514745867717984140e-01,7.421384909812469566e-01,-1.076655928166821152e-02,-2.504787783674898918e-03,6.831713401089704527e-03,1.472799062728881836e+00
-2.159617852011758155e-01,-3.882824639996188543e-01,9.310061326279160943e-01,1.861479373755346722e-02,1.776514503262217187e-02,1.010947683030317679e-01,1.255198359489440918e+00
2.997266456410833668e-01,-1.727574740245063190e+00,6.533635433589499719e-01,9.255627216472531171e-02,3.614948704698708326e-01,-8.990518860431251369e-02,2.322482109069824219e+00
-1.404677866498619254e-01,-4.501594449676155074e-01,8.373508927272597102e-01,7.747893234133147733e-02,-7.126997118767850956e-03,-1.511999813710440677e-02,1.172052741050720215e+00
-2.019400796736650072e-01,-3.281221276761848160e-01,8.390610378026649441e-01,-3.389903583308797631e-03,1.045569284359134168e-02,-6.189146779568655693e-03,1.109701871871948242e+00
-1.914887807736131986e-01,-4.330428747246042320e-01,8.351573529219891157e-01,-7.192517164743739318e-03,-6.600421126710970254e-03,-1.416387328603115579e-02,1.166717171669006348e+00
7.562862816487193884e-02,-9.525409836953898646e-01,6.030902052365878507e-01,4.777042221388651776e-03,6.204036448408399573e-02,-3.792624446570981578e-02,1.376081109046936035e+00
1.489723542945520784e-01,-9.308983223812570262e-01,4.026769412443899632e-01,4.583212771459872900e-04,4.916664824019754271e-02,-3.140007575130748102e-02,1.230717420578002930e+00
1.103594029559893108e-01,-9.532998322498562604e-01,5.925211947193639306e-01,2.188416074408865240e-03,3.140636433850455683e-02,-3.660620027780785157e-02,1.372479557991027832e+00
1.330926552934451890e-01,-9.766558472406842162e-01,4.315090639465963829e-01,3.092293332505369023e-03,1.137427291327230416e-01,3.864912587841972530e-02,1.301953673362731934e+00
-3.234169855447631414e-02,-1.162609769438869955e+00,1.154051920219992811e+00,-1.365737572103644659e-01,-1.627465618994770880e-01,1.208954467356618129e-01,2.050668716430664062e+00
2.695183848489251036e-02,-1.031730549427061439e+00,1.010183513509598452e+00,4.959299041447434719e-02,-5.174072576360516651e-03,5.671413393246969858e-03,1.770886301994323730e+00
1.257518207174171398e-01,-1.038273589183213552e+00,5.423087974162369429e-01,-1.724937830189820706e-02,1.677943300883599498e-01,4.895139352255065135e-02,1.451173305511474609e+00
6.380659417394490829e-02,-9.414557828584759758e-01,6.369483289466860709e-01,1.374697196891288241e-02,1.133355498903702574e-01,-8.865000916610660253e-03,1.398048400878906250e+00
1.425552018467444448e-01,-9.081134136452087002e-01,3.578378420422573258e-01,1.814733909189526740e-04,2.744022477197358145e-02,-1.892365380026666405e-02,1.174638271331787109e+00
1.525110524981531657e-01,-9.279523653963821506e-01,3.765436850390909695e-01,-1.898036669266713961e-03,5.749244050573659032e-02,2.557523935155966467e-03,1.212269544601440430e+00
-4.819834571587330863e-02,-9.867321723168106518e-01,9.463595258431700685e-01,4.601162600564296865e-03,7.017552806375498310e-03,-4.005447601287570603e-03,1.674418330192565918e+00
9.321271036897021967e-02,-9.326898170969946111e-01,5.528021056154603929e-01,-1.726291015864203366e-04,-3.856149304602190381e-02,-8.827275559264127075e-03,1.319047808647155762e+00
2.991746713744476427e-01,-1.752362629109089021e+00,6.726102078551183805e-01,1.217698368688367311e-01,3.518553017491670154e-01,5.451873452340569304e-02,2.353546857833862305e+00
1.508610887388614485e-03,-9.383342380948099803e-01,7.220499248939022952e-01,1.227334783480571109e-02,-6.136081480835511859e-02,2.337815667827337213e-02,1.446743607521057129e+00
1.237753704916555175e-01,-9.221064396386863260e-01,4.830538929093101119e-01,-3.505786315932082789e-04,1.775986765698809276e-03,1.215140503188588510e-02,1.264581203460693359e+00
-6.752294564841526681e-02,-7.087713879443990894e-01,9.057363462151831746e-01,-2.006583966987947332e-01,8.776904916771061105e-02,7.985604393641045073e-02,1.464775323867797852e+00
1.381557528038145355e-01,-1.025841301620996626e+00,5.141457958644095605e-01,4.028082919963010128e-02,-7.771539114248592062e-02,-5.754772996761075600e-03,1.398926377296447754e+00
9.708413802380366775e-02,-9.496742088335032861e-01,5.953282163444912900e-01,-3.169663641321770076e-03,3.903650854379023954e-02,-2.964708770421185802e-02,1.368477225303649902e+00
1.028711361161938898e-01,-9.407180988428851531e-01,5.464428700328750610e-01,2.126632320653460209e-03,1.652022770465214800e-03,-2.661468714782974990e-02,1.323211193084716797e+00
1.090524780156390539e-02,-9.754167358428119661e-01,8.212610191723168640e-01,2.277843096126324490e-02,-3.966507806013632592e-02,-2.734468985501282891e-04,1.560466647148132324e+00
9.886609251032821288e-02,-9.279621241395545894e-01,5.496278676987201850e-01,-4.903650106850617613e-03,-1.952198865537264905e-02,-2.981970905583532921e-02,1.313126206398010254e+00
1.074253184767763741e-01,-9.214542310383352364e-01,4.588141956413023803e-01,-4.154255627748795580e-03,-6.057889780522009160e-02,2.157865632349700163e-02,1.247422218322753906e+00
1.602337426371154838e-01,-9.297373200448746378e-01,4.097283161528022521e-01,-1.558467361229229006e-02,-2.596547587268635549e-02,-2.287074839959115161e-02,1.235535025596618652e+00
-6.371980484405918854e-02,-1.120835557077152878e+00,1.015202675789860898e+00,7.434147973043286027e-03,-1.298261348991215092e-01,-4.312376037533748735e-02,1.865052938461303711e+00
-2.880528702516085837e-02,-9.942540252241620635e-01,9.667021291106304703e-01,3.697566013400843590e-03,-9.394975751411268131e-03,-1.861159585661340422e-03,1.698397397994995117e+00
-5.703238551703566916e-02,-1.004426808437792307e+00,8.896519742184451074e-01,-2.208575071056514787e-03,-1.518369934844196745e-01,9.658930831643486314e-03,1.661357522010803223e+00
-5.509851006857567624e-02,-9.656924297839444282e-01,8.845543160295620266e-01,2.931673266095600507e-03,-4.391490189311833547e-02,-2.543683793351099367e-03,1.604244828224182129e+00
1.257244877068994238e-02,-9.405730685150930359e-01,6.819970260490717529e-01,-9.064820354167295660e-03,-7.377386192608564874e-02,-2.696630079775804573e-02,1.418954014778137207e+00
-3.356230435608494045e-02,-9.534338932212509388e-01,7.951262805698238179e-01,-4.946657771162918382e-03,-1.046767885090336553e-01,-2.070447216448635316e-02,1.526239395141601562e+00
-6.995365717401372252e-02,-6.103951834039994528e-01,7.461728923792240176e-01,2.868550770167916930e-01,2.089040927406204395e-01,-1.880009226885047402e-02,1.333434939384460449e+00
-7.727148492776549082e-02,-7.444633547659409434e-01,8.911755015904986310e-01,6.612536350484957137e-02,1.336973244798995118e-02,-1.534165429180715454e-02,1.429522514343261719e+00
-7.386048601438235939e-02,-9.696050845352567338e-01,8.841097411745691970e-01,2.863801035251360011e-03,-1.118535679031827657e-01,-9.305586965349384870e-03,1.617399215698242188e+00
-8.254535190146003454e-03,-9.382850389363029953e-01,7.156351871827223432e-01,-2.757060515560748586e-03,-5.855988105386285281e-02,-1.600277174617870720e-03,1.439628720283508301e+00
-4.339007155365959267e-02,-9.525516134248932509e-01,8.169459725052367061e-01,2.292627461697905808e-03,-3.639408897760596645e-02,3.950738707548583604e-03,1.533940553665161133e+00
8.265910458617123369e-02,-1.122500874120641923e+00,6.824101090260086266e-01,2.351695040813592263e-01,-3.045777067693217210e-01,2.251050609977049699e-01,1.769503116607666016e+00
-6.968826962700257199e-02,-9.037210987147744623e-01,9.621064846576391494e-01,-5.393489240569324800e-02,-9.765965061796314309e-03,4.434322251696995454e-02,1.623475909233093262e+00
-1.952486889927070313e-01,-1.517935938501908111e-01,8.260662641655946992e-01,1.556197010313133469e-02,-7.344655704748310338e-03,-8.045466791209826551e-02,1.010395169258117676e+00
1.951429441224000194e-01,-9.921635718167816087e-01,1.247746703177688987e-01,1.480509675357574370e-02,3.690692668657697545e-02,9.965126077526760551e-02,1.168603777885437012e+00
2.239921929413461743e-02,-9.463274532900884939e-01,6.869859199193510957e-01,6.858241999391338078e-03,-1.407571620296787507e-01,-3.408451767642769505e-03,1.443441510200500488e+00
-2.927553629607269892e-02,-7.850227962594245046e-01,9.151774788742831346e-01,5.051937170882951633e-02,2.327283413895434722e-02,2.565761353543730833e-02,1.479246258735656738e+00
4.689127540620456891e-01,-1.606642622022105282e+00,1.535371845839872407e-01,-3.241406065380764839e-02,-8.302280768908346098e-02,1.229740986040282341e-01,1.954996347427368164e+00
-6.050274782081660474e-02,-4.466089718558069466e-01,5.592595961069037891e-01,2.450944409926571199e-01,-1.614070557871439271e-01,8.239623638959768515e-02,1.025287985801696777e+00
3.202262940861587692e-01,-1.610919897873699380e+00,3.923207863757940395e-01,3.768985118626307085e-02,3.626926603958298412e-02,7.198698922683294255e-02,1.974209308624267578e+00
-2.911660895516644809e-02,-5.827022131456409682e-01,6.024070073723365448e-01,1.991591094932690376e-01,-1.767604420603433590e-01,5.904063724729548962e-02,1.130515217781066895e+00
1.504001083195471988e-02,-1.180061535512462845e+00,8.847231661414779458e-01,3.336065078052293797e-01,-3.180505576851177518e-01,1.012615509794341645e-01,1.972837090492248535e+00
-2.663081065372315259e-01,-2.341992805799065769e-01,1.251536579175393626e+00,-1.154220288638427572e-01,-6.527224835207109943e-02,1.411151378330474659e-02,1.519701600074768066e+00
-8.095368918702028349e-02,-3.200025920286654890e-01,4.750367289603969478e-01,1.085546117707466840e-01,-6.429488646067220425e-02,1.006169635018439035e-01,7.598050832748413086e-01
-5.862056383419689265e-05,-9.682684768635223538e-01,8.419420843339838756e-01,-8.597739117698722372e-03,7.023175074429919250e-03,1.240625098125962798e-02,1.569222807884216309e+00
-1.713685129179799149e-01,-5.013395732933867421e-01,8.686458623181011474e-01,1.227890466096998867e-01,2.081327424122763128e-02,7.148654120185343741e-02,1.263149857521057129e+00
-9.581469312143638117e-02,-7.551993286338422040e-01,8.670334327333117930e-01,-3.424560171835597938e-02,-5.214714557058171794e-03,7.774141031252318479e-02,1.420733213424682617e+00
3.507753641570022785e-01,-1.683915711015559591e+00,5.125517639646047785e-01,1.866924555175349387e-01,-3.832354755337665231e-01,2.749628348459609017e-01,2.295057535171508789e+00
-1.587759525772717561e-01,-2.299284540906156582e-01,7.154586801940787666e-01,1.671688763018043880e-02,-9.240106569036491205e-03,1.074604702100014075e-01,9.312843680381774902e-01
6.040613984335117988e-03,-9.785055186087143753e-01,9.546805718846849143e-01,7.684560058543935326e-03,-5.485630365689475249e-03,3.766716034811967359e-04,1.674364566802978516e+00
6.599542296776263195e-03,-1.212303900917658162e+00,1.143516126855884885e+00,-2.877646410904046714e-01,-4.186341968672974145e-01,-1.137182049301553761e-02,2.222312688827514648e+00
-2.946181812563167940e-02,-1.181901571635363135e+00,1.089789696334229951e+00,1.102058834365749612e-01,-1.927889589792385616e-01,2.686106783454622268e-02,2.005196809768676758e+00
-2.611363251313787714e-02,-7.729635283064305584e-01,7.084246669384547390e-01,3.242478243410920613e-01,-3.415863991797390975e-01,3.951118834652230655e-02,1.521860122680664062e+00
-1.081350071863747264e-01,-7.277097997657967499e-01,9.120213905892168293e-01,4.452983765862203458e-02,4.048454501824194640e-02,1.181005595558859422e-01,1.452365040779113770e+00
-2.104583069242484394e-01,-3.681914457124732531e-01,1.306096022565761849e+00,-1.982374080378031533e-01,6.320272892113618091e-02,6.398986863523409285e-02,1.645050048828125000e+00
1.582142184201027202e-01,-1.641854179650201528e+00,1.007937825936914944e+00,-3.557876063366414709e-01,4.338886398321655236e-01,2.637289019088915332e-01,2.577795267105102539e+00
-8.725757655380571645e-03,-9.239581242214481849e-01,9.373645117087491263e-01,1.888286893766856402e-03,-2.203954787450321598e-02,4.513767057297539236e-03,1.612500667572021484e+00
-7.606659596921350186e-02,-8.586945145441191585e-01,1.061487160968928034e+00,1.782813776162843755e-01,2.932633887353814500e-02,1.077095306241203088e-01,1.711593747138977051e+00
-1.516437359075927249e-01,-5.955479304640119986e-01,1.038909295447345782e+00,-2.054734250789317374e-01,1.624278500492132848e-01,-4.632598567651100702e-02,1.534667253494262695e+00
-4.413931309200663788e-02,-9.750002878426473618e-01,8.873415456255284717e-01,-9.271927631960545646e-03,-3.523424359217335045e-02,-1.322443012975420794e-02,1.614231944084167480e+00
-1.641088155667214544e-03,-9.697093229323767716e-01,9.647015180156063296e-01,8.788620399278575246e-02,2.335555576211667192e-02,8.254294725004544808e-02,1.688700079917907715e+00
3.618648635954894999e-02,-9.598998706187295005e-01,9.349847460652858100e-01,4.547581106461401519e-03,-8.760033448232854665e-04,-1.254825844467132500e-03,1.641760110855102539e+00
1.360231466284068762e-02,-9.205157513484595322e-01,9.294563144359085927e-01,-4.123068855774799507e-02,9.282381699148221227e-03,-2.250862049364731662e-03,1.603824973106384277e+00
7.782916009943584290e-02,-9.358878659682760004e-01,6.131399350485613464e-01,-7.864414900866412844e-03,5.075717029629431276e-04,-3.232135850527899368e-02,1.363874554634094238e+00
8.780532036468619017e-02,-9.773664788702983719e-01,5.732570619707564319e-01,2.984725985610232890e-02,-5.212579151409223177e-02,4.694976290608864067e-02,1.380137920379638672e+00
2.083939372138789714e-01,-9.331177253519549186e-01,2.296743840968787642e-01,1.937086341180434268e-02,-1.320124798442752212e-01,4.656035378298400279e-02,1.178008794784545898e+00
3.647297509667429827e-02,-9.456346848923430359e-01,9.267523796031528205e-01,-1.633031052224170475e-04,-2.964805720440067890e-04,-7.076658042209590417e-04,1.622185230255126953e+00
4.770815983327347798e-03,-9.516141124806030138e-01,8.092473349445320485e-01,7.809753212879402048e-04,-8.566199502747097461e-03,-1.431459132058420652e-02,1.527115106582641602e+00
-1.546824254672612281e-02,-7.974493069623911357e-01,9.553203363703340889e-01,1.102746942912087719e-01,-3.107795865086126867e-03,-1.863676746744175050e-03,1.532835245132446289e+00
-1.219133263538485917e-01,-6.171291744702223081e-01,9.946459113964352117e-01,-2.168860979739906381e-01,-2.334090596578382582e-01,-2.745348973460950970e-02,1.533525466918945312e+00
-1.399029614443365876e-01,-4.447131557508890998e-01,9.879022387527839344e-01,-1.188759751430483180e-01,-1.003780084785475812e-01,8.401795889122731786e-02,1.342542052268981934e+00
-7.612871957029093695e-02,-8.285387668556801755e-01,9.275279291370135404e-01,1.687959349247202673e-02,-1.204559883725576236e-02,1.538949468879633950e-02,1.526633381843566895e+00
-1.188961814660201809e-02,-9.748938091705646736e-01,9.469654167345479268e-01,-1.526854583651985828e-02,5.582842213051050079e-03,-7.850583986231972344e-03,1.664673924446105957e+00
-6.276515298478160809e-02,-9.701947478544062919e-01,9.099504678885597109e-01,7.057338809855593850e-03,5.226315072155151035e-04,-9.863494999240993762e-04,1.628627777099609375e+00
3.574046527918338378e-03,-1.037395365777494805e+00,9.049538163577812711e-01,-1.959642504315627781e-02,-2.281191169979270711e-02,8.718926120678299058e-03,1.684444427490234375e+00
-3.247175726493654879e-02,-9.633134446385656080e-01,9.221469006264685353e-01,5.308838567198852741e-03,6.532106154618945448e-03,9.206594922481635586e-04,1.632965683937072754e+00
-1.891634410021913459e-01,-4.165262880962835035e-01,1.240519243242230063e+00,-2.552889244305320271e-01,-1.347659127301790161e-01,-4.209315883958947291e-02,1.635867238044738770e+00
8.674285695880930291e-02,-9.286161547980837927e-01,5.876116878464340276e-01,6.541823876220814217e-03,-3.389285931872072256e-03,3.016158816707712950e-02,1.339133024215698242e+00
4.791853270328542969e-03,-8.883448515657215161e-01,9.765385315024875945e-01,-1.566444176677644629e-01,-1.433320792539994866e-03,2.680480483098614600e-02,1.638798832893371582e+00
4.356342942584869038e-02,-7.546423923949389101e-01,4.382547336801694282e-01,-1.120145898747421653e-01,2.570339187547077686e-01,1.483606350094755222e-01,1.187363624572753906e+00
-8.008909182635016305e-03,-9.100226310917487460e-01,9.335417872564198971e-01,-2.490309002345353004e-02,-2.664499472087709930e-02,1.998561787038481349e-02,1.598320007324218750e+00
1.784934728912667551e-02,-9.525275214991641981e-01,9.386002155284195458e-01,1.260686834320411467e-02,1.117690696346570339e-02,-1.907498878433380382e-03,1.638215899467468262e+00
3.755146216540223431e-02,-9.592330462403461100e-01,9.343343628652364119e-01,6.285952982770328691e-03,-4.727542318732397188e-04,-4.610725304769512992e-04,1.640676140785217285e+00
-3.991506587518311305e-02,-5.108369295531550724e-01,5.436276689820538355e-01,1.381605923052857676e-01,-1.184732835743107504e-01,6.611072014507671235e-02,9.744625687599182129e-01
2.555313648481584432e-02,-9.459380450476086999e-01,9.309456749873699088e-01,1.144147167202161711e-03,5.772763789817040095e-03,-5.927546986687901639e-04,1.625797271728515625e+00
-4.466127353153669793e-02,-8.867825804642481824e-01,9.353265991908557009e-01,-1.845139320877594094e-02,-1.530359251761445084e-02,-1.324391119729677498e-02,1.580209851264953613e+00
1.323949154284214946e-01,-1.215486574745556547e+00,6.786316314375014924e-01,-3.875889592420392327e-02,4.722817297929987612e-01,-8.221843048967142353e-02,1.882912039756774902e+00
-1.688623762698165942e-01,-3.732163170034724642e-01,1.085553896185706302e+00,8.060582573019312025e-02,-5.624703663676330206e-02,-1.034157408010770024e-01,1.390227794647216797e+00
6.296804273932907203e-03,-8.157959095951101691e-01,8.905450881855413447e-01,4.042758310121894599e-02,8.749191193069915870e-03,-6.996362325526737404e-04,1.479797244071960449e+00
1.442228885810498649e-02,-9.276337054842611618e-01,9.308135362080141029e-01,2.229603890617639240e-03,1.162066610189917311e-02,8.951120001327649706e-03,1.609718799591064453e+00
-3.967831827966992325e-02,-1.034356495718539160e+00,1.028228891854638727e+00,-7.282160092142873822e-04,-8.813667496925286365e-03,-2.630574247218087254e-03,1.786697983741760254e+00
2.172759094135018609e-01,-1.118603392770680216e+00,2.743908116998448055e-01,-1.594367444100863729e-02,2.091649396112252313e-01,1.347329871067955709e-01,1.431993603706359863e+00
-1.303789752909965127e-01,-6.631243628649861055e-01,8.790555816541898437e-01,1.170852021488587389e-03,-9.552599906593128853e-03,6.246718682107799819e-02,1.361077427864074707e+00
-3.460673291728204315e-02,-9.869709668033683769e-01,9.339876784882494842e-01,6.944484375422558392e-03,6.128749630420590906e-03,-4.899590421425263284e-03,1.663717746734619141e+00
-2.944518098807120954e-02,-9.753055948388640317e-01,9.085931353239951047e-01,-1.303304439299121089e-03,-1.324047685188952793e-04,6.337016739727560459e-03,1.631547331809997559e+00
-2.028477642724155205e-01,-2.628517765346251589e-01,1.353321750382534994e+00,1.199838873814514789e-01,-5.483886125756706059e-02,2.201439531920713899e-02,1.603840589523315430e+00
-1.181461947578407723e-02,-7.223568669290854061e-01,6.866280272219672520e-01,1.142748253732180919e-01,-2.013075075006404147e-01,3.777193148684634266e-02,1.286077737808227539e+00
-6.109233523514293746e-02,-1.055907125395247004e+00,1.083285353715231158e+00,7.073857165377978908e-04,-1.847156835974107097e-02,-3.717364969166273188e-03,1.854391336441040039e+00
-6.902600520734786943e-03,-1.204842156851982260e+00,1.159050284238561268e+00,1.452475390915407005e-01,2.236941110811421080e-02,-1.008565197923725655e-02,2.063090801239013672e+00
-8.049979074478604002e-02,-1.021842323293963517e+00,1.062432389264663213e+00,3.034762735783394592e-03,5.502524023704389970e-03,-1.734455776901888940e-03,1.807882189750671387e+00
-6.755293003299976673e-02,-1.060821831750856870e+00,1.080638823328224696e+00,-4.038839888394339661e-03,-2.619808836146446038e-02,1.302569381451956949e-02,1.856881141662597656e+00
5.108148633066272870e-03,-9.374226102582827735e-01,7.271213839323873440e-01,2.637304480609699645e-03,2.488600013863094540e-02,5.740775793576489289e-03,1.446431756019592285e+00
4.590036602545095185e-02,-1.457207153039198122e+00,1.240567365308891778e+00,-3.854302511519147045e-01,4.725720789115878118e-01,-4.104719166937459418e-02,2.569624900817871094e+00
-3.019264998533872923e-02,-9.945764160149522803e-01,9.852672600576755091e-01,5.898976179216820423e-03,1.193841854263970846e-02,-9.305808832706805034e-03,1.715015888214111328e+00
-4.174366427222069714e-02,-1.020772226992823217e+00,1.023431612756781739e+00,2.377623223726463286e-03,8.759187389635429699e-03,7.346660524801386025e-03,1.770971894264221191e+00
-6.499152069303423818e-02,-1.198143813230218235e+00,1.137690388016425080e+00,-1.502976955287096440e-02,6.763116462948037810e-02,3.567475833560691811e-02,2.027687788009643555e+00
-4.461251996693906680e-02,-1.040013727484450756e+00,1.055191410328647272e+00,-9.037583826449115815e-03,2.367460939105186894e-03,-3.620560786124625563e-03,1.815334558486938477e+00
-3.535416976850580539e-02,-9.944441822959383392e-01,9.601742174083390813e-01,-9.867142708428818399e-04,3.380646357808924588e-03,-6.768944348695554464e-04,1.692858576774597168e+00
-2.559685343156919979e-02,-9.516493398727258191e-01,9.510247741292819912e-01,-8.123069694817413797e-03,1.439913193793185622e-02,-3.910464715931827491e-03,1.648220777511596680e+00
-8.497440460451956279e-02,-1.059259309046329589e+00,1.089268206994539856e+00,9.006084946775556530e-03,7.268172951889334543e-02,-3.439186085081331196e-02,1.868625998497009277e+00
1.241736457137651573e-02,-1.065520106120296351e+00,8.600135180943188073e-01,2.600955944774376027e-02,5.366854359542590214e-02,-3.100329611584862590e-04,1.674722313880920410e+00
2.217311281985413496e-01,-2.123748653508008566e+00,1.360990662455760392e+00,-1.285332228346741101e-01,4.781211715068503509e-01,1.170989061981239365e-01,3.201217889785766602e+00
-1.776803049645161309e-02,-1.302596557799721610e+00,1.233793997211168447e+00,8.024157703264828134e-02,3.657091624860688284e-01,-4.946774539773106556e-03,2.290382862091064453e+00
-6.552575102542945729e-02,-1.040226130610225175e+00,1.074828289815135784e+00,2.739375859464849086e-02,4.401101902088166290e-02,-1.289305224311737552e-02,1.835895538330078125e+00
-6.287622372757607769e-02,-1.033181485871498939e+00,1.061288907665392189e+00,3.257454410052446070e-02,4.125104049050259264e-02,-4.751068773150938888e-03,1.817795038223266602e+00
-7.608635285719828056e-02,-9.718099453025237366e-01,9.344268659151581113e-01,4.322522013634922701e-03,5.353882435147311325e-03,-3.848963012473658775e-03,1.651903390884399414e+00
-1.941312665541676252e-01,-3.931603981895321898e-01,9.835233458721684974e-01,-3.129654626939717965e-01,1.083189617122720314e-02,-1.799413835526343999e-02,1.398583531379699707e+00
3.480123150429696999e-01,-1.703725747208886698e+00,5.564388594782835318e-01,1.818790092271360959e-01,3.233990835402551500e-01,-3.117312352378711626e-01,2.320611476898193359e+00
5.162328802707584208e-01,-1.844967189949417996e+00,3.536163221561591241e-01,-8.963074061139002235e-02,3.394097683011378930e-01,2.953816222347042664e-01,2.418509483337402344e+00
-2.087426529050079305e-02,-9.807778774391849863e-01,9.614325501782219341e-01,2.169778548601154333e-03,1.154935997347569104e-02,1.921464273558563503e-03,1.682167291641235352e+00
2.433883499723334676e-01,-1.907043033253519759e+00,1.121391249231121545e+00,6.099899113175513699e-02,5.019586878245375638e-01,-1.163593261299685488e-01,2.844467878341674805e+00
-1.065743625863417449e-01,-3.064724886566929096e-01,6.928115186539043346e-01,-7.563653829147944097e-02,1.714435612143802926e-02,1.715998643624327691e-01,9.721917510032653809e-01
-1.644156577199591684e-02,-9.284008125422809066e-01,7.714093550702418867e-01,-1.753758767076382952e-01,2.372627660238678660e-01,1.914792095422601925e-01,1.594368338584899902e+00
-2.059010146062091873e-01,-7.825981226350875453e-01,1.349028013354677036e+00,-3.283644750149704583e-01,4.274216314129268557e-02,1.660392503239712658e-01,2.014637470245361328e+00
2.976764480044943179e-02,-9.601606463273649750e-01,7.893702915920232099e-01,1.120030480996573284e-02,-2.785767007456779309e-03,1.234052177017133135e-02,1.519790410995483398e+00
-1.654217597626772562e-01,-4.152821500057897186e-01,9.663251873162875816e-01,-2.241354085485704473e-01,7.505303473520455460e-02,-1.418583009061958888e-01,1.361631512641906738e+00
-5.634216077495497743e-02,-6.910479720515670943e-01,1.018711202833137985e+00,-1.421934870553390740e-01,-5.083855714687997990e-02,2.503877896650166454e-02,1.520271420478820801e+00
8.628701178387970100e-03,-8.808372432927443763e-01,9.777834205251817457e-01,-2.164504255680312350e-01,1.398800694290422940e-02,-7.988723427180556211e-03,1.653412103652954102e+00
9.902030854295404416e-02,-9.587365802096941003e-01,4.770870804607109106e-01,3.650745506969801045e-04,2.112356817852245050e-01,-1.353587001453371991e-02,1.340185999870300293e+00
3.047393324647600793e-02,-9.685487814495998826e-01,9.564093876262975691e-01,-3.940141262453505933e-02,4.422828519417044274e-03,-1.302920178972656520e-03,1.668878197669982910e+00
-1.676633140004259170e-02,-1.365100967893099426e+00,1.182218904524214409e+00,-1.825643096439506508e-01,-2.230402146977658595e-01,-7.984472020052868491e-02,2.267280578613281250e+00
1.875532351469591519e-02,-9.088577534461491636e-01,9.225951859115050224e-01,-3.678289362366054388e-02,-1.254451793958845374e-02,5.339178599206262713e-03,1.587583899497985840e+00
3.769357587926171899e-02,-9.489027187920074935e-01,9.299719771751889796e-01,4.371796466369404959e-04,-4.791656009166065516e-04,5.864850266410119806e-05,1.627836823463439941e+00
3.775754408770545800e-02,-9.594152083533897812e-01,9.316316343419569490e-01,-4.534814882477779079e-03,7.451636597722707464e-04,-2.991021112690074460e-04,1.638528227806091309e+00
3.754369638735519099e-02,-9.660237600615348974e-01,9.378736541409882221e-01,-5.101484760140041069e-03,2.103631471214646199e-04,1.628933357774659451e-04,1.649655103683471680e+00
1.384386343885421478e-01,-1.223025927778395250e+00,4.473783307752953187e-01,-1.134822998958764095e-01,5.540717535794236620e-02,3.205693389517955683e-01,1.650993227958679199e+00
1.643218584774306518e-02,-9.868211517376588304e-01,9.723494074223179018e-01,6.587238097811733140e-03,-1.354399041923824362e-02,-9.508759515544770377e-03,1.697136998176574707e+00
-2.883602604188112428e-02,-9.240796139510835117e-01,9.424668626223328127e-01,-3.121159379429462762e-03,1.907622775425350109e-02,-7.558125024446738643e-03,1.617323517799377441e+00
-2.488168265383304545e-02,-1.101627260101436967e+00,1.214007154226805607e+00,1.180928675449654519e-01,-1.737211806549459822e-02,4.390248650805111952e-02,2.019088983535766602e+00
-3.538722810029287791e-02,-9.755191889559875484e-01,9.346654212316533039e-01,5.698133451312717423e-03,-7.310292444485121154e-04,6.511033209107750484e-03,1.654404401779174805e+00
-3.471735917778061287e-02,-9.765736896496738373e-01,9.354846392985923798e-01,5.477694840091400924e-03,-2.910561579940267127e-03,9.017382743680447954e-03,1.656060218811035156e+00
-4.496137389055399058e-02,-9.592953157649065643e-01,9.405081508266481816e-01,-3.864970322481909573e-04,8.915824271064026404e-03,-1.071282682138611358e-02,1.645839691162109375e+00
-3.709613232304644070e-02,-9.747404333755385064e-01,9.235014307044751014e-01,3.093046217055585214e-03,-8.789939603012137705e-04,1.036409213063790163e-02,1.644073128700256348e+00
-3.560075935618897680e-03,-9.315887251914746203e-01,7.948408396762701722e-01,-1.045460204227729312e-02,-7.761906083052693903e-03,-2.193007353137986504e-02,1.497187852859497070e+00
-7.222678759503475820e-02,-9.683057162264359086e-01,9.184324244319722608e-01,4.029248309592433318e-03,9.749316833415207564e-03,-4.524436203748087582e-03,1.634768247604370117e+00
-6.141584612293597700e-02,-1.251175745476622803e+00,1.232272560488224533e+00,4.060129972060028125e-01,-3.469591458115628413e-01,3.152145809019084310e-02,2.342434406280517578e+00
-2.287023192999687593e-02,-1.129006519880730641e+00,8.741320613940618545e-01,-4.604325894787797413e-02,-3.087622762523640763e-01,5.264790885063552056e-03,1.820110678672790527e+00
1.924726454476729243e-01,-1.981661573885585836e+00,1.301459091193463591e+00,1.675591194096128778e-01,-5.693304984733212892e-01,2.619355666725034417e-03,3.069927692413330078e+00
-2.041513422076731143e-01,-1.746624898388429381e+00,2.042014242051158224e+00,4.822839539650422003e-01,-3.360791702080211385e-01,-5.828198027605994286e-02,3.454846858978271484e+00
-1.132455268790788852e-02,-1.172239656186238932e+00,1.131419328415617986e+00,-8.737772830348933262e-02,-9.261412240110015320e-03,2.870529316896863400e-02,2.001461982727050781e+00
-2.263781567535782385e-02,-9.670355348369720216e-01,9.513312667515830823e-01,1.030662487998051935e-02,-1.945658697273354790e-03,-6.297885349342793003e-03,1.661555290222167969e+00
-4.381448829202146816e-02,-9.754762835528349996e-01,8.864258578151005263e-01,-1.353576446734987108e-02,-3.339833457413995260e-02,-1.153586483761474997e-02,1.613786101341247559e+00
-1.861133912200451171e-02,-1.086014293897540117e+00,1.154587740394122264e+00,-1.627899348858993234e-01,-1.758422875579927075e-02,6.479620885289631704e-03,1.961778879165649414e+00
1.169370648962618636e-01,-1.120976062997286693e+00,6.339264772841948226e-01,2.650247959093121608e-02,-1.449553973386850658e-01,1.112393044768318073e-01,1.594352841377258301e+00
-4.610824516783611909e-02,-9.884342342836734963e-01,8.833805961617762215e-01,1.059904431745958484e-02,-1.358329852534719551e-01,-3.966702315320328603e-02,1.639578700065612793e+00
-2.183745563956337177e-01,-9.458177093677004876e-01,1.586042534479060961e+00,-3.552882663563465271e-01,-1.275519785392137950e-01,-1.252141515017754503e-01,2.360558986663818359e+00
-7.098442924382690478e-02,-8.033954584091105300e-01,1.013856759035178134e+00,-1.646851861211720003e-01,-6.344020127483902816e-02,5.948388008173511980e-03,1.612885475158691406e+00
-3.183897901140673309e-02,-1.230610406087428332e+00,1.164444516779248540e+00,5.141126920656963195e-02,1.560380336647858995e-02,-2.308095346318435326e-02,2.076650142669677734e+00
-1.018427860136491558e-01,-6.112038643675339333e-01,9.107266011024377494e-01,-2.344875400377212094e-01,-1.254352669125263220e-01,-6.881437074769672368e-02,1.423681974411010742e+00
-3.895158699995203422e-02,-1.033175756974437975e+00,1.031344725105991733e+00,-4.060491980150197390e-03,1.111305069876225571e-02,6.934964544526370234e-03,1.788489460945129395e+00
-6.017962792765904623e-02,-9.657022772622354534e-01,8.944445218048789892e-01,8.286397712398401588e-03,-9.035225333937881497e-04,5.942711453312302453e-03,1.611219048500061035e+00
-9.658898415346575672e-02,-5.707512590947746434e-01,9.139406919716960287e-01,-2.538627467470522259e-01,-1.341474863331566791e-01,5.654592335604046588e-02,1.407861113548278809e+00
-4.466329815471270503e-02,-9.743235036541066929e-01,8.895194616542773103e-01,-1.284246519982611308e-02,-3.713589499320910786e-02,-1.620086830563876104e-02,1.615814805030822754e+00
-8.749695933974804829e-02,-1.023366016838255899e+00,1.033677534764630535e+00,-3.183769803894499501e-03,-1.253567353197558229e-02,5.593944884874555573e-03,1.784026741981506348e+00
2.525541763453528418e-02,-1.024100405035273553e+00,1.008060334029569516e+00,-4.851316122844173684e-02,3.412042503952045572e-03,-9.967441938347218131e-03,1.762316346168518066e+00
-7.874684406327343844e-02,-1.005656924770153449e+00,1.028852102729335360e+00,-6.275685225263231276e-03,-6.690808802620244918e-03,3.034211820613432874e-03,1.764330625534057617e+00
-3.924333404351114385e-02,-9.838307578899055938e-01,9.595409598418223052e-01,3.804861110806148639e-03,5.941851754292229969e-03,4.411366040542274297e-03,1.683289170265197754e+00
-2.876337261654826616e-02,-9.760112643578658931e-01,9.997653591132374951e-01,-5.320788757900108551e-02,-3.083485508476551881e-02,2.747356565436009056e-03,1.714873075485229492e+00
-1.739536483960134050e-01,-2.733938195865401877e-01,8.190680817193073393e-01,8.939675573899696914e-02,-2.205345367838065437e-02,-7.764610284835690712e-02,1.066887021064758301e+00
-1.248641815927756527e-01,-6.142152291826753485e-01,8.883637456805262289e-01,1.195927387407238751e-01,4.829808846395079562e-03,-3.232646843279411621e-03,1.343476057052612305e+00
-3.416604463573991168e-02,-1.002468521243235378e+00,9.804012226965054255e-01,5.731173546863648979e-03,1.724288448133603352e-02,8.238060800547980511e-03,1.717718958854675293e+00
1.729886361506814685e-02,-9.483635520751048098e-01,7.334791142956306187e-01,1.556279872709089573e-01,-3.060555400361967826e-01,-3.331189377688220654e-02,1.579242110252380371e+00
-1.433971659352287764e-01,-2.086005943253883554e+00,2.289598231976857967e+00,2.565261473289260907e-01,-1.188702897005417258e-01,-2.421548546265282070e-02,3.828984260559082031e+00
-1.422007745969351422e-01,-4.911606711593860530e-01,8.618534010730999340e-01,7.533537487591339399e-02,-7.382124225471538466e-03,-1.674867568556894643e-02,1.224052190780639648e+00
-6.051790755822095830e-02,-6.403686814406880368e-01,8.062577305318237020e-01,1.432545873629875455e-01,7.691513277542084449e-03,-7.697228561350709375e-02,1.292147397994995117e+00
-7.623735263375405746e-02,-9.938319298828063308e-01,9.891196813897140672e-01,-3.755803795304017353e-03,7.990043580830011316e-03,1.009618879247741125e-03,1.718943953514099121e+00
-6.245178344740218157e-02,-1.014306771788578310e+00,9.853754134159679046e-01,-1.094826236260955030e-02,-1.319303205642027854e-02,-1.135207548018648920e-02,1.732806324958801270e+00
-1.593883732869519898e-01,-5.441332074325373469e-01,8.725529351260139510e-01,3.894931607464234558e-02,-2.353965662884963811e-02,-4.519629536055154440e-02,1.273698210716247559e+00
-6.909251897312865265e-02,-1.063560637365461581e+00,1.168369971092754867e+00,1.009434893436225444e-01,-2.065209597400051167e-01,-6.959460563774590158e-02,1.980895996093750000e+00
-1.369861501819038541e-01,-5.340516309661058614e-01,8.712152471629857065e-01,6.646952817670309654e-02,-7.882543477728534351e-03,-2.840993183231887639e-02,1.261077046394348145e+00
2.116952704264606772e-02,-9.770855091461467801e-01,9.457655120399439674e-01,5.316127991124550839e-03,-5.597164866164816804e-05,2.840408022527240919e-03,1.665677785873413086e+00
-2.506283511701928868e-02,-9.932906666759595549e-01,9.634190017092391090e-01,-5.734689056133179981e-03,2.474045804911020018e-03,3.238730717731011770e-03,1.694634318351745605e+00
1.269048053480959122e-02,-9.122498263432581300e-01,9.264031688258033137e-01,-2.773397594471460267e-03,-1.364823204317537272e-02,9.498442723857856637e-03,1.592597842216491699e+00
8.678462804316534884e-02,-1.908486789281572449e+00,1.540528039199305699e+00,8.933234704455937647e-02,4.294413934458545246e-01,6.118487133267020567e-02,3.095726490020751953e+00
-8.202468918366981332e-02,-9.693632794239448458e-01,9.319018108646799359e-01,-5.389153874337325022e-04,-2.008200451536654163e-02,-2.406434177183799580e-03,1.648132562637329102e+00
-9.793219255846954963e-02,-1.142190295592955041e+00,1.292960801308842944e+00,6.304980303190946267e-02,-6.423544054181418161e-02,-4.306019064405466196e-02,2.123058319091796875e+00
-5.403424066535344322e-02,-9.878018740955729626e-01,9.564718088530408391e-01,-1.084276877592505947e-02,4.931893458559447919e-03,6.659534266918559244e-03,1.684393405914306641e+00
2.263465365848213451e-01,-1.815294123541077109e+00,1.016234784898751187e+00,-2.933083869847686320e-01,5.713539351344499861e-01,2.159884567371022357e-01,2.789671421051025391e+00
1.737980254626870780e-01,-1.098728664673891187e+00,5.034197187317572819e-01,5.639026735885727115e-02,4.296550294099900080e-01,4.607300205799089166e-02,1.648376464843750000e+00
-5.832562977142887600e-02,-9.950086152586619104e-01,9.655475415335812439e-01,3.152711690692470980e-03,3.143951653714014555e-02,-1.128881308009698631e-02,1.699445009231567383e+00
-3.312034615371162172e-02,-9.795231928427996504e-01,9.315247284366741098e-01,-5.759065473472580431e-03,-3.019701777598012959e-03,-1.055750171657412941e-03,1.655080556869506836e+00
-4.999614897617717796e-02,-9.823252544850942236e-01,9.616200635350736770e-01,3.098542434658858955e-03,5.180845254619501766e-02,3.723468616458271846e-02,1.687603235244750977e+00
8.213691151114117794e-02,-1.063375074278060994e+00,6.315797152436684048e-01,-3.313159702043000365e-02,-1.110297188206785801e-01,-7.838955335442293615e-02,1.517296671867370605e+00
-5.688243295451131387e-02,-1.247595949036824470e+00,1.158405599192937840e+00,4.608676283169959587e-01,4.644656504555933485e-01,2.485107328723658998e-02,2.372344493865966797e+00
2.292356629819525538e-01,-1.032539487980266069e+00,2.797667364899655285e-01,-5.607210517732687076e-03,-7.976866579386995837e-02,1.063685250942144056e-01,1.308248877525329590e+00
-3.553719924940873520e-02,-9.919145236173689817e-01,9.664700507267436347e-01,4.480304312652685916e-04,4.587183864538592511e-04,6.238033898992721878e-03,1.696199059486389160e+00
-1.580682356588537507e-01,-2.662655189755370744e-01,7.675281116452148389e-01,-2.816818847039433416e-01,-1.381015381057876523e-01,-1.336983302637298476e-02,1.124441504478454590e+00
-1.299366127987552216e-02,-1.009167330889189307e+00,8.264233784741661371e-01,1.599080360364389941e-01,3.049301328844684078e-01,-4.334022217220377671e-02,1.701317787170410156e+00
1.559688851480086347e-01,-9.638259125372474756e-01,2.738685247528153122e-01,4.223406486156564520e-03,-2.104532787290122331e-01,2.107126264067374702e-02,1.238596558570861816e+00
-1.456717838781710836e-02,-9.910964315974597483e-01,9.638448904350784829e-01,-6.980159598219202576e-04,9.143839941305388630e-03,1.304949516076204033e-03,1.693105101585388184e+00
6.499201012901613395e-02,-1.923389748251342013e+00,1.551483106766125886e+00,-3.821303254875677569e-01,4.656161138873396999e-01,1.200472705745244117e-01,3.201676130294799805e+00
-1.557097815941188290e-01,-9.073783575322726946e-01,1.201108726443898878e+00,-3.993006632569168213e-01,-1.180171856412305133e-02,1.987004034362736815e-02,1.976300954818725586e+00
6.848642781017391656e-02,-9.536802776615099786e-01,6.171418276182726315e-01,-2.506402769238152365e-03,-1.536611563529231284e-01,-1.900768885035613101e-02,1.406628131866455078e+00
9.839849008955250942e-02,-9.107836727300828716e-01,4.452408442234689345e-01,-1.923021556678065859e-03,-1.121352116873628318e-01,-1.072245893561590141e-02,1.235659480094909668e+00
1.666168718705935137e-01,-1.007183627685511063e+00,3.765408668567855610e-01,1.181029823035556064e-01,-3.109063982162883488e-01,9.051859019789941507e-02,1.422919034957885742e+00
-3.867909728286503257e-02,-9.232033895178705096e-01,9.495232049400055274e-01,-1.741327825170385646e-02,-2.660317044309593384e-02,-6.190434873751612596e-03,1.623626708984375000e+00
-1.447216360047772765e-01,-2.057512354288451917e+00,2.237291827976029879e+00,2.161625367139690668e-01,-1.474456478327225428e-01,-7.840440632996817372e-02,3.756712675094604492e+00
-2.967300371475977555e-02,-8.619615476461007786e-01,8.046811236664825895e-01,1.088591817970037921e-02,1.067983910060429789e-03,1.754153082036141037e-02,1.443799257278442383e+00
5.321513587043674720e-02,-7.663951054568616250e-01,3.659861683166550916e-01,-4.082555332742326265e-02,2.890119928867803875e-02,-7.091659192343537088e-02,1.023977756500244141e+00
-5.483495344335000132e-02,-9.533489870273346156e-01,7.917389194299153665e-01,2.150558481055304429e-03,-1.108704646176834341e-01,4.866413726143242746e-03,1.523691296577453613e+00
-9.875160695624701779e-02,-6.631035515028247396e-01,8.772466388184949615e-01,7.363130692435400533e-03,2.856124061548131338e-02,4.288637668870064895e-02,1.352774858474731445e+00
-2.919079164116000769e-02,-9.749717931717853947e-01,9.202752189657907866e-01,1.040432734434540516e-03,-3.501566300425393123e-03,9.836143557640179141e-03,1.641433715820312500e+00
-4.086927784226890639e-03,-9.937205911035343897e-01,9.638224127014555220e-01,3.833469063653248193e-04,-1.082719204511775959e-02,5.092160476464553664e-03,1.695443511009216309e+00
-7.772191501881925424e-02,-9.928361945376903419e-01,9.910174643966359609e-01,-4.325329578665712722e-03,-6.309683389251352637e-02,1.143088970455572242e-02,1.723382830619812012e+00
1.707238973516201144e-02,-9.573628244592218284e-01,9.394884923357165185e-01,-1.436767861474193969e-02,-8.980056581385254325e-03,4.978231683374325506e-03,1.643212080001831055e+00
1.623992890778064649e-02,-9.645509643472818251e-01,9.440839847350676051e-01,-4.609574050912249802e-05,3.355720650965425197e-03,-8.170358741009375999e-04,1.653149127960205078e+00
-1.201236012299149725e-01,-5.927470610114105032e-01,8.743761967097950505e-01,-9.926411630656377383e-02,-6.964121719883149819e-03,1.306141292343311611e-02,1.308680295944213867e+00
-2.381834473291669918e-01,-3.791398993061562139e-01,1.341988705794527448e+00,-2.559287334034953121e-01,5.475132416705319471e-02,2.466722392287941379e-02,1.716643571853637695e+00
-8.687254049409391665e-03,-9.521280070678908025e-01,7.828081851946615544e-01,1.232794310335130587e-02,4.278888670353168944e-02,6.517368677442271496e-03,1.506436347961425781e+00
2.130772586917933920e-03,-9.504418726003553974e-01,7.548015348133118030e-01,1.500780682641351602e-02,5.912450871694611282e-02,-1.581995978322532637e-02,1.484181642532348633e+00
-4.105544529090331130e-02,-1.173450621761653823e+00,9.873111262087053142e-01,-4.118326848329845746e-01,3.798479832940155898e-01,2.022669574579388230e-01,2.137470960617065430e+00
-3.541029572572101242e-02,-9.834471625653202764e-01,9.500321580454028636e-01,6.193404910359377735e-03,6.863704094258173084e-04,-4.600818211046448988e-03,1.674600362777709961e+00
2.292532883779658248e-01,-1.531850972321438853e+00,6.545996620943812516e-01,-2.520990742357156478e-01,3.581266309187675079e-01,3.437970800348121303e-01,2.227442979812622070e+00
-2.531911110957419525e-02,-9.891185946572287335e-01,9.311674715219995235e-01,-4.425849218983252467e-03,-2.257864355735508376e-03,-1.228516770544010872e-02,1.663178920745849609e+00
-4.874829850537594489e-02,-8.513845991624318099e-01,9.245550148240644361e-01,-1.339392095222272094e-02,-1.825221486738309515e-02,1.091868164628010535e-02,1.540989398956298828e+00
-3.653833371093745397e-02,-9.574931777045807557e-01,1.004279034438378737e+00,-9.135968200937572004e-02,1.168314505016622082e-02,-4.957030057526682493e-02,1.709627270698547363e+00
3.207677313214054443e-02,-9.622949771216673387e-01,7.749867206757721227e-01,2.117259582980492681e-03,-7.097201849668061417e-04,-1.671338327770676910e-02,1.510056972503662109e+00
-1.917107221338829603e-01,-1.615252828213934455e-01,1.400102019648816754e+00,7.881654106423370554e-02,-2.778424810804214218e-02,-7.303932260536025178e-02,1.588611245155334473e+00
-5.241289303154333945e-02,-8.392277104269533217e-01,9.133307404930237627e-01,-2.346698636234289051e-02,1.745094291953329727e-02,7.181464053201913611e-03,1.521288990974426270e+00
-5.655587196762772162e-02,-9.428256484368958690e-01,9.336082108422836257e-01,-1.120370771645002542e-03,-1.641676503258947869e-03,-1.310170808441948540e-02,1.626031517982482910e+00
3.327198532819325427e-01,-1.601951867626703052e+00,3.127209608834182752e-01,-4.233239330068690187e-02,-3.608081369401614641e-02,9.510213573154671640e-02,1.934186697006225586e+00
5.518794885080870183e-02,-9.346513051798145399e-01,6.061911731582068086e-01,-1.055581781380529778e-02,5.846896783901449346e-02,3.575917126959030773e-02,1.357651352882385254e+00
1.304880648648158031e-02,-9.653392951800210398e-01,7.827334726382182417e-01,1.976784855447953973e-02,2.498285035572000686e-04,3.736926905165260937e-02,1.519233345985412598e+00
1.472978801643332891e-01,-9.195850733265941157e-01,1.966453855715324106e-01,-1.354405403085309767e-01,7.660316088247916266e-02,-9.190359178832875620e-02,1.136352896690368652e+00
8.647970412239941451e-02,-9.747484499820696646e-01,6.520650292838993112e-01,-6.750567821375090191e-03,3.448444247036248911e-02,2.506374927513638218e-02,1.432443976402282715e+00
8.944548878390261304e-02,-1.018304174346696067e+00,6.491344544576681530e-01,-2.043674540696739650e-02,-3.873783181820468838e-03,1.321537148768993919e-01,1.487967729568481445e+00
3.774070506585132656e-01,-1.821475353024044841e+00,5.841867108057650082e-01,4.121247519661579845e-02,-3.166320579342823960e-01,2.707004723457849815e-01,2.420377016067504883e+00
7.180863559093908499e-02,-7.463719899616942932e-01,2.518179261199020580e-01,-1.380241385330744364e-01,-2.956907925076383489e-02,-1.792187362025464067e-02,9.538561701774597168e-01
2.650102633894944881e-03,-9.664440133617424600e-01,8.208582371936217204e-01,-1.921606847136228102e-03,-3.342712081912148359e-04,-1.935619204447549049e-02,1.550052881240844727e+00
5.466116665469880620e-02,-9.537743138001147924e-01,7.062177165817035140e-01,-6.629852338612280023e-03,1.044243521558693537e-02,3.576315022670032567e-02,1.450109243392944336e+00
2.807657492043650893e-01,-1.827647840092840426e+00,8.844909236168967404e-01,-1.773053082714678708e-01,-5.438660145037343963e-01,-1.450981625222274585e-01,2.669763565063476562e+00
1.148242640474246845e-01,-1.000414281456095456e+00,4.590780464112848014e-01,-1.770291186757940727e-01,-3.745372498263730421e-01,-9.299713368594669793e-02,1.512279868125915527e+00
-5.111648154850209624e-02,-9.850276912995966638e-01,9.488326699047179291e-01,5.142687530063013400e-03,-5.996043144583909461e-03,7.550139997525790250e-03,1.675204634666442871e+00
1.302551859656558841e-01,-8.347124988586472893e-01,2.700596355237237511e-01,2.884978672001013017e-02,7.581435914123856121e-04,2.684990598920109633e-02,1.044162869453430176e+00
8.319261507235835296e-02,-1.167107020529459804e+00,7.575266246943220816e-01,2.817287441483058430e-01,-4.332831772126191083e-01,5.855286520531192279e-02,1.916428089141845703e+00
1.721437484985566257e-02,-9.470695591030049432e-01,7.434747274929238703e-01,-1.403916619534031039e-02,-5.163963836376838160e-03,7.705943193938515241e-03,1.469172596931457520e+00
-2.113655177353635298e-02,-9.362125121410981299e-01,9.457375560936778225e-01,4.387569192216542180e-03,1.890182671440632234e-02,-6.551499984557302564e-03,1.630408287048339844e+00
-2.616928050186811266e-02,-9.261295332936536617e-01,9.340413963614857540e-01,1.765669488290461803e-02,6.906614269439480432e-04,-6.517912126472625613e-03,1.611567139625549316e+00
1.231496759573000310e-02,-9.653978572245889289e-01,7.542134618467373208e-01,-7.255434301836545183e-03,-1.351940069768927388e-01,6.463464823942457159e-03,1.512221813201904297e+00
-4.670541723761859054e-02,-8.538072744312686924e-01,9.250632835441024993e-01,1.336792528089122273e-02,1.922164937489929601e-02,1.010654267096149951e-02,1.543377876281738281e+00
8.079970969623301302e-02,-9.144220107584952739e-01,5.719229334558806332e-01,6.363340008440914082e-03,-5.836154500538057177e-02,-2.500708481104080110e-03,1.315599918365478516e+00
-1.407965718423747313e-02,-9.853701591144056193e-01,9.611091593173768377e-01,-5.680591529660509488e-03,-1.759464658542622207e-03,7.910418839012098519e-04,1.685733675956726074e+00
-1.900964103120263496e-02,-1.003693566770637258e+00,9.591258026983381368e-01,6.057108061513306885e-03,1.075512310425296922e-02,8.849025125205637471e-03,1.700058102607727051e+00
1.463146599625171629e-02,-9.332369367608522870e-01,7.088334222546385233e-01,3.374049383667504509e-03,-4.399113748785377087e-02,-1.935716697806037648e-03,1.429767131805419922e+00
-4.112335973383421384e-02,-1.005745445827379125e+00,9.563418953750799645e-01,-2.709321215972956137e-02,6.745987288850114998e-03,4.331145969261118722e-02,1.701639175415039062e+00
-1.117894081760747726e-01,-8.377919618738308705e-01,1.083377414528120974e+00,3.168935645881011398e-01,-2.510135652289949282e-01,1.441663254796935606e-02,1.820469498634338379e+00
2.083340401235575512e-03,-1.186042172320992405e+00,8.557247007185619925e-01,-8.040381052935380995e-03,-2.597505921406900176e-01,-4.818894505789424881e-02,1.834162116050720215e+00
-2.785280036903578851e-02,-9.601662008146305549e-01,9.091785749117917703e-01,-2.401163276709844703e-03,-2.053824764502696059e-03,-3.445547294927932529e-03,1.618921995162963867e+00
-3.575858183675419133e-02,-1.024964572939656593e+00,1.110505347891191485e+00,-1.231558304744205662e-01,-4.938147074040202811e-02,-4.021505679602647987e-02,1.866550326347351074e+00
1.282629175276814304e-03,-9.425738881216459975e-01,7.270136307643140228e-01,8.193847873429607048e-03,-5.947838596923286925e-02,1.393660360140028948e-02,1.453937292098999023e+00
7.844825167285188194e-02,-9.522114855357024510e-01,6.176796277993937823e-01,1.603417386814368073e-03,-5.861502018104807615e-02,-4.469230735847302721e-04,1.385319232940673828e+00
4.290135330581236472e-02,-9.317939619643476057e-01,6.566826557434172207e-01,7.114105579516051374e-03,-1.425012357096043167e-02,-1.305177687454035264e-02,1.387905001640319824e+00
-1.072695108046994861e-01,-6.330082052106149604e-01,8.737334664360695280e-01,-7.893354437504497556e-02,-8.542023756810304680e-03,-1.154799876447953379e-02,1.331851959228515625e+00
-7.986673407076466669e-02,-8.742916055047501578e-01,9.631660714321480521e-01,2.466728494818938230e-02,4.507388590831767385e-03,2.349234272263842419e-02,1.597241878509521484e+00
-9.108018742486548303e-02,-1.133192165797417550e+00,1.177147724271859985e+00,2.042951274538580900e-02,-8.788141034464946877e-02,-3.326534527622087428e-02,2.010914325714111328e+00
1.520320160399262766e-01,-9.476479988225914308e-01,4.637027777645737481e-01,-2.654442107744304710e-02,-6.743555578232202086e-02,1.557315758471173456e-02,1.290603280067443848e+00
-8.297618593302621970e-02,-1.514075020160862373e+00,1.483227154617345001e+00,5.424923597780192397e-01,-4.990561466068429430e-01,8.716069906172418946e-02,2.897461652755737305e+00
2.945647377022366231e-01,-1.592218713723100532e+00,5.256468267961840191e-01,1.628748428041712493e-01,-3.096585863471984501e-01,1.915971992113068012e-01,2.127611637115478516e+00
-9.261244266404952685e-02,-9.586937164353950269e-01,1.106351467739682626e+00,1.771977075043222327e-01,-1.902114605092906086e-01,1.521785574054044521e-01,1.870354175567626953e+00
9.924789633587446924e-02,-9.266947483425741483e-01,4.518549495717528730e-01,6.225339806650950769e-03,-1.161496905753927611e-01,2.369480436297961845e-02,1.257345438003540039e+00
-9.227489387845493052e-02,-9.931632262787962739e-01,9.895743290698620909e-01,-6.798901608766372805e-03,-9.318095180416197110e-02,5.180716692397455917e-04,1.727081418037414551e+00
-4.177965991534311058e-02,-1.011673686105192482e+00,9.672483784000663887e-01,-1.308591229292466705e-02,-2.510398579210685113e-03,-5.095616332475984972e-03,1.714086532592773438e+00
5.669130215717528565e-02,-9.328587141197005606e-01,6.186900737034715103e-01,4.956152683947265269e-03,-6.683719212110683650e-02,9.717736218294194608e-03,1.365626692771911621e+00
-1.712268277367607894e-01,-1.704401537349060192e+00,1.856569979222999489e+00,3.314910260073538062e-01,-1.547655309053717898e-01,1.073383719388449828e-02,3.158071041107177734e+00
3.562695383597463961e-02,-9.375490974123622534e-01,6.114151249058960014e-01,-5.728807944039538205e-03,-1.912732600531165672e-01,-5.087861794731769922e-03,1.396022677421569824e+00
-8.410961765746925722e-02,-6.022640480191999712e-01,9.320003344190639361e-01,-1.986954511040940341e-01,-1.992352471648769704e-02,-4.253028516913270711e-04,1.395383954048156738e+00
-7.950768028715884950e-02,-5.983235175006104134e-01,9.168840571703611442e-01,-1.822376455262910699e-01,8.588285249140853450e-02,-1.739474494807511512e-02,1.378976821899414062e+00
-3.983133666703952969e-02,-8.956788443154609647e-01,9.872190365700336256e-01,-2.660784979515038451e-01,1.911618767572826824e-02,2.708874399424453933e-02,1.697644472122192383e+00
3.671643592526110944e-01,-1.798953534941515331e+00,6.010179209481816276e-01,1.320516495188819861e-02,-3.440546398151972940e-01,-5.050884826851717579e-02,2.369937896728515625e+00
-1.406526164734461237e-01,-7.247614763920461334e-01,1.083315589932882572e+00,-1.520847545499419418e-01,2.121266768413387210e-02,3.328873612897678691e-02,1.621195793151855469e+00
2.540212264654282404e-01,-1.547256473378196384e+00,6.498428887176939117e-01,-2.036364138139022395e-01,4.298806212805974525e-01,3.374192602176254163e-01,2.265968084335327148e+00
-2.232210186631675836e-02,-1.007821959598091288e+00,9.978380760717967535e-01,-3.162332981451057567e-02,6.808738894712281636e-03,-3.534075297576442891e-03,1.737953186035156250e+00
-7.947191627325508878e-02,-8.487111364304875671e-01,9.609054329172457276e-01,-1.538995880930578430e-01,2.805478936035243377e-03,7.152770522606106962e-03,1.595507860183715820e+00
4.507962123654928044e-02,-9.331105499543658199e-01,6.474726222795467168e-01,7.696501316300934786e-03,1.369869624282355272e-02,-9.603060257782000675e-04,1.381930470466613770e+00
8.690789210597298087e-02,-9.198700836472860631e-01,5.502470719841827673e-01,-6.271645659056585519e-03,-5.339916960307018734e-02,-1.769536493356115361e-02,1.305517792701721191e+00
-2.568603523069797889e-01,-4.914768943755917219e-01,1.411529973769686475e+00,-3.168589588377147548e-01,-1.216434520562217347e-01,-6.796042080353581483e-02,1.894584178924560547e+00
-1.836342106840992694e-01,-6.149676354417761281e-01,1.210321580022093224e+00,-3.262327470318257538e-01,9.900662487202911699e-02,3.106654246028146132e-02,1.755564451217651367e+00
3.793234216428852945e-01,-1.855684293392965589e+00,5.327442555693187032e-01,-8.278473606670824769e-02,3.160974016892120764e-01,-4.122979729688192822e-04,2.383696079254150391e+00
-7.921228827875229084e-02,-6.957085051293315781e-01,1.080031131572094960e+00,2.942826994161136800e-01,-4.879880971453013153e-03,-1.295575668670884140e-01,1.657955288887023926e+00
-1.120878465958276421e-01,-6.444939385105474816e-01,9.855022404258471092e-01,-2.822201496880969440e-01,1.043808055762324855e-01,-1.019704494999023325e-01,1.541216611862182617e+00
-4.327126440227732629e-02,-1.042097902410511923e+00,1.053227108186919780e+00,2.308660356023822455e-02,-2.540802064856843845e-02,-9.295212911483127435e-03,1.816306710243225098e+00
-4.957115556009679402e-02,-1.355485834706919857e+00,1.389545851057838899e+00,1.922561129660536050e-01,2.465791883797333051e-02,9.158731362097180181e-03,2.401832103729248047e+00
-5.479484692229245890e-02,-9.512862945847554430e-01,9.397823956943566204e-01,4.278856921748745192e-04,5.309631062655914514e-04,1.614888663002459271e-02,1.638686895370483398e+00
3.986025932512383962e-03,-8.487006804413852468e-01,9.070397559824521228e-01,2.919413188639600337e-02,-6.909528846009046522e-03,2.271757235305489619e-03,1.521616935729980469e+00
-3.420110162782050156e-01,-8.962562579055981526e-01,1.675446531592662769e+00,4.482997489411661984e-01,2.699545811275888291e-03,-7.767985388657082033e-03,2.469536304473876953e+00
-3.487778990376373678e-02,-9.785307724773033566e-01,9.215214649393312918e-01,-1.033548244662788745e-02,-9.410326779187305063e-03,-1.110905212748389097e-02,1.645796418190002441e+00
-5.198593460082721190e-02,-9.833662713526951649e-01,9.548019780808781887e-01,6.480003653521490634e-04,2.478168900298002506e-02,7.586283599927627630e-03,1.679526686668395996e+00
-4.852524104025455337e-02,-9.846879012347978799e-01,9.409459266273386691e-01,-5.338547456243876790e-03,-1.970294460344216507e-04,-1.793150597459272676e-03,1.667889356613159180e+00
-3.579677748609703947e-02,-1.049936752858635858e+00,1.120457975461422562e+00,6.699762957079311021e-02,9.165512638064311768e-02,9.675041830574215851e-03,1.891284704208374023e+00
-2.149137236367690551e-01,-8.057181826936865576e-01,1.423876039749857991e+00,3.275089636198710852e-01,-1.423645750278682287e-01,-8.031849994738177179e-02,2.098768472671508789e+00
-3.490595743565613751e-02,-9.745430944020785358e-01,9.478560129923260247e-01,-6.367439079172194320e-04,-6.340313519001111384e-03,-3.550646779144699464e-03,1.665034055709838867e+00
-3.369139066618793699e-01,-1.049504838582289379e+00,1.905898233156219979e+00,4.867106014380963019e-01,-9.458990598624419932e-02,4.785681148316822675e-02,2.807235956192016602e+00
-1.480116219219803908e-01,-6.696756730184784123e-01,8.933797821369512393e-01,1.608573914770161997e-02,-8.957295380531828805e-03,5.956391512719398651e-02,1.382586836814880371e+00
-3.324677245855511831e-02,-9.963939027984618502e-01,9.650316780919748760e-01,-3.418822963011364626e-04,-1.974725382521528433e-03,-4.783891248107115333e-04,1.698738932609558105e+00
-2.565780168437327077e-02,-9.671483063451478124e-01,8.795251444004825725e-01,-8.076808960316619185e-03,3.433390502295182584e-03,1.659994325976370255e-02,1.599699735641479492e+00
-1.094812048042783509e-02,-9.529504462586726454e-01,8.432045497678329893e-01,7.329487048675167177e-03,-2.344173220638206406e-02,-2.790991408128662074e-02,1.557467699050903320e+00
-1.024462806760389477e-01,-6.188947793791927943e-01,8.604988602211200988e-01,1.433184313272879186e-02,-6.464471420513781194e-03,3.544857583922017292e-03,1.300797104835510254e+00
-2.145222147295159851e-02,-9.951006059440440366e-01,9.614728575934360366e-01,1.273781250949570891e-03,-8.937583073301020448e-03,-3.810413038347910258e-03,1.694533705711364746e+00
-2.040871740230233433e-01,-3.264297364087662690e-01,8.798225860964338230e-01,4.234753138453824749e-03,-2.661162273394024683e-02,1.496722891987430359e-01,1.179754257202148438e+00
1.551053355627421693e-01,-1.801439494612372627e+00,1.168527953257721075e+00,-3.308916589868266533e-01,-4.592326439545521555e-01,-2.491927343762720404e-01,2.825834751129150391e+00
-9.038855160227132757e-02,-1.074736840023359008e+00,1.077505200178675127e+00,-1.762797690225543709e-02,-7.381534929861696681e-02,-2.774486996037634629e-02,1.871394991874694824e+00
-3.369318703818924288e-02,-9.836305223160927147e-01,9.302259723418360160e-01,-6.657983460742997704e-03,1.811319636584137870e-03,-4.826329622503856484e-03,1.657527208328247070e+00
-1.562387960197114123e-01,-4.529008590328835737e-01,8.538424741231078752e-01,-1.267321801990383377e-02,7.602493326896306997e-03,2.694976661420098174e-02,1.187753915786743164e+00
-5.886404067410491714e-02,-9.655369211102365901e-01,8.863564737641970170e-01,-1.435569769463244938e-02,-3.606471568384703869e-03,1.188202631168575486e-03,1.604108691215515137e+00
-5.105508621118402118e-02,-6.680731848790314453e-01,8.636372259633077197e-01,6.554054056177276155e-02,5.505542556925863487e-03,-4.625895334442331128e-03,1.339700341224670410e+00
6.063402966708800190e-02,-1.025972212264653516e+00,6.684875475572213954e-01,2.273167761232475475e-03,4.838249169029396057e-02,-1.440016355383213764e-01,1.509948372840881348e+00
5.360064387966129162e-02,-9.820842471987000222e-01,7.037163717897472193e-01,-4.539460459778716511e-02,1.284691852041553069e-02,5.975322682323923329e-02,1.478511810302734375e+00
-3.772882408076844857e-02,-8.904712899699981365e-01,8.499693345337114847e-01,-2.715346223247166318e-02,-2.987804155821534302e-02,-2.451163513128512463e-03,1.508994221687316895e+00
9.831658632638835826e-02,-9.900964556651561388e-01,5.724064105738253527e-01,-1.253078192602329922e-02,-9.516593710073580070e-02,-8.978282904517337348e-02,1.406141281127929688e+00
-8.573673222491789980e-02,-9.708603819337077168e-01,9.475972735589376361e-01,3.590879626051269691e-04,-1.460686142645232360e-02,-4.538260873500475634e-03,1.663295984268188477e+00
-4.377056542924315924e-02,-8.991876448202217320e-01,9.443627407252924710e-01,-1.463365015564241367e-02,-1.853516094436187880e-02,-9.053791941758948872e-03,1.598540186882019043e+00
-2.175193764628962495e-02,-9.541163806763273136e-01,8.059133135021394612e-01,-1.931050891991482193e-02,-8.392997520973929926e-02,-9.407062972191107889e-04,1.532407522201538086e+00
1.343440014816104089e-01,-1.670935530302847916e+00,1.071394874222774352e+00,3.396374800179520204e-01,-5.003072157650956253e-01,7.911780569344650793e-02,2.635241746902465820e+00
-4.570684748191602975e-02,-9.862106091734472724e-01,9.464288253044540467e-01,1.712661182043099650e-03,1.786792713085615016e-03,-3.225997916700008850e-03,1.673928737640380859e+00
9.464032785798993930e-02,-1.170603606898057869e+00,7.415688586569668672e-01,-1.513100408239340111e-02,7.986958953145559259e-02,8.425286485649120458e-03,1.690537929534912109e+00
1.755734797139943959e-01,-1.371180455869643655e+00,5.980342397551627887e-01,-1.502987214885291023e-01,2.952310031303974625e-01,7.653560373803042216e-02,1.889759182929992676e+00
2.674242317385026602e-01,-1.520847114064421524e+00,3.766083730473755442e-01,-1.847922679292833548e-02,1.320215196780975542e-01,-4.115670037384626390e-02,1.861043095588684082e+00
1.291442950362651776e-01,-1.136162138277588607e+00,4.577191049032657277e-01,-7.877672644705792718e-03,1.542829011764156738e-02,1.468748664023531436e-01,1.479975223541259766e+00
-1.812345446968268228e-02,-9.347081642504365684e-01,8.436931018590567710e-01,2.484829761971385498e-02,1.961003622102461263e-02,-1.047045618521723898e-01,1.551991701126098633e+00
-8.422151338785204000e-02,-1.093313471005871840e+00,1.039079206753546369e+00,2.749861100185253034e-03,2.046538112561608058e-01,2.133524384275965746e-02,1.881654262542724609e+00
8.164221136740755502e-02,-1.041662687253095854e+00,6.889065814314698777e-01,-4.334135454582073443e-02,1.501469258207335788e-02,1.624987429243014009e-02,1.523099064826965332e+00
-3.386113684920917521e-02,-9.931530138426200027e-01,9.653121609485901811e-01,-6.169104813720982863e-03,2.345324516946035651e-03,6.565276469290055698e-03,1.696274399757385254e+00
1.006573441855184298e-01,-1.350995786297364498e+00,9.347830487060418969e-01,-1.104282931187227229e-01,4.900840812582319961e-01,-2.016748896257955226e-01,2.212028980255126953e+00
3.234773020004040600e-02,-2.044623354391819525e+00,1.720213879818428326e+00,-1.098071346882020516e-01,-2.470084283000450465e-01,-5.419688556411741964e-02,3.300965785980224609e+00
-1.295274767127074789e-01,-4.548683828862322698e-01,8.236672633075150518e-01,-3.887917791130941769e-02,-1.062042916361522794e-02,2.238820427503048285e-02,1.153653740882873535e+00
-9.637862588667028829e-02,-1.532820730742984860e+00,1.504625077714192960e+00,3.576386616183203637e-01,3.785381527729159146e-01,-6.781425684485743732e-02,2.784549236297607422e+00
-2.377932466283120272e-01,-1.286073841642219051e+00,1.750224466147637159e+00,4.334033084385924828e-01,1.897612218312280663e-01,6.921895985816788055e-02,2.796609401702880859e+00
-1.245788163486876432e-01,-7.338921534803810598e-01,9.040827157468817044e-01,-3.350955793219792533e-02,-5.174517957704027199e-03,4.902854549927734840e-02,1.437652587890625000e+00
-3.295045284494318300e-02,-2.229315111966155172e+00,2.112481177081245498e+00,-1.509880007556110015e-01,1.985837027930372756e-01,4.668869116404428948e-02,3.785800218582153320e+00
3.236971639263588885e-02,-1.217917292693317499e+00,8.494614649330591849e-01,-3.118375988310643360e-02,2.321751017268945949e-01,8.406844920158504375e-02,1.854263067245483398e+00
-7.742796121266144749e-02,-7.782015266023105671e-01,9.106472909250249437e-01,-5.110197912780756711e-03,-3.509398212037367903e-02,6.035090896965619733e-02,1.474616289138793945e+00
-1.909940874776859185e-02,-9.841150731468026880e-01,9.641091296926951326e-01,9.775638756806320426e-03,-3.833546351644655410e-04,5.110124714574632715e-04,1.687321543693542480e+00
-1.492374946421112236e-01,-1.460608890410787009e+00,1.795207775618896884e+00,1.802081859659260266e-01,6.330689492880824110e-02,2.037014739942276473e-03,2.856556177139282227e+00
-4.967089634599314296e-02,-6.669467747937295465e-01,8.620837515255125316e-01,6.059414058880029097e-02,-1.728410573968211170e-03,1.856438828754337043e-03,1.336474657058715820e+00
-7.473506805508908779e-02,-8.391398409296533245e-01,9.279340645484022154e-01,-1.720749011811545381e-02,-2.009470243043313953e-02,-1.416589447014456049e-02,1.535840749740600586e+00
1.034245575947911021e-02,-9.271302139997718017e-01,9.382360939283741486e-01,3.923492299308706938e-02,-1.211461704254437367e-02,-3.983478105382042000e-02,1.618497848510742188e+00
-2.064312514168014159e-03,-9.774822472400254147e-01,9.537034041117602445e-01,2.910026641117158946e-03,3.476171403762162281e-04,-2.392569173328364454e-03,1.672497510910034180e+00
-3.310060926470943521e-01,-1.204398205101547159e+00,1.967922785604867109e+00,5.263317173185206865e-01,-8.579110241460090325e-02,3.235135785726196006e-04,2.984779834747314453e+00
-3.821757043558790534e-02,-9.933800744595975285e-01,9.589419835306145501e-01,-4.156792516751937547e-03,-1.439891675410242926e-03,-9.562261144215585072e-04,1.690908908843994141e+00
-1.462862251543632641e-01,-2.248998719209964747e+00,2.408481060804944285e+00,3.057231434417852500e-01,-1.132915367392209327e-01,-2.197007737739448130e-02,4.079280376434326172e+00
-4.666840755267658014e-02,-9.443611399256104377e-01,9.478949780327909913e-01,-1.599569917302499228e-02,9.366111798840765987e-03,-1.854754791122085068e-03,1.639774918556213379e+00
-9.341017077133962482e-04,-9.890531169532614797e-01,9.570587105177953413e-01,4.291655246888307663e-03,2.112298394395435719e-04,3.308166509165441985e-03,1.685475707054138184e+00
-6.780314944989036807e-02,-1.072488028227775336e+00,1.170387920910556323e+00,-1.234945814234898048e-01,-1.545529414954507352e-01,7.211329301079473508e-02,1.979776263236999512e+00
-2.765474976262898010e-02,-9.966506479879976288e-01,9.656811961289968327e-01,1.097239696611220817e-03,-5.448009294519148837e-03,-1.691457329379635163e-04,1.699500083923339844e+00
-1.833559501760213123e-02,-9.949642452257391190e-01,9.772577991022949329e-01,-3.290206114999308200e-03,1.190083012142255890e-02,-6.429177028583933293e-03,1.708190917968750000e+00
-1.271461737439711359e-01,-9.474944179755087070e-01,1.219661533807856468e+00,-3.359301321762141468e-01,-1.043976355672139311e-01,7.524957053749846414e-02,1.994979858398437500e+00
-1.476239142210898081e-01,-7.582164494595550197e-01,1.077484151349306529e+00,-3.634900321715214822e-01,-2.656726354581097696e-02,6.981848725521855314e-02,1.742088198661804199e+00
-2.395999098087660609e-02,-1.060670688886731883e+00,1.064706962988184236e+00,-4.343173875250751215e-02,-2.173232166502038324e-04,-4.738762398612941795e-03,1.842369079589843750e+00
-2.070384510199209105e-01,-6.759561734990815474e-01,1.331638767619685693e+00,-3.139193774379972490e-01,-1.383518336006679395e-01,-4.636874081807427182e-03,1.913648009300231934e+00
-2.708429486720649593e-02,-9.508727401149414948e-01,7.924992218127593357e-01,-1.111572284904509440e-02,3.520973764766209546e-02,6.498341648919183505e-03,1.512098073959350586e+00
-6.535232821224160049e-02,-2.436678697798733140e+00,2.399096699100069063e+00,-1.756489572268610244e-01,-1.179253028229792222e-01,-4.669852388841173874e-02,4.204941272735595703e+00
-8.777034417020911083e-02,-2.582788833577048138e+00,2.603135139288464295e+00,-1.842787299471305706e-01,-1.102730972512710045e-01,-9.628427002910068533e-02,4.510666847229003906e+00
-1.334379415116797862e-01,-6.779771076852620926e-01,8.924262391140138639e-01,-5.694732894210883384e-03,-1.104769587465900989e-02,8.541499259918806930e-02,1.389206290245056152e+00
-2.129921315695414846e-02,-9.915257090443591048e-01,9.577213741817647286e-01,1.215564018809457822e-03,-1.028397932097227345e-02,2.883609383224774482e-03,1.688205838203430176e+00
-8.782736977319555161e-02,-2.098086186895519401e+00,2.165958022930408955e+00,-1.723937218079891753e-01,1.635873395893137072e-01,4.146841111014244741e-02,3.718330383300781250e+00
-5.780293473974762453e-02,-1.017675146526887175e+00,1.031220499734678775e+00,-8.576741342015548400e-03,1.414641264691425581e-04,3.653379288521447620e-03,1.775643825531005859e+00
-2.171737033991891566e-02,-9.916323327529661391e-01,9.606316371557697131e-01,5.452126481816787920e-04,-9.389382001396591113e-03,-7.812575398584214667e-05,1.690800070762634277e+00
-1.543084487443097813e-02,-9.909507255808172044e-01,9.604842129142591167e-01,-1.035967820037035072e-03,-7.212438326559928239e-03,-2.380709542772904913e-04,1.690039396286010742e+00
-2.549181476182009187e-01,-1.363072521752326294e+00,1.883306873308228990e+00,-4.636068480327254493e-01,1.371123377723951209e-01,-1.622798707113154437e-01,2.991603851318359375e+00
-1.946006626506537399e-02,-9.970959001895849383e-01,9.655929753621850242e-01,3.031951538731508800e-03,1.364692843724173025e-03,1.913618842161865594e-03,1.699755430221557617e+00
-2.133527952217766782e-02,-1.029261068928618572e+00,1.048194092486694151e+00,-1.388113609936054427e-01,-1.274097129901458625e-01,-2.135433632955478778e-02,1.829121947288513184e+00
-2.658627254647406568e-01,-7.286804002700092431e-01,1.490515992607799323e+00,-3.707163579619189853e-01,-7.753414775877548459e-02,-3.664851126341532594e-02,2.132206678390502930e+00
-9.894011813751915629e-02,-1.552150505866500607e+00,1.646449733106758018e+00,-4.487957014222606622e-01,-3.812868105574553912e-01,1.234235936542524004e-01,2.963227510452270508e+00
-6.226414931698660837e-02,-9.631776759186242431e-01,8.843938216154415555e-01,-5.596209309350746834e-03,-4.837162697609140305e-02,-5.838967077187419245e-03,1.602460384368896484e+00
-1.324430692245509578e-01,-6.036560103656609666e-01,9.759940882956799069e-01,-1.154321647937633089e-01,-1.074055563842660904e-02,8.462356998034920030e-02,1.426459908485412598e+00
-4.491270933959451428e-02,-1.105169605586161286e+00,1.022694027394770888e+00,-1.260739558402708127e-01,-1.560938432846977475e-01,-5.419467120988431807e-02,1.877620100975036621e+00
-4.946639662630211709e-02,-1.024657107644445508e+00,1.020577088606927196e+00,-2.972487281757890676e-02,-5.760769016245459451e-02,-4.087453327980344279e-04,1.775413632392883301e+00
9.355999214930868502e-02,-8.864883060876288523e-01,4.822731874981411870e-01,1.473701249382127279e-02,-2.418926080023809516e-02,2.923590893586965750e-02,1.223732590675354004e+00
-3.294902951230122001e-02,-8.634576367997424118e-01,9.231074632453437623e-01,-5.837256373915937144e-03,1.916542614304193870e-02,5.071219686502728870e-03,1.548897385597229004e+00
-5.236809489292514747e-04,-9.962497084017652993e-01,9.722233021987389812e-01,-1.246825221664467007e-02,5.094398402812035445e-03,1.591984384524570018e-04,1.704946041107177734e+00
-1.190995350551435350e-04,-1.010410118827868242e+00,9.048510924543478051e-01,-2.308409914706920085e-02,-2.410564723670116649e-02,3.504508821331194651e-02,1.661616206169128418e+00
1.778138305525509694e-02,-9.966325416621274469e-01,9.816323459418080377e-01,-1.867585859953452970e-02,-1.888172064560280977e-03,4.108545099375988247e-03,1.713737368583679199e+00
-4.078817202020153243e-02,-9.653438813186357992e-01,8.643253028961064288e-01,1.058712449320314657e-02,-2.283522090051615105e-02,-3.134359601313323977e-03,1.585178732872009277e+00
-1.670914940745596988e-01,-2.603426152961813012e-01,1.228821511747201889e+00,-8.991168408358209130e-02,3.821522883668614784e-02,-2.964235197510981662e-02,1.455578565597534180e+00
-1.073452526541046614e-01,-1.161959618446044340e+00,1.214852822460674941e+00,-1.334815511501005053e-02,-8.023517223214909899e-02,-3.852545860918301507e-02,2.068605422973632812e+00
-1.551112791728323503e-01,-5.245954004454840280e-01,8.585364520617038142e-01,3.248901795476284021e-03,-1.654722225278889430e-02,-7.430861151518107499e-02,1.247375369071960449e+00
-1.821629106675787257e-01,-1.947939903995209443e-01,1.434104640946497256e+00,-5.101392244777162854e-02,-6.050877895708964976e-03,3.138009300387906847e-02,1.625966429710388184e+00
-1.862532630070414252e-01,-3.969537264253358844e-01,8.151278591631851977e-01,3.570222022284358365e-02,2.119320979524208330e-03,4.961789335325138620e-03,1.123415112495422363e+00
-1.894193808172532356e-01,-4.021344661913359153e-01,8.380395317421103218e-01,-2.591473874844780340e-03,6.481085377688302219e-04,4.535590627269304315e-02,1.151376724243164062e+00
-1.908441947410343120e-01,-7.533241298417978626e-01,1.217896074156388231e+00,-3.308459317552792101e-01,2.496286297465585002e-01,-3.407377514194843970e-02,1.900558948516845703e+00
2.596257130064867635e-02,-9.379349616463413808e-01,7.258855381236184456e-01,5.311675749172426429e-03,4.114205237817575300e-02,4.024386954210812384e-02,1.450402021408081055e+00
-6.657277485818181850e-02,-1.017460617850707960e+00,1.012645376578155565e+00,-5.855891435124130524e-03,3.904006321016984058e-03,1.985485162812554438e-02,1.759672164916992188e+00
-5.925196533316469394e-02,-6.694423056965294050e-01,8.733978185817097284e-01,-7.830587299815827684e-02,-1.665859027353631949e-02,2.924148673170706789e-03,1.352965354919433594e+00
1.229305966891407476e-01,-1.020508217971925147e+00,5.253364475991018079e-01,5.152424608384034016e-02,1.787730991752707263e-03,8.416909875958474355e-03,1.392011404037475586e+00
-1.352723756424669965e-01,-5.710346142539420855e-01,8.620638877327204685e-01,-9.234823535919950421e-03,-2.398855582032480456e-03,-1.521220079962536977e-02,1.272846102714538574e+00
1.441225249102982553e-01,-1.132724972955143850e+00,5.972170566361674204e-01,4.366455047668944822e-02,1.097312918912833890e-01,2.363830335185385101e-02,1.567700743675231934e+00
-1.123690882144789127e-01,-4.518537008739350602e-01,7.775315138519790503e-01,2.129434828959778647e-01,-1.062155232377592351e-01,1.367523665332763261e-01,1.198025107383728027e+00
-2.019322336951525076e-01,-2.901870772044739533e-01,1.451861853596518870e+00,1.070128933432067247e-01,-2.515665466645560996e-03,-5.208043804746807781e-02,1.712101221084594727e+00
-3.257252717494167615e-02,-9.580236015796448346e-01,8.568998891880845736e-01,5.596906027908188364e-03,-7.108696330807887098e-02,-2.223137082034463974e-02,1.577187657356262207e+00
-1.676581438826124093e-01,-5.305814623539694130e-01,8.727798213561074325e-01,-1.410883197648901731e-03,-7.982964644419835581e-03,3.598350322462964823e-02,1.263291478157043457e+00
-7.450014387157005702e-02,-1.033963359909023882e+00,1.051368866114684941e+00,-4.565286899637973489e-03,-6.121308404366495801e-03,-8.207909823494985739e-04,1.807915210723876953e+00
1.422592516082635261e-03,-1.683988354783866770e+00,1.490819052276085577e+00,4.341111847862087064e-02,-3.923644132379170424e-01,9.842939263607158873e-02,2.840022087097167969e+00
3.018492099109587254e-02,-1.016160170083601821e+00,9.846857930310636275e-01,-5.229276124485146560e-02,2.616004431908426457e-03,4.499645910139563575e-03,1.735780000686645508e+00
-2.021690805305736277e-02,-1.420368571969359728e+00,1.298768269044162427e+00,1.573442631883106846e-02,-2.267261599201919609e-02,8.865554192986582760e-02,2.360675811767578125e+00
-1.399118350106548503e-01,-2.861504657941923435e-01,1.046429607200222822e+00,-4.271524895749431033e-02,1.814590194430800579e-02,-9.204126931661772704e-02,1.278341531753540039e+00
-1.064283686085631536e-01,-7.294841097419449971e-01,8.940310435704774683e-01,-2.952250614430684122e-02,9.529838651290518589e-03,-1.490158350885630034e-02,1.419863700866699219e+00
-1.018747841829895640e-01,-7.810316163620114605e-01,9.443888647134778269e-01,-4.607717828321816061e-02,-4.612044594114125991e-03,5.228903530552234113e-02,1.510342478752136230e+00
-2.269131623862884473e-01,-1.369405869110603469e+00,1.811330244817254576e+00,-4.085188418610191108e-01,1.284394550692374848e-01,-3.637448630700308716e-02,2.888343095779418945e+00
3.548372064978690121e-02,-9.542462641453434147e-01,9.344679466116490030e-01,-1.519837495752769663e-02,-1.951958451674769366e-03,-1.440412356027494884e-03,1.636520862579345703e+00
-6.214709520051647090e-02,-1.056899204698469319e+00,1.066991130994457748e+00,1.013185712585275115e-02,-6.351095943893421934e-03,5.690190648841330842e-03,1.840712785720825195e+00
8.439194731168503036e-03,-9.420700972122888484e-01,9.434389413586354856e-01,-1.901802947465303095e-02,-7.171668237493104142e-03,-1.519464961609370834e-02,1.633508563041687012e+00
-3.601622894181492895e-02,-7.857377541062161574e-01,9.005064594877014716e-01,-1.005509641328832492e-02,1.247215284745305588e-02,1.599013982433477709e-03,1.463579893112182617e+00
3.722006956059550897e-03,-9.864365569816943013e-01,9.574799407395639950e-01,-8.318288204028495558e-03,1.084087300017317831e-02,-1.755175712451113174e-03,1.683748602867126465e+00
-2.461917442853593374e-01,-9.331022888730252651e-01,1.613398239453842198e+00,-3.914103349650011610e-01,1.218800393010242289e-01,9.160674389825837136e-03,2.389919519424438477e+00
-1.387581833056834857e-01,-7.002092557721093513e-01,8.977665153683078714e-01,-3.298812288789061686e-02,2.418818421436154387e-02,-5.472482921498971614e-02,1.409103631973266602e+00
-2.023797740003704382e-01,-6.201307900892930602e-01,1.184710489363992814e+00,-3.325324413635748488e-01,2.290293681446120555e-01,-1.107210324016195818e-01,1.789935231208801270e+00
-3.520742606439141581e-02,-9.317426551856883288e-01,8.925262807568429269e-01,-1.782759643388445031e-02,1.388481605739572133e-02,7.556099697778407252e-03,1.580479145050048828e+00
2.666069996718987284e-02,-9.648275843226674642e-01,9.463871110872559278e-01,-3.791726171765057076e-03,1.119434039384768417e-02,-5.265452530125145497e-03,1.655701041221618652e+00
-2.750867344546366056e-01,-4.505757092734931080e-01,1.489326879462057995e+00,-2.489569198789477189e-01,1.008864385371745567e-02,3.318426387762056485e-04,1.907834172248840332e+00
-3.868777985725159463e-02,-1.231616619628566278e+00,1.219732563736115605e+00,3.590592096741088840e-02,-1.990609163829470778e-03,2.007564533662956063e-02,2.124381303787231445e+00
-4.975540866089305653e-02,-1.727093854357369063e+00,1.648380303896519683e+00,-3.687103854506413869e-01,-3.527608770734154131e-01,-1.365998434663624403e-02,3.054046392440795898e+00
7.684175307635654484e-03,-1.504396613626972856e+00,1.303423427015130143e+00,-1.580113035572352498e-01,3.137887660839881465e-01,1.298213022366942991e-02,2.509061574935913086e+00
-5.624418276750989959e-02,-1.179805185450778060e+00,1.208497830466712664e+00,-1.029530351012681311e-01,1.456389521344625959e-01,-7.954815572805590262e-02,2.096995592117309570e+00
4.058812914600602034e-03,-1.055714170427171750e+00,1.049718909830048785e+00,-1.360332090162374441e-01,-2.037713596430111573e-02,1.562384900326371610e-02,1.839070200920104980e+00
-7.065878958729981951e-02,-1.662594309591653552e+00,1.661961966633539900e+00,1.850429650421452632e-01,-2.554818637380549817e-01,-1.757427130436235996e-01,2.947142124176025391e+00
-1.090321629472079945e-01,-1.038667686595409867e+00,1.095575628161923554e+00,-1.147092936312792437e-03,1.233209847760913247e-01,-8.082102076293389004e-03,1.865736484527587891e+00
-2.660357030535907830e-02,-1.866597177844381950e+00,1.612504804434513161e+00,1.706172358717881199e-01,-8.733625992835648832e-03,-1.607884194092341623e-01,3.041927099227905273e+00
-4.805584703215151632e-02,-1.218654810505069408e+00,1.216894862283967926e+00,-3.068463213096009889e-01,-3.332849303741505231e-01,-4.220423345551143485e-02,2.252153635025024414e+00
-3.539284641424558786e-02,-1.176378177433957672e+00,9.620865208182387551e-01,-4.027204236971870105e-02,-3.118237308718959655e-01,-1.608936688638883811e-02,1.931907415390014648e+00
-4.836675787049885683e-02,-1.043223678143399225e+00,1.032124695207918608e+00,-2.762498295335117857e-02,6.565456468955757630e-02,8.943738786265038876e-03,1.802109122276306152e+00
-3.755876486765477584e-02,-9.898615890617656898e-01,9.612572098944408561e-01,-1.356678449339591627e-03,-1.442694347603374911e-03,-4.318594338656308977e-03,1.689898490905761719e+00
-2.482706027513820191e-02,-9.770004107990170050e-01,8.657559162895531735e-01,-1.883689709591147496e-02,-7.118311107792321506e-04,-1.986790445105588235e-02,1.596875667572021484e+00
-2.953546436570740619e-02,-1.276175823108008256e+00,1.211555466402665981e+00,-1.428962841617687496e-01,2.837401178627473319e-01,6.547859621948848297e-02,2.226490259170532227e+00
-5.499220235181603855e-02,-1.010405959676331955e+00,1.007739417395095982e+00,5.903774791706525513e-03,1.645476548454783555e-02,-1.115987699626494120e-02,1.748957633972167969e+00
3.152221624863799782e-02,-1.003508415945752130e+00,9.758094096507137216e-01,5.590489829379751557e-02,-5.808854713907280962e-03,7.898089714318460783e-03,1.717555642127990723e+00
4.769473523724783448e-02,-1.264212012034061861e+00,8.637355173400181885e-01,2.168674648943796635e-01,-2.732872714495797051e-01,1.671108687393089431e-01,1.976492285728454590e+00
-5.178546636419458643e-02,-1.041710877854191697e+00,1.089120403175048990e+00,-5.083653240980382654e-02,7.522662539377060475e-02,-3.083557658007639313e-02,1.854349732398986816e+00
-5.927648359117257404e-02,-8.952198896897675118e-01,9.255509417105681758e-01,-1.873587242028633155e-03,-1.588594928933190166e-03,-1.140082619773048755e-02,1.578719258308410645e+00
1.028644998041844047e-03,-9.722989770473826621e-01,1.008299656814119816e+00,-9.038312704975823286e-02,2.266672010369435997e-02,-2.708545170461752402e-02,1.723547458648681641e+00
-7.080675098629977265e-03,-9.727588638077518945e-01,8.718203969478558468e-01,-7.339889246875421630e-03,5.092117733249808265e-03,1.730528338937190654e-03,1.598119378089904785e+00
-2.370774847778264055e-02,-1.036143100895563052e+00,9.313355440539250463e-01,-6.205112700085351277e-03,4.321171245401794758e-02,-1.978833597477802284e-02,1.706149101257324219e+00
-3.650422092247303241e-02,-9.932368833053809576e-01,9.604020492955317456e-01,-2.162541740399984407e-03,-4.010810250936888526e-03,-6.020381055240483191e-04,1.692038893699645996e+00
2.197026737886903225e-01,-1.402551828913640275e+00,4.939767228729646797e-01,1.343222673216964980e-01,-2.228601628656870781e-01,2.379972514424233132e-01,1.877480626106262207e+00
3.215357578486928158e-01,-1.576017456029612074e+00,5.349803681696418955e-01,-2.518330376020469497e-02,-3.792242031900686650e-01,-5.639099927143122193e-02,2.119944572448730469e+00
-1.490694473063487215e-02,-1.020965220233234216e+00,1.005860917133538868e+00,7.231807353904310190e-03,-4.433790750306136619e-03,-1.313243717890494842e-03,1.755361318588256836e+00
-7.105581417334852490e-02,-9.883810069210191562e-01,9.566476649520849751e-01,1.574362662022061460e-03,7.761922783699977402e-03,-1.258576673221934328e-03,1.685405373573303223e+00
-7.198149041550440386e-02,-9.601511694476440040e-01,8.978815450218861072e-01,-1.958232412541743676e-03,2.380366766113741275e-02,-3.666542965370229675e-04,1.610153555870056152e+00
-7.857969577375213677e-02,-1.283667090969565994e+00,1.299982698719654772e+00,-4.609948522959045336e-01,-4.493995407206041182e-01,-1.873675207830064263e-02,2.501687288284301758e+00
2.075580673262030496e-01,-1.588891677258776003e+00,8.960098561275027240e-01,-5.709671419028665706e-01,-6.731549448985949535e-01,-1.762209415201816398e-01,2.714507579803466797e+00
-7.172380823092391888e-02,-9.650753482934603111e-01,9.188159782882813209e-01,4.161340365510021906e-03,7.822799734395740473e-04,4.681666252684556673e-04,1.632237911224365234e+00
3.236150422265083454e-02,-9.726064341954916426e-01,9.487041958219428750e-01,-9.972411556153845669e-03,-2.039293753045041613e-05,2.428012871011808044e-03,1.664588689804077148e+00
1.053147690643434775e-01,-1.273164002636599790e+00,9.077745758480447735e-01,-5.117156356217639201e-01,-5.916159830352362148e-01,6.133880671509503446e-02,2.344609498977661133e+00
-1.524900328221285260e-02,-9.863191972419936837e-01,9.618146448317763664e-01,-2.310440429127986594e-03,-1.925285204017969723e-03,4.680962975458258755e-03,1.687163591384887695e+00
-3.091041593795296541e-02,-9.720047020350300881e-01,8.707643395762858507e-01,1.657348282688063390e-02,-1.837458631433749531e-02,2.224187953374229601e-02,1.597046613693237305e+00
3.465366836856117461e-01,-1.898649941003936803e+00,7.849168359804908901e-01,-9.224950034430358381e-02,-4.093591491340820010e-01,-5.373617969819875773e-02,2.598884820938110352e+00
-8.320917921379995807e-02,-9.946892339483252021e-01,9.694729134742110510e-01,4.552716099978727608e-03,4.937839308421434342e-02,-1.145500311885025435e-02,1.704759478569030762e+00
-8.198467419659286048e-02,-9.661717084918607368e-01,9.337627016834457727e-01,4.438444987024996397e-04,7.461142739249355775e-03,7.871520715323402197e-04,1.646757245063781738e+00
3.084755579295017647e-01,-2.013372002388276627e+00,1.090915125628109106e+00,-6.909393890363263457e-02,-5.968814404548103969e-01,-7.389109387795181338e-02,2.986536026000976562e+00
4.889494006745349897e-02,-1.202556118885543590e+00,8.571823053179319363e-01,-4.388438156693935666e-02,-2.996838836220302449e-01,6.775326249239523035e-02,1.876158475875854492e+00
-8.092202672253495654e-02,-9.666652422994173044e-01,9.280244101729544504e-01,-6.836258115915011318e-04,1.697585256989817687e-02,1.326905281601415115e-03,1.642270565032958984e+00
2.922985905579132404e-01,-1.697043223549938418e+00,6.087932851877919660e-01,-1.120806516586849294e-01,-3.421481668606268234e-01,-1.769521285118361154e-02,2.253239393234252930e+00
-2.627051149629414106e-02,-1.033358205472564295e+00,8.790921296275322483e-01,7.481628044795328621e-03,-6.366337905009185338e-02,1.056109632389498447e-02,1.660827636718750000e+00
1.229482464454264845e-01,-1.726663509527779361e+00,1.200558373831735803e+00,-2.400284725068066449e-01,-5.674325577542760346e-01,-7.182839841601496023e-02,2.780238389968872070e+00
-2.652480076762305655e-02,-9.692282062122589137e-01,8.609270001403134254e-01,-1.604835866586240903e-02,-7.958561747335787665e-05,-2.592728537277667195e-02,1.586081147193908691e+00
2.822602939892153717e-01,-1.666032956440769874e+00,6.627945254909904937e-01,4.714428457147774171e-02,-3.664580475658142933e-01,7.307945731544393531e-02,2.260002136230468750e+00
-5.167709087097397541e-02,-9.495745852855748126e-01,8.316376527378795958e-01,-4.397280868909440865e-03,-4.749876126336677329e-02,-5.598155314416920943e-03,1.544833779335021973e+00
-1.012531491167641476e-02,-9.807397825836091654e-01,9.580701190216389662e-01,4.335034134768380246e-03,-2.551306529558529552e-03,3.591408130936258724e-03,1.679093241691589355e+00
-1.644620822858228887e-02,-9.570040200374190231e-01,8.859452876574673841e-01,-3.396361243534858076e-02,-2.542934136471846837e-02,-2.343512859515994862e-02,1.598361372947692871e+00
-5.695585341773676258e-02,-1.185904203697299097e+00,1.205846446110127257e+00,-1.588405403717024211e-01,-2.148301107575726898e-01,2.573940556840001448e-02,2.123903751373291016e+00
1.081101411582425023e-02,-9.851345200557423132e-01,9.534333344216437967e-01,-2.812811758792350264e-03,1.357346556084864514e-02,7.904859399732116305e-04,1.679232954978942871e+00
7.741615969299245337e-03,-9.870002440319896042e-01,7.691443550807807172e-01,9.491791727119375244e-02,-1.405051867948486355e-01,4.384922795548465424e-02,1.555206179618835449e+00
-5.211684943489759692e-02,-1.010940105517722953e+00,9.765428123679169570e-01,8.093471026542033847e-03,-5.047567393440674510e-02,2.802660169484546063e-02,1.724523663520812988e+00
-8.479650700812821004e-03,-1.010040720458232899e+00,9.970781015256050539e-01,1.347198949154084077e-03,-5.820674676316929183e-03,6.986091296169590417e-03,1.738289952278137207e+00
3.837898225559312204e-02,-2.194407839257498605e+00,1.879474473015743774e+00,-9.419419352086481900e-02,-3.410700719443815476e-01,1.768821134195889058e-02,3.586402893066406250e+00
-2.795146240690746242e-02,-1.700267631287916581e+00,1.516249597754294021e+00,-3.793400054053764348e-01,-4.262551732853444575e-01,-1.128945366149478879e-01,2.962870836257934570e+00
-7.908224087096794863e-02,-1.060012998991874955e+00,1.029015949490370785e+00,2.509504991520484715e-03,-1.177171391633896613e-01,-5.178287793361309455e-02,1.823926925659179688e+00
-4.044732978800917589e-03,-9.418220254469912289e-01,7.543793340536580905e-01,-1.498658110370705565e-02,-5.378271146788025925e-02,-1.890241909194710981e-02,1.475225329399108887e+00
-5.773595403131105003e-02,-1.004223446277859644e+00,8.752578889364162062e-01,1.037509756146742616e-02,-1.432592700605217206e-01,1.623626161474868435e-02,1.646835327148437500e+00
-4.402266106090709646e-02,-9.728665468476414002e-01,8.847688360832290932e-01,-1.221428528538692250e-02,-2.983948003788643166e-02,-9.319703545740368189e-03,1.609809398651123047e+00
5.365501798738124550e-02,-1.116354270280403016e+00,7.027885571665006825e-01,-2.545967374245316269e-03,-2.486283777342702950e-01,2.489139842679491312e-03,1.653866529464721680e+00
-1.787045818812701414e-01,-4.015382628525537290e-01,8.285002372336633947e-01,-6.426433191352408369e-03,3.801096115458485122e-03,-4.390141345945425266e-02,1.137763023376464844e+00
-2.163088654407105405e-01,-3.177847449831360804e-01,1.422422803289532744e+00,-9.179189823892180966e-02,2.197920091494274392e-02,-4.086848717717843360e-02,1.701107859611511230e+00
-1.846569386156477199e-01,-4.280331487657679235e-01,8.343882857490636518e-01,5.977982472735441678e-03,1.203834790644063221e-03,-5.036005201662270732e-03,1.160122513771057129e+00
-7.184716798908501179e-02,-7.771337552677062277e-01,9.045706075766617449e-01,3.568840741580149925e-03,-1.483979289626659662e-02,-1.391480079170789690e-02,1.463131904602050781e+00
1.031748833756956918e-01,-9.586486326054883822e-01,4.649759984835231119e-01,-4.927840549905838810e-05,1.102689734266506238e-01,-1.282925421686512413e-01,1.314683556556701660e+00
-3.215474735534090689e-02,-9.833205266746507522e-01,9.527321863822006964e-01,5.109283837794108231e-04,7.762145396763310383e-03,3.082522127695319029e-03,1.676818251609802246e+00
-2.688272667273065158e-02,-9.912236943926004962e-01,9.628631828289676564e-01,7.564901238833205289e-05,1.232605065979318262e-03,6.033756119366166619e-03,1.692370176315307617e+00
-3.354409232888480585e-02,-9.970595398184365354e-01,9.609791927933697409e-01,-2.377991245468344741e-03,-3.147366126882239490e-03,-1.518826168989088812e-03,1.695797920227050781e+00
-3.616678059247167842e-02,-9.687619416174604314e-01,9.530819021415648518e-01,-4.190638650004939632e-03,-1.270940701132179315e-02,9.004663435400437482e-03,1.664841055870056152e+00
-6.086565776550252604e-02,-1.131704135180554571e+00,1.148858267051095616e+00,2.318699527990091686e-02,-3.829985518063255823e-02,1.859929709541036091e-02,1.978028655052185059e+00
-1.285189359191454828e-02,-9.741974350432980323e-01,8.152105579100585864e-01,-1.130498577683820838e-02,9.082733274260583467e-02,2.929734675200585184e-02,1.560010910034179688e+00
-2.420509768642012394e-02,-9.753644971095801752e-01,8.824466816420944992e-01,7.079895348413571543e-03,-1.842335732382938476e-02,1.353634605427552103e-02,1.609599471092224121e+00
-3.486448871006280620e-02,-9.929997357501788580e-01,9.606746698957115971e-01,2.095067145272907355e-03,1.833252825087795888e-03,-1.150666618767601668e-03,1.692043066024780273e+00
-1.591604371730529280e-02,-1.041901394030217309e+00,1.026712676355338916e+00,3.744477006040132505e-02,2.540283096335801266e-02,9.239962065762150067e-03,1.793276548385620117e+00
-5.608173305910938572e-02,-9.479825422044839689e-01,9.354424599924078265e-01,3.365417549888398592e-03,-1.980133478131989536e-03,1.919338788256959999e-02,1.632206916809082031e+00
-2.200131932228204662e-02,-9.795190991355231525e-01,9.588386108262001439e-01,8.085497308002479941e-03,-5.664814455897757700e-03,-3.009690755179554936e-03,1.678802728652954102e+00
-4.437520414607171865e-03,-1.016811696962881983e+00,1.005606602472105315e+00,2.036835223681702361e-02,-7.675820750643065800e-03,-7.332691717852642468e-03,1.751917719841003418e+00
4.469761581867894192e-03,-1.003737135624407806e+00,9.828690491026568221e-01,4.342663368199588952e-03,-6.582336989856301356e-03,-3.254076880505836489e-03,1.720579385757446289e+00
-3.879986265671563073e-03,-1.000157392056678418e+00,9.533276308527744991e-01,3.824054627668015127e-02,-8.348022572402177821e-03,-2.389143909971643692e-02,1.693743705749511719e+00
-5.204006727634369334e-02,-1.079283905533896970e+00,1.021812110013948338e+00,1.332106441413199172e-01,1.855707810190440621e-01,-7.584481688181610171e-02,1.866895437240600586e+00
-4.778154627999064985e-02,-1.076563535908730440e+00,1.111752465350015928e+00,1.151903292073929996e-01,1.591073704040874559e-01,6.304280050342098152e-02,1.929635763168334961e+00
-5.042854315306607299e-02,-9.993679268235899915e-01,9.774650934466588836e-01,1.228979404258096972e-02,-6.641274300274396455e-03,1.869072856679823355e-02,1.712919592857360840e+00
2.058434325466736992e-01,-9.301577389562238896e-01,2.084399721314094123e-01,4.571580956268204987e-02,2.107344420402680885e-01,1.257072380795905553e-01,1.216699957847595215e+00
9.775965769797846650e-02,-1.078976206846028907e+00,6.286370845512178063e-01,-7.387152698476232276e-04,2.121280951936161674e-01,1.629867518405815575e-03,1.557640910148620605e+00
1.522949500914097809e-01,-9.124298438386356791e-01,3.339233838869973825e-01,-3.482660702744285776e-03,4.638900429204182579e-02,-3.712412147093749337e-02,1.170742869377136230e+00
8.711756755595947976e-02,-9.407281471310768861e-01,4.997300393864314572e-01,1.718933541313539051e-02,1.971022937528412733e-01,1.416519252886315819e-02,1.329982757568359375e+00
2.569053543133473227e-02,-9.638656322172245439e-01,7.077302295803740151e-01,-7.283902430497701808e-03,5.372511532472155904e-02,5.929880242793975770e-02,1.462423801422119141e+00
5.311143842046880947e-03,-9.214272318888249158e-01,6.695658683632720320e-01,-8.414715699811067947e-04,6.773727505306918750e-02,-1.802914473452131312e-03,1.389044880867004395e+00
9.115030412743665988e-02,-9.327429652519383385e-01,5.992731675809741532e-01,-1.594196772332219167e-02,3.625300452315133315e-02,4.270249460397253921e-02,1.355354428291320801e+00
-1.068194924496829179e-02,-8.506436513785964326e-01,9.133258010493985335e-01,2.893337370475054446e-02,2.186287555964034485e-02,1.492243257271505356e-02,1.529728889465332031e+00
-4.067016688775457883e-02,-9.851190696124271229e-01,9.303831066109918835e-01,1.347310417379629643e-02,5.614914893893054558e-03,-3.234111873144239653e-03,1.659129023551940918e+00
-7.874394434944918808e-02,-1.148994367340650635e+00,1.269195484998894452e+00,-1.805705941301687101e-02,-2.192549330576297473e-02,-1.138858412701690241e-02,2.099480628967285156e+00
-6.148011928437278895e-02,-1.108751919609178183e+00,1.121058220507209269e+00,-1.554956841027277728e-02,4.528036886360107399e-02,1.656083379961034892e-03,1.934036850929260254e+00
-1.999711115540457329e-01,-1.283614504481013219e+00,1.748480303733576990e+00,-2.487874639092153006e-01,1.989728541914895232e-01,2.337338210796959803e-01,2.747821569442749023e+00
-2.843348649942803799e-02,-9.989640152096157522e-01,9.684023904625383983e-01,2.520097990029488734e-03,9.510142184114280754e-04,-2.223607459968001462e-04,1.703846454620361328e+00
-4.901077157257553024e-02,-9.856834220083283693e-01,9.525898610498743091e-01,-1.904547453913356479e-03,4.016851405164017022e-03,4.410577933243399820e-03,1.678942799568176270e+00
-3.519767909918276177e-02,-9.713740434257923662e-01,9.580788282442096460e-01,3.947418416973652068e-03,1.157625643774116801e-02,3.898910798193046603e-03,1.671347022056579590e+00
-5.776623627284819401e-02,-1.406713113213710953e+00,1.471675411712557224e+00,5.030125743089241402e-02,9.159995689753749892e-02,7.303785413584703082e-03,2.500981330871582031e+00
-5.578553202826300184e-02,-1.227944576737430626e+00,1.312459475143125109e+00,1.176613013053122436e-01,-3.899384345821770292e-01,6.287709571489684401e-02,2.315037965774536133e+00
-6.777850588842344870e-03,-9.798978604981922746e-01,7.880827248355798398e-01,2.950437003690459595e-03,-1.110171889893885877e-01,-2.150917432122419030e-03,1.545727968215942383e+00
-4.923309608405417037e-02,-9.497051923174523180e-01,8.240792703451638168e-01,-1.657305276474685786e-03,3.966939166974671471e-02,7.254978152611660756e-03,1.537792205810546875e+00
-7.111100673200798639e-02,-9.869375223612479875e-01,9.637020735531308668e-01,3.687973333851125770e-03,-3.435889328908740131e-02,1.266883230814313914e-02,1.691552400588989258e+00
-6.628695963830805171e-02,-9.669335511776034897e-01,9.073595881471594460e-01,7.898898340778896104e-03,-4.260561966030636943e-02,-1.069765894615174774e-03,1.625330686569213867e+00
2.204158830609596054e-01,-1.181593154361919140e+00,4.023801220866281003e-01,-4.665431010881219975e-02,3.060199855376622424e-01,-9.962664509923674361e-02,1.603467106819152832e+00
-4.682737045287144184e-02,-1.030613233770238946e+00,1.033102249642261494e+00,3.930792004667159898e-04,-4.770065258930596130e-02,-2.638926667195545459e-02,1.790368080139160156e+00
-7.732810770494441543e-02,-9.774780162578982079e-01,9.508090254013512599e-01,4.826090262373928901e-03,-8.181644708547724035e-03,8.175659265711475443e-03,1.671312212944030762e+00
-3.309513729862198494e-02,-9.978326859535241455e-01,9.683131309367545292e-01,-5.751026242353873363e-05,2.539726362582471388e-04,-1.653939420804506795e-03,1.702833414077758789e+00
-3.502605113525473352e-02,-9.799598565148530671e-01,7.962826528049515851e-01,7.772240793461161062e-03,-1.172335874283427365e-01,-9.660097433182037417e-04,1.552713990211486816e+00
2.408714347043144563e-02,-9.852720940108750103e-01,9.651003666946685877e-01,-1.106673100012960445e-02,2.323164621737301846e-04,-1.801311706169110701e-03,1.689529418945312500e+00
2.116930157240004898e-02,-9.569511988232981547e-01,9.495804568343766405e-01,-1.187365031591459258e-02,3.310746048269753473e-03,-2.747147588108944920e-03,1.651436805725097656e+00
-2.903491584896169750e-02,-9.998403818695487111e-01,9.691217119463925167e-01,-2.155657984139273606e-03,-8.741230924577983409e-04,-4.682723396876966367e-04,1.705230951309204102e+00
9.220506313153700728e-03,-8.578438327475313985e-01,9.595836833978574898e-01,-1.462256613840968167e-01,2.179618209756785385e-02,-1.464883786334774188e-02,1.595378160476684570e+00
-4.632752988276405554e-02,-1.078888216012316770e+00,1.136624703866663477e+00,3.073829788475004876e-02,2.209276219224954197e-03,1.752241071779237630e-02,1.921144962310791016e+00
-3.368598238540641832e-02,-9.258371910887317480e-01,9.801238715407972757e-01,6.925556606662303105e-02,2.314073735682268748e-02,-3.864345567785713170e-02,1.657917737960815430e+00
-1.513615372151152876e-02,-9.853221922834098923e-01,9.593576740872068465e-01,1.339635871510974543e-03,-8.429797214802373095e-03,-1.718327727551082276e-03,1.684211015701293945e+00
-6.037353816350123428e-03,-9.156911121092438099e-01,9.424150825153184696e-01,-2.620190649278274220e-02,-3.053785124596292838e-02,1.993749947078020737e-02,1.611162662506103516e+00
4.022685848617753301e-02,-9.878321168766224236e-01,9.557497878616598719e-01,-4.120122759736381812e-02,-3.952889691277146865e-03,-6.648016456395507839e-03,1.685696005821228027e+00
-3.244151825513381937e-02,-9.831549123140341795e-01,9.325246244297061837e-01,8.661449912683505045e-03,5.804468327129678508e-03,-3.002688783686761204e-03,1.659148931503295898e+00
-3.288419780407151466e-02,-9.981682012654323755e-01,9.692321545256413762e-01,-1.222435651096249088e-04,7.083291887204074119e-05,-1.424139707084198748e-03,1.703920006752014160e+00
-2.556217092673663052e-02,-9.367118631781640170e-01,9.470825494613884787e-01,-1.525721113112771254e-02,-1.610935583651565417e-02,-6.943605293259706712e-03,1.632200360298156738e+00
-3.487865506531905024e-02,-9.811706441043339666e-01,9.460861652044110226e-01,5.003595177999250326e-03,-1.903954088000371766e-03,4.606535798647917908e-03,1.669188261032104492e+00
-2.363645543778110023e-02,-9.696685030530677318e-01,9.560398133503779095e-01,7.268727249521506756e-03,-1.354971523894977700e-02,6.515674350759520332e-03,1.668048024177551270e+00
1.698231037321695086e-02,-9.948896095175671084e-01,9.874595094343662227e-01,-5.528138098523538435e-02,-2.946054422439963686e-03,5.478492027777505727e-03,1.719591140747070312e+00
-6.295366536088134457e-02,-1.112751711074027039e+00,1.139805739288221709e+00,-1.190155040610135252e-02,3.772290746278099405e-02,-9.285496938505503201e-03,1.953538656234741211e+00
-9.026725441292031415e-02,-9.921105737741386932e-01,9.845948546477985008e-01,-6.183085543290942239e-03,-3.360416356323834425e-02,-1.957148194673098002e-02,1.715417981147766113e+00
-9.521404017585870239e-02,-6.412015932170053167e-01,8.374613370468066975e-01,2.531681766066710138e-01,1.431782683513416476e-01,2.751666744614562985e-03,1.389611482620239258e+00
-2.076472533002987619e-02,-1.426970232788217885e+00,1.308345553589860932e+00,1.860429395784006235e-01,1.939421784189237496e-01,-1.114221258466798620e-01,2.422162532806396484e+00
-6.766709066936665851e-02,-1.080250094921275883e+00,1.053666865934751007e+00,9.417911827444355385e-03,6.470407829456001347e-02,-4.131828925004205066e-02,1.853673458099365234e+00
-6.239384715340501320e-02,-9.785617022770208839e-01,9.460466748524791747e-01,2.503054028101102824e-03,-9.516385722811951386e-03,-4.189668214370634650e-03,1.667501091957092285e+00
3.760587626304973119e-02,-9.483943527552560759e-01,9.303872430593452814e-01,8.939720255777914432e-03,6.127890574206716016e-04,-5.202886927741936325e-04,1.627814292907714844e+00
-2.661279248607065218e-02,-1.125003729224733684e+00,9.837900366688386855e-01,-3.164809121692919308e-02,1.029144579775852497e-01,1.478036668826365925e-02,1.836471676826477051e+00
5.698132728974515671e-02,-1.063450153473216364e+00,7.235222510056800171e-01,3.519814918434185490e-03,3.134149229660107006e-01,-6.673781926732791359e-02,1.659681439399719238e+00
-2.944171292304102044e-02,-1.103842673271594466e+00,8.920305972310633713e-01,-1.123123481424228021e-01,3.419401715360108618e-01,5.623320499634811703e-02,1.841623544692993164e+00
-3.529325583099023056e-02,-1.277884070936623262e+00,1.195538621736040197e+00,-2.961533623722145681e-02,4.483951624281258541e-02,1.662690835392116942e-02,2.144269466400146484e+00
2.813552712428149527e-02,-1.098418482790357142e+00,8.363851107337249013e-01,-4.096146443685493022e-02,-3.582993734093935512e-01,-9.850894308266439081e-02,1.803388237953186035e+00
-8.922518262426681890e-02,-1.252611769524053509e+00,1.148939610024266811e+00,-3.270484275498047877e-02,-2.415240909817270576e-01,-5.272323317023841494e-02,2.124508142471313477e+00
-3.066674879409363869e-02,-9.959269949664580901e-01,9.669172791724686133e-01,2.804332415864100626e-03,-1.234523045906023026e-04,8.269710559966549795e-05,1.699956774711608887e+00
-3.238255586532924613e-02,-9.941683881169792736e-01,9.667205174134114731e-01,9.378824015777878585e-04,-4.750612870792169360e-04,2.662068510303701712e-03,1.698289394378662109e+00
-7.090912910707609929e-02,-1.025253313915493569e+00,1.035135620692287040e+00,8.925806998248398110e-04,-7.141095869602546303e-03,1.022727926540991164e-02,1.786091923713684082e+00
-8.291492773496643431e-02,-9.967129242804603217e-01,9.865705520041397891e-01,-2.207328281471870705e-03,-2.395404613719489401e-02,-7.772230382661199366e-03,1.719894409179687500e+00
-1.386806190643073006e-02,-9.703280878198147219e-01,8.556887271285783525e-01,3.087071776372970512e-03,1.245083323537369419e-02,1.782586750443811152e-02,1.582431077957153320e+00
1.178016084552904741e-02,-9.595999347487085274e-01,7.944556434443084125e-01,1.063915167369423355e-02,1.033186781822282435e-03,1.278032865566088548e-02,1.522257685661315918e+00
-5.697726493380937673e-02,-9.933278647932631822e-01,9.667199151220109421e-01,-1.652954739672214853e-03,-1.007297870003071028e-02,-5.057268812180438534e-03,1.698127508163452148e+00
-9.080773473207397195e-02,-1.021209913420746185e+00,1.020529790496387701e+00,1.509090772648516389e-03,-9.169620531903066585e-02,-3.005347568229167505e-03,1.777630090713500977e+00
-3.799247335138208198e-02,-9.910226334578567942e-01,9.635756010772192903e-01,-3.394001748958964948e-03,-2.107795322678860609e-03,-8.736254281770411412e-03,1.692987442016601562e+00
-3.416551203783445984e-02,-9.872664597218652194e-01,9.526951274180781581e-01,-5.027756402876226716e-03,7.139759467233482669e-03,-1.307445251208707877e-03,1.680210471153259277e+00
-1.871759170134703054e-01,-2.853123798440787562e-01,1.280193534395198451e+00,1.174398337939266679e-01,-4.407671486391497723e-02,-1.877433869044152579e-03,1.534282088279724121e+00
-3.199475320740155504e-02,-9.774184384374715595e-01,8.945703240458835470e-01,1.565158447729177865e-02,-2.018386940950158987e-03,5.591160771491168226e-03,1.621476531028747559e+00
-5.336517572462075309e-02,-8.896207802351280280e-01,9.865821781060588602e-01,-8.146519291755656422e-02,-1.536283043222422262e-02,4.954353217099707017e-03,1.634370565414428711e+00
-9.191644050766678564e-02,-6.981920234452866358e-01,8.869063949501030386e-01,1.118525660953053613e-01,2.454280035469994653e-02,2.264672345665027370e-02,1.399992585182189941e+00
-1.372458654667497724e-01,-2.417525905444178891e-01,7.389383390794459494e-01,1.797620745312648316e-01,-7.629461252327926490e-02,6.215117585469030065e-02,9.980890154838562012e-01
-1.456453237339440931e-01,-4.702773882608753953e-01,8.570384516751452519e-01,6.305696821108422445e-02,-2.958544595680367463e-03,3.585795244048175373e-02,1.205021262168884277e+00
-1.765298254206994488e-01,-5.410022717219866717e-01,8.781878233775233245e-01,3.448115053657992146e-02,3.907944434225418752e-04,6.945985820023706236e-02,1.283637881278991699e+00
-1.993971331854920148e-01,-4.805166260740206807e-02,8.853120792310430476e-01,4.157546486156934312e-02,-3.357738993287280420e-03,-5.006490798594535885e-02,1.023754119873046875e+00
-5.100598980233068958e-02,-1.009966326004451354e+00,1.009388121926534376e+00,1.711680383314070734e-03,6.740592838426610368e-03,9.164817856763889884e-04,1.749589681625366211e+00
-5.428490643983722996e-02,-9.370926514151297626e-01,9.299523281713223399e-01,-1.978946262575962366e-03,-1.473419311993847975e-03,1.963896721627680919e-02,1.618066787719726562e+00
6.629832479528809455e-03,-9.506908121775927700e-01,9.823187708373618543e-01,5.796007435854205747e-02,-1.250665735129733586e-02,-1.413610993905174175e-02,1.677386522293090820e+00
-1.898853833878418884e-01,-4.788786180194929964e-01,8.602510992314520433e-01,-5.513648121334024932e-02,4.117245830817875280e-04,2.621392114061476403e-02,1.225140094757080078e+00
-2.023647889594379357e-01,-3.643895174217641197e-01,9.770908257277195474e-01,3.677705151578510856e-01,1.100588011935533239e-01,-6.386944038042180471e-02,1.436248779296875000e+00
-2.180015038152548490e-01,-3.390234466891633991e-01,1.024215416087751906e+00,1.541306199440303781e-01,-4.228908715676445162e-02,-7.339722177264390579e-02,1.341968655586242676e+00
-3.073433690823494935e-01,-8.436017471538940216e-01,1.672959260764925293e+00,3.982582048078280867e-01,4.453200081083777406e-02,-5.265770213083491302e-02,2.400254487991333008e+00
-3.040234634258443674e-02,-9.949487810774244601e-01,9.626814627791404622e-01,-3.945310276159066584e-03,4.917066302629691590e-03,-1.901299001697773390e-03,1.695455908775329590e+00
1.274770379633349132e-02,-9.529825733086789707e-01,9.400611502239778483e-01,-9.592258831231969748e-03,-1.012161808279364583e-02,-2.807247698478876861e-03,1.639721632003784180e+00
-9.872761554793342553e-02,-1.003374382262953057e+00,1.013812259066202426e+00,-1.650279552444382930e-03,-1.016789830274124340e-01,2.783927508305269680e-03,1.758872866630554199e+00
-2.316203606117726022e-01,-1.328428911286399505e-01,8.804551558811813949e-01,-3.429168211963685292e-02,1.221006194392604965e-02,1.135808584391223564e-02,1.068168044090270996e+00
-1.945615147727894345e-01,-2.603826922061648896e-01,8.044367547360948834e-01,4.726188644817327228e-03,-7.476161703648329104e-04,-9.986407750256892299e-03,1.033660054206848145e+00
-5.772649040576526003e-02,-1.164983636337782791e+00,1.188032448030000854e+00,8.118163586583121427e-02,-1.074144441276501938e-01,1.291356384497737483e-03,2.052242517471313477e+00
-1.879280018191613055e-01,-3.892075302304437434e-01,9.092152481330907365e-01,1.659178238160174262e-02,1.425008018548076620e-02,-1.229400455394412256e-01,1.229571938514709473e+00
-1.758385792067642672e-01,-6.154514423715187199e-01,1.025151853265368285e+00,-1.200540626818422246e-01,5.266309027596917207e-03,-8.177222664923677886e-02,1.492310523986816406e+00
-3.519005765503924188e-02,-1.010971595577325077e+00,1.002533040220281890e+00,7.121835334319518221e-03,9.172195802022654193e-03,3.660741266648290596e-03,1.744148731231689453e+00
-1.117534673093630859e-01,-5.487193816632915944e-01,8.684289560590878754e-01,-1.328685185867338296e-02,-4.455956734200133482e-04,-6.653632638866135984e-02,1.262463688850402832e+00
-4.253361431490385036e-02,-5.584437347336346225e-01,5.349359720679217611e-01,4.300030012550748459e-02,-9.829031379284952630e-02,2.414188813683212087e-01,1.052110314369201660e+00
7.805609041357811084e-02,-1.445668941543913899e+00,1.019115261904134595e+00,3.240416625812524432e-01,-4.150024039139503795e-01,1.804451370288277512e-01,2.360215425491333008e+00
2.062804294130226868e-01,-1.259641894351681612e+00,5.155949881923568290e-01,-3.894538931368463769e-02,-3.773105402976340006e-01,1.670724020435425672e-01,1.792599916458129883e+00
1.552719347288791275e-02,-9.399933369948649808e-01,9.345602920164532978e-01,2.445952004332327834e-03,1.220692730802060144e-02,-2.384897112738022015e-03,1.623661994934082031e+00
1.105223828142806453e-01,-1.510263589962441699e+00,9.571267032334263014e-01,2.062299299891607318e-01,-4.598636883604019232e-01,1.087574263794975626e-01,2.348052740097045898e+00
-2.315927171594803213e-02,-9.843454357074126193e-01,9.614907788258048038e-01,1.424153870122196568e-03,6.221395276595438617e-03,1.326587018637610717e-03,1.685222268104553223e+00
-7.317222503209366846e-02,-9.695777973878990652e-01,9.306102016333661631e-01,-3.006762870288428192e-03,-2.137667103308042889e-03,-9.258652209568442922e-04,1.646499872207641602e+00
-5.968202929229853015e-02,-9.724063158929709960e-01,9.257803491179557032e-01,7.672759499393704257e-04,-5.618169286939488777e-03,3.652399668884180215e-04,1.644309639930725098e+00
-3.225913750147644393e-02,-7.933365340472393612e-01,8.979684962092088218e-01,-1.052000724810585493e-02,-8.744971881202724326e-03,-4.306920007702395685e-03,1.467363119125366211e+00
-4.163001809481237797e-02,-6.596108244924957509e-01,8.596326802450148241e-01,-1.022875278111032640e-02,-9.976329574540190523e-03,7.572249581811245356e-02,1.330019474029541016e+00
-5.388734368901937355e-02,-8.006236463245859358e-01,9.313585080255721849e-01,-7.902412266509176164e-02,2.141179531719403228e-02,1.389222010211879459e-02,1.511533021926879883e+00
2.830082231629976047e-02,-9.541528054837986605e-01,9.349105767466282524e-01,-7.091292242096597018e-04,-5.697053027964377875e-03,2.151830235994661722e-03,1.636450767517089844e+00
-1.499747129149677782e-01,-5.366066973238141635e-01,8.593562127496998659e-01,4.399866927896838031e-02,1.662909373374590882e-02,8.163678344650425467e-02,1.259009003639221191e+00
-2.585232245500448250e-02,-1.009693503905348733e+00,9.962334767301777028e-01,-1.398117732602641161e-02,1.294714151709655536e-02,-3.870540709188011273e-03,1.737615346908569336e+00
1.610323220978303327e-02,-9.868714719277190683e-01,9.768832048223513587e-01,-3.837013024171620663e-03,-1.902823365298640193e-05,2.541448923787919395e-03,1.700811028480529785e+00
-3.517209568643202278e-02,-9.881573844512820948e-01,8.875780698626291043e-01,7.830579152847440272e-03,-8.722511855540378278e-02,3.865027739942761970e-02,1.632944107055664062e+00
-1.243866694235809187e-02,-8.358620125410561874e-01,9.092661341469575609e-01,-3.025218970763390858e-02,-2.547047875271463840e-02,2.372526040824415178e-02,1.514232277870178223e+00
-1.116434373730598034e-01,-1.074196210669198237e+00,1.183645316162944550e+00,-4.115111982494306098e-01,-1.991184655632597944e-01,-2.474936216027214322e-02,2.116570472717285156e+00
1.099792088147205985e-02,-9.918869416421740581e-01,9.612345320503702384e-01,-1.422625598648824367e-02,-2.686918335886831315e-03,-2.611834002461545668e-03,1.691849589347839355e+00
8.567612685800973793e-03,-9.769917425949276035e-01,9.562193370490420508e-01,-1.097871336491095320e-02,-2.029661735575929472e-03,-1.699502488224344287e-03,1.674431443214416504e+00
-4.274856915272064184e-02,-1.037699942854702906e+00,1.061259155407670240e+00,6.059565986302426280e-03,-7.215107193832422453e-03,-6.371311391706710632e-03,1.818676233291625977e+00
1.291311712664536433e-02,-9.216271086467978657e-01,9.292995443763836239e-01,-1.156117332824082439e-02,-1.191649672718875057e-02,1.202365434067575491e-02,1.603368401527404785e+00
4.331952325320569119e-04,-9.946186303866720868e-01,9.663584529945803414e-01,-1.255627913871796772e-02,6.587301188812128526e-03,-2.501680032208413937e-03,1.698501467704772949e+00
2.735748013401829645e-03,-9.774239703838851767e-01,9.589795588580767305e-01,-4.765561430809013219e-03,6.840690470732193641e-03,-1.811436531271929913e-03,1.677082419395446777e+00
-1.653809580208939201e-01,-1.591080483166146475e+00,1.945820427306907741e+00,-2.679920973473722268e-01,-8.221028567812466159e-02,5.551459525795397580e-03,3.120185375213623047e+00
-1.863361117176220438e-01,-1.866991745704089656e+00,2.132199094389966021e+00,-3.686216300790531863e-01,-8.822108464591574273e-02,-1.346512416370264191e-02,3.539548873901367188e+00
-8.231655112359667625e-03,-8.958282410829323528e-01,9.278317158798028430e-01,-3.011220613674524954e-02,1.879783432963770540e-02,4.933805442022722552e-03,1.580741047859191895e+00
-6.116798723769749369e-02,-1.019600524006947229e+00,1.040819073546396245e+00,-5.249732811355736078e-03,1.050240745806327834e-02,-1.561900645326020449e-03,1.785936594009399414e+00
1.521947083541787260e-03,-1.013515736138544066e+00,9.932141942312102678e-01,2.752020117280543337e-03,1.703769763974494937e-03,-2.224832391457460135e-03,1.737931609153747559e+00
-1.742051887772785579e-01,-1.693402676787624461e+00,2.094624878012687930e+00,-5.165512690501285198e-02,-1.147252193954005489e-01,9.599597868956211144e-02,3.313229322433471680e+00
-1.237289281166202015e-01,-5.086690826908819574e-01,1.016701450619361902e+00,2.426928991645822264e-01,-1.612833555625025062e-01,2.809745978641841474e-02,1.464534997940063477e+00
7.702262356065144901e-03,-9.776037727713472458e-01,9.514611867120086330e-01,1.873464339381328194e-03,9.688973274245301845e-03,2.114383241012659544e-03,1.670839905738830566e+00
-3.505603180173180733e-02,-8.644609742488849058e-01,9.330943795306716471e-01,3.574637532999106089e-03,1.983130171491363780e-02,-7.538679110188397856e-03,1.558719038963317871e+00
-1.554448492987285935e-01,-8.071596882016232044e-01,1.214572296461521539e+00,3.478238847331964756e-01,-2.228372975100758602e-01,-7.005954511649264971e-02,1.929035663604736328e+00
-3.446213231153111289e-02,-9.933464824619450129e-01,9.678760785873887773e-01,-4.353266604418405683e-03,6.868668612605905756e-03,-3.931713065133209464e-03,1.698679566383361816e+00
-3.685243571664416351e-02,-9.934721404058509675e-01,9.577903557999493112e-01,-3.344134127854711102e-03,7.486508701606411431e-04,2.388507813864887593e-03,1.689965367317199707e+00
-1.779428922817193753e-02,-9.854968467868004955e-01,9.602616096859979411e-01,-1.728753003983576680e-03,4.959629116991948368e-03,-1.096496113103027784e-03,1.685109853744506836e+00
-1.333734684724492171e-02,-1.019587368474941913e+00,1.017756824274835825e+00,1.656491328544400579e-02,9.161533174012862629e-03,4.899176517992761409e-03,1.764760613441467285e+00
-6.044685156336730703e-02,-9.846559952472534460e-01,9.582217158356270970e-01,-5.466509862190331755e-03,-5.204389681348875127e-03,-6.469460009099009534e-03,1.683332204818725586e+00
-6.772516650627012635e-02,-1.467865330583214556e+00,1.562784450547399784e+00,5.797390421588069498e-02,1.048584665994288234e-01,1.826862826017772168e-02,2.635519981384277344e+00
6.073338593633130500e-02,-2.098616346198908467e+00,1.687880230128698367e+00,1.133405902352372652e-01,-4.277306535788416020e-01,2.689214346193568445e-02,3.378393888473510742e+00
-6.111446858758300127e-02,-1.187721500184348855e+00,1.193967534128513197e+00,1.205946355352534131e-02,-2.738086896893861949e-02,-1.795030969194220949e-03,2.064256191253662109e+00
-2.555463207242487239e-02,-1.012013302085992494e+00,1.007670855698689749e+00,1.429467179247811449e-02,-1.181624518237327009e-03,2.641163052526255346e-04,1.749430537223815918e+00
-3.409311839288121926e-02,-9.913894375765542888e-01,9.563592037290125081e-01,9.628555421899336660e-04,1.562505225498836024e-03,-1.824929415112922860e-03,1.686887264251708984e+00
-4.516174411306796144e-02,-9.948835970368880011e-01,9.635581768208222320e-01,4.328401288492772156e-03,7.794821144673838402e-03,-6.590713565097294042e-04,1.696387529373168945e+00
-5.110774972950225814e-03,-9.900059845508599743e-01,9.679701133229167143e-01,-5.246534333298005261e-03,1.486892515517654681e-02,-2.325509521643354290e-03,1.695891976356506348e+00
-1.697498109289453105e-01,-7.538267480947560273e-01,1.199870387713804831e+00,4.045760892560118505e-01,-2.427925874817795371e-01,-1.311085967109579808e-01,1.932984113693237305e+00
-2.376642708479110438e-02,-8.900670269277296542e-01,9.601567339997196804e-01,5.851449879062235737e-02,1.697238738482819559e-02,4.581213578204723635e-02,1.608846545219421387e+00
3.472727797289708318e-03,-8.811541087145585704e-01,9.913769961095144634e-01,1.378606496414660487e-01,-8.079620956329552905e-03,-3.630471836141735843e-03,1.640029907226562500e+00
-4.317987023274785091e-02,-9.648770212005802760e-01,9.388982060274830843e-01,1.049639623301859385e-02,-3.728682803317608097e-02,-2.291212209017943514e-03,1.650363206863403320e+00
-5.128723948331756835e-03,-8.882748130463963276e-01,9.227066951312911103e-01,3.063111515450130801e-02,1.148580220935412240e-02,1.878531101742408026e-03,1.569541692733764648e+00
-3.536811576973700189e-02,-9.352269618957549380e-01,9.382938983118070952e-01,-2.095551124260839823e-02,-1.580921544510066265e-02,2.108539540098165049e-02,1.623983740806579590e+00
-5.011881543638914416e-02,-9.818911885721471888e-01,9.147113146274242768e-01,1.678307627926441808e-02,2.354657214217647371e-02,-2.399629379878819371e-02,1.643877983093261719e+00
2.079537794880724488e-02,-9.660404586702628915e-01,7.809642006178293405e-01,1.538079928359284984e-03,1.429323130287733085e-02,-9.322489866927342189e-03,1.517479538917541504e+00
1.348817038690271197e-02,-7.219315276071182064e-01,3.853573091315355414e-01,-1.863090989309121870e-01,1.203428967286234164e-01,7.749873053403494305e-02,1.057453274726867676e+00
-1.818977590010593670e-01,-7.700314615254566508e-01,9.983063749387132146e-01,-2.636614055311565716e-02,-2.542808533166802248e-02,6.837077373609450059e-02,1.565550923347473145e+00
-9.906234795271484650e-02,-7.562701650920442553e-01,9.162514522566580499e-01,-2.608946131454554715e-03,-1.698143888452659234e-02,-1.190535542215432827e-02,1.459920287132263184e+00
-1.181834577783425488e-01,-5.535108701510792484e-01,8.495864906560697261e-01,1.015195743225677655e-01,2.375088529323011316e-02,-1.062989632171465297e-02,1.257113933563232422e+00
7.018586312498234373e-04,-9.522608810483937924e-01,9.521473004055338585e-01,-4.032771667079453060e-02,-2.128450534812170031e-02,1.653206366612325340e-02,1.651404380798339844e+00
-4.671006987783427739e-02,-9.419382145432441122e-01,9.460869206327419123e-01,3.000448727385357853e-03,-1.732736832332337079e-02,-1.102726380965950506e-02,1.636200308799743652e+00
-2.545541628153275004e-02,-8.270041829887542217e-01,8.142575456030644032e-01,4.284356203409469405e-02,6.461244201011975830e-02,3.982338440409678021e-02,1.429495692253112793e+00
-4.465961468260032374e-02,-9.928604053506137062e-01,9.586553609684421717e-01,-9.525509437339997262e-03,-4.928572473814364901e-04,-1.255587331968500931e-03,1.690369009971618652e+00
-7.565031532273553197e-03,-8.983754200608258245e-01,9.211601635834013591e-01,4.310833940367772565e-02,-1.886148717346038117e-02,-2.526512054426828871e-02,1.578590750694274902e+00
-2.954090978800509582e-02,-9.648367062080244194e-01,9.533989776408949846e-01,-2.373348681422388952e-03,-2.204810606601332115e-02,2.943387621839180842e-03,1.661863327026367188e+00
-3.534206613768225980e-02,-9.861411676361203638e-01,9.423134929942115212e-01,-6.789841376587149938e-03,-5.256778677753478485e-03,-4.699763865467646365e-03,1.670230746269226074e+00
-1.010727001489958310e-02,-1.144383342611042575e+00,1.024860242272256361e+00,3.739789299774187725e-02,9.602828951960540316e-02,-1.240546533104525465e-02,1.887856125831604004e+00
4.208390223942033714e-02,-9.641143828987335240e-01,6.118972736981735938e-01,-4.643160473653910707e-03,-1.907572094076789015e-01,-3.629342805799133653e-02,1.422550082206726074e+00
-8.174978165799076657e-02,-9.658991109364811756e-01,9.259885180739435562e-01,7.254975399068590985e-04,7.508763149835302048e-03,-1.184306049093689604e-03,1.639641046524047852e+00
-1.839639317231043514e-01,-4.069889609419473642e-01,9.180748857693702414e-01,1.646629195066301454e-01,-2.253091850724048620e-02,-2.241173458815176600e-02,1.262688994407653809e+00
3.163796876378709155e-02,-9.405894273562842578e-01,9.304069812094216685e-01,1.417663355852516113e-02,-7.188536737249573601e-03,-5.047264216533650476e-03,1.621003985404968262e+00
-1.812849042742008948e-02,-9.609970445706641495e-01,9.570586910390110891e-01,2.735122200744664889e-02,-1.006338823654240669e-02,-1.122154285294638815e-02,1.662044048309326172e+00
-5.381913604228479725e-02,-1.257088350287208556e+00,1.310040084308846442e+00,1.060161345286862317e-01,-1.724117598554525399e-01,-8.098535743027346356e-02,2.256464004516601562e+00
-1.357624293028172544e-02,-7.712061418150222281e-01,7.198824320408780952e-01,-8.007540957746406979e-03,1.328577475080353065e-02,-3.307125781537833403e-02,1.292926073074340820e+00
3.957797807416715830e-02,-9.797989898798725728e-01,9.521460092580894541e-01,1.338562115121361661e-02,-4.268683394942515003e-03,-1.820792466062049961e-03,1.674145340919494629e+00
2.967867866081514566e-03,-8.607678028421127392e-01,9.241581492894785921e-01,3.512601367910907213e-02,-9.754039646134495672e-03,-5.281380615074965368e-03,1.547374010086059570e+00
-2.917798702169389566e-02,-8.790465571935325295e-01,8.115341126561166352e-01,-1.211309182597672673e-01,1.652045065906184579e-02,1.728758378307995724e-01,1.509325385093688965e+00
-2.921652573287863985e-02,-9.817905641658727367e-01,9.202259351821763245e-01,-2.954547255052874296e-03,-2.404402583921189107e-03,-1.175517644466360194e-02,1.647334337234497070e+00
-1.002714165339036595e-01,-6.341316357005859494e-01,8.758933908488415465e-01,8.820708896290777729e-03,2.061772850816614988e-03,6.748728708829017028e-03,1.326432347297668457e+00
-3.030178809487528435e-02,-9.750989701780518049e-01,9.046812515623613438e-01,-9.893199291181655267e-03,2.740895453872295353e-03,-6.885895957363417225e-03,1.628085613250732422e+00
-3.729059244722833510e-02,-9.794280615566925974e-01,9.081614634318300183e-01,-1.031365567081866767e-02,-4.181768936946548762e-03,5.504019411079577248e-03,1.634842753410339355e+00
-2.334881527721426042e-04,-1.083198087748736382e+00,1.025812445921806759e+00,1.899681471327262575e-02,-4.872558831563182820e-03,8.287534571912150497e-03,1.827050566673278809e+00
-4.171356274751848725e-02,-9.615121337413871094e-01,8.598513435462298293e-01,-1.184402043071598049e-02,-1.952031808946377844e-02,1.984987986995172780e-03,1.577872753143310547e+00
5.258502797857231292e-02,-9.307846931261029022e-01,6.050218516448672146e-01,-9.087488415680773993e-03,-3.615376006878294468e-02,-4.955810686828023698e-02,1.351661682128906250e+00
-4.632793191428866836e-02,-7.990458158561395408e-01,7.542417695077129336e-01,2.274418753401659388e-01,-2.172931673602094271e-01,1.691266360281712122e-01,1.480793356895446777e+00
-3.031065404740840297e-02,-9.925344054212960065e-01,9.694245306143346452e-01,-7.660459785487209669e-03,5.234804688228524537e-03,4.640066726964617826e-03,1.699304819107055664e+00
-2.650973551480780011e-02,-9.835013802512931891e-01,1.006974781390942431e+00,5.268325761893867532e-02,-1.255407841266879300e-02,4.927864632147990753e-03,1.726798057556152344e+00
-9.198563523185096513e-02,-5.291684487647881907e-01,8.248479031091179303e-01,1.193994557924623751e-01,-1.729310721618295202e-02,-6.859650328857959389e-02,1.220786094665527344e+00
-1.791796163054843738e-01,-5.432208354700027719e-01,1.047541859914884910e+00,3.967648532030083608e-01,3.771268919665588665e-02,4.678812524292205038e-02,1.602201581001281738e+00
-3.110009961915034468e-02,-9.823914104384853241e-01,9.236393584408896240e-01,-9.243451342835030948e-03,-4.454250314227418267e-03,-6.220854220960598396e-03,1.650802850723266602e+00
-2.328401901106599489e-02,-9.790258350855423064e-01,9.199215689186994727e-01,-3.557442016571777006e-03,-6.944411712858412217e-03,-6.948691975649533281e-03,1.644648194313049316e+00
4.283071651168001565e-02,-9.801628455459813205e-01,9.473576972332319324e-01,4.274114624309527377e-02,-2.507791882384189687e-03,-2.257147106395552237e-03,1.671982288360595703e+00
-2.122413101977017186e-02,-9.608983808768778445e-01,8.069351187553412963e-01,-1.865639470006650105e-02,7.144229405620241592e-03,-2.508094517836279274e-03,1.532400608062744141e+00
7.364798962454482088e-03,-9.825837775225841897e-01,9.539867347294784805e-01,3.741925446989569169e-04,-8.564026408420223613e-03,-8.042635533246174015e-04,1.677325487136840820e+00
7.506870444808746816e-03,-9.641780994974237240e-01,9.467092845513466193e-01,-3.696358983972169217e-03,-1.047458441364085453e-02,2.022166883583565410e-03,1.655072212219238281e+00
-3.559975235029408380e-02,-9.804437317889503900e-01,9.371086971052829950e-01,-8.816765382761080488e-03,-1.053773833715281744e-02,5.006928894019320279e-03,1.660900712013244629e+00
-3.896713868628064181e-02,-9.585168874764924407e-01,9.117262039398408291e-01,2.772827992345230572e-03,6.590096589180723455e-04,1.165981630813116635e-02,1.619886279106140137e+00
-8.986920736900293194e-02,-1.187821672297228126e+00,1.230761865074446515e+00,4.215731516209241803e-01,2.245895864102473438e-01,6.722422341544790313e-03,2.254813671112060547e+00
-3.317603919494262199e-02,-9.309469088380182278e-01,8.935267243518514313e-01,-4.615511451302995068e-03,-4.593126608780345038e-03,-1.623741988020837234e-04,1.580147027969360352e+00
2.733958759777700698e-03,-9.734364516721926153e-01,8.481219832645473522e-01,-7.807845767975394105e-03,-6.494171933758386556e-03,-1.039084481657369732e-02,1.579071164131164551e+00
-8.161944805074980436e-02,-9.777945479117203798e-01,9.537039007570434768e-01,-3.457670209345349143e-03,4.971225703769797943e-02,8.119976837473667775e-03,1.676455497741699219e+00
-9.355599754073520846e-02,-1.049251063435784115e+00,1.168093630390576010e+00,-1.979379043214906653e-01,2.283719497282675134e-03,4.344871854368403952e-02,1.958081364631652832e+00
2.038367933621473838e-01,-2.235977386637471476e+00,1.623377959704240592e+00,-1.452700188676810389e-01,6.043570193637310961e-01,8.753614213957974788e-02,3.551513433456420898e+00
-8.085745249363343601e-02,-9.970133851651048484e-01,9.823613735958214299e-01,-9.361812477424122109e-04,2.053146849553592543e-02,5.588111177922725804e-03,1.716161727905273438e+00
-6.069946836666487155e-02,-1.004039965425167713e+00,9.030471668865137636e-01,6.059841314438884491e-03,9.878784332301142335e-02,5.103232100080854275e-03,1.660513639450073242e+00
-1.457478555311816359e-01,-2.011771951421548188e+00,2.083763673027183572e+00,-3.586004593922341166e-01,1.045581699422687832e-01,7.317033236798410655e-04,3.609940767288208008e+00
-1.402334434079869907e-01,-1.990162001232469668e+00,2.097919981705956616e+00,2.810683579772256246e-01,1.834443026222402628e-01,2.935995909317363345e-02,3.593400955200195312e+00
-6.930155850413270702e-02,-1.025958370643999862e+00,1.059271640473004705e+00,4.823367070532976440e-03,-3.474655062456768703e-04,5.774883191899959217e-03,1.807953834533691406e+00
2.719740521651195508e-02,-1.165652047816913006e+00,8.579323565907772675e-01,6.979359307388743883e-02,1.772177966011120598e-01,7.770666267598744237e-02,1.797470211982727051e+00
-1.904576105476625536e-02,-9.562363478853480592e-01,8.041579253958798246e-01,9.753483867803575819e-03,-6.599347020137733694e-03,8.128905057556000402e-03,1.525812387466430664e+00
-3.740514250402745405e-02,-9.065058316966139174e-01,9.377735883427037455e-01,1.597161338987790682e-04,-2.534972457476742866e-02,-1.056825525585221651e-02,1.598781108856201172e+00
9.737234322066967707e-04,-9.611799584190507950e-01,8.492625946673875159e-01,6.467240766017640996e-04,1.093549762901958010e-02,-2.605984310952777841e-02,1.569686412811279297e+00
-3.687700559843422321e-02,-9.900280726807209053e-01,9.540802715841578685e-01,5.428416077261935492e-04,-5.925537449594115227e-03,1.220879114010785856e-03,1.683786153793334961e+00
2.137334679314024932e-01,-9.810168202427094197e-01,1.713046884116255775e-01,-1.888084456665472532e-01,2.568941024275760987e-01,2.250490185092626216e-01,1.354772090911865234e+00
-2.675100951222123338e-02,-9.944471160956031008e-01,9.623942554002979932e-01,-3.359540769167225190e-04,-5.792219799361817550e-03,1.481643098985586373e-03,1.694740056991577148e+00
-3.436418338737570743e-02,-9.793963654276662822e-01,9.613331455371999512e-01,2.726141011071440273e-03,-1.430421764797518668e-02,-3.618137464661606503e-03,1.681112885475158691e+00
-3.816577252477967863e-02,-9.847329942223840282e-01,9.566581460275097593e-01,3.282471132876441100e-03,-5.938989143669370224e-03,-2.553192111640399751e-04,1.681508302688598633e+00
-3.563603767089963681e-02,-9.840123340683163411e-01,9.510068283293744429e-01,4.303005722101734681e-03,-6.675076490705379381e-03,1.955517566457615610e-04,1.675941467285156250e+00
-3.196557691294486109e-02,-9.956507103849001616e-01,9.677494439235870827e-01,-3.024185676053802222e-04,1.687096588550635219e-03,-2.584221237709617442e-03,1.700458288192749023e+00
1.058239032576039490e-01,-9.363913950731641567e-01,5.452856054971102484e-01,1.659863200436758127e-02,3.862742136781725094e-02,9.789032440494286474e-03,1.320205807685852051e+00
4.566407717309808878e-02,-9.468297261837396173e-01,6.824656669153739141e-01,3.505958423275641091e-03,4.691557414007133803e-02,1.086434933046030900e-02,1.424631953239440918e+00
-8.050370811027260376e-02,-5.324109645366968957e-01,7.876303375940566509e-01,-1.009946601871868598e-02,-8.921372584921732907e-03,-2.423112937787749374e-02,1.162969946861267090e+00
3.665739521894424702e-03,-9.655121769150486477e-01,8.013345726590740403e-01,-7.708987648183639185e-04,-2.555596959614850946e-03,-1.461323188214862581e-02,1.532751321792602539e+00
5.084785789485204988e-02,-9.489446666894464366e-01,6.819724172631314030e-01,7.994764389575394203e-03,1.994795705414603715e-02,-3.785399936919688069e-02,1.426387429237365723e+00
-1.579052673115818872e-01,-6.537927921726157665e-01,9.145648048152896781e-01,-2.008852555733003920e-02,1.854240226870736141e-02,-4.555644326109906106e-02,1.391542077064514160e+00
-7.748447057974701402e-02,-8.694262999482564869e-01,9.419087474355787304e-01,2.481838780960817057e-04,2.645453307469054771e-02,1.093526276553198444e-02,1.573560595512390137e+00
-4.598202477170176827e-02,-9.427871852433958866e-01,9.440158433483535338e-01,1.323806177610648048e-03,9.437501536323921955e-03,9.502500695855307933e-03,1.634849786758422852e+00
-3.780635407426203437e-02,-9.612119227825224321e-01,9.360474756231529359e-01,-5.167658777285376141e-04,9.563249996124626590e-03,-6.860628468094074478e-03,1.643395185470581055e+00
-2.524766264359677714e-03,-9.671542242991391092e-01,8.433469856630628758e-01,8.814614634984877309e-03,-1.484690748958257187e-02,1.930926084551176647e-02,1.569705247879028320e+00
-2.170091980528175701e-02,-9.454240851641393384e-01,9.444942773727854624e-01,9.917332747838141296e-03,8.844301037085425601e-03,3.936574667733297450e-03,1.637031078338623047e+00
-1.948866758994532294e-02,-9.380059182372082471e-01,9.390198959894311415e-01,4.497682105286704077e-03,1.889956567646439156e-02,-1.175842263122430648e-02,1.626150727272033691e+00
-8.399217637614773968e-03,-9.113495271128111419e-01,9.417934542036319190e-01,2.820403346128352862e-02,1.916956739902378817e-02,2.078906307392908853e-02,1.606532812118530273e+00
-2.626553465754875166e-02,-9.252614512669364855e-01,9.698631386684484212e-01,1.082826161066880594e-01,-4.805326294011691424e-02,4.328854552656223771e-03,1.654732823371887207e+00
-1.765079101739289724e-01,-2.078293604285900154e-01,1.315789969744407539e+00,8.137711456658845710e-02,1.167045828841935078e-02,4.075667735350605586e-02,1.516553163528442383e+00
-2.070722754492473894e-01,-2.928946969976951031e-01,1.298393656517848882e+00,-9.523709276229026799e-02,4.944730656313398032e-02,-1.721782236802995095e-02,1.561547517776489258e+00
-1.325186573980612070e-01,-6.034807669183216428e-01,8.760865848311433224e-01,1.104163593383306330e-01,7.205331065852829849e-03,4.047035434819457175e-04,1.323191642761230469e+00
-3.979804226778742293e-02,-6.974950360680490791e-01,8.734748292490221999e-01,7.105255185844917831e-02,1.969292313300866765e-02,1.948245918371458926e-02,1.372857213020324707e+00
-1.310380581812478629e-01,-4.674510579254448905e-01,8.203701260432897380e-01,7.610673607704311616e-02,-8.212553945369079067e-03,2.923260571889120703e-03,1.164483547210693359e+00
2.114680556693712687e-04,-9.291408918171955023e-01,9.433655258723833148e-01,-3.250541465862103602e-02,2.177912869592231807e-02,-8.905755539241739377e-03,1.623141527175903320e+00
-1.506436558483540411e-01,-4.820202417883087675e-01,8.456706652544345726e-01,-9.057003483241667097e-02,9.023274942333460794e-03,-5.411337356517743197e-02,1.210886359214782715e+00
-8.028403553128947434e-02,-8.239064756533822642e-01,9.306594327704803549e-01,-1.829600772172318077e-02,8.866242007841612649e-03,1.620246975065912920e-02,1.526030421257019043e+00
-9.775005670518016609e-02,-8.065170467515455632e-01,9.300683732123747882e-01,-7.284455723462383110e-04,-4.506292850839196257e-03,2.188442116371939680e-02,1.512859702110290527e+00
-4.860079980487846951e-02,-8.709568088729614521e-01,9.144495751593920696e-01,-1.823393135754883612e-02,1.854437477842383816e-02,-3.093022981763088319e-02,1.549388527870178223e+00
-4.482154116835775776e-02,-9.348919854557891096e-01,8.985767729163999240e-01,-7.100646486546384082e-04,-1.055644293319342426e-05,2.796804244906485239e-03,1.588062286376953125e+00
-6.478399734934824072e-03,-9.518704506352795303e-01,9.466541401541271883e-01,-1.526389710370793310e-02,1.446125987888324024e-03,3.861378988974002464e-03,1.644403100013732910e+00
-3.544569979404361970e-02,-9.730791045067078704e-01,9.328011798379178821e-01,1.310046387198530657e-03,2.427619792376700929e-03,-4.316445624320679707e-03,1.650635600090026855e+00
-4.605955492828077424e-02,-9.427097027244796257e-01,9.256970336501931795e-01,-2.350245603247180120e-04,5.485194458401236768e-03,-9.296666450365672144e-03,1.618631482124328613e+00
-4.231055733468869207e-02,-9.628624387313073907e-01,9.362454066241029382e-01,9.645551970286420963e-05,1.224074556278750186e-03,2.919627825786442858e-03,1.644940495491027832e+00
1.078399245185352601e-02,-9.671135526829462981e-01,1.007299638584748358e+00,4.488089724974623357e-02,-8.865459845723597937e-03,-1.597162954282491457e-02,1.711975812911987305e+00
-5.044272579443784266e-02,-7.945207216729677224e-01,9.090422259127104443e-01,4.153910464080869114e-02,2.908768244637348344e-02,-6.311297924373148772e-03,1.481900572776794434e+00
-2.119042060870659216e-01,-6.006721200153364304e-01,1.425372042702996334e+00,2.588031021720301195e-01,1.765489574201367096e-01,-9.097054716747174363e-02,1.946177601814270020e+00
-1.408272527954505804e-01,-5.062795692832589012e-01,8.519045980309295496e-01,5.272014430147331510e-02,-2.836427676606736222e-03,-5.453855107857707649e-03,1.220786452293395996e+00
-7.980545849502004851e-02,-7.590668664537252308e-01,9.054329800268757777e-01,2.610813911728331743e-02,-3.352292845441249419e-02,1.971941662075969715e-02,1.451863646507263184e+00
-2.207540958658346097e-01,8.460274306052451010e-04,8.962106598607004759e-01,2.754858675163969831e-02,1.939900823030124566e-02,1.273736139793135158e-01,1.049416542053222656e+00
-2.180527773850233705e-03,-9.322431216234645657e-01,9.352507216808180202e-01,4.672200486939253467e-02,-2.433968913453668850e-02,-2.060005000692642294e-02,1.620266199111938477e+00
-2.958845979381221833e-02,-9.158912144262940647e-01,9.377239262002671216e-01,1.076335102298660654e-02,-1.218684919035725386e-02,-3.015307450411926563e-03,1.606044173240661621e+00
-3.169058062244477919e-02,-8.515013631164095598e-01,9.253498214219441076e-01,-8.861897584474011380e-03,-2.536333668069948657e-02,-1.678097979277590581e-03,1.541032791137695312e+00
-6.940435217681922841e-02,-1.019728782820106483e+00,1.017061317252459629e+00,1.967558879025339390e-03,2.100199775952518375e-02,6.918671095013087719e-05,1.765602946281433105e+00
-3.059744244136090169e-02,-9.411741275879114133e-01,9.498608053717770838e-01,2.012078315794778652e-02,-1.301476763671592651e-02,5.964266723916341120e-03,1.638615250587463379e+00
-3.324954248699343862e-02,-9.753514102903838578e-01,9.584976680954123696e-01,-3.436385917817721698e-03,-1.098602262851110581e-02,3.893539199580868439e-03,1.675078630447387695e+00
-5.310224612610206507e-02,-1.003631663098737414e+00,1.004419715916286426e+00,6.416896690438532794e-03,-1.704429256480487209e-02,-7.709593831448647606e-03,1.740183353424072266e+00
-1.493244369952478889e-01,-6.836891601679163655e-01,1.125452470997629906e+00,3.023256278319748636e-01,1.244648272233373903e-01,1.266962950835289758e-01,1.720648169517517090e+00
-6.530639201545281047e-02,-9.995305123437834283e-01,9.852488352037792607e-01,-7.103464816023479129e-03,-4.725131498705499242e-03,-6.615399137869353192e-03,1.719954848289489746e+00
-3.574289177813380625e-02,-1.137929714607085696e+00,1.088251948406698810e+00,1.900660112653721201e-01,-1.433129923533139338e-01,-5.502931908016249485e-02,1.973856210708618164e+00
-4.948169431975163457e-02,-9.807329386041410135e-01,9.328786786667034869e-01,-5.011351143338929094e-03,-5.116582172039734616e-03,1.895607513661399005e-04,1.657479763031005859e+00
3.903019859303569206e-02,-9.360026374934568016e-01,5.621327239756913619e-01,8.222065592958079094e-02,-1.355489243661051335e-01,1.964619778681366280e-01,1.387645721435546875e+00
-2.823549990716413619e-02,-9.722420964387405995e-01,9.560492817121224451e-01,2.211106404802006681e-02,1.443645993154498569e-02,-2.893010516941228218e-03,1.670704483985900879e+00
-5.956904704583009663e-02,-8.778438238989056952e-01,8.850222651184869171e-01,3.700862047133918892e-02,8.390181955445668357e-04,8.840947180183175713e-02,1.536984443664550781e+00
-9.022620621441056893e-03,-9.407445969877233916e-01,8.310936129940386108e-01,9.743300767530000371e-04,-1.658001966857609519e-02,-1.513418817259372037e-02,1.535633563995361328e+00
-5.445351076851902977e-02,-9.271086223532570836e-01,1.008893215783147834e+00,1.487834366100928840e-01,-1.369615388311627158e-01,-3.245007712407918521e-02,1.716395139694213867e+00
-4.681376557245627013e-02,-9.697550016974557652e-01,9.316423409936313016e-01,-2.860633889469925677e-03,4.221701807879594398e-03,-2.020613336608874377e-02,1.647287845611572266e+00
-4.099357966858895030e-02,-8.945113788939852428e-01,9.291620757213225890e-01,2.126236059938640607e-02,9.672140925105904286e-03,4.015106943975635563e-03,1.580957055091857910e+00
6.198120549157952464e-02,-9.459452189256185584e-01,6.622382261487339550e-01,4.387562126158305389e-03,-7.074112720049940267e-03,1.915345173006353582e-02,1.408029675483703613e+00
-4.797226811437873412e-02,-9.709595151620402653e-01,9.033597681143545888e-01,-9.082936760001006360e-03,8.396917095216151206e-04,-1.045932298173461034e-02,1.623447895050048828e+00
-4.344870545884679802e-02,-9.701589119864126864e-01,8.875170594405712432e-01,-9.798506771950968655e-03,-3.427108122682939739e-02,-1.433852851821013595e-02,1.610171675682067871e+00
-1.523058054535134098e-02,-9.643090314784732442e-01,8.311577560060938730e-01,-1.108281572286062312e-02,-2.017125229911850837e-02,-9.687604429555150831e-03,1.556368470191955566e+00
-3.124062019473932209e-02,-9.865631681682303089e-01,9.475192187839336366e-01,-3.182629525118944175e-03,1.122012094268458847e-03,-6.756838198977606347e-04,1.675016045570373535e+00
2.649975923197412375e-01,-1.476777519774157943e+00,3.329504126985139423e-01,3.768207882125777092e-02,-3.124839910382076064e-02,-1.284203068492628837e-02,1.778887510299682617e+00
-3.490163223112026369e-02,-9.892037219903043743e-01,9.466247769776442444e-01,6.863180476668197076e-03,2.308422538744909927e-04,3.292780239230287415e-03,1.676583766937255859e+00
-3.843914856819252712e-02,-9.824978154793637675e-01,9.579542395052721426e-01,-8.384175681174911403e-04,-8.340063257619385884e-03,2.237890725329596923e-03,1.680751681327819824e+00
-4.891200719847159373e-02,-9.753347261455290740e-01,9.496225052093936192e-01,-3.559340918985080121e-03,-7.546039471814832908e-03,-5.787649505802086591e-03,1.667544484138488770e+00
-4.519209709719541890e-02,-9.899557149258494393e-01,9.565830610786657529e-01,-2.917419756207869849e-03,-4.435113380914522982e-04,-3.262652934208105406e-03,1.686010241508483887e+00
-4.783178060387245634e-02,-9.858428241758749877e-01,9.497589989970254276e-01,5.284979009676318319e-04,-1.309660795397630823e-03,6.103484079633880385e-04,1.676547169685363770e+00
-6.984205327031256516e-02,-9.795720205540925374e-01,9.391924405775490259e-01,-1.030999318572468210e-02,-2.052859709413534101e-02,-1.024148727915625244e-02,1.663011074066162109e+00
-5.069037289426003151e-02,-9.750019636883107133e-01,9.124110226280979230e-01,-1.238629017889740329e-02,-8.511907189983902722e-04,-1.382095947623320983e-02,1.634979367256164551e+00
-6.025425447066568019e-02,-9.801641109723172596e-01,9.414193562551722572e-01,-3.214177355904246532e-03,-1.438393968814666345e-03,-3.981934950778649729e-03,1.664667606353759766e+00
-1.780409391427001040e-02,-9.917452510079395323e-01,9.593984156288801746e-01,1.737997988404000379e-03,7.902403890398864567e-03,-2.100454124151843183e-03,1.689802765846252441e+00
-3.533405398535918729e-02,-9.885322939445170265e-01,9.573838129487387549e-01,4.006113571832742998e-03,3.951090300707550858e-03,-4.523683242779191413e-03,1.685374975204467773e+00
7.975169172677727680e-02,-9.421106660868052707e-01,6.217003344318310365e-01,7.648330250377126209e-03,-3.518169595406558936e-02,-5.274323140962416251e-03,1.376837015151977539e+00
-1.184328885100593975e-02,-9.635163949026886998e-01,8.734708824732942967e-01,3.115933874635237397e-02,-1.676828001690058032e-03,1.427336192894540327e-02,1.592333197593688965e+00
3.344848783817331306e-01,-1.653635078412691861e+00,4.642695440612879532e-01,4.203274272886266261e-02,-1.961756183716482915e-01,4.065782579493156662e-02,2.086433887481689453e+00
1.942125618864432857e-01,-1.331979101834199763e+00,3.968709539653129115e-01,3.617200196996884359e-02,-9.873514307921033017e-02,1.628766760415751025e-01,1.671042919158935547e+00
1.235321118852349687e-01,-9.627071503454193158e-01,4.465779963581381073e-01,-3.242872027952640318e-02,1.962286292247634664e-02,-1.774551200089375877e-02,1.280794382095336914e+00
2.862093537501994578e-02,-9.357387062718094395e-01,6.962337966274050327e-01,-6.409364117464572868e-04,3.257130771406482102e-03,-5.015413047466293905e-02,1.423760771751403809e+00
4.206616732159110250e-02,-8.653142965943244613e-01,5.202092746446235205e-01,5.818109111974353528e-03,5.733048615480718091e-02,2.601474874356232703e-01,1.303384065628051758e+00
3.258841375509526073e-02,-9.498714030180427370e-01,6.981208323552069439e-01,-1.390072006236926783e-02,3.056270727551991563e-03,3.513920543335380398e-02,1.437474012374877930e+00
1.102384174444050180e-01,-9.123743409022737616e-01,4.965603588494559295e-01,-6.441490347412030804e-03,-7.930139943682436342e-04,-4.298562093770184021e-03,1.261039614677429199e+00
-2.105565880783685784e-03,-1.099826258397067047e+00,7.998081155100820183e-01,5.245831263342075335e-02,1.289851761963692507e-02,1.652294848001101962e-02,1.654662251472473145e+00
-3.854713663217398945e-02,-9.817725138198024615e-01,9.248884555403386054e-01,-7.196398354752117990e-03,-1.209712093292625475e-02,-9.182231913564091463e-03,1.651504278182983398e+00
-5.306431142067082746e-02,-7.920118479411220047e-01,9.123544317285696703e-01,3.716016493781620911e-02,1.632872396492139958e-02,-9.843141558154331477e-03,1.482128143310546875e+00
-2.017707505984259186e-02,-9.672595673493579183e-01,9.534754811710476341e-01,3.796418259304241462e-03,7.872148023698203809e-03,-7.810087410863772971e-03,1.663582324981689453e+00
-4.590683041673499637e-02,-8.121052986373802351e-01,9.026789935581376323e-01,7.782905633966423486e-02,2.323791476314749499e-02,-9.526157186862947365e-03,1.494571685791015625e+00
-2.060020207536761294e-01,-2.301819594963248616e-01,8.056817906582112165e-01,1.701156665314649263e-01,-3.630161419687255586e-02,9.663317383711633735e-02,1.080433487892150879e+00
-8.693651326686291023e-04,-9.752384640321929421e-01,9.514207541499364318e-01,1.051631402096134434e-02,-2.595126142483803085e-03,2.494526764261423084e-04,1.668677926063537598e+00
-3.168184354861736107e-02,-9.947832621302753475e-01,9.600367676175786125e-01,-2.888209406485250062e-03,9.808494067509100807e-04,-2.698209453234326829e-03,1.692999005317687988e+00
-5.036364606822818502e-02,-9.949794569932897126e-01,9.743148083166142115e-01,-8.503957805607626971e-03,-1.096989582427455520e-02,-1.006357825971050321e-02,1.706187009811401367e+00
-2.865466772000421769e-02,-9.945440505588415414e-01,9.685104191834345011e-01,-2.080733896312161510e-04,5.975926280317376410e-03,3.835459424168381455e-04,1.700158596038818359e+00
-5.125946275602594887e-02,-9.842818033544866729e-01,9.384709165771754069e-01,-6.892581180759155095e-03,-2.596836588779439202e-03,1.485509118280614344e-03,1.665444970130920410e+00
-4.474442940041718775e-02,-9.886396727853563604e-01,9.193882401504025470e-01,-1.272362209766339167e-02,-2.387956183727769216e-02,-1.353278948042274318e-02,1.653262257575988770e+00
-9.138033360982042441e-02,-1.058423017412729150e+00,1.018653278940086837e+00,-2.348529956692872733e-02,-1.961178794877863618e-01,-4.472823867760388622e-02,1.834077239036560059e+00
-7.343357340591605276e-02,-8.357515137366635649e-01,9.806905821965017367e-01,-2.336414684484382220e-01,1.933208010257141118e-02,-1.010378599781005110e-01,1.640547513961791992e+00
5.184580743781093404e-03,-1.055869194304812408e+00,1.000874234057256507e+00,-2.702646805069108121e-02,7.406544675496359517e-03,-1.143425947493965922e-02,1.782263040542602539e+00
-1.218788654854291442e-02,-9.553180800317815358e-01,8.085901258682133275e-01,1.173926803290217119e-02,-4.313244451565356741e-02,7.358589088548896963e-03,1.530826210975646973e+00
6.435343090725062498e-03,-9.958803179812291129e-01,7.107831790423781992e-01,-1.962504692258262851e-01,-2.463707402882853725e-01,-1.429368392292579282e-01,1.601765513420104980e+00
2.057688658936617648e-02,-9.533401679774665682e-01,7.609802004743316806e-01,1.644456775885875383e-02,-4.593143905602775114e-03,-8.356161887215472067e-03,1.489592909812927246e+00
-3.333292559222780782e-02,-9.851251429131361315e-01,9.335058894219356862e-01,6.876209316184208470e-03,-4.992153361322165805e-03,-3.759005843751224863e-03,1.661678194999694824e+00
-8.473318189938730538e-02,-9.071303309489181510e-01,9.451547859863898005e-01,-2.612714269348456221e-03,7.651966084004725548e-03,-3.947487875456118581e-03,1.607552886009216309e+00
-3.649810883341729484e-02,-9.793660233431685791e-01,9.096817030453648867e-01,1.063892043165708817e-02,-9.089686278204001102e-03,-3.844578468942650741e-03,1.636157274246215820e+00
-1.024298397405384448e-01,-6.283027349629138891e-01,1.066467026458314260e+00,-2.668875435394645335e-01,-3.157374828529244670e-01,1.490364534487688131e-01,1.684323668479919434e+00
-6.649668249230410166e-02,-9.683282962222298229e-01,9.122215525645617218e-01,-6.862772568037595750e-03,-1.858820851867037938e-02,2.244602887039383625e-04,1.629419088363647461e+00
-5.631609359148988248e-02,-9.836669813752852987e-01,9.532515492512312338e-01,-4.811255073126385548e-03,-3.756680764723316877e-03,-8.111532334172385367e-03,1.678016424179077148e+00
-6.275319949132902864e-02,-9.834040777784187615e-01,9.538111686767737352e-01,-4.754506636360411771e-03,1.680071706618495807e-04,-8.107093165501160631e-03,1.678441882133483887e+00
-6.627926531673442034e-02,-9.642348476967403936e-01,9.041578006388953925e-01,-1.900971551307393615e-03,-1.501720966339973977e-02,-7.428459907559014155e-03,1.618744730949401855e+00
-5.090990881124833611e-02,-9.837842372643580413e-01,9.531904596981152222e-01,1.910332048934880065e-03,-1.982007294531207622e-02,-4.667721562055083574e-03,1.678221225738525391e+00
-7.009658609321593736e-02,-9.794537998286692027e-01,9.386471002210940995e-01,-1.056697833924140871e-02,-1.369616945039495853e-02,-9.562583738175147244e-03,1.662219882011413574e+00
-7.685251970952247658e-02,-9.732765489654665592e-01,9.391383623820604987e-01,-5.442094965496705773e-03,-6.208896066298160744e-03,-9.744007204251557350e-03,1.657426118850708008e+00
1.027302888392708780e-01,-7.861497811653986867e-01,3.194968869758118557e-01,-1.279081258700917045e-01,-1.882930479035755111e-01,-1.930072613688685601e-01,1.138847947120666504e+00
-1.389481966952998970e-01,-2.153357031171876934e-01,8.747217182600804941e-01,-1.171453219327150685e-01,-1.320980597069100482e-01,8.753201283522632492e-02,1.107834696769714355e+00
2.225856608534331760e-01,-9.997539673521861348e-01,2.299448854814133969e-01,-5.083380345119144911e-02,-1.741421007262620169e-01,-4.732655068812807730e-02,1.268310666084289551e+00
-2.943039720362886080e-02,-9.467115039605774607e-01,8.989297418193031852e-01,-2.914726465387245096e-03,5.423847547820966411e-03,-1.012360748380398794e-03,1.598418354988098145e+00
-1.192822609877852436e-01,-7.400973524468437703e-02,6.698641255844564046e-01,-1.079495938099089974e-01,-4.712985252411943521e-02,-4.255930264512374633e-02,7.975787520408630371e-01
-5.179177456677189206e-02,-9.144254889886952453e-01,8.900697214599796459e-01,-2.410151736636484583e-03,-1.815453413515924052e-03,-3.318966181186104765e-03,1.563259959220886230e+00
-2.266243424796851591e-01,-1.431655957445486793e-01,1.110524557050856620e+00,5.134805276559115811e-02,6.127575949653053800e-02,9.938925414251317814e-02,1.316109538078308105e+00
-8.609815268692039281e-02,-9.705807608084593419e-01,9.444281270137767637e-01,4.958278703762727989e-04,-2.030484261170018359e-02,2.316514384975515428e-03,1.660430669784545898e+00
4.159125033274202465e-02,-9.219270436939828173e-01,6.359770438412730709e-01,3.387865577309833072e-03,-1.208364093515274136e-02,-4.335144209411518484e-03,1.361944317817687988e+00
-6.088521594470643061e-02,-9.561380549129261386e-01,8.771215766104326628e-01,4.220248755735521266e-03,-6.413898988708707262e-03,7.991850274933442978e-04,1.587849617004394531e+00
-7.160133027926816884e-02,-1.013441594533278201e+00,9.327559441079175118e-01,1.373740507384649083e-02,-8.756138121094084181e-02,2.850305508604859123e-02,1.693441748619079590e+00
-2.383536944884773537e-02,-9.688084129023671887e-01,8.534428373891340680e-01,1.686067382733663980e-02,-1.855943489025975186e-03,2.140185618884562352e-02,1.579187393188476562e+00
-2.092637803847561054e-02,-9.807111837944911814e-01,9.547071413444332411e-01,-4.043498253946855268e-03,1.805222503244315047e-02,-4.761087899250214008e-03,1.676466703414916992e+00
-3.570772726578611000e-02,-1.041381758018510517e+00,1.013457859080100221e+00,-2.814209642176002807e-02,-5.179172111137225754e-02,2.155191658533362267e-03,1.782606005668640137e+00
-3.878727894043662583e-02,-9.847322172762795756e-01,9.176557058044176873e-01,8.808639209617052934e-03,-1.684346614035378553e-02,1.343990868453036509e-02,1.648018002510070801e+00
-5.866683221801245740e-02,-7.706267404347276750e-01,9.164680014462635027e-01,7.947443066643272713e-02,2.460473995076642960e-03,8.243201960946570928e-03,1.473500013351440430e+00
-5.122261019134349835e-02,-9.979452220217811531e-01,9.785490923505545391e-01,4.858602968842131581e-03,-6.692702153341843589e-03,-3.624778487016210287e-03,1.712269306182861328e+00
-5.059099044753737062e-02,-1.024920915247782727e+00,1.021480393081391602e+00,-3.161646369181404098e-02,-5.905849279945036417e-02,-8.484148977147237098e-05,1.776701927185058594e+00
-4.573721984068611357e-02,-1.024399677361745420e+00,1.052188598841749867e+00,3.105938316462010605e-03,4.655899997875809562e-03,1.049303031871145174e-02,1.799484491348266602e+00
4.354415535783896785e-02,-9.808043942822712857e-01,7.417035809423395687e-01,6.774078592670199593e-03,-6.187678335784603740e-04,-5.064105379604111334e-02,1.503232359886169434e+00
-7.856083187916447497e-02,-1.104075685276177721e+00,1.191332382903323772e+00,-2.676519583327983953e-02,1.208442118386876193e-02,-2.544776093552605922e-02,1.992770433425903320e+00
2.175599373368368450e-02,-2.193698644534714415e+00,2.037867615024138157e+00,-8.471646138856522845e-02,-3.816452904326520512e-01,-3.014420787119882761e-02,3.728373050689697266e+00
-7.244781693602403427e-02,-1.031141098779023491e+00,1.026803458770133126e+00,-4.056315841709186298e-03,-5.119298200032597335e-02,1.199801916923242968e-03,1.785835027694702148e+00
-8.112639323037630634e-02,-1.000710148008491229e+00,1.013828445997105643e+00,-6.313425305867717986e-04,-1.960769645722606341e-02,-4.956286062959601793e-03,1.747195243835449219e+00
1.192791314238758615e-02,-1.707615554335948582e+00,1.518595338511692594e+00,3.799676758125385134e-02,-3.958798515325147593e-01,6.192913417208171373e-02,2.881606578826904297e+00
-2.914445661594333020e-02,-9.971165883256418727e-01,9.137580738271140479e-01,2.330636009271622178e-02,-3.091246209199480233e-02,-3.181069256470228646e-02,1.657187581062316895e+00
4.525851113298601236e-02,-9.355055360599325853e-01,7.548612066647431007e-01,1.323416322420053193e-01,-3.893255579595535365e-01,1.238636397249650301e-01,1.647628426551818848e+00
-6.493044441154495645e-03,-9.339072565338857324e-01,9.488865122707643707e-01,2.874320480510535181e-02,1.999042456865801273e-02,1.242286864613828361e-02,1.631876230239868164e+00
-1.264887554706941586e-01,-4.241807721918215424e-01,7.842028728401757576e-01,1.952216333205436527e-01,-9.805742095859316942e-02,1.158410008334450347e-01,1.171547293663024902e+00
-5.990232704096712379e-02,-9.758055885544534291e-01,9.286469972000270801e-01,-6.791439400253333758e-03,-1.966667180914755120e-02,-1.147529377583863391e-02,1.650217533111572266e+00
-5.985166468621460484e-02,-8.811179029061338985e-01,9.093205938748513129e-01,-1.770166423567453781e-02,1.535827783215499426e-03,8.158917527667267425e-03,1.552697181701660156e+00
3.757427364856111285e-02,-9.465089609446588614e-01,6.897290885349443013e-01,-1.640667796865868250e-02,-8.300842233344858309e-03,-2.587242716037801982e-02,1.427768468856811523e+00
-1.001375146516276932e-01,-5.963870520592549074e-01,8.291159126549599856e-01,3.664445287128227369e-01,-1.324919237897902169e-01,1.254593496221396431e-01,1.440015435218811035e+00
-5.129998531610802104e-02,-7.633343802320911031e-01,8.953382410804175962e-01,3.637176244839398359e-02,2.258200174930653087e-02,8.541303313040071385e-03,1.443216323852539062e+00
-7.447439182846028738e-02,-7.356797872353839640e-01,8.945882004528391551e-01,-3.991769600346899843e-02,-3.436647132236186897e-02,4.681398117964823830e-02,1.425455093383789062e+00
-5.349648858363041486e-03,-9.702690542220856473e-01,9.547217008325735721e-01,-3.084141933315472962e-03,-2.013967518955991215e-02,-2.217624926519738172e-03,1.667470574378967285e+00
-4.618519327328601126e-02,-9.388310372501720291e-01,9.447317041457669040e-01,6.213583023069697148e-03,-8.308490360517622672e-03,-7.516443498555402947e-03,1.632103919982910156e+00
-3.672358234239496422e-02,-8.147218904589630384e-01,9.460783906906841123e-01,-9.422336893355069687e-02,-3.565528378558605743e-02,5.002287242808685364e-02,1.540699243545532227e+00
-3.118770539402219294e-02,-9.717590442832642061e-01,9.361830956473568000e-01,4.561151901176940630e-03,-1.094338283845444279e-02,-2.261714271315651975e-03,1.652512907981872559e+00
-7.147610301559460810e-02,-8.416002683061999390e-01,9.323246274260543753e-01,-2.405462126644578313e-01,2.727728662157973272e-01,-1.180389934617440129e-02,1.664625763893127441e+00
-8.035170661886846533e-02,-9.409308864378299608e-01,9.576667323174917756e-01,6.579756965354556508e-02,2.750672559931200550e-02,-1.000554842282936618e-01,1.660321354866027832e+00
-3.834965469693344536e-02,-9.772768147294483843e-01,9.455037040830380768e-01,3.885255997911492808e-04,-6.844077151168693508e-03,-5.714001576721548792e-03,1.665400028228759766e+00
7.335360810664340314e-02,-9.475582604224710437e-01,6.003969128472153027e-01,-2.761702156839503618e-03,-2.498171889295721683e-03,6.936705755317748578e-02,1.368421554565429688e+00
-7.914192162889928384e-02,-7.800686555985850701e-01,9.504660885637661316e-01,1.220649315762609155e-01,-1.303103515683956722e-02,-9.792239531473394265e-02,1.532007217407226562e+00
-1.371849306712963623e-01,-7.340343745225307304e-01,9.192792603129620321e-01,2.179963791804937281e-02,7.839129590239855491e-04,-2.630606910973928847e-02,1.451344013214111328e+00
-2.949565474948333266e-02,-9.905522351843207840e-01,9.288617595633953394e-01,-1.073292370237256300e-02,-8.664575365444003932e-03,-6.782175868302011551e-03,1.662474989891052246e+00
-3.329253587984339069e-02,-9.903241744489764686e-01,9.611802059477524418e-01,9.884858565355881740e-03,1.958754379436337262e-02,6.769953167904727009e-03,1.690623879432678223e+00
4.009159258784021976e-03,-8.943518256726189497e-01,9.335653173005512562e-01,6.779798895046235119e-02,-4.964473736583859291e-04,5.996266865239777491e-03,1.587483048439025879e+00
-2.736582895443060923e-02,-1.220243970769298025e+00,1.185778289361735016e+00,2.655012381143060929e-01,4.169017051652992301e-01,-9.572757428677376029e-03,2.252771377563476562e+00
1.282057009550204019e-02,-1.640603383059292097e+00,1.397141795236713557e+00,1.324454136235073964e-01,3.945471838504275297e-01,5.913872818390706471e-02,2.732973814010620117e+00
-2.067481239785146779e-02,-9.506046419614040399e-01,7.814263527574719648e-01,-1.244608234576580034e-02,1.897452418410891517e-02,1.131810402990884867e-02,1.501986265182495117e+00
2.905149600883101882e-02,-9.608318558669224352e-01,9.363445281740944148e-01,4.172633242181519007e-03,8.024095272475079360e-04,-1.767551046999289678e-03,1.643541097640991211e+00
-9.968840995651556680e-02,-7.677743705750589287e-01,1.003615555502100465e+00,-3.655598994266344715e-01,2.161332013929095908e-01,-2.236397825431589437e-02,1.715594291687011719e+00
-4.218481609164592694e-02,-9.865663226057784785e-01,9.426658356451781406e-01,7.946621619733565747e-03,-1.965709834508926317e-03,-5.951995785531149531e-03,1.670978546142578125e+00
-6.780209063967085337e-02,-9.949502333252161490e-01,9.775987115662655436e-01,-4.161576774468275265e-03,2.219869619828115578e-02,-1.068423355141184458e-02,1.709848165512084961e+00
-3.008174834653204455e-02,-9.699961821573728216e-01,9.409280204088787958e-01,1.279096986092245931e-02,-1.645006085723251660e-02,-6.277156578432726078e-03,1.655411124229431152e+00
-2.463948740881413690e-02,-9.960556482755555940e-01,9.667973878111266739e-01,-2.679251867834205655e-03,1.211798228547499544e-02,8.527912816220641437e-05,1.700045943260192871e+00
4.065589233910614497e-03,-9.164744212043485216e-01,9.405878189391092548e-01,4.364520791634271535e-02,7.660940048024731525e-03,-7.282528865541752121e-04,1.610113739967346191e+00
-1.502562525315841516e-02,-1.000195634079770191e+00,1.015844778907655011e+00,6.106056879761251333e-02,4.505686744930832797e-04,1.815163449173896187e-02,1.749574422836303711e+00
-2.360877088232446810e-02,-1.000002948632295441e+00,9.650919850514739773e-01,-2.957644450242642373e-03,1.314714031960318927e-02,3.425030921661693928e-03,1.702003598213195801e+00
3.852493772648676873e-02,-9.780510356021963059e-01,9.476463107053522128e-01,1.119958324425478734e-02,-1.941857441092247972e-03,-1.956058829491104378e-03,1.668687582015991211e+00
-1.375951185910360142e-01,-5.326996116646041113e-01,8.631208605892464192e-01,5.639346930352356208e-02,-1.197321955131014012e-02,6.369499058671549210e-03,1.250207901000976562e+00
-4.731360008345256336e-03,-9.410410350399756041e-01,9.414664327614131745e-01,3.228629293151354974e-03,9.980856543987190119e-03,-2.703825553855278025e-03,1.630414724349975586e+00
-1.744637364386197181e-02,-9.898328466358911060e-01,9.604725622938556917e-01,3.258516420047542685e-03,9.411693547895888870e-03,-5.913443606205574452e-04,1.689104676246643066e+00
1.639011149154984831e-02,-9.485555867224394477e-01,9.373812066596559633e-01,2.346246812136411689e-03,3.390060956161625432e-03,-4.188925867957689689e-03,1.633448719978332520e+00
3.092485673854384817e-02,-9.428636213486246698e-01,9.326300957764313004e-01,1.326900685528013650e-02,1.046180680929493026e-02,4.625410171219775275e-03,1.624908328056335449e+00
-1.817595394738152730e-03,-9.638605736775810451e-01,9.493995243168662501e-01,-6.594475281611445784e-03,7.077505589073011284e-03,-2.186399205493971560e-03,1.657029747962951660e+00
-3.298222330838890270e-02,-9.783273979602559178e-01,9.190880181113385561e-01,9.330673290524317542e-03,-6.551260235215408505e-03,1.088165090431141187e-02,1.643440127372741699e+00
-3.097678833993101205e-02,-9.744774467322280254e-01,9.436359677999508477e-01,-8.536000105650302277e-04,2.438978278550508680e-03,7.068453724676180541e-04,1.661214232444763184e+00
-7.051372311611613097e-02,-9.443540510730665805e-01,9.644600116617989549e-01,-2.126851586155682761e-02,1.114600750118537910e-02,-7.472918887076804642e-03,1.655616641044616699e+00
1.508299159434297321e-01,-1.055834747894164760e+00,3.635038892366979635e-01,-8.683398329629210544e-02,-2.802777778169984191e-01,5.103697145821946279e-02,1.422672748565673828e+00
9.682189958443136735e-02,-9.122684020167964869e-01,4.802115801385296590e-01,-1.852096434878584830e-02,-1.182116194180232727e-01,1.107145292092472609e-02,1.263109087944030762e+00
-1.685711421194348580e-01,-3.084261969015969496e-01,9.146970731387027431e-01,-4.306539143015736260e-02,2.058074817274653870e-02,-9.180924984114069778e-03,1.162590861320495605e+00
2.884398605203018773e-02,-9.490437439349761473e-01,6.878217491316932497e-01,4.254357294040725775e-05,-2.569109881055211750e-02,1.072946420591315564e-01,1.439249396324157715e+00
1.172887513373065127e-02,-9.115388774777908321e-01,6.788914564941879171e-01,1.118998553562854381e-01,-3.455041881400373605e-01,3.526097749581263985e-02,1.520826458930969238e+00
3.963639828860236747e-02,-1.093069562104444170e+00,8.130046854843213655e-01,-2.272772779281430344e-02,-3.727253027051695700e-01,-7.719599462140742940e-03,1.782027244567871094e+00
-4.784814884286985037e-02,-9.801717913416134742e-01,9.034143091005173432e-01,1.858465357021222425e-02,-2.995222601319531136e-02,2.145123287921032323e-02,1.632825851440429688e+00
-3.751950297670000184e-02,-9.749720509337175267e-01,9.902345806617015578e-01,-1.254355989917148584e-01,-1.235498078470842649e-02,-6.592952626843993913e-02,1.720251917839050293e+00
-8.211389253096329499e-02,-9.820266043066697703e-01,9.776657366492664814e-01,-1.317006485966234174e-03,-2.331283092964402462e-02,-7.458490768435255009e-04,1.699506521224975586e+00
-7.256420461893665907e-02,-9.954296632351197216e-01,9.788273649449321656e-01,-8.254114275124948760e-03,-1.599001709913722147e-02,-1.051967275824445235e-02,1.711344838142395020e+00
-7.754398255509808990e-02,-9.950132514774782111e-01,9.689683836013114338e-01,-1.221075744296210193e-02,-3.936219200900896095e-03,-5.202409899728950050e-03,1.702250242233276367e+00
-5.092992723569791935e-02,-9.980935330396306648e-01,9.371097280069506930e-01,4.973809474313668245e-03,-4.034717074735003073e-02,1.560477246441821335e-02,1.677755951881408691e+00
-2.375357129732486375e-02,-1.019909461184604460e+00,9.842637983335152940e-01,4.747070303380117838e-03,-9.155810692177985405e-03,-1.190598099425787225e-02,1.735889554023742676e+00
-1.180918614141929224e-02,-9.768052885834236365e-01,8.598601986159151167e-01,-1.249022095542541046e-02,-9.446469698267682263e-03,-3.219535678017722735e-04,1.591514587402343750e+00
-6.617200839414505431e-02,-1.014719850390584766e+00,1.001369569320079034e+00,-6.931045836606362573e-03,-2.818375559219338938e-03,-5.314442570516613937e-03,1.747070431709289551e+00
2.678726846842172105e-02,-1.389156932770579944e+00,9.746309368153039943e-01,5.411862786603602871e-01,-4.343791887004573304e-01,-6.985265079661441556e-03,2.385424375534057617e+00
-1.017374493505794897e-01,-8.520021057905822204e-01,1.121102345346449702e+00,3.326548801241855369e-01,-3.134042693583682926e-01,8.005646428803820519e-03,1.898031711578369141e+00
-5.545316019152943948e-02,-9.952909253812032286e-01,9.718888554395086476e-01,1.540816070203741492e-02,-5.802647181549185074e-02,-6.604741149299856243e-03,1.707397341728210449e+00
1.557845684197433633e-01,-1.028840652741787709e+00,3.314793324974306121e-01,6.693411436854596053e-02,-3.186703698580038990e-01,3.618459830489124257e-02,1.401555895805358887e+00
-3.282262831271133552e-02,-9.800847995784658373e-01,9.508388100028269951e-01,7.989518821013587551e-04,7.588963642910724443e-03,3.191547860710320164e-03,1.672389268875122070e+00
-3.405620936180550618e-02,-9.935026654519012457e-01,9.607429907627577093e-01,-3.713989605913156460e-03,6.727702102146819983e-03,1.317884073046156649e-03,1.692572593688964844e+00
-3.586591801558895731e-02,-9.937353076471943103e-01,9.614014759579972980e-01,-2.021584616159248504e-03,1.901083324535073971e-03,-2.075242405304178460e-06,1.693319559097290039e+00
-3.725207294808946523e-02,-9.890482942022135182e-01,9.475559871559678937e-01,-7.529275310172563185e-03,-2.122868792467023837e-03,3.611883507811333542e-03,1.677296161651611328e+00
-3.868700318818114881e-02,-9.786848252002492421e-01,9.215783400129647918e-01,-7.594138632389581950e-03,-1.025274888940904197e-02,-4.067693931309354985e-03,1.645870804786682129e+00
-1.630882793652468563e-02,-9.920913072051458226e-01,9.549001073915939219e-01,7.520264351946838455e-03,-3.886033434407383004e-03,-6.830253103093551596e-03,1.686250805854797363e+00
9.434030622416546275e-02,-9.170850741485382374e-01,5.323759825559329917e-01,-6.997462161724640924e-03,1.610567050829276800e-02,-4.820896349569071815e-02,1.290656566619873047e+00
-3.070825264953743958e-02,-9.948973595034403816e-01,9.663224088421623614e-01,-2.707860361659135233e-03,2.920141132736866406e-05,-1.452977005326516237e-04,1.698552012443542480e+00
1.138281524745910975e-02,-9.474939404483954108e-01,9.384662941139400028e-01,1.114080843431953897e-02,-1.048257796184507915e-02,2.212319238362325455e-03,1.633586168289184570e+00
-3.054064572127323379e-06,-9.567108011802878398e-01,9.467016936510959102e-01,2.144084277231917204e-03,1.538119730729384932e-02,5.357065018917734830e-03,1.648656725883483887e+00
-9.826158614269564495e-02,-6.441540189501878677e-01,8.682579697915050465e-01,1.408809154915833389e-02,1.104669043743333051e-02,-5.638068629244440827e-03,1.326963186264038086e+00
-2.128119867215779171e-01,-5.856483827054682623e-01,1.108256864789434859e+00,4.498697767343050602e-01,-4.283822746551417537e-02,-1.802893700252617554e-02,1.729277729988098145e+00
-5.390655119552133223e-02,-7.035449539991124324e-01,8.780255068811922969e-01,8.158767509746291113e-02,-6.447260526789300996e-04,-1.508589087559630317e-02,1.384413242340087891e+00
-1.291207665779852964e-01,-6.841505512646741671e-01,8.982307685206426529e-01,5.411150431524654539e-03,1.942009083905248470e-02,4.177809470856413271e-02,1.392901778221130371e+00
1.080458059102542764e-02,-9.121550703393093151e-01,9.242304741727968009e-01,5.205074748808136663e-03,-2.782221321832963577e-03,5.244558695250699535e-04,1.590396761894226074e+00
-8.859893637747193185e-02,-6.135086422144521157e-01,9.619872975924820269e-01,1.424766598842882870e-01,2.141404012391386275e-04,9.511942611889707966e-02,1.420833110809326172e+00
2.878777274250796103e-02,-1.201239172602898586e+00,8.121422260608262000e-01,2.461593645915937656e-01,1.667491287576219894e-01,-2.838312422955449055e-01,1.896585702896118164e+00
9.701767545416434269e-02,-9.319925384020492087e-01,5.756749337475248751e-01,1.119505723899840745e-02,4.454302003480177345e-03,-3.264304597669442920e-02,1.335720896720886230e+00
-4.125223554610474297e-02,-9.572495052906837554e-01,8.432424915948530941e-01,-5.958905652205979779e-03,1.774523665984971063e-02,-2.154241740008957205e-03,1.559692859649658203e+00
4.750786390730474262e-02,-9.346168934323784150e-01,6.585671771663041962e-01,7.315164992251553359e-03,5.719189695592784284e-02,-7.315512854077911575e-02,1.401473283767700195e+00
-1.075753608840768205e-02,-9.483466927578361183e-01,7.651909314354160552e-01,-7.198841195312107727e-03,9.845016586814878123e-02,1.638725651656838811e-02,1.496238231658935547e+00
-6.804587945715301345e-02,-1.534853731849531222e+00,1.367219582690851976e+00,4.511181706693055959e-01,-2.478074384342204006e-01,3.515581034268211360e-03,2.666750192642211914e+00
-3.278887325360149707e-03,-9.346063125909673808e-01,7.114981245724584236e-01,-1.447582689503498950e-02,-7.005699882480616314e-02,-1.334896359550169845e-02,1.435219645500183105e+00
-1.883031619195507655e-03,-9.311595885665767680e-01,7.019376541002899650e-01,-4.052032348639608185e-03,-7.334272614857190176e-02,3.679485994381683899e-03,1.424496412277221680e+00
-7.905504683147350498e-02,-9.807756561097930037e-01,9.137874810058210784e-01,-1.022079112978574328e-05,-9.640369189065044198e-02,1.099917144948783267e-02,1.649953603744506836e+00
-1.693647064290415907e-02,-1.037841391832179827e+00,1.035927894940548821e+00,3.473023767613597768e-02,-2.143859703095750413e-02,-9.005633826364711769e-03,1.797466397285461426e+00
-6.210102224642031349e-02,-9.591766420161862428e-01,8.797910967476818556e-01,-6.032984457756263366e-03,-2.701737557282229540e-03,7.033566744000701101e-04,1.592792034149169922e+00
-4.025508297261493063e-02,-9.744515385338565761e-01,9.644539284138710089e-01,-2.422573463943750519e-03,2.139493214036138763e-02,-3.740951392122757180e-03,1.679937958717346191e+00
-5.419661945276151027e-02,-1.209302901522663287e+00,1.095652214381057199e+00,-8.680220865476209356e-04,-1.134127380141131958e-01,3.636284078274710542e-03,2.005804061889648438e+00
8.315587675927814393e-02,-1.004462215114659385e+00,5.856386978695347079e-01,-1.360126150741502961e-03,-5.464021311494432487e-02,2.532210841625297942e-02,1.411664724349975586e+00
-4.714653090849676986e-02,-1.000585334333427667e+00,9.973250516801727139e-01,7.460315163978572389e-03,1.860540488097924688e-02,7.106144224689791081e-03,1.731231689453125000e+00
-6.397639556881500045e-02,-1.202853945756095833e+00,1.112139887733459176e+00,2.592158647786073078e-01,2.240829358782422398e-01,7.103299408506315998e-03,2.090960025787353516e+00
-5.682117942077048733e-02,-1.201268377456272463e+00,1.294767724690825128e+00,1.593580782362799542e-01,1.578585140327969094e-02,2.951160601483115292e-02,2.182411432266235352e+00
-6.583199453598258255e-02,-9.931359867492854931e-01,9.679712616985904905e-01,-7.359029064328058076e-03,2.403637081380139914e-02,9.563160473430516381e-03,1.699841737747192383e+00
1.022591914503044597e-02,-9.997895131327683149e-01,9.798826805959098829e-01,1.667618370713053189e-02,-1.410752018004238217e-02,-1.043300829182190401e-02,1.715077757835388184e+00
-4.837431813339636288e-02,-2.428348958826255455e+00,2.348287549292637166e+00,-1.681490497655991068e-01,1.806511110651782270e-01,2.063369136403500614e-02,4.158877849578857422e+00
4.399849357738051803e-03,-1.166406565276289831e+00,1.065187962616719552e+00,-6.940037914069766001e-02,-3.200050485570665043e-02,-3.924445965939377112e-02,1.939117908477783203e+00
-9.195119930631552585e-03,-8.025171918218874101e-01,9.596947753287260463e-01,1.446703899064315513e-01,1.871589187125147560e-02,2.960042665159087760e-02,1.550231337547302246e+00
-1.351733612024693942e-01,-6.594290045712956072e-01,8.875770362381739664e-01,-1.427853234803453351e-03,1.461052056986550385e-02,-6.964599898892029350e-02,1.368299365043640137e+00
-1.445876805854912420e-02,-9.707114894045351106e-01,9.734678502018137003e-01,2.792577667284212167e-02,7.029120898909602816e-03,1.309502781979278788e-03,1.684523344039916992e+00
-1.331873318607419698e-02,-9.094551341151378976e-01,9.338036730567079724e-01,2.985698445517528943e-02,2.946419248872824553e-02,1.750917489874170146e-02,1.598452568054199219e+00
-2.085048048944635746e-01,-6.137497156510181018e-01,1.005478326462365235e+00,2.034550967890321749e-01,-2.827929685509431718e-02,1.259963276025024559e-01,1.517941117286682129e+00
-8.678291760029385737e-02,-8.359761672947723099e-01,1.093276556251303822e+00,2.040587614328812638e-01,1.370744072877379607e-02,3.999476422750956883e-02,1.722848176956176758e+00
-3.645496311860298155e-02,-8.771739844082721005e-01,9.285205676464810542e-01,3.168503635587452492e-03,2.618196533091328784e-02,1.804365773621874336e-02,1.565989375114440918e+00
-1.828573976664550349e-01,-1.944529729870777546e-01,9.572197709035674684e-01,-1.063548214873001781e-02,1.282442499656575308e-01,-4.035814839418495892e-02,1.169485211372375488e+00
-1.705514694370257114e-02,-1.089578846521133126e+00,1.019215267473596587e+00,8.803739409423542994e-02,-7.704448472751107557e-02,2.418759666442379247e-02,1.838043093681335449e+00
-4.809722033862860735e-02,-8.263161342376087459e-01,9.142617103017719460e-01,3.264323035964215858e-02,2.377476988167796096e-02,4.776270818148107417e-03,1.511835336685180664e+00
-1.953236608422689868e-01,-2.439252984721819728e-01,9.676099059367948563e-01,1.305457815446748882e-01,1.085713719524191226e-02,-1.333189778312675877e-01,1.231299757957458496e+00
2.269130610212047316e-02,-9.778684982197759501e-01,9.532553186950392110e-01,8.774259188589322508e-03,9.886470750384105180e-03,4.561318530883676616e-04,1.672925353050231934e+00
6.413979934288647523e-03,-9.919517680249829716e-01,9.681672619884225117e-01,-1.574477999599117883e-02,8.700487257318612402e-03,1.895262676018334182e-03,1.697900652885437012e+00
8.040445209996022538e-03,-8.681449385882531455e-01,9.101080976829970526e-01,-4.432682891071107467e-02,-5.604778925057937733e-03,2.027850581242867734e-04,1.542009830474853516e+00
-2.586478156478421164e-01,-1.390987489363806562e+00,1.774272471656219041e+00,-5.738121864865959321e-01,1.056377537543903011e-01,1.157760684901359971e-01,2.962834119796752930e+00
7.428392002922976772e-03,-8.395564725872299849e-01,9.018444977617743330e-01,-3.513002730893780012e-02,8.417854521380522745e-03,-5.596224494329636590e-03,1.509612321853637695e+00
-5.943178452322692151e-02,-9.653816714268861343e-01,8.956342952989095885e-01,-6.566140391345860923e-03,4.295350680656110764e-04,3.983836878843743587e-03,1.611929297447204590e+00
-6.729471916954803123e-02,-9.817399599835411328e-01,9.505950997223421295e-01,-2.020872983622726618e-03,7.481129544834471366e-03,-6.051101895680427098e-03,1.674336910247802734e+00
-3.965053509204306131e-02,-9.618157296007795454e-01,8.680555803745118038e-01,5.135992190596597347e-03,3.082759749473537245e-02,-6.720822792650087488e-03,1.585698485374450684e+00
-1.908814060282723601e-01,-3.458889987879057992e-01,8.484187274381124189e-01,-6.577489368017422344e-02,5.310895642087691548e-03,2.696183469037538236e-02,1.131598830223083496e+00
8.062471318631099504e-02,-1.116417343079547653e+00,7.389644746986024915e-01,-1.775376750907912693e-01,3.926733617274330568e-01,4.904059020082971593e-02,1.794082522392272949e+00
-1.421817594213109770e-01,-7.522740783325215785e-01,9.299107624992711818e-01,4.380630623395182638e-03,9.023744500621839332e-03,-1.702166871416518901e-02,1.475412368774414062e+00
1.609252543593185647e-02,-1.190616571598725359e+00,9.331506348260771855e-01,-6.327021297132457908e-03,1.590436446644196422e-01,-5.878374501288700926e-02,1.868190646171569824e+00
-4.380163895315337952e-02,-8.116059047837473894e-01,9.193182628649785304e-01,9.836664958343281639e-02,-1.077582291602071154e-02,-1.369340196055750768e-03,1.511950016021728516e+00
1.956963390875319370e-02,-9.117108685367725229e-01,9.249546479646686414e-01,6.140304201991387233e-04,4.386066249188970770e-03,2.747141628713613217e-05,1.590670228004455566e+00
-2.340476906394180559e-02,-8.337847801271882631e-01,9.121683713434644014e-01,4.235823487234429557e-03,2.512240752241624853e-02,8.710318780714562323e-03,1.514053344726562500e+00
2.715425760116895945e-02,-9.761282063061453851e-01,9.654336096921173338e-01,8.217099541778722857e-03,-8.558753745335805768e-03,7.506769703339686997e-04,1.681882023811340332e+00
-1.463298816990511557e-02,-9.995350995754963552e-01,9.941838440258213838e-01,4.371687306841030851e-02,1.583264406464831089e-02,-9.415712399586335934e-03,1.728606581687927246e+00
1.646039166205286522e-02,-9.855508817730301852e-01,9.719602879709586807e-01,2.415903996197978770e-03,1.417845175788789817e-02,-4.536662832855936460e-03,1.695615172386169434e+00
-6.136884472220408698e-02,-7.027652184214060460e-01,8.812696032069246010e-01,1.689439506042683392e-01,-9.070220972499454595e-03,5.474421018132112626e-02,1.414010286331176758e+00
-1.215614000575682696e-01,-5.410616650058833743e-01,8.498791493196578006e-01,-2.975297975180656723e-02,1.836664502792340753e-02,-3.588250655103490672e-02,1.238841056823730469e+00
3.715459311694234434e-02,-9.907340913457179932e-01,9.704630409464120033e-01,3.876324705357889200e-02,9.837796250316313247e-05,2.572960156646046832e-03,1.700436592102050781e+00
-5.930306564721486706e-02,-8.887670301337143863e-01,9.269324114362463840e-01,1.647034095451144729e-03,-1.464425055081221977e-02,-1.619410818004534541e-02,1.574851036071777344e+00
-1.646524736206165240e-01,-4.280037984906855941e-01,8.778030000788673570e-01,1.119499295909615610e-01,-2.449674045791605526e-02,-1.238360454830557678e-01,1.231261134147644043e+00
-4.335780893314260948e-02,-9.539139998181103142e-01,9.428680046424731120e-01,6.552915034674139383e-02,-5.747716142324596489e-02,4.449219401261297890e-02,1.651817083358764648e+00
-1.062386276335878510e-01,-6.267650481623258107e-01,8.725671482541053070e-01,8.973335019139230817e-03,-2.056005603797108477e-02,-2.174463081022323663e-02,1.319632887840270996e+00
-1.062256565520743185e-01,-7.028588164712591402e-01,8.815815643507328714e-01,-4.764953551070820470e-02,8.816600510501801380e-03,-6.126724088902769927e-02,1.392622828483581543e+00
-5.024822931654308183e-02,-8.830240415489647443e-01,9.397713240873870610e-01,1.773659705498661920e-02,-1.833586635040232796e-02,1.226100130476879581e-02,1.581303834915161133e+00
-2.633360103126207441e-02,-9.673489668454388068e-01,8.807812344071667132e-01,-1.663982175881458664e-02,-1.030759511151068016e-02,-8.323271042140104048e-03,1.601041316986083984e+00
-1.914955656857941085e-02,-9.546032657228510354e-01,8.034897466575628977e-01,1.698630878933695201e-02,-6.646999043733696141e-03,1.581387065894782756e-02,1.524171352386474609e+00
-8.756303789897937340e-02,-9.873317265881607074e-01,9.567326226007093481e-01,6.945240151871038409e-03,-2.248258377443060341e-02,1.234998145395862362e-02,1.685787796974182129e+00
-7.801645184956670920e-03,-9.529735383138360216e-01,7.858441107529586800e-01,-7.448064433113909220e-03,-3.516762715507260745e-02,7.576914671947812194e-03,1.509106993675231934e+00
-1.502383463918954831e-03,-9.302916179552778164e-01,6.927219329786998836e-01,-1.353141563209412463e-03,-6.869192242965893591e-02,-3.921482657962403751e-03,1.415482997894287109e+00
-3.317166727183812336e-02,-9.943839685616715496e-01,9.665836450796698731e-01,4.116897136766485728e-03,8.265537764261360570e-05,8.468763937936247578e-04,1.698372721672058105e+00
-1.931694345506753951e-01,-2.089420209930347994e-01,1.016078512672536682e+00,1.339371150171206615e-01,4.574929760466733136e-02,-5.741867316889935624e-02,1.245628118515014648e+00
-5.666841815791850284e-02,-1.040598688125087712e+00,1.050859747155789670e+00,-1.028267782205687184e-03,-4.849982370053419409e-03,5.154364170858213683e-04,1.812330722808837891e+00
1.919305726894988962e-02,-9.453340983756598481e-01,9.348897471031161199e-01,8.707348376092429940e-03,5.488320966458162288e-03,3.129766962500572271e-03,1.628611207008361816e+00
1.672682646236508044e-02,-9.742598851961343787e-01,9.580848285115801666e-01,4.225116623137886891e-03,6.249352594563299321e-03,8.900622085277077461e-03,1.673765540122985840e+00
5.506315307546194582e-03,-8.327432007000346026e-01,9.147801161397348668e-01,1.140189786313381831e-01,-1.403731751073190480e-03,-1.395653925631265384e-03,1.526647329330444336e+00
8.372767744884870508e-03,-9.613137823253896652e-01,9.434935662479064788e-01,4.806198247798808623e-03,1.379139543927964014e-03,1.342125296384107363e-03,1.649726510047912598e+00
-6.242629204341743759e-02,-1.016740746513642213e+00,9.951465153604682756e-01,-3.440843644261416638e-03,4.810296101747840031e-02,-4.704867362688404863e-04,1.745110630989074707e+00
-5.991776739369851501e-02,-1.117535585827245992e+00,1.159031278366757345e+00,4.113249140072126886e-02,-1.919700215343338873e-02,-1.469911677078370067e-02,1.974943995475769043e+00
3.619587349485677702e-02,-9.918731178037932805e-01,9.522230216701340622e-01,4.193972426805462478e-02,-5.164102240538148703e-03,-1.483501546179363210e-04,1.686157584190368652e+00
-3.592448175684147260e-02,-9.925056255395631188e-01,9.571129730529809310e-01,-4.108196033436017566e-03,-2.935174497988220568e-03,2.861560878605788789e-03,1.688547492027282715e+00
-3.492159349068228030e-02,-1.217834638080225629e+00,1.180837455484714305e+00,1.203916145907332341e-01,1.189017082513097040e-01,6.678376938234276486e-03,2.097979784011840820e+00
-1.041906391916311292e-01,-7.995120117191655273e-01,9.237514236390987898e-01,-7.924486558755624785e-03,1.710466519960765746e-03,-1.284256670377027093e-02,1.501858472824096680e+00
-4.618282619892630225e-02,-9.528519288404192489e-01,8.195419819878184686e-01,-5.394036689029873578e-03,-3.872283327585299834e-02,4.913338928284375316e-04,1.536567807197570801e+00
-6.359942871083090754e-02,-9.058503976188956308e-01,9.098396252684055607e-01,-1.494079308166305214e-02,3.538908241018469403e-03,2.290559361063522481e-02,1.574525833129882812e+00
-1.246921663196197821e-01,-5.563998117169430824e-01,8.599062731627701295e-01,5.618315035459308521e-02,2.113810008714194985e-02,3.214978019533348136e-02,1.262844085693359375e+00
-1.280909815073784930e-01,-5.789545417865336052e-01,8.677944136459917468e-01,8.212832825731110342e-02,2.464571239545971029e-02,-1.294481101135340831e-02,1.290981888771057129e+00
-4.504639873865641519e-02,-9.368205142631693683e-01,9.097587653508697469e-01,1.881249273452765408e-03,-5.609064141655443862e-03,-1.468983332446473916e-02,1.599730253219604492e+00
-2.038712121730715601e-02,-9.913941702196986672e-01,9.601459947796328054e-01,-2.885326238003479461e-03,8.734643624221162875e-03,2.654233947043412208e-03,1.690171480178833008e+00
-2.331430077956299016e-02,-9.840965699863786220e-01,9.633997504651995447e-01,-9.270071325974739993e-04,3.808528920248610214e-03,-5.886954595977090393e-04,1.686645150184631348e+00
-3.073504055043350947e-02,-9.921608200403005950e-01,9.601488628683595428e-01,3.735279445480342922e-03,3.106123062413560995e-03,1.845104747428402995e-03,1.690837860107421875e+00
-3.622354276190085931e-02,-9.893021393899795735e-01,9.607398542640558370e-01,1.641313511808546646e-03,2.463283695298488628e-03,2.076606353184271263e-03,1.688940048217773438e+00
-3.629616777925263188e-02,-9.771751746772383562e-01,9.394851452266148595e-01,4.761707581721503005e-03,3.539057780026894171e-03,7.311384266242421971e-03,1.660048365592956543e+00
-3.449692822426349281e-02,-9.902679615117829792e-01,9.492547435657642252e-01,5.769660881382861900e-03,-5.507883611414514380e-03,-3.768014126023785677e-03,1.679803729057312012e+00
-5.333107271046472198e-02,-7.852796558504842039e-01,9.201091185152150409e-01,-8.091631905895255161e-02,2.560252523029815305e-02,-3.635050426894355369e-02,1.490441441535949707e+00
-5.362185093203134661e-02,-8.284938812223243687e-01,9.237035330572598291e-01,-3.997690908018830536e-02,1.991243260618283384e-02,-4.679672918935192522e-02,1.524941802024841309e+00
-4.080990532479407407e-02,-9.793718080269033788e-01,9.285185965344660008e-01,3.855421130461789744e-03,-1.013576012968600212e-02,2.755315723250972935e-03,1.652466773986816406e+00
-3.586534323768340859e-02,-7.867065384833712427e-01,9.017524134262431268e-01,1.699166984324108204e-02,-5.983538174677591887e-03,-6.303021275529275408e-03,1.465600371360778809e+00
-3.074666912497761237e-02,-9.709654820040294343e-01,8.811416951956693167e-01,-8.679253224947960921e-03,1.081908656194916461e-02,7.894547960111580540e-03,1.604272603988647461e+00
-3.057166991662513614e-02,-9.760287459053242909e-01,9.233508027288370723e-01,3.270525776110472238e-02,2.207769501440451365e-02,-2.693951797847654248e-02,1.646996736526489258e+00
-6.873927685673859866e-02,-1.011577237910003868e+00,9.922347939611064760e-01,-1.146547453312873497e-03,4.144897162998075618e-02,1.207452625410701877e-02,1.737967610359191895e+00
-1.329422825060051494e-01,-4.536490988476323261e-01,8.425395237836093010e-01,1.246628591132596109e-01,1.240838870690879605e-03,-4.457042790280467404e-02,1.191573739051818848e+00
-1.843834608886385507e-01,-5.368923858197701682e-01,9.337954347974143365e-01,3.530456966954654274e-01,1.715750050853828979e-01,-1.118591066467000683e-02,1.493776321411132812e+00
-1.132234097447146898e-01,-7.187241873840479744e-01,8.909105387435942713e-01,5.238546718350040737e-02,-3.042073866592154979e-02,-7.946401196635735978e-03,1.412132620811462402e+00
-3.758295301110461950e-02,-9.924276067119396361e-01,9.549590979886503073e-01,8.503193824835183427e-05,-2.204074653113348870e-03,4.091043565667222201e-03,1.686610937118530273e+00
-3.956078196694047533e-02,-9.960277971145918841e-01,9.670243630947781277e-01,8.484956525324015666e-05,-2.204195512556771271e-03,-1.216647963353347352e-03,1.700243353843688965e+00
-3.612050559988996129e-02,-9.933969375906510635e-01,9.614376024635060691e-01,5.064831794643089719e-03,4.616697706031300599e-03,7.450040668654519345e-05,1.693097829818725586e+00
-2.798973141824087282e-02,-9.925726143558184500e-01,9.650079824043229504e-01,3.158206701441940330e-03,-1.464146226430007493e-03,7.035847840075568375e-04,1.695385217666625977e+00
-4.359685493511739063e-02,-9.843292574555339014e-01,9.708403222044920122e-01,7.482207326215566112e-03,1.946444062296363506e-02,-7.516015956091211432e-03,1.694062590599060059e+00
-2.290180282070441650e-02,-9.890709051709872801e-01,9.620535096372827555e-01,-1.103154068794800005e-03,-6.245669158148150525e-04,-6.635470083767586592e-05,1.689750790596008301e+00
-1.191715290680071815e-02,-9.692232292899849444e-01,9.590724711789146983e-01,-1.898227691845071063e-02,2.895210228995141050e-02,-1.361804723527236180e-02,1.671209812164306641e+00
-5.219882921853145896e-02,-9.872007318513346119e-01,9.527193099364883455e-01,8.365698958433963675e-03,-5.039776506003177010e-03,4.647742163335947044e-03,1.680488109588623047e+00
-6.872339533826529734e-02,-9.279412265436207674e-01,9.599923254914662918e-01,-7.314354466338763086e-03,-8.675843669255957000e-03,-4.787076437604642978e-03,1.637332320213317871e+00
1.245492630789178379e-01,-1.025356128755539054e+00,4.356072719722772213e-01,-1.960811577761370772e-01,3.157857337831307398e-01,2.544629956505383706e-01,1.544502019882202148e+00
-2.419328466724791557e-02,-1.070067328554344277e+00,9.805611990747318263e-01,-1.233379503320171378e-01,1.770931879892621019e-01,-3.679237624143361779e-02,1.816043615341186523e+00
2.679580158603183104e-01,-1.612866245001739696e+00,6.626499161802439364e-01,2.817385297810325873e-01,4.461151356313270977e-01,1.350668698926119349e-01,2.307713747024536133e+00
-1.803915917296755253e-02,-9.921169432333404314e-01,8.872160624297035225e-01,1.265229517764933885e-02,1.712547555404447808e-02,-1.373955605447235891e-02,1.628505468368530273e+00
-9.178952059848179135e-02,-6.039263316961942518e-01,8.882817674285881093e-01,-1.801308662694702245e-01,1.399732038962812897e-01,6.764654976228755973e-03,1.371499419212341309e+00
3.724803252074894433e-03,-9.970204775872228975e-01,8.180810552614026232e-01,5.835365712229073805e-03,4.063858286630887481e-03,-5.033039782903341031e-02,1.577143430709838867e+00
2.846140429214439466e-02,-9.565408448102706851e-01,9.366199374938108946e-01,-2.042887971464593081e-04,6.529518960518787551e-03,-2.647851444456635235e-03,1.640020966529846191e+00
6.267582835120858592e-03,-9.861306028821311687e-01,9.558975817405319653e-01,-4.286333073875415144e-03,1.031261499761164033e-02,2.335774071330473580e-04,1.682092905044555664e+00
2.167175478697087182e-02,-9.772376078190649906e-01,9.456379270571831919e-01,-5.637498754748952907e-03,5.191654640577281514e-04,3.078390965572871084e-03,1.665717959403991699e+00
7.140293015281714076e-03,-9.721253627437443923e-01,9.498771152092039260e-01,-1.006396447840953888e-03,9.179629621074159029e-03,-3.011467247768072428e-03,1.664688229560852051e+00
-2.276239641322997526e-02,-9.964232066815411626e-01,9.507931922850721973e-01,-2.787468903885230746e-04,4.939772811350182612e-03,-4.062735389849630487e-03,1.686375379562377930e+00
1.767562440895323328e-02,-9.729882169750456722e-01,9.475106769750004654e-01,4.818287012554338302e-04,-2.238572793148454337e-03,1.349824245271396411e-03,1.663485288619995117e+00
-5.673744559497401196e-03,-8.719594478944698857e-01,9.182170053102791663e-01,-2.324568692872821737e-02,1.711709000898227126e-02,6.078380994182489352e-03,1.551447510719299316e+00
3.158654646987552050e-02,-9.584644843285523574e-01,7.749636942335722534e-01,1.909615125701019612e-03,7.527574603219908686e-04,1.540411689685520190e-02,1.506491422653198242e+00
-1.294334639892182337e-01,-5.922836927856293121e-01,1.013823374984708536e+00,2.319998568249715953e-01,-1.876131762510318823e-01,-6.645494078750824318e-02,1.526676058769226074e+00
-4.068880216334574279e-02,-5.629530788690253473e-01,5.099631063742955384e-01,2.405435790296796550e-01,-2.205442553240241077e-01,8.708750565281703215e-02,1.098097920417785645e+00
6.533569465779164032e-02,-9.247251781651963931e-01,5.778563707779458269e-01,-3.301020553587522824e-04,-1.059384790612392935e-02,-6.191558362781329934e-03,1.323169231414794922e+00
3.828041042811264338e-02,-9.360742677726300309e-01,7.129770153760974782e-01,1.151070019647792639e-02,9.546647581730217935e-04,3.898285761702569019e-02,1.437684059143066406e+00
-2.717826301997752769e-02,-9.314690644018855936e-01,1.076035898698705306e+00,2.850564685855799807e-01,1.229791071823960365e-02,2.974153868658295854e-02,1.810891747474670410e+00
1.116396840610310026e-01,-8.746983952621538716e-01,3.781762849392245607e-01,9.877246419184894377e-02,2.643911360136403932e-01,1.079056583250268854e-02,1.243432760238647461e+00
2.813674141833296116e-01,-1.384258117713693226e+00,3.290091026139026487e-01,2.576052201014046306e-01,7.792115719029132914e-02,-4.673706150162602879e-02,1.754930496215820312e+00
7.376063648308670007e-02,-9.429415567460746050e-01,6.108279099791248390e-01,-1.868062923367073969e-02,-4.861069871537837539e-03,4.218508013011488741e-03,1.367235660552978516e+00
2.653536211132287992e-01,-1.008298156519909838e+00,6.936753295684877640e-02,2.173562299034184706e-04,1.112174221520285111e-01,1.249995762474615246e-01,1.222687244415283203e+00
-2.060420065474121154e-01,-1.057015226876981684e-01,9.024813307356311931e-01,-1.610859213948754864e-01,3.584039326348305299e-02,-1.119434404535989969e-01,1.116671919822692871e+00
-8.239119018652338311e-02,-9.872544215150711455e-01,9.606495107095556207e-01,-6.173954027039338377e-03,-4.711605130912786127e-02,-1.563816602566519415e-02,1.690570473670959473e+00
4.296669846254558278e-02,-9.737531242317589708e-01,7.237729164743121890e-01,6.649670919693323121e-03,1.457080310171607448e-04,3.221400903869879595e-02,1.480760455131530762e+00
4.312394676672744176e-02,-9.387669567946685945e-01,6.857385842363619144e-01,8.610811204387319034e-03,-5.917083780720519548e-03,-5.247691074177265533e-03,1.417198300361633301e+00
1.311255986245292993e-01,-9.037295304626383752e-01,3.210093809602843073e-01,1.520557904979465136e-01,-2.852791665024294598e-01,1.630494735014122454e-01,1.302595138549804688e+00
2.493533978449132826e-01,-1.858841118009864735e+00,9.954105957140786387e-01,2.475240150672367578e-01,-5.381720945771998332e-01,-6.554737139619318427e-03,2.761655330657958984e+00
4.659071557916835693e-02,-1.099590342495393891e+00,7.385098178997500096e-01,1.299148701822610275e-01,-3.722630524421172149e-01,5.071816560405902063e-02,1.749181985855102539e+00
-6.903409485401624385e-03,-9.897017749262568831e-01,8.969662778736140485e-01,1.070691087151400683e-02,-4.587927914339259838e-02,-1.783518718630364847e-02,1.636706352233886719e+00
-1.855542783588183531e-02,-9.433367318300451831e-01,7.705148726085080391e-01,7.477917008997074511e-03,-7.669234808187631001e-03,1.506427275701281883e-02,1.486134171485900879e+00
8.517016170342449344e-02,-9.329502890189254050e-01,5.865355490959329732e-01,-1.496446193324039650e-02,-2.912525721039273437e-03,-4.268729876269501677e-02,1.343335628509521484e+00
2.509558379253204463e-01,-1.103393086977289661e+00,2.150207431832301674e-01,9.293944133446969957e-02,5.002770053105522891e-02,-1.077588398692914951e-01,1.362035632133483887e+00
9.185147482001015939e-02,-9.268244748232401520e-01,4.048235629905047595e-01,1.948669592749009138e-01,2.561252713195282249e-01,-2.285201380839158546e-03,1.328610181808471680e+00
6.095012123014773020e-02,-6.795668594725927658e-01,2.897825260667474812e-01,-7.329957944052079011e-02,-1.039581287696830364e-01,-2.087748521384380496e-01,9.744153022766113281e-01
5.892330010385890549e-02,-9.067738779851745035e-01,5.470836842645213638e-01,4.466605018946052420e-03,1.129793952869277696e-01,4.921790719703607320e-02,1.299194693565368652e+00
-2.051422294607947450e-01,-3.797219280972927713e-01,9.008145738223545251e-01,-4.675079558438748756e-03,-9.041239491093559441e-03,-4.521137314616111014e-02,1.205462217330932617e+00
1.326498368288694663e-01,-8.995070136786433856e-01,3.761571025862733286e-01,-4.787260658434665944e-03,5.268842466778338174e-02,5.143127232884777550e-02,1.179963469505310059e+00
-9.633874449378396210e-04,-7.994516200469115041e-01,7.204444288599930468e-01,7.024269002722140220e-02,1.651193499561020295e-01,-1.108218819554185504e-02,1.353148937225341797e+00
-2.297921525911418295e-01,-4.257720733873987529e-01,1.532357203939771040e+00,2.056991457123568123e-01,-9.432245678925713084e-02,-1.077286293913963661e-01,1.917646288871765137e+00
2.094549678602392051e-01,-1.066235359526662263e+00,3.696055275351577407e-01,-5.166130679369492634e-02,-2.314201157374930484e-01,6.906018030773898586e-02,1.428396582603454590e+00
-3.909365916715440425e-02,-9.455470896328808106e-01,9.176645759357808796e-01,-1.168790164568782146e-02,-4.904542164527322945e-02,5.517063531572633656e-02,1.618968367576599121e+00
-7.935879024860814646e-02,-8.627849210644072953e-01,9.726731503843925042e-01,-4.651321855758505652e-02,4.271060108282896672e-03,-1.862263225520941964e-02,1.597592711448669434e+00
-4.208093365363294730e-02,-9.975615753302743416e-01,9.728113088283369958e-01,8.643870798602017527e-03,1.895961400285185033e-02,-8.233867321062019601e-03,1.707092642784118652e+00
-6.537243095795530756e-02,-9.789426351534825654e-01,9.494371849987897072e-01,-3.770973213415190848e-03,1.427042491633801445e-02,-6.288550271440596952e-03,1.671023964881896973e+00
-4.196371362870213867e-02,-1.028418178041452746e+00,1.027046131429164122e+00,5.684679333054051126e-03,9.753645717856439246e-03,-7.996217691539745515e-03,1.780724048614501953e+00
-4.731207857270686157e-02,-9.883211728733556356e-01,9.568052099596700000e-01,4.709659013251566231e-03,-3.675155698278288752e-03,-6.665259717878214973e-03,1.684895634651184082e+00
-4.949748168782655555e-02,-9.929831248361667972e-01,9.561648628627056334e-01,5.660207906144094220e-03,1.713098026734693156e-03,-1.287497200788666370e-02,1.688476324081420898e+00
6.954257661663298951e-03,-9.489010987690968957e-01,7.314000148775172683e-01,1.665532785898372892e-02,5.973265874611019544e-02,-3.679474138524622961e-02,1.465108990669250488e+00
-9.151645271563076112e-02,-1.233287322813207076e+00,1.334342504340253255e+00,1.363756914171688761e-01,2.048635694361191639e-01,6.732380539263195518e-02,2.271567344665527344e+00
-7.339701983721083622e-02,-9.637889426574917096e-01,9.071563036791385759e-01,-1.222464090163334193e-03,2.301505565583187099e-02,-3.870211099869537257e-03,1.621418476104736328e+00
3.634764571194284977e-03,-9.411546015885579042e-01,7.267793218150442325e-01,8.763595708224981157e-03,6.429763896050892658e-02,-1.984207911343183542e-02,1.453477978706359863e+00
-4.957474396128743604e-02,-1.008499877737873973e+00,9.606698523553619529e-01,2.506632773587252547e-02,9.611590992234908537e-02,2.967068912653954282e-02,1.714969754219055176e+00
-2.294431932394070880e-02,-9.474589925586418548e-01,9.430934927382207400e-01,-1.718229291103748682e-02,-9.816927555809021669e-03,8.977203884446663049e-03,1.637830615043640137e+00
-5.872645800305581476e-02,-7.312324732955390871e-01,8.881342078703978737e-01,-2.618844450853683448e-01,-2.488311717181197757e-01,-1.042160657485070308e-01,1.552309036254882812e+00
-2.540458843215192067e-02,-7.866061796796671723e-01,8.892513223563729419e-01,-1.121395209633006818e-02,1.116342089174744007e-02,2.270047732718934001e-03,1.453625559806823730e+00
1.261656803408345850e-01,-1.046865312637106138e+00,5.867656297167069823e-01,-7.220079038771730351e-02,-3.717438566884072593e-01,6.147343515923785889e-02,1.603124499320983887e+00
-5.510228148917550861e-03,-8.978272665926542162e-01,9.704440207794174933e-01,-9.788260798906922577e-02,3.155958286147191039e-02,-2.619686642939108440e-02,1.628915905952453613e+00
-7.207511980394298856e-02,-5.687794398427789000e-01,7.334357672552705987e-01,-2.471614924252694689e-01,-1.612858975744493883e-01,-1.679731688775821727e-02,1.248124957084655762e+00
-5.090474805143377357e-02,-8.100623853798487595e-01,9.114171525202450219e-01,-9.963443325694960884e-02,-2.849029648615054866e-02,8.341638342169530734e-03,1.505112171173095703e+00
-8.603002430264231060e-02,-5.546672969001369413e-01,8.633489723906390134e-01,-1.788882036529879094e-01,2.538662048545464733e-02,-1.402318059437161202e-01,1.312549829483032227e+00
-1.953730359681105089e-02,-9.759248517654771637e-01,1.096255310812705996e+00,-2.492069596310702018e-01,2.449162904142072363e-03,-1.206644955016837328e-01,1.859249949455261230e+00
-1.318050846842635723e-02,-9.620915161457255227e-01,9.531855286712876962e-01,-5.849567853596216241e-03,-1.275835961933116311e-02,-6.223269860780934401e-03,1.658914685249328613e+00
-2.078106137428034281e-02,-9.703569792775033065e-01,8.629370922893355722e-01,-7.821335565613405510e-03,-1.628644674130064196e-02,9.665934410520613321e-03,1.588417172431945801e+00
-2.889049968448425057e-02,-9.799847175890037398e-01,9.081654626195303504e-01,8.427277197040109434e-04,-1.974944191072770805e-02,2.696101920509365313e-02,1.636226058006286621e+00
-1.342765363955794600e-01,-6.414776024598992654e-01,9.891581385574221841e-01,-8.037881728272919246e-02,-4.932279188387164726e-03,-7.410044813726456014e-02,1.457770109176635742e+00
-3.691198252978847294e-02,-7.168378437761199207e-01,6.911415564880897255e-01,2.821975009394342981e-01,-2.454739785640254746e-01,5.719781344161727933e-03,1.380999803543090820e+00
-4.312147641049671881e-02,-9.545211105120632311e-01,9.443418846467583894e-01,1.518124490757862162e-02,-1.512469119508464549e-02,-6.376236123928062660e-02,1.649024367332458496e+00
-1.170789630739049736e-03,-9.708090506519797547e-01,8.528028343168916336e-01,-7.305303771064223725e-03,-6.156052318084917312e-03,-2.517611641830782426e-02,1.581040859222412109e+00
5.552828048445593301e-02,-9.711842764948708240e-01,6.153056365811053752e-01,5.648024525809076934e-02,-2.653160474566065297e-01,-2.581781379188395967e-02,1.471382856369018555e+00
-8.311323829385389161e-03,-1.111264476725708716e+00,9.140475802827090490e-01,5.655183732046561995e-02,-1.277424203870268504e-01,-8.176128045974409564e-02,1.778531312942504883e+00
6.787548019802869259e-02,-1.095203243062469189e+00,6.279274965392744878e-01,2.426258650190321886e-01,-2.396883231598768704e-01,2.352604634886273638e-01,1.683089613914489746e+00
-2.695761984636099728e-02,-9.894924787040250136e-01,8.246314083343870838e-01,-9.810256373642517805e-03,1.501999841591839246e-01,4.046330460058870926e-02,1.595067977905273438e+00
6.787948160855122870e-02,-9.647949991718495211e-01,6.286533938103392449e-01,-2.543851141175927921e-01,3.740141839913334043e-01,7.180836999496556516e-02,1.609113216400146484e+00
-2.085499154417844170e-02,-9.611224233867584621e-01,8.150863069225733337e-01,-1.600313427545379391e-02,5.163595335342886262e-03,1.580294853702613952e-02,1.539644956588745117e+00
-8.343470555130148847e-02,-9.696330160791003516e-01,9.430128783190311337e-01,1.728542844227926728e-03,1.139219813154907293e-02,3.695285843756667809e-03,1.658016085624694824e+00
2.871973416728743622e-01,-1.413136930147093073e+00,3.898015330887505403e-01,1.744496804300915971e-01,3.182352375431516944e-01,2.573765592119216239e-02,1.863660931587219238e+00
1.977797937015934870e-01,-1.068972339635849034e+00,3.051332763484856936e-01,-2.606859539434130610e-02,2.814286340708657130e-01,1.031694356376589294e-01,1.422586679458618164e+00
-1.879680889476646743e-01,-4.646456206176242665e-01,8.535548936890102745e-01,-6.508682359184109201e-02,5.591125334660826569e-03,-3.615561438632776403e-02,1.210871934890747070e+00
8.899253090736997107e-03,-1.229141408183879625e+00,7.898030494085360731e-01,-4.849367202368629060e-01,2.931296028054893865e-01,3.886177743454848760e-02,2.019193649291992188e+00
1.819124006373709079e-01,-1.551678894702064548e+00,8.853005574766732444e-01,-2.861787726536855203e-01,4.477388806164769308e-01,3.519762067864528610e-01,2.436852216720581055e+00
-4.167681117418657599e-02,-9.520802848050187173e-01,9.525139620703622079e-01,2.265964083640891608e-03,1.315080885875430719e-02,-8.109866933104186229e-03,1.650180578231811523e+00
-4.514426816354830119e-02,-9.671714347627440311e-01,9.391787475692300324e-01,-5.134564302229467463e-03,7.881523978554955470e-03,1.260834351285101441e-03,1.651323318481445312e+00
3.775627756120861211e-02,-9.483880904797387101e-01,6.909109831558287729e-01,-4.464863058488047209e-03,1.221219706247254726e-02,-5.689044395024277917e-02,1.432973623275756836e+00
-3.613755969247790800e-02,-9.282734513020824973e-01,8.931200102255649753e-01,4.095424554271759332e-02,-3.491823284838245500e-02,-2.267217592316764837e-03,1.580238938331604004e+00
-5.167029858958836763e-02,-9.417776388218650485e-01,9.289776388666465268e-01,-1.241972702230788100e-03,3.147850432074948950e-03,-1.203174648850672580e-02,1.620898485183715820e+00
-2.927034569918694068e-02,-9.651960833097278369e-01,9.108821660640461504e-01,-1.491339318908705379e-03,1.172121547750632105e-03,9.396466203665519365e-03,1.624817609786987305e+00
-3.450968499608371431e-02,-9.687098668702530668e-01,9.286136701123813841e-01,6.335498799211609607e-04,-1.917887660248118612e-03,-4.704763875424957179e-03,1.643217921257019043e+00
-4.475365587874562123e-02,-9.415577782858721712e-01,9.273098243481481262e-01,5.475281643376940944e-04,-3.899609063571955487e-03,-1.470859561555951101e-02,1.619138956069946289e+00
-4.148436566597942660e-02,-9.667110920477864910e-01,9.396572443524126017e-01,-2.607475906392116467e-03,-1.595456458569974832e-03,3.724179761090943078e-03,1.651221156120300293e+00
4.724219274367032206e-02,-9.608374148769602829e-01,6.983055116395784356e-01,-4.805876608352508718e-03,-2.025790597697806408e-02,-2.074180888709529005e-02,1.448800444602966309e+00
-1.294191447549821947e-02,-9.737807684884655091e-01,8.941594388155666984e-01,5.809718821681447883e-03,-3.930622741674541162e-03,-1.080675988222423722e-02,1.618060708045959473e+00
-3.872961727766591200e-02,-9.720779295759683913e-01,9.312210574757631143e-01,-3.134321671466088269e-03,-2.563157798586350629e-03,-5.062465248514161874e-03,1.648445129394531250e+00
-9.970400458116156217e-02,-6.567577419003144401e-01,8.819162451001852920e-01,-6.368955368563643075e-03,1.992146981367699105e-02,-3.646195084387843233e-02,1.351296782493591309e+00
-8.029457632557644720e-02,-8.348295254638549157e-01,9.034697377991783851e-01,-1.215438029288175509e-03,-5.233375337265966203e-03,-2.428254029054957575e-02,1.510382533073425293e+00
-2.610633791055911451e-02,-1.105568284037486304e+00,1.010345613574975321e+00,-8.121168740180526036e-02,-8.475224286023805287e-02,2.293597304806205273e-02,1.844232678413391113e+00
-4.457502861656245652e-02,-9.837808151107420018e-01,1.051667237628526319e+00,-1.329858313412536630e-01,1.601732854276969112e-02,-8.425152593606206886e-02,1.785657286643981934e+00
-1.161034697324303394e-01,-7.689317124169864348e-01,9.259590424279756649e-01,-1.079859837887899368e-02,-4.386376596813141432e-03,-2.489271182532976773e-02,1.481429457664489746e+00
-5.179142318724736654e-02,-8.868744244016126821e-01,9.407076605122364210e-01,-1.994630976222368929e-02,2.318434926278409303e-02,1.000824283249177916e-02,1.585668206214904785e+00
1.224611568672575798e-02,-9.081300727158769792e-01,9.243847532577372794e-01,4.343661718050478154e-02,1.208197980222680372e-02,4.674919913077050203e-03,1.588950514793395996e+00
2.304817018210100071e-02,-9.947636252075178209e-01,9.745041691623199664e-01,1.483574937082933823e-02,3.375969810536116888e-03,-1.803671032691093069e-03,1.705965042114257812e+00
-1.158403351829604133e-01,-7.526184563707737363e-01,9.774277361161954891e-01,2.851610910916387853e-01,1.900895772584401122e-01,-7.833216986994957776e-02,1.633294582366943359e+00
-4.596239959208339720e-02,-9.781687091152945213e-01,9.252190544161988939e-01,1.280957745821190716e-03,-1.520877989968495193e-02,-1.821270612317282865e-03,1.648712277412414551e+00
2.350059533074583262e-02,-1.188383398115889555e+00,8.121647072722102401e-01,3.805293399893392992e-01,-2.681057586795128067e-01,1.706472563073862525e-01,1.945208072662353516e+00
-3.525902856594283208e-02,-9.631678514737702645e-01,9.239472819303524709e-01,6.045630444802677778e-02,6.977865054013626667e-03,7.206757593354386204e-02,1.642510175704956055e+00
-3.020047654752745087e-02,-9.839871332415718319e-01,9.539659409138989687e-01,-3.758057320632659723e-03,3.847657148371014246e-03,-5.000127447164343791e-03,1.678433537483215332e+00
-2.206571555433908122e-02,-1.015141563571316352e+00,9.055779626093103385e-01,-2.376146180203693795e-02,-1.587123655419362539e-02,-1.922259766505269099e-02,1.664782524108886719e+00
-3.789679752575514371e-02,-9.914020316337888161e-01,9.454683259149818664e-01,-1.107218334244618879e-02,2.143040922430852323e-03,1.244872867070173964e-04,1.677559137344360352e+00
-1.252027395353601524e-01,-5.936468652530157986e-01,8.778107986408072438e-01,1.064903364649822243e-01,-1.632112959009057035e-02,6.420741981919013408e-02,1.320045232772827148e+00
-6.569228997724223251e-02,-9.700803179906353213e-01,1.257382139575897506e+00,-2.200471935891547548e-01,3.479463079483617327e-01,-2.971022185069877031e-01,2.130325794219970703e+00
3.093410467412473219e-02,-9.865122338588184769e-01,7.183299290544670201e-01,-3.904870592934128054e-02,1.243557404338682115e-01,-7.961268627048215252e-02,1.508999824523925781e+00
9.811672183815185744e-03,-1.426225555929584221e+00,1.312671334529692091e+00,8.559641834648350212e-03,3.935532916893424993e-01,3.920644633414185204e-02,2.469835042953491211e+00
4.768278415253519864e-02,-9.113126693417022972e-01,6.642793750060681512e-01,1.598333939370160175e-02,1.703848166241299714e-02,-5.115780459067675173e-02,1.378646254539489746e+00
-1.833744822266798469e-01,-4.562779832018752368e-01,8.494297723355097585e-01,-3.992308220124925894e-02,7.689885020869306753e-03,-5.329015542908244196e-02,1.198538780212402344e+00
-9.278318300748603087e-02,-1.031817917151076403e+00,1.032173900545312772e+00,3.411725838956475906e-03,6.425668375285378819e-02,-2.292536155684685596e-03,1.793356060981750488e+00
-3.686943559830067885e-02,-9.844291977120365189e-01,9.553280032689914769e-01,3.628677060030099238e-03,-5.513717222823746877e-03,5.257610644452325263e-06,1.680066227912902832e+00
-2.170937591197473135e-02,-9.810683231460263221e-01,9.925608286577919381e-01,-1.668770319099001920e-01,1.313448768154647783e-01,3.696128269279566614e-02,1.749731302261352539e+00
-5.290787455832379749e-02,-9.735225251526888890e-01,9.510716057106410881e-01,2.822851785479123937e-03,1.515316412332837204e-03,-6.761596283556714493e-03,1.667318940162658691e+00
1.969897349240350495e-02,-1.042596827179061325e+00,1.022761904837482083e+00,-1.252779124914373265e-01,-2.892536351359239252e-03,3.241388977647464975e-02,1.802891492843627930e+00
-8.189516833113130723e-02,-1.287366688224743205e+00,1.384242094749030150e+00,-1.557529696738293307e-02,-2.866705277686121614e-02,-1.241405087282586306e-02,2.318137645721435547e+00
-3.905320894994805669e-02,-9.922706345961549435e-01,9.735752884465042056e-01,6.583532383344485941e-03,3.051938033907105555e-03,-5.800899936519533784e-03,1.702807664871215820e+00
-1.590669831303625353e-02,-9.942737017361114038e-01,9.716654205537911260e-01,-1.101167256850203550e-02,-1.917049065023898255e-02,7.452529659926792303e-03,1.703038930892944336e+00
-1.678471639972771712e-01,-4.799019695588387369e-01,8.386700491926115664e-01,-5.969523613579383499e-03,1.702154434826989859e-02,1.006199378914853643e-02,1.194078445434570312e+00
-6.010009915098532551e-02,-9.737460220576006353e-01,9.289643418050650414e-01,7.664391992370514972e-04,2.971006959980330465e-03,-5.930905714541187579e-06,1.648235559463500977e+00
-8.875086951144800507e-02,-9.743744648531723618e-01,9.496881659428263456e-01,1.813845315537227117e-03,6.398589005719980405e-02,4.513854942213597378e-03,1.671736955642700195e+00
-5.018127319307071066e-02,-9.851852250012382850e-01,9.440736084448149157e-01,3.107170057169489005e-04,-1.767110350211166178e-03,-1.165662303368393375e-03,1.671053886413574219e+00
-7.733898200132129086e-02,-9.742397795628834345e-01,9.346031856095935453e-01,-8.475575795543846894e-03,2.113798479115443132e-03,-1.563700004948930894e-05,1.654176115989685059e+00
-3.894872465323936245e-02,-9.578619998964251758e-01,9.466420519441847148e-01,1.169949859986752355e-01,2.364397628922218497e-02,-8.134418136608388694e-02,1.668548583984375000e+00
-1.664507862801224009e-02,-9.613722215565159157e-01,8.543440931944663586e-01,9.899275045112803165e-03,-6.267983249197204947e-04,-1.603486607778216097e-02,1.573227643966674805e+00
-3.108219678734573665e-02,-9.781428798550935166e-01,9.086419359845876453e-01,1.193776077137463296e-02,-3.087940934512084859e-03,-1.006973293977888977e-02,1.634240388870239258e+00
-3.812377006078001423e-02,-9.670814818448971728e-01,8.755694907947497718e-01,1.127343820093637539e-02,2.894792449153624561e-02,2.465837288335726626e-03,1.596713423728942871e+00
-1.061867162486300822e-02,-9.612713756372749385e-01,8.510866615831818027e-01,7.427216577495637621e-03,-3.340933076888070920e-04,-1.468667386985416864e-02,1.570436954498291016e+00
-6.207335018740080257e-02,-8.949638142923604933e-01,9.387300109691828487e-01,-2.194047408913213718e-02,-9.830274292069731204e-03,-6.433933583092510226e-03,1.590827345848083496e+00
-3.983208711051951234e-02,-9.638794372337170513e-01,9.567467960495997792e-01,1.581368092423868135e-03,-1.431055259456508015e-02,-7.262962298528841815e-03,1.663940906524658203e+00
3.248081476077441243e-03,-1.283099159492350649e+00,1.209952459330797536e+00,4.032000942072375832e-02,-4.508656585988830567e-01,-4.610509252624280657e-02,2.298729896545410156e+00
-3.356082423346751220e-02,-1.066165471497733774e+00,1.000140194355569223e+00,-8.715927933401755590e-02,-8.675011262863586980e-02,3.475852775890974494e-02,1.803110122680664062e+00
-5.056644561370793323e-02,-9.806488758632074809e-01,9.300889448723104191e-01,1.053693523197393733e-02,-1.847849799895771167e-02,7.346878440268007427e-04,1.655351281166076660e+00
-4.151147379226470535e-02,-1.077108963697380961e+00,8.631072263608324802e-01,1.702831601144529430e-02,-2.745309066444063806e-01,2.173570225267579606e-02,1.748143792152404785e+00
-2.561628460998444101e-03,-1.015201075759468274e+00,8.500960741340417570e-01,8.259422717638340017e-03,-4.666764702391638237e-02,1.504618681680252278e-02,1.619665384292602539e+00
-8.389357524651384901e-03,-9.724616134639633147e-01,8.251743127635650099e-01,1.449640967935068164e-02,-4.423108100773351370e-02,4.127512454856067242e-02,1.561886668205261230e+00
-1.571487950330063138e-02,-9.742813974989417147e-01,8.622813999504576055e-01,8.527583738214170386e-03,-3.356107946994368874e-02,-8.749459279749814689e-03,1.592222332954406738e+00
-5.453192434364081270e-02,-9.542636470177087160e-01,8.402960224727756833e-01,-5.581283733837464137e-03,-4.230945744437209638e-02,-7.526730163135527361e-03,1.555947661399841309e+00
-6.235914246778070935e-02,-9.940400967986493530e-01,9.724588035684273990e-01,-5.680661690179989159e-04,-3.912791646296961967e-02,-1.087565436243234478e-02,1.705270171165466309e+00
-1.323298095958703492e-02,-1.018252119920964427e+00,9.543841566805914001e-01,5.901569903535938688e-02,-6.558663989340231260e-02,-1.632545390853456027e-02,1.715509533882141113e+00
-5.729894125442956676e-02,-1.012829562720946486e+00,1.005457704438605715e+00,-4.145589295550922149e-03,1.809417222725868968e-02,6.408746955239743963e-03,1.749040842056274414e+00
-5.970766225504838681e-02,-9.803869451359689124e-01,9.236149190125689801e-01,-1.050978002060087499e-02,-1.463590558590782860e-02,9.510785537518061860e-04,1.649507522583007812e+00
-2.622805065376770245e-02,-9.661096853787440875e-01,8.571238661773168399e-01,-1.540017776245167745e-02,-2.582259261647672764e-04,-1.842574244382950630e-02,1.579767227172851562e+00
1.120022942638909669e-04,-9.512552055948775287e-01,7.704518117304183233e-01,-1.104127023369429195e-02,-2.965096307114984536e-02,6.207561105141609289e-03,1.494830369949340820e+00
-7.715755645968928877e-02,-1.014672649123492310e+00,1.018703998876192562e+00,-2.807165141313401765e-04,2.149587135770445953e-02,2.717496196785467062e-03,1.763134241104125977e+00
-8.823795201373871300e-02,-9.929086936519102569e-01,9.846160519494556729e-01,-7.479612425948583762e-03,6.110592722882121630e-02,5.864579925313858494e-03,1.717992186546325684e+00
-7.155255424795911590e-02,-9.921986109164113721e-01,9.783206183471602202e-01,4.192485165347386092e-03,1.760868086311998676e-02,-6.209800842878737855e-03,1.708064079284667969e+00
-7.826182878636761542e-02,-1.025743294923632920e+00,9.997497158326749123e-01,4.674928851073054982e-03,1.044332163468443264e-01,-6.930066721470482666e-03,1.764696717262268066e+00
2.654512050531683542e-02,-1.338449639106010336e+00,1.101741709673000225e+00,7.738232172820332100e-02,3.996591043354513761e-01,-1.262029541952956468e-01,2.243172645568847656e+00
1.387173394833553577e-02,-9.954122936154377044e-01,9.665752087202376108e-01,-1.737243329863537300e-02,-1.048293798589914998e-02,1.585338667967199286e-02,1.699951648712158203e+00
-9.085641236023224432e-02,-9.943728006630485616e-01,9.913122502354319021e-01,-6.668486603852400753e-03,6.729283574470687479e-02,6.342604517057329194e-03,1.725985884666442871e+00
-6.169980703837821268e-02,-1.257638190075738294e+00,1.293174897031550419e+00,-1.413306869185755946e-02,-7.435705674645452269e-03,6.410395326603279299e-03,2.210698843002319336e+00
-5.408482001886578960e-02,-9.876223820311722523e-01,9.672617053912615503e-01,-6.957744451023009603e-04,2.624966442924428749e-03,-1.060541914644873296e-02,1.693654656410217285e+00
3.876863591561106603e-01,-1.510733308146484877e+00,2.697437370600931916e-01,-1.714879410732518261e-01,3.235306670147095609e-01,3.030532149937153474e-01,2.017862081527709961e+00
-8.129043877445991939e-02,-1.013186161336977031e+00,1.037505583529425346e+00,5.001884333647219939e-03,3.504804052851867580e-02,-8.018470659501489642e-03,1.779519200325012207e+00
-2.706183176843605237e-02,-4.598471049692151036e-01,3.980807972476197998e-01,7.411360441238575014e-02,-7.389367004093944091e-02,1.087442537902549300e-01,7.876420617103576660e-01
-4.871179595207395657e-02,-1.050538246764958439e+00,1.013740590612624226e+00,1.010633580562694950e-01,-6.483604337872875267e-02,6.467102591634561401e-03,1.800064563751220703e+00
9.011717685032831493e-03,-9.368071450025804436e-01,7.887675885515849084e-01,1.626757235108830784e-03,-3.877457533140778005e-03,4.676717094904077159e-03,1.496736168861389160e+00
1.202524738792696279e-01,-8.945049717057127481e-01,3.342023540540891013e-01,1.857908763741826508e-01,-2.828037738186585104e-01,8.202711388225497613e-02,1.286968708038330078e+00
-7.187921309173443685e-02,-1.041733328273265480e+00,1.095327914545800585e+00,1.517884369504998027e-02,2.198936255332536310e-02,-2.346029035478745806e-02,1.854400992393493652e+00
-2.119914211345997473e-02,-9.822766988664415333e-01,9.607402560524473945e-01,-3.788304543928573014e-04,-7.082430567825680374e-03,5.222884856577426731e-03,1.682803511619567871e+00
-2.767880696626415921e-02,-9.635073202708221984e-01,9.806540974126618515e-01,-5.951799773346974631e-02,-4.828413161176275253e-02,2.252212350494890367e-02,1.689757347106933594e+00
-8.175026720140682324e-02,-9.692886620536445008e-01,9.281129251102078204e-01,7.636552664097898645e-04,-2.296741595535434569e-02,1.668082867059975452e-03,1.644820094108581543e+00
3.170074257139335154e-03,-9.990346945724999372e-01,9.918124863657457047e-01,-6.915774810188314581e-02,-4.042169212588521410e-03,-3.990654917478974467e-03,1.728321552276611328e+00
-8.862062428667814851e-02,-9.895776545223374798e-01,9.482442955841650090e-01,1.664603645722040337e-02,1.225779087387084132e-01,-1.410810735434796237e-02,1.693365812301635742e+00
1.340855667516326344e-01,-1.095679583759753495e+00,5.725779064765357251e-01,2.809967795864626305e-02,1.434917692503195064e-01,3.927218837941790636e-02,1.520725369453430176e+00
-1.722537125465240654e-02,-9.987254355566598241e-01,8.588570046805558134e-01,-3.517720173708796527e-02,8.307355730761474544e-02,3.299257450449842588e-02,1.618152976036071777e+00
-3.805488408511609189e-02,-9.906195898066600947e-01,9.639271795637488482e-01,-1.492983227647237243e-03,-1.858075314969448574e-03,-4.392175082951166667e-03,1.692889571189880371e+00
-6.722198047477653815e-02,-1.036181764448680820e+00,1.034771870473663480e+00,-5.204858141020833606e-02,-1.468651013039325437e-01,1.001019693154309512e-02,1.814992308616638184e+00
-2.221376077489511935e-02,-1.009706586712832088e+00,1.003365291664608749e+00,-1.054010662675378823e-02,7.294590352425106561e-03,-2.603153085698502091e-03,1.743622541427612305e+00
5.438226413348866417e-03,-8.744541334327421422e-01,9.212814092229927310e-01,-3.930570396823567653e-02,6.667721172173894650e-03,-2.555674407855352322e-03,1.556795001029968262e+00
-1.104293735423758360e-01,-8.555316798407511802e-01,1.046176674132198059e+00,-4.209148347824195335e-01,1.889244408202774284e-01,-7.500166364038401978e-02,1.846663475036621094e+00
-3.057743587368764310e-02,-1.054082939842177158e+00,1.039593778575301553e+00,5.083722403168149800e-02,5.416534168690321366e-02,-1.727061016160396159e-02,1.818132519721984863e+00
-4.817235011268448941e-02,-1.018747974653846811e+00,1.024976109258429080e+00,6.907430265766035041e-03,-1.656482545533075751e-02,1.532921871756810772e-02,1.771131753921508789e+00
-2.356045217115242674e-01,-8.401254679600047570e-01,1.454775879473195088e+00,-4.449173332644654200e-01,1.708787850511863937e-01,1.465517802036461759e-01,2.233962297439575195e+00
-4.182635756679589645e-02,-1.239336100316106304e+00,1.137010484555542655e+00,-4.436306280657904832e-02,1.713902808233369601e-01,-3.371247103452646582e-03,2.080724954605102539e+00
-9.815621144768088557e-02,-1.141839932569627347e+00,1.119617662374187139e+00,-2.226366960133598430e-02,2.256580767589542458e-01,4.523639382318832280e-02,2.000902414321899414e+00
-8.107888178406495727e-02,-3.919881262138535938e-01,6.127249523735149861e-01,1.073491462995390944e-01,8.755966508474502530e-02,-3.548189975564082499e-02,9.247090816497802734e-01
-2.548296185739480635e-02,-9.801472368690307135e-01,9.332928119836130243e-01,4.276257123723062499e-03,2.203462426701156829e-03,-7.888955391982722552e-04,1.657110452651977539e+00
-4.365362727556815203e-02,-1.036974038044847335e+00,9.140316672563227884e-01,3.365199030185529461e-01,2.462272990830955965e-01,-8.809031759819600793e-02,1.843918442726135254e+00
-2.329490529083843089e-02,-6.970693000245239412e-01,6.474962569122808542e-01,1.167376468519170929e-01,2.288398751629978911e-01,-1.078445649357524100e-01,1.260465025901794434e+00
-7.198643713459139393e-02,-8.643564854368085415e-01,9.436612598000611030e-01,2.324374256866653179e-02,-2.601894969374974470e-02,-1.311720344360048363e-02,1.571091175079345703e+00
-4.195809698829421758e-02,-7.417251087006042631e-01,8.868346749992874756e-01,5.501705140916726688e-02,-1.097634092200221179e-02,-2.721393288031660491e-03,1.418355584144592285e+00
-6.890538356932655872e-02,-1.176733976549183547e+00,1.092733714372352338e+00,-4.790630897960831275e-03,1.458879260986349624e-01,1.326760147752449950e-02,1.981926679611206055e+00
-3.771562646798625081e-03,-9.424083988515689070e-01,9.509449546031534251e-01,4.651753989430975483e-02,-2.316545765957318467e-02,-1.813972902377795904e-02,1.642480850219726562e+00
-5.459553335725837730e-02,-1.249805882444944283e+00,1.145384892112980335e+00,3.906125229759170592e-02,1.671379075561018612e-01,-2.437071708997882308e-02,2.095918416976928711e+00
5.200962721684161683e-02,-1.165752383157719452e+00,8.182906677783186034e-01,7.324458041840906097e-02,2.996984045334264435e-01,5.011171344223872004e-02,1.815589189529418945e+00
1.152424110790391254e-01,-9.178453325775136618e-01,5.192504308550111025e-01,-1.141827084248951121e-03,1.165620379269380899e-03,-7.210884731972079173e-03,1.283757209777832031e+00
-5.310747470987209340e-02,-9.882701288379311944e-01,9.358526224918158887e-01,1.261963680536616443e-02,1.066110626801545884e-02,-7.093926343211061532e-03,1.666847229003906250e+00
-1.492489822968211949e-02,-9.739627463957659659e-01,8.598059436622087492e-01,1.905677394033253660e-03,2.254038348319378424e-02,1.504373657761519378e-02,1.589346289634704590e+00
-8.253652150487918171e-02,-1.012319670060653598e+00,1.008865005916687485e+00,-1.866483371356588913e-02,4.560818452002608769e-02,3.928692629247237944e-02,1.755658388137817383e+00
-8.233260857300764290e-02,-7.695003769542205774e-01,8.492834666130739674e-01,-3.214738056355358892e-02,4.807328115169060521e-03,1.030639713604423052e-01,1.419619917869567871e+00
-1.059846163435333305e-01,-1.024177204002318042e+00,1.040218992501299455e+00,-5.197739660344715318e-05,6.392741855461012146e-02,4.314770816385030648e-03,1.794884920120239258e+00
9.981106882348125819e-02,-9.193594382353366123e-01,5.399766687235589835e-01,1.398887736748505826e-02,1.658167902469209710e-03,-7.408660385017824812e-02,1.303119301795959473e+00
-1.350331910531270274e-01,-1.765444074519693374e-01,6.756892018441054137e-01,-8.588174934367188984e-02,3.759326192203567979e-02,5.413822844668643441e-02,8.531164526939392090e-01
6.709462452577923119e-02,-9.195562124068841214e-01,5.817510858038287269e-01,1.885286993867069799e-02,5.965606657564826582e-02,-5.800380319175735700e-04,1.325851082801818848e+00
1.890029972052435087e-02,-9.831418701671261751e-01,8.358380831949472345e-01,8.950285031082116580e-03,2.420703012001567539e-02,-2.150875434901684466e-02,1.579071879386901855e+00
-6.538569747041117486e-03,-8.255485016045013280e-01,9.320619229235598269e-01,1.193124131648682085e-01,-1.188130791062780474e-02,-5.724196584977506164e-02,1.540594339370727539e+00
7.081375967136321545e-03,-1.025500971017487828e+00,1.029339261164437858e+00,6.455481012991166889e-02,-7.883062374243332213e-03,-3.909792876320018068e-02,1.784398317337036133e+00
-4.745060697349308410e-02,-6.815893601593829842e-01,8.693565304039603259e-01,6.909023730631926041e-02,-1.228782806725362865e-02,5.875633923420203481e-04,1.356032729148864746e+00
-9.246093604391493817e-03,-1.002300260172944046e+00,9.769831163920750239e-01,-3.477812355451169631e-03,6.246756476553522348e-03,4.729713198198048224e-03,1.714177370071411133e+00
5.123722742699649002e-05,-7.969172880104680168e-01,8.931277798467328610e-01,3.106676742832591848e-02,-9.751538290283173066e-03,-2.356339229589361761e-02,1.466064453125000000e+00
-3.176773433279066194e-04,-8.203432384063376048e-01,9.040680865067685090e-01,9.615383916093855898e-02,7.168040496994271780e-03,1.297078747681060934e-02,1.503452897071838379e+00
-7.150335010611945374e-02,-1.070975381921197123e+00,1.154035405038494888e+00,-3.028865293078162810e-02,-3.334335308605364950e-02,2.442974290432363416e-02,1.932267904281616211e+00
-9.578576470444893909e-02,-1.018429436201750304e+00,1.010532366196472909e+00,-2.633608689269107024e-03,-1.029903968141289150e-01,-9.919243557104027303e-03,1.768639445304870605e+00
-5.102662809583050074e-02,-9.776847587549660767e-01,8.957903756273493112e-01,-1.309814797314697021e-02,-2.409675071671545793e-02,-2.213957842668978077e-02,1.623656511306762695e+00
-8.168330010311614098e-02,-1.041238601647134221e+00,1.027752602759232303e+00,-8.074828964852167820e-03,-7.696879526122815673e-02,-3.797625207888087606e-02,1.799570560455322266e+00
-3.532044101559040500e-02,-9.917107678655189273e-01,8.214855881793011738e-01,-1.028450672807252123e-02,-8.834408882552782782e-02,-2.698095256901539979e-02,1.579289436340332031e+00
-6.164757757029388358e-02,-9.791533610932343645e-01,9.196275337924395554e-01,7.629538939849352802e-03,-1.625260802879705674e-02,2.768021884255266948e-03,1.645002484321594238e+00
-7.837499509064740910e-02,-9.754567364465794865e-01,9.492097997691422151e-01,-5.069570855926134462e-03,-9.440863259074953190e-03,-1.035021050482529473e-02,1.668286442756652832e+00
-1.510752216029264960e-01,-6.624764374449138016e-01,8.911042781290540171e-01,-7.355920038500962134e-03,2.979785777555103016e-02,2.216464459092865324e-01,1.425078511238098145e+00
-8.318905861580307148e-02,-9.648659595825518354e-01,9.292946144125504571e-01,3.341249115501905152e-04,-7.435464507887298326e-03,7.784814030787092203e-04,1.641745686531066895e+00
-6.028724235170333789e-02,-9.839937961057817484e-01,9.531574626820298324e-01,-3.118014037876855413e-03,-2.606182641042530546e-03,4.919949118168006480e-03,1.678258538246154785e+00
-6.206105530854889862e-02,-9.720717841136399251e-01,9.184252124419448604e-01,6.375188742871153863e-03,-1.031875994240926027e-02,-6.158282999868948220e-04,1.637732744216918945e+00
-7.225802970907872769e-02,-1.171213865869135562e+00,1.210605323084072316e+00,-1.150347859889882737e-02,-3.611254397559129220e-02,2.601148976687628345e-02,2.066298961639404297e+00
-3.643256616225755418e-03,-9.564058077940884584e-01,8.371529899799844410e-01,-4.155596791924017798e-03,1.137098018313658114e-03,2.086295933032169050e-02,1.554713964462280273e+00
9.028450783699661086e-03,-9.602694447110943221e-01,7.914355327522438754e-01,-1.675091501986723450e-02,4.904149505235548545e-02,-1.200236496136493705e-02,1.522686481475830078e+00
-6.116192618171686912e-03,-9.382501647319564375e-01,7.183313263760401357e-01,-6.664742023677738131e-03,8.228532967357474193e-02,1.801104582349532385e-02,1.445821285247802734e+00
-1.098841391295275749e-01,-6.546429513810148038e-01,8.813032377613525536e-01,-3.502402957641417153e-02,1.027606894511754430e-02,1.803639452071105140e-02,1.350609302520751953e+00
-8.685030907456889326e-02,-7.261666507286503869e-01,8.987286904155525891e-01,5.215301386380012498e-03,-2.962612242825411746e-02,-8.136610482398246025e-02,1.425750374794006348e+00
-1.412828270154441457e-01,-5.872770097446858850e-01,8.452064963831674715e-01,-1.015948066656989640e-01,4.946215888731607738e-03,8.823741687374951626e-02,1.290905117988586426e+00
-5.188120428480057916e-03,-9.793746019339795161e-01,9.026657500199157802e-01,-1.799704084110551917e-03,-4.307276111080784835e-03,-7.784775891035721623e-03,1.630308032035827637e+00
1.815570658348064081e-01,-1.224734890509740826e+00,4.022718074336837368e-01,-3.128598733519352693e-02,-1.396019291234284199e-01,-1.301354437461574032e-01,1.564918398857116699e+00
2.087332124226074226e-01,-9.938722520141721750e-01,1.767280256954163742e-01,4.643215730587012778e-03,8.129272468443422828e-02,4.179876663646434759e-02,1.197466611862182617e+00
5.490986332166419848e-02,-1.106012678147494821e+00,7.043757231968592603e-01,-3.651792649948593789e-02,1.668928864351488517e-01,4.804770160554073383e-02,1.618027448654174805e+00
4.561390007340392072e-02,-9.265540548739964466e-01,6.245150933520549064e-01,-1.276831936892241018e-02,1.021550606996888544e-01,-1.194834494544419999e-02,1.369397878646850586e+00
2.678460806263918137e-01,-1.034453562764785506e+00,4.316747527131215012e-02,-6.113999682478597764e-02,-8.375341243810482950e-02,-7.626071690830034389e-02,1.226202011108398438e+00
1.267355543354075631e-01,-1.270506292134184534e+00,6.047681633699626413e-01,2.207453951416717686e-01,-3.457332122014943332e-01,-1.349242412049208584e-01,1.846109628677368164e+00
8.206914637825907244e-02,-9.217740837276577892e-01,5.767062048100823901e-01,6.181279284560071280e-03,-6.047608996556095434e-02,-2.896197421539905940e-03,1.326656341552734375e+00
-6.340850849365751996e-02,-9.562117986536893266e-01,8.709850543541872714e-01,-2.943104100267821596e-03,-4.132685640148486828e-02,-1.151066108242233821e-03,1.584162950515747070e+00
-5.796152559651551739e-02,-9.660061702625420965e-01,8.548469456519126597e-01,-4.251203504547019021e-03,-4.351621414703968349e-02,-1.774683309730188535e-02,1.579023480415344238e+00
3.397612591316448438e-02,-9.463634601340407126e-01,6.954822673666228861e-01,-1.686128797561756848e-02,-1.002585837483379802e-02,-3.092623915875351154e-02,1.432194352149963379e+00
1.287876546902073094e-01,-9.183784526313727437e-01,4.276594329322891963e-01,8.917936393231146869e-03,-2.979592321880926778e-02,1.189508106802965662e-02,1.225632905960083008e+00
8.862364964769883779e-02,-8.953758559180060583e-01,4.837004796400520834e-01,2.286700666331333703e-02,6.758515979005472185e-02,-1.875719517334600807e-03,1.236276149749755859e+00
3.842888298281492421e-02,-6.368561199440870846e-01,3.310361078672420243e-01,1.469905975339071968e-01,1.709410099524907301e-01,-5.728353484523641959e-02,9.494985342025756836e-01
-4.008256572081746183e-02,-5.544053829725020810e-01,5.935087042563115256e-01,-2.205199692586654603e-01,-2.094682264291453377e-01,-6.962508634850256631e-03,1.126720786094665527e+00
6.614519531462806357e-02,-1.131714631462161336e+00,6.724171637399041224e-01,-1.987302404875779804e-01,-2.901633668872256044e-01,-7.689034370488442849e-02,1.708058714866638184e+00
-2.229926360465548513e-02,-9.728390502174762977e-01,8.801367723292284895e-01,-6.932592781544014843e-03,1.546642187545411648e-02,5.816270384183228753e-03,1.605204463005065918e+00
-2.969589585592494196e-02,-9.767290529317995684e-01,9.109280565809492192e-01,-4.243444284117235676e-03,4.701129087925460387e-03,-6.224521815520701537e-03,1.634834527969360352e+00
-1.935698579248299606e-02,-9.572348220536883723e-01,8.467728055237914164e-01,-3.135770119207046975e-03,3.386124808429068385e-03,2.184501695929209550e-02,1.563206672668457031e+00
4.413160070114204026e-02,-1.040496424308817502e+00,6.959717596224775926e-01,9.772165665849587290e-02,2.973665113255934966e-01,-1.725771701248517975e-01,1.640608191490173340e+00
-2.351412301319995291e-02,-9.815346172581103090e-01,9.605514495549944964e-01,2.639200111292479972e-03,-6.763274908456884914e-03,-8.032617411266513609e-04,1.681993842124938965e+00
-4.096129957274320665e-02,-9.707907062522972419e-01,9.404864203953172686e-01,-2.683047878302021426e-03,-9.235442206844034913e-03,2.160078676189503867e-03,1.655503749847412109e+00
-1.864930654013512989e-01,-1.535701933312373924e-01,7.640681348709075227e-01,-1.400701281172580803e-01,5.098665668035218951e-02,-3.098996105173829410e-02,9.710274338722229004e-01
-3.268587885508950769e-02,-9.801513309473397495e-01,9.490627810554632671e-01,1.349869192468798346e-03,-6.735950895705233171e-03,-2.218278859672682610e-03,1.670883178710937500e+00
-4.021127354715715863e-02,-9.704826511664638167e-01,9.475997415764120246e-01,-1.876581935423761951e-05,-8.073712441636805501e-03,-2.863656374211024161e-03,1.661423444747924805e+00
-3.654817595246569184e-02,-9.746165976924979768e-01,9.421215484988724187e-01,-4.477515166595582435e-03,-4.883497360659777749e-03,-1.721689642582478535e-03,1.660110354423522949e+00
-6.170198572058917252e-02,-9.586587308137111130e-01,8.778262867735543429e-01,-1.062035068551297904e-03,2.048102363284899554e-03,-1.038043838134162893e-02,1.590691685676574707e+00
-5.966862173412536274e-02,-9.692978876081738138e-01,9.055809455203183145e-01,1.058741778787716803e-03,2.897139107443394423e-02,2.864906040549141644e-05,1.624706983566284180e+00
-3.733429839354858448e-02,-9.666903614336948003e-01,8.489189649622427281e-01,-1.382473489553637767e-02,3.531879434391325956e-02,2.018739028514606945e-02,1.574271440505981445e+00
1.833467060676609653e-02,-9.757132727234867353e-01,9.502510115906652732e-01,-3.082183763573853943e-03,6.772109625212484330e-03,-1.586998928691112348e-03,1.668275356292724609e+00
-6.146716020320412699e-02,-9.801389975220525796e-01,9.381275311551214857e-01,-5.938408346919265939e-03,1.570385551006791419e-02,1.380076227227854807e-02,1.662186503410339355e+00
-5.382705487316216675e-02,-9.719048238206765555e-01,8.925874693463914378e-01,-1.216441796616932192e-02,2.270793748854722099e-02,1.457598750786626499e-02,1.615573525428771973e+00
-7.313663650744839373e-02,-9.689591060688629298e-01,9.254660357479522759e-01,-3.323152740425428658e-03,-4.699814626184186826e-04,2.969709772075097495e-03,1.641443371772766113e+00
-7.805724501098507129e-02,-9.770459779547773227e-01,9.510779242067148864e-01,-4.903081624339156869e-03,7.928147769736699699e-03,8.192240554358612772e-03,1.671210050582885742e+00
-4.897915774198331046e-02,-9.790968707053799847e-01,8.959263151170525630e-01,-1.697575814328708410e-02,2.206095918005534021e-02,1.543638135344986562e-02,1.624770164489746094e+00
-6.467414121697298568e-02,-9.662464013937318574e-01,9.101623447881965756e-01,-2.977726425310746675e-03,1.178494446973043543e-02,1.913778026682007825e-03,1.625570178031921387e+00
-7.075421448853462525e-02,-9.771365637692499551e-01,9.458333392520288374e-01,-4.879680728139394220e-04,7.929812292480685129e-03,-1.435181023156991082e-03,1.666310787200927734e+00
-5.954771217259803573e-02,-9.803939254639123524e-01,9.397101241728734733e-01,-5.214825525547642920e-03,-2.163572151443611503e-04,4.164089300374966378e-03,1.663361191749572754e+00
5.615537954771045170e-02,-9.325482641870511680e-01,6.144826938700943542e-01,-1.217655627065481611e-02,7.867795663398851821e-03,4.571842141651871749e-02,1.359479904174804688e+00
-7.395945235938616857e-02,-1.001792147936959143e+00,8.776892281250396888e-01,1.175868635857251453e-02,1.755988553927712026e-01,-1.588263537845470419e-02,1.656247496604919434e+00
7.852534400928462555e-02,-1.225991333063146227e+00,7.459490911296702276e-01,1.120401197388953135e-01,2.343241258459217713e-01,-1.051092499333769609e-01,1.803721070289611816e+00
-7.457597955553181557e-03,-9.564508648395122492e-01,7.855286667248942978e-01,9.209684644569286066e-03,-4.459840457352996779e-02,-6.622843901295899678e-03,1.512715101242065430e+00
7.492336661588912261e-02,-9.420291211181477387e-01,6.543227302411673829e-01,1.134447215980402719e-02,-7.848704659161405764e-03,-1.319124606145323335e-02,1.400075197219848633e+00
-1.203908580091991865e-03,-9.443730716617172449e-01,7.489988968163463490e-01,1.120017784898828112e-02,-4.087555381708440211e-02,1.377081178223699652e-02,1.471699118614196777e+00
-1.771274624999490815e-02,-9.693879442101145383e-01,8.532544976052118813e-01,9.448561100871449500e-03,-2.344797388668036150e-02,-6.692048786341664446e-03,1.579619884490966797e+00
7.262370273412951938e-02,-9.230074883487631165e-01,5.902263338908906309e-01,3.879784960079337049e-03,-6.604901568516942378e-02,8.781938681300869437e-03,1.337123513221740723e+00
8.815674740577872370e-03,-9.663114761773174965e-01,8.101672657944822831e-01,2.129290424453539473e-04,2.580681370512140534e-03,-1.221111977929928254e-02,1.541079044342041016e+00
-1.234759174913966501e-02,-9.700334087134370176e-01,8.106297674027742595e-01,1.846842873127029633e-02,-6.471555925941506471e-02,3.223534015615738685e-02,1.548971414566040039e+00
-1.545768148469107983e-02,-9.648502059649908258e-01,8.650434366480224124e-01,9.708246639752513354e-03,2.158549145929004615e-04,1.743404424515795914e-02,1.585485458374023438e+00
-4.151247576109790699e-02,-9.019907589268725268e-01,8.345931785845706052e-01,1.313582639004766840e-03,-8.066740038804890919e-03,9.534909988195573380e-03,1.504103422164916992e+00
-1.317589041473446465e-01,-2.570809487962706918e-01,7.897283582050159678e-01,7.449031601430411431e-02,-6.847702774243892565e-02,2.511891020999657692e-02,1.006446003913879395e+00
1.987731692487186216e-02,-9.528937975887479261e-01,9.375353449037653331e-01,1.027388094938306261e-02,5.476512618772574198e-03,2.108837953391651775e-03,1.637519836425781250e+00
-1.822983081426737470e-02,-9.783564397261188539e-01,9.571267563666928657e-01,1.883083579335638729e-03,1.337091803738481299e-02,5.087889548590970347e-03,1.676381230354309082e+00
1.129414074162116421e-01,-1.262093961774639173e+00,8.173320647300770236e-01,-1.067487197606928617e-01,4.395214907346393640e-01,1.691169244944666361e-01,2.013696908950805664e+00
-7.993657561681266621e-02,-9.857505416625509387e-01,9.560360135101337864e-01,-2.660950988472744229e-03,4.648151715736628664e-02,-2.373282832899976415e-03,1.684831261634826660e+00
-3.687022640440457133e-02,-9.563289974513441427e-01,9.650989415978810104e-01,-3.137933188687743596e-02,4.616490454181020747e-02,-3.434829642441160347e-02,1.668383359909057617e+00
1.125071982053852254e-01,-1.098779183169814821e+00,6.117026795722232402e-01,-6.120013167432131196e-02,4.815954461521912977e-01,4.997325423573410232e-04,1.740149140357971191e+00
-7.460102421420422569e-02,-9.691602323803670815e-01,9.259181258117146207e-01,-2.488583078554726033e-03,7.500922280961252672e-03,1.611014726020697360e-03,1.642100334167480469e+00
7.448102843454987299e-02,-9.435773860857543660e-01,6.570770029995403050e-01,-8.231434255378462447e-03,-2.111436167173367726e-02,1.786480268176521280e-02,1.404092550277709961e+00
-5.986518327850449267e-02,-9.863818769996898217e-01,9.588384926925389573e-01,5.737720868180693108e-03,-5.708832717651940100e-03,7.592654545252023983e-03,1.685350298881530762e+00
-1.811432981972940434e-04,-9.807696288610415758e-01,9.618399895816762690e-01,-9.650926859672767102e-05,-5.591567395392165601e-03,3.316921322349888988e-03,1.682412624359130859e+00
-5.280791047317311138e-02,-9.902717000206341380e-01,9.650168402124205125e-01,-8.201051613055903786e-03,4.306162924610080871e-03,-7.973599803021862165e-03,1.693938493728637695e+00
-5.424278975582078055e-02,-9.796439905419511707e-01,9.313451780196113639e-01,-1.294574636902137005e-02,-1.786873622410163273e-02,1.287399624896292749e-03,1.655681371688842773e+00
-4.628827299524707062e-02,-9.920282243980780290e-01,9.716595166571312392e-01,-7.349817030993617203e-03,-9.710476488761995290e-03,-8.859605911772155604e-03,1.701186656951904297e+00
-7.096521838916644564e-02,-9.856865962710893436e-01,9.521043175560045535e-01,7.540630586571883502e-03,-2.474180843254510098e-02,1.049433543389512429e-03,1.679648876190185547e+00
-7.577017278013548074e-02,-9.932145457080775452e-01,9.791911458284524583e-01,3.979788137848366131e-03,-1.996254976390502561e-02,3.099667698289199644e-04,1.709900379180908203e+00
-8.862372257690459554e-02,-9.911034113933564482e-01,9.825818715625094235e-01,-2.650315042698575020e-03,-3.295321303108504629e-02,-1.342081807635908675e-02,1.712457776069641113e+00
-8.526455568565577403e-02,-9.726123443767392684e-01,9.449414304812692178e-01,2.663923259322315690e-04,-1.679961352054062940e-02,-3.916542510322010631e-03,1.662454366683959961e+00
-6.917946233035712766e-02,-9.676864471793675815e-01,9.227262091395876942e-01,-2.798974669268337011e-03,-2.217311307853587349e-02,-4.665767352794490154e-03,1.638288617134094238e+00
2.994250118636664071e-02,-9.854167855628161998e-01,8.238585465251004880e-01,1.078888002407556168e-01,-3.622819172227543794e-01,-8.132203058401374363e-02,1.707592368125915527e+00
1.533547829861078848e-02,-9.439857045898838450e-01,7.188479475437824506e-01,1.043491527818094476e-03,-4.777090602565768618e-02,-5.280712142631089571e-04,1.448092460632324219e+00
-4.183684408592223958e-02,-1.049912580735909318e+00,9.367809121937320516e-01,2.401460892736384869e-02,-1.025484672457464969e-01,2.396567631257567887e-02,1.730731606483459473e+00
-6.943391881999626258e-03,-1.077811683680217625e+00,8.957588281495280080e-01,-7.909968650027775217e-02,-1.550651200082245607e-01,1.061458470746671351e-01,1.747287034988403320e+00
-3.307557010280573473e-02,-1.227437310155432559e+00,1.125282167243532916e+00,1.073239607936293250e-01,-2.021474168156077722e-01,6.952685861881142959e-02,2.079288005828857422e+00
-4.399425636953357976e-02,-1.000712999891408161e+00,9.751039280774643769e-01,1.022986686388516891e-02,-1.028711974094830353e-02,9.497483998949750317e-03,1.711655378341674805e+00
-3.351661124603049630e-02,-9.270490504000843401e-01,9.326263859445802495e-01,-1.988087215000076697e-03,-1.971463588871614353e-02,1.785217456357034854e-02,1.611597537994384766e+00
-4.752218197215575535e-02,-1.043760334595794204e+00,1.070941837182666001e+00,-2.266785419403010704e-01,6.507336608440246473e-02,3.273324616545873061e-02,1.878237485885620117e+00
3.911797940527959871e-02,-9.524301014752388772e-01,9.485424095618858464e-01,-1.106417708883703221e-01,-2.102482903368970910e-03,1.557001605802098461e-02,1.658138632774353027e+00
-3.459864562222684375e-02,-9.275170811417658978e-01,9.277020988100030952e-01,-2.789263389509106378e-02,-1.128854376901628452e-02,1.849156506790758381e-02,1.608205318450927734e+00
-5.356427362341778520e-02,-9.971615614288792395e-01,1.013392284357917283e+00,-1.114305340992822191e-01,2.616156353690362452e-02,1.195875496946796901e-01,1.765717029571533203e+00
-1.405031600515889156e-01,-9.911986957034790713e-01,1.325073584584714137e+00,4.203888481558460954e-01,2.527095982562469478e-01,2.142331339185709824e-03,2.200031518936157227e+00
-2.479528329795067064e-03,-9.801280219805462712e-01,9.623020281510711316e-01,9.322872889855327288e-04,7.059045591667785849e-03,6.521070380553400762e-03,1.682289242744445801e+00
7.645146579831839026e-03,-9.901128261501691563e-01,9.715683381285898923e-01,1.720031156111300613e-02,-7.940681024484896530e-03,-5.264344005933003015e-03,1.699291229248046875e+00
-1.620046577827089634e-02,-9.082571702721887741e-01,9.799073146338082019e-01,8.571703966815392983e-02,-3.399085992033908099e-02,-2.140328073113366425e-02,1.644221186637878418e+00
-4.573596822818165597e-02,-1.035175004719826264e+00,1.050393166794290067e+00,-5.312946619684239501e-03,8.369629413425744985e-03,1.305756167490687916e-02,1.807165741920471191e+00
-7.292303447973572106e-02,-1.039014032035227020e+00,1.000301752357870555e+00,1.405938980962765251e-03,7.310775326166799037e-02,-7.480723158201577593e-03,1.771492004394531250e+00
-6.516705159032502859e-02,-7.916779749823998902e-01,9.069750409898170718e-01,1.848932631119266229e-02,3.023465775095292296e-02,1.974562297978517747e-03,1.477474212646484375e+00
-5.102820429867364199e-02,-7.165219874514121567e-01,8.888206765466464265e-01,5.895942921185649138e-02,-2.227665322645619103e-02,-3.460805599187121578e-02,1.402559041976928711e+00
-1.844646920020603931e-02,-9.543648311435350973e-01,9.494718925504421758e-01,-7.053090134424172021e-03,1.517278160462656386e-02,-9.354265150009175717e-03,1.649182796478271484e+00
-4.583823898933041957e-02,-6.902073210389526592e-01,8.784717039600651312e-01,8.299937446501863547e-02,-6.039328168274069215e-03,1.107997302778769740e-02,1.373426914215087891e+00
1.516207444889520750e-01,-1.160434430084762880e+00,5.949874008116359247e-01,-2.347128093397120654e-02,-2.477818126116018704e-02,-4.458823937579852945e-03,1.582194209098815918e+00
-4.266246961632281370e-02,-5.118769985892349661e-01,5.142664887315818723e-01,2.325295036456385134e-01,1.609437294172885446e-01,-1.147379067112030693e-01,1.034922361373901367e+00
-2.110043386302441065e-02,-9.588196305107763440e-01,8.819439268807155452e-01,-3.492936101172656061e-04,1.867228754738126800e-02,2.324229466609702144e-02,1.595078468322753906e+00
-8.034946703592280026e-02,-6.928008821948610230e-01,9.405771725041262021e-01,3.109642412451038562e-01,4.001342655793476144e-01,-1.368216626281587578e-02,1.677389621734619141e+00
-4.354157436204066089e-02,-9.795829667287661024e-01,9.231886815768891585e-01,5.212388891960964598e-04,-1.375503574804837550e-02,3.346700656577027751e-03,1.648102641105651855e+00
-2.987295828496526473e-02,-9.847380043730794563e-01,9.259895026283232466e-01,-5.118704997329540096e-03,-9.046105805631086830e-04,-7.708277561187897725e-03,1.654816985130310059e+00
-3.604134780770137936e-03,-9.319302374961280222e-01,6.877821176024093708e-01,-3.663340868740569455e-04,7.128439057082090746e-02,4.011981521510027404e-03,1.413127541542053223e+00
4.021642234551149886e-01,-1.620881199335765688e+00,3.896883362408316009e-01,2.101467182623593666e-01,-1.303187296981934973e-01,-1.595899969201876878e-01,2.080257177352905273e+00
-2.940474943665010582e-02,-9.884560742997925420e-01,9.319118743867086385e-01,-6.523962677425119809e-03,1.076594828543199055e-03,1.204309872437529317e-03,1.663128614425659180e+00
-4.575489078393994713e-02,-9.822202128417598654e-01,9.436058185649770502e-01,-8.730407570450831461e-03,-3.845151030702437939e-02,4.850564915627138263e-03,1.669442653656005859e+00
2.421487656304138585e-03,-9.728296018290377711e-01,9.505777068752813141e-01,-1.145799580327738244e-02,4.565086209557514887e-03,1.574941135211201017e-03,1.665913939476013184e+00
-4.107555759408378082e-02,-9.541354956462417825e-01,9.502115072500403326e-01,-2.659662801677121092e-03,1.158597167318487636e-02,5.634992934791445765e-03,1.649834036827087402e+00
-3.349121813557455474e-02,-1.009166569611070763e+00,9.917202684334238683e-01,7.536879814874735198e-03,3.557470520509612918e-03,-1.986290312515738479e-03,1.733059406280517578e+00
-1.503457983373435516e-02,-9.975598211811541605e-01,9.812152353473213573e-01,-9.271175994428268452e-03,2.480310376571723784e-03,-2.177910864233585219e-03,1.713768005371093750e+00
-1.917156745788395344e-01,-1.858878123175874419e-01,8.440909009555128684e-01,-1.751405743487482736e-01,-5.511255156312647174e-02,-7.325292989779814967e-02,1.088175296783447266e+00
1.771036424210645048e-03,-9.581856951717130366e-01,9.448099838678073459e-01,-8.161969423995510398e-03,4.367729390556228733e-03,-1.701402989560696485e-03,1.648144960403442383e+00
-1.021754409972342945e-02,-8.740883276926768586e-01,9.207120762724486651e-01,-2.584658548282810220e-02,-2.061941323034763296e-02,-4.270206100335411335e-03,1.555776357650756836e+00
-3.684960741057743266e-02,-8.678020313172066791e-01,9.335008896459031646e-01,-3.486151160584116150e-03,-2.752087936381894528e-02,1.766415843434665164e-02,1.562569022178649902e+00
2.376735001389273030e-02,-9.943030954117404452e-01,9.721588029623328131e-01,1.468553865529803951e-02,-3.771309361314650541e-03,3.713998172272309738e-03,1.703576922416687012e+00
1.513681721407325945e-02,-1.028026725818279141e+00,1.013761593960094798e+00,6.133646755600280498e-02,-1.719324274273861808e-02,-1.811875980712263079e-02,1.772097229957580566e+00
2.648179699853506902e-02,-9.778662020806004884e-01,9.501840950158364496e-01,7.913528062598630675e-03,-7.133231759489899217e-03,1.925787941907119343e-03,1.670332670211791992e+00
-5.409874313737714213e-02,-1.308833874013214826e+00,1.333458957855709448e+00,4.618191262944549430e-02,4.196003829757146038e-03,2.608047667526337821e-02,2.291110038757324219e+00
1.638939403548007878e-02,-9.429584129074771726e-01,9.431162639193805264e-01,4.367886737634655431e-02,7.277695845612331717e-03,1.358592675200570241e-02,1.635438919067382812e+00
-1.054198480735522858e-01,-6.932684692508049862e-01,9.241311134291601004e-01,1.929917778828724451e-01,1.885059312229273032e-01,-4.627398859466443082e-02,1.495167613029479980e+00
-4.134130228163257481e-02,-9.913109024084912901e-01,9.591430308642717728e-01,-2.480684877466520378e-03,-2.160572067215018634e-03,1.966357038919286804e-03,1.689344525337219238e+00
-3.519857845824785753e-02,-9.841670856980520021e-01,9.533644867189232652e-01,-4.152512482480007032e-03,1.657446044230282550e-03,8.683764397839736915e-03,1.678153634071350098e+00
-6.001722717668533935e-02,-9.813386503963040797e-01,9.440890538222760364e-01,-5.026435131462020194e-03,2.411101922557783769e-03,4.275111250596729841e-03,1.668027400970458984e+00
-4.520543766426737831e-02,-9.906869829759611390e-01,9.579916396428301839e-01,-3.240954758362302526e-03,2.016628604930220409e-03,3.011057594218118430e-03,1.687872886657714844e+00
-4.701783553098899671e-02,-9.957425715086775098e-01,9.613166725802273493e-01,-4.281207106127593240e-03,1.799576540726377516e-02,8.361403684784975143e-03,1.695489645004272461e+00
-3.771091757075919343e-02,-9.551334707152686621e-01,9.228257134841070242e-01,3.929473036746795769e-04,-6.877969198070480426e-03,-1.398279035763350120e-04,1.626546978950500488e+00
-4.397412441600953570e-02,-9.167264065822779973e-01,9.290829750341245141e-01,1.338156815861394136e-02,-2.282166586096276428e-02,-2.770811735354295618e-02,1.600680232048034668e+00
-7.249154265961238464e-02,-9.296986900477004490e-01,9.691193017416644961e-01,3.599140945363198812e-02,-2.301821696040534659e-02,-8.634883882336216732e-02,1.655438780784606934e+00
-3.048680843556163950e-02,-9.760611594840304939e-01,9.142529127096893360e-01,-3.719100172234694746e-03,-4.185310339226651355e-03,-3.608239085041289179e-03,1.637100696563720703e+00
-5.253357525945533124e-02,-9.876848332140235609e-01,9.548220996999197130e-01,8.390939501773216763e-03,-3.851202884569504201e-03,6.571869724254290369e-03,1.682762145996093750e+00
-3.238762570571802890e-02,-9.704166692108245895e-01,9.189899559111667227e-01,-4.711276598014167184e-03,4.389365665787047996e-03,6.941825276310224259e-03,1.636369943618774414e+00
-3.399483905261867223e-02,-9.996918697380487995e-01,9.765011662350799870e-01,5.667007842339154972e-03,1.347945646029287273e-03,5.832373794749959491e-03,1.711639523506164551e+00
7.829995794144933158e-03,-9.091496057744028469e-01,9.263189435290475338e-01,-3.858809684062394080e-02,-1.507335463431579495e-02,4.477806255544136173e-03,1.591200232505798340e+00
1.857639327597144716e-02,-9.460732971857481743e-01,9.360824492614726600e-01,-1.876607025448052274e-02,1.241539382031229231e-02,1.795513160749800507e-03,1.630633950233459473e+00
7.469893559200475874e-03,-9.731044880829053945e-01,9.502453137293218610e-01,-1.399828534660650051e-03,8.546978899897183027e-03,1.592728958137364439e-03,1.665846824645996094e+00
-2.272382094633055433e-02,-9.970367377875681836e-01,9.671942350411093514e-01,-1.106017475641332031e-03,-6.258340146199261721e-04,2.082966071592674828e-03,1.701097011566162109e+00
1.691296336811539541e-02,-9.706743115965698054e-01,9.484927361571988680e-01,-1.314564644029373938e-02,1.785684670381752770e-02,-3.679927313708046457e-03,1.662739157676696777e+00
-9.960575165756536259e-04,-9.894622760695681585e-01,9.581456147133770029e-01,-3.972798559766133226e-03,-5.040311579225728589e-04,3.270168926653421911e-03,1.686765432357788086e+00
-1.448986367944272297e-02,-9.859793118890839425e-01,9.595532619181290634e-01,-1.991759304609798820e-03,6.110756558243293779e-03,-2.133744266099634000e-03,1.684921979904174805e+00
1.635010678214875862e-02,-9.654039852853725234e-01,9.466451842417836771e-01,-1.146077966945739830e-02,1.796963827806901531e-02,-7.071825857406130802e-03,1.656539678573608398e+00
-2.531811127720239030e-03,-9.858146378590681991e-01,9.570211884163727367e-01,-4.558797880859951669e-03,1.538731672237658721e-02,-5.031694933460673959e-03,1.682839155197143555e+00
-3.230399559707022167e-02,-9.938233890857625097e-01,9.599721019755282914e-01,-6.456740401844219233e-04,5.717662582025161665e-03,3.301421121009698485e-03,1.692145466804504395e+00
-1.140377460234317381e-03,-9.729523920079876653e-01,9.527677487416441604e-01,-5.555996806998033180e-03,7.017368372441504243e-03,1.576416529034743936e-03,1.667820930480957031e+00
-1.023087231758835862e-02,-9.804981597553164008e-01,9.644145221755066055e-01,6.300810911080299750e-04,8.259289984960494629e-03,3.319318103132960535e-04,1.684406399726867676e+00
2.745335229847522748e-03,-1.009848390262338746e+00,9.903406362405198227e-01,5.120457181715537282e-04,-1.559461219030970061e-03,4.804457494596258739e-03,1.732281923294067383e+00
-6.339477690254390063e-02,-1.522099661668724568e+00,1.538409699504836414e+00,-5.156050036581444340e-02,-1.889390196443341274e-01,1.138932774738338205e-01,2.680325031280517578e+00
-7.656396514121727170e-02,-9.142128258379166317e-01,9.711641375744077820e-01,-3.412493504679812717e-01,1.644978530820131735e-01,1.561984707976193654e-01,1.783464074134826660e+00
-4.017912433612622070e-02,-1.711869283019098686e+00,1.639439252677649117e+00,-3.206970053627566375e-01,-2.040382542217818868e-02,-9.357643127402490157e-02,2.959649562835693359e+00
-6.361517046198246483e-02,-1.021492539403229705e+00,1.020160980930088668e+00,4.048336420857990420e-03,-2.197929300610778139e-02,-2.211921082890488683e-03,1.769671559333801270e+00
-1.121332133811691056e-01,-5.843631150511041650e-01,1.032114238711673737e+00,-2.489489319999081407e-01,-6.104297080255455948e-02,8.197745935767994374e-02,1.513247370719909668e+00
1.799105809382174626e-03,-1.065122049777245561e+00,1.095222835517561721e+00,-2.877092457083810229e-02,2.593563067170945660e-02,-5.137031688122753459e-03,1.872184157371520996e+00
-6.021769482237289764e-03,-9.302181827627974409e-01,9.442203024545003931e-01,-3.379916224213995457e-02,-2.759926901001127572e-02,2.136030139569077002e-02,1.625543117523193359e+00
5.086498602271756833e-03,-9.539693202556811524e-01,9.945939817562954310e-01,-5.141519699981757230e-02,-3.616883515047923789e-04,-1.000726663451445793e-05,1.689922213554382324e+00
9.664917128793052911e-03,-9.828802730936874177e-01,9.691883791114038749e-01,-2.087578457510415320e-02,-4.743406034213025133e-03,2.974987520431734284e-03,1.691036105155944824e+00
-6.732683616489101852e-02,-9.262224818877332622e-01,1.140144006182824077e+00,-2.950955867494918783e-01,-1.035284246421838347e-02,-8.738577622630891439e-02,1.875434279441833496e+00
-3.725757117298091059e-02,-9.930647445094897829e-01,9.651651496964316346e-01,3.291844997613064573e-03,7.862343207099470321e-03,-6.884307077147774814e-04,1.696101665496826172e+00
2.435155740247545164e-04,-1.061706562461894654e+00,1.143613912024184831e+00,-1.402369970846326641e-01,-3.298771806473423801e-02,-7.186440936696051121e-03,1.926565527915954590e+00
3.401962410532465009e-02,-9.593996033885112684e-01,6.892302752904769791e-01,-1.491210087785679039e-01,2.125810994589906466e-01,5.492509797997487120e-02,1.509442090988159180e+00
4.014155005534883469e-02,-9.557315233294918499e-01,7.155281263385713242e-01,5.854880986293359291e-03,4.625122715742713275e-02,-3.048539480224545656e-02,1.459389567375183105e+00
3.921927219982264401e-02,-1.013541304524597120e+00,7.316471797788095532e-01,-2.804858188131025276e-01,3.713665459780596256e-01,5.617814996445444353e-02,1.725093126296997070e+00
1.279111394090568232e-01,-1.185592850193699199e+00,7.770343886033651559e-01,1.238648327523132753e-01,5.139426265051360021e-01,1.763747200447003116e-01,1.982685685157775879e+00
-3.171498381727293203e-02,-9.959472508864763984e-01,9.632525932367562715e-01,-2.455237168847765718e-04,1.335175993569082771e-03,-3.429831189772934502e-04,1.696788191795349121e+00
-5.533202304949044747e-02,-1.020315137824698182e+00,9.650505546822474301e-01,-5.397867319142121700e-02,2.679875612880119329e-01,-4.882629074771871469e-02,1.785600781440734863e+00
-3.252613611124059723e-02,-9.611891169262183343e-01,8.684703000277520513e-01,2.520662641578849845e-03,3.321429722184190275e-02,-6.995973651216588632e-04,1.585642337799072266e+00
-1.612801280565942519e-02,-9.726526430778217325e-01,8.536032449450060566e-01,1.702555517818014202e-02,4.850223942269995397e-03,1.868631706573975135e-02,1.582807302474975586e+00
-2.836908216294626792e-02,-5.666785163957637206e-01,4.794281553847783428e-01,-1.774061939923823605e-01,1.193584633005688317e-01,1.049720290200681083e-01,9.955916404724121094e-01
1.159966233838755079e-02,-9.659016634212768126e-01,8.031990801928806656e-01,4.393430489544448525e-04,1.652583521970816746e-02,2.767313150657794291e-02,1.535918354988098145e+00
-8.319482227697969079e-02,-7.638345151992173010e-01,8.994026928697083090e-01,-1.593124363802443265e-03,-2.396467849751171900e-02,-3.901789052472166494e-03,1.448909759521484375e+00
3.608967330451751110e-02,-9.729048688692192304e-01,7.416234542918367367e-01,-9.483020072944752660e-03,-3.652442506974391823e-02,-4.711275923824290168e-02,1.496214628219604492e+00
4.044284686663578154e-02,-9.481218574851199010e-01,7.169418844006137936e-01,1.503536034311532543e-02,-2.210349240864427703e-03,-4.957791362572894212e-02,1.453183054924011230e+00
-7.311300844702195434e-02,-9.109233154913777275e-01,9.768072570282089195e-01,-1.489641932755873810e-02,-2.709143100557615674e-02,1.772455068182961571e-02,1.639421463012695312e+00
-3.407845370536412288e-02,-9.808256727144403220e-01,9.549126428804252109e-01,-1.408038231595603457e-02,-5.521908345984796219e-03,-7.719811481767911189e-03,1.676789522171020508e+00
4.852449725181573470e-02,-1.079156655853035884e+00,7.969191747703945339e-01,6.542868697684806056e-02,-2.024260947255100973e-01,-7.125991080583130022e-02,1.681283950805664062e+00
-1.739819168988069459e-02,-9.578004836820041001e-01,8.135110215986952609e-01,-8.483523976761537730e-03,7.068101351596357829e-02,-1.038611236219894214e-02,1.540026783943176270e+00
1.316318447049948798e-02,-9.325745364105901825e-01,9.355755215918279966e-01,3.002735066441531916e-02,-6.322612946038640679e-03,-4.935422160699765200e-03,1.618802785873413086e+00
6.133275600008536443e-03,-9.666784995465554919e-01,8.068751451165875332e-01,7.468411886620856047e-03,-7.729398939625514720e-03,-1.334350462776885682e-02,1.538636445999145508e+00
-5.496194301814177896e-02,-9.312146721556598949e-01,9.436751344808648190e-01,2.600200374957837342e-03,-1.439542155638503032e-02,1.104832400023739863e-02,1.625165104866027832e+00
-3.147860010442194573e-02,-9.660355743567289322e-01,9.464782758714144206e-01,8.361712855994810067e-03,6.336584259256457588e-03,1.911402579024393950e-02,1.656858205795288086e+00
7.640590047191272993e-02,-7.114163587264099586e-01,2.625846706852636991e-01,8.121765269078298766e-02,1.279349022424732252e-01,1.047151594075220772e-02,9.333928227424621582e-01
4.779685102828105936e-02,-9.530919677085849528e-01,6.937519479884161067e-01,-1.738155974594544515e-03,2.156610277928177211e-03,5.149996736263147412e-02,1.439980983734130859e+00
-1.421965579132560692e-02,-1.059168730404424386e+00,8.816162941348977267e-01,3.672444420176936009e-02,1.321695018442764769e-01,3.531879898804680257e-02,1.700217127799987793e+00
8.445738439089801874e-02,-7.964916582055012739e-01,3.394995545065421227e-01,-1.314516165518906654e-01,2.411141085557638175e-01,6.636583736605719541e-02,1.142478346824645996e+00
-5.126186329088053273e-03,-9.518845939988671567e-01,7.865239204221131653e-01,7.878317732369476828e-03,4.243517554483904747e-02,9.738860613720591933e-03,1.509448766708374023e+00
-8.505403528315791384e-02,-9.722197745827398929e-01,9.513950438027882761e-01,1.039872303563742998e-03,1.221143404009847507e-02,3.094914698537861494e-04,1.667705774307250977e+00
-7.228646885988138093e-02,-9.971616663725956231e-01,9.661865029883778266e-01,1.170313064281251758e-02,3.273517388245213156e-02,-1.696549881378400099e-02,1.702576637268066406e+00
-7.267547145138297804e-02,-9.696530626298761613e-01,9.235678369758332229e-01,5.143519878492211310e-03,5.684320255833644284e-04,-3.795615395134474199e-03,1.640366077423095703e+00
-7.889289200102184152e-02,-9.645530612837340811e-01,9.190364475203166572e-01,6.754245486454191249e-04,-2.213519336945797707e-04,-5.350651528384488612e-04,1.632202625274658203e+00
-7.938211519467297528e-02,-9.650915897666255683e-01,9.263205305672499446e-01,-3.070375270338917563e-04,4.166586540902562225e-03,-5.097326541839268012e-04,1.639125585556030273e+00
-4.453818695799836164e-02,-9.412415050058463573e-01,8.015034676016005166e-01,6.335082558798249552e-03,4.823845584046741047e-02,6.280643276635155788e-05,1.511824369430541992e+00
-7.175546926923102864e-02,-9.610221235355898006e-01,9.021800777013206929e-01,3.145407011376622538e-03,2.083279715372145235e-02,2.327752819770030060e-04,1.614548206329345703e+00
-3.664349660911141171e-02,-9.731582090187107514e-01,8.912214845047262690e-01,-7.701018616095417317e-03,7.567252413924975898e-03,3.333028657749289095e-03,1.614724636077880859e+00
1.981191600240433948e-03,-9.527019390589039904e-01,7.438333722296277539e-01,1.468657533160947111e-02,5.493360470036150883e-02,-2.359151811323002487e-02,1.476945519447326660e+00
-2.230585860891319896e-02,-9.937008846011751162e-01,9.679690630531917472e-01,1.374378075796498953e-03,-4.939903815057055531e-03,-4.088156609047663773e-03,1.698920249938964844e+00
-3.675383012673549832e-02,-9.921353131857545415e-01,9.658816774163546670e-01,1.008903855955631430e-02,1.119630428388874131e-02,1.242831209211578761e-02,1.696194529533386230e+00
-3.890199219041442363e-02,-9.871994006506634722e-01,9.323930032837982607e-01,-8.412880939501668053e-04,-8.265496424627493538e-03,-1.886493575914554915e-03,1.662521004676818848e+00
-5.527479463122407510e-02,-7.322656982269505344e-01,8.758864316893443247e-01,-4.560886073636084836e-02,2.085871072437456286e-02,-2.891085125017509028e-02,1.402076601982116699e+00
-3.306882126006646661e-02,-9.952686786632902738e-01,9.674580956302532009e-01,2.186838106565241416e-03,2.745730655088065436e-03,4.358509099107495642e-03,1.699906945228576660e+00
-3.683364222520592313e-02,-9.807857966445150399e-01,9.466728196414417873e-01,6.636333343288646977e-03,1.070486381197041648e-02,-4.916523400859604091e-03,1.669509530067443848e+00
-5.407503551888226401e-02,-7.715333702097060264e-01,8.978996702197520330e-01,-5.593617611472328360e-02,1.298579482640797693e-02,-1.053290993343295769e-02,1.454039096832275391e+00
-3.168895618061433328e-02,-9.907073428309000063e-01,9.636548876287968080e-01,2.534175529722916629e-03,8.417540158328655139e-03,-2.777633625215905795e-03,1.692700147628784180e+00
-4.623753962670142104e-02,-9.671283393183852661e-01,9.345220613231040030e-01,1.338787809961761209e-03,1.673664576960234526e-04,-8.499574062977802852e-03,1.647217035293579102e+00
-4.897677012053132384e-02,-9.328761032300404432e-01,9.428629919009772209e-01,-8.677928714972740418e-03,3.175979039812784361e-03,1.509501413712458287e-03,1.625414967536926270e+00
3.348797249113696917e-02,-1.205805586142750574e+00,8.049391261710031609e-01,3.453376812745319602e-01,3.535762159728796372e-01,-1.975434635535016081e-01,1.984170556068420410e+00
3.652978935984560471e-02,-1.091181851696049865e+00,7.947985182479910815e-01,6.428584199669595822e-02,1.008618951403843916e-01,1.092664057173853287e-01,1.667497634887695312e+00
-7.106513577253148473e-02,-5.427038185214302368e-01,6.991535019593950739e-01,3.057415480742094460e-01,2.884210896677514291e-01,1.000493753150170362e-01,1.318699479103088379e+00
-3.258296216322215111e-02,-9.940300952024468950e-01,9.448566416522101719e-01,6.989953392020267081e-04,4.337957289456214130e-03,1.244712867453856607e-03,1.679162859916687012e+00
6.331316903614588043e-02,-9.028981303432295213e-01,5.609618557961036922e-01,1.154711059479348739e-01,3.455394612434275481e-01,4.546341424736942416e-02,1.437513947486877441e+00
8.320273281993029180e-02,-1.049990492081974702e+00,6.998349453902628081e-01,1.621357461911855369e-01,4.636333495785488479e-01,1.384508568070903257e-03,1.756947040557861328e+00
-1.306394657413856575e-01,-5.501376382233365003e-01,8.813435143635559577e-01,1.049728932110524787e-01,-2.555017612124980617e-02,-9.575724184827252849e-02,1.298898816108703613e+00
-2.809910604296224010e-02,-8.990142302059005441e-01,9.281854918675778165e-01,3.798210221694713756e-02,-7.298634632770235539e-03,-2.456174181801943496e-03,1.584399580955505371e+00
-3.072298747674331865e-02,-8.889735900182346162e-01,9.388075678353026143e-01,1.097139606772325540e-02,-2.324162629766683003e-02,-2.410103844919517235e-02,1.585057735443115234e+00
1.076804816341067790e-02,-9.193694508972689583e-01,9.298614462890298915e-01,4.766196026590886065e-04,-1.391296835534159247e-02,-4.548825942505245988e-03,1.601691365242004395e+00
-5.137993356009744675e-03,-9.726582062408101192e-01,9.540121858012299283e-01,4.631240617302725419e-06,3.067503955325700778e-04,7.779261115606423728e-03,1.668605208396911621e+00
-7.077429654659476987e-02,-1.029042610651512035e+00,1.039998214342559901e+00,-1.149575117003970304e-02,3.972115615380170800e-02,2.766483926746997682e-02,1.795532703399658203e+00
1.071231402638449064e-02,-9.714444475346490915e-01,9.515410625788138788e-01,3.167938802816382821e-02,-2.048191249222911826e-03,2.809387008378183125e-03,1.666396975517272949e+00
2.539206532547513134e-02,-9.492009763178604898e-01,9.598556705966205804e-01,5.337972526668694623e-02,-4.522843421942696410e-03,-5.780659763427698286e-03,1.656045079231262207e+00
1.436534433961941803e-02,-7.774858660336456673e-01,8.935483609143903827e-01,1.115018482215042323e-01,-4.205904699670945206e-03,-5.385451517445020292e-03,1.460688591003417969e+00
-7.241900594013145342e-02,-9.918146222968466930e-01,9.771128885880998594e-01,-7.302452829130287940e-03,1.486134357310376491e-02,1.198720323234230695e-02,1.706749558448791504e+00
2.080875753727951666e-02,-9.734042742313636642e-01,9.540787718997257860e-01,8.408240255238395508e-03,4.376229631636198783e-03,5.713545651859975498e-04,1.669608354568481445e+00
-3.766402547832900863e-03,-1.003790065733467074e+00,9.862179914183637486e-01,3.826600355112762426e-03,3.730538059623819160e-03,5.029157656855025478e-03,1.723451733589172363e+00
-1.109565557213833820e-01,-6.853163615748378845e-01,9.964127988223603349e-01,1.124639680915589801e-01,-1.838011838469737549e-02,-1.213504631614445717e-01,1.508416414260864258e+00
-7.249516659745276759e-02,-5.747714434815272000e-01,8.914712463770664286e-01,1.830021443120633251e-01,-7.378596972914106336e-03,-1.102546337163238556e-02,1.329167962074279785e+00
-1.396964244380355935e-01,-5.612399909291229116e-01,8.651797197307075082e-01,6.038258366761610485e-02,-1.558086007640183471e-02,-5.628654089122696325e-02,1.277593493461608887e+00
-1.960612076047333618e-01,-2.027542962902326995e-01,1.028696498067583454e+00,1.940527430475998127e-02,-1.076160639920834133e-01,6.561712811475720053e-02,1.247823596000671387e+00
-2.279559234878119622e-01,-4.413608386353406465e-01,1.382450237191581444e+00,2.541624589794682643e-01,-8.675466535098803889e-02,4.940596975060415619e-02,1.790618896484375000e+00
-6.381802247558661378e-02,-7.952755958858011009e-01,9.138034231709516453e-01,-2.592172902971399961e-02,-2.558936496312467709e-02,-5.164880726752377194e-03,1.486580848693847656e+00
-1.698966307054609048e-01,-2.775008353696497565e-01,8.099031792562327858e-01,-3.055921595759563125e-01,1.340429001490029970e-01,-2.490405677347734201e-02,1.188671469688415527e+00
-1.407507070575021446e-01,-5.485673104466228800e-01,8.625846917313979567e-01,-5.624369018578068147e-02,2.589711221615535047e-02,-1.785740184331511063e-02,1.262787342071533203e+00
-3.200142203998720958e-02,-8.076623717241500078e-01,9.059191376936968076e-01,-5.989429161669999543e-03,-2.596035437446920363e-02,1.530795668725330391e-02,1.487173676490783691e+00
1.689843603086681190e-02,-9.605287427418107704e-01,9.442434859042068140e-01,-9.792316284494704398e-03,-1.371748621341356729e-02,1.021642255743246928e-02,1.650124311447143555e+00
-1.337495679454932807e-01,-6.844944711107511237e-01,8.976616856519579191e-01,4.730371163171755156e-02,1.878766680295248332e-03,3.249187820626379258e-02,1.394655585289001465e+00
-1.576089238681016025e-01,-3.708426400351084173e-01,8.166658562977526792e-01,-1.967661072855037691e-02,1.004329031803023395e-02,3.647816737717546332e-02,1.099037885665893555e+00
-2.364087669615371756e-01,-3.296659070363429089e-01,9.245045090595134241e-01,-3.597996894387776867e-02,2.186885975753691952e-02,-8.804378268458447343e-02,1.221987485885620117e+00
-1.257089221628566456e-01,-4.245799980991530331e-01,8.861117469716506267e-01,-1.645935535994213494e-01,9.854644091654223351e-03,7.066586471094204146e-03,1.223610758781433105e+00
-2.788376763778924877e-02,-1.014810978828474708e+00,9.937305974892952642e-01,-4.027831858361703710e-03,-1.179389894762542142e-02,-8.632159277231781294e-03,1.739732623100280762e+00
-1.174122761132705417e-01,-6.472896765437063937e-01,8.858077488457527515e-01,4.896766773497038955e-02,-1.919230272956364350e-02,-5.421245065691250933e-03,1.351736187934875488e+00
-2.270815608141281139e-01,-1.920675679837764993e-01,1.227291621005200728e+00,1.297637718221082426e-01,5.987219392785492721e-03,1.409979608450271926e-01,1.475048661231994629e+00
-1.782918278453440031e-01,-1.761143742212612773e-01,7.810181212976867737e-01,1.288379041705231542e-01,9.279401298038641999e-02,1.442169864607000321e-02,9.972187280654907227e-01
-1.649992756258331361e-01,-5.047525328588189364e-01,8.699686959058006153e-01,5.204076199029403910e-02,-2.443197139641837407e-02,-1.356665695888880155e-02,1.244464635848999023e+00
-1.189087083545081053e-01,-6.483593687816894269e-01,9.117435768082707837e-01,7.766090343820686304e-02,-1.682636826064248803e-02,-1.317626025262789713e-01,1.399738907814025879e+00
-2.110642314948539267e-01,-2.003135463923548798e-01,7.817971060105011194e-01,1.374425221730118073e-03,-2.786563349493087829e-02,2.396287211640675541e-02,9.895823001861572266e-01
-1.729326804285069852e-01,-5.410078679362223530e-01,8.589047704813103090e-01,2.258319470538792256e-02,-5.738462245893301110e-03,9.046812235254849885e-03,1.257710576057434082e+00
-2.584908803463092930e-01,-3.950940650859637859e-01,1.405304538190997210e+00,2.263339170725174043e-01,1.575993524085813058e-01,5.508993559402626528e-02,1.803178787231445312e+00
-1.792341983841851394e-01,-5.069225659413567620e-01,8.529697072692676851e-01,4.348636147747925174e-02,-1.949181510856622807e-02,-1.102952717862059132e-02,1.232170343399047852e+00
-1.599288389717694880e-01,-5.530168332699616496e-01,8.655984234748467232e-01,7.256822536738159746e-02,9.182228864552366074e-03,-1.098688766823774539e-02,1.275053024291992188e+00
-1.244789489283841255e-01,-1.636741201143219637e+00,1.735383361652534706e+00,3.453529709522131785e-01,2.804199296284776155e-01,9.033637161596084347e-03,3.025323390960693359e+00
-6.122551252567003111e-02,-9.839128263263112739e-01,9.463452053269186814e-01,-6.777983076732066459e-04,3.911715492372042080e-03,-6.353732157844651151e-04,1.672205686569213867e+00
-4.531943066025835576e-02,-9.850451849028566409e-01,9.417913372913665482e-01,7.093074790569193003e-03,3.901295813367918527e-03,-6.345411854686014907e-04,1.668916821479797363e+00
-3.605781969251899838e-02,-9.901551504595996755e-01,9.565582854733443163e-01,-4.098686521214164533e-03,4.996252072040658666e-03,4.307690863597765651e-03,1.686066985130310059e+00
-3.505219415772892894e-02,-9.948373842508103637e-01,9.606913749069380115e-01,6.202524810888455399e-03,3.916601538964704053e-03,-2.253095694384095460e-04,1.693680763244628906e+00
-4.863409081032753906e-02,-9.956159090506047082e-01,9.652648915197249435e-01,-1.227875516592073389e-03,6.495873177507684865e-03,-1.403699499591415931e-04,1.698540806770324707e+00
-4.571605320798053512e-02,-9.935062608441022070e-01,9.615812217682710994e-01,4.951315465722444520e-03,-1.250904023902889295e-02,1.190539542201231663e-02,1.693702697753906250e+00
-2.642702340626579272e-02,-8.617808048515681607e-01,9.047648588977417194e-01,-9.959784114499385665e-02,2.340761058764839753e-02,-8.690185188198698563e-02,1.548182010650634766e+00
-3.177546378806384714e-02,-1.045529767889783468e+00,8.281874309126923128e-01,2.738897134459051391e-02,-1.986399343857889743e-01,3.602048204672212567e-02,1.662390232086181641e+00
-1.008650061783335078e-01,-1.036998270887700135e+00,1.006802096613984343e+00,2.151806346329394187e-02,1.787151806500040796e-01,2.054926275210064435e-02,1.799630284309387207e+00
-1.687708808081381517e-01,-1.296589507192945412e+00,1.722342567635931854e+00,1.615267587091259449e-01,8.729958930613845869e-02,-5.717241886700308307e-02,2.663092136383056641e+00
-3.813535854177742268e-02,-9.992230119378840980e-01,9.695666795774360303e-01,-9.109520316407998183e-04,-7.150740713757456832e-03,2.592906955091215607e-04,1.705226898193359375e+00
-5.170238523825518989e-02,-9.978103246432517004e-01,9.862555867346731731e-01,6.363304703854410702e-03,-1.131303013621593606e-03,2.025326695818703907e-03,1.718905091285705566e+00
-5.545345172927299698e-02,-9.965480260845176463e-01,9.763756825654561489e-01,-1.361373683144649280e-02,9.642694348759483364e-03,7.131900987002301982e-03,1.709493160247802734e+00
-6.358578896688633908e-02,-9.766421823075230879e-01,9.364857825850920747e-01,1.273247902769698760e-03,4.184019471368756286e-03,3.582211461670519164e-03,1.657417535781860352e+00
-6.346222399501080802e-02,-9.806391883848364355e-01,9.469161024003698301e-01,-7.718477563565901908e-03,1.752791167930561542e-02,8.554356300871533356e-03,1.670357346534729004e+00
-3.699768091184773428e-02,-1.140534798083539636e+00,1.023702128629308428e+00,3.821171671467540887e-02,2.840933588599838799e-01,7.870399274362829822e-02,1.943833947181701660e+00
-1.150907165470645699e-01,-1.140641716307787989e+00,1.200715806406317032e+00,1.147498142642507796e-02,8.741621084470992120e-02,-5.024230849313193747e-03,2.038608312606811523e+00
-5.066085601483185513e-02,-9.664406392977398230e-01,8.649179926337047242e-01,-1.449268696331302772e-02,4.573415895247374442e-03,1.139733990810715483e-02,1.586344361305236816e+00
-2.638520912103222218e-02,-9.707233532143287880e-01,8.606352643899350952e-01,-1.699643472003166400e-02,3.179996239652249364e-04,1.309295865802876692e-02,1.586697340011596680e+00
-3.446752467079604310e-02,-9.763546389464491382e-01,9.020570309949452747e-01,-8.140206929311326334e-03,1.370061101939499572e-02,-4.961980702079002090e-03,1.627011299133300781e+00
-2.539313874590455947e-02,-9.799873206321084718e-01,9.040252980549566830e-01,3.144190353850574715e-02,5.056824547274163528e-02,4.386744550426615458e-03,1.634925365447998047e+00
3.526552679095995568e-01,-1.709822966001059541e+00,3.986238167703876067e-01,-3.001266920013008488e-02,-4.723589110099990496e-02,7.376216208230108179e-03,2.088132619857788086e+00
9.905649071592258215e-02,-9.074332249914588422e-01,5.247785885702009878e-01,7.290612557646103907e-03,-4.388326700581191703e-03,-2.898894825888974781e-03,1.273965597152709961e+00
3.491436667854232179e-02,-9.507596433765120869e-01,7.177240824372864703e-01,2.502221793968887383e-03,-2.595776249842945971e-02,-1.532220560398504100e-02,1.453806996345520020e+00
8.937485130910866049e-02,-9.476123959717217549e-01,5.932700497122422867e-01,2.812928940113859286e-03,-3.391361450779044589e-03,1.963840748285172050e-02,1.361249804496765137e+00
-2.455719901714796885e-02,-1.156872007123883161e+00,1.161932045046450979e+00,6.614589442821233733e-02,8.990444764254380827e-02,-8.074283728156427323e-03,2.017657756805419922e+00
1.874078624868730225e-02,-9.980124885759235065e-01,9.775365012818689747e-01,1.934525279039027088e-02,1.157616783389036350e-03,6.848659667409755063e-03,1.711491346359252930e+00
3.286954438506280440e-01,-1.716552981819404522e+00,5.674400034877487009e-01,-1.944083050164752136e-02,3.221314016252340706e-01,-3.246634249431302743e-01,2.314517498016357422e+00
-9.147521766451630065e-03,-9.421916055494151676e-01,7.503143844284183572e-01,1.553909632889180666e-02,2.949939878514373608e-03,-7.198198605406701256e-02,1.473858833312988281e+00
-3.682250574912758478e-02,-9.817626119188018752e-01,9.508608085465325432e-01,-6.334885576943366514e-03,-3.753324228705227656e-03,9.515189007853308567e-03,1.673967123031616211e+00
-3.350199890949165371e-02,-7.716579548128782440e-01,7.619562510681705536e-01,1.532911096681102148e-01,2.337994979633070680e-01,9.983478647011645446e-02,1.424493670463562012e+00
-4.305729106850095245e-02,-1.076674442161716483e+00,1.062334873036810956e+00,1.030570488296968790e-01,1.363421875948469253e-01,2.238171127342190869e-02,1.876683592796325684e+00
-1.825444976064689029e-01,-5.225874563573130738e-01,9.033537868784109470e-01,2.491984191716863431e-02,1.617714699365838463e-02,2.252470636773329284e-03,1.291015028953552246e+00
-5.030154594140811425e-02,-8.922901049259690520e-01,9.369901315925228680e-01,1.766538317128133959e-02,-2.419924418735133059e-02,-1.096932700054080966e-02,1.586830735206604004e+00
-4.378873343202600854e-02,-9.777357492231246727e-01,9.144501668983069376e-01,-2.361198903660177185e-03,-7.411641394012294859e-04,-6.529977831464551033e-03,1.638770699501037598e+00
-1.033355681126882364e-01,-6.603825651060788449e-01,8.844205117674491801e-01,6.238532403628179249e-03,-2.529241128591680834e-02,-3.098201740229721002e-02,1.356873393058776855e+00
-5.946202689877157221e-02,-8.464005418016777860e-01,8.975079743734830640e-01,-1.265211741738437798e-02,-1.425014187473432059e-02,6.537623145493441298e-03,1.513062477111816406e+00
-6.179151007191967249e-02,-9.310504484573512984e-01,9.543270882718420944e-01,1.188597990995437365e-02,1.256297692249208099e-02,1.602246534160353848e-03,1.634711980819702148e+00
-1.371898121537960813e-01,-7.323857423556896507e-01,9.278129368724288284e-01,3.135034747953144990e-02,-5.757572115127809927e-03,-7.093378769667757489e-02,1.463050603866577148e+00
-1.108765615194267848e-02,-9.807084349719124017e-01,9.607041701393608246e-01,4.078370740076347968e-04,-6.294918171401502408e-03,1.760044227353529988e-03,1.681351304054260254e+00
-3.185074284859152477e-02,-9.876255165213670972e-01,9.307369308640415229e-01,-7.184005486248208616e-03,-5.547481263850794668e-04,4.353380571555620984e-03,1.661418080329895020e+00
2.127992956690188953e-02,-1.084215369253789252e+00,8.746897675210539846e-01,-4.140089957502995910e-02,1.082447299557977860e-01,2.074760063688625353e-02,1.713316440582275391e+00
-6.952487877443251640e-02,-8.601139967746742609e-01,9.160271409505869045e-01,-1.524170704299891536e-02,-1.942372600493367379e-02,1.854228068332634816e-02,1.542196750640869141e+00
-3.587895368399015433e-02,-9.165159336211841090e-01,8.839431231615945128e-01,3.904983077433638733e-02,-3.404761535017871571e-02,-2.834228308706145767e-04,1.561946272850036621e+00
-3.205920371784595074e-02,-9.760247456220501050e-01,9.254711345301647185e-01,-3.934958907999040745e-02,7.060451000148255940e-02,1.130435657400498742e-02,1.652814149856567383e+00
-3.009884846301403433e-02,-9.761210569381528757e-01,9.148662265953716455e-01,3.735631022658859705e-03,-6.143998635664477126e-03,8.724561794080832808e-03,1.637760162353515625e+00
-3.821319929335317833e-02,-9.919048098013960590e-01,9.615633281221416251e-01,2.030350898614208862e-03,2.159726134230779537e-03,-3.055014977439569814e-03,1.691926002502441406e+00
1.238532329602430940e-03,-1.004026739270045487e+00,9.849200152329350422e-01,2.645519488908172449e-03,5.250847052694909527e-03,8.263233761825054466e-03,1.722601771354675293e+00
-4.295180839015435431e-02,-8.832053444715628476e-01,9.337449989152031282e-01,1.828635411587406154e-02,1.624215123211622189e-02,-1.246562596876358946e-02,1.575720906257629395e+00
-8.232030843294550759e-02,-8.102934226218753144e-01,9.348830647356651813e-01,5.002507632754893407e-03,3.116607588139963178e-02,4.924595934314352635e-02,1.521646738052368164e+00
-5.061627723121656097e-02,-9.494663181681723962e-01,9.366298076378718473e-01,3.015353555988015306e-03,3.493127928863560237e-03,1.112791711500722702e-02,1.634138226509094238e+00
-1.480628718650314479e-01,-4.078838724582474207e-01,8.274169727206643898e-01,-7.645441894632654112e-02,-8.955639307682988076e-03,3.925780410980526935e-02,1.137944579124450684e+00
2.300559853844787173e-04,-8.292454826735092821e-01,8.998623459029431171e-01,3.709702279837566452e-02,1.221439121570457031e-02,-6.040349519341584907e-04,1.499389290809631348e+00
-1.623839273638799929e-01,-5.351379850629949253e-01,8.947296176503096721e-01,6.068718541873921457e-02,-7.657811796651045090e-03,1.316613984543253679e-01,1.309086322784423828e+00
-2.163385788939485577e-02,-9.346243845752580937e-01,9.528692348671893297e-01,1.639053769921498122e-02,1.773584666117274805e-02,-2.536930415792088001e-03,1.635447621345520020e+00
-5.026848843112553117e-02,-8.341245726826920226e-01,9.333077526121130729e-01,3.600414444561617078e-02,2.799786814060508527e-02,3.823378987987420541e-02,1.537355184555053711e+00
-3.310402179451945454e-02,-9.989139127066212209e-01,9.762036893732231047e-01,1.473628520423077640e-02,-1.570991430136508757e-02,7.796034926106660678e-05,1.711047053337097168e+00
2.368788264716890912e-03,-8.579202586869330016e-01,6.858173789940537057e-01,2.644278210425540787e-02,-1.114526708630929758e-01,-7.711697944224739365e-02,1.361016631126403809e+00
1.574042089885949181e-02,-9.271666148210833125e-01,6.652427323747150956e-01,1.908550778377371068e-02,-6.655131588786400432e-02,3.601770286371379359e-02,1.393419861793518066e+00
6.202195809591029563e-02,-9.390781232156726333e-01,6.659211791557513305e-01,-8.968869403586123262e-04,6.030376897911787944e-03,-3.484487031882552675e-03,1.404139280319213867e+00
3.307137378661614835e-02,-9.500538567072006613e-01,7.000211034937823262e-01,1.947956821761451240e-02,-6.975489994185321389e-03,3.875571806387374113e-02,1.439736962318420410e+00
6.011022023820088156e-02,-1.082611178899693050e+00,7.163136815868538232e-01,-2.941098596788688929e-02,-1.726782190305090614e-01,-5.974840867274801987e-02,1.609046578407287598e+00
-2.168250354439711092e-01,-2.088616093429502552e-01,8.280571885914976837e-01,-1.624548249274299517e-03,-5.456035204562999924e-03,3.413648821252104198e-02,1.042647838592529297e+00
-1.873172541386514400e-01,-4.351207140470355617e-01,8.543588444700151996e-01,4.458114928379092352e-03,-1.654019939840810274e-03,-3.157101766890472831e-03,1.185210704803466797e+00
-7.263344684569152110e-02,-1.019379610603957209e+00,1.034524582729977382e+00,-2.332041690008322156e-03,-3.281673966298670562e-03,-3.679645865652218795e-03,1.780565619468688965e+00
-4.507141066659868522e-02,-9.831625873987622777e-01,9.150015833711793167e-01,-1.237641223429567124e-02,-2.510387381023176587e-02,-1.191404399649118040e-02,1.644739270210266113e+00
-5.717761989852948590e-02,-1.015619905235221498e+00,9.957205999747070768e-01,1.505496766912267290e-02,-5.597907983234877427e-02,-3.240131576351446864e-03,1.745411396026611328e+00
-4.860045768390786058e-02,-1.035498136713366213e+00,1.033092745669087043e+00,-2.878573077973563526e-03,2.125137658231885697e-03,-4.594374396178128959e-04,1.792090058326721191e+00
-6.246192110580336965e-02,-1.017569338032342507e+00,1.013006916377654498e+00,-7.345205970798210533e-03,-1.525151969218541299e-02,-4.352763978360872296e-03,1.759820461273193359e+00
1.059448265554603086e-01,-1.270827191311581617e+00,7.793259385885837887e-01,3.851569368888975442e-02,-4.277559745287895510e-01,-3.198257940305609254e-02,1.957672119140625000e+00
-8.915451407252474383e-03,-9.936124967802272279e-01,9.640092977483994963e-01,-3.530760132690283215e-03,7.285245437655963642e-03,-3.814384011205404316e-03,1.695431232452392578e+00
-3.269814332607473562e-02,-9.508333405194695498e-01,9.792456993362563811e-01,6.078265526811137826e-02,4.259610695003614167e-02,3.223074013750320405e-02,1.678018808364868164e+00
-5.263049940180437869e-02,-8.227882585963319784e-01,9.480908528125555623e-01,9.308116138062018374e-02,-1.675606383564895788e-02,-4.309867281706264430e-03,1.546670556068420410e+00
-1.669511756074402650e-02,-9.693146933676412003e-01,9.539935558610450617e-01,3.575714557593965594e-03,-1.192949282303873773e-02,5.926959104950057199e-03,1.665829658508300781e+00
3.807536620459107124e-01,-1.573439629868416567e+00,2.955152390205318391e-01,-3.832110397070435104e-01,2.690302491403493423e-01,1.445610661233948380e-01,2.092831134796142578e+00
2.043355849244899713e-01,-1.102995416789256389e+00,2.386147557692535892e-01,-8.888435545099662716e-02,2.895832189569960136e-01,-7.531445827097149603e-02,1.430872797966003418e+00
-5.456959435684110432e-02,-1.308402921352979753e+00,1.178179231412468608e+00,-1.007407088153720320e-01,3.225719320395780687e-01,-2.081883819071513389e-02,2.231890201568603516e+00
1.132847635164987155e-01,-9.357349569599434647e-01,5.315738328640380317e-01,-1.136354478807056166e-02,3.940168256404001645e-02,2.807922216027348636e-02,1.312102079391479492e+00
-5.039121904080114123e-02,-9.579266037240886655e-01,8.347917695307092156e-01,1.250966372414703300e-02,3.536366763501873345e-02,-1.996801621013991838e-03,1.553942561149597168e+00
3.517662290356077248e-02,-1.092139400222791767e+00,6.229866177791155701e-01,-2.598070796829771711e-01,1.756732356453121757e-01,1.417378520411844700e-01,1.623071432113647461e+00
-1.537597986845983672e-02,-1.002461047153350604e+00,1.004936296033033472e+00,-3.333068632712946761e-02,-1.268141544820120155e-02,-7.731945983765101983e-03,1.739684939384460449e+00
3.251950157435375133e-02,-1.096914880476542287e+00,7.349524944940625248e-01,-1.802389350381607483e-02,1.975080768075464510e-01,3.111431957804847159e-02,1.638076066970825195e+00
-1.112657613858483718e-02,-9.938909298937361747e-01,9.661771046082010539e-01,-8.459702940078812905e-03,-1.041378083712902157e-02,6.874021029491095454e-03,1.697671771049499512e+00
-2.178091432938828939e-02,-1.104864361598332456e+00,1.152113666079024323e+00,-1.246298337905642206e-01,3.285354074903031746e-02,7.392294718240559337e-02,1.971992373466491699e+00
3.726543938564484681e-02,-9.795832012009062506e-01,9.541015403304684561e-01,-1.116968486990027945e-02,4.405443835000754510e-03,-2.508852486531963806e-03,1.675501227378845215e+00
-5.164204765678468562e-02,-1.055667896004341966e+00,1.099786031521503116e+00,-9.738058805722418776e-02,-1.386806022725406429e-01,5.661089373674427216e-02,1.893588781356811523e+00
-4.558443356083505260e-03,-1.019090058419764411e+00,1.010061440849167713e+00,-1.727741175913159039e-02,5.981178197923738352e-03,-7.950945377875088052e-03,1.757636070251464844e+00
-2.968043119761631238e-03,-1.002823707478724735e+00,9.888181274087737282e-01,7.699568441271593651e-04,-5.270613498313890533e-03,4.376415100056695387e-03,1.724858522415161133e+00
-5.536817256361428047e-03,-9.445874570523900005e-01,9.552325682317597266e-01,-3.717493796832499475e-02,5.841725359348830075e-03,-1.319772112775115507e-03,1.646620392799377441e+00
-1.508514238406365865e-02,-9.661235040171082256e-01,8.710077700004871248e-01,-9.070947848265285482e-03,-5.500833342358596228e-04,1.575475131469363660e-02,1.591645479202270508e+00
-6.233400716008391518e-03,-9.673007789437930715e-01,8.093634394244376695e-01,-1.087169944507907111e-02,4.331125980348808635e-02,1.326915757170195678e-02,1.542466402053833008e+00
1.874913245590410782e-02,-9.576519009178851016e-01,7.599997421285122901e-01,-1.548818620862190895e-02,1.120403887146959477e-03,4.207509525746047641e-02,1.494189977645874023e+00
-3.659496454419502304e-02,-9.537449875611133665e-01,9.218830820342299726e-01,-1.485490826830280792e-03,-7.287750723438698661e-03,9.902522925554629873e-04,1.624524950981140137e+00
-2.980840740307079406e-02,-9.660229160404457671e-01,9.564117147553674592e-01,-2.361406782151732626e-03,-2.064131282622779645e-02,1.312574082201510518e-03,1.665455341339111328e+00
-6.562478201461094396e-04,-9.685750701120982020e-01,8.255617767984578803e-01,-6.016782118001226878e-03,1.318251857518294712e-02,-1.212502938397103276e-02,1.555726885795593262e+00
-8.040210774983541642e-02,-7.178865905905480460e-01,8.969108340447127237e-01,3.037019648615336270e-02,-2.345485537420480618e-02,-5.373938950144078325e-02,1.413375377655029297e+00
6.247001254263299941e-02,-7.924172421637012409e-01,4.902077388307542472e-01,2.592451695738405837e-01,4.730722832012248524e-01,5.146505554509842734e-02,1.469837307929992676e+00
3.597414104332119500e-04,-9.449610013350540072e-01,7.807611284106996674e-01,7.676780048492271025e-02,1.651167511866898641e-01,7.969535447598422029e-02,1.535874962806701660e+00
2.312898810486452295e-01,-1.269000801610297380e+00,3.830347505677880182e-01,7.383259444055062515e-02,-1.725588320791369285e-02,-1.509784604581879963e-01,1.608474612236022949e+00
-5.491370128815314944e-03,-9.454432289528265088e-01,8.289745527057915675e-01,-1.166653578329723308e-02,6.081856104083118927e-03,2.938828035568191027e-02,1.538606882095336914e+00
-6.916094175146991763e-04,-9.683071083913946664e-01,8.246346703193053740e-01,-1.274485903543247194e-02,6.058192318719460984e-03,-1.531690911441047683e-03,1.554556608200073242e+00
-2.204737587676739718e-01,-2.837767646283251288e-02,8.914900223884064667e-01,-5.572992347957343717e-02,1.617416121943473367e-02,-8.942821641663260823e-03,1.034457683563232422e+00
4.405404809018256818e-02,-9.539810178442053035e-01,6.589927225883536188e-01,9.311902729500162745e-05,1.458623525649236086e-01,-3.566826373914220444e-02,1.433735728263854980e+00
-2.668696077125562796e-02,-9.746102588650095155e-01,8.618978331070223931e-01,1.957862222431339810e-02,4.785964102736209270e-04,-2.100582710005818171e-02,1.591516971588134766e+00
-4.590158425419913618e-02,-1.031312450481833398e+00,1.020888188810149089e+00,-5.445463444602715447e-02,1.254990252824403352e-01,-1.410878945660994088e-02,1.793612122535705566e+00
6.588735834244145717e-02,-9.315764113869650087e-01,5.988056567768410554e-01,1.365607800275918382e-02,6.169493830257861966e-02,-3.768506244298478608e-02,1.351570010185241699e+00
-8.572986555239023310e-02,-9.051281453371992081e-01,9.450124125551792043e-01,-1.171302255068552498e-02,-1.304616041583593969e-02,-4.878663093966253278e-03,1.606058955192565918e+00
2.973212845343456943e-03,-9.797535911161648903e-01,9.623128997394665429e-01,1.162869377114993802e-01,3.219582133142412372e-02,4.017264245723156657e-02,1.696282029151916504e+00
-2.415072502402082488e-02,-1.012400101107874706e+00,1.006407396061013149e+00,1.329830441101930924e-02,-5.450184070249238996e-03,-6.551897987442440417e-03,1.748680591583251953e+00
-1.364109250739264922e-02,-1.214080392543774867e+00,1.217544488465676977e+00,1.569396885298218192e-01,4.417631491827116175e-02,3.442342084803724084e-02,2.125590801239013672e+00
-1.806457449687184219e-02,-9.979232911272498674e-01,1.007303676377819368e+00,4.374412623814397799e-02,2.446344786255515505e-02,1.307807952426401181e-02,1.739042401313781738e+00
-2.835808083674260655e-02,-9.993841244346417518e-01,9.851706695897356481e-01,-3.491357516147876230e-03,1.130897701386621330e-02,8.595050772684648815e-03,1.718992948532104492e+00
-4.042414447387893822e-02,-9.979882426818963426e-01,9.771551964878922858e-01,6.729931391554506460e-03,-2.550501761450346076e-03,2.887908646732014958e-03,1.710840344429016113e+00
-6.695571278138073845e-02,-1.015308495816976686e+00,1.016931464717614420e+00,-1.529472350957527928e-05,4.285466866399331026e-02,2.384689078508584349e-03,1.762843847274780273e+00
-4.043033023441994223e-02,-1.194524847568968040e+00,1.188941240395546828e+00,9.258121472524138973e-02,9.184301733634137044e-02,-2.737732599254969965e-03,2.076810359954833984e+00
-3.256973740273189089e-02,-1.003428910904569982e+00,9.818665943587882028e-01,1.235287075699427993e-02,3.010382714457531667e-02,3.611216874117249495e-03,1.720389246940612793e+00
-5.717075616847218378e-02,-7.643682755593661504e-01,8.984484218450199400e-01,-5.136735387878849091e-02,2.711198249564349128e-02,7.244458157257077646e-03,1.448939681053161621e+00
-1.287006971107694797e-01,-5.741321384404545203e-01,8.563278589845277899e-01,-5.362597224298555620e-02,2.329054840551444266e-02,3.112168074761843643e-03,1.271902799606323242e+00
-8.391532629114074882e-02,-7.212556965343318582e-01,1.006465640509203396e+00,-1.977243191342939466e-01,2.073177921261646142e-02,-5.200998410968616509e-02,1.554595232009887695e+00
-2.412977900705058631e-02,-8.888411915588324552e-01,9.342682328930584923e-01,-1.635473651083938634e-02,2.701757098300645518e-02,-2.607294192001522598e-02,1.581145763397216797e+00
-4.899408537008620446e-02,-9.746074189172311275e-01,9.014502261586014864e-01,1.933385776516632210e-02,-2.945760126040760860e-02,2.122617105476421254e-02,1.626322388648986816e+00
-9.591866010315920968e-03,-9.830392120262223532e-01,9.595659377336962503e-01,2.578066555676120086e-03,5.074596960193446249e-03,5.082895245139110868e-03,1.682398676872253418e+00
-5.337866416774633693e-02,-7.510600978015620210e-01,8.908920538307705250e-01,-8.965650383056537887e-02,1.478804952595631425e-02,-3.090428278920898629e-03,1.435968756675720215e+00
-3.662725015616132007e-02,-8.754980086001170614e-01,9.330023126125223110e-01,-3.149981164885639479e-03,3.128366044451459660e-02,-2.455885443046813138e-02,1.569093585014343262e+00
-2.841756264955058384e-02,-1.090412596608757001e+00,1.097338575032342778e+00,-5.299757434278522250e-02,-4.159030883875550200e-02,3.842962522226217570e-04,1.898505687713623047e+00
-9.557121323802203819e-03,-1.015117313007591004e+00,9.944570476205858434e-01,4.150077282330374637e-03,5.361949990452854684e-03,6.575996704126011155e-04,1.740382671356201172e+00
1.628012895207436167e-02,-9.840215349906549225e-01,7.897599772302311694e-01,-1.228119595666576566e-02,1.791199453107876136e-03,1.004216816929296915e-02,1.540568828582763672e+00
8.632430154135203870e-02,-6.182115869370050643e-01,2.118620731692051617e-01,3.662231215908686582e-02,1.164719886851026676e-01,3.306439339128162264e-02,8.053427338600158691e-01
-1.349971138878210963e-01,-6.698482363187691080e-01,9.059590174485051550e-01,2.549969417708638098e-03,-2.092101337794054303e-03,-7.513902382131162905e-02,1.394052386283874512e+00
-9.214632750247588044e-02,-8.379939163796672474e-01,9.125470731154861070e-01,6.361961424365216757e-03,5.212356270233017841e-03,-2.723605715780555436e-02,1.522325158119201660e+00
-1.396970975263341908e-01,-5.561565951999009050e-01,8.593299164639175425e-01,-4.255840163537343707e-02,6.703701841488660280e-03,2.785617718650607987e-03,1.262196302413940430e+00
-2.828829872754285574e-02,-8.202628430253940950e-01,9.122743594866452588e-01,-5.610555337629637498e-03,2.472046702064421841e-02,-1.455187799468680640e-02,1.503112316131591797e+00
-1.067964497298954513e-02,-7.993679763394737625e-01,9.313410813643976383e-01,-9.315940350699876416e-02,3.208456439188474285e-02,-4.120656925070133314e-02,1.512154579162597656e+00
-1.186319196126511544e-01,-5.711130500114588449e-01,8.760248262607817082e-01,-2.298770533206128119e-01,-8.560305681984374179e-03,-1.352178639017018180e-02,1.342923402786254883e+00
-1.705167963268703901e-01,-4.712427586266165203e-01,8.790025937496350750e-01,-8.046110081800818270e-02,-3.936083874213877620e-02,-1.868061683359101277e-02,1.238007068634033203e+00
-2.168707638368448654e-01,-2.993003739718900214e-01,9.037499587889170627e-01,1.220564524518857321e-03,-3.046574061146652829e-02,-5.905183823216070445e-03,1.165268778800964355e+00
-9.118318483006521147e-02,-7.666511399865588716e-01,1.037506316362053038e+00,-2.393421477930708363e-01,2.191747508975159728e-02,-1.059718692091670966e-01,1.643038630485534668e+00
5.013477455618833845e-02,-6.663212541974343761e-01,3.356874601335188002e-01,1.248958611144438402e-01,-1.567029542446460033e-01,2.323666800340002531e-02,9.599581956863403320e-01
8.219564891271527451e-03,-9.442835866183071358e-01,7.765660590730973922e-01,-1.371722328670611606e-02,-3.552000404010472248e-03,-3.198863580545948521e-02,1.494370460510253906e+00
-2.573694086263949091e-02,-9.491978463695793788e-01,9.107237246544914733e-01,1.600271513665544459e-02,1.221533466797001220e-02,3.307792626076063586e-02,1.612148165702819824e+00
-3.280150179536052424e-02,-9.791446448814656867e-01,8.794551405874875272e-01,-1.764930280974890894e-02,-1.278646259705945240e-02,-2.168847585549005946e-02,1.610565543174743652e+00
3.732887092792274569e-02,-9.570129420845416846e-01,7.358679059428820945e-01,9.497318984196952488e-03,2.723559802243951528e-02,-4.234434102149485513e-02,1.476189017295837402e+00
2.697810299048749583e-01,-1.328060268473296723e+00,2.832262150686087887e-01,-2.042288091099041802e-01,1.777211410671752922e-01,-1.496506811522074418e-02,1.671919703483581543e+00
1.216309598030427541e-01,-7.985388872067453736e-01,2.300397524870234356e-01,1.444616712163054040e-01,1.501892667289369820e-01,1.912295007440469319e-01,1.094624876976013184e+00
1.138508818328481595e-02,-9.247989331809784996e-01,9.315181085297327135e-01,9.818243492690037575e-04,1.246444082071455212e-02,7.059090738400168770e-03,1.607830047607421875e+00
2.937671370136346605e-02,-9.474116551676549092e-01,6.928121691252072667e-01,7.192457033116180995e-03,-6.141862918180468825e-03,-5.730845683876108904e-02,1.432626724243164062e+00
3.391306549508975310e-02,-9.639001613686445369e-01,7.185312321027758076e-01,-1.051058127128713313e-02,-3.178159349884992352e-02,5.749164865367343939e-03,1.466599822044372559e+00
5.006590539351016278e-02,-1.075065497369604106e+00,5.965066932044322812e-01,-2.644648031216140227e-01,1.389810370867466394e-01,-1.805628275161302171e-02,1.564636111259460449e+00
-1.156085832570622959e-02,-4.747962373290533500e-01,4.395234442450972057e-01,-1.320524681614196616e-01,1.305606042153105995e-01,5.628078839449958404e-02,8.602189421653747559e-01
-1.421002478604388164e-01,-2.935597766230724215e-01,8.593165534335021061e-01,-2.170819795849647793e-01,6.262301505266443247e-02,-4.313979897390499835e-02,1.155928850173950195e+00
-1.095621819749264259e-01,-6.980696919900596376e-01,8.895735170288493476e-01,-1.280939498587860548e-01,-4.638262623956049963e-02,-1.813513323591488605e-02,1.410417318344116211e+00
-1.462451812154139663e-01,-1.573637298303044441e-01,6.244092676545489606e-01,-5.375511947051410389e-02,-2.494765491111407101e-03,-1.011987577863525389e-01,8.012562394142150879e-01
-1.106802336682865123e-01,-3.193708550524751444e-01,7.079469182291638907e-01,-9.816050492875202926e-02,-5.799080979324530011e-02,-1.032358237085425345e-01,9.775019884109497070e-01
-2.076279441418948934e-01,-6.794017962839626890e-01,1.081616390454210208e+00,-3.940083685744891207e-01,-6.628275542058009902e-03,1.362005729154830980e-01,1.736221432685852051e+00
-5.585615074638047850e-02,-6.921306822538427772e-01,8.730421816311362271e-01,-6.870429193185829952e-02,-2.119598706669282434e-02,2.005024477839107214e-02,1.369469404220581055e+00
1.213250137523196742e-02,-9.521950413256916601e-01,9.449797357385891772e-01,-1.298590526909575334e-02,-1.563353052823020228e-03,-3.940203785649480130e-03,1.643247246742248535e+00
-4.189010796485874433e-02,-8.958282805306549967e-01,1.074343020903314905e+00,-1.209430851824873920e-01,4.420627542964968709e-02,3.098147676299560505e-03,1.725732922554016113e+00
-1.177331419330043538e-01,-5.624035120445846081e-01,8.505938795614544912e-01,-6.000394269665211555e-02,-2.138688288353641359e-02,4.116322371398645208e-02,1.258265495300292969e+00
-7.858142431430505115e-02,-7.556464324185774295e-01,8.461981303162425805e-01,2.531701639049363864e-02,-3.215416123979914463e-03,8.624043404261828860e-02,1.401440739631652832e+00
8.530878961776569569e-02,-8.252162106332974201e-01,4.890266849979248986e-01,-9.724001856483464878e-02,2.160021597248936165e-01,5.736242126001765695e-02,1.240100026130676270e+00
1.654754870698991326e-02,-9.683217158007397796e-01,7.795624326703562978e-01,1.142438667367275812e-02,3.703339787540885306e-03,-2.005044726588706139e-02,1.518310904502868652e+00
-6.977734526683251892e-04,-9.563981784382760143e-01,8.288217488336424577e-01,5.199690308356861180e-04,-2.947551439425512114e-03,-2.767998410435153905e-02,1.548083782196044922e+00
1.830453416357312457e-01,-9.840174645158349387e-01,3.631106677707135466e-01,-5.061842553484903473e-02,-4.261923579114364202e-02,8.083325799417491464e-02,1.279587626457214355e+00
-7.995002018953224765e-02,-9.668863957723443647e-01,9.271561446887049973e-01,4.510331351107907090e-04,-7.229336175826961766e-03,2.798063583339127375e-03,1.641444206237792969e+00
-6.617868709990436249e-02,-9.815077415654491766e-01,9.382315847271329723e-01,1.123908273356514533e-02,-1.116203203718675249e-02,8.438810492907351801e-03,1.663430094718933105e+00
-6.904925675778439409e-02,-1.005031266670411538e+00,1.011429736651193068e+00,8.759003893000209817e-03,-2.334125591383218179e-02,1.773679441834926165e-02,1.748603582382202148e+00
-7.963868889771755222e-02,-9.647838543048992133e-01,9.202763011353278788e-01,-3.303301606017921633e-04,-7.978565815164814085e-03,-1.053541042553913154e-03,1.633577823638916016e+00
-7.890655806965213293e-02,-9.662118710379907771e-01,9.265546854663089249e-01,-4.985694792834394640e-04,-3.683553182997183380e-03,-1.362299653400576892e-03,1.640262484550476074e+00
-7.759837077705186714e-02,-9.659915394703216807e-01,9.260528128691128957e-01,3.144076230816977282e-04,-1.946543178789865739e-03,3.156966877975703840e-04,1.639575242996215820e+00
-6.481404153455871953e-02,-9.790341597466085677e-01,9.257217532046434494e-01,-2.270291297676539470e-03,-5.235251114835778180e-02,5.252310165163006153e-03,1.652527689933776855e+00
-8.098827593471533137e-02,-9.658433567583029067e-01,9.313159926753274975e-01,6.530171721222282396e-04,-7.846702268960935658e-03,-6.303877985554294039e-04,1.644280433654785156e+00
-7.495362884921527580e-02,-9.695098209293007141e-01,9.258236708036435836e-01,7.255086663912667030e-03,-2.055375335202098280e-02,6.671895893307203118e-03,1.642740488052368164e+00
-5.069590500439945246e-02,-1.213304100418508114e+00,1.207615782446483932e+00,-7.145150859794432117e-03,-1.528712411458861900e-02,2.127442049157340746e-03,2.097331047058105469e+00
-5.086791135519874718e-02,-9.790867376513049392e-01,9.310982560355338666e-01,4.191429510006751229e-03,-5.864827430123713964e-03,4.116520691751048185e-03,1.654549479484558105e+00
-3.563304588733610251e-02,-1.152146935811216855e+00,9.899110624680811377e-01,2.237267419697441112e-03,-2.030310998548834345e-01,-3.533085776100192837e-02,1.889656782150268555e+00
-5.914418047920634580e-02,-1.045633333812189925e+00,1.144469019218418371e+00,-4.100171454145624950e-02,-6.274571001795970979e-03,-3.180303282520783453e-02,1.901944518089294434e+00
7.764563070042512088e-03,-1.039903112374989336e+00,1.066578695463087589e+00,-1.393368312438553747e-01,-1.028630919971535579e-02,-8.610983271331903999e-02,1.846289992332458496e+00
-1.518564585863411802e-02,-9.945360087813869265e-01,9.716367081248784565e-01,-8.855405483969503583e-03,8.681580499256281655e-03,1.709737580246251457e-03,1.702897667884826660e+00
-4.455599904546288237e-02,-9.951866044895141261e-01,9.780414766469759380e-01,-5.902841325370023276e-03,4.619088264635814057e-04,3.924223736009063712e-03,1.709288716316223145e+00
-7.010512060686560631e-02,-9.932936945519875716e-01,9.776137362643392281e-01,1.725363646053422505e-03,2.009995874227238008e-02,-7.578308782684830321e-04,1.708349108695983887e+00
-6.794027187802210987e-02,-1.014385236340070717e+00,9.896001640910497832e-01,5.928742668837746338e-03,4.087950587814045966e-02,-8.691971778334330739e-03,1.737929582595825195e+00
-3.661873463315332144e-02,-9.938906380731705736e-01,9.673665188742743837e-01,-3.284998851154723436e-03,1.673228199860627688e-04,1.127490486832463494e-02,1.698780894279479980e+00
-7.119779011731534879e-02,-9.949946068622796957e-01,9.826751285231652977e-01,-3.041707266252853363e-03,2.075402070978292490e-02,2.311102206897727891e-03,1.714336395263671875e+00
-7.738833301546974019e-02,-9.819661664011031244e-01,9.516679031740110650e-01,-8.685119561786223269e-03,1.246207795967954612e-02,5.542057943618417318e-03,1.675966501235961914e+00
-8.386625152533874750e-02,-9.790846799581716109e-01,9.516258517980552556e-01,5.252637263957493988e-03,4.984317421239262136e-02,-9.560515428831177498e-03,1.675846576690673828e+00
-7.797503417726114883e-02,-9.768607084569390642e-01,9.495295781032073723e-01,4.969455097848673834e-03,1.540894523456738489e-02,-2.329663198873503649e-03,1.669782280921936035e+00
9.254767584117159704e-04,-9.789963918183794966e-01,9.665612442101582102e-01,2.458433261434725403e-02,-1.767842154376624009e-02,-1.697535562882061810e-02,1.685989975929260254e+00
2.076113922649358220e-02,-9.976727183887857953e-01,9.754354602038993738e-01,2.092091760436130821e-02,-5.562392404547417471e-03,-3.867682615270700165e-03,1.709483504295349121e+00
-1.076169527725403946e-01,-7.393042315832637490e-01,9.049819405848426035e-01,-6.144983411604656998e-02,3.760491211507509257e-02,-1.778003364228279148e-01,1.474598526954650879e+00
-3.093032119341449296e-02,-9.728891667686151434e-01,8.877216700266529203e-01,-1.777468621352537928e-03,2.000181726641858324e-02,2.052265210407503565e-02,1.612145662307739258e+00
-3.086272456114802498e-02,-9.859694065911539518e-01,9.278807432586299031e-01,7.744647378769178685e-03,-3.538072021871357768e-03,8.716741054966612931e-03,1.657578229904174805e+00
-3.060395936137110667e-02,-9.650193107314259944e-01,9.148923691981056816e-01,3.552399202192216450e-03,-5.324534332451414179e-03,1.251049339111538067e-02,1.628242611885070801e+00
-3.191289206606999496e-02,-9.194523310358402313e-01,9.145126081759734626e-01,-1.746807400759389783e-02,-1.851062535920965785e-02,1.770375740288390731e-02,1.589440464973449707e+00
-6.944682255525247427e-03,-9.628975310254095366e-01,8.017641763684751899e-01,1.277038024688801135e-02,4.156352022707857780e-02,-5.442219338417777184e-03,1.531895637512207031e+00
-3.040641324712955312e-02,-9.728382195685035816e-01,8.721813687185421271e-01,1.813588326721443308e-02,7.184437499859122741e-04,-1.993936373952064078e-02,1.598640322685241699e+00
-3.600576330846427808e-03,-1.142194351036328159e+00,1.018568203056312127e+00,-5.996698385991457853e-02,3.641229579121763038e-02,6.404923809161509884e-02,1.879396796226501465e+00
-7.383465276530394583e-03,-9.429327387835186869e-01,9.443042471277304228e-01,-8.953944007632342163e-04,-1.816776652552804655e-02,5.879088494152765777e-03,1.634750485420227051e+00
-3.325192999369341179e-02,-1.000173286889229907e+00,9.680266149664891184e-01,-3.546993791417110212e-09,-7.225480889363647234e-04,3.182848460679624795e-05,1.704598188400268555e+00
-3.790349586995050285e-02,-9.985230029971478016e-01,9.688351087154488672e-01,-1.666720065030583790e-03,-7.100471012115314520e-04,2.829766170603540760e-05,1.703940987586975098e+00
-3.351634629016769090e-02,-1.000574495744766423e+00,9.695806891177141118e-01,7.233885093089680940e-04,1.437280711894134492e-07,8.973504535142638955e-04,1.706300735473632812e+00
-2.805129400208232482e-02,-9.992289230145380285e-01,9.665023039050530951e-01,4.699259884470732124e-04,-3.121833644315188082e-03,3.685864544935918072e-04,1.702422261238098145e+00
-3.162980823987610046e-02,-9.937297910838679416e-01,9.572949778242988428e-01,-3.742361466014289696e-03,1.440213024664068085e-05,2.590513912533883977e-03,1.689708590507507324e+00
-3.649109039783220848e-02,-9.970944901737981425e-01,9.603110611186462808e-01,2.094881411683088921e-04,2.635276754279692723e-03,3.464358328872452013e-04,1.695265889167785645e+00
1.286214273067146086e-03,-1.087392782032247318e+00,8.456923476244206928e-01,-1.807294131609193596e-02,-1.733038997114962898e-01,-7.718085108258015969e-02,1.710696935653686523e+00
1.742253796909156716e-01,-1.207082539959825729e+00,5.464073333848722402e-01,6.238865717130120947e-02,-4.083286198464479710e-01,8.484770641386553403e-02,1.759005427360534668e+00
1.262592104095563439e-01,-1.231681157494459722e+00,8.386989797431061433e-01,-2.503225609067130479e-03,-4.591975963530889882e-01,1.446850742311267812e-01,2.003604412078857422e+00
1.448331318285658309e-01,-1.063826007898783343e+00,5.377170573330130043e-01,2.816070157067569399e-02,-3.611724346157564325e-01,-4.435738044634684324e-02,1.577877044677734375e+00
-1.659994540296467341e-02,-9.464505428007198296e-01,7.794744625029048635e-01,-4.405227166216360395e-03,-8.189368748281560667e-03,1.326513512884633719e-03,1.496279239654541016e+00
3.166972486917261631e-01,-1.653173581642171763e+00,4.920252153534068751e-01,2.401925556531658151e-02,-2.283675836824531347e-01,-7.043680741059626937e-02,2.104655504226684570e+00
5.527521788813549719e-02,-9.505440779235299065e-01,6.809390746673240624e-01,-8.232725622697665765e-03,-1.811623096002588570e-02,-3.879185699993277503e-02,1.427632570266723633e+00
1.334491546154242536e-01,-9.880481635973275001e-01,3.549140679828530764e-01,3.766716012395562863e-02,-2.096388238628520417e-01,-7.098890356175253935e-02,1.306290626525878906e+00
1.629839537622972123e-02,-8.731530323472624922e-01,6.560803890187276721e-01,1.374795389081877664e-02,9.474317489476337395e-02,-1.170739446556728208e-01,1.355770826339721680e+00
8.167386191448369748e-04,-9.302537285545132706e-01,7.998361997551890479e-01,-3.794351732390319198e-02,7.126598291105837313e-02,4.680221851635542329e-02,1.508441209793090820e+00
5.642775204938411948e-02,-9.381909070963542208e-01,6.522310457905274861e-01,1.383516561456570211e-02,2.125713637510329504e-02,-7.325361735280778823e-03,1.392456769943237305e+00
-1.449456861213108128e-01,-6.837124262627474192e-01,9.107167937234991184e-01,1.166189200093985419e-02,8.561986695657955448e-03,-7.277381100575536221e-02,1.410661101341247559e+00
-3.031879381372198923e-03,-5.207833362004983258e-01,2.935363692850282979e-01,5.340539486004964448e-02,-8.967529476955529710e-02,1.590775794607300897e-01,7.862355709075927734e-01
7.406210655252762343e-02,-9.993977163417405718e-01,5.404043067321766536e-01,-8.480017244314866365e-03,1.916516528439695874e-02,-5.374485402808704387e-04,1.368104219436645508e+00
-4.920458375075825036e-02,-4.600060534332584550e-01,3.347181685817658958e-01,-1.252071066676408717e-01,1.469004004623049586e-01,1.632906661031844064e-01,8.158625364303588867e-01
1.409176102867086833e-01,-1.178097601624079394e+00,4.431706805361029788e-01,2.190134186215361711e-01,-2.131431581993877833e-01,1.696134310622587349e-01,1.611313462257385254e+00
5.000555114005750257e-02,-8.938920562837343597e-01,5.912238499782012102e-01,-5.421397728795180476e-02,7.395102503462902543e-02,-2.156643549756159101e-02,1.311996102333068848e+00
-1.523710912610778678e-01,-5.233551218584986398e-01,8.099642372149221670e-01,-1.870696918808828491e-02,-2.335643425132381823e-02,-1.194875712643429927e-01,1.210887193679809570e+00
-7.352139798904225310e-02,-9.725393286421367689e-01,9.317096170721095305e-01,-3.467848327835227978e-04,3.433043914958639441e-03,-2.942611490771784247e-04,1.649993777275085449e+00
-6.789514257245440887e-02,-9.742409244958587511e-01,9.304677264361587152e-01,4.711857800487542097e-04,-5.499696100060162511e-03,7.002715030902301185e-03,1.650239825248718262e+00
-5.708826718100684650e-02,-9.736452157439828836e-01,9.269734332011777544e-01,7.713470468399822449e-03,1.094306264840029866e-03,-1.592742508244229110e-04,1.646385431289672852e+00
-6.964408435111321682e-02,-9.752715364343140791e-01,9.386347749131578322e-01,5.338350115348039666e-03,-1.229048782406082577e-02,7.143718730027026967e-03,1.658494591712951660e+00
-6.043845576503090872e-02,-9.630833073322488946e-01,8.924551303326062612e-01,7.423592139748479840e-03,-1.514309134501634580e-03,6.792844353544146355e-03,1.607236504554748535e+00
-3.911214844554692510e-02,-9.622355542237286397e-01,8.589238426831899975e-01,1.197953526895520655e-02,-1.765125895760938368e-02,-2.827969860497961570e-03,1.577660560607910156e+00
-2.784249228442253754e-02,-9.806253795035867471e-01,9.530307637116997022e-01,1.416819896166779825e-03,5.214373111217749865e-03,2.760740067575754263e-03,1.674687266349792480e+00
-4.857530552030536741e-02,-7.545901802866693542e-01,8.955371630159182361e-01,7.801382316156652008e-02,-1.362033151950996224e-02,2.046206898188462214e-02,1.440983653068542480e+00
-1.588451595078491929e-01,-2.729290190201296706e-01,9.479009269297621332e-01,-1.157762001939764973e-01,-1.405448419080789491e-01,-9.935944379888700384e-02,1.221986770629882812e+00
-1.842881673140751575e-01,-1.551201999372638363e-01,8.271583652697107603e-01,1.561337691817063222e-01,1.459608466587350439e-02,9.149536688172099641e-02,1.045590519905090332e+00
-5.542609196251690323e-02,-8.630532398169886710e-01,1.052847351777957519e+00,2.257469932771772325e-01,-9.996699965416289829e-03,-7.284111394881634394e-02,1.716014504432678223e+00
-5.918356662257649031e-02,-8.656002189089659904e-01,1.065955327348494075e+00,2.045697217763046694e-01,1.956767668233093393e-02,-1.004726836106461380e-01,1.726428508758544922e+00
-1.385761019133773253e-01,-5.489621942768972973e-01,9.090412190471021114e-01,3.454849408902945784e-01,2.473181248528966494e-02,-8.755533251769448411e-02,1.441790103912353516e+00
-1.401598644603884412e-02,-1.096879668676224107e+00,1.024178666072524058e+00,9.697265286269957096e-02,4.585487453451198014e-02,-4.144407012194690348e-02,1.847792506217956543e+00
2.204704002077422648e-02,-9.796701588267935357e-01,9.483299075929885191e-01,-1.488857542549744612e-03,-8.173503105098068851e-04,-3.448975683716614098e-03,1.670136213302612305e+00
-1.386696541358332091e-01,-4.618542081274698563e-01,8.391803304473084424e-01,-6.866838437109812343e-02,1.814582718298805852e-02,-3.677319400742860150e-02,1.181463241577148438e+00
9.192236085545073959e-03,-9.609636622219255297e-01,9.427009998321397299e-01,-6.074804855541342252e-03,-1.736685053371272210e-03,1.202332310314891371e-03,1.648761391639709473e+00
3.270288289433016110e-02,-9.383665127750777657e-01,9.282027801377105147e-01,-1.404808481974526013e-02,5.102181638974859906e-03,-1.902962983341887964e-03,1.617148518562316895e+00
-2.682379958519993599e-02,-9.952212417861286964e-01,9.640414560396173282e-01,1.416110462734480012e-03,4.743002014036429639e-03,-1.145921153116654170e-03,1.696831226348876953e+00
2.959199639541843299e-02,-9.556380256272304363e-01,9.355429315708974070e-01,1.840593077353358921e-03,6.466248934070052169e-03,-2.632981811538559393e-03,1.638338088989257812e+00
2.276037142169735905e-02,-9.759115950247040372e-01,9.519618588516085556e-01,-1.062680720686371219e-02,1.114898543517445217e-02,-5.531741495374067029e-03,1.670189261436462402e+00
6.907883164174992430e-02,-8.546312847133280544e-01,4.538427109614439625e-01,7.549738924214743907e-02,-1.488894461100823963e-01,-1.559573537353275141e-01,1.230148673057556152e+00
1.659872529322418688e-01,-1.125823292498096428e+00,4.004120403549444318e-01,-1.349141348726073594e-02,-6.386608080097871953e-02,1.234175260081461778e-01,1.443966865539550781e+00
3.558269608824129460e-01,-1.750535026596492960e+00,5.805647785339698164e-01,8.045468472678797556e-02,-3.721618533325394274e-01,-4.912702760462248769e-02,2.324396610260009766e+00
1.415382655197788553e-01,-9.964334454262717689e-01,3.700939122977399132e-01,3.595410253263747746e-02,-7.017079166313278105e-02,-1.756870776802566536e-01,1.310936689376831055e+00
1.026374700887835306e-02,-9.688530710259340983e-01,7.984026212805402922e-01,3.164721389997755992e-03,-7.884062285330818709e-03,-4.632705319116674041e-03,1.533555865287780762e+00
-8.469348418127996270e-02,-8.142731537200553760e-01,8.981401554032040213e-01,2.669112694001052680e-02,1.939808891087997124e-03,3.031913094606317888e-02,1.490036964416503906e+00
-4.282387394801945996e-02,-9.301813069242630405e-01,8.992800545586857597e-01,-4.655592182796525376e-04,-2.785540851442334150e-03,-3.176906219270489440e-02,1.585559129714965820e+00
-1.886613284152566933e-02,-9.494163617980212466e-01,7.863956480119241865e-01,-1.530443709391325234e-03,6.254582150543880163e-03,6.216940704528238493e-03,1.504641890525817871e+00
-1.009718448599217222e-02,-1.204063477852289399e+00,9.831660876441080665e-01,2.744007824936903900e-02,2.536535171781790776e-01,-1.107585865348451049e-02,1.947741627693176270e+00
2.828924405805233189e-02,-9.673939957995948413e-01,5.976092652888734813e-01,1.073855459345814112e-02,2.573106897961072170e-01,2.048526978757472805e-02,1.443122982978820801e+00
4.582866306152136304e-02,-9.364588788406771336e-01,6.471027645431719488e-01,-1.439941143570638155e-02,1.609671666680792534e-02,7.449049461617552464e-03,1.385138750076293945e+00
1.449683247788652318e-02,-1.053637236547639633e+00,7.803645476703223727e-01,5.619933488403714740e-03,1.117915904968447144e-01,4.911291162240288138e-02,1.609452128410339355e+00
1.413581883571886355e-02,-1.047017403752309672e+00,7.755353707386032358e-01,4.664121758443319499e-02,1.105481483176981444e-01,1.173964324596412367e-01,1.611915588378906250e+00
-8.953883244451608936e-02,-9.864565914755036857e-01,9.485588037171005515e-01,-1.674718978369138913e-03,6.774901185700776818e-02,1.496032736839453606e-03,1.681362867355346680e+00
3.426123097900786452e-02,-9.820589172983633652e-01,7.096098208328706081e-01,-2.308023194559194035e-03,-1.255166085822334021e-01,5.101964952661051933e-02,1.493472814559936523e+00
-2.536484502590372753e-02,-4.655984245264604415e-01,5.218636530988819411e-01,5.757464764795570955e-02,-2.278389634747837386e-02,2.474676123983006459e-02,8.645877838134765625e-01
3.392736150627491398e-02,-8.815943490085570433e-01,5.422278702661190719e-01,-1.216733588957207846e-01,-1.764599323293079003e-01,-1.737608320885410118e-01,1.338026762008666992e+00
5.962436711592582206e-02,-9.366141137589130139e-01,6.083457694070186772e-01,1.093973782766568571e-02,-6.485549220422995309e-02,2.800787316311174197e-02,1.362194776535034180e+00
-4.990371414525263810e-02,-9.453821884912971818e-01,9.443252757912525830e-01,2.265106266954222854e-03,-4.497401621384511383e-03,-1.783886114948724996e-02,1.637594103813171387e+00
2.154370789818399190e-01,-1.051596994324921486e+00,1.064514659108631578e-01,-1.106158232087440518e-01,-8.065472030026533956e-02,-3.164441221929283760e-02,1.240319252014160156e+00
1.526682023097105101e-01,-1.065877022947581132e+00,5.033769554083391551e-01,-4.226384847266700939e-02,3.257103093040711328e-02,9.385150269389451461e-02,1.438808202743530273e+00
-2.585959971598605911e-02,-3.712887441545600353e-01,4.909757448600817753e-01,-1.698100800724516302e-01,-1.770142080555362485e-01,4.658682943947455718e-02,8.671733140945434570e-01
-1.937371067636545208e-02,-9.423595091668107715e-01,8.379141999274427599e-01,2.343525972753948954e-03,-2.053295264084891228e-03,1.680867388845217955e-02,1.542396426200866699e+00
-2.562995918747260626e-01,-8.368349126533445315e-01,1.431819800132333675e+00,4.635423812779905783e-01,-1.058897252168512770e-01,-1.852949398804922820e-01,2.224418163299560547e+00
-1.448026825052898536e-01,-4.274861353629354488e-01,8.801280068324416339e-01,2.878339841094653684e-01,-1.034991059320788942e-01,5.400628653047821054e-02,1.307499647140502930e+00
-8.408725467145615473e-02,-7.030752088231975172e-01,1.027320821848683563e+00,2.636581929116613709e-01,-2.818003207349294437e-01,-7.636855593854574575e-02,1.664511919021606445e+00
-1.347181486747728585e-01,-7.790356270390034199e-01,1.038140585841024865e+00,3.804311132050589017e-01,-2.239051072908624651e-01,1.613249591270865882e-02,1.769689440727233887e+00
-1.402871739120951575e-02,-9.934802299713331175e-01,9.721089102123526837e-01,6.431114765029395663e-03,1.426545558504182555e-02,-2.567891535856639540e-03,1.702474951744079590e+00
-3.947085326625754398e-02,-1.119187986208372010e+00,1.239074406534971917e+00,1.309246415539431219e-01,-1.546968066148723953e-02,3.988663963641154997e-02,2.058603525161743164e+00
-5.092697207936511261e-02,-9.871488944914184049e-01,9.614342042958298196e-01,-6.016150240353821538e-03,-2.328634072357471576e-03,5.724525893236284690e-03,1.688017964363098145e+00
-3.761710577556711538e-02,-9.767018434659868742e-01,9.757430814528561536e-01,3.204592049124608492e-03,1.422299064624173159e-02,2.104079222440564251e-02,1.691855788230895996e+00
-6.531993961264984105e-02,-9.915738232484097026e-01,9.775642397951826990e-01,1.014478688032223941e-03,7.257295926442181196e-03,1.403749437184857729e-02,1.706540822982788086e+00
-1.639125136569496294e-02,-9.934632207828830719e-01,9.671713842227737112e-01,9.188688013712843772e-03,-4.407312500505362884e-03,-3.265865350619362250e-05,1.698054194450378418e+00
7.136505725995195837e-04,-9.873563876078035317e-01,9.600957505309131168e-01,4.788297437066632405e-03,-1.203343945886090581e-02,-5.910061565168455745e-03,1.686784267425537109e+00
-5.745096596184559590e-02,-9.837541147605587399e-01,9.548062729098020229e-01,-8.141535490114324217e-03,1.231583953014275638e-02,1.422557682919357164e-02,1.679767966270446777e+00
-5.922748525394187780e-02,-9.855572693792038486e-01,9.561124003144193528e-01,-5.117910554447237942e-03,-2.928092799132464390e-03,4.203832606373604334e-03,1.682170867919921875e+00
1.131064808668545522e-02,-9.583959887643719311e-01,9.441572238547997209e-01,1.363476851747374638e-02,-8.746509826658364559e-03,-5.185258971799414258e-03,1.648025870323181152e+00
-8.342547710906805802e-02,-9.917243029046380887e-01,9.810508794706596092e-01,-1.403609555894551851e-04,1.829417084652715936e-02,3.376207281416032831e-03,1.710560560226440430e+00
-4.814768495278373001e-02,-9.677553968899508252e-01,8.735526142183926979e-01,1.225558150975583974e-02,4.642071818168658909e-02,-2.154404840019299300e-02,1.597222685813903809e+00
-5.605405271236311299e-02,-1.262362911881689920e+00,1.192312942241623208e+00,-3.539098770754178780e-02,1.624224832021066711e-01,-6.693219605778320119e-03,2.145355939865112305e+00
-1.915109145798447529e-02,-9.640032241365804611e-01,8.944421754135073455e-01,-1.587859469674898771e-02,1.831907003005908349e-02,-1.884514007588446519e-02,1.610415220260620117e+00
-5.751322817453486530e-03,-8.403363412936928345e-01,9.129672709594001123e-01,7.565977652370205198e-02,-1.124869126073922525e-02,4.783636037535226627e-03,1.524777412414550781e+00
-1.223194294424484116e-02,-8.534359051556728026e-01,9.181219488187909450e-01,2.565795053386536045e-02,-2.090833947440071811e-02,-7.982875826565363417e-03,1.535993933677673340e+00
-2.714433506053579720e-02,-8.342698561376770128e-01,9.160033612714975071e-01,3.697537199333989725e-03,-2.272106209899947549e-02,-4.008471300964103028e-03,1.517845749855041504e+00
-4.983522662749072241e-02,-7.650320689153148335e-01,8.947944536759716572e-01,3.729740495978908776e-02,-2.201086936855651405e-02,8.763002405510348161e-03,1.444051623344421387e+00
4.366674922721028307e-02,-9.533268011803303077e-01,7.140507501122381750e-01,-3.170216310100239330e-03,-2.958036503199655380e-03,-3.771750032673565345e-02,1.454683303833007812e+00
4.839561106127335255e-02,-9.508845052004348819e-01,6.910715241331162328e-01,1.004785505200555228e-02,8.770863800623194748e-03,-3.522323979627337009e-02,1.434594750404357910e+00
5.568338046668815100e-02,-9.388767867085314744e-01,6.867862118183103437e-01,6.868621771532671186e-03,-1.576863985084484346e-02,-4.656347055664431661e-02,1.422147154808044434e+00
1.228822872040953584e-02,-9.630694104321770865e-01,7.798763043231528025e-01,-1.853480328852886647e-02,-2.723592301598937171e-03,-2.890796549143755459e-02,1.514181852340698242e+00
3.596399336207348196e-02,-9.335282910445015236e-01,6.992177656634732674e-01,8.851050723990490018e-03,-6.115208464694789348e-02,3.554674281442210537e-02,1.427615046501159668e+00
7.962628520816808497e-02,-8.072638463026431399e-01,2.638117768330173751e-01,1.013201676939208679e-01,-1.125584421644602873e-01,7.056663671737152532e-02,1.033244967460632324e+00
1.607506943291206192e-01,-9.717683414767884775e-01,4.317742625666980416e-01,-1.377960251648970361e-02,-4.523954943500270443e-02,-7.799214141695559599e-02,1.299211382865905762e+00
-8.964032242783002979e-02,-7.540710038500967327e-01,9.034301292109045978e-01,-4.685009493812094909e-03,2.407844008445220521e-02,-1.497345961523681782e-02,1.445669889450073242e+00
-9.850894317200456496e-02,-6.611615810757548450e-01,8.849233097909012802e-01,-1.187127866831614101e-02,-7.763700145935570167e-03,-3.954554770352899928e-02,1.357329368591308594e+00
-6.151754326573290188e-02,-5.960612783422379879e-01,8.501633495470682922e-01,-7.954184573248732071e-02,-1.690323360303941022e-02,-3.329302009666204598e-03,1.274403214454650879e+00
-2.002022513641289470e-01,-2.834601510203066943e-01,8.288800484207020647e-01,6.864901518879844983e-03,3.559650674596756743e-04,3.681657276651525978e-03,1.073221325874328613e+00
-1.447368604415992521e-01,-2.993606769781823607e-01,1.018329320055441078e+00,-1.006327626369091371e-01,-6.632157724547552147e-02,3.839564033908832857e-02,1.266676068305969238e+00
-1.617637712258086780e-02,-9.911725280436347596e-01,1.002279398376897168e+00,-6.385744411242722657e-03,9.785380723784150442e-03,-1.899197982891573377e-02,1.726948738098144531e+00
-1.690875491589525492e-01,-1.612027704751566537e+00,1.957261499700638785e+00,3.123519166236109479e-01,-1.582914509552428572e-01,1.063096045776067422e-01,3.173861265182495117e+00
-2.215939234384514123e-01,-1.169443750599886256e+00,1.755001790302197939e+00,3.837669858902670317e-01,1.240874378224177399e-01,9.372531337872264112e-02,2.682022333145141602e+00
-1.659128525938647902e-01,-1.870677091018274618e+00,2.032003107778122430e+00,4.366951242255161514e-01,1.529673116576952263e-01,-6.275187696101322543e-02,3.483978033065795898e+00
-4.750906326732270979e-02,-1.119405664419302227e+00,1.159640098739302516e+00,1.680358897392428830e-01,-3.364238970545498364e-01,5.149545883615733177e-02,2.081421852111816406e+00
1.384215168061304624e-01,-1.070055824622655694e+00,5.105560967455854415e-01,-3.053563672767623319e-02,1.531426780666341747e-01,1.063114932492810819e-02,1.456747174263000488e+00
-4.670249061995716128e-02,-9.880833031485083406e-01,9.461765869658175232e-01,-1.904579076203460853e-03,4.314983019691613457e-03,1.317831172744244900e-03,1.675337553024291992e+00
-3.368945057704011981e-02,-9.853891912793739660e-01,9.343741970731714863e-01,-2.256845836114189548e-03,-4.060560238553251322e-03,-9.486758128754819389e-04,1.662604331970214844e+00
-6.688053802600894826e-02,-9.635206396792354022e-01,8.878987504353234028e-01,-5.144034451313817501e-03,3.995343751219748024e-02,1.195359407070956754e-04,1.605156898498535156e+00
-3.478802953589754665e-02,-9.467081358798251634e-01,7.729988461454173621e-01,-5.410541052674009734e-03,1.049851268321739250e-01,1.819811613791626898e-02,1.501633048057556152e+00
-5.996631811702645559e-02,-1.030959482118404269e+00,1.061631118569945631e+00,2.329150265318997298e-02,3.241918536507001208e-02,3.976641355697396393e-03,1.815130829811096191e+00
7.557447831740247979e-03,-9.583276575117339879e-01,7.846877174130298949e-01,-3.263384088939031303e-03,1.629743158628613187e-02,-1.025465870399056879e-02,1.512821316719055176e+00
-1.104062168111166198e-01,-1.239651639341437628e+00,1.329927662790114207e+00,1.087587083399260690e-02,-2.394920849406746363e-02,1.877434481412694825e-02,2.231452465057373047e+00
9.288197678157439352e-02,-1.570360509337918486e+00,9.989932914969217315e-01,3.886675724479460858e-01,3.690675034364663265e-01,1.188781286530030540e-01,2.449226856231689453e+00
-6.758351849607402428e-02,-1.003539111412552920e+00,9.877036863324512028e-01,-1.098954168498118486e-02,8.415772315026102610e-03,1.353905906068111724e-02,1.725824594497680664e+00
-6.723722544806887136e-02,-9.974845713560719362e-01,9.813477613823795576e-01,5.371242407278123583e-03,8.930971488915974768e-03,-1.922991271361711727e-03,1.714838504791259766e+00
-3.401119610330018139e-02,-1.033369237636722504e+00,1.028596031372375874e+00,-3.156401359465914151e-03,5.824687788837018543e-03,2.438933974189124668e-03,1.786036133766174316e+00
-4.839368320063473783e-02,-9.659066744655054881e-01,8.692979330487624612e-01,-1.010756481917124590e-02,4.609190909836773098e-02,1.540573402396191137e-02,1.591657638549804688e+00
1.962676148364853740e-02,-9.523373858986652341e-01,7.725205917744631945e-01,2.633294399334462632e-03,7.252785487225322895e-03,3.183922141121837968e-02,1.498855948448181152e+00
-2.848930934777200649e-02,-9.656672680173852275e-01,9.142696905955722819e-01,-3.958572310625955125e-03,3.789458845851027997e-03,-1.082985387297588989e-02,1.628211259841918945e+00
-1.342223825942983895e-01,-5.742367742547141996e-01,8.811861133945899649e-01,-3.516578528563316791e-02,-1.215208751207140156e-02,1.354639156038183190e-01,1.315547704696655273e+00
-7.653865987027644313e-02,-7.254094287083117099e-01,7.863266486065365601e-01,-1.144025831900858867e-03,-9.571396485919017941e-03,1.104890059003252878e-01,1.327539086341857910e+00
1.233012957394364478e-02,-9.565437781850855137e-01,7.803551692157052466e-01,4.969642255376994534e-03,-8.787455718326866311e-03,2.008511851196293288e-02,1.508049964904785156e+00
-2.210772931831751081e-02,-9.673140764504348788e-01,9.428378024901875598e-01,-1.171253828171110040e-02,-9.237081035033208390e-03,4.752815762798508897e-03,1.654491662979125977e+00
-4.517569143226186912e-03,-9.585376863089979382e-01,8.419617471520851604e-01,5.811867249794385772e-03,3.356713651610613441e-03,-2.240199455289958869e-02,1.560730814933776855e+00
-4.708338893101467193e-02,-9.619232617718926903e-01,9.220259894991907901e-01,3.763741534549858506e-03,-1.000817085620485727e-02,-3.385968000340467549e-02,1.632932066917419434e+00
-2.417611295302330918e-02,-9.934780341745527155e-01,9.661868376036506501e-01,-6.430789931724711830e-04,-1.183618232159519904e-04,-3.149518335523496596e-03,1.697161436080932617e+00
-3.388987526478665774e-02,-9.971487591299080799e-01,9.631304303360875840e-01,-2.270081351102544356e-03,4.536918961386918019e-03,2.147980699192432105e-03,1.697762370109558105e+00
-5.063155427404922998e-02,-9.835449631710703189e-01,9.600444031203254625e-01,-4.280804335552678558e-03,1.563742475441979316e-03,-6.830674439398868973e-04,1.683665752410888672e+00
-3.897362501251348810e-02,-9.958649364645552060e-01,9.642198515602482534e-01,-4.331614597488332372e-03,5.896089778954075045e-03,1.881105423493383911e-03,1.697691559791564941e+00
-2.038355415353811789e-02,-9.779181690876441735e-01,9.577837785477718580e-01,-1.303023958409735414e-03,1.158410695550127732e-02,4.178301136368405000e-03,1.676535964012145996e+00
-3.125856633374125143e-02,-9.820674380802125736e-01,9.609774220717407500e-01,-1.359203308844066007e-03,1.321776354653794033e-02,-3.923548951420102217e-03,1.683024764060974121e+00
-3.324658865704750721e-02,-9.957144472886542141e-01,9.660284642826648671e-01,-3.241452774930263757e-03,2.921210506057086900e-03,-2.671437265738030135e-03,1.699041962623596191e+00
-1.177635920421022699e-02,-9.946322030637447797e-01,9.616348008216939469e-01,9.285008597047046328e-04,8.212168620789193213e-03,-1.979513368212599319e-03,1.694247484207153320e+00
-4.260845039814987328e-02,-9.884318859963417969e-01,9.578650036090150532e-01,-4.874049426243465093e-03,-1.448964217369661835e-03,-8.907689917652479930e-03,1.685857653617858887e+00
-5.730530915742763215e-02,-6.761109602050171530e-01,8.657251490014605810e-01,-7.082874962125652873e-02,-5.513885563131471629e-03,-6.362363637500777214e-03,1.349572062492370605e+00
-8.107409476404849047e-02,-1.022901153561106335e+00,1.027506598536899407e+00,-1.161993290999641104e-03,-2.201045358913619743e-02,7.204468065990084387e-03,1.778115272521972656e+00
-1.187210230447966197e-01,-4.733049165204232800e-01,8.380991370153985098e-01,-8.217341287803972549e-02,-5.490609527017189032e-03,2.409648252439084912e-02,1.184313058853149414e+00
-1.004278579945057509e-01,-6.645455013540338962e-01,8.984726411211789721e-01,-1.205108878794002546e-02,1.170778654797943741e-02,1.947710609513456440e-02,1.371682643890380859e+00
-5.886386181257434458e-02,-6.696948002242416598e-01,8.860393900497441910e-01,-6.603094411512200335e-02,1.635800215513168523e-02,-4.253929722070559638e-03,1.362743616104125977e+00
-5.782617664375953870e-02,-5.809316107426765186e-01,8.895566921213775569e-01,-1.718839313943852365e-01,9.966618698105018243e-03,-2.182706976016660690e-03,1.325028061866760254e+00
-5.415929026304543842e-02,-6.687667113980998446e-01,8.664514457770913225e-01,-5.917746102372848510e-02,7.585311755827888955e-03,5.446626993868507877e-03,1.342329382896423340e+00
-1.068307738204080440e-02,-8.652108143730101730e-01,9.263074809890550210e-01,-7.659008045870085990e-02,5.776871685137200708e-03,-1.464568779641754661e-03,1.557741284370422363e+00
-6.439885956595076122e-02,-1.034763033490529782e+00,1.107251075513263627e+00,-3.241088735474954019e-01,-2.135518691840664895e-01,-1.849911348303730566e-03,1.975667119026184082e+00
5.896308956680910984e-02,-1.035603197593587765e+00,6.692856183859052788e-01,-1.332529879468256732e-02,-3.067739854026368396e-01,3.272466134271463656e-02,1.588925361633300781e+00
-3.592745024084034733e-02,-1.069101026049376513e+00,1.029870587973761964e+00,-8.974762465675162337e-02,-1.247907687508554297e-01,6.044372311311625896e-03,1.837258577346801758e+00
-5.341754910823470759e-02,-1.068551725561264876e+00,1.043597994189927380e+00,-2.007321654971247135e-02,-6.630787298765621063e-02,1.084577874870960162e-02,1.833660364151000977e+00
-8.550986121015574648e-02,-1.025814540503669159e+00,1.003237388044344813e+00,1.498960487345978726e-02,-9.259548531062372634e-02,3.765403340320469527e-02,1.767469048500061035e+00
-7.300510410495493485e-02,-9.719774828353751062e-01,8.864586323400622803e-01,-7.807771424643716700e-03,-9.669939419651139845e-02,-9.826337958250474722e-03,1.618572950363159180e+00
-8.140510426899941199e-02,-9.981016926656508526e-01,1.001562877130148133e+00,-1.855548009513937431e-03,-1.456188479990988896e-02,1.688927257774935735e-03,1.733943581581115723e+00
7.528632870532513122e-02,-1.013772170536224371e+00,6.058655076450999433e-01,-2.375831509599488078e-02,-1.422538763315114307e-01,-4.141601185951581526e-02,1.453596234321594238e+00
-6.570564683631294201e-02,-1.033078653613997755e+00,1.042761462620825696e+00,-3.306156252201518115e-03,-1.819067159759750474e-02,-6.516271997674532093e-03,1.799434304237365723e+00
-4.202789516846260759e-02,-1.141603570979024873e+00,1.068629742694534146e+00,7.975527105438119657e-03,-5.015580238880718716e-02,7.442372761305033821e-03,1.916189670562744141e+00
-5.443165741338830410e-02,-1.250966825363304613e+00,1.134045010679270327e+00,-3.213146575908658320e-02,-7.595514205103523486e-02,-3.780775507216836695e-02,2.071453809738159180e+00
-4.517574716342354080e-02,-1.029435627822745891e+00,1.017118897763439334e+00,2.963704056275695900e-02,-5.223269006407053883e-02,9.567243276938479108e-04,1.775847434997558594e+00
-1.003850682276754280e-01,-1.325872904553259346e+00,1.331155548896404861e+00,-2.878204520116868937e-03,1.384209108113483300e-01,-3.046652275251025485e-03,2.315814733505249023e+00
-7.382684013580699534e-03,-1.045893801978868387e+00,1.036493192057518886e+00,-2.720506549085300457e-02,-7.901518297134023719e-03,1.165094744650562938e-02,1.804182291030883789e+00
-6.458684274839066042e-02,-1.067715618920321630e+00,1.092066355247954590e+00,1.124973096265438448e-02,3.030565493107074092e-03,2.660323571790327462e-04,1.872109413146972656e+00
-5.413140305475946934e-03,-8.606012145493661114e-01,7.527842038220057264e-01,-6.434845619697664165e-02,7.413018127956916281e-02,1.985598558154508600e-02,1.408794522285461426e+00
3.792505074630216078e-02,-9.878838205592643806e-01,7.147337824792143746e-01,2.334076877479002998e-01,3.361332098436248805e-01,-8.169908780442325380e-02,1.651377797126770020e+00
1.299213143368016798e-01,-1.089943057346660416e+00,6.219100905404792989e-01,6.206858846342614908e-03,5.411634937593717311e-03,-3.887955840941197116e-02,1.528077244758605957e+00
2.916793525356906058e-02,-9.576184573445423176e-01,7.350738998121788548e-01,-9.041540787103209686e-03,-3.313580051886844818e-02,-4.882094128575364955e-02,1.476251602172851562e+00
4.109847706470841355e-02,-9.523082580999108204e-01,7.092273289860503427e-01,8.071444301498538476e-03,3.822808156716851757e-02,-2.304427639516065662e-02,1.450223922729492188e+00
-5.518764133000743366e-02,-9.901291688728633966e-01,9.239105883477233272e-01,2.237169048137576180e-02,-1.148816098661432222e-01,-1.949319290982482258e-02,1.670444011688232422e+00
1.819165507755581696e-02,-9.558647928171557506e-01,7.613353281927117688e-01,1.276039241605597327e-02,2.194405253665362120e-03,-2.088107806810125811e-02,1.492220997810363770e+00
4.970937612597302324e-02,-9.426619180049500279e-01,6.676852356207764183e-01,1.043121969671585020e-02,5.308028306790300854e-02,1.002750581285897884e-02,1.410332202911376953e+00
-5.420396486038903117e-02,-6.020152205129866152e-01,8.551897910809999059e-01,9.443271983668594105e-02,-1.661133890694547382e-03,2.001925939036010293e-03,1.285318374633789062e+00
-1.415034241283255612e-01,-4.632513526920977176e-01,9.141068509302752165e-01,1.183192953296313132e-01,-1.319193630359838040e-02,-2.442071114999049691e-02,1.265616297721862793e+00
-8.276775115594423027e-02,-5.662046782306845438e-01,8.622500856502479660e-01,1.817723173125892488e-01,1.552715569086429541e-03,-2.559697696122989821e-02,1.297968745231628418e+00
-5.254570784167682945e-02,-9.025972375021169558e-01,1.122913431573277832e+00,2.451662199821365851e-01,1.047005618680321194e-02,1.149495911252200880e-01,1.823124051094055176e+00
-3.697719538962928459e-02,-8.974441683070433218e-01,9.809547244016474377e-01,7.964592789254536231e-02,1.442845441028097267e-02,-2.622749859677223419e-02,1.635299444198608398e+00
-1.812554156272936368e-01,-7.916969509446279973e-01,1.157119089026040992e+00,3.755689257557235372e-01,-6.761769649245756922e-03,-1.185447667435380811e-02,1.845155596733093262e+00
-3.659612865388911507e-02,-7.806790673642091116e-01,8.967076233978276134e-01,8.281512679709597535e-02,2.336949024765835534e-02,-2.084017181860956490e-03,1.463351368904113770e+00
-1.732271563745584053e-01,-5.102692288616063054e-01,1.160936928479554320e+00,2.563229046277109568e-01,-1.375087771155386607e-01,1.221977809549049387e-01,1.625388503074645996e+00
-1.798650153040380895e-01,-3.117171973470553858e-01,9.118675180547684000e-01,2.414629093717357011e-01,-1.005668177507819949e-01,-7.823917061996558953e-02,1.255719065666198730e+00
-1.504748675055077312e-01,-2.749980172561077296e-01,9.859665254358435105e-01,2.165818278486700277e-01,-1.995912956758779527e-02,6.995262080162627238e-02,1.266932010650634766e+00
-6.955168389318992783e-02,-9.089712260124872545e-01,9.426070468938001490e-01,8.061155683181610646e-03,-1.184400263115108860e-03,5.159055479921448133e-03,1.605925083160400391e+00
-8.200350447651606756e-02,-8.505628831930304168e-01,9.209378998261307236e-01,-4.490150165088555717e-03,-4.078179315924185602e-03,2.705770851033440644e-02,1.539383530616760254e+00
-4.273011243026697548e-02,-9.491895410750432749e-01,9.476349961197620964e-01,-9.569594622686602645e-03,-1.009977107548503533e-03,1.257586944683330120e-02,1.643462777137756348e+00
-8.217306340210325799e-02,-7.225858925642922870e-01,1.036336680929701215e+00,-2.259059383904162555e-01,-2.032026765114976295e-03,6.706832763529765873e-02,1.595026016235351562e+00
-4.007251083624895072e-02,-1.239722516019322818e+00,1.330460879645231076e+00,1.345557182936530372e-01,-1.657556165204412957e-02,2.871177981237221441e-02,2.240378379821777344e+00
-2.874616918272842464e-02,-9.098782223081560705e-01,8.740988992118572387e-01,6.102067836278155313e-03,5.999657840711819859e-03,-2.604698766543598037e-03,1.545085310935974121e+00
-5.724626287075138681e-02,-9.210207465963179407e-01,9.360350563296778725e-01,-4.774956577719178391e-03,-9.010833485763125247e-03,-1.133555951166828960e-02,1.609777212142944336e+00
-5.493472895637450948e-02,-9.631786506058040986e-01,9.426276418592351991e-01,-4.219816781799954133e-03,-8.972913250528722446e-04,8.099974111644434385e-03,1.651157259941101074e+00
-8.412317607539326891e-02,-8.603955121816967422e-01,9.286116286183988544e-01,1.027351459263487962e-02,4.549725025409142795e-03,3.520607292743766631e-02,1.555148124694824219e+00
-6.316766106248637713e-02,-9.219630044882635156e-01,9.396528060405506810e-01,2.180651801679152346e-03,7.365970287107909825e-03,-9.544175023658861556e-03,1.613953590393066406e+00
-2.072756495579418032e-02,-9.594760996133691044e-01,8.488177687891076406e-01,1.118679869431379002e-02,1.640972793092996315e-03,-2.356918097443215857e-02,1.567064881324768066e+00
-2.625925235182411180e-03,-9.908541864024534851e-01,9.596842577621157444e-01,1.706022303162888637e-03,1.113581533790072029e-03,-1.591361757459635934e-03,1.689271450042724609e+00
-1.434384221707331146e-02,-9.851877433335329837e-01,9.653572588551109224e-01,-1.949670115831986933e-02,1.810081094830305777e-03,-1.460524795869390510e-03,1.689569592475891113e+00
-3.546736476315337852e-03,-9.798430078932124365e-01,9.557387244820000349e-01,2.288958571088289731e-03,1.113006199090006568e-03,3.365319899944002428e-03,1.676300406455993652e+00
-2.885004431332991240e-02,-9.977608995695932403e-01,9.661473315736200940e-01,-7.926815263994514216e-04,5.081601870574908864e-03,-5.098825687968245495e-04,1.700868010520935059e+00
1.020854061073726837e-02,-9.743018902499622769e-01,9.479308665177184068e-01,1.315551608015245229e-03,7.192208935206400450e-03,-4.638845907701604800e-03,1.664934277534484863e+00
-1.172012311440511281e-02,-9.937682797341160779e-01,9.587174326429138693e-01,-8.954303472888832521e-03,1.627690794851396200e-02,-8.821709431224233899e-03,1.691287398338317871e+00
-6.464262826970714262e-03,-9.848319992099540121e-01,9.599377991696916856e-01,1.829527807364743483e-03,1.018931852978176289e-02,4.186584033885412844e-03,1.684341788291931152e+00
-2.026351723263471530e-02,-9.361588125444720854e-01,9.440586103888969349e-01,3.714842931752855744e-03,1.853347308513324590e-02,5.955179886603331231e-03,1.628857851028442383e+00
-7.337550081614963027e-02,-1.043966831868917478e+00,1.046702796182288342e+00,1.381139549009597831e-02,-3.653447594181435595e-03,1.350982705365872012e-02,1.812435150146484375e+00
-6.575105935828973180e-02,-1.044911918177757304e+00,1.047696726645917842e+00,1.349828109168140292e-02,-1.879399487318900858e-02,1.194321047729027079e-02,1.814056396484375000e+00
-7.322221877420058769e-03,-1.010127632244446350e+00,9.824179083630921738e-01,5.339016118996823927e-03,-7.397298780955394171e-03,1.766946471312144402e-03,1.725682497024536133e+00
-3.962826237473833502e-02,-1.032122992078819523e+00,1.025320195222375386e+00,5.091639244329924582e-03,-8.702475734366603433e-03,-5.899064988444295901e-04,1.782252192497253418e+00
-4.473219381319288451e-02,-1.054049307009910841e+00,1.071318891664573503e+00,-2.826190655193239892e-02,-3.623810166145331052e-02,1.319484113106155800e-02,1.843257665634155273e+00
-6.245125459327282441e-02,-9.930843781190992203e-01,9.795769888595886599e-01,3.248765551989840801e-03,-8.225825110818514932e-03,4.096615474906022993e-03,1.709365963935852051e+00
-4.812416369768351271e-02,-1.024833928470603395e+00,1.039624363219747050e+00,-9.223902948465567339e-03,9.523301423875973025e-04,-7.059589076168638032e-03,1.788848996162414551e+00
-1.523336250626554540e-02,-1.019639143447633067e+00,1.018765155879323370e+00,-1.276437283534452745e-02,2.327159159495893574e-03,-4.856727215152901490e-03,1.765534996986389160e+00
-3.296404126816997182e-03,-1.021050752387792748e+00,1.015424111658600026e+00,5.431026773110599233e-03,1.525227078509872308e-03,-8.548230699217215789e-03,1.763728260993957520e+00
-6.548616582714690548e-02,-1.292232048656051902e+00,1.367279556392460016e+00,-5.683937242072348989e-02,-1.757727793902145175e-01,7.249275960417912723e-02,2.330988645553588867e+00
-3.209633785846212339e-02,-9.667190318670743077e-01,9.155628620048325006e-01,-3.165923411148279659e-03,8.675312007400797496e-05,1.026212771873157882e-02,1.630223155021667480e+00
-9.936884054382646991e-02,-8.116237857208198347e-01,9.304975672365698447e-01,4.665462019293484339e-04,2.935247976562375440e-03,2.173582655659233448e-02,1.517531991004943848e+00
-1.171908525712148930e-01,-7.175190892348717320e-01,9.098101711418116189e-01,6.229773078862368973e-03,-2.551940855563049337e-02,-4.761613058563964745e-02,1.428472876548767090e+00
-4.639503109563006961e-02,-9.328817065977187406e-01,9.012947170413165843e-01,-9.381452263909767497e-04,-9.836479714227428471e-04,-1.550932046253819876e-03,1.588742136955261230e+00
-1.476298263445856296e-01,-5.790315911922789827e-01,8.692261601205960586e-01,3.763797382876761521e-02,2.140710591618467419e-03,1.424744072543509057e-02,1.289825439453125000e+00
-1.034185229630040781e-01,-7.755598422820046967e-01,8.761315430529761361e-01,2.802997034281968971e-03,2.658293931988598297e-05,-5.565821154158899497e-02,1.441875696182250977e+00
-8.371432671412079585e-02,-9.789690811047683239e-01,9.561037436201995643e-01,-9.995320040069085449e-04,1.057120828979873049e-02,6.422681372883744244e-03,1.677518010139465332e+00
-5.830250917641768837e-02,-9.715929992432079665e-01,9.171622055975037213e-01,-5.352358794193792096e-03,1.374833553630303538e-02,-1.385042530384404972e-03,1.636206746101379395e+00
-4.986576139281203440e-02,-9.851959841129197537e-01,9.426416230201863922e-01,-7.199509033132957085e-03,3.069508052171100211e-03,-8.655916382655381601e-04,1.669856786727905273e+00
-4.435865220010211385e-02,-9.859590504926352139e-01,9.444092303966042934e-01,-1.069639116955661828e-02,8.845860833081534841e-03,7.063353079776495819e-03,1.672131896018981934e+00
-4.097032867027917968e-02,-9.692873354795994434e-01,9.411648573643925930e-01,6.044804749932890719e-04,3.673210373561219821e-03,-2.996279694341704922e-03,1.654739618301391602e+00
-5.941476793055733285e-02,-8.935824821849466248e-01,9.273693297734113550e-01,2.233528272308050056e-03,1.734550913987738252e-02,1.283333063022911412e-02,1.579282641410827637e+00
-5.447674339720937065e-02,-9.359763430642998872e-01,9.470662426741732753e-01,1.028047829147237229e-03,6.539740313805413562e-03,-1.015080392658640647e-02,1.632001876831054688e+00
-1.560826363784821938e-02,-8.117859551713101363e-01,7.497576039386717461e-01,-2.061280161414754883e-02,1.691241394696868169e-02,-1.796946390985762650e-03,1.353215932846069336e+00
-3.449984919540136086e-02,-9.795784828676026290e-01,9.374105801768586321e-01,-4.593489309694776847e-03,7.514709852685650445e-04,-4.416223358546266832e-03,1.660252571105957031e+00
-3.712459539558400634e-02,-9.820514228968042492e-01,9.399654680918527738e-01,-4.689100184677039151e-03,6.719690250346192946e-03,4.497281061184761793e-03,1.664671897888183594e+00
-3.759860260259534348e-02,-9.409087358366300391e-01,9.448618911763378980e-01,2.972300345697761310e-04,1.686503166056728051e-02,1.177046881750246597e-02,1.633993148803710938e+00
-3.526133991133573176e-02,-9.803042639844933293e-01,9.516059825282252582e-01,-1.542955382822415195e-04,5.453584381267367540e-03,3.427958658751493939e-03,1.673251271247863770e+00
-3.320912927852386065e-02,-9.803799494646621149e-01,9.316144001098868310e-01,-4.723606298025590303e-03,-5.720926568348511793e-03,-7.750636528647974772e-04,1.655909657478332520e+00
1.736131959833766558e-01,-1.939497846660202196e+00,1.182686496345169536e+00,1.129827423379015927e-01,-4.218007682533924108e-01,5.697019583199956771e-02,2.863132953643798828e+00
-5.238717454632153131e-02,-9.500128445062924198e-01,9.498427007343157591e-01,-6.512979346253838439e-03,7.902844881447039505e-03,-2.761070379187633914e-02,1.646944284439086914e+00
-8.056197130072229040e-02,-8.085118105746936790e-01,9.112007635695369423e-01,-8.254781353567952618e-02,-1.776724003425813117e-02,-7.115814094203001816e-02,1.507328033447265625e+00
-8.264407020379054003e-02,-8.345516558980436983e-01,9.080185874864513673e-01,3.820536488327033677e-04,6.905391047793782260e-03,-2.893035511445049904e-02,1.514700889587402344e+00
-5.708799635139591433e-02,-8.454192042228060311e-01,9.035077032203551184e-01,-1.273257060763388453e-02,7.109159647733031585e-03,-3.335559505997303525e-02,1.518371939659118652e+00
-1.405053040672793740e-01,-7.992397397583071994e-01,9.717343575101778930e-01,4.420262415601685507e-02,1.927492693060192663e-02,-1.549092010129836383e-01,1.575641274452209473e+00
-1.967116453700808176e-01,-4.686566992478251592e-01,8.930035721352109768e-01,-2.334944346068370744e-02,8.744586335594911608e-03,1.480673168601502609e-02,1.249119162559509277e+00
-2.823079615676683113e-02,-9.962805856786735026e-01,9.679422921130117485e-01,2.249356639403807777e-03,1.516133952483266758e-03,1.466930317452000421e-03,1.701133370399475098e+00
-1.319744026262567593e-02,-9.929004434471666585e-01,9.616808826568370439e-01,8.882619940134446872e-04,-6.775109067983842159e-03,6.541457804600206861e-04,1.692760586738586426e+00
-2.748153435017178930e-02,-9.979744365417657637e-01,9.656506775379789520e-01,-3.546839408936326514e-04,-1.542090113111620631e-03,-1.171495943256227728e-03,1.700590372085571289e+00
-3.712594830142332963e-02,-9.970820726830971203e-01,9.640738314536282383e-01,-1.367567292041904203e-03,-1.052379238793052594e-03,2.173614167401221285e-03,1.698542833328247070e+00
-3.795240378965186734e-02,-8.760753341184311926e-01,9.367345749530113785e-01,9.594362963416754085e-04,-2.747805942616706604e-02,-2.102141610793832605e-02,1.572566628456115723e+00
-2.090936916240841714e-02,-9.916424735104182320e-01,9.632571275552656020e-01,1.304571349759571378e-03,-7.324299444470297633e-03,3.402638009418299837e-03,1.693065285682678223e+00
-3.372178760483592053e-02,-9.945504537664252576e-01,9.624327170915015772e-01,1.058659021812806975e-03,-4.251977778134178286e-03,2.691521557420193007e-03,1.694912552833557129e+00
-4.210727561761178073e-02,-9.685474241082300262e-01,9.367133444720654456e-01,-1.772296462123528708e-03,1.277793043104262071e-03,2.573197638961622052e-03,1.650222420692443848e+00
-3.619993061443557009e-02,-1.097651271129763684e+00,1.244189969333950874e+00,1.466349718564537996e-01,4.646592860341969278e-03,-6.555616689216114089e-03,2.046911716461181641e+00
-6.106253953004272400e-02,-9.894635971150104181e-01,9.656271288424113086e-01,-2.315935711215016436e-03,1.535770413791989579e-02,3.876236612609988696e-03,1.694098234176635742e+00
-1.008935287423848581e-01,-1.022306251499764285e+00,1.031900257894233786e+00,9.159772721507374732e-03,6.347716999532410087e-02,-5.827718425766143656e-03,1.785619020462036133e+00
-7.301001094653936097e-02,-1.028301424771960848e+00,1.045407068892616476e+00,6.549624302607398758e-03,1.389079139297086721e-02,-2.482968999366608892e-03,1.797937393188476562e+00
-1.494406171794617974e-02,-1.229366322264397793e+00,1.131870941324128799e+00,6.252118773143074126e-02,2.577131370613953282e-02,1.229332091504560173e-02,2.048632860183715820e+00
-3.594911502684318416e-02,-9.834345566156658114e-01,9.341441392225565687e-01,3.107035767647450993e-03,2.580495449466371771e-02,-5.510535572617868486e-03,1.661347866058349609e+00
-3.565657180596140674e-02,-9.585452031736619860e-01,9.267846611723042916e-01,2.090445438454940289e-04,-3.259229321831491350e-03,-5.089139626735235226e-03,1.632896900177001953e+00
1.173036144966850547e-02,-9.413241372505944948e-01,9.402378374530969696e-01,1.379334351372326142e-02,-1.109503282455620229e-02,-3.947753136232596410e-03,1.629829406738281250e+00
1.098554345110658650e-02,-9.178057317910272017e-01,9.320466944158528610e-01,-1.207711812898064818e-03,-1.250652698260587038e-02,-2.772268933125561887e-04,1.602171778678894043e+00
-7.580781566220348364e-03,-8.683926775286247013e-01,9.167327770430018230e-01,4.981669949330091302e-02,-1.855046678377520949e-02,5.967403239102114440e-03,1.549063324928283691e+00
-5.102367262576495976e-02,-6.570888350309771475e-01,8.562569104839051759e-01,7.173615303883590366e-02,-8.008574145176241979e-04,7.321042816287379532e-03,1.325120806694030762e+00
3.686680084964433397e-03,-9.321950162410747032e-01,9.442877669469325053e-01,2.277866495342154365e-02,-2.178496945301955021e-02,-2.781124764500422439e-02,1.626713514328002930e+00
-6.054453177324285729e-02,-6.679296197276923808e-01,8.800306526667062146e-01,6.503222968675632931e-02,2.885973501210131568e-03,8.952899171951965093e-03,1.355670571327209473e+00
9.301372251538828420e-03,-1.052271544270338755e+00,1.023253130900152019e+00,1.125342372390487899e-01,-2.011346819615649276e-02,1.858206720300629652e-02,1.808773159980773926e+00
-5.515512393593381690e-02,-7.194343077458534852e-01,9.155011227483325076e-01,7.184434537634848406e-02,-1.117920373712899193e-02,-5.518581346490454564e-02,1.432907342910766602e+00
-3.385671005377621084e-02,-8.633899075105245791e-01,9.158654127116804267e-01,4.626123668821934681e-03,-2.943495672089577186e-02,-2.170962543701994429e-02,1.543373227119445801e+00
-3.579978431245958714e-02,-9.907984351350551666e-01,9.541178887059555969e-01,4.843150668471413482e-04,5.725539210531333661e-03,4.906999921654163791e-04,1.684467077255249023e+00
-3.530618015190167824e-02,-9.835800714647120468e-01,9.511408007581363400e-01,4.073144123311254333e-03,5.892019010398191065e-03,1.376400172924857439e-03,1.675673723220825195e+00
-3.701772875683770336e-02,-9.778442923952215260e-01,9.484148739663702532e-01,1.813950312575841016e-03,2.802184658618733434e-03,2.838705559513978946e-03,1.668355703353881836e+00
-3.960169201295425656e-02,-1.024375153576786879e+00,1.023221074761029525e+00,4.325002937165311166e-03,5.936228624562552708e-03,-8.312090046888475151e-03,1.773803710937500000e+00
-4.680587683378550912e-02,-9.185220373956618500e-01,9.438893532187121460e-01,-1.659942211076284244e-02,1.869745248793895989e-02,-2.859516485785268750e-02,1.615332603454589844e+00
-3.050153080620473037e-02,-9.758854138336383599e-01,9.074516338726597020e-01,9.120255794588826015e-03,2.905234607646975300e-03,7.879068239770636861e-03,1.631163358688354492e+00
-2.633131240948452176e-02,-9.744719557591804415e-01,9.000007756293567640e-01,-3.061711445967832705e-04,1.053321335662993352e-03,-9.438750609697964949e-03,1.623461008071899414e+00
-5.265100176015001521e-02,-9.980222471676202245e-01,9.691511782269869313e-01,9.823465697773007752e-03,4.306427415914321037e-03,7.621707377302448100e-03,1.704203128814697266e+00
-7.980785028791963220e-02,-9.766481310002353977e-01,9.534539235341404906e-01,-3.415214935278139408e-03,-4.598660979726984510e-02,-9.786185428717061180e-03,1.674899935722351074e+00
-3.807686538883434113e-02,-9.546827204637803321e-01,8.277976845346907142e-01,-1.379988312129961162e-02,-3.616351941262686831e-02,-2.337217103994485706e-02,1.545866847038269043e+00
-3.886318614259662296e-02,-1.004147409587883732e+00,9.718114581183580070e-01,-9.551319767057789636e-03,-1.044971981494021741e-02,-1.656512163989798392e-02,1.711797237396240234e+00
-1.992954809153712342e-02,-8.870182330228683076e-01,8.518924235036520187e-01,1.726769220923200787e-01,-1.178207570923791164e-01,5.258756875058918923e-02,1.551533699035644531e+00
-2.554121075253117795e-02,-9.767070179229455640e-01,8.864657995381488576e-01,-1.754277501623495439e-02,-4.515206275940850805e-03,3.835488023967235493e-03,1.613992452621459961e+00
5.643897489830143610e-03,-9.473361531909921807e-01,7.159773584536235358e-01,-1.263091547803939924e-02,-4.342012082509889848e-02,-3.526097232398122533e-02,1.448979854583740234e+00
2.372567776725102717e-02,-1.042272145990806642e+00,7.426117905737411595e-01,1.920590902133198774e-01,-3.459839455369713712e-01,3.733325983489828997e-02,1.701010227203369141e+00
-6.092685114986476358e-02,-1.021662120563229692e+00,9.222629662491454994e-01,-8.423100820787900525e-03,-6.984021608000293146e-02,-1.733068022284006693e-02,1.688196182250976562e+00
-5.959238215558117918e-02,-9.692850499936853659e-01,8.687630538030349792e-01,-1.219177767135133650e-02,-6.301761229855525059e-02,-1.443777234038358392e-02,1.595897078514099121e+00
-3.930505934576095095e-02,-9.567975452752306431e-01,8.142204368446659402e-01,-5.900052523257272828e-03,-8.535203057525787840e-02,-4.654172095607209472e-03,1.541241645812988281e+00
-6.231658156787450026e-02,-9.820786357853156234e-01,9.098887704641618335e-01,1.634651945367879451e-03,-6.448304353285982948e-02,1.259179179178061955e-03,1.642507195472717285e+00
-2.291210143672521571e-02,-1.002393231659174155e+00,8.649833143211046460e-01,-2.918060081524476157e-02,-4.121182535558696319e-02,-3.340925760637589864e-02,1.621239185333251953e+00
9.032600017821566796e-02,-9.206460953966923988e-01,4.888266401589156374e-01,1.085085080006142899e-01,-3.227420736423130543e-01,-6.287326594088515908e-02,1.394062042236328125e+00
-3.060516038574235057e-02,-9.733952237310579125e-01,9.586957296513333171e-01,-2.893030861530366139e-03,-4.623844688179057361e-03,7.200991204597605687e-03,1.673474550247192383e+00
-6.050435135465395686e-02,-9.771252201145114169e-01,9.301146899934409351e-01,-7.715768739903638811e-03,1.364466128628202476e-02,1.067991643014433445e-02,1.652459144592285156e+00
-3.507987513585612838e-02,-9.913443369551785400e-01,9.489257668505651777e-01,-7.158738630985633095e-03,-8.140275583819996455e-03,-6.940251029386204119e-03,1.680528283119201660e+00
-4.807785581506258954e-02,-9.874257695984033356e-01,9.533234085055121154e-01,1.065798221717621872e-03,-3.003755130699337517e-03,4.404596302184122548e-03,1.681050777435302734e+00
-5.539628092482479921e-02,-9.791162287960064603e-01,9.330262773353673600e-01,-7.900699034693824813e-03,5.141683423690351007e-04,1.446033730108842522e-02,1.656526088714599609e+00
-4.676373622891458887e-02,-9.709940502646421390e-01,9.005131540006366953e-01,-1.016499810541297323e-02,1.258247356662349709e-03,1.545522334638759973e-02,1.621131896972656250e+00
-4.003916451586053693e-02,-9.749656382927942566e-01,8.846137756873104774e-01,-1.571427310866729127e-02,1.751004965908452629e-02,1.373654985381561611e-02,1.611142396926879883e+00
-2.939064293052726096e-02,-9.727971057970409285e-01,8.983572309611058682e-01,-1.163175875407140153e-02,-2.052091853345325203e-03,1.271746415695186247e-02,1.620764970779418945e+00
-1.570597571554071398e-02,-9.809230988509360927e-01,9.588902176528798504e-01,-2.296779766478190040e-03,1.220971481589278908e-02,-2.182997537762804661e-03,1.680076241493225098e+00
-4.293611213106708624e-02,-1.140196532288606068e+00,1.165917343546256202e+00,-7.666009572338026989e-02,-6.857247777778353870e-02,-2.732228479971438202e-03,2.005864858627319336e+00
-3.226463977186781740e-02,-9.493809589393131798e-01,9.141559252907610622e-01,1.650321217595857037e-02,6.324826566856485768e-03,3.246505589454614510e-02,1.615206122398376465e+00
-6.411853206985153319e-04,-9.968618862029836603e-01,9.680077630592369697e-01,5.896457816250978180e-03,1.143258948177154968e-02,1.135909836592478503e-03,1.701829910278320312e+00
-3.092454880346943644e-02,-9.912697691935726807e-01,9.646974612239206381e-01,7.570353530800036888e-04,6.916609553976029758e-03,2.488266763715723303e-03,1.694057464599609375e+00
-1.581665763268472191e-02,-9.870651146524676012e-01,9.611368360416738810e-01,-1.525641666998512735e-03,5.952792733993817267e-03,-3.936938890621305073e-03,1.687242150306701660e+00
6.317205672748810001e-03,-9.807264198923625331e-01,9.523872116749395600e-01,-4.973198595152369082e-03,-1.647613442716584341e-03,-2.135837146821468850e-03,1.674279570579528809e+00
-6.503381895644588795e-02,-9.615409720572428709e-01,8.806608816141601181e-01,-4.214177596981028354e-03,-4.305467950721614256e-02,-7.691874856532697653e-03,1.597397089004516602e+00
-6.208709623136384609e-02,-9.853942061425770005e-01,1.006504212377490992e+00,2.043608651608321350e-02,-7.274977221686140805e-02,-1.028961456259880475e-01,1.740664958953857422e+00
-6.837281232236028239e-02,-9.763509596129307244e-01,9.418809722992111944e-01,8.124914804839004261e-04,1.672215800335799052e-03,-4.307879949216508048e-03,1.662044405937194824e+00
-7.637433968787657457e-02,-9.780479053927060296e-01,9.560990802558299029e-01,1.939524434019283816e-03,3.747906670582049071e-02,2.663178038477109275e-05,1.677556514739990234e+00
-7.037034426193346237e-02,-1.021304295890178349e+00,9.494158617629563368e-01,1.723279596995237620e-03,1.078220424634755981e-01,1.367000450149423625e-02,1.717391848564147949e+00
-2.284537171054557003e-02,-1.151861017914447061e+00,9.226674377009326244e-01,-2.785177520909867810e-02,2.246141811956244294e-01,5.288405279371478918e-02,1.843431949615478516e+00
1.292924406446819552e-01,-1.513799213326830317e+00,9.800709501024557069e-01,-3.248198883152570576e-02,4.764290362256533018e-01,-1.359464521980556229e-01,2.358186721801757812e+00
-3.530185874955964198e-02,-9.900252130327386046e-01,9.490558925620995456e-01,-4.107384981356961354e-03,1.479354421999511289e-03,-1.781596665958592833e-03,1.679378747940063477e+00
-4.390198810795573059e-02,-9.887263943692424784e-01,9.511593368619540856e-01,-1.907645394095047308e-03,-2.659323732643494812e-03,-2.139852141050583786e-03,1.680191755294799805e+00
-6.171764322471935682e-02,-9.792679182280529249e-01,9.404360379335904296e-01,-4.269910789679792935e-03,3.854933841782893638e-05,-4.714283428865490531e-03,1.663087010383605957e+00
-4.797185397124220652e-02,-9.853868370964991019e-01,9.488073628920690172e-01,8.773538732787457446e-04,1.404238991723187439e-03,-5.177259863577917537e-03,1.675350785255432129e+00
-5.215654337596252466e-02,-9.822861617351846819e-01,9.368372163640187322e-01,-6.254364140046505746e-03,-7.279330963277954453e-03,2.022731009990558996e-03,1.662356972694396973e+00
-3.346070664822333590e-02,-9.655223879395651299e-01,9.301457851054097947e-01,-1.588362899753091540e-03,4.150678438885218625e-03,8.569594336981279062e-06,1.641790628433227539e+00
2.350311348936026667e-02,-9.326995023475478375e-01,6.487432763091132149e-01,9.418096841754519319e-03,-7.329076414327846678e-02,2.035261558775225410e-02,1.385903477668762207e+00
5.263254566598768447e-02,-9.472228617480620283e-01,6.509603430705444005e-01,1.230817431501014803e-02,-7.005875360307702027e-02,-9.814171504121099038e-03,1.404071331024169922e+00
1.272680900148778771e-01,-8.948933720814113979e-01,4.329426642482836485e-01,7.944862448803527780e-03,-3.304261213400434133e-02,7.122272887111196805e-03,1.205950617790222168e+00
5.283185153207904661e-02,-9.404688689899218801e-01,6.463005570079013440e-01,3.588994298022279462e-03,-7.869409400213159267e-02,4.687878591098731951e-03,1.395359158515930176e+00
-5.058877781477417318e-02,-1.025319437374663023e+00,1.022970662021766897e+00,-3.463917022828318093e-02,-5.824519115560168603e-02,-1.025656341638197383e-02,1.778525710105895996e+00
-1.056644338313662557e-01,-6.865509545144701242e-01,9.121800289492633107e-01,4.233828337429608457e-02,3.123067985821502066e-02,4.701506610407417408e-02,1.406991004943847656e+00
-4.837588708276235883e-02,-6.906049871866597467e-01,8.790377237783841835e-01,8.553938634484993531e-02,-9.136077581554073387e-03,-1.222722610939402065e-02,1.375069499015808105e+00
-1.051812856342815572e-01,-6.096264315469579476e-01,8.727394316359077253e-01,8.179820728494435755e-03,-9.582975636341247144e-04,8.058326137846152232e-03,1.305564761161804199e+00
-1.080722291491513637e-01,-5.383743983368352026e-01,8.469220800202053034e-01,2.746414448055462323e-02,1.432470559277540523e-02,7.695948438621122434e-02,1.236429095268249512e+00
-1.457270517630459561e-01,-2.474534770416020879e-01,7.979514762029568109e-01,1.868195136338271778e-01,-6.144980800574362245e-02,-5.465512315744232297e-02,1.059183120727539062e+00
-1.060411278951306491e-01,-7.392076735651392783e-01,9.149938618809291269e-01,8.823695036102828515e-03,8.704686842779927117e-03,-1.547116859337910669e-02,1.446055531501770020e+00
-4.062505216566089650e-02,-7.048259255002952139e-01,8.774236467517272375e-01,7.614043140340760740e-02,9.671755405530106653e-03,1.126424086540600729e-02,1.382677912712097168e+00
2.304818077931345896e-02,-9.758593596450715335e-01,9.505570785695587332e-01,-3.049048357133286175e-02,5.816691631665669125e-03,-1.027490658668391357e-02,1.669668197631835938e+00
-5.125037220993397535e-02,-7.025646218984957780e-01,8.866975546735100799e-01,-6.014642536982764409e-02,2.542833754245299102e-02,-3.823536863801832442e-02,1.389976143836975098e+00
1.449034567362083095e-02,-9.205387264226101429e-01,9.252611335862116482e-01,-2.015321507306467794e-02,1.622878730256895746e-02,-1.120668864592863981e-02,1.599301457405090332e+00
-2.129782097909604377e-01,-1.261018054634457597e+00,1.697250182625965387e+00,-4.297907292463468698e-01,-1.291836622306747340e-01,3.825247500902134029e-02,2.712558031082153320e+00
-1.782226441138552026e-02,-8.001497721634965865e-01,9.044990757074632404e-01,-8.524271533937087530e-02,3.273147311779917544e-03,-1.343023297402358646e-03,1.485296845436096191e+00
1.838247176110253261e-02,-9.441439346059116167e-01,9.520412452212462240e-01,-4.718445174095827616e-02,-1.388474156976292166e-02,1.058249896791945560e-02,1.644518256187438965e+00
7.892907757940170049e-03,-9.295409755911094862e-01,9.357753728974224083e-01,-1.711867574334081932e-02,-8.600054567341993902e-03,3.825757222136277197e-03,1.615772724151611328e+00
6.533811311366596181e-03,-8.270085115176076807e-01,8.984382780451430905e-01,-4.387785605375614517e-02,-8.595332074676375125e-03,-3.654079459938592601e-03,1.496584057807922363e+00
3.578427184034851938e-03,-9.403364215066659648e-01,7.708572522498757795e-01,1.059375311333883682e-04,2.962585817286021630e-03,-5.220140384717414372e-02,1.487326145172119141e+00
4.136025091986961222e-02,-1.018715334768909964e+00,7.720199275782683168e-01,2.538631271236212877e-02,1.283822410865211559e-02,-8.963851648143880257e-04,1.560323238372802734e+00
-5.045065064722779880e-02,-1.034583136700871098e+00,1.036024300041500812e+00,-1.479593658481630734e-03,-6.221930971694090724e-04,-9.259116626891038607e-04,1.793931484222412109e+00
5.314217066423533586e-02,-8.838765689355271293e-01,6.382126647442444289e-01,-2.289461528936523049e-01,-3.186934430139499730e-01,-8.095141075192249791e-02,1.500046133995056152e+00
-1.485134357354477019e-02,-1.132547490103217980e+00,9.889209032947989808e-01,-1.354461214587025786e-02,-1.651426716122445515e-01,3.016610610174428123e-02,1.861132025718688965e+00
-3.242873241073601642e-02,-1.001815684177854493e+00,9.389354339609582434e-01,1.375946623486501777e-02,-4.199646163783139069e-02,3.446315514150798814e-02,1.683540701866149902e+00
-5.508893374366584383e-02,-5.330417265180726893e-01,6.976706104364550631e-01,-9.066375613330032723e-02,-1.420168784008962459e-01,9.779182941108584270e-03,1.113697648048400879e+00
9.033348713872096925e-02,-9.188702946965787710e-01,4.447434030605814659e-01,-4.132889030042707218e-02,-1.225033666282712153e-01,2.706064523220807483e-01,1.331014513969421387e+00
2.119184064443512261e-01,-1.332279934137418742e+00,4.541881545626641481e-01,-2.615272587697968221e-01,-2.556884982057106015e-01,-3.373619215308811814e-01,1.886826515197753906e+00
-7.614583557485885001e-02,-1.017716499342702363e+00,9.455110877652025403e-01,1.558403549780286793e-02,1.278447405662732350e-01,-1.679300461567282202e-02,1.715490579605102539e+00
-3.303351364751706126e-02,-5.914614275421409273e-01,6.145077815224623263e-01,-2.091739838262715590e-01,-1.572767670516818650e-01,-1.396918050082393281e-01,1.164803504943847656e+00
-6.847885774803656733e-02,-8.089450022363162685e-01,8.674039322160240761e-01,-3.070460495035022552e-02,1.791034395466862758e-02,-4.124102271587159335e-02,1.458097815513610840e+00
3.150385727545507164e-02,-7.806548647997320067e-01,3.450468135702164929e-01,-1.482550459441880353e-01,-8.486046759661608485e-02,-1.578774093683779634e-01,1.083917021751403809e+00
-2.400638325988172644e-02,-9.756877698774060192e-01,9.053739995765633930e-01,2.213139225594345973e-03,-5.578210962228673589e-03,-2.402308284376853363e-04,1.629118680953979492e+00
-1.101850065337337814e-01,-8.032128663875827135e-01,9.498637932763550618e-01,-8.792630102846800411e-02,-4.756793470281878849e-02,-4.771273498618681941e-02,1.541247963905334473e+00
1.614273617501570390e-01,-1.204465909085599140e+00,6.002506014822182046e-01,-6.486117443306700647e-02,4.548659671714250785e-01,-9.707000625499562219e-02,1.821870923042297363e+00
-4.286333733313666544e-02,-1.098835577321989776e+00,1.072577411102507927e+00,1.561744871104422117e-01,1.807324340022214704e-01,2.705248271772401486e-02,1.926270842552185059e+00
-3.205575934303820512e-02,-9.920280884907924923e-01,9.637771587383486827e-01,9.454964258374099623e-03,2.215396147163741988e-02,6.788950617385449381e-03,1.694426417350769043e+00
-5.275910789233376197e-02,-1.000882004380312607e+00,9.495603670424854759e-01,-1.616653490812128280e-02,2.605512995126313402e-02,2.855509967762519252e-02,1.690908074378967285e+00
-8.825845318687089436e-03,-1.023185918390737692e+00,8.688303364948084528e-01,2.832272790610290344e-02,1.839897743932756291e-01,1.848014836398295668e-02,1.671661972999572754e+00
-7.879228234192248159e-02,-9.616229647163868632e-01,9.101821001344522211e-01,-3.298139917856302743e-04,-1.562609544356156205e-02,-1.835950367215699727e-03,1.622128248214721680e+00
-1.287060527992536785e-02,-1.543418533947276128e+00,1.270489796644127090e+00,2.933597597002265411e-01,2.297962447570529032e-01,-2.169216088556695510e-01,2.551783561706542969e+00
2.182545067832318553e-02,-1.070824675631937506e+00,7.426013448821834340e-01,6.845437720012885474e-02,2.611058259250619296e-01,-1.847546957283064673e-01,1.679865360260009766e+00
1.876461842306952066e-01,-1.763823900798755284e+00,9.736439774188241358e-01,-4.422746739975555452e-02,3.210814241097298405e-01,-1.328697817689506455e-01,2.515549659729003906e+00
-1.098866260625744329e-01,-1.006434025501164342e+00,1.039223925499681345e+00,2.734632013667051727e-03,7.032028428778355766e-02,1.866223296580002411e-02,1.780557870864868164e+00
-4.227015247651435409e-02,-9.691937182952166108e-01,9.318704177837077163e-01,-2.490853980693149964e-04,-7.675321534552936344e-04,-4.313944560928977857e-03,1.646556615829467773e+00
-3.096146497708816836e-02,-9.639584243507277606e-01,9.107207183873505807e-01,2.389769724031749407e-03,1.481664621796577059e-03,7.846963820882070853e-03,1.623589754104614258e+00
6.715054855776156351e-04,-9.558033897858951855e-01,8.218344950917432223e-01,-1.801966623607484559e-03,-6.114929240123581026e-04,2.488599241626725245e-02,1.541571736335754395e+00
-3.687496579583918188e-02,-9.728190698578000895e-01,9.435804799701046353e-01,1.127210686582208205e-03,-6.362112801074129402e-03,-1.094468487642991658e-03,1.659838676452636719e+00
-3.097447769431949799e-02,-9.751212723412008287e-01,9.089626901976506357e-01,-4.779974036056206833e-03,-4.707392202485656627e-04,-7.706409138206771550e-03,1.631741762161254883e+00
-6.025421444228078183e-02,-9.260740058372718408e-01,9.399207299198774068e-01,-6.019611148214694223e-04,-4.182435877248209593e-04,8.121682560144984075e-03,1.617456197738647461e+00
-3.958643296914907822e-02,-9.716377127721786966e-01,9.358830163948436143e-01,1.540949387823486658e-03,4.726543366628268260e-03,-6.158630132471680334e-04,1.652126789093017578e+00
-9.935320981356769374e-03,-7.164202012907394668e-01,7.069071680836594984e-01,5.498191327472313518e-03,-1.998296623693242291e-02,-6.715126830603664054e-02,1.238644003868103027e+00
-4.167312626349578553e-02,-9.698828156633442221e-01,9.421041888067643866e-01,5.811054585682898406e-04,-9.728607107635026119e-04,4.271793368253393348e-03,1.656080126762390137e+00
-4.369694184507021129e-02,-9.613623419219522459e-01,9.394362009868917340e-01,-2.449869484959215499e-03,-3.396533116788845712e-03,6.421915108559750861e-03,1.646518826484680176e+00
-1.870175927675012117e-02,-1.034755772562566012e+00,8.634705548857861679e-01,-1.164025285919729064e-01,2.434213408795400935e-01,2.006811185776492465e-02,1.710715413093566895e+00
-6.184919280577898248e-02,-9.941810629475829053e-01,9.729171574138669731e-01,-7.319367024798459527e-03,1.732995927197878219e-02,-4.842872247026267299e-03,1.704658865928649902e+00
-1.451148001988616758e-02,-9.932522369369735094e-01,9.669008373392502520e-01,-1.108027853954192399e-02,-3.856605725655914193e-03,4.909337157729248662e-03,1.697685837745666504e+00
-4.731316610998955591e-02,-1.027317268729081023e+00,1.028689298383526074e+00,4.582415781189717353e-03,3.326385988206600596e-03,-3.639284045932400687e-03,1.781238913536071777e+00
-6.101084613413970681e-02,-1.012011146301054376e+00,9.782886183706547278e-01,4.615279619337111887e-03,3.757581277280851867e-02,-6.728868423539369203e-03,1.725501298904418945e+00
-8.844896509664559869e-02,-1.006334054434524727e+00,1.030279488596489212e+00,-2.578040656894638703e-03,1.771544619291254979e-02,-1.654655370904467831e-03,1.766889929771423340e+00
-3.134792002964317120e-02,-1.034200701942115774e+00,1.026539798949622773e+00,-2.421640042182754762e-03,5.553498945053489920e-03,2.096705437962361612e-03,1.784900307655334473e+00
-2.828513826014697995e-03,-1.015285268008708108e+00,9.948654045483455999e-01,-8.592152305133488391e-04,5.541476213102690049e-03,6.584406608670567186e-03,1.740921616554260254e+00
-3.499343495660800843e-03,-1.004792215551775225e+00,9.871216047031323715e-01,1.202727085720233652e-03,-7.909870619832932645e-03,-6.546340186962819677e-03,1.725149154663085938e+00
-3.989339369019750253e-03,-1.053255411334673708e+00,1.025667640124422020e+00,7.084134353756081637e-02,-4.032456579867597750e-03,4.653558235418906938e-03,1.804634690284729004e+00
-1.259277470071466787e-01,-9.177077906645612071e-01,1.163205038970267946e+00,3.153974765233111821e-01,6.773866832275747540e-02,3.807073490457285039e-04,1.903071522712707520e+00
-3.700324939830133830e-02,-9.637703628382680021e-01,9.184707059387133832e-01,-7.446269602879779020e-04,-1.504704015777550644e-03,5.698886342080428449e-03,1.630164265632629395e+00
-3.345922888460620137e-02,-9.601375708006580911e-01,9.112613085993057638e-01,-7.223089494593422670e-04,-5.641368607632148494e-04,9.477944924853773725e-03,1.620787978172302246e+00
-6.363655854407788970e-02,-8.346908745528598406e-01,8.955460259762284547e-01,1.262547340244816411e-03,-2.513828737008827301e-03,-2.594591925661229870e-02,1.502058982849121094e+00
-4.445938479373184177e-02,-9.396989332983513021e-01,9.280841129310138937e-01,-1.928794093124947158e-03,-4.373803848406179404e-03,-1.235364143711325906e-02,1.618171930313110352e+00
-4.481285836079313550e-02,-9.642646536428027826e-01,9.351061783220334656e-01,-1.286654222983333543e-03,6.061291340375633829e-03,5.773909997585590335e-04,1.645216584205627441e+00
-5.493085539594769889e-02,-9.649302320222240548e-01,9.416772433722723212e-01,-2.609954364401800234e-03,-1.658009496377078115e-03,-2.125717213681667904e-03,1.651751041412353516e+00
-4.006898361460191349e-02,-9.599308238136453619e-01,9.124128201815168149e-01,-2.103771001346245537e-03,2.567749648457591256e-03,1.027568698794520570e-02,1.621687054634094238e+00
4.804073412861042947e-03,-9.296143232481244301e-01,7.888392101068728568e-01,-5.194314888171185259e-03,-6.587749174720989795e-03,-1.849012025300152823e-02,1.490537643432617188e+00
-3.202410502863456410e-02,-9.883054977070846459e-01,9.434215158358381093e-01,-2.659274727981865861e-03,9.314415772723041304e-03,2.000264741119407892e-03,1.673039793968200684e+00
-7.964445273147026383e-02,-9.761324182279403905e-01,9.796798748543861235e-01,3.092639920484079041e-02,1.954000599206173402e-03,2.650351053930404335e-02,1.697209000587463379e+00
-5.306782905721790095e-02,-9.655926642402713478e-01,9.445992290821546566e-01,-6.221226679372412333e-04,1.958229056774596875e-03,-6.045780346983845033e-03,1.654859304428100586e+00
-4.201962593086654152e-02,-9.645888751601713329e-01,9.370892180826538853e-01,-3.783132114033395713e-04,-2.061520797376729594e-03,-5.939306328915887681e-03,1.647180318832397461e+00
-2.487530498804664536e-02,-9.745590111596947880e-01,9.037618115690422282e-01,-2.010825607521467100e-03,2.648112880297536463e-03,6.708735852330452269e-03,1.626759290695190430e+00
-1.891115530076405149e-03,-9.556220267443514826e-01,8.294435156314432511e-01,-4.331111964322461629e-03,-2.495422835464864786e-04,-1.955160841565716304e-02,1.547511816024780273e+00
-4.712084805353396882e-02,-9.751884571862780016e-01,1.081675745527165056e+00,-1.339629095464129060e-01,3.411546579608980972e-02,8.791537601178971151e-02,1.806545853614807129e+00
-1.186986276859676448e-01,-4.703360541367195280e-01,8.475958766469560146e-01,-8.352838034337536910e-02,3.244017638581814245e-02,-1.045947542504075019e-02,1.192298412322998047e+00
-4.012828139026501650e-02,-9.778295979662063875e-01,9.232968412649161793e-01,-4.392553567986101290e-03,-1.279312252923089227e-02,-5.770166409295392033e-03,1.646671056747436523e+00
-2.929100006031371689e-02,-9.896164410980786696e-01,9.381147821384301366e-01,-6.303985799241103652e-03,7.218422674435789714e-03,5.450600691839981461e-04,1.669550776481628418e+00
-3.144161256865724008e-02,-9.895183905074227404e-01,9.389342964505218436e-01,-1.470433295546409204e-02,5.225150970153627158e-03,7.663406100570718197e-04,1.670319557189941406e+00
-2.094209872688050644e-02,-9.381011953737259379e-01,9.454042148854003846e-01,6.203910895068297238e-03,1.759659331207800298e-02,-6.848206076023783534e-03,1.631712079048156738e+00
-1.972864207430781447e-02,-9.968103345546438510e-01,9.636800529071973820e-01,-7.224963165948721606e-04,3.003058945833077080e-03,-2.855936206822975738e-03,1.697853088378906250e+00
-3.146969643765944874e-02,-9.959422506133185360e-01,9.621850489409120577e-01,-1.882782433173110987e-04,2.020264673592138144e-03,-1.262365904380973423e-03,1.695855855941772461e+00
-2.608582028141376297e-03,-9.729964434063681500e-01,9.518294812093349710e-01,8.113711321715063457e-03,1.069959304615821297e-02,-2.782530540800347285e-03,1.667136430740356445e+00
-4.285242697871861212e-02,-9.878246699137277487e-01,9.436621213765533644e-01,-1.011043041356858053e-02,3.403934394740907015e-03,-4.956754108319034145e-03,1.672969698905944824e+00
-8.538347338155632960e-02,-7.756962307565649084e-01,8.522274809353270753e-01,-1.448599993421288224e-03,2.359186840878287061e-02,-7.802491659019307468e-02,1.422262430191040039e+00
-9.280489880619513521e-02,-6.920390841500914103e-01,8.801332187439941945e-01,-2.724633899395503822e-02,2.120719537426770523e-02,-5.045054229971458054e-02,1.378375887870788574e+00
-3.841337951664593880e-02,-1.137447436608056694e+00,1.065788074185474610e+00,-1.343755595433984706e-01,-1.022503137444634724e-01,-3.571504395935137799e-02,1.931334853172302246e+00
-1.782021586125575874e-01,-4.361660050055812254e-01,8.488023410776547317e-01,5.027314524407943026e-03,-7.475115624349941597e-04,-2.119728929532467207e-02,1.177980899810791016e+00
-3.494444058630312433e-02,-9.414812109332498791e-01,9.411976812408590076e-01,-5.677630214190645388e-04,1.513255138060094415e-02,-7.854108232051080010e-03,1.631086826324462891e+00
3.167286937756715742e-02,-9.900352294086480764e-01,9.735308810646319255e-01,-3.822952568848504706e-02,-1.719341036813171642e-04,2.270397627214244905e-03,1.702259659767150879e+00
-7.865075554983083639e-02,-1.013798041502936176e+00,1.018318925184681145e+00,-1.541154085838985751e-03,-1.849238342700812443e-02,-2.673029161469458407e-03,1.762023210525512695e+00
-1.377883762887171515e-01,-5.090707419297076930e-01,8.383380957484168894e-01,6.201935894821825057e-02,-1.158143378979519141e-02,6.952783282372749021e-03,1.210445642471313477e+00
-1.699164554083373302e-01,-5.087655049813731845e-01,8.594862118843885623e-01,-7.903488705631858680e-03,1.129887914567980975e-02,-2.630026225945623214e-02,1.235291957855224609e+00
-1.548872734250627825e-01,-5.187454624520508872e-01,8.473564334271036502e-01,-7.011788860700307602e-02,-1.379923426369953667e-02,-3.993205442272447503e-03,1.231636524200439453e+00
-1.398079307965613416e-01,-5.293106635819934125e-01,8.767770857489094460e-01,-7.178346482080957824e-02,1.105952846411008446e-02,-9.890409079186118779e-03,1.263819217681884766e+00
-1.178027962352540536e-01,-4.650123813743178847e-01,8.391323017569645160e-01,-8.623602381267800321e-02,3.183181881932477773e-03,-1.576069461941239161e-02,1.179670214653015137e+00
-1.747435984492504424e-01,-2.309786264988408500e-01,8.885767095687515660e-01,-1.753554680816910016e-01,4.914198261896176451e-02,6.339974924469340967e-02,1.142436146736145020e+00
-2.053597486276880213e-01,-1.223125067014014244e-01,8.791526032933482115e-01,-7.057345206924420244e-02,6.699240346587038986e-03,1.080374725431398550e-02,1.052817583084106445e+00
-1.665720364313294510e-01,-5.750769754029104730e-01,9.115719609968649939e-01,-2.808293859654755753e-01,1.350370792904008743e-01,-4.443698378158320028e-02,1.437679529190063477e+00
-3.333414159490086931e-02,-9.771695807404692236e-01,9.175304081255973854e-01,-8.196330028235113835e-03,1.014366082506482254e-02,2.898582992709286042e-05,1.641017556190490723e+00
-1.820821644626366143e-01,-2.460317895017684331e-01,9.019778901584052377e-01,-2.766972127126686165e-01,-6.632345367159915572e-02,2.226935679855039651e-02,1.221871137619018555e+00
-5.542913456040141074e-02,-9.332723019244243412e-01,9.627475670231047111e-01,-3.970516714281679266e-02,-3.060779618945986755e-02,-1.549238178750075162e-02,1.646010875701904297e+00
-3.670617708021207959e-02,-5.311344807547564439e-01,5.405432237675588114e-01,-2.095468090031708530e-01,1.990016716166315702e-01,6.775062163189112495e-03,1.055346846580505371e+00
3.816994164995297922e-02,-9.538886151661430945e-01,6.900986348993017883e-01,-1.083057377252798908e-02,-7.781403925518144693e-02,-9.095784704576029278e-02,1.448889136314392090e+00
1.127912424028168492e-02,-9.561214613386848082e-01,7.074682157719118791e-01,-8.337473730071878752e-02,1.613618509940575041e-01,-7.557898099867360608e-02,1.486654043197631836e+00
-9.811369418316426283e-02,-6.329994843446994368e-01,8.649089782952041894e-01,-8.473648099533123354e-03,-3.028531325997362023e-02,5.630269226073042477e-02,1.319507360458374023e+00
2.985042025449434477e-02,-9.592720641741786514e-01,7.079466675545613707e-01,7.960231923819966610e-03,6.062172673376553522e-03,-1.738215680479578140e-02,1.452620029449462891e+00
6.285580503275940700e-03,-9.641672191687842286e-01,8.083277409882674291e-01,-1.681329313120386026e-02,3.106638209383656354e-02,2.648356846950339349e-02,1.539234161376953125e+00
1.392570116695742710e-01,-1.026794393707129327e+00,4.845641217000900003e-01,-2.409436289290691272e-03,4.926841345264779820e-02,7.941021690492167107e-02,1.381222724914550781e+00
-5.013475855854941654e-02,-1.010593654055300883e+00,1.012580498468477419e+00,5.511541647783094536e-03,-1.541177470124281646e-03,6.231349700582801583e-03,1.752927303314208984e+00
1.189850788250873953e-01,-1.327635802060965542e+00,8.484597986205041353e-01,-1.635453339161907216e-01,-5.084096586701966070e-01,-1.086646662649195724e-02,2.129825115203857422e+00
1.293019137446506373e-01,-9.227416829225469908e-01,4.415875969504833298e-01,-8.070455299129929844e-04,-3.382112656689170715e-02,3.481502608134077852e-03,1.239486217498779297e+00
-7.180067028122989747e-02,-9.186725902056984694e-01,9.458771292337554426e-01,8.091713762671119692e-02,1.007615681074104375e-01,1.413258347421728067e-01,1.650673627853393555e+00
9.633519481097148340e-02,-6.134193755805537052e-01,2.082074858743866996e-01,-1.403172329436388598e-03,-4.255621608409208140e-02,-1.044399489328481090e-01,7.961350083351135254e-01
2.582785034078046160e-01,-1.255727446930958724e+00,3.715596380401665066e-01,5.712318545656702717e-02,2.063246358013167414e-01,-1.435262311627465148e-01,1.635803461074829102e+00
5.964045921297175812e-02,-7.777476637550970739e-01,3.554014479267050275e-01,1.787163757506748940e-01,1.702377525298088834e-01,-2.308181520735237344e-02,1.104861855506896973e+00
-1.522201503056803268e-02,-9.056267842019695147e-01,8.295741296822485289e-01,-4.595085936053264208e-02,-8.640317360296788374e-02,1.607410457968890677e-02,1.512685656547546387e+00
-3.178499821888493282e-02,-8.448665183659943567e-01,7.690630359327410570e-01,-7.343353487900111665e-02,-6.939181292922130817e-02,6.412857652459565128e-02,1.413001894950866699e+00
-1.782557364844202519e-01,-1.242614055032233988e+00,1.628124516146278733e+00,-3.576442585700232990e-01,-1.514207564852928234e-01,-2.773564015086402712e-01,2.646090745925903320e+00
-3.334236431352543412e-02,-9.897418683243723869e-01,9.464783053262582069e-01,9.005369374351429243e-03,8.202765908888430546e-03,4.724918490526441341e-03,1.677009463310241699e+00
-2.037643662467977443e-02,-8.664409379194577543e-01,9.471003381382813169e-01,-8.683815139244169257e-02,-2.664187476223838988e-02,-2.871742388335829857e-02,1.580382943153381348e+00
-2.639864238907963304e-03,-8.804191126572425974e-01,9.218028554064279234e-01,2.530508285120564721e-02,1.686278712576899999e-02,-6.074345596663519031e-03,1.561868190765380859e+00
-1.770248650872847940e-01,-6.980386110225622609e-01,1.445216698049707427e+00,-2.420908154654206612e-01,-3.490708503288222908e-02,-2.418017540925941275e-02,1.982313394546508789e+00
-8.671580027119662332e-03,-9.860847982793905508e-01,9.740228530965756581e-01,-2.437263523340370969e-02,1.443972237760328750e-02,-1.725165792893731953e-02,1.698476910591125488e+00
-2.272673009778225332e-03,-9.664091896224843437e-01,9.501840582589063944e-01,5.420006148931670598e-03,7.097439559839101818e-03,2.646304374632200626e-03,1.659907102584838867e+00
1.035021789760992832e-03,-1.008011984518078608e+00,1.002090287648618183e+00,5.405453416858998009e-03,5.962515074151205838e-03,-1.501410863416332469e-03,1.740862011909484863e+00
-1.182767946164733353e-01,-8.274335184624214135e-01,1.062366431621133422e+00,-3.545986220460793370e-01,-1.927014034074960303e-01,1.636714714838828980e-02,1.795413136482238770e+00
4.453334431302921614e-02,-1.040124816006090303e+00,6.863807628584472909e-01,2.725641109228064962e-02,-1.880829178995288564e-01,6.760789976395636947e-02,1.551355242729187012e+00
1.395400116178542593e-02,-9.861031717589274770e-01,8.230185634076394585e-01,1.638850622266032134e-02,-3.392176036163223329e-02,1.607082322509773356e-03,1.571011185646057129e+00
5.387092937852286378e-02,-8.929314155214870263e-01,6.201771887008158401e-01,-1.025488233476258698e-01,-3.049898257588657402e-01,-1.561493418297428826e-01,1.461872339248657227e+00
-1.257001431634495736e-01,-2.398280403726574805e-01,7.376559552858560354e-01,-2.529302831760231740e-01,-1.287580621885148491e-01,-1.021230422970428875e-02,1.048290014266967773e+00
-1.272751811597391258e-01,-6.155422186197663237e-01,8.403458552746405630e-01,-3.445411956557575262e-01,-1.934245397142466683e-01,-1.576893403862592857e-01,1.479903817176818848e+00
-8.182739905878277931e-02,-9.654841935178967161e-01,9.291003349772061215e-01,-8.458458026930048006e-05,-5.036737788283118800e-03,-1.434044706290440833e-03,1.642017006874084473e+00
-7.109323610242851421e-02,-9.731098496127456032e-01,9.366751137868010169e-01,-5.771864931333207417e-03,-1.823936734928132200e-02,-9.628554463207886216e-03,1.655183076858520508e+00
-7.427043610799663464e-02,-9.730507165769348710e-01,9.371082334308586947e-01,-4.627737888061266708e-03,-1.437612090285169189e-02,-1.001901494134080188e-02,1.655501604080200195e+00
-7.911606931829992528e-02,-9.746801014613954983e-01,9.416087697198926021e-01,2.422587674575783605e-03,-1.620037396910137609e-02,-1.642091947991326751e-03,1.660979151725769043e+00
-7.355430640765051042e-02,-9.663637366363140302e-01,9.189734199964931793e-01,-3.105523000244175998e-03,-8.819488966977734323e-03,-1.965647979927941363e-03,1.633594751358032227e+00
-8.461577404469322605e-02,-9.851200672533626523e-01,9.488215246573793449e-01,-4.881873147586607113e-03,-2.064094626570122520e-02,-6.345626623200677739e-03,1.676599502563476562e+00
7.522363479841968903e-03,-8.389007358523572488e-01,9.006957858754897073e-01,3.896838358316739165e-02,1.152629089770727637e-02,8.857560428921083112e-03,1.508437275886535645e+00
-3.702218202156969812e-02,-1.033601704640260355e+00,1.031249627431584770e+00,5.429262493937221656e-03,-2.415121159906208174e-03,-2.083378937606298849e-04,1.788602590560913086e+00
-4.265775645239864439e-03,-9.891390684746247386e-01,1.019846760630013671e+00,-1.206061961132093019e-01,4.218742961021297588e-02,-1.833490755635701006e-02,1.754248619079589844e+00
-5.398016451625192724e-02,-1.130703697806525243e+00,1.071362732081181823e+00,-1.283956616678078380e-02,-7.461199589918528219e-02,3.304972875884209377e-02,1.912559986114501953e+00
-7.698600548261150256e-02,-1.011619846675049228e+00,1.010360978844714097e+00,-1.610839710019221780e-03,-6.239848771493640422e-02,-2.510982035821526445e-03,1.756087303161621094e+00
-3.938205686695165492e-02,-1.027513898618463095e+00,1.037800995173563390e+00,3.431523143987858654e-03,9.091261902979259728e-04,-8.755546352131960211e-03,1.789244174957275391e+00
-4.430800372139209048e-02,-1.031085509557459368e+00,1.019240474696945675e+00,8.128021414483673976e-03,6.333543488249832563e-03,-1.114780730389711497e-02,1.776243925094604492e+00
-9.893344084999783350e-03,-9.126012263932625768e-01,8.390136248815808218e-01,-1.162591443753349385e-01,-1.002293719639439779e-01,-2.376677539896938918e-02,1.540850520133972168e+00
-3.033839661211485197e-02,-9.992048132086448486e-01,9.731558619443244629e-01,-8.937604567111403012e-03,-1.866185508124916514e-02,6.607693783828521607e-03,1.708616495132446289e+00
5.536231724136871958e-03,-9.730737631542181187e-01,9.503754719264231321e-01,9.645476883898508255e-04,8.477741549160474482e-03,3.228152918766170540e-03,1.665916442871093750e+00
-6.175980216420577651e-02,-1.019816040579661909e+00,1.029984116759280921e+00,-6.753810026013030337e-04,1.882769742220850168e-03,-1.055765684435493700e-03,1.776441335678100586e+00
-5.247588215158979774e-02,-1.029055272698244261e+00,1.059218619885114787e+00,-8.547854987410664213e-03,-2.157704871180932821e-03,-1.308333321380784897e-03,1.809825420379638672e+00
-5.405792160463095825e-02,-1.046293525597579155e+00,1.066452057774506690e+00,-1.422648346382629275e-03,-3.503288419744063527e-03,1.264691983949035609e-03,1.830828189849853516e+00
-7.773008132803292669e-02,-1.053436374482657589e+00,1.079407658954233185e+00,1.334755045467636916e-02,1.850145028927182439e-02,-2.074517444139432377e-03,1.849748969078063965e+00
-4.344867871875904980e-02,-1.056635272210652010e+00,1.076989105221694887e+00,5.419863833847614679e-03,-4.421759786601758488e-03,-5.916208426941121402e-03,1.848618984222412109e+00
-6.816320213498217040e-02,-1.299297864506254285e+00,1.407280679092318243e+00,-1.329895558381784249e-01,2.434498801055090533e-01,-5.692360769057203812e-02,2.397849082946777344e+00
-6.114726660405088443e-02,-1.040987028751856780e+00,1.041722442760409484e+00,2.635732636307765164e-03,-1.527015713496695593e-03,5.726578344143955918e-03,1.804762959480285645e+00
-6.067249606883412527e-02,-1.121175070176408273e+00,1.128173799040134595e+00,3.158860305053555473e-02,3.462004248377870130e-02,1.982771083214367180e-02,1.951041817665100098e+00
-3.019233769700004066e-02,-9.868783228365033411e-01,9.677782697185650651e-01,-1.452667799247953561e-03,1.502057727322589006e-02,-7.757930420634158268e-03,1.693163156509399414e+00
-3.243433521477974424e-02,-9.943245199329623363e-01,9.625698977511857324e-01,1.416018444993571079e-03,2.844166402757410724e-03,1.677336056543463245e-04,1.694810152053833008e+00
-3.002464642611700485e-02,-9.763566951750205503e-01,9.573712603206847582e-01,-1.567327423119714699e-03,-2.789108214297458897e-03,5.660091162349306648e-03,1.674821257591247559e+00
-2.842958037290960541e-02,-9.940308753689478527e-01,9.659214905551358754e-01,4.720479128897891140e-03,8.632037144832136258e-03,1.062966916306167919e-03,1.697515964508056641e+00
-3.964858135783017046e-02,-9.922460343416977802e-01,9.571152196717692684e-01,3.435877427478758496e-03,-1.353932777260248533e-03,-1.680017647961556818e-03,1.688355445861816406e+00
-5.123516349934113118e-02,-9.840457007931471267e-01,9.402483473045093465e-01,5.835659027268223255e-03,-8.957079322526550341e-03,-1.724801673550300368e-03,1.666851282119750977e+00
-5.050127358537070260e-02,-8.958182348382239812e-01,9.448098005777625374e-01,1.289176529135404453e-02,-2.560424242836277856e-02,4.500188598754426049e-05,1.596566200256347656e+00
-8.202082373694397077e-02,-7.114345865815047132e-01,9.015929143762182463e-01,6.010336090591063274e-02,-4.681157599750654548e-03,-8.735386712041257051e-02,1.420053839683532715e+00
-3.691396380868118554e-02,-9.885063973587643327e-01,9.512164472744649713e-01,-5.770097248860340394e-03,6.028742592418877104e-03,1.563860418401477256e-02,1.680229067802429199e+00
1.993631165986327336e-02,-1.058849613600317818e+00,7.798340564037357092e-01,-3.095821209599523838e-02,2.077622118765479892e-02,3.982546139495059256e-02,1.603096723556518555e+00
-1.376205151194735410e-01,-2.076905481869513737e-01,6.873070519037496329e-01,-9.416085104365216896e-02,-6.384947744584605622e-02,-1.044715568423093405e-01,9.026571512222290039e-01
-8.810312123362162851e-02,-7.889063820231426716e-01,8.633515986646888019e-01,-2.868005448732380541e-03,6.410555349527920568e-03,-4.050091677378655358e-02,1.438138604164123535e+00
-2.532656132717907987e-02,-9.765854685261931012e-01,9.292646443808865175e-01,2.057457076187823794e-03,2.319679914209542629e-02,-4.639450020236732253e-02,1.652962684631347656e+00
5.334212901791780814e-02,-9.838608147492393652e-01,7.009238387770942991e-01,1.075172109320927417e-02,-4.592538731550224219e-03,2.422781503875400270e-04,1.472153544425964355e+00
-1.071606336833258732e-01,-7.195298339102463858e-01,9.040466425004629603e-01,1.024091206837461285e-02,-1.994478177373712122e-02,-3.963025389382842517e-02,1.422317862510681152e+00
-9.276570788746210661e-02,-8.379596216741773684e-01,9.114370610285856822e-01,-3.723609684887812382e-03,6.774723384942220534e-04,-2.350812088583017698e-02,1.521106123924255371e+00
-1.063637723893663678e-01,-3.666608758421572856e-01,6.925338426479961118e-01,1.751201472770768097e-01,2.690626567406159166e-04,-8.276029347542239456e-02,1.013159394264221191e+00
-1.045277100772817880e-01,-7.746452087976065659e-01,9.175430649242840575e-01,-4.088084426445176556e-03,-1.870238732549962465e-02,1.617243073773499615e-02,1.476644039154052734e+00
1.125797968060120169e-02,-9.362341650990269049e-01,6.711918290132866671e-01,-1.175847077601630854e-02,-6.681656566517862883e-02,-2.273607713646324732e-02,1.404953837394714355e+00
5.751189055763163138e-02,-9.415674462397332078e-01,6.272512621014804113e-01,-9.722910324641915319e-03,-4.372482934934419918e-02,-1.549829228897366996e-02,1.377939462661743164e+00
9.522270830572325540e-02,-9.281094151472852882e-01,5.707718919319626494e-01,2.506332528574690098e-03,-7.184585854963165645e-03,-2.325155133896405005e-03,1.326721668243408203e+00
2.837019217936738724e-01,-1.324456477546877231e+00,2.834234506519937580e-01,1.828469482513121191e-01,9.982342489502769867e-03,9.550863744565979419e-02,1.647327899932861328e+00
3.767869636715601850e-02,-9.824177916635595809e-01,7.812565945361895636e-01,-7.815569497329599019e-03,-1.916681016598959647e-02,-2.720392297418809321e-02,1.534774184226989746e+00
-1.189130545610340983e-02,-9.699714725237507107e-01,8.197213489010320986e-01,-1.473190033835665436e-02,-4.069008226132839190e-02,-2.911515693840542596e-02,1.553837180137634277e+00
1.810656665955305278e-01,-9.778448607920058322e-01,2.723945982733398385e-01,1.161427324377677650e-01,-3.162421172588340129e-02,2.570891714932447836e-01,1.303460359573364258e+00
2.406863813419507503e-02,-1.133265171592401810e+00,8.578645551415717829e-01,6.422162460073469262e-03,-7.734873603263697772e-02,-3.110865552064455419e-02,1.737985253334045410e+00
2.392433961423290345e-01,-9.471213054759890504e-01,1.712040023873805938e-01,-1.108605328603318729e-01,-2.225513868232156522e-01,-4.816875814106664350e-02,1.234418630599975586e+00
1.352673047505429868e-02,-9.224158813185241446e-01,9.974907582625675007e-01,1.081568397854687502e-01,-9.166447445303673586e-03,-5.096830477131842480e-02,1.675782442092895508e+00
-1.023322135300687996e-01,-1.026614399614276696e+00,1.053463208678925511e+00,2.373618154716605061e-03,5.045682077283708544e-02,1.193838445795400178e-03,1.807235598564147949e+00
-1.472198161826719642e-02,-9.825033430345431196e-01,8.495350489943958028e-01,1.303793470068451421e-01,2.547918840493036408e-01,1.117320736373637741e-01,1.674263477325439453e+00
-6.567952763496991142e-02,-9.935446898899067403e-01,8.954871994236420774e-01,-2.100829466392112668e-02,5.097885842153179747e-02,3.656060469799974483e-02,1.640042424201965332e+00
-1.017415887376222836e-02,-1.018394762711969825e+00,1.006705054737857985e+00,-4.158901957785468562e-03,-5.764641036966135050e-03,-4.284634641569354772e-03,1.753852128982543945e+00
-7.656913937957171568e-02,-9.938762979079738269e-01,9.716062514253308580e-01,-1.272229384985233734e-03,2.064931648633844263e-02,9.820982262571748000e-03,1.703876852989196777e+00
2.588115721689674201e-02,-9.556558646896385900e-01,9.367897298931345818e-01,5.755326912259752393e-04,6.651912215031641207e-03,3.623549590898565535e-03,1.639339208602905273e+00
-3.756186499723490613e-02,-8.826950583522570337e-01,8.759977473911810808e-01,-1.983093886190317318e-02,-1.739742222005594141e-02,-1.129529284285019607e-02,1.524267435073852539e+00
-3.591809540383059107e-02,-1.266912205563769822e+00,1.235092079196258519e+00,1.110263816002373949e-01,1.058787719098665259e-01,2.038530933120789521e-02,2.183409690856933594e+00
-6.509908238309511375e-02,-9.833491126565349072e-01,9.574995700306080382e-01,2.089381634596410107e-03,1.703386123273003053e-02,6.528157278542596684e-03,1.681934475898742676e+00
-7.324587030892995565e-02,-9.890209656810957650e-01,9.564725944777561217e-01,-3.285781605213585182e-03,4.128528407924818289e-03,1.839730924563443308e-03,1.685837626457214355e+00
-3.385753213360186142e-02,-1.004281266047549082e+00,9.804798226166837605e-01,-8.971548758169479651e-03,-4.133581619121177823e-03,6.887809263734696354e-03,1.719120264053344727e+00
-1.251636254941005527e-02,-1.012381873347286243e+00,8.101139323673175463e-01,6.390267065595413472e-03,1.287494109458619806e-01,-6.560078141661385143e-02,1.600541591644287109e+00
-3.524320191899112109e-02,-9.899882072919898857e-01,9.633917935799755083e-01,-4.198939210706494410e-03,-4.514259677380312932e-03,-2.658952702730539575e-03,1.691859006881713867e+00
-3.471886122802171626e-02,-9.931877767604868623e-01,9.665774447642789813e-01,3.206295344418885404e-04,-3.764778162650501015e-03,-6.174200604200819498e-04,1.697354555130004883e+00
-3.354933604237477635e-02,-9.960257192343715538e-01,9.634109832107364824e-01,-1.478508633845218839e-03,-3.638429125203888372e-03,-1.358701326910371956e-03,1.697024822235107422e+00
-3.468679746762298732e-02,-9.910237598516682400e-01,9.476157705800761777e-01,-7.363243996261490190e-03,-1.162216004365896737e-03,-3.549478603198403560e-03,1.679022192955017090e+00
-3.838085208268446347e-02,-9.917659172213193486e-01,9.656988567521459510e-01,-1.554278578948502069e-03,-6.845152515044892333e-03,3.619375689245022364e-04,1.695447444915771484e+00
-3.544994080210462500e-02,-9.932405255211995687e-01,9.578814065649893239e-01,1.246530331726299675e-03,1.568226216204480789e-03,8.704871969755396954e-04,1.689818859100341797e+00
-3.966114419404925123e-02,-9.962174716825058507e-01,9.677088711172388003e-01,-8.231820659849580510e-05,1.411150111269039460e-03,-5.920184615344322365e-04,1.701001882553100586e+00
-3.295283137418408836e-02,-9.936707686496011327e-01,9.634811387082194978e-01,-3.023523133059496763e-03,-5.167020403903096332e-03,4.936810308148114473e-03,1.695090651512145996e+00
-2.961682818695102540e-02,-8.272201066057479624e-01,9.143744929202829441e-01,-4.662361228558651455e-03,-2.233949245870752581e-02,1.275436277861414364e-02,1.510718941688537598e+00
-7.134988628407987199e-04,-9.543839160717160208e-01,8.119405719929340126e-01,-5.532679527999460542e-03,2.671919343606977970e-02,-2.371908441382451771e-02,1.532585859298706055e+00
-1.390253902483411241e-02,-7.768707525469731312e-01,9.345379129564268528e-01,-1.821878625879675140e-01,3.143327820528298705e-02,-3.272850223239053002e-02,1.520212054252624512e+00
-5.525761109792109299e-02,-7.441782913909308350e-01,8.835951957426002590e-01,-3.491963102038450617e-02,-2.416149303097751139e-02,1.542595659475088157e-02,1.417383074760437012e+00
-1.854557836206530141e-01,-4.117681488255755529e-01,1.009497344909622063e+00,-2.765206482670216070e-01,-8.115136414885728428e-03,-5.852713911909479538e-02,1.410470724105834961e+00
-7.265687435767378966e-02,-8.300642851750954510e-01,9.757565137233311647e-01,-2.940561550296169058e-01,1.897798336261887209e-01,-1.125346870783183392e-02,1.683671236038208008e+00
-3.540965103774195571e-02,-9.812767377824495041e-01,9.393051656407452876e-01,8.727349726997834676e-04,5.686795040054586081e-03,-1.685382251455391474e-03,1.663367629051208496e+00
-3.883470001409798644e-02,-9.745991370636987172e-01,9.377735337223265244e-01,2.178962460542978753e-03,5.266603947119919728e-03,-9.796793136252748488e-04,1.656319499015808105e+00
-4.150888836441871121e-02,-9.675639717474014967e-01,9.392703794215860880e-01,-1.288821370198465956e-03,1.633370251231852470e-03,3.911740114513653256e-03,1.651611447334289551e+00
-4.264105245204682926e-02,-9.302181257470700793e-01,9.400331881708163806e-01,-4.178444091119662071e-03,1.393923077607477946e-02,-4.746734302649094871e-03,1.620599746704101562e+00
-5.910925793479358120e-02,-8.946500849563339131e-01,9.249231354808140626e-01,-1.450727616975956182e-03,1.635268669763303290e-02,-1.345009584586759170e-02,1.577973008155822754e+00
2.669226290554504999e-02,-9.635867761107403950e-01,9.388826896296863511e-01,-3.827866803417058657e-03,-8.490579145837061446e-04,-1.886430418904756507e-03,1.648066639900207520e+00
-5.210686626379558428e-02,-9.473929556361152526e-01,9.369095082121540186e-01,-3.612400336489838583e-03,5.176298784753364038e-03,-1.082421248156442001e-02,1.632670879364013672e+00
-6.076973911420867347e-02,-9.246899807365821511e-01,9.419906584428152652e-01,-5.087939686482132948e-04,1.411319958480274604e-03,9.433502786285938996e-03,1.618167281150817871e+00
-2.160949182429596979e-02,-9.294928846538405010e-01,9.440569797383131512e-01,-9.162848569687229161e-03,1.749467892509293243e-02,7.994140916491303261e-03,1.623218536376953125e+00
-1.535959464298674790e-02,-8.987915807367951038e-01,9.673593781021925242e-01,-8.587201859166007645e-02,1.515134950753159113e-02,-2.162034809515200537e-02,1.624366641044616699e+00
-2.353427057774135252e-03,-9.706222426488185784e-01,9.517741210993503342e-01,-9.424435478389283152e-03,1.085994692212696386e-02,3.058391558478605957e-03,1.665053844451904297e+00
-1.420779346574187023e-02,-9.919447884282855954e-01,9.585178753584646660e-01,6.863807982280258849e-04,5.541967960145652294e-03,-1.933908515622317220e-03,1.689183115959167480e+00
-2.231102669563858609e-02,-9.872296444227480761e-01,9.644472651921529582e-01,2.008507144191763218e-03,7.044615855007270444e-03,3.671760429166929466e-03,1.690296649932861328e+00
-3.385126395310646824e-02,-1.003878015440806237e+00,8.096808142547052833e-01,-5.957905018497536287e-03,-2.733399099779951213e-01,-3.501599452923575585e-03,1.641655921936035156e+00
-3.074707990349357170e-02,-9.927075121826649529e-01,9.621219251895168911e-01,4.584032350313958434e-03,7.658934054100431654e-03,1.212114721364290380e-03,1.693074345588684082e+00
-3.297766412304880407e-02,-9.668466602104326402e-01,9.211330229665926073e-01,3.809071821619013521e-03,3.285590499559784723e-03,7.011936579130672101e-03,1.635138034820556641e+00
-3.019775331213498878e-02,-9.960547742448797592e-01,9.625684220067804997e-01,8.247883899242017779e-04,1.934574300902766998e-03,-6.035607465849683823e-04,1.696274995803833008e+00
-2.078142621204300336e-02,-9.916985892478011877e-01,9.604548042064174895e-01,6.643602215215778980e-04,5.470537987259700349e-03,-1.950554616534889291e-03,1.690652608871459961e+00
-1.365644902028469720e-01,-7.627401873075589922e-01,9.591294710947456670e-01,-6.696943410657608085e-03,7.232581963095493192e-03,6.078334068504889776e-02,1.513312101364135742e+00
-1.018330808265184850e-01,-7.093989436031310492e-01,8.898519425502409153e-01,3.918057385947036619e-02,9.149137833442368833e-03,5.588034764101505736e-02,1.403322339057922363e+00
-8.198241214315292458e-02,-8.253673958582402603e-01,8.875453734126349525e-01,-6.089382430099690019e-02,-6.481799275434634196e-03,1.193639602092332330e-01,1.505766034126281738e+00
-9.984389202206023217e-02,-8.390402491210950942e-01,9.242817487107638508e-01,-8.483951204402241653e-03,1.483664181603188640e-03,3.529815933651904436e-02,1.535003185272216797e+00
-9.257800989914544143e-02,-8.303561710284158570e-01,9.332698826945809989e-01,1.200632447573496409e-02,2.201747231666741078e-02,-1.939086316998185969e-02,1.535103678703308105e+00
-1.636008745265179753e-01,-5.105187756674931521e-01,8.594634136621459586e-01,-5.166006410137546218e-03,-5.829076926371790784e-03,5.011049588185294279e-02,1.236788988113403320e+00
3.800122620493066872e-02,-9.630444306881991157e-01,7.141697317398481015e-01,1.073489225543419918e-02,9.080340629762144455e-02,-7.379391376486509405e-03,1.470175743103027344e+00
-6.161178606789202705e-02,-9.769912553491217899e-01,9.624279878239080377e-01,-7.904790296853246925e-04,3.135179788709682031e-02,-9.441384150316219906e-04,1.681343317031860352e+00
-8.679781992351012776e-02,-9.866776861948125532e-01,9.582407573866771333e-01,1.632450568593818863e-03,4.362694609208467300e-02,1.371307788202228415e-04,1.687606811523437500e+00
-3.788044367313850302e-03,-9.420521094683491636e-01,7.256241884016398913e-01,1.094093749030208146e-02,4.026976835165906737e-03,2.387085736177252046e-02,1.448751211166381836e+00
-3.302812843956281358e-02,-9.651604470501360389e-01,8.584390472801208816e-01,1.144510243868183952e-02,6.038894083138169472e-02,-1.841824351113834080e-02,1.583319544792175293e+00
-6.440630781129427773e-02,-1.008939062737706172e+00,1.000519855210166176e+00,-1.509890109272416913e-03,2.228784224463858238e-02,7.003478741573753406e-03,1.741755366325378418e+00
8.104369133021739613e-02,-1.106409184150747294e+00,6.681066972167002405e-01,4.260288101084709622e-02,2.900945905260882141e-01,-1.490922520325000354e-02,1.646321177482604980e+00
-5.022020369012768215e-02,-9.957357681600810251e-01,9.753260420388681906e-01,8.371710824298883580e-03,-1.415813586961562134e-02,1.391967751154925791e-02,1.707866430282592773e+00
-9.111938837748334574e-02,-1.004188820984116326e+00,1.019545270660750846e+00,5.271283239596013040e-03,-1.951626113187270029e-02,1.484389499781650634e-02,1.755925059318542480e+00
-8.910843674351140442e-02,-9.942416887319737162e-01,9.840245881583810084e-01,5.735702649814386836e-03,-3.430733872982168892e-02,1.447420614343829064e-02,1.716527700424194336e+00
-5.684831473965843568e-02,-9.871325875820562423e-01,9.552906861633010394e-01,7.573510588219941816e-03,-8.025724763663507136e-03,9.403676224271975692e-03,1.682873129844665527e+00
2.915432359480031599e-02,-1.040965428352097488e+00,1.045966418218714944e+00,-1.482681543045486494e-01,3.191409129731972993e-02,-2.989218790418943054e-03,1.826528549194335938e+00
-1.793745171884415096e-02,-9.800101927701578841e-01,8.558264293780180054e-01,1.899635810823595977e-02,-3.116579753269698230e-02,2.727099796141167765e-02,1.592450737953186035e+00
-2.738777419315988615e-01,-7.975146330052697019e-01,1.448701706366834152e+00,4.802921654374896487e-01,-6.179787189428357502e-04,3.488676717388107529e-02,2.199812650680541992e+00
-8.507093535836937614e-02,-9.440638063272777103e-01,1.149963240573820711e+00,2.844959933850312872e-01,4.565018887364748201e-02,7.737471273585348752e-02,1.895017147064208984e+00
-2.099353573411308072e-01,-7.272257287254750846e-01,1.199743570718810215e+00,3.697230399412597124e-01,2.376005503928804719e-01,-6.143453092679511396e-02,1.890705585479736328e+00
-2.752556271011205036e-01,-4.973403975338824834e-01,1.408783061445935569e+00,3.619750738518502375e-01,8.669532283716269161e-02,-2.374251396435037298e-01,1.960623741149902344e+00
-2.240836818870308722e-01,-5.258775581896653062e-01,1.100675552954151204e+00,4.464232357572383014e-01,-1.992970540018885670e-02,-8.173419296910487686e-02,1.692626595497131348e+00
-1.396735881035668092e-01,-8.655607707473564894e-01,1.220632506976014886e+00,3.264766350946676221e-01,8.687134124039724847e-02,7.559480841959825836e-02,1.929849267005920410e+00
-6.537363372019307228e-02,-6.675075690533165407e-01,1.045291712507121495e+00,2.315308935763634723e-01,-1.589369149234435077e-02,-8.951118312005174396e-03,1.557796478271484375e+00
-9.781703947467755567e-02,-9.985588958096380807e-01,1.005330480426417150e+00,4.953165263142596947e-03,6.311910264457225306e-02,-4.783499019786795550e-03,1.741842627525329590e+00
-5.594958112729163380e-02,-9.974009434195658663e-01,9.945517268791648213e-01,-2.195537882895235923e-02,4.737127539679547583e-02,1.320193803178692712e-02,1.728461980819702148e+00
-3.899305364868975443e-02,-9.594527731173490004e-01,8.509142102944268204e-01,-1.088051772392938446e-02,-3.119155252290200728e-02,3.107950076471786317e-03,1.568951129913330078e+00
-6.244524644260015384e-02,-9.622476934751287292e-01,8.827381577474090468e-01,-5.172766522615962308e-03,-2.663998669967869697e-03,-1.257880759101776946e-03,1.597998976707458496e+00
-4.722765871013210465e-02,-9.756233809426780867e-01,9.034533048461114157e-01,-1.383546792919388910e-02,1.782175024063151203e-03,-5.068252267567903251e-03,1.627569317817687988e+00
-9.134270397865405788e-02,-5.996559597835223743e-01,9.650895725417133475e-01,1.953443298622372093e-01,1.169597099881799704e-02,-1.812896458762662186e-02,1.423834443092346191e+00
-1.947005445706279647e-01,-2.518754796514350303e-01,8.020611157597711260e-01,2.346657852592013566e-02,-1.136508926385385119e-03,-1.319161444762840044e-02,1.027604222297668457e+00
-2.235693671968269902e-01,-3.400200431126156886e-01,9.584689628273630468e-01,-1.780231121499739610e-02,-3.512139334984359929e-02,2.045891862805756037e-02,1.246728301048278809e+00
-2.025900484695869475e-01,-2.872580304190479050e-01,9.087692999522110071e-01,2.711594013434341366e-01,1.051243172013150429e-01,7.808603966308405586e-02,1.268232107162475586e+00
-1.399415867077971887e-01,-6.041616328632896105e-01,8.814064141523104690e-01,5.569056271018157228e-02,-1.403885072651965722e-02,-1.734794910257307990e-02,1.320447087287902832e+00
-1.509730581691806628e-01,-6.253269177609888096e-01,1.009392445030410368e+00,8.819547413440839700e-02,2.581979721184271895e-03,1.459564657539839071e-02,1.464881539344787598e+00
-3.876555278260215842e-02,-9.473375495942772950e-01,7.786251595675679482e-01,1.143798645928496664e-02,1.138660802208572714e-01,-2.795542384977011199e-02,1.509278774261474609e+00
-1.327054998228490990e-01,-1.293772870606297587e-01,8.843975327487865190e-01,1.187995517489044417e-01,1.869927742253354661e-02,5.701087181422798827e-02,1.041280150413513184e+00
-1.848529602889655565e-01,-2.670881780821984242e-01,8.221624902861232043e-01,1.367166543348089514e-01,5.599362079210250948e-02,-1.234760279081171808e-01,1.102213263511657715e+00
5.669460468265660746e-02,-7.797262288029362942e-01,5.320494966539474069e-01,-2.858367752146138696e-01,3.094642481294020975e-01,6.085098490591140524e-02,1.366264820098876953e+00
2.421673891840668558e-02,-1.418872887663430671e+00,1.273575866515880950e+00,-2.043778856216250939e-01,5.055582087020287219e-01,4.834111744572232999e-02,2.519014120101928711e+00
6.655307935590215607e-04,-1.027244101023580880e+00,9.641234859770057009e-01,-3.641400081472804390e-02,4.735933548965084658e-04,-5.538727079820076130e-03,1.726055502891540527e+00
4.735171156393565457e-03,-9.618148922779262699e-01,9.614589670152169365e-01,-3.441990076230315443e-02,7.558816245530102645e-03,-4.107751472468834653e-03,1.666744470596313477e+00
-1.582202366241492256e-02,-1.077034748126168839e+00,1.124171533182952931e+00,-1.322987848608485617e-01,3.218831537055318742e-02,5.233665902221040257e-03,1.921258091926574707e+00
-3.196913448554138809e-02,-9.992830025007506389e-01,9.825312964512006308e-01,9.713359022307456632e-04,-7.704096214757577945e-04,-1.473254610008544602e-02,1.716654658317565918e+00
-6.499332460823253887e-02,-1.267352974000488297e+00,1.275380322852414983e+00,-3.502444862673750881e-02,7.041778059352210573e-02,-5.332580004288328332e-03,2.207379102706909180e+00
-3.351898318349010031e-02,-9.952229502804200711e-01,9.632992966380052868e-01,-4.337315587800623720e-03,-7.554125747733684074e-03,7.178631173681873342e-04,1.696288466453552246e+00
-3.751193105951180357e-02,-9.873655380179411356e-01,9.545875659911865485e-01,-2.411261222402454572e-03,-6.782793389555729323e-03,-2.906051149070588979e-03,1.681967139244079590e+00
-3.725943877607910959e-02,-9.865575126170381681e-01,9.589230845560530181e-01,-2.947606170842861743e-03,-6.114568352733220150e-03,3.331686992392940330e-03,1.685049653053283691e+00
-3.371159463505374321e-02,-9.915604161989874932e-01,9.597754381841872018e-01,-2.487912823567846408e-03,-4.063818181991505490e-03,1.449967007147362485e-03,1.690022349357604980e+00
-3.539338480839854251e-02,-9.862633575737810299e-01,9.436973822810851287e-01,-5.222712457195115114e-03,-3.577510261641042057e-03,3.492543684010350393e-03,1.671501517295837402e+00
-3.427751829606506817e-02,-9.900899396479488912e-01,9.440998323259295333e-01,-7.589083728649666585e-03,-7.447428335901716404e-05,-2.575949569398495488e-03,1.675153017044067383e+00
-3.980776233866550884e-02,-9.727683102062166798e-01,9.353295821529985510e-01,1.402839998705417103e-03,-2.671103196191020545e-05,-2.081506756586143023e-03,1.652601480484008789e+00
-3.907539298912619113e-02,-9.724339429849081506e-01,9.421501352204725288e-01,-1.275723790932479541e-03,-4.972977270288355019e-03,-7.601410134816436294e-04,1.658275485038757324e+00
-4.515387496155175151e-02,-8.990131545117733269e-01,9.290498989924271811e-01,1.846397680565852600e-02,-1.304132797661638338e-02,-1.209037275849402654e-02,1.584914207458496094e+00
-3.714623765724734544e-02,-9.342454867144383002e-01,9.413189196558449101e-01,4.871588591834791508e-04,-1.785830546335161542e-02,-9.828367948452352426e-03,1.625179648399353027e+00
-3.457281118736860170e-02,-9.892352833490948294e-01,9.597654140939719802e-01,-1.763789376734817803e-03,-2.751370790613914558e-03,1.417227306652723250e-03,1.688012003898620605e+00
-3.451714006272835200e-02,-9.733807180570406281e-01,9.318981816605883539e-01,-5.195421360257207292e-03,2.355744497114051097e-04,6.591254396003437023e-03,1.650141477584838867e+00
-4.848543536279761867e-02,-9.819207623267679486e-01,9.333927291008522475e-01,-1.321639316496496346e-02,1.970879382913359387e-02,1.148636433643193851e-02,1.659515380859375000e+00
-2.731384440839747241e-02,-9.837695000446669003e-01,8.620862051256472647e-01,3.978273389749945738e-02,1.171578121611990542e-01,-9.441895117049016808e-03,1.613290071487426758e+00
-2.998514463298387889e-02,-9.451339914904067774e-01,9.421849982449116423e-01,7.912407109537712008e-03,-1.819853717082625319e-02,-1.520784393413565118e-02,1.635288238525390625e+00
-3.449809237103622361e-02,-9.903230243238213548e-01,9.540450378198428449e-01,-3.129459693992143066e-03,-5.803152756862213317e-03,-2.702218618929480738e-03,1.683996796607971191e+00
1.219307550878644675e-01,-9.322523857617635024e-01,5.247624069744247777e-01,-3.628586156867686860e-03,3.150312181823004820e-02,1.606619576994972390e-02,1.304616808891296387e+00
3.424954466774102202e-02,-9.529314621853609557e-01,6.924853364862194605e-01,-5.607551676750005543e-03,1.520964196800770885e-01,9.358819941650664553e-03,1.458545684814453125e+00
6.419951766981953079e-02,-9.363328422976857635e-01,5.885674742384594538e-01,9.160018499814126525e-03,5.035823361930259756e-02,-1.060740246486846852e-02,1.344942688941955566e+00
1.184246021951942812e-01,-9.078951263244611214e-01,5.122288700166667264e-01,3.031580808354295841e-05,3.510948882270102656e-02,-2.665563319591848779e-03,1.271338820457458496e+00
8.422394367624472244e-02,-9.166365489772174691e-01,5.238151745072500143e-01,1.184635013324495702e-02,1.133847099489814769e-01,-3.734258021606826419e-03,1.293817162513732910e+00
8.242596763911910762e-02,-9.290495118782174933e-01,5.367795220846229842e-01,3.286859959512008524e-03,1.968658944313984947e-03,-2.179086418869367880e-02,1.300213813781738281e+00
-6.019845968583710516e-02,-1.061065520853047506e+00,1.108797442150541990e+00,-2.667386334638259873e-02,4.326946249791033955e-02,-1.554228509614938823e-02,1.883287429809570312e+00
-8.107743227361778604e-02,-9.663287438258856277e-01,9.237063221522755496e-01,3.246198196989413223e-04,-1.370684565777360864e-02,-3.627497880112782493e-03,1.638093352317810059e+00
-3.743113355620664162e-02,-9.977220067305461182e-01,9.665847991284570728e-01,-1.628211219014012370e-05,4.859451473432164874e-03,-2.943791917709632738e-05,1.701300859451293945e+00
-3.417386596577656754e-02,-9.946748319847621422e-01,9.620456928606999636e-01,3.832923663834897875e-03,6.216919460368649890e-03,-1.254751497323771704e-03,1.694712400436401367e+00
-3.584075523929995677e-02,-9.911363971468085676e-01,9.611770672354268408e-01,2.911609326184275235e-03,2.591081983889240332e-03,1.837825144215637441e-03,1.690898180007934570e+00
-3.128703231583900013e-02,-9.942796059236956863e-01,9.664210320925171738e-01,7.922556444236745349e-04,1.896807720971172874e-03,3.096173886558389442e-03,1.698117494583129883e+00
-7.432658083719205500e-02,-9.710867611508721131e-01,9.190961385143752160e-01,6.534227733876874292e-03,-1.489305288498888810e-02,1.244591656623693192e-02,1.638043880462646484e+00
-3.267316430525782356e-02,-9.939676178656590144e-01,9.635821995498745629e-01,1.713649932849907378e-03,3.212886789665995221e-03,1.075747520450747331e-03,1.695390701293945312e+00
5.961810105818629579e-02,-9.115626822069815560e-01,5.461289747810044171e-01,-2.815282011911007104e-02,-3.644357805451383520e-02,1.691179076634190953e-02,1.288252711296081543e+00
1.095887415862493580e-01,-9.909507053062053261e-01,5.525686125826717587e-01,5.692139795641862343e-02,7.829399124077975058e-02,-2.147679214010669163e-02,1.387237787246704102e+00
5.166979019557499386e-02,-9.538594699726423709e-01,6.990007033937670755e-01,2.379371146437790196e-03,-1.639966597327164807e-02,4.945281127465207816e-02,1.445405483245849609e+00
-6.456359967782786258e-03,-1.016200916953530431e+00,8.638337227570003218e-01,2.650618841467644593e-02,3.990680555185718847e-02,4.328916890450110883e-02,1.633483052253723145e+00
3.526033678359562218e-02,-9.453477995909260745e-01,7.146993010607023411e-01,-1.656584040745128633e-02,7.892338510624583026e-02,3.038977824128037079e-03,1.452250242233276367e+00
-4.436667519072125254e-02,-5.084034764181920574e-01,5.452455780157197118e-01,5.341867421417388108e-03,5.162564401995702046e-02,-7.296644469388852139e-02,9.277004003524780273e-01
1.639844773131060585e-01,-8.166319106033654851e-01,1.730342879161399505e-01,9.061349971054125790e-03,5.030042954498662594e-02,-1.317643227197711764e-01,1.015129089355468750e+00
-5.472340297624285477e-02,-9.851447635314075635e-01,9.476205028182526080e-01,-2.656602656121153381e-04,2.878798931499885333e-02,6.814357688172105075e-04,1.674952864646911621e+00
-6.367087111165765922e-02,-9.588209288653529727e-01,8.872828472408037515e-01,4.277380497253087561e-03,5.163938723560241098e-03,3.692277084506890303e-04,1.599058508872985840e+00
-6.695673524204864835e-02,-9.655863875614749681e-01,8.937687884382892189e-01,-4.332701285765694528e-03,4.362310740110347806e-02,5.689309124304621317e-03,1.612367033958435059e+00
-6.034818129904619133e-02,-1.007809735812085661e+00,9.935931749380324529e-01,8.675156567896830095e-03,2.330741707146837341e-04,-6.310447945162153682e-03,1.734182834625244141e+00
2.222867638520177255e-02,-9.554898372823781294e-01,9.482617197326240754e-01,-9.295259293640011772e-03,2.718305566787866494e-03,-5.919428373325929214e-03,1.649016976356506348e+00
1.927044750898471506e-02,-1.002176689214218763e+00,9.814422274954550662e-01,-1.956501673425809634e-02,-1.918925944347815368e-03,3.664145678548628689e-04,1.718457460403442383e+00
2.700507462137868159e-02,-9.665559157264250745e-01,9.459862935446717858e-01,-1.706348567876674396e-02,-5.683118223706262739e-03,7.679971920371162159e-04,1.657023191452026367e+00
3.493603728664936708e-02,-9.591635612615486695e-01,9.361292278690982460e-01,-4.697454429707344573e-03,-1.121313733959914278e-04,1.292290768921068502e-03,1.642050623893737793e+00
4.492429425025576406e-03,-9.131030765463842291e-01,9.393824997889710371e-01,-4.486665689128641055e-02,7.319785481463050836e-05,-2.811062833856262707e-03,1.606211304664611816e+00
6.807330772153539350e-03,-8.223319910123463305e-01,8.942181208055554054e-01,-3.791442690843658397e-02,8.411433233248985508e-03,3.557155364257734431e-03,1.488395094871520996e+00
-8.177441058259586615e-02,-8.373363478126202297e-01,9.146913788099716447e-01,8.872268723517701041e-04,-1.079730205947311604e-03,3.848436521420928874e-02,1.523534893989562988e+00
-9.716839775094143761e-02,-8.041485966578029165e-01,9.404585382375821867e-01,5.604634693027592610e-03,1.294899518465060691e-02,3.097140461915678933e-02,1.521034955978393555e+00
-1.087395587301561994e-01,-6.628898148156300296e-01,8.713216585207255171e-01,-1.135634970946598678e-03,-2.857727670500056962e-03,6.349126312669783889e-02,1.350120544433593750e+00
-9.608442499913547041e-02,-6.942381633698163634e-01,8.756296274802461976e-01,1.527266009468571627e-02,2.181773266460900959e-02,6.040323180030601757e-02,1.377070784568786621e+00
-3.234016057626634688e-02,-1.029627754278957141e+00,1.053709540344518913e+00,5.803447148107118009e-02,2.444178446927459947e-02,-2.042820821449404037e-03,1.808065056800842285e+00
2.455949757128326420e-03,-1.019142209104340058e+00,1.009663027766858345e+00,3.034302267583036897e-03,-8.426575850307460244e-03,1.451380062145134903e-03,1.757081866264343262e+00
-3.396552886938199178e-02,-9.849066672287589697e-01,1.078524577663588335e+00,8.019777016307337580e-02,-2.318382609615825610e-02,1.509736856137577216e-02,1.794833421707153320e+00
-1.475819155529331794e-01,-6.388644216678892596e-01,1.123402787271458259e+00,3.626849534434611888e-01,2.499355880718789891e-02,8.208852312116043937e-02,1.702317237854003906e+00
-2.295433684330788759e-01,-6.659171305165157984e-01,1.245488032551642643e+00,4.057991169297706646e-01,6.492778424395247161e-02,6.854488276597665852e-02,1.878979921340942383e+00
-2.429883425299864674e-01,-2.957707743506998721e-01,1.017509846900249038e+00,2.774639797882422765e-01,-2.849734153206005816e-02,7.636489032090040818e-02,1.381688714027404785e+00
5.913950113724118947e-03,-9.624086280862576004e-01,9.558812179287556887e-01,7.244207144963595024e-02,-1.397187299255072714e-02,-1.480861053268600234e-03,1.666222333908081055e+00
-1.456305311751187048e-01,-6.568080653722780937e-01,1.160039075950438647e+00,2.411175255074011481e-01,1.104571347540178466e-01,1.423176750082878472e-01,1.704488992691040039e+00
1.077567607606354921e-02,-9.641042066150752321e-01,9.885103208789211005e-01,-1.055634907406624301e-01,-6.126634895569591302e-03,2.814395289890172375e-02,1.701601982116699219e+00
-1.049127341810952851e-01,-9.552577305524547757e-01,1.109022546514121910e+00,-4.344054121398942536e-01,2.283953392317190079e-01,5.797740846071015169e-02,1.990399718284606934e+00
-6.404530751773114539e-02,-1.184332207648511659e+00,1.167855528672907539e+00,1.486132347548977523e-02,2.752502056183776108e-02,-4.598028067518343878e-03,2.038554191589355469e+00
-5.324437931559324044e-02,-1.040611872529690007e+00,1.041093786831169821e+00,-7.234159259892244649e-04,1.130456276877267116e-02,-1.644824727238710683e-03,1.803712129592895508e+00
-7.960363928777543230e-02,-1.014048352915011275e+00,1.000389797603709052e+00,-4.037496324126966379e-03,4.216662880358101884e-02,6.958938992965376172e-03,1.747654199600219727e+00
-6.528758655510687181e-02,-9.874393813073112369e-01,1.038820634588284886e+00,-4.041987523055284859e-02,-6.443895488067277744e-02,2.486903008375246013e-02,1.762608289718627930e+00
-4.760865908780960443e-02,-1.026605825746425449e+00,1.030246432226710196e+00,4.183919851159022089e-03,3.989356863560666877e-03,-5.101672244390496359e-03,1.782021999359130859e+00
-2.694489206363792633e-02,-1.014630538270098636e+00,1.018919436944009549e+00,-1.395740757718357504e-02,1.299290301651051614e-03,-4.056684877681169567e-03,1.761527538299560547e+00
-3.482647671534857409e-02,-1.057014956277595674e+00,1.034066296654881478e+00,7.555383604415392453e-03,3.259335933253625084e-02,1.031223092111593735e-02,1.812094926834106445e+00
-7.881296081165098388e-02,-1.041136043990523508e+00,1.115564256807225707e+00,2.467692999630799119e-02,8.839391698633825012e-02,1.461906253971160738e-02,1.878267288208007812e+00
-2.959695373043981156e-02,-1.007252176979063663e+00,9.908593960696691072e-01,-8.691790045027627046e-03,1.263927846947110814e-02,1.041788636848172897e-02,1.730845689773559570e+00
-4.701897908044361252e-02,-1.049881410807179227e+00,1.042830286620341607e+00,2.022956675719520502e-03,-1.616070646776426954e-03,-9.112065932896757053e-05,1.812868833541870117e+00
-4.385933735837242720e-02,-1.033649476434343351e+00,1.030976067683647024e+00,-6.495261749629282697e-03,1.141690173228961233e-03,1.306021137407366176e-03,1.788561582565307617e+00
-1.023928444190425613e-01,-1.062849454377559510e+00,1.065041090862610007e+00,-1.936387915219812267e-02,6.863657418790300446e-02,1.621854190245522812e-02,1.850052833557128906e+00
-2.548808532768122651e-03,-1.057533147665313145e+00,1.018595732607898929e+00,3.624375723583788539e-02,2.223367521305655639e-02,9.601543725079106709e-03,1.799644470214843750e+00
-6.646570404331869630e-02,-8.913001828264882631e-01,1.030376701195757416e+00,1.350862758539349284e-01,-1.376384348037298574e-02,6.617358649833895989e-02,1.690141558647155762e+00
-1.138685922180583399e-01,-3.193726388848365239e-01,8.118549366318255078e-01,-1.004624498381898740e-01,1.345515878912438290e-01,1.512429022037653330e-02,1.083841562271118164e+00
-1.985181359576026483e-01,-1.929182922028721547e-01,8.382735921836959037e-01,1.036499588117355264e-02,1.494343224625133571e-03,1.071797037080907400e-01,1.050692200660705566e+00
-1.339928294324473912e-01,-6.410916201732446140e-01,8.797078387262287080e-01,4.318900030655820066e-02,-2.502420323748675863e-03,7.711592277532910988e-02,1.349903702735900879e+00
-1.489307963648985322e-01,-4.987668371685849422e-01,7.920323782002558488e-01,-4.618805480515128514e-02,1.316379761111058193e-02,1.332302858800175627e-01,1.182011246681213379e+00
-1.396725819363362486e-01,-2.549629615824786089e-01,8.905681653793116048e-01,-3.667988216288575742e-02,-1.112175279036418385e-01,7.903229936756135665e-02,1.119529962539672852e+00
-1.215222197119891767e-01,-7.256666897785317705e-01,9.087428214397489379e-01,3.741319785734385089e-02,-8.183621339036661890e-03,2.311506159273774008e-02,1.433481335639953613e+00
2.730854311980144833e-01,-1.593262554836099465e+00,6.120586826609601960e-01,-1.367965112556106255e-01,3.700637708241045765e-01,-1.383639781609555808e-01,2.180645465850830078e+00
-6.912271922076473896e-02,-9.781068256154119567e-01,8.939444194920798115e-01,3.553225690647868890e-03,5.358096657961977649e-02,-8.636165877681182407e-03,1.624203681945800781e+00
-7.959548765161014727e-03,-9.408725896446841208e-01,7.082925539124309555e-01,1.294049326460960502e-03,1.788033711955452909e-01,1.208597523518929601e-01,1.480298280715942383e+00
1.349146472174716782e-01,-1.090968402891548505e+00,5.454478490103142896e-01,2.064648115392473948e-01,4.171704397415043064e-01,-4.833629339167794248e-02,1.682729482650756836e+00
9.864505876194126777e-02,-1.188014384260649869e+00,7.576914465340586213e-01,1.886656888940057564e-01,4.781193704604226324e-01,1.308130029723607833e-02,1.931552410125732422e+00
3.648002178119690020e-02,-9.516524322940537184e-01,9.314097857970314864e-01,2.383597586762512162e-03,-5.135644237151466840e-03,5.679602073738563173e-04,1.631475210189819336e+00
3.158223372040254440e-02,-9.581030977565553330e-01,9.365400368563778777e-01,1.759316554582832440e-02,-6.951749736924382750e-03,2.624186875529404758e-03,1.641689181327819824e+00
-6.443869255781397437e-03,-9.309002413339346749e-01,9.464502927644452557e-01,2.415320129103680144e-02,-2.268659136721761990e-02,-1.674577642822866344e-03,1.626910686492919922e+00
1.886292706563047830e-02,-9.979894679217553577e-01,9.769693492754562003e-01,3.174711756481157776e-02,-7.771847301374559119e-03,-7.585995865726891108e-03,1.711603641510009766e+00
2.332964237193200369e-02,-9.648059412061935625e-01,9.508572866074879171e-01,7.137867434741454638e-03,3.628279616427367796e-03,2.583899376455151085e-03,1.659353733062744141e+00
2.507822627397403650e-02,-9.747384627993825879e-01,9.533677028636717843e-01,9.329368534237922339e-03,-3.476523777836276318e-03,-3.849943533956631282e-03,1.670274257659912109e+00
2.891131392682127696e-02,-9.513734369221936715e-01,9.319556152194734544e-01,3.343935364635814735e-03,6.872274802543383576e-04,3.603542459562501170e-04,1.631478786468505859e+00
-9.172388859501848235e-03,-9.845692386066962065e-01,9.604896572829497714e-01,-1.668405501688399132e-03,-1.014267984934789923e-02,3.544517797170435199e-03,1.684578180313110352e+00
3.676164541661058882e-02,-9.596905700935114414e-01,9.359070902083085342e-01,6.602106184990673768e-03,-3.862084590650010458e-04,-5.751158191902000071e-04,1.642396807670593262e+00
-1.053232506339448205e-01,-6.517606728796089266e-01,8.846937792920097632e-01,-9.463494054767918745e-03,2.576003754235448029e-02,-3.257873077671800954e-02,1.350982427597045898e+00
-2.352951553698845802e-02,-9.506260045338689180e-01,9.412663596337373928e-01,-6.905931796516737685e-03,1.602535269298209150e-02,-8.175567276968411651e-03,1.638875246047973633e+00
-6.594081647223801190e-02,-7.416352772994422304e-01,9.409163290522127854e-01,-4.794376486001959703e-02,2.276510900450799679e-02,3.521822642051131158e-02,1.470654129981994629e+00
-3.397303853029021159e-02,-8.106509848278603547e-01,9.063161813004619871e-01,-5.506631613715669109e-03,2.070619988053921251e-02,-2.173401041269704473e-02,1.490123748779296875e+00
-1.698950021796727938e-01,-5.092054950776894184e-01,8.733986108335733967e-01,-3.893808817344406904e-03,-9.490565841001543865e-03,-1.357719017737358813e-01,1.270122528076171875e+00
-9.412583677107555502e-02,-8.669904856392811610e-01,1.121628385778878023e+00,-2.348808907748140551e-01,-3.377224655073517851e-03,-1.051913839045884452e-01,1.792687535285949707e+00
-3.156463975094377095e-02,-8.867768868586497488e-01,9.320429578852396091e-01,-2.951903426936486243e-03,2.815355475117355816e-02,-2.106763403171983337e-02,1.577260971069335938e+00
-2.390641683947016261e-01,-1.880833289153612808e-01,1.240425460677687441e+00,-1.645056047595848669e-01,9.954763516606990326e-02,2.696585768546001100e-02,1.493037104606628418e+00
-1.602267672132928200e-01,-6.058364797789845824e-01,9.483367554681081391e-01,-1.020021847073802057e-01,-5.213832524884373654e-02,-8.597801114291937427e-03,1.400377869606018066e+00
-3.369093876486568828e-02,-9.979725204302120067e-01,9.685547323674140729e-01,3.076325157756595527e-04,-9.746457905010299248e-08,-1.429941391084250599e-03,1.703170180320739746e+00
-3.303881170854893606e-02,-9.991250095102316431e-01,9.663221738120939541e-01,4.481494454253654386e-08,3.646283377535647330e-04,7.963452047760437302e-04,1.702209234237670898e+00
-2.739201603458158926e-02,-9.974248562123912976e-01,9.643874124307691975e-01,-1.235611506582931594e-03,2.382631226385712765e-03,-8.553262108034651815e-04,1.699021100997924805e+00
-3.694696530564375858e-02,-9.944739912959126293e-01,9.622762884219928647e-01,-2.793600161340956470e-03,1.144604747497267230e-03,-3.342692059528478039e-03,1.694741606712341309e+00
-3.591420236779520325e-02,-9.952936623244909020e-01,9.653550542063147333e-01,-2.924172765047797738e-03,-1.754039290680531934e-03,-3.013766454911389996e-03,1.698119044303894043e+00
-2.723245150093679678e-02,-9.961865740292401572e-01,9.642932237112826765e-01,-3.454174097647759629e-03,1.540516736984134331e-03,-2.245279834754468004e-03,1.697879910469055176e+00
-4.451567904239516621e-02,-9.824215800040778657e-01,9.337160914079744023e-01,6.447016666719074772e-03,-3.846242773972889401e-03,7.586169311894056834e-04,1.659597873687744141e+00
-7.711796538923047784e-02,-9.999119066866619665e-01,9.232112402373446880e-01,-4.076640390002504087e-06,1.202579411710381074e-01,1.357916561489280012e-03,1.678897380828857422e+00
-5.698340154657627332e-02,-9.782138951538631444e-01,9.276252706851877416e-01,1.086314625095415910e-02,1.408811891206961445e-02,-1.470694274330975118e-02,1.651293396949768066e+00
-3.330840739447167576e-02,-9.781239832928456668e-01,8.784338265029364434e-01,1.594019839558468918e-02,1.334975846516726211e-02,-2.248314121927437112e-02,1.608785867691040039e+00
-3.802217291768481000e-02,-9.786084993388131092e-01,9.069995056953066292e-01,9.337158933846831377e-03,5.649680495385969899e-03,4.845484148191879503e-03,1.633116960525512695e+00
-2.923514063900407509e-02,-9.787528992600539324e-01,9.135511805368699001e-01,1.053415838439131919e-02,3.102864504263773849e-03,-1.192924068321750755e-02,1.639027476310729980e+00
-2.531920625123440516e-02,-9.205179064895804286e-01,8.366723858704013805e-01,-1.226684185918223459e-02,1.843346025462648313e-03,2.009939861103327702e-02,1.522411704063415527e+00
-5.334398803324218175e-02,-9.831154081635353759e-01,9.385714890571542623e-01,6.756583487623121602e-03,1.382060265305689109e-02,-1.100949330266964149e-02,1.664842128753662109e+00
2.187528124462044185e-02,-9.941583242399830711e-01,9.744793507901075014e-01,-2.143647265972249347e-02,5.187824474508136510e-03,-1.344589691965287527e-02,1.705772042274475098e+00
-6.665396260964495320e-03,-1.156975023256407997e+00,1.176078405671285187e+00,-1.583352552769900778e-01,-2.601283873609833847e-02,-1.782638356973613100e-02,2.039806365966796875e+00
5.796823231717691469e-03,-1.022847429178655787e+00,1.043032892581873927e+00,-5.600845309486002233e-02,-8.289109233800971005e-03,-7.291883899034335131e-04,1.791796088218688965e+00
-4.504018290771220900e-02,-7.763130048505819669e-01,8.989364279885259101e-01,-9.199759575303236014e-02,-7.835955229707704597e-03,-4.873522030016589832e-03,1.463489770889282227e+00
-2.533328221849300010e-02,-9.920086816103222960e-01,9.347864072497769072e-01,-1.756973448667207421e-02,-4.512979548817254438e-02,6.199644888499574076e-03,1.670798182487487793e+00
-2.231570710786258405e-02,-9.895579627906591069e-01,9.687851698881991824e-01,-2.446126301555272275e-02,-2.421441526383073459e-02,9.103300084162133793e-03,1.697137594223022461e+00
-4.848494800624636447e-02,-9.780938615085085219e-01,8.998519534827114086e-01,1.391958008226754952e-02,-2.345343110851750082e-02,2.228465699017253762e-02,1.627519369125366211e+00
-5.691722060736567612e-02,-5.504627489355303771e-01,5.971586503003170066e-01,-2.108617285016079201e-01,-2.043173084518262739e-01,-5.195855105857673413e-03,1.119341015815734863e+00
-1.066726149328105500e-01,-2.418965994070818581e-01,6.402120069435988103e-01,-3.855859125140514293e-02,-3.479278544661744410e-02,-1.533025602769580720e-01,8.693191409111022949e-01
-5.201755882312393553e-02,-1.087298832214183442e+00,9.498397753149273592e-01,2.981856884972450966e-02,-1.970787339347955802e-01,4.268011333468234997e-02,1.799272537231445312e+00
3.970936810417478868e-02,-1.139085421435221956e+00,7.941833633510306800e-01,-6.739508549814357541e-02,-3.299125476433661941e-01,-4.103730534903676092e-02,1.786998510360717773e+00
1.248101432364294439e-01,-1.027959679010987948e+00,5.678357429183192862e-01,1.117417320220896737e-02,-1.443344853832779773e-01,1.085909005212455508e-01,1.460857391357421875e+00
5.623997485556586629e-03,-1.065887261181387435e+00,8.079237874889251270e-01,-1.931168630370521666e-01,-3.051757662808765592e-01,-8.796082353934975284e-02,1.750995397567749023e+00
-9.288232882000545254e-02,-1.182375850072612034e+00,1.187468704324118329e+00,-1.486190254950162971e-02,-9.562122669878803105e-02,9.723292896646225500e-04,2.061388969421386719e+00
1.417094904589787444e-02,-1.165124848420906467e+00,1.160356394552848114e+00,-1.517333414101035005e-01,2.841014056046141725e-02,-7.395921173402438854e-03,2.031705141067504883e+00
-7.518867418680924564e-02,-1.024981903299138297e+00,1.048297509005750916e+00,2.906260975016269898e-03,4.215318501725562154e-03,-5.422456171748755820e-03,1.797658085823059082e+00
-6.674866411088883900e-02,-1.022824896352357404e+00,1.007381268244815553e+00,-1.363039237927185683e-02,9.026418467693900216e-02,-2.580944638765666002e-02,1.766857504844665527e+00
-4.450615543121649864e-02,-9.822815264482950282e-01,1.035354086996464584e+00,-3.423075361406659883e-02,6.335945154936803436e-02,-4.589597000736458932e-02,1.755011439323425293e+00
-6.887627264923942838e-02,-8.834735017510364496e-01,1.032392869341510311e+00,-2.971528243162951943e-01,2.152067976473445721e-01,-6.706121133177734683e-04,1.782497048377990723e+00
-1.247437000637246773e-01,-1.450441750487420967e+00,1.639478876759864256e+00,-9.496270215397405179e-02,2.478804545108467816e-01,1.238880185192154509e-02,2.724083662033081055e+00
1.739805299942508154e-02,-1.631572310676669968e+00,1.332507627988778864e+00,-3.672260693681781429e-01,2.596652917301674468e-01,7.567615624353452031e-02,2.690950870513916016e+00
1.044999981123636151e-01,-9.417612683433422838e-01,5.121055997147564431e-01,1.026542397131214061e-03,3.132346530191387757e-02,-6.571668683525955235e-02,1.305055379867553711e+00
1.046495548845567947e-01,-1.111391698194529098e+00,6.659804076389705951e-01,-2.959135065202344109e-02,1.550788827370290779e-01,-2.203433884031759382e-02,1.597711443901062012e+00
6.103580139788115921e-02,-9.430455114396779637e-01,6.607362238541559796e-01,6.228377432654585120e-03,-1.370466620290516219e-02,1.800060928870809984e-02,1.404143810272216797e+00
4.171901249201335343e-02,-9.534387655979300602e-01,7.274642880391105626e-01,1.329733646413929285e-02,-1.690560874563457484e-03,-5.109306733914281695e-02,1.466758608818054199e+00
4.154235790547382290e-02,-9.553319523964658444e-01,7.196746239942722889e-01,-1.441154069902953611e-02,7.767657260615584312e-05,-4.785384289694294413e-02,1.461891770362854004e+00
-6.056132975721160994e-02,-9.809038617458667453e-01,9.405538697019981687e-01,-6.313759411858780105e-03,1.008217828290417211e-03,-3.310980017331205741e-03,1.664567947387695312e+00
-4.412406650763632532e-02,-9.849587470063920769e-01,9.423632040777398799e-01,7.491203523167142518e-04,-3.791194994954815919e-03,1.175510304600480037e-04,1.669279336929321289e+00
-5.301470949367786956e-02,-9.884406276724254647e-01,9.585486887612051365e-01,-2.746896155454962461e-04,5.219916814269585578e-04,-6.431356662461337574e-03,1.686609029769897461e+00
-7.264001526107745355e-02,-9.801391269279901008e-01,9.528541785916216922e-01,-4.403847304250198616e-03,-8.714401209108647156e-03,-5.897394781872018765e-03,1.675177097320556641e+00
-5.195514038781205712e-02,-9.876439314750924403e-01,9.493197324758974043e-01,-5.457158234079907515e-03,-7.100657005815080858e-03,-5.938273483962822064e-03,1.677883505821228027e+00
-5.626564571680335580e-02,-9.806984472754746163e-01,9.348451990891677443e-01,-4.918510366949375469e-03,-3.737762434333229914e-03,1.239869975482888744e-04,1.659278988838195801e+00
-3.802495824689586246e-02,-9.908133519507615894e-01,9.622558700700539758e-01,3.554787099323176644e-03,4.416960686792276852e-03,-3.284897954298709663e-03,1.691612362861633301e+00
2.927274122967887804e-02,-9.543076024242086453e-01,9.348141428558331967e-01,-4.729336532845237334e-03,-5.438244612445192715e-03,6.179890090072792923e-04,1.636540651321411133e+00
2.743548273373809521e-02,-9.760356983325003677e-01,9.494423333151751354e-01,-7.465778456790278517e-03,-8.031364687752616180e-03,1.452331530606182104e-03,1.668120265007019043e+00
-1.652409863060457507e-01,-4.281083362057108710e-01,9.744713290545676809e-01,-3.197748425095124358e-01,-9.028258571970435020e-02,4.295320363344277970e-02,1.415765523910522461e+00
6.416219771578136367e-03,-9.749541330821152041e-01,9.502897140732534664e-01,-7.791560911256428714e-04,-9.528644052442844514e-03,3.718352486774352886e-03,1.667510151863098145e+00
-1.750941837519165087e-02,-9.914827993228365610e-01,9.603340745291315539e-01,-4.233933846098289142e-03,-1.262800787032909711e-02,-5.045007998217826764e-03,1.690504074096679688e+00
3.019544250162342972e-02,-9.620169056187426460e-01,9.373149729925699392e-01,-2.993966399830353103e-03,-6.045328205122935117e-03,1.824305526400175643e-03,1.645464301109313965e+00
1.550589253708428011e-02,-9.454088545582151060e-01,9.410316443326192104e-01,-3.898657299224263240e-02,-1.477501584137702259e-02,6.468600426395274688e-03,1.635434746742248535e+00
-1.612722258059283431e-02,-1.017276819324983927e+00,1.016494508699283594e+00,2.071614751490540203e-03,2.854551184646393971e-03,5.921899747244540550e-04,1.761378765106201172e+00
-2.447558610613887950e-02,-8.544089113993530438e-01,9.478497460365468141e-01,-5.529872771596305858e-02,-2.276315350541863181e-02,5.749130092273171955e-02,1.569017291069030762e+00
1.733343419335595798e-03,-8.410693776347573092e-01,9.037118861207201759e-01,-3.092413285601913753e-02,-7.270916720624754845e-03,-2.970656923059938719e-03,1.512324571609497070e+00
4.487308900544238754e-03,-8.513139867738724886e-01,9.065174912964660825e-01,-3.139300172928059796e-02,-1.396226613078231302e-02,1.053772621298148561e-02,1.523774027824401855e+00
2.855417965875098329e-02,-9.807201979748568776e-01,9.676452169563947159e-01,-1.107711374368494477e-02,9.766811150678060549e-03,-6.471203115352303255e-03,1.687929868698120117e+00
-7.874475590549545601e-03,-8.433468286130414437e-01,9.147954124230855966e-01,-2.841329016761130061e-02,2.056396775390045839e-02,-1.585767632524230641e-02,1.524678349494934082e+00
1.902164594679938564e-03,-1.004770992561607068e+00,1.018417976898600141e+00,-4.981509813897654071e-02,2.085965999841608767e-03,-1.086988639147618355e-02,1.754367828369140625e+00
-5.706818792373896665e-02,-7.331889119246627340e-01,8.899976686625182820e-01,-4.352924305414697381e-02,2.109905615856980110e-02,-1.702682107132926989e-02,1.415024161338806152e+00
-1.930147792336213697e-01,-3.832699337103488979e-01,9.287225294620230498e-01,-1.484245715458071269e-01,1.972041507881347813e-02,-1.858057408946379302e-02,1.255468010902404785e+00
-5.253580763493731487e-02,-9.778963727229439407e-01,9.292887272119567665e-01,-4.278386864309143695e-03,-3.683472368970641935e-03,-2.407942268421325686e-03,1.651946187019348145e+00
-2.443629282012447779e-01,-2.403162315503703517e-01,1.268771987871434526e+00,-1.091078145866576643e-01,1.315568332797806793e-02,-1.829634847296712080e-02,1.523386836051940918e+00
-4.424698907942391235e-02,-9.872538851609173882e-01,9.304601447098153066e-01,-1.795964194786843840e-02,-9.561138716840942783e-03,-1.061830668442294290e-02,1.661340355873107910e+00
-5.428050090139769496e-02,-9.800178638391603414e-01,9.397834368486104317e-01,-4.175463241917562289e-03,-5.917411872724781356e-03,-3.164086337588271122e-03,1.663004040718078613e+00
-1.659516280238366448e-01,-4.197977238410062206e-01,1.008854268370033447e+00,-2.863672624571331760e-01,-1.892995717174678766e-02,-5.987003257933817824e-02,1.414451718330383301e+00
-3.462117149680184885e-02,-8.814890946764807333e-01,9.307810735605597241e-01,-4.200808712419926323e-03,-2.737845039489651341e-02,1.931594849219997120e-02,1.571679353713989258e+00
-4.219742090674166723e-02,-9.669220765915000904e-01,9.380456954237057499e-01,-2.398896485738242351e-03,3.433048785059755444e-04,-4.811249798499638887e-03,1.650010347366333008e+00
-1.054459198230599803e-01,-5.802321550892953761e-01,8.587503674861317604e-01,-1.156628627086781283e-02,1.167193306916955095e-02,-3.089688607724716540e-02,1.271439075469970703e+00
-1.525114924951624096e-01,-5.005096302453435619e-01,8.326119558283997524e-01,-5.083450141886994983e-02,-2.862840718481862262e-05,-6.270141196065370445e-03,1.200942277908325195e+00
-8.558638411531295509e-02,-8.809845918871517245e-01,9.597726205758896345e-01,-1.880952047291401530e-01,6.382791477997463991e-02,7.239701253428246219e-02,1.640425562858581543e+00
-3.185675545267510622e-02,-8.057265896339226297e-01,9.062167222938478650e-01,-1.636879211100359527e-02,-1.025825694501451141e-02,7.984259565745171691e-03,1.485299229621887207e+00
8.536419821600251326e-03,-1.013458241083528888e+00,9.994952310668989703e-01,-5.239996730367438293e-02,1.468733286904886498e-02,-5.897707784479396670e-03,1.745913982391357422e+00
-2.731909016120878317e-02,-1.171993006952034566e+00,1.257731666802676562e+00,-1.557552641001316573e-01,-1.581097945117583906e-02,-1.491066660573346170e-04,2.122764110565185547e+00
-1.067232452405451372e-02,-1.196313553298914645e+00,1.250636779645684982e+00,-1.376974768766585644e-01,1.975362417629016737e-02,3.374719906663331548e-02,2.133910655975341797e+00
-7.770418698965120274e-02,-1.118891474867168112e+00,1.216036653163715453e+00,-2.859558879083110364e-02,6.781579783401556205e-02,-2.846061083595659638e-02,2.030650854110717773e+00
-1.751867425621829455e-01,-1.770037312605224233e+00,1.965935210201239736e+00,-6.060251723672469559e-01,-2.228856730621948112e-01,-3.488209432102114260e-02,3.434705972671508789e+00
-1.705222856401853448e-01,-1.139264485623159073e+00,1.585188246307741133e+00,-2.183642654213683310e-01,8.265528291231941105e-02,-3.318842548253494312e-02,2.426656246185302734e+00
-8.271764180059282268e-02,-5.722725975359601591e-01,9.317229831119566708e-01,-2.181387430269751959e-01,-2.595370594817308224e-02,7.035363808174775746e-02,1.387444257736206055e+00
-1.239348584740938980e-01,-1.225026372232791871e+00,1.451082400384690940e+00,-4.221082193065626709e-01,-2.292743563099637893e-01,1.776860316086736891e-02,2.473963022232055664e+00
-3.352280615732168567e-02,-9.978164306167092157e-01,9.644566405489102268e-01,-1.274446235890571008e-03,-7.057988921569983368e-04,-3.306310138655723318e-04,1.699463725090026855e+00
-2.452866286692465328e-02,-9.911891577080271798e-01,9.640424955737347812e-01,-2.287878530363811162e-03,-6.880652250348141645e-03,2.621241722555438941e-03,1.693368434906005859e+00
-3.636536478213021201e-02,-9.352488822548680192e-01,8.587901088680773842e-01,9.344326027687741010e-03,-1.075418175509531594e-02,8.444601534108709881e-03,1.553949236869812012e+00
-1.812048346260274403e-02,-9.855428662083887126e-01,9.600072318439996089e-01,-3.405956116021840920e-03,-6.118383094501466356e-03,1.211229123714607650e-03,1.684949278831481934e+00
-1.111682927644429830e-01,-6.937305533767196275e-01,8.891644217958333263e-01,3.943394624228371836e-02,-2.065854609808568179e-02,-4.535841392352228663e-02,1.391013264656066895e+00
-3.552279919931394803e-02,-9.916695528573440388e-01,9.623310981755804905e-01,-1.202850376174470003e-05,-6.782445176856432070e-03,-1.434355012189216438e-03,1.692385315895080566e+00
-2.794590559913507147e-02,-9.943023342416972277e-01,9.645503145899261277e-01,2.797026141754720141e-03,7.120581228274427477e-05,3.289626227359299711e-03,1.696483016014099121e+00
-7.850520715360238821e-02,-8.179348871863626469e-01,9.246422117660434425e-01,-3.113713510640836804e-02,3.070542847543743931e-02,-4.723937110836549935e-02,1.518963336944580078e+00
-8.485197793007566436e-02,-8.481059515949366245e-01,9.223644927683192218e-01,-1.530605541638432442e-03,1.238148698745899189e-02,-2.803359560163597511e-02,1.539034843444824219e+00
-2.739212588949272928e-02,-8.315828716361803874e-01,9.216194897928037255e-01,6.457063638386066097e-03,-1.502915942086711920e-02,-8.829297418301934597e-03,1.520384430885314941e+00
-3.748714094935425012e-02,-9.677262823107307677e-01,9.347658220918066974e-01,9.369144421901797609e-03,-1.233224230133162999e-02,-1.290176827256814956e-02,1.648110270500183105e+00
-1.586200045199696040e-01,-4.863449127321153864e-01,8.499945165857476503e-01,2.222177018390099346e-02,-1.312345075889876853e-02,-6.341593825532819417e-02,1.212154150009155273e+00
-1.037124503043868745e-01,-8.113257340406971885e-01,9.317347982331894984e-01,-4.721478068224702345e-04,-1.415374384195537856e-02,2.442505055800801850e-02,1.519195556640625000e+00
-7.921241047408068836e-02,-8.566208213947115180e-01,9.372404082733554187e-01,-2.079284754833673685e-02,1.987444392824039979e-02,-1.282178945190742304e-02,1.559074878692626953e+00
-6.378680679357272287e-02,-8.755019587110323132e-01,9.361276765394743737e-01,2.275595771494335045e-03,2.600875217939938727e-02,1.525643280680508661e-02,1.572609066963195801e+00
-2.186354302546122952e-02,-9.023965958184587688e-01,8.297055439447421632e-01,-9.498419526293218340e-03,-1.497665788117354298e-02,1.522678336648705839e-02,1.500660538673400879e+00
-1.124812483074416752e-01,-6.793608719780711569e-01,8.970351688681242885e-01,3.384362513831775440e-03,-3.513337674554017302e-03,-6.933042412478043759e-02,1.388251304626464844e+00
-5.293254539417167198e-02,-1.106790289844311159e+00,1.141949086187496798e+00,-1.808034468333288014e-01,-8.022606870273737978e-02,2.535668439905390190e-02,1.979116201400756836e+00
-1.115316982380269439e-01,-7.702371053018973734e-01,1.041031138805148304e+00,-1.415896157438205349e-01,1.110025969525071585e-02,-3.674631073311405982e-02,1.608122110366821289e+00
-1.038112819737219278e-01,-7.329069359580857590e-01,8.883040267047570548e-01,-5.381403052965343103e-02,3.501966210344199804e-02,-2.888168802328172635e-02,1.420935988426208496e+00
-3.631161555548492043e-02,-9.632676957537363860e-01,9.593176700003481772e-01,-2.280976160538494921e-03,8.803340533735668286e-03,1.929401031958591231e-03,1.665439605712890625e+00
-7.867979989112336425e-02,-7.346202444930644004e-01,9.195694766581057333e-01,-1.000260948780160308e-01,-2.774391848130343483e-03,-7.003076234631592373e-03,1.453181862831115723e+00
-4.123306036788834672e-02,-9.842661392141869303e-01,9.258770219930704259e-01,1.753145219800694363e-02,-1.284206483243902942e-02,1.854376393911380191e-02,1.655016183853149414e+00
6.470423001114918374e-03,-9.764636260717088900e-01,1.002004310386776176e+00,3.620210440832963283e-02,1.114157935458524873e-02,4.191866510971927785e-03,1.714686036109924316e+00
-9.423131816314055109e-02,-5.325521139431691475e-01,8.612601580117452693e-01,-2.116782057581661491e-01,-1.158379654452874469e-01,-5.223080802963755986e-02,1.306431531906127930e+00
-6.910201971941042076e-02,-3.589742444963066603e-01,4.600179138259593570e-01,-1.722416309845802296e-01,-1.271916680689153534e-01,5.278614138019435686e-02,8.144106864929199219e-01
-4.939152203796600554e-02,-1.030581668049418642e+00,1.030112179600623845e+00,-3.470903685062438643e-03,-2.821463952686337553e-03,2.330616784206438266e-03,1.785311460494995117e+00
6.550867616611543223e-04,-1.006059441895886142e+00,9.952790437243590471e-01,6.452832689989447881e-03,-6.098257178924177714e-03,2.027095145618555434e-03,1.733292341232299805e+00
-9.289733934335804577e-03,-1.006462999882114406e+00,9.967067725933435041e-01,3.959345254927763760e-04,-9.134493085659195488e-03,-8.257788162691168110e-03,1.734932780265808105e+00
-3.711467993520348868e-03,-1.037691046976132681e+00,1.026690857760538700e+00,8.281039803323890502e-03,6.274171884847378790e-03,3.187307370694441948e-04,1.787898659706115723e+00
-2.567464052381359177e-02,-1.050137885954060879e+00,1.056632155578425269e+00,5.459417696071660470e-02,-1.889634112250976328e-02,4.671849713862937133e-03,1.827505111694335938e+00
-1.431617107932947608e-02,-1.010099422709538119e+00,1.002550472863472653e+00,-1.847101434519724753e-03,-8.785490917042284090e-03,-5.880193693673482075e-03,1.743136882781982422e+00
-3.540059561640832714e-02,-1.020668271691654860e+00,1.028495979558540219e+00,5.966638994865349627e-03,1.287577106047400888e-02,1.987781038353108112e-02,1.775567770004272461e+00
-4.609898331806543126e-02,-1.009317142877850459e+00,1.003163620792045574e+00,2.864610769850268329e-02,5.136740908196353594e-02,-1.564730010335372819e-03,1.746366262435913086e+00
-1.040737335185225043e-01,-1.112548482138119743e+00,1.224660119088909482e+00,2.125282494139648093e-01,-3.199922316789700211e-02,-2.186734077649765684e-02,2.064596891403198242e+00
-1.116834776996993572e-01,-1.388069856605345098e+00,1.370024382424170462e+00,4.593984523572819390e-01,7.468226403757591281e-03,1.947139143782216156e-02,2.519979715347290039e+00
-8.376679517161855770e-02,-1.168966206532461305e+00,1.176178739573066734e+00,-2.113169670863558613e-02,5.690292048662104474e-02,1.156967276378816772e-02,2.035649299621582031e+00
-3.108519787734165957e-02,-1.629437339335906509e+00,1.421190759317469743e+00,2.854287071579709734e-01,-1.978173992816829874e-01,-1.596481526794230887e-01,2.724582433700561523e+00
-2.314608149291558226e-02,-1.041518001985069386e+00,1.017158608118218899e+00,-1.021225111856517535e-02,-3.490425479954618881e-02,3.911664984626846142e-02,1.785298466682434082e+00
-1.323856941660482567e-02,-1.037856922222525125e+00,1.025553903183728632e+00,-4.748217899019950561e-02,-1.497343276340540492e-02,4.023665154369666843e-04,1.789059877395629883e+00
1.449950967033501216e-03,-1.014671498083619561e+00,1.005775529405513735e+00,-1.252913260512262617e-03,2.632062538803936046e-03,-6.496197840620617815e-03,1.749811887741088867e+00
-1.121003413829432804e-02,-1.006366750014894063e+00,9.985813416905860995e-01,4.415897157249788936e-03,7.061825414814695487e-03,-2.242402597886052843e-03,1.736415624618530273e+00
-2.301546493146321148e-02,-9.946220385449955348e-01,9.718960934309340827e-01,-2.102937081020905125e-02,-2.000851643563492793e-02,7.009285468971972882e-03,1.703879714012145996e+00
9.551879932190844580e-03,-9.949540929463116523e-01,9.722238454807590191e-01,-1.210923772589383995e-02,1.015688866590148259e-02,-2.743509198658702214e-03,1.703981041908264160e+00
3.840947944975370894e-03,-9.969496103473687310e-01,9.908313768832710533e-01,-4.678164110933364511e-02,-7.966879718850863878e-03,-1.604881596941222911e-04,1.723443865776062012e+00
-8.609403967370696242e-02,-9.842219806763898848e-01,9.525587017451991878e-01,-6.149405277959592991e-03,-2.385036423470528882e-02,-2.316721697011020834e-02,1.679793596267700195e+00
-7.352247684559115593e-02,-9.899207155183051832e-01,9.780811063870229471e-01,6.878930983036496936e-03,-1.661323806029908756e-02,1.341130122533218914e-02,1.706122279167175293e+00
-6.607086217214706847e-02,-9.665286674245199272e-01,9.086760690729178691e-01,-2.119035125682369475e-03,-1.423941262687003842e-02,-4.747033018631053626e-03,1.624611854553222656e+00
9.736303620365253930e-03,-8.573699921277175839e-01,9.086681312282899325e-01,3.337540636833084134e-02,-8.278283950145608888e-03,-6.141550762655129982e-03,1.530712842941284180e+00
-4.732273345149964200e-02,-9.505894494151531093e-01,8.238905206190213493e-01,4.699767687576434684e-03,-3.683728052661573715e-02,-2.246832385403412131e-03,1.538178682327270508e+00
-8.182423574155993362e-02,-1.014261524104718593e+00,1.020224245435987998e+00,-2.413127340058820233e-03,-6.041068858012979548e-02,-1.888657505869497299e-03,1.767064690589904785e+00
-8.007656487812481183e-02,-9.672702406721289670e-01,9.289826456290156687e-01,-5.309128619674598941e-04,-6.463489306785500862e-03,4.688258619020814152e-04,1.643371820449829102e+00
-7.663357607288659445e-02,-9.754478765588791012e-01,9.413770341111354911e-01,5.302026331854042124e-03,-4.195239677010643639e-03,7.147713023478029400e-03,1.661175966262817383e+00
-5.052544094666001212e-02,-9.507728826969348290e-01,8.290523439695465235e-01,6.465937877925863678e-03,-3.952724251139380640e-02,3.430636843291452222e-03,1.542980313301086426e+00
-5.221507197446507292e-02,-6.901624453581857166e-01,8.714809899358982870e-01,-6.999026825881822511e-02,9.725262922778496119e-03,-1.382778049193325934e-02,1.365655183792114258e+00
-2.799854359064150519e-02,-8.142900101280241554e-01,9.065813720783716390e-01,-9.411706975479527601e-03,1.009209915119247715e-02,-7.350121090149887813e-03,1.492407321929931641e+00
-3.724158163331665883e-02,-8.661831081611033323e-01,1.091958715348791298e+00,-2.393582989636174052e-01,-3.293126298210177771e-02,5.960016622344836007e-02,1.756150722503662109e+00
-7.464732117717591542e-02,-8.036835430444805306e-01,9.707192697571452866e-01,-2.396739215174273352e-01,1.764403712202463476e-02,-4.057684095945254810e-02,1.601436614990234375e+00
9.821323688378791328e-03,-8.319609242209904387e-01,9.664889660186459786e-01,-1.678334644040353207e-01,2.121955992726843113e-02,-2.795826561585864570e-03,1.585873484611511230e+00
4.243461148016974133e-03,-8.230503392797436923e-01,8.937594468991404417e-01,-3.464109042157269974e-02,6.884689871249659483e-03,2.081122148646180571e-04,1.488384008407592773e+00
-4.165055578009453641e-04,-8.276405641804378543e-01,9.057234012828995207e-01,-2.884895106846609852e-02,-4.739381362486968369e-03,7.442280414556195697e-03,1.502564549446105957e+00
2.563289978031802266e-02,-9.742716740563410749e-01,9.654859262827666377e-01,-6.684844263332991379e-03,-8.070401035044579702e-03,-1.284137668489306744e-04,1.680245757102966309e+00
-5.368169892169342289e-02,-9.124744595065082953e-01,9.637353542211174462e-01,-5.898319133586733820e-02,2.649780443329469940e-03,3.893415007953733575e-02,1.631385445594787598e+00
-5.166385768990094246e-02,-7.882549064809866168e-01,9.293243379588838060e-01,-8.551066629808404262e-02,-5.203990013473661774e-03,7.367598863487378330e-03,1.499890565872192383e+00
-1.356897746341097499e-01,-5.618466466600385845e-01,8.764184032531199264e-01,1.627259792275232986e-01,-4.114444719791554789e-04,1.017313964069235660e-01,1.322035193443298340e+00
-3.312264258694828239e-02,-7.689268249789520393e-01,8.964802015985023909e-01,8.465041054637363616e-02,1.217792032802967987e-02,3.812716216645056343e-03,1.453120946884155273e+00
-5.288559101979548038e-02,-9.575664287402224639e-01,1.062730269999778487e+00,1.552502087522042717e-01,-6.872944256742175018e-02,-6.138487486720155262e-02,1.780479073524475098e+00
-4.871785812246097469e-02,-7.493338060414957980e-01,8.954913988577590800e-01,5.460650018133467176e-02,1.655690980155732905e-02,-1.572176606808570187e-02,1.433328747749328613e+00
-7.423973082490001318e-02,-6.053386719272899619e-01,9.042564249875946203e-01,2.061011778609524447e-01,-7.119612574135744144e-03,1.294795655677806988e-02,1.373785734176635742e+00
-4.940217974378412202e-02,-7.243157691320146752e-01,8.843932176730426864e-01,6.216919419982748496e-02,2.682156263163894272e-02,4.334355557000464654e-02,1.406094789505004883e+00
-2.108207890375654592e-01,-8.736811358714713371e-01,1.456168803067059425e+00,3.019593920479556326e-01,-8.555008518441623022e-02,1.694042365392576521e-01,2.169056892395019531e+00
-9.810220576472536425e-02,-7.509491930172476071e-01,9.175455532350619281e-01,2.863057906055956059e-02,2.082849866901648542e-02,4.239838103765413563e-02,1.459440231323242188e+00
3.655103139678705926e-02,-9.803932521147753487e-01,7.936293652335466575e-01,-9.707989843103463981e-03,-1.944616589949912239e-02,1.009145438927967417e-02,1.542391777038574219e+00
-2.997530126776860177e-02,-9.988984456842542325e-01,7.948597113715631934e-01,-9.889880616937466590e-03,-2.500246284099634231e-01,-2.063104939451311862e-02,1.614767432212829590e+00
-3.091737694425843869e-02,-9.982836967003547723e-01,8.225377108494021927e-01,4.139850969901061740e-04,-1.555769744765358731e-01,4.514555052423592144e-05,1.600749850273132324e+00
2.253526904540944509e-01,-1.132906797438903324e+00,3.274341476375937088e-01,-1.391946520828645645e-02,-3.800984324719277607e-01,6.595363207525237192e-02,1.562369346618652344e+00
4.265815673126967245e-02,-1.028061324275824306e+00,7.331880787756852591e-01,6.267205847103643479e-02,-1.689339133101855073e-01,-1.089215538090465563e-02,1.568563342094421387e+00
1.022899969306767104e-01,-9.199034991484990043e-01,4.433714592726078485e-01,9.519219377468308117e-04,-1.030853550402468510e-01,-2.188290901067796446e-02,1.242250561714172363e+00
-4.476051788473855292e-02,-6.723093866042417766e-01,8.594649920362232853e-01,6.359239727162818712e-02,2.334209910118311294e-03,-3.436658074959136975e-03,1.338308930397033691e+00
8.290252616735489799e-02,-9.252049958973623811e-01,5.473658276532170630e-01,9.991844861699801517e-03,-1.626464745535755388e-02,-4.519845047776981789e-02,1.306697249412536621e+00
-1.840667826229276938e-01,-4.825379763084434726e-01,9.634002511340016284e-01,2.150923330014275492e-01,2.810412849147753134e-02,-1.223204488359083131e-01,1.390791893005371094e+00
-1.584450113535849636e-01,-5.485261357779644964e-01,8.654709545165221174e-01,4.087891478294239378e-02,-1.148045620534399007e-02,-6.330373116737500472e-02,1.271773695945739746e+00
-1.864722641091246524e-01,-3.663853402528454706e-01,9.576532001716926423e-01,3.623718964657661190e-01,6.931617827808836396e-02,-1.786152796850769622e-02,1.398766040802001953e+00
-1.991720136873521008e-01,-4.149898068181111510e-01,8.465334522912799642e-01,7.206215477977567438e-03,-1.191635406834295552e-03,-1.800764013533915839e-02,1.169141530990600586e+00
-1.922530503994932527e-01,-2.885306321408778185e-01,8.213786169634169632e-01,-2.508221239945966023e-03,-1.341071342269268933e-02,-1.940884286853358093e-02,1.065831661224365234e+00
-1.403002746869789763e-01,-3.506365656421385757e-01,8.947154021348200370e-01,2.518822170117488990e-01,-3.004628576341623371e-03,5.274557018012510784e-02,1.237702488899230957e+00
-1.762762352352054418e-01,-4.520985302791318272e-01,8.419717271372866296e-01,6.178559982407482755e-03,-8.154951616232204714e-03,-2.426933632445625426e-03,1.180717587471008301e+00
-1.844800931070390559e-01,-4.519059042031144946e-01,8.399453203062231532e-01,-4.609317070070281103e-03,-8.756264971071360623e-04,9.369703906873715071e-03,1.181207537651062012e+00
-5.205427048335259377e-02,-7.752985501015854375e-01,9.336417415860797098e-01,-9.303402854778983211e-02,-1.389179554176076144e-02,1.290030059753359201e-02,1.494865298271179199e+00
-2.301561600874926505e-01,-2.706857661527153347e-01,8.979929829237850436e-01,-1.725458587032012089e-02,-2.284000994781008528e-02,-5.946963796401858078e-03,1.150065541267395020e+00
-5.664706547302007095e-02,-8.109546088270210840e-01,9.639293371355600604e-01,1.001815162505027001e-01,-1.687884068486020586e-02,-2.169677503208005190e-02,1.553306341171264648e+00
1.683760232875121943e-01,-9.138983938471199053e-01,3.654517688910154938e-01,8.632040942559024432e-03,-3.773840122771841138e-02,-1.616816491944849526e-02,1.195293784141540527e+00
1.639716455200231418e-02,-9.249054852988760622e-01,9.314972767618925342e-01,3.793731399545605121e-02,-1.039059150828680264e-02,4.160422539121858584e-04,1.609188318252563477e+00
3.743888656026937711e-02,-9.447909116312958044e-01,6.894510130879633047e-01,2.458898336788474439e-03,-2.962407283729127667e-03,-3.118688108020800306e-03,1.424919128417968750e+00
1.182828513775728008e-01,-9.014947637770814870e-01,4.825469441160427087e-01,-4.985814779364505962e-03,-2.367143331147962895e-02,3.628943409345448522e-03,1.243341565132141113e+00
-1.840322858604586387e-01,-4.330047513776443813e-01,8.280179339737563371e-01,-9.752491448739740096e-03,-2.294874262130583431e-03,-6.711138340640487344e-03,1.156996846199035645e+00
-1.581809532300892940e-01,-4.627989900358380759e-01,8.443127341339213832e-01,-6.678635384520353879e-02,-4.992865384017154858e-03,3.366277119099454068e-02,1.191645503044128418e+00
-1.286197065439651510e-01,-4.951572397110758361e-01,8.372939069561669001e-01,-7.326899279296457401e-02,7.722896896958550764e-03,3.562251178915376766e-04,1.199027419090270996e+00
-2.429287263156884244e-02,-8.346097737076777490e-01,9.171608923969633009e-01,4.565619682951789667e-03,1.126467927130061358e-02,8.582350490638813306e-03,1.518712878227233887e+00
-2.015856419185942938e-01,-4.212839780226332320e-01,8.557090443890187359e-01,1.096178305927412132e-02,-5.466196068528078600e-03,5.488316328351106749e-03,1.182778835296630859e+00
-1.975008667915756910e-01,-2.797845143498585152e-01,8.171965335270602315e-01,9.679756353210305919e-03,-5.011372274143253286e-03,1.447831144354577368e-02,1.058706641197204590e+00
-8.830528214459644476e-02,-5.728824285290049501e-01,8.711165141554566560e-01,-1.598202592382930165e-01,-1.054382596678928724e-02,-2.033858987369934618e-02,1.303234815597534180e+00
-5.798041180294214586e-02,-6.517216061228903179e-01,8.693398398556939632e-01,-6.136307770863019817e-02,4.267669959554594612e-03,-1.493014102411510842e-02,1.332313537597656250e+00
-2.017068039798473600e-01,-3.788737540753675526e-01,9.148364554869202747e-01,-9.901654302661525020e-02,4.241169841963095960e-03,2.028184997116605839e-02,1.227425098419189453e+00
-2.135208907320572669e-01,-2.061613374672838228e-02,9.188545663177599687e-01,8.357191352476738000e-02,4.172397031177548649e-02,6.869553999960417712e-02,1.068353176116943359e+00
-4.875593401168047680e-02,-9.898970222781949824e-01,9.571415085668648626e-01,-3.208169443524213748e-03,1.742919008653321875e-03,-3.132066444665564976e-03,1.686516284942626953e+00
-5.509268857956563931e-02,-9.871517032844020489e-01,9.547582288641948134e-01,-6.400770384759135213e-03,-4.721922949928461337e-03,-7.311562882554812834e-03,1.682297110557556152e+00
-3.579084274109300967e-02,-9.970197205131585694e-01,9.666551315570210967e-01,-2.596775662250220326e-03,-1.751003044821517049e-04,-1.359433619690222483e-03,1.700724720954895020e+00
-3.782607783199247453e-02,-9.957493889139424903e-01,9.641724156639744914e-01,9.765359850038731989e-05,-2.470212616819273668e-04,-1.827887409147623216e-05,1.697485208511352539e+00
-1.445953270649114053e-01,-7.545199877399587640e-01,9.406795362711393160e-01,-8.388514722505835408e-02,1.120696722503294624e-03,1.622673836530416289e-02,1.494546532630920410e+00
-3.431438150818113403e-02,-2.822316546594238473e-01,4.065798136778807637e-01,-1.117149420720395768e-02,3.478402545844044846e-02,4.341689949663853770e-02,6.122215390205383301e-01
-7.020579050275380095e-02,-8.121367919117638001e-01,9.349694530354772937e-01,3.467950183593756543e-03,8.576117322939776771e-03,1.182812048595665161e-01,1.532591819763183594e+00
7.661360607661607536e-02,-6.868424550464001799e-01,2.116016604503058174e-01,4.205465210620800559e-02,-9.188055081587034878e-02,7.812647291564731034e-02,8.678061366081237793e-01
6.243319437390387749e-02,-1.008696283853449893e+00,6.838518311392658422e-01,1.777282271023327559e-02,2.793187904299994015e-02,-1.665133108956925456e-01,1.511809349060058594e+00
-2.727404755619942944e-02,-1.877101008341682142e+00,1.593902361740862750e+00,-2.773046529029382090e-01,2.089626022810263384e-02,2.311651775587779678e-01,3.072667360305786133e+00
2.720468062318730229e-02,-1.145981647349201271e+00,7.618167506215874907e-01,1.510052397321417529e-03,3.113565323428926224e-01,-2.710265549505353616e-02,1.752397537231445312e+00
-1.104282232417047455e-01,-1.224108194693109164e+00,1.283624133954930358e+00,4.061058832819185865e-02,3.666772642397386761e-02,-2.336337059329292656e-02,2.178718090057373047e+00
-7.200154926144820833e-02,-1.043935842485224752e+00,9.754387221524782881e-01,-1.066882649262564098e-02,-9.650468850481745686e-02,-2.564858038028429085e-02,1.757863759994506836e+00
4.596185385949815017e-02,-1.142122825049426194e+00,7.558688983529187055e-01,-6.266645264572536130e-03,2.166145074393424075e-01,4.652957053131016874e-02,1.704793572425842285e+00
-7.455050897738967064e-02,-1.152670838043387214e+00,1.134983366536010063e+00,-2.438933467465421653e-02,9.752844154708789626e-02,-2.628721467567608772e-02,1.990409970283508301e+00
1.165947150477050775e-02,-1.536720910642314752e+00,1.179756299524812757e+00,4.854135369045245452e-02,-1.412797861072970229e-01,1.610518502426195875e-01,2.390680313110351562e+00
-4.607110032217569262e-02,-1.053134843969289580e+00,1.065899841281708449e+00,1.399477654950939285e-03,5.377331168434493734e-03,2.354594452598389107e-03,1.835917115211486816e+00
-2.416902989183793427e-01,-3.022531057077570971e-01,1.347224809443827276e+00,1.053911111421744484e-01,-1.694777655706910385e-02,5.833330564824085358e-03,1.630593061447143555e+00
-1.839964124353550279e-01,-1.655733655715011521e-01,9.095455646298110652e-01,8.245642249660348200e-02,-5.142202700035708451e-02,9.309927600089550059e-03,1.097550392150878906e+00
-4.048512104864285255e-02,-7.686037991201045694e-01,8.957032528661601489e-01,7.294898731242414891e-02,2.169300686653544488e-02,1.966145456255134066e-02,1.451481223106384277e+00
-1.555847808047757797e-01,-3.989793288363437385e-01,9.108508150274710058e-01,2.597800881253131688e-01,-1.122493299876591716e-01,-1.030715923411822110e-01,1.314617276191711426e+00
5.968509967334251209e-03,-9.460888654697451328e-01,7.341133785285778313e-01,-1.193463914167757975e-02,5.279678934132647772e-02,2.583955567035270406e-02,1.463091492652893066e+00
-5.577515513728809743e-02,-7.077853987211993880e-01,8.898757431322983358e-01,5.081243646708807210e-02,2.118950447543433563e-02,3.606205447328834218e-02,1.396044850349426270e+00
-1.538538124529964524e-01,-6.220325654907790103e-01,8.860064714394139118e-01,-2.084179689419119602e-02,-1.063140944137350510e-02,-1.525411610095696487e-02,1.337789773941040039e+00
-9.601079835674976304e-02,-6.854197314916423700e-01,8.935542690062290294e-01,6.003724591368555900e-03,2.606530051225022793e-02,3.348703266758972646e-02,1.383983731269836426e+00
-1.384489814918364037e-01,-5.488648431947099615e-01,8.581537479097867127e-01,4.201623947502972772e-02,-3.357337483440296535e-04,-1.058457130961606811e-02,1.255512714385986328e+00
-2.324299824936411699e-02,-8.957941660882138279e-01,9.315331966228634908e-01,-8.367322747025288110e-02,3.939836161106194390e-02,2.736006651062043021e-02,1.591835498809814453e+00
-3.617307009045007266e-02,-9.838859007366824727e-01,9.777721784791904014e-01,-6.314014444212804299e-03,1.756371282576563663e-04,-1.003245433627099337e-02,1.699292540550231934e+00
-1.129785566621915177e-02,-8.496582673429977639e-01,7.692717535313617905e-01,-6.853518655237167412e-02,7.368000439334514151e-02,-7.802356664386745147e-03,1.413186430931091309e+00
-7.396055061036058142e-02,-8.500474243394630092e-01,9.022613876335119354e-01,-3.265833302669068905e-01,1.431985887924736023e-01,-3.508023817757387891e-02,1.642599344253540039e+00
-5.545883300331099636e-02,-8.012633849068904190e-01,9.767781130172874526e-01,-2.576290894613397775e-01,1.345764165767988907e-01,-3.575205331308116408e-02,1.627534866333007812e+00
-2.202581462151109032e-02,-1.354185816022948519e+00,1.158404218362130811e+00,-2.955405593829837918e-01,2.197832346782721546e-01,-6.909328480734285016e-02,2.271971702575683594e+00
1.085766469680252144e-01,-1.092564971635959115e+00,5.725182044927312752e-01,4.234190429998104920e-04,3.386420045113979760e-01,-1.455930503598428793e-01,1.619527816772460938e+00
2.631337427974780874e-02,-9.906308338904308286e-01,7.239704604434058499e-01,1.951379478938993547e-03,3.873759171800666284e-02,3.437038860627383841e-02,1.496140480041503906e+00
1.432806187013619947e-01,-7.750852329474213764e-01,2.610273528854470393e-01,1.636122268491004006e-01,2.299081954284518114e-01,-4.899457953549285483e-02,1.100670814514160156e+00
3.715052952437390699e-02,-9.465618011298766454e-01,6.758364737610239592e-01,-1.993853470426597968e-02,6.347913448905975753e-02,2.980480289049212278e-02,1.421210527420043945e+00
-8.804682877915359640e-04,-1.018996997771103530e+00,7.718428759575004516e-01,-7.142625929326408031e-03,2.282637215936978159e-01,8.404748655155416803e-02,1.611844658851623535e+00
-1.251746520552745982e-02,-1.019311048039212908e+00,1.005519912606269717e+00,4.536938737726152644e-03,3.018922040801911601e-03,-1.019466184224157232e-02,1.753678321838378906e+00
5.586159601004081834e-03,-1.064933949395198365e+00,1.030664801517721996e+00,-3.104996701409452886e-02,-4.369459727734789981e-03,1.204201707486876258e-02,1.815916180610656738e+00
-1.708716527805438645e-02,-1.057438465908889125e+00,1.051186763158125537e+00,-3.446358369008872824e-02,-2.278124082716221493e-02,-2.478157014619963155e-03,1.827582716941833496e+00
1.007134750457716194e-01,-9.541241612397616256e-01,5.192691786726462144e-01,-2.040271786548521898e-02,-1.329553018096164274e-01,2.459617994971543750e-02,1.336216568946838379e+00
1.282230571114442164e-01,-1.065453108321482434e+00,5.188387091142858676e-01,1.766400050281777961e-02,-1.638299963443654861e-01,8.815072308386928679e-02,1.465769529342651367e+00
-5.051442465381846686e-02,-9.471318796084656766e-01,8.172461971926570090e-01,-4.700803829040480289e-03,-3.859898980085172543e-02,-1.097393591846603086e-03,1.529549002647399902e+00
-3.037793186058693889e-02,-1.176978024517039367e+00,9.993349065674895781e-01,-4.497758910367390117e-02,-2.121108395401002378e-01,-1.128217255255595242e-02,1.922782659530639648e+00
-6.685104002490081798e-03,-9.687727802768549834e-01,8.240498469342946164e-01,1.187555096588529917e-02,-2.595781302757581288e-02,2.392558540378349891e-02,1.555356860160827637e+00
1.270332986580957613e-01,-1.372329261384622745e+00,7.972892940258285988e-01,7.927544043122976281e-02,-3.764294212776464477e-01,3.991739880040830191e-02,2.037405014038085938e+00
3.224558022628474241e-01,-1.613916712366524120e+00,5.387688084986063108e-01,-2.934780038304762306e-01,-3.540095332365613690e-01,-8.373442333293909523e-02,2.206939697265625000e+00
6.724477795491767829e-02,-1.206960348799496430e+00,7.985392731884332074e-01,-2.529664351968922975e-02,-2.963591370182139251e-01,1.071841598410211704e-01,1.841217160224914551e+00
1.552281693391534267e-01,-9.895854457451436215e-01,3.555378859696634031e-01,-6.715614944837323963e-02,-1.966020080062738373e-01,1.057997858678762365e-01,1.320267796516418457e+00
-3.864711250143036680e-02,-9.723495227922485107e-01,9.192670887372561550e-01,-9.234036615661536662e-03,-5.154124505858724212e-03,-1.331336469311391116e-02,1.638497471809387207e+00
-2.802302823373249013e-02,-9.588439818216066834e-01,9.510094913630893210e-01,1.034492724357142027e-02,1.459224921348428392e-02,8.393220295538843245e-03,1.654511213302612305e+00
-2.632993237064109107e-02,-9.929636821499623345e-01,9.654930115720368189e-01,-2.414311030385112543e-03,7.651955278875984152e-03,-2.308236958241902462e-03,1.696181654930114746e+00
-8.978157008356243279e-03,-9.957269158284912658e-01,9.648182271944066857e-01,6.354187083642900621e-03,5.268403276074566698e-04,-3.227643056251517425e-03,1.697939395904541016e+00
-2.908468866168143624e-02,-9.975329626990755427e-01,9.658767527646209272e-01,4.850538332582897253e-04,4.774417015694855555e-03,-4.475643770859615901e-04,1.700434803962707520e+00
-2.787391298064649525e-02,-9.943067083458374533e-01,9.640581343118785895e-01,7.936508060967376651e-04,1.838465597010352243e-03,-4.624079319703042808e-05,1.696045160293579102e+00
-1.426577716345129795e-02,-9.959880505992915189e-01,9.638614795628571708e-01,-1.651398560411885836e-03,9.062573545369934092e-03,-3.389921919184352280e-04,1.697355508804321289e+00
-1.534650628811933676e-02,-9.948745992461708321e-01,9.627217127069244151e-01,1.137989939549012043e-02,5.110011019556515502e-03,4.641577017775546689e-03,1.695484995841979980e+00
-8.062430276585083599e-03,-1.041325720741452354e+00,1.015292210186318878e+00,3.316337970802270534e-03,-1.341771914971962736e-04,4.457310174536020103e-03,1.781116247177124023e+00
-2.570156538909966221e-03,-9.469204553726042750e-01,9.464836312716130573e-01,2.664748641127060932e-02,2.379342732422704693e-02,2.273124093987401173e-02,1.641377091407775879e+00
-1.770823819816932931e-01,-4.813200699295296925e-01,1.019875796453918460e+00,3.104291171971903518e-01,6.891326793922666893e-03,-5.023839806791129126e-02,1.478594660758972168e+00
-2.263233745619899762e-01,-1.028791972518268150e+00,1.358569149119285058e+00,5.000641136551225996e-01,-1.206683101805309903e-03,2.914453074420512296e-03,2.275497436523437500e+00
-3.721522138854198303e-02,-9.501032717455282217e-01,9.465543196440785456e-01,-1.391261014718060685e-02,1.437142207231018737e-02,-4.957874333238429174e-03,1.643323659896850586e+00
-3.746210017677850668e-02,-9.844991730483151349e-01,9.567992078339131456e-01,1.529003830124097633e-03,5.697941761572818467e-03,1.590861866365004314e-03,1.681412816047668457e+00
-3.971579663094298301e-02,-9.622623943884038855e-01,9.488720908245303898e-01,-5.332618577124212909e-03,5.451583205932423321e-03,-3.965489522335753636e-03,1.655487298965454102e+00
-3.791077797744606126e-02,-9.801729580562543731e-01,9.506113736098679157e-01,3.090697643080031823e-03,-4.030259041953602496e-03,7.494766210375393249e-03,1.672341823577880859e+00
-3.008209219929067896e-02,-9.826520133555722847e-01,9.093517943191203878e-01,1.052454683918161230e-02,2.580865542605937507e-03,1.010864457351006926e-02,1.638737559318542480e+00
-2.659465579408500091e-02,-9.830662109988200781e-01,9.135238163172766379e-01,8.685126694657735458e-03,-4.208867076791458425e-03,1.215315696627784943e-02,1.642735481262207031e+00
-3.441804996627484403e-02,-9.784104180733838030e-01,9.442106082802763645e-01,4.298071680692199317e-03,9.482412568827324612e-03,-3.209575088175422794e-03,1.665235638618469238e+00
-2.894946570983124301e-03,-9.525396463666764291e-01,8.347662820182701893e-01,-5.529608472485945427e-03,-1.529658826507212903e-02,1.050629502171860491e-02,1.549227833747863770e+00
-2.842225066837000130e-02,-9.493385057655414627e-01,9.537174387626800032e-01,-9.270339992549904082e-03,-1.602640640342673298e-02,-4.695472972358986745e-03,1.648710966110229492e+00
-5.181468780430772969e-02,-9.835764854058540729e-01,9.430139290403061203e-01,-2.413811558139637400e-05,-2.235176310625367618e-03,1.125637701731939128e-03,1.668779850006103516e+00
-1.268278664785544435e-02,-8.512158952220312269e-01,9.177290423803782238e-01,-2.729479899510343921e-02,-1.822677757999417378e-02,1.622559427552066474e-02,1.533951282501220703e+00
-1.287963897326155072e-01,-6.974225957170805401e-01,9.107876374713477219e-01,-3.914152201018814003e-02,-3.454180088487409078e-03,-1.111011240725714826e-02,1.414286971092224121e+00
-2.239354080531234456e-02,-1.045504721815731841e+00,1.058303275961358647e+00,-1.864132394563009637e-02,-1.041165987100426023e-02,1.920631723509071132e-02,1.822857499122619629e+00
-4.010805260816697332e-03,-9.649237877742589120e-01,9.517927986161851539e-01,-1.485973384744638387e-02,-1.951319748245476660e-02,6.044550888691466867e-03,1.660503745079040527e+00
7.472678927926827350e-03,-9.884154071175447198e-01,9.575328495071651069e-01,-2.138752676432920802e-03,-3.979163124887417219e-03,-2.254162888410686256e-03,1.685419082641601562e+00
2.649019547980903735e-02,-9.661193950603093050e-01,9.408697091369893073e-01,-2.193497847182856401e-03,-6.603124800148845765e-03,-6.791819531766673981e-05,1.652008175849914551e+00
-9.215603784040373586e-03,-8.892673763253488017e-01,9.262327574234815453e-01,-2.791071239384613351e-02,-1.797496727794632015e-02,-4.791345394105651564e-03,1.573585987091064453e+00
9.274433492782149790e-02,-9.350833331195217424e-01,5.818961909426682011e-01,-6.336918393899933916e-03,-1.891181057262628779e-02,-1.874350793280237654e-02,1.341905474662780762e+00
1.393598993056869018e-01,-1.017810685005552829e+00,4.790226175934457764e-01,1.084088937704713769e-02,3.168224906076169689e-02,-1.463045977647012275e-01,1.383850097656250000e+00
8.129972483597316946e-02,-9.352511084641876860e-01,5.498197832658648920e-01,-5.732209809203085010e-03,5.158484350060085592e-03,-7.231200127981360359e-02,1.320994496345520020e+00
5.815934075937506664e-02,-9.460365353736688299e-01,6.644243203321789082e-01,-8.714443725862712486e-03,5.163309094189823083e-03,1.839341079816712507e-02,1.409289956092834473e+00
9.545041206920067134e-02,-9.385244523543402329e-01,5.919375333015747254e-01,1.036533740971823207e-02,3.908765953833000240e-02,-4.740296649592168343e-02,1.356689214706420898e+00
6.348201848815471227e-02,-9.361413558441317173e-01,6.064488456303445130e-01,-7.218228079351400595e-03,4.860739601180048830e-02,-7.885512345877119383e-03,1.358032822608947754e+00
-4.224296203514175951e-02,-9.612531928499878919e-01,8.299575093016309246e-01,-1.259660031557382001e-02,1.500817602396300465e-01,2.074803612476750284e-02,1.573599576950073242e+00
1.306017068128390024e-01,-1.068357861528125285e+00,5.712559202943138237e-01,-7.791142401443875570e-03,1.667050744897420889e-01,5.872792484471877489e-02,1.501301884651184082e+00
1.031193768483319728e-02,-9.325849849602846353e-01,7.052717892441668912e-01,-3.245567443917574992e-03,5.554549511711134868e-02,-4.072205892094608870e-03,1.427107810974121094e+00
