sxx,syy,szz,sxy,sxz,syz,smises
6.924365934661551314e-02,6.924365934661551314e-02,2.288026813067694509e-01,6.578830052431185827e-37,3.374700060551754752e-37,3.374700060551519215e-37,1.595590263605117798e-01
