sxx,syy,szz,sxy,sxz,syz,smises
1.395737764875913944e-01,1.395737764875913944e-01,2.385588690431662273e-01,-6.217409673988797537e-38,-3.388488272323944615e-38,-3.388488272323845431e-38,9.898509085178375244e-02
