sxx,syy,szz,sxy,sxz,syz,smises
1.589773871999733412e-02,1.589773871999733412e-02,2.790749285703521959e-02,-2.859213784774467062e-52,-1.443902961311124494e-52,-1.443902961311043448e-52,1.200975384563207626e-02
