sxx,syy,szz,sxy,sxz,syz,smises
0.000000000000000000e+00,0.000000000000000000e+00,0.000000000000000000e+00,1.186945968219974662e-68,-8.308621777539814811e-68,-9.495567745759866481e-68,0.000000000000000000e+00
